Coordinates.Image X [Pixel],Coordinates.Image Y [Pixel],coor.X [mm],coor.Y [mm],coor.Z [mm],disp.Horizontal Displacement U [mm],disp.Vertical Displacement V [mm],disp.Out-Of-Plane: W [mm],disp.Displacement Magnitude [mm],stats.Sigma [mm],stats.Epipolar Distance [Pixel],stats.Shape Index [-],SameCamera.Horizontal: u [Pixel],SameCamera.Vertical: v [Pixel],SameCamera.Correlation Value 2D [-],CrossCamera.Horizontal: q [Pixel],CrossCamera.Vertical: r [Pixel],CrossCamera.Correlation Value Persp [-],strain.Strain-global frame: Exx [ ],strain.Strain-global frame: Eyy [ ],strain.Strain-global frame: Exy [ ],strain.Maximum Principal Strain: EI [ ],strain.Minimum Principal Strain: EII [ ],strain.Shear Angle Gamma [deg],strain.Von Mises Equivalent Strain [ ],defgradient.F[0,0] [-],defgradient.F[0,1] [-],defgradient.F[0,2] [-],defgradient.F[1,0] [-],defgradient.F[1,1] [-],defgradient.F[1,2] [-],defgradient.F[2,0] [-],defgradient.F[2,1] [-],defgradient.F[2,2] [-],ext.Current Image [#]
929,1317,5.68350E+000,-1.10504E+000,7.26072E-002,6.01957E+000,-4.88680E-001,1.59328E-001,6.04147E+000,1.30527E-002,4.63272E-001,0,9.16868E+001,-8.70273E+000,9.98632E-001,4.82855E+001,-4.25459E+001,9.97450E-001,1.63673E-001,-6.86482E-002,-2.26410E-004,1.63674E-001,-6.86484E-002,-5.58379E-002,1.64381E-001,1.17779E+000,-1.91780E-002,0.00000E+000,1.61230E-002,9.38029E-001,0.00000E+000,-1.55463E-002,-9.81967E-002,1.00000E+000,25
919,1307,4.91453E+000,-1.71278E+000,1.45999E-001,5.91715E+000,-4.47140E-001,2.37516E-001,5.93877E+000,1.58257E-002,5.01005E-001,0,8.99210E+001,-8.19514E+000,9.97240E-001,4.64484E+001,-4.21786E+001,9.95034E-001,1.66968E-001,-6.83671E-002,-8.22955E-004,1.66971E-001,-6.83699E-002,-2.00357E-001,1.67881E-001,1.18169E+000,-1.69521E-002,0.00000E+000,1.31086E-002,9.38429E-001,0.00000E+000,-1.43906E-002,-9.92139E-002,1.00000E+000,25
919,1317,4.90090E+000,-1.12732E+000,3.12022E-002,5.90071E+000,-4.96680E-001,1.73631E-001,5.92412E+000,1.84442E-002,4.71309E-001,0,8.99031E+001,-8.85879E+000,9.96008E-001,4.60882E+001,-4.28993E+001,9.94116E-001,1.64801E-001,-6.83740E-002,-1.03325E-003,1.64805E-001,-6.83785E-002,-2.53883E-001,1.65599E-001,1.17911E+000,-1.69634E-002,0.00000E+000,1.25873E-002,9.38427E-001,0.00000E+000,-1.26264E-002,-9.92062E-002,1.00000E+000,25
919,1327,4.90642E+000,-5.32021E-001,-2.58072E-002,5.88910E+000,-5.48452E-001,1.01490E-001,5.91546E+000,1.40291E-002,5.24646E-001,0,8.99743E+001,-9.53922E+000,9.98164E-001,4.61474E+001,-4.35473E+001,9.96478E-001,1.62605E-001,-6.83893E-002,-1.26938E-003,1.62612E-001,-6.83963E-002,-3.14844E-001,1.63294E-001,1.17650E+000,-1.70316E-002,0.00000E+000,1.20609E-002,9.38413E-001,0.00000E+000,-1.08451E-002,-9.91596E-002,1.00000E+000,25
929,1307,5.69262E+000,-1.69037E+000,1.74634E-001,6.03587E+000,-4.35734E-001,2.30334E-001,6.05596E+000,1.32245E-002,5.00729E-001,0,9.16791E+001,-8.00813E+000,9.98804E-001,4.85481E+001,-4.17938E+001,9.97724E-001,1.65891E-001,-6.86474E-002,-1.81872E-004,1.65891E-001,-6.86475E-002,-4.44298E-002,1.66711E-001,1.18044E+000,-1.91485E-002,0.00000E+000,1.63489E-002,9.38032E-001,0.00000E+000,-1.77156E-002,-9.82208E-002,1.00000E+000,25
929,1327,5.68107E+000,-5.06515E-001,1.09737E-003,6.00370E+000,-5.32499E-001,8.99974E-002,6.02794E+000,1.19734E-002,4.68460E-001,0,9.16858E+001,-9.28100E+000,9.98851E-001,4.81920E+001,-4.31369E+001,9.97971E-001,1.61441E-001,-6.86493E-002,-2.81949E-004,1.61441E-001,-6.86497E-002,-7.02092E-002,1.62042E-001,1.17513E+000,-1.92333E-002,0.00000E+000,1.58967E-002,9.38025E-001,0.00000E+000,-1.33723E-002,-9.81515E-002,1.00000E+000,25
939,1307,6.46298E+000,-1.67306E+000,1.53055E-001,6.15189E+000,-4.25334E-001,1.98362E-001,6.16977E+000,1.42108E-002,5.08635E-001,0,9.34856E+001,-7.79555E+000,9.98929E-001,5.04268E+001,-4.13782E+001,9.97941E-001,1.64602E-001,-6.81347E-002,2.87163E-004,1.64603E-001,-6.81351E-002,7.06945E-002,1.65413E-001,1.17892E+000,-2.17757E-002,0.00000E+000,1.95282E-002,9.38321E-001,0.00000E+000,-2.01301E-002,-9.66775E-002,1.00000E+000,25
939,1317,6.45306E+000,-1.08530E+000,6.25733E-002,6.13400E+000,-4.75786E-001,1.35478E-001,6.15391E+000,1.42437E-002,4.30050E-001,0,9.34409E+001,-8.46036E+000,9.98487E-001,5.01772E+001,-4.21359E+001,9.96992E-001,1.62598E-001,-6.81335E-002,2.76668E-004,1.62598E-001,-6.81338E-002,6.87027E-002,1.63308E-001,1.17651E+000,-2.18056E-002,0.00000E+000,1.93478E-002,9.38319E-001,0.00000E+000,-1.77117E-002,-9.66475E-002,1.00000E+000,25
939,1327,6.45283E+000,-4.80178E-001,1.59813E-003,6.11867E+000,-5.16278E-001,6.98849E-002,6.14081E+000,1.17390E-002,4.58910E-001,0,9.34341E+001,-8.97555E+000,9.98352E-001,5.01403E+001,-4.26336E+001,9.97295E-001,1.60570E-001,-6.81317E-002,2.54866E-004,1.60571E-001,-6.81320E-002,6.38505E-002,1.61183E-001,1.17408E+000,-2.18622E-002,0.00000E+000,1.91662E-002,9.38315E-001,0.00000E+000,-1.52763E-002,-9.65907E-002,1.00000E+000,25
919,1337,4.91967E+000,7.60319E-002,-4.81846E-002,5.88031E+000,-5.88992E-001,4.09106E-002,5.90988E+000,1.29220E-002,4.81190E-001,0,9.00399E+001,-1.00521E+001,9.97730E-001,4.64023E+001,-4.41218E+001,9.97126E-001,1.60403E-001,-6.84076E-002,-1.51391E-003,1.60413E-001,-6.84177E-002,-3.79070E-001,1.60990E-001,1.17390E+000,-1.71195E-002,0.00000E+000,1.15349E-002,9.38395E-001,0.00000E+000,-9.06536E-003,-9.90996E-002,1.00000E+000,25
929,1337,5.68972E+000,9.49029E-002,-3.69970E-002,5.99274E+000,-5.79032E-001,2.57961E-002,6.02070E+000,1.19392E-002,4.55381E-001,0,9.17367E+001,-9.88096E+000,9.99054E-001,4.83403E+001,-4.37638E+001,9.98365E-001,1.59189E-001,-6.86507E-002,-3.48585E-004,1.59189E-001,-6.86513E-002,-8.76599E-002,1.59690E-001,1.17245E+000,-1.93138E-002,0.00000E+000,1.56692E-002,9.38018E-001,0.00000E+000,-1.11879E-002,-9.80857E-002,1.00000E+000,25
939,1337,6.45952E+000,1.21317E-001,-3.66385E-002,6.10661E+000,-5.61714E-001,1.01223E-002,6.13240E+000,1.04938E-002,4.67686E-001,0,9.34547E+001,-9.58874E+000,9.98910E-001,5.02573E+001,-4.32467E+001,9.98447E-001,1.58533E-001,-6.81298E-002,2.26949E-004,1.58533E-001,-6.81300E-002,5.73680E-002,1.59054E-001,1.17166E+000,-2.19324E-002,0.00000E+000,1.89847E-002,9.38309E-001,0.00000E+000,-1.28418E-002,-9.65202E-002,1.00000E+000,25
949,1317,7.22945E+000,-1.05641E+000,6.52514E-002,6.25343E+000,-4.56464E-001,1.18520E-001,6.27119E+000,2.05438E-002,4.63365E-001,0,9.52415E+001,-8.13871E+000,9.96653E-001,5.22065E+001,-4.15778E+001,9.94782E-001,1.61480E-001,-6.75437E-002,6.88394E-004,1.61483E-001,-6.75458E-002,1.72216E-001,1.62200E-001,1.17518E+000,-2.41524E-002,0.00000E+000,2.21359E-002,9.38628E-001,0.00000E+000,-1.94583E-002,-9.45093E-002,1.00000E+000,25
949,1327,7.22397E+000,-4.54400E-001,-2.77254E-003,6.23394E+000,-4.98158E-001,5.11891E-002,6.25402E+000,1.79728E-002,4.57092E-001,0,9.51806E+001,-8.67235E+000,9.97412E-001,5.20737E+001,-4.21249E+001,9.96154E-001,1.59791E-001,-6.75385E-002,7.12884E-004,1.59793E-001,-6.75408E-002,1.79672E-001,1.60429E-001,1.17314E+000,-2.41967E-002,0.00000E+000,2.20072E-002,9.38625E-001,0.00000E+000,-1.67230E-002,-9.44499E-002,1.00000E+000,25
949,1337,7.22897E+000,1.47104E-001,-3.49910E-002,6.22069E+000,-5.43637E-001,4.08660E-004,6.24440E+000,1.33311E-002,4.64470E-001,0,9.51534E+001,-9.30172E+000,9.98227E-001,5.21760E+001,-4.27501E+001,9.97413E-001,1.58086E-001,-6.75325E-002,7.31501E-004,1.58089E-001,-6.75349E-002,1.85761E-001,1.58647E-001,1.17110E+000,-2.42543E-002,0.00000E+000,2.18782E-002,9.38622E-001,0.00000E+000,-1.39810E-002,-9.43724E-002,1.00000E+000,25
949,1307,7.24206E+000,-1.65052E+000,1.53455E-001,6.27373E+000,-4.11553E-001,1.77347E-001,6.28971E+000,1.63773E-002,4.99237E-001,0,9.53370E+001,-7.54203E+000,9.97903E-001,5.24920E+001,-4.09358E+001,9.96717E-001,1.63155E-001,-6.75477E-002,6.55506E-004,1.63157E-001,-6.75496E-002,1.62796E-001,1.63959E-001,1.17721E+000,-2.41281E-002,0.00000E+000,2.22642E-002,9.38630E-001,0.00000E+000,-2.21846E-002,-9.45420E-002,1.00000E+000,25
909,1317,4.13658E+000,-1.14275E+000,2.74653E-002,5.78810E+000,-5.04310E-001,1.72202E-001,5.81258E+000,1.74543E-002,4.53919E-001,0,8.82552E+001,-8.98074E+000,9.94756E-001,4.42581E+001,-4.32382E+001,9.92955E-001,1.65944E-001,-6.89252E-002,-1.92676E-003,1.65960E-001,-6.89410E-002,-4.69986E-001,1.66750E-001,1.18046E+000,-1.46302E-002,0.00000E+000,8.74665E-003,9.37972E-001,0.00000E+000,-9.36603E-003,-9.94583E-002,1.00000E+000,25
909,1327,4.14789E+000,-5.40853E-001,-2.66013E-002,5.78278E+000,-5.50023E-001,1.04773E-001,5.80982E+000,1.40311E-002,4.90599E-001,0,8.84029E+001,-9.55370E+000,9.96329E-001,4.44145E+001,-4.37997E+001,9.96241E-001,1.63822E-001,-6.89384E-002,-2.14694E-003,1.63842E-001,-6.89582E-002,-5.28425E-001,1.64524E-001,1.17795E+000,-1.46937E-002,0.00000E+000,8.29681E-003,9.37961E-001,0.00000E+000,-8.17752E-003,-9.94283E-002,1.00000E+000,25
909,1337,4.15870E+000,7.00091E-002,-4.85872E-002,5.77143E+000,-5.90662E-001,4.36082E-002,5.80174E+000,1.53657E-002,5.40839E-001,0,8.84300E+001,-1.00666E+001,9.97573E-001,4.46334E+001,-4.42869E+001,9.97379E-001,1.61689E-001,-6.89547E-002,-2.37668E-003,1.61713E-001,-6.89792E-002,-5.90324E-001,1.62294E-001,1.17543E+000,-1.47781E-002,0.00000E+000,7.84583E-003,9.37946E-001,0.00000E+000,-6.98600E-003,-9.93884E-002,1.00000E+000,25
909,1307,4.14441E+000,-1.72795E+000,1.44916E-001,5.79771E+000,-4.54705E-001,2.34046E-001,5.82022E+000,1.74148E-002,4.37183E-001,0,8.81767E+001,-8.29870E+000,9.95495E-001,4.45359E+001,-4.25413E+001,9.91294E-001,1.68038E-001,-6.89203E-002,-1.73229E-003,1.68051E-001,-6.89329E-002,-4.18832E-001,1.68952E-001,1.18295E+000,-1.46233E-002,0.00000E+000,9.19175E-003,9.37974E-001,0.00000E+000,-1.05420E-002,-9.94616E-002,1.00000E+000,25
919,1347,4.94046E+000,6.93779E-001,-5.95134E-002,5.87580E+000,-6.23792E-001,-2.35298E-002,5.90887E+000,1.98148E-002,5.13901E-001,0,9.01788E+001,-1.04811E+001,9.98749E-001,4.67980E+001,-4.45339E+001,9.98132E-001,1.58185E-001,-6.84279E-002,-1.76516E-003,1.58198E-001,-6.84416E-002,-4.46261E-001,1.58676E-001,1.17128E+000,-1.72202E-002,0.00000E+000,1.10069E-002,9.38375E-001,0.00000E+000,-7.27836E-003,-9.90308E-002,1.00000E+000,25
929,1347,5.70666E+000,7.05826E-001,-4.81875E-002,5.98490E+000,-6.19660E-001,-3.53236E-002,6.01700E+000,1.10858E-002,4.61916E-001,0,9.18173E+001,-1.04066E+001,9.98995E-001,4.86747E+001,-4.42938E+001,9.98536E-001,1.56922E-001,-6.86524E-002,-4.24654E-004,1.56923E-001,-6.86532E-002,-1.07862E-001,1.57331E-001,1.16977E+000,-1.94156E-002,0.00000E+000,1.54413E-002,9.38009E-001,0.00000E+000,-8.99877E-003,-9.80025E-002,1.00000E+000,25
939,1347,6.47760E+000,7.33239E-001,-3.88617E-002,6.10021E+000,-6.01446E-001,-3.97204E-002,6.12992E+000,1.49598E-002,4.89597E-001,0,9.35190E+001,-1.01308E+001,9.98893E-001,5.06263E+001,-4.37716E+001,9.97836E-001,1.56479E-001,-6.81275E-002,1.89597E-004,1.56479E-001,-6.81277E-002,4.83651E-002,1.56914E-001,1.16922E+000,-2.20241E-002,0.00000E+000,1.88025E-002,9.38303E-001,0.00000E+000,-1.03983E-002,-9.64283E-002,1.00000E+000,25
949,1347,7.25013E+000,7.56064E-001,-3.22842E-002,6.21531E+000,-5.88707E-001,-5.28263E-002,6.24336E+000,1.32530E-002,4.98377E-001,0,9.52463E+001,-9.91113E+000,9.97975E-001,5.26004E+001,-4.33237E+001,9.96807E-001,1.56362E-001,-6.75249E-002,7.38974E-004,1.56365E-001,-6.75274E-002,1.89111E-001,1.56848E-001,1.16905E+000,-2.43381E-002,0.00000E+000,2.17484E-002,9.38617E-001,0.00000E+000,-1.12232E-002,-9.42599E-002,1.00000E+000,25
959,1317,7.99665E+000,-1.03551E+000,4.63013E-002,6.36513E+000,-4.42627E-001,8.85720E-002,6.38112E+000,1.87985E-002,4.80395E-001,0,9.69721E+001,-7.88475E+000,9.97226E-001,5.40535E+001,-4.11060E+001,9.96073E-001,1.60502E-001,-6.68755E-002,7.56186E-004,1.60505E-001,-6.68780E-002,1.90545E-001,1.61246E-001,1.17399E+000,-2.66497E-002,0.00000E+000,2.43012E-002,9.39007E-001,0.00000E+000,-2.01537E-002,-9.22077E-002,1.00000E+000,25
959,1327,7.99487E+000,-4.32929E-001,-1.99883E-002,6.35101E+000,-4.82998E-001,3.10493E-002,6.36942E+000,2.50446E-002,4.79337E-001,0,9.69610E+001,-8.42021E+000,9.98747E-001,5.39813E+001,-4.16429E+001,9.97825E-001,1.59081E-001,-6.68644E-002,8.56297E-004,1.59084E-001,-6.68676E-002,2.17138E-001,1.59756E-001,1.17226E+000,-2.66828E-002,0.00000E+000,2.43002E-002,9.39007E-001,0.00000E+000,-1.73076E-002,-9.21530E-002,1.00000E+000,25
959,1337,8.00165E+000,1.67906E-001,-3.92829E-002,6.33716E+000,-5.31677E-001,-1.67290E-002,6.35944E+000,1.95614E-002,4.64384E-001,0,9.69142E+001,-9.08121E+000,9.97626E-001,5.41362E+001,-4.23157E+001,9.97182E-001,1.57643E-001,-6.68498E-002,9.47393E-004,1.57647E-001,-6.68538E-002,2.41791E-001,1.58252E-001,1.17053E+000,-2.67382E-002,0.00000E+000,2.42992E-002,9.39006E-001,0.00000E+000,-1.44470E-002,-9.20616E-002,1.00000E+000,25
959,1307,8.00567E+000,-1.62620E+000,1.39872E-001,6.38273E+000,-3.92678E-001,1.56302E-001,6.39670E+000,1.42416E-002,4.94336E-001,0,9.69923E+001,-7.23185E+000,9.97756E-001,5.42943E+001,-4.04362E+001,9.96720E-001,1.61911E-001,-6.68851E-002,6.51731E-004,1.61913E-001,-6.68869E-002,1.63206E-001,1.62726E-001,1.17571E+000,-2.66267E-002,0.00000E+000,2.43022E-002,9.39007E-001,0.00000E+000,-2.29964E-002,-9.22457E-002,1.00000E+000,25
959,1347,8.01758E+000,7.73045E-001,-4.46014E-002,6.32847E+000,-5.78329E-001,-6.86210E-002,6.35521E+000,1.39407E-002,4.70914E-001,0,9.69556E+001,-9.72131E+000,9.97720E-001,5.44616E+001,-4.29432E+001,9.97323E-001,1.56193E-001,-6.68335E-002,1.03361E-003,1.56198E-001,-6.68383E-002,2.65529E-001,1.56738E-001,1.16880E+000,-2.68043E-002,0.00000E+000,2.42982E-002,9.39006E-001,0.00000E+000,-1.15834E-002,-9.19525E-002,1.00000E+000,25
909,1347,4.18051E+000,6.84526E-001,-4.61034E-002,5.76605E+000,-6.28196E-001,-1.70156E-002,5.80019E+000,1.75229E-002,5.34567E-001,0,8.85401E+001,-1.05532E+001,9.98606E-001,4.50757E+001,-4.48004E+001,9.97217E-001,1.59555E-001,-6.89738E-002,-2.61434E-003,1.59585E-001,-6.90037E-002,-6.55342E-001,1.60070E-001,1.17291E+000,-1.48817E-002,0.00000E+000,7.39592E-003,9.37927E-001,0.00000E+000,-5.79729E-003,-9.93394E-002,1.00000E+000,25
899,1327,3.38596E+000,-5.40663E-001,9.47936E-003,5.66452E+000,-5.49779E-001,1.07180E-001,5.69215E+000,1.02854E-002,4.89098E-001,0,8.66415E+001,-9.52539E+000,9.97498E-001,4.27149E+001,-4.39768E+001,9.97507E-001,1.64699E-001,-6.93626E-002,-2.88028E-003,1.64735E-001,-6.93980E-002,-7.04919E-001,1.65414E-001,1.17899E+000,-1.24937E-002,0.00000E+000,4.92425E-003,9.37648E-001,0.00000E+000,-5.49421E-003,-1.00086E-001,1.00000E+000,25
899,1337,3.40228E+000,6.57817E-002,-3.92509E-002,5.66257E+000,-5.90440E-001,3.64641E-002,5.69338E+000,1.56827E-002,5.13824E-001,0,8.68467E+001,-1.00324E+001,9.98921E-001,4.29615E+001,-4.44884E+001,9.98607E-001,1.62788E-001,-6.93730E-002,-3.05856E-003,1.62829E-001,-6.94133E-002,-7.54657E-001,1.63417E-001,1.17674E+000,-1.25560E-002,0.00000E+000,4.60368E-003,9.37639E-001,0.00000E+000,-4.91808E-003,-1.00070E-001,1.00000E+000,25
899,1347,3.43200E+000,6.76458E-001,-3.70349E-002,5.66527E+000,-6.31990E-001,-2.45723E-002,5.70047E+000,1.32841E-002,5.02051E-001,0,8.70821E+001,-1.05726E+001,9.98845E-001,4.35267E+001,-4.50642E+001,9.98227E-001,1.60869E-001,-6.93873E-002,-3.24988E-003,1.60915E-001,-6.94331E-002,-8.08470E-001,1.61418E-001,1.17448E+000,-1.26480E-002,0.00000E+000,4.28230E-003,9.37626E-001,0.00000E+000,-4.34049E-003,-1.00046E-001,1.00000E+000,25
899,1317,3.38229E+000,-1.13680E+000,8.39569E-002,5.67351E+000,-5.02620E-001,1.77210E-001,5.69849E+000,1.35643E-002,4.97861E-001,0,8.65383E+001,-8.93439E+000,9.97071E-001,4.27209E+001,-4.33437E+001,9.95513E-001,1.66601E-001,-6.93546E-002,-2.71050E-003,1.66632E-001,-6.93858E-002,-6.58060E-001,1.67407E-001,1.18124E+000,-1.24505E-002,0.00000E+000,5.24405E-003,9.37654E-001,0.00000E+000,-6.06895E-003,-1.00097E-001,1.00000E+000,25
899,1307,3.38110E+000,-1.72384E+000,1.80891E-001,5.67932E+000,-4.50727E-001,2.43109E-001,5.70236E+000,1.37557E-002,4.47189E-001,0,8.63937E+001,-8.22126E+000,9.97172E-001,4.28160E+001,-4.26470E+001,9.94006E-001,1.68493E-001,-6.93492E-002,-2.54937E-003,1.68521E-001,-6.93765E-002,-6.14043E-001,1.69395E-001,1.18348E+000,-1.24265E-002,0.00000E+000,5.56279E-003,9.37658E-001,0.00000E+000,-6.64181E-003,-1.00103E-001,1.00000E+000,25
889,1327,2.62275E+000,-5.47437E-001,1.94462E-002,5.54934E+000,-5.52856E-001,1.05580E-001,5.57781E+000,8.94261E-003,5.03392E-001,0,8.49436E+001,-9.55580E+000,9.98323E-001,4.09434E+001,-4.41975E+001,9.98172E-001,1.65634E-001,-6.87265E-002,-3.62370E-003,1.65690E-001,-6.87825E-002,-8.85630E-001,1.66484E-001,1.18011E+000,-1.06559E-002,0.00000E+000,1.79069E-003,9.38329E-001,0.00000E+000,-2.47276E-003,-1.00826E-001,1.00000E+000,25
889,1337,2.63440E+000,6.03519E-002,-2.93435E-002,5.54399E+000,-5.90546E-001,4.00431E-002,5.57550E+000,1.41330E-002,5.15134E-001,0,8.50780E+001,-1.00309E+001,9.98876E-001,4.11186E+001,-4.46973E+001,9.98479E-001,1.63801E-001,-6.87255E-002,-3.63664E-003,1.63858E-001,-6.87824E-002,-8.95796E-001,1.64560E-001,1.17795E+000,-1.07114E-002,0.00000E+000,1.87310E-003,9.38331E-001,0.00000E+000,-2.97092E-003,-1.00839E-001,1.00000E+000,25
889,1347,2.66465E+000,6.68822E-001,-2.83127E-002,5.54800E+000,-6.33570E-001,-1.95259E-002,5.58409E+000,1.17892E-002,4.99332E-001,0,8.53284E+001,-1.05970E+001,9.98536E-001,4.16906E+001,-4.53085E+001,9.98167E-001,1.61958E-001,-6.87242E-002,-3.66227E-003,1.62016E-001,-6.87823E-002,-9.09313E-001,1.62630E-001,1.17578E+000,-1.07969E-002,0.00000E+000,1.95581E-003,9.38334E-001,0.00000E+000,-3.47096E-003,-1.00859E-001,1.00000E+000,25
969,1297,8.79992E+000,-2.19100E+000,2.42768E-001,6.52230E+000,-3.27692E-001,1.89044E-001,6.53327E+000,1.90959E-002,4.64661E-001,0,9.89042E+001,-6.27244E+000,9.98663E-001,5.67229E+001,-3.93087E+001,9.97204E-001,1.61818E-001,-6.64879E-002,4.68268E-004,1.61819E-001,-6.64889E-002,1.17516E-001,1.62673E-001,1.17562E+000,-2.87837E-002,0.00000E+000,2.58835E-002,9.39131E-001,0.00000E+000,-2.60234E-002,-8.97171E-002,1.00000E+000,25
969,1307,8.77225E+000,-1.61323E+000,1.22709E-001,6.49263E+000,-3.87353E-001,1.24730E-001,6.50537E+000,3.24544E-002,4.63000E-001,0,9.87006E+001,-7.07702E+000,9.98114E-001,5.61392E+001,-4.01175E+001,9.96112E-001,1.60687E-001,-6.64791E-002,6.09687E-004,1.60689E-001,-6.64807E-002,1.53774E-001,1.61484E-001,1.17422E+000,-2.87881E-002,0.00000E+000,2.59361E-002,9.39131E-001,0.00000E+000,-2.31291E-002,-8.97080E-002,1.00000E+000,25
969,1317,8.76690E+000,-1.02052E+000,4.87487E-002,6.47766E+000,-4.35510E-001,7.21522E-002,6.49268E+000,1.22716E-002,4.40336E-001,0,9.86661E+001,-7.74109E+000,9.99057E-001,5.59951E+001,-4.08000E+001,9.98454E-001,1.59546E-001,-6.64664E-002,7.44178E-004,1.59549E-001,-6.64688E-002,1.88652E-001,1.60287E-001,1.17281E+000,-2.88092E-002,0.00000E+000,2.59887E-002,9.39132E-001,0.00000E+000,-2.02329E-002,-8.96645E-002,1.00000E+000,25
889,1317,2.61397E+000,-1.14176E+000,9.48820E-002,5.55266E+000,-5.04515E-001,1.74418E-001,5.57826E+000,1.26439E-002,5.34471E-001,0,8.47584E+001,-8.95297E+000,9.98221E-001,4.08731E+001,-4.35261E+001,9.97495E-001,1.67460E-001,-6.87272E-002,-3.61750E-003,1.67516E-001,-6.87826E-002,-8.77280E-001,1.68406E-001,1.18226E+000,-1.06164E-002,0.00000E+000,1.70840E-003,9.38327E-001,0.00000E+000,-1.97529E-003,-1.00817E-001,1.00000E+000,25
969,1327,8.76249E+000,-4.16750E-001,-1.69397E-002,6.46020E+000,-4.75200E-001,1.25606E-002,6.47767E+000,1.49853E-002,4.59243E-001,0,9.86123E+001,-8.27309E+000,9.98740E-001,5.58833E+001,-4.13084E+001,9.98282E-001,1.58393E-001,-6.64519E-002,8.75536E-004,1.58397E-001,-6.64553E-002,2.23103E-001,1.59079E-001,1.17141E+000,-2.88378E-002,0.00000E+000,2.60414E-002,9.39133E-001,0.00000E+000,-1.73311E-002,-8.96055E-002,1.00000E+000,25
889,1307,2.60889E+000,-1.72975E+000,1.91696E-001,5.55386E+000,-4.54361E-001,2.37197E-001,5.57746E+000,1.58682E-002,4.93765E-001,0,8.45556E+001,-8.26230E+000,9.97608E-001,4.09083E+001,-4.28371E+001,9.94987E-001,1.69277E-001,-6.87277E-002,-3.61920E-003,1.69332E-001,-6.87827E-002,-8.70994E-001,1.70322E-001,1.18441E+000,-1.05956E-002,0.00000E+000,1.62641E-003,9.38326E-001,0.00000E+000,-1.47959E-003,-1.00812E-001,1.00000E+000,25
969,1337,8.76732E+000,1.81939E-001,-5.19260E-002,6.44645E+000,-5.23073E-001,-4.12181E-002,6.46777E+000,1.58522E-002,3.98375E-001,0,9.85914E+001,-8.91344E+000,9.98304E-001,5.59757E+001,-4.20016E+001,9.97895E-001,1.57229E-001,-6.64347E-002,1.00168E-003,1.57234E-001,-6.64392E-002,2.56593E-001,1.57861E-001,1.16999E+000,-2.88786E-002,0.00000E+000,2.60942E-002,9.39135E-001,0.00000E+000,-1.44251E-002,-8.95215E-002,1.00000E+000,25
969,1347,8.77669E+000,8.03296E-001,-5.77461E-002,6.43246E+000,-5.54411E-001,-8.69632E-002,6.45689E+000,1.34117E-002,4.51705E-001,0,9.85270E+001,-9.32794E+000,9.98269E-001,5.61988E+001,-4.23529E+001,9.97455E-001,1.56048E-001,-6.64150E-002,1.12390E-003,1.56053E-001,-6.64207E-002,2.89452E-001,1.56628E-001,1.16858E+000,-2.89299E-002,0.00000E+000,2.61474E-002,9.39137E-001,0.00000E+000,-1.14999E-002,-8.94158E-002,1.00000E+000,25
879,1327,1.86389E+000,-5.48325E-001,3.58904E-002,5.43797E+000,-5.49858E-001,1.09775E-001,5.46680E+000,1.31377E-002,5.21803E-001,0,8.32795E+001,-9.51194E+000,9.98254E-001,3.92596E+001,-4.43390E+001,9.98027E-001,1.66442E-001,-6.90013E-002,-4.08746E-003,1.66513E-001,-6.90722E-002,-9.94295E-001,1.67317E-001,1.18108E+000,-9.03932E-003,0.00000E+000,-5.63874E-004,9.38037E-001,0.00000E+000,-3.14422E-004,-1.00409E-001,1.00000E+000,25
879,1337,1.87435E+000,5.41719E-002,-2.06469E-002,5.43210E+000,-5.91951E-001,3.89365E-002,5.46439E+000,1.26980E-002,5.12449E-001,0,8.34244E+001,-1.00377E+001,9.97695E-001,3.93990E+001,-4.49164E+001,9.97404E-001,1.64813E-001,-6.89970E-002,-4.03582E-003,1.64883E-001,-6.90666E-002,-9.88597E-001,1.65604E-001,1.17915E+000,-9.08684E-003,0.00000E+000,-3.14507E-004,9.38043E-001,0.00000E+000,-1.40921E-003,-1.00436E-001,1.00000E+000,25
879,1347,1.90092E+000,6.67069E-001,-2.29326E-002,5.43392E+000,-6.30806E-001,-1.76285E-002,5.47044E+000,1.50111E-002,5.39313E-001,0,8.36302E+001,-1.05449E+001,9.97724E-001,3.99089E+001,-4.54331E+001,9.97382E-001,1.63170E-001,-6.89908E-002,-3.99406E-003,1.63239E-001,-6.90595E-002,-9.85319E-001,1.63882E-001,1.17722E+000,-9.15868E-003,0.00000E+000,-6.36234E-005,9.38052E-001,0.00000E+000,-2.51066E-003,-1.00477E-001,1.00000E+000,25
879,1307,1.83893E+000,-1.72926E+000,2.10429E-001,5.42970E+000,-4.51745E-001,2.36458E-001,5.45359E+000,1.78025E-002,4.99714E-001,0,8.27143E+001,-8.20137E+000,9.96867E-001,3.90596E+001,-4.29654E+001,9.94778E-001,1.69680E-001,-6.90063E-002,-4.20980E-003,1.69754E-001,-6.90805E-002,-1.01013E+000,1.70731E-001,1.18491E+000,-8.99050E-003,0.00000E+000,-1.06109E-003,9.38030E-001,0.00000E+000,1.86848E-003,-1.00381E-001,1.00000E+000,25
879,1317,1.85085E+000,-1.14177E+000,1.14807E-001,5.43674E+000,-5.00276E-001,1.81153E-001,5.46271E+000,1.27591E-002,4.50159E-001,0,8.30174E+001,-8.85440E+000,9.98428E-001,3.91323E+001,-4.37110E+001,9.97482E-001,1.68069E-001,-6.90046E-002,-4.14468E-003,1.68141E-001,-6.90770E-002,-1.00128E+000,1.69030E-001,1.18300E+000,-9.00490E-003,0.00000E+000,-8.13323E-004,9.38032E-001,0.00000E+000,7.80727E-004,-1.00389E-001,1.00000E+000,25
979,1307,9.56698E+000,-1.59196E+000,1.40073E-001,6.62702E+000,-3.75787E-001,1.13532E-001,6.63863E+000,1.92121E-002,4.48644E-001,0,1.00700E+002,-6.88064E+000,9.99173E-001,5.84944E+001,-3.97320E+001,9.99005E-001,1.59593E-001,-6.60092E-002,5.68005E-004,1.59595E-001,-6.60106E-002,1.44254E-001,1.60387E-001,1.17287E+000,-3.04393E-002,0.00000E+000,2.70702E-002,9.39274E-001,0.00000E+000,-2.22085E-002,-8.64814E-002,1.00000E+000,25
979,1317,9.54515E+000,-9.94365E-001,4.93026E-002,6.59708E+000,-4.18658E-001,5.13378E-002,6.61055E+000,1.10970E-002,4.36104E-001,0,1.00474E+002,-7.43999E+000,9.98748E-001,5.80627E+001,-4.02984E+001,9.98242E-001,1.58827E-001,-6.59938E-002,7.48895E-004,1.58830E-001,-6.59962E-002,1.90853E-001,1.59584E-001,1.17191E+000,-3.04514E-002,0.00000E+000,2.72120E-002,9.39276E-001,0.00000E+000,-1.94034E-002,-8.64459E-002,1.00000E+000,25
979,1327,9.53322E+000,-3.94402E-001,-1.52893E-002,6.57291E+000,-4.61378E-001,-3.16650E-003,6.58908E+000,1.24194E-002,4.34904E-001,0,1.00304E+002,-8.02625E+000,9.97632E-001,5.78360E+001,-4.08775E+001,9.96538E-001,1.58053E-001,-6.59757E-002,9.27149E-004,1.58057E-001,-6.59795E-002,2.37115E-001,1.58773E-001,1.17095E+000,-3.04698E-002,0.00000E+000,2.73540E-002,9.39279E-001,0.00000E+000,-1.65956E-002,-8.63922E-002,1.00000E+000,25
979,1337,9.53352E+000,2.12771E-001,-5.49621E-002,6.55680E+000,-4.99932E-001,-5.12822E-002,6.57603E+000,1.68249E-002,4.33318E-001,0,1.00227E+002,-8.55819E+000,9.96332E-001,5.78489E+001,-4.13985E+001,9.95561E-001,1.57268E-001,-6.59550E-002,1.10290E-003,1.57273E-001,-6.59605E-002,2.83077E-001,1.57953E-001,1.16999E+000,-3.04943E-002,0.00000E+000,2.74962E-002,9.39282E-001,0.00000E+000,-1.37816E-002,-8.63203E-002,1.00000E+000,25
979,1347,9.54153E+000,8.31357E-001,-5.51108E-002,6.53993E+000,-5.33785E-001,-9.74576E-002,6.56240E+000,1.74180E-002,4.40654E-001,0,1.00121E+002,-9.00909E+000,9.94998E-001,5.80604E+001,-4.18267E+001,9.94131E-001,1.56470E-001,-6.59290E-002,1.27394E-003,1.56478E-001,-6.59363E-002,3.28184E-001,1.57121E-001,1.16902E+000,-3.05316E-002,0.00000E+000,2.76393E-002,9.39288E-001,0.00000E+000,-1.09526E-002,-8.62112E-002,1.00000E+000,25
979,1297,9.57033E+000,-2.17127E+000,2.28449E-001,6.63688E+000,-3.15177E-001,1.66153E-001,6.64644E+000,1.55973E-002,4.82396E-001,0,1.00648E+002,-6.04103E+000,9.98876E-001,5.86374E+001,-3.88685E+001,9.98305E-001,1.60350E-001,-6.60236E-002,3.85870E-004,1.60351E-001,-6.60242E-002,9.76642E-002,1.61182E-001,1.17383E+000,-3.04295E-002,0.00000E+000,2.69283E-002,9.39273E-001,0.00000E+000,-2.50139E-002,-8.65100E-002,1.00000E+000,25
869,1317,1.07603E+000,-1.13981E+000,1.08976E-001,5.31031E+000,-4.94294E-001,1.69848E-001,5.33597E+000,9.67551E-003,4.73159E-001,0,8.11740E+001,-8.72181E+000,9.98811E-001,3.71588E+001,-4.37586E+001,9.97556E-001,1.68335E-001,-6.93699E-002,-4.23652E-003,1.68410E-001,-6.94454E-002,-1.02073E+000,1.69270E-001,1.18333E+000,-7.17308E-003,0.00000E+000,-2.59109E-003,9.37640E-001,0.00000E+000,2.57489E-003,-9.98714E-002,1.00000E+000,25
869,1327,1.09116E+000,-5.46453E-001,3.40067E-002,5.31410E+000,-5.42530E-001,1.04057E-001,5.34274E+000,1.32864E-002,5.45737E-001,0,8.14549E+001,-9.38617E+000,9.97956E-001,3.73268E+001,-4.43975E+001,9.97328E-001,1.67029E-001,-6.93670E-002,-4.17436E-003,1.67102E-001,-6.94406E-002,-1.01133E+000,1.67895E-001,1.18179E+000,-7.19971E-003,0.00000E+000,-2.30320E-003,9.37645E-001,0.00000E+000,1.04611E-003,-9.98977E-002,1.00000E+000,25
869,1337,1.10832E+000,5.11618E-002,-1.11658E-002,5.31446E+000,-5.90264E-001,4.17385E-002,5.34730E+000,1.43750E-002,5.16149E-001,0,8.16667E+001,-9.99968E+000,9.97013E-001,3.75945E+001,-4.50860E+001,9.96526E-001,1.65716E-001,-6.93628E-002,-4.11739E-003,1.65788E-001,-6.94349E-002,-1.00312E+000,1.66515E-001,1.18023E+000,-7.23907E-003,0.00000E+000,-2.01458E-003,9.37652E-001,0.00000E+000,-4.86545E-004,-9.99365E-002,1.00000E+000,25
869,1347,1.13080E+000,6.65025E-001,-3.01149E-002,5.31493E+000,-6.24819E-001,-1.94826E-002,5.35157E+000,1.79093E-002,5.10686E-001,0,8.18672E+001,-1.04341E+001,9.97805E-001,3.80059E+001,-4.55698E+001,9.97441E-001,1.64397E-001,-6.93574E-002,-4.06549E-003,1.64467E-001,-6.94281E-002,-9.96096E-001,1.65131E-001,1.17868E+000,-7.29056E-003,0.00000E+000,-1.72550E-003,9.37662E-001,0.00000E+000,-2.02166E-003,-9.99874E-002,1.00000E+000,25
869,1307,1.07011E+000,-1.72659E+000,2.19665E-001,5.30873E+000,-4.45030E-001,2.37811E-001,5.33265E+000,1.45586E-002,5.08204E-001,0,8.09128E+001,-8.08779E+000,9.97374E-001,3.72134E+001,-4.30388E+001,9.95854E-001,1.69631E-001,-6.93712E-002,-4.30517E-003,1.69708E-001,-6.94488E-002,-1.03163E+000,1.70638E-001,1.18488E+000,-7.16274E-003,0.00000E+000,-2.87771E-003,9.37638E-001,0.00000E+000,4.09694E-003,-9.98612E-002,1.00000E+000,25
989,1307,1.03248E+001,-1.55778E+000,1.16769E-001,6.72801E+000,-3.48582E-001,7.96196E-002,6.73750E+000,1.49362E-002,4.69267E-001,0,1.02271E+002,-6.41069E+000,9.98168E-001,6.02037E+001,-3.90473E+001,9.97814E-001,1.58654E-001,-6.58339E-002,4.51376E-004,1.58654E-001,-6.58348E-002,1.15204E-001,1.59418E-001,1.17171E+000,-3.13301E-002,0.00000E+000,2.73977E-002,9.39199E-001,0.00000E+000,-2.04719E-002,-8.36381E-002,1.00000E+000,25
989,1317,1.03008E+001,-9.56809E-001,3.32679E-002,6.69702E+000,-3.89222E-001,3.02149E-002,6.70839E+000,1.54795E-002,5.19957E-001,0,1.01985E+002,-6.96834E+000,9.98533E-001,5.97527E+001,-3.95436E+001,9.97862E-001,1.58215E-001,-6.58148E-002,6.92395E-004,1.58217E-001,-6.58169E-002,1.77079E-001,1.58959E-001,1.17114E+000,-3.13363E-002,0.00000E+000,2.76485E-002,9.39202E-001,0.00000E+000,-1.76681E-002,-8.36077E-002,1.00000E+000,25
989,1327,1.03020E+001,-3.59057E-001,-1.86088E-002,6.68398E+000,-4.36455E-001,-2.01612E-002,6.69825E+000,1.85422E-002,5.13331E-001,0,1.01969E+002,-7.61935E+000,9.97833E-001,5.97550E+001,-4.01836E+001,9.96271E-001,1.57767E-001,-6.57898E-002,9.30727E-004,1.57771E-001,-6.57937E-002,2.38532E-001,1.58494E-001,1.17057E+000,-3.13489E-002,0.00000E+000,2.78996E-002,9.39207E-001,0.00000E+000,-1.48618E-002,-8.35453E-002,1.00000E+000,25
989,1297,1.03449E+001,-2.14792E+000,2.24047E-001,6.75382E+000,-2.98547E-001,1.47234E-001,6.76202E+000,1.39598E-002,4.65163E-001,0,1.02407E+002,-5.75836E+000,9.98078E-001,6.06413E+001,-3.84105E+001,9.97105E-001,1.59084E-001,-6.58518E-002,2.10027E-004,1.59084E-001,-6.58520E-002,5.34981E-002,1.59867E-001,1.17228E+000,-3.13250E-002,0.00000E+000,2.71472E-002,9.39197E-001,0.00000E+000,-2.32716E-002,-8.36630E-002,1.00000E+000,25
989,1337,1.03021E+001,2.42695E-001,-4.69738E-002,6.66471E+000,-4.80322E-001,-6.92990E-002,6.68236E+000,1.50229E-002,4.43436E-001,0,1.01848E+002,-8.22985E+000,9.96076E-001,5.97841E+001,-4.08459E+001,9.95663E-001,1.57313E-001,-6.57610E-002,1.16640E-003,1.57319E-001,-6.57671E-002,2.99575E-001,1.58022E-001,1.17000E+000,-3.13660E-002,0.00000E+000,2.81501E-002,9.39215E-001,0.00000E+000,-1.20611E-002,-8.34612E-002,1.00000E+000,25
989,1347,1.03088E+001,8.59019E-001,-5.44916E-002,6.64864E+000,-5.14274E-001,-1.12854E-001,6.66945E+000,1.61467E-002,4.43249E-001,0,1.01748E+002,-8.69966E+000,9.97865E-001,5.99592E+001,-4.12951E+001,9.97866E-001,1.56848E-001,-6.57292E-002,1.40159E-003,1.56857E-001,-6.57380E-002,3.60778E-001,1.57540E-001,1.16943E+000,-3.13862E-002,0.00000E+000,2.84020E-002,9.39224E-001,0.00000E+000,-9.24597E-003,-8.33619E-002,1.00000E+000,25
859,1327,3.23217E-001,-5.42681E-001,3.21067E-002,5.19440E+000,-5.34072E-001,9.74224E-002,5.22269E+000,1.25700E-002,5.38403E-001,0,7.96937E+001,-9.21604E+000,9.97206E-001,3.54732E+001,-4.44418E+001,9.96776E-001,1.67349E-001,-6.95346E-002,-4.07482E-003,1.67419E-001,-6.96047E-002,-9.85199E-001,1.68210E-001,1.18217E+000,-5.71018E-003,0.00000E+000,-3.34880E-003,9.37426E-001,0.00000E+000,1.72582E-003,-9.92768E-002,1.00000E+000,25
859,1337,3.44605E-001,5.79401E-002,-1.09925E-002,5.19928E+000,-5.77744E-001,3.78338E-002,5.23142E+000,1.44486E-002,5.24944E-001,0,7.99632E+001,-9.79225E+000,9.97055E-001,3.58118E+001,-4.50816E+001,9.96414E-001,1.66390E-001,-6.95331E-002,-4.05774E-003,1.66460E-001,-6.96028E-002,-9.85067E-001,1.67202E-001,1.18104E+000,-5.73852E-003,0.00000E+000,-3.12460E-003,9.37432E-001,0.00000E+000,-6.36550E-005,-9.93214E-002,1.00000E+000,25
859,1347,3.67701E-001,6.62903E-001,-2.37390E-002,5.19991E+000,-6.21474E-001,-2.02794E-002,5.23696E+000,1.96516E-002,4.85284E-001,0,8.01572E+001,-1.03577E+001,9.98211E-001,3.62465E+001,-4.57353E+001,9.97659E-001,1.65423E-001,-6.95310E-002,-4.04494E-003,1.65493E-001,-6.96006E-002,-9.86008E-001,1.66187E-001,1.17990E+000,-5.77703E-003,0.00000E+000,-2.89968E-003,9.37440E-001,0.00000E+000,-1.85889E-003,-9.93820E-002,1.00000E+000,25
859,1307,2.99848E-001,-1.72095E+000,2.21155E-001,5.18629E+000,-4.36955E-001,2.33495E-001,5.20990E+000,1.76493E-002,5.91307E-001,0,7.91048E+001,-7.94878E+000,9.97849E-001,3.53329E+001,-4.30131E+001,9.97177E-001,1.69247E-001,-6.95361E-002,-4.12147E-003,1.69318E-001,-6.96072E-002,-9.88550E-001,1.70208E-001,1.18444E+000,-5.68380E-003,0.00000E+000,-3.79503E-003,9.37421E-001,0.00000E+000,5.28735E-003,-9.92352E-002,1.00000E+000,25
859,1317,3.12633E-001,-1.14162E+000,1.09004E-001,5.19473E+000,-4.93084E-001,1.63769E-001,5.22065E+000,1.37136E-002,5.18930E-001,0,7.94777E+001,-8.67371E+000,9.97655E-001,3.53785E+001,-4.38644E+001,9.95853E-001,1.68302E-001,-6.95357E-002,-4.09584E-003,1.68372E-001,-6.96062E-002,-9.86312E-001,1.69212E-001,1.18331E+000,-5.69138E-003,0.00000E+000,-3.57225E-003,9.37423E-001,0.00000E+000,3.50923E-003,-9.92472E-002,1.00000E+000,25
999,1337,1.10649E+001,2.66912E-001,-5.28230E-002,6.77257E+000,-4.60540E-001,-7.44016E-002,6.78861E+000,1.23343E-002,3.89712E-001,0,1.03426E+002,-7.92698E+000,9.99132E-001,6.16084E+001,-4.03838E+001,9.98332E-001,1.57156E-001,-6.56608E-002,9.95998E-004,1.57160E-001,-6.56653E-002,2.56107E-001,1.57866E-001,1.16978E+000,-3.17845E-002,0.00000E+000,2.79832E-002,9.39082E-001,0.00000E+000,-9.95568E-003,-8.05139E-002,1.00000E+000,25
999,1347,1.10782E+001,8.85353E-001,-4.84030E-002,6.76067E+000,-4.95524E-001,-1.15801E-001,6.77979E+000,1.13850E-002,4.02642E-001,0,1.03381E+002,-8.40219E+000,9.99219E-001,6.19075E+001,-4.08177E+001,9.98565E-001,1.56985E-001,-6.56288E-002,1.22822E-003,1.56992E-001,-6.56356E-002,3.16102E-001,1.57693E-001,1.16956E+000,-3.17930E-002,0.00000E+000,2.82359E-002,9.39092E-001,0.00000E+000,-7.33951E-003,-8.04126E-002,1.00000E+000,25
999,1307,1.10915E+001,-1.52902E+000,1.11711E-001,6.83748E+000,-3.26849E-001,6.41776E-002,6.84559E+000,9.74485E-003,4.52877E-001,0,1.03904E+002,-6.04670E+000,9.98715E-001,6.20911E+001,-3.85027E+001,9.98541E-001,1.57623E-001,-6.57286E-002,2.98224E-004,1.57624E-001,-6.57290E-002,7.65025E-002,1.58346E-001,1.17043E+000,-3.17716E-002,0.00000E+000,2.72316E-002,9.39068E-001,0.00000E+000,-1.77370E-002,-8.06679E-002,1.00000E+000,25
999,1317,1.10726E+001,-9.31844E-001,2.46144E-002,6.81119E+000,-3.70920E-001,9.68930E-003,6.82129E+000,1.66921E-002,5.10496E-001,0,1.03710E+002,-6.66329E+000,9.97621E-001,6.17117E+001,-3.90442E+001,9.94508E-001,1.57474E-001,-6.57101E-002,5.31834E-004,1.57475E-001,-6.57113E-002,1.36531E-001,1.58192E-001,1.17022E+000,-3.17741E-002,0.00000E+000,2.74822E-002,9.39070E-001,0.00000E+000,-1.51429E-002,-8.06383E-002,1.00000E+000,25
999,1327,1.10708E+001,-3.39354E-001,-2.56962E-002,6.79657E+000,-4.22107E-001,-3.22999E-002,6.80975E+000,1.79637E-002,5.13325E-001,0,1.03644E+002,-7.40716E+000,9.98346E-001,6.16688E+001,-3.97629E+001,9.96380E-001,1.57318E-001,-6.56874E-002,7.64604E-004,1.57321E-001,-6.56900E-002,1.96443E-001,1.58032E-001,1.17000E+000,-3.17784E-002,0.00000E+000,2.77329E-002,9.39075E-001,0.00000E+000,-1.25473E-002,-8.05866E-002,1.00000E+000,25
999,1297,1.11137E+001,-2.12733E+000,2.19251E-001,6.86507E+000,-2.85199E-001,1.30151E-001,6.87222E+000,1.09161E-002,4.66690E-001,0,1.04074E+002,-5.52659E+000,9.97822E-001,6.25604E+001,-3.79855E+001,9.95664E-001,1.57765E-001,-6.57455E-002,6.43280E-005,1.57765E-001,-6.57455E-002,1.64901E-002,1.58493E-001,1.17065E+000,-3.17698E-002,0.00000E+000,2.69813E-002,9.39066E-001,0.00000E+000,-2.03291E-002,-8.06894E-002,1.00000E+000,25
849,1337,-4.22029E-001,5.87542E-002,-5.76489E-003,5.07993E+000,-5.73636E-001,3.51096E-002,5.11233E+000,1.76711E-002,5.62000E-001,0,7.81911E+001,-9.70248E+000,9.98083E-001,3.39991E+001,-4.51670E+001,9.97262E-001,1.66784E-001,-6.93754E-002,-3.69861E-003,1.66842E-001,-6.94334E-002,-8.97045E-001,1.67622E-001,1.18150E+000,-4.43488E-003,0.00000E+000,-3.47052E-003,9.37462E-001,0.00000E+000,-1.09269E-004,-9.80806E-002,1.00000E+000,25
849,1347,-4.03309E-001,6.59661E-001,-2.42351E-002,5.07900E+000,-6.18210E-001,-1.60536E-002,5.11651E+000,1.57442E-002,4.85634E-001,0,7.83400E+001,-1.02953E+001,9.98338E-001,3.43542E+001,-4.58914E+001,9.97949E-001,1.66228E-001,-6.93738E-002,-3.67983E-003,1.66286E-001,-6.94313E-002,-8.94602E-001,1.67038E-001,1.18085E+000,-4.45431E-003,0.00000E+000,-3.26287E-003,9.37468E-001,0.00000E+000,-1.80801E-003,-9.81309E-002,1.00000E+000,25
849,1357,-3.71645E-001,1.27530E+000,5.91742E-003,5.08057E+000,-6.57644E-001,-6.92653E-002,5.12342E+000,1.31101E-002,4.98977E-001,0,7.85227E+001,-1.08189E+001,9.98445E-001,3.50221E+001,-4.64522E+001,9.98458E-001,1.65664E-001,-6.93713E-002,-3.66524E-003,1.65722E-001,-6.94285E-002,-8.93204E-001,1.66446E-001,1.18019E+000,-4.48402E-003,0.00000E+000,-3.05342E-003,9.37477E-001,0.00000E+000,-3.52136E-003,-9.82079E-002,1.00000E+000,25
849,1327,-4.36272E-001,-5.36260E-001,4.12322E-002,5.08092E+000,-5.24772E-001,9.30093E-002,5.10879E+000,1.69243E-002,5.54213E-001,0,7.80156E+001,-9.04180E+000,9.98280E-001,3.37803E+001,-4.44567E+001,9.97984E-001,1.67336E-001,-6.93767E-002,-3.71929E-003,1.67395E-001,-6.94351E-002,-8.99948E-001,1.68203E-001,1.18216E+000,-4.41980E-003,0.00000E+000,-3.67822E-003,9.37457E-001,0.00000E+000,1.58984E-003,-9.80415E-002,1.00000E+000,25
1009,1337,1.18368E+001,3.03707E-001,-6.23125E-002,6.89067E+000,-4.30535E-001,-7.54897E-002,6.90452E+000,1.69459E-002,4.26698E-001,0,1.05140E+002,-7.46908E+000,9.99020E-001,6.35716E+001,-3.96727E+001,9.98880E-001,1.56966E-001,-6.55341E-002,6.79560E-004,1.56968E-001,-6.55362E-002,1.74991E-001,1.57678E-001,1.16954E+000,-3.18674E-002,0.00000E+000,2.73099E-002,9.39029E-001,0.00000E+000,-8.14643E-003,-7.79899E-002,1.00000E+000,25
1009,1347,1.18441E+001,9.00230E-001,-5.25316E-002,6.87056E+000,-4.87048E-001,-1.20637E-001,6.88886E+000,1.14740E-002,4.06098E-001,0,1.04991E+002,-8.28069E+000,9.99555E-001,6.37834E+001,-4.04734E+001,9.99233E-001,1.57024E-001,-6.55089E-002,8.60686E-004,1.57028E-001,-6.55122E-002,2.21597E-001,1.57744E-001,1.16960E+000,-3.18650E-002,0.00000E+000,2.74905E-002,9.39037E-001,0.00000E+000,-5.97641E-003,-7.78985E-002,1.00000E+000,25
1009,1297,1.18765E+001,-2.10595E+000,2.10228E-001,6.97135E+000,-2.69068E-001,1.15690E-001,6.97750E+000,1.38408E-002,4.11194E-001,0,1.05654E+002,-5.24490E+000,9.96645E-001,6.43823E+001,-3.75688E+001,9.95210E-001,1.56686E-001,-6.55964E-002,-4.01963E-005,1.56686E-001,-6.55964E-002,-1.03610E-002,1.57376E-001,1.16932E+000,-3.18709E-002,0.00000E+000,2.65920E-002,9.39018E-001,0.00000E+000,-1.67745E-002,-7.81264E-002,1.00000E+000,25
1009,1307,1.18595E+001,-1.50452E+000,1.10028E-001,6.94892E+000,-3.07074E-001,5.71054E-002,6.95594E+000,1.35343E-002,4.00876E-001,0,1.05536E+002,-5.73895E+000,9.98058E-001,6.40085E+001,-3.80491E+001,9.98012E-001,1.56763E-001,-6.55836E-002,1.39363E-004,1.56763E-001,-6.55837E-002,3.59120E-002,1.57458E-001,1.16937E+000,-3.18704E-002,0.00000E+000,2.67710E-002,9.39019E-001,0.00000E+000,-1.46226E-002,-7.81085E-002,1.00000E+000,25
1009,1317,1.18473E+001,-9.06823E-001,3.22651E-002,6.92910E+000,-3.50715E-001,1.07248E-002,6.93797E+000,1.38906E-002,4.55751E-001,0,1.05411E+002,-6.37118E+000,9.98502E-001,6.37529E+001,-3.86014E+001,9.98029E-001,1.56835E-001,-6.55695E-002,3.19162E-004,1.56836E-001,-6.55699E-002,8.22222E-002,1.57536E-001,1.16943E+000,-3.18698E-002,0.00000E+000,2.69504E-002,9.39022E-001,0.00000E+000,-1.24673E-002,-7.80828E-002,1.00000E+000,25
849,1317,-4.54812E-001,-1.12842E+000,1.18095E-001,5.07456E+000,-4.75958E-001,1.65907E-001,5.09953E+000,1.78275E-002,6.13515E-001,0,7.76752E+001,-8.43630E+000,9.97811E-001,3.35639E+001,-4.37342E+001,9.96535E-001,1.67885E-001,-6.93777E-002,-3.74121E-003,1.67944E-001,-6.94367E-002,-9.03154E-001,1.68780E-001,1.18281E+000,-4.40772E-003,0.00000E+000,-3.88536E-003,9.37453E-001,0.00000E+000,3.28442E-003,-9.80102E-002,1.00000E+000,25
1009,1327,1.18415E+001,-3.06401E-001,-2.29758E-002,6.90857E+000,-3.95919E-001,-4.33765E-002,6.92005E+000,1.35491E-002,4.52830E-001,0,1.05297E+002,-6.98258E+000,9.99067E-001,6.36372E+001,-3.91884E+001,9.98676E-001,1.56903E-001,-6.55514E-002,4.99557E-004,1.56904E-001,-6.55526E-002,1.28666E-001,1.57609E-001,1.16949E+000,-3.18685E-002,0.00000E+000,2.71302E-002,9.39026E-001,0.00000E+000,-1.03062E-002,-7.80340E-002,1.00000E+000,25
849,1307,-4.72974E-001,-1.71731E+000,2.20498E-001,5.06074E+000,-4.28642E-001,2.26035E-001,5.08389E+000,1.91066E-002,5.78819E-001,0,7.72561E+001,-7.78812E+000,9.97883E-001,3.34133E+001,-4.30621E+001,9.97041E-001,1.68428E-001,-6.93781E-002,-3.76627E-003,1.68488E-001,-6.94378E-002,-9.07122E-001,1.69353E-001,1.18347E+000,-4.40334E-003,0.00000E+000,-4.09196E-003,9.37452E-001,0.00000E+000,4.97453E-003,-9.79988E-002,1.00000E+000,25
839,1337,-1.19042E+000,5.18526E-002,2.35838E-002,4.95816E+000,-5.75504E-001,5.49906E-002,4.99175E+000,3.29801E-002,5.72938E-001,0,7.63069E+001,-9.77307E+000,9.98309E-001,3.22193E+001,-4.54373E+001,9.97466E-001,1.66922E-001,-6.94657E-002,-3.15093E-003,1.66964E-001,-6.95077E-002,-7.63543E-001,1.67742E-001,1.18167E+000,-3.35425E-003,0.00000E+000,-3.22959E-003,9.37241E-001,0.00000E+000,-7.62966E-004,-9.66153E-002,1.00000E+000,25
839,1347,-1.17184E+000,6.54201E-001,-1.92114E-002,4.95918E+000,-6.17387E-001,-1.09942E-002,4.99747E+000,1.30308E-002,4.88703E-001,0,7.65340E+001,-1.02816E+001,9.98419E-001,3.25172E+001,-4.60924E+001,9.98142E-001,1.66601E-001,-6.94637E-002,-3.11803E-003,1.66643E-001,-6.95049E-002,-7.56606E-001,1.67404E-001,1.18129E+000,-3.36429E-003,0.00000E+000,-3.00302E-003,9.37247E-001,0.00000E+000,-2.49797E-003,-9.66616E-002,1.00000E+000,25
839,1357,-1.13903E+000,1.27432E+000,5.05567E-003,4.96302E+000,-6.51369E-001,-6.57738E-002,5.00601E+000,1.06354E-002,4.91491E-001,0,7.67550E+001,-1.07135E+001,9.98753E-001,3.31926E+001,-4.65782E+001,9.98674E-001,1.66275E-001,-6.94604E-002,-3.08766E-003,1.66315E-001,-6.95009E-002,-7.50289E-001,1.67061E-001,1.18091E+000,-3.38082E-003,0.00000E+000,-2.77453E-003,9.37257E-001,0.00000E+000,-4.24769E-003,-9.67378E-002,1.00000E+000,25
1019,1337,1.26139E+001,3.31743E-001,-6.08759E-002,7.00743E+000,-4.12767E-001,-9.22504E-002,7.02019E+000,1.51332E-002,4.99348E-001,0,1.06887E+002,-7.18954E+000,9.98720E-001,6.56396E+001,-3.91029E+001,9.98663E-001,1.56794E-001,-6.54524E-002,3.92745E-004,1.56794E-001,-6.54531E-002,1.01251E-001,1.57505E-001,1.16933E+000,-3.18812E-002,0.00000E+000,2.66432E-002,9.38998E-001,0.00000E+000,-6.27925E-003,-7.62947E-002,1.00000E+000,25
1019,1347,1.26128E+001,9.30188E-001,-5.69223E-002,6.98450E+000,-4.64512E-001,-1.18041E-001,7.00092E+000,1.37213E-002,4.43287E-001,0,1.06628E+002,-7.94374E+000,9.99036E-001,6.57083E+001,-3.98781E+001,9.98947E-001,1.57011E-001,-6.54326E-002,5.60213E-004,1.57013E-001,-6.54340E-002,1.44295E-001,1.57737E-001,1.16958E+000,-3.18729E-002,0.00000E+000,2.68108E-002,9.39004E-001,0.00000E+000,-4.36284E-003,-7.62305E-002,1.00000E+000,25
839,1327,-1.21928E+000,-5.34228E-001,3.88013E-002,4.94889E+000,-5.15345E-001,1.03199E-001,4.97672E+000,2.85802E-002,5.76334E-001,0,7.60069E+001,-8.91050E+000,9.98824E-001,3.17026E+001,-4.45146E+001,9.98059E-001,1.67240E-001,-6.94679E-002,-3.18350E-003,1.67283E-001,-6.95107E-002,-7.70389E-001,1.68077E-001,1.18204E+000,-3.34306E-003,0.00000E+000,-3.45660E-003,9.37234E-001,0.00000E+000,9.75370E-004,-9.65637E-002,1.00000E+000,25
1019,1327,1.26118E+001,-2.82702E-001,-3.09158E-002,7.02357E+000,-3.78477E-001,-4.82342E-002,7.03392E+000,1.43277E-002,4.46887E-001,0,1.06978E+002,-6.70510E+000,9.98602E-001,6.55828E+001,-3.87070E+001,9.98334E-001,1.56573E-001,-6.54704E-002,2.25665E-004,1.56573E-001,-6.54706E-002,5.82303E-002,1.57271E-001,1.16908E+000,-3.18881E-002,0.00000E+000,2.64755E-002,9.38994E-001,0.00000E+000,-8.19526E-003,-7.63484E-002,1.00000E+000,25
1019,1317,1.26176E+001,-8.87162E-001,2.86121E-002,7.04051E+000,-3.38319E-001,-5.94826E-003,7.04864E+000,1.51743E-002,4.30739E-001,0,1.07077E+002,-6.15191E+000,9.98799E-001,6.57064E+001,-3.82031E+001,9.98114E-001,1.56348E-001,-6.54848E-002,5.99425E-005,1.56348E-001,-6.54848E-002,1.54822E-002,1.57033E-001,1.16884E+000,-3.18923E-002,0.00000E+000,2.63083E-002,9.38991E-001,0.00000E+000,-1.01069E-002,-7.63809E-002,1.00000E+000,25
839,1317,-1.22645E+000,-1.12447E+000,1.15957E-001,4.94968E+000,-4.66242E-001,1.56097E-001,4.97404E+000,1.47076E-002,5.61690E-001,0,7.58395E+001,-8.24406E+000,9.97956E-001,3.16633E+001,-4.37968E+001,9.95937E-001,1.67554E-001,-6.94688E-002,-3.21873E-003,1.67597E-001,-6.95125E-002,-7.77877E-001,1.68407E-001,1.18242E+000,-3.33848E-003,0.00000E+000,-3.68277E-003,9.37232E-001,0.00000E+000,2.70731E-003,-9.65426E-002,1.00000E+000,25
1019,1297,1.26392E+001,-2.08061E+000,1.87948E-001,7.07846E+000,-2.48655E-001,9.40421E-002,7.08345E+000,1.45919E-002,4.21803E-001,0,1.07271E+002,-4.90716E+000,9.98736E-001,6.61831E+001,-3.70297E+001,9.97955E-001,1.55889E-001,-6.55105E-002,-2.69981E-004,1.55890E-001,-6.55108E-002,-6.98678E-002,1.56549E-001,1.16834E+000,-3.18986E-002,0.00000E+000,2.59748E-002,9.38987E-001,0.00000E+000,-1.39182E-002,-7.64290E-002,1.00000E+000,25
1019,1307,1.26222E+001,-1.48335E+000,9.26586E-002,7.05525E+000,-2.93120E-001,3.72770E-002,7.06144E+000,1.81894E-002,4.56974E-001,0,1.07137E+002,-5.50241E+000,9.98974E-001,6.58188E+001,-3.75604E+001,9.98228E-001,1.56121E-001,-6.54986E-002,-1.05051E-004,1.56121E-001,-6.54987E-002,-2.71591E-002,1.56793E-001,1.16859E+000,-3.18962E-002,0.00000E+000,2.61418E-002,9.38988E-001,0.00000E+000,-1.20099E-002,-7.64108E-002,1.00000E+000,25
839,1307,-1.23458E+000,-1.71023E+000,2.22590E-001,4.94538E+000,-4.15970E-001,2.18133E-001,4.96763E+000,1.30262E-002,5.17681E-001,0,7.55602E+001,-7.55683E+000,9.97383E-001,3.16787E+001,-4.30868E+001,9.95294E-001,1.67864E-001,-6.94693E-002,-3.25486E-003,1.67908E-001,-6.95139E-002,-7.85575E-001,1.68734E-001,1.18279E+000,-3.33625E-003,0.00000E+000,-3.90835E-003,9.37230E-001,0.00000E+000,4.43467E-003,-9.65323E-002,1.00000E+000,25
829,1337,-1.95908E+000,5.32066E-002,6.56082E-003,4.83893E+000,-5.66279E-001,4.42918E-002,4.87215E+000,2.34864E-002,5.44641E-001,0,7.45581E+001,-9.59279E+000,9.97178E-001,3.03349E+001,-4.54992E+001,9.96340E-001,1.66590E-001,-6.94630E-002,-2.59082E-003,1.66619E-001,-6.94914E-002,-6.28752E-001,1.67381E-001,1.18128E+000,-2.60585E-003,0.00000E+000,-2.69507E-003,9.37116E-001,0.00000E+000,-1.52919E-003,-9.51999E-002,1.00000E+000,25
829,1347,-1.93757E+000,6.55581E-001,-1.22891E-002,4.84046E+000,-6.11273E-001,-1.02818E-002,4.87891E+000,1.19593E-002,5.17087E-001,0,7.47536E+001,-1.01794E+001,9.97185E-001,3.07343E+001,-4.61794E+001,9.97179E-001,1.66441E-001,-6.94651E-002,-2.62728E-003,1.66471E-001,-6.94944E-002,-6.37994E-001,1.67225E-001,1.18110E+000,-2.61105E-003,0.00000E+000,-2.59389E-003,9.37119E-001,0.00000E+000,-3.39799E-003,-9.52568E-002,1.00000E+000,25
829,1357,-1.90779E+000,1.27286E+000,7.40260E-003,4.84292E+000,-6.46974E-001,-6.26103E-002,4.88634E+000,1.18429E-002,5.28571E-001,0,7.49465E+001,-1.06452E+001,9.98284E-001,3.13538E+001,-4.66967E+001,9.98447E-001,1.66289E-001,-6.94680E-002,-2.66484E-003,1.66319E-001,-6.94981E-002,-6.47523E-001,1.67065E-001,1.18093E+000,-2.61815E-003,0.00000E+000,-2.49228E-003,9.37123E-001,0.00000E+000,-5.27482E-003,-9.53346E-002,1.00000E+000,25
1029,1337,1.33693E+001,3.49153E-001,-6.26566E-002,7.10790E+000,-3.99843E-001,-8.69247E-002,7.11966E+000,1.32409E-002,4.68679E-001,0,1.08310E+002,-7.01269E+000,9.98089E-001,6.73678E+001,-3.87450E+001,9.97637E-001,1.56752E-001,-6.51811E-002,2.01005E-004,1.56752E-001,-6.51813E-002,5.18929E-002,1.57491E-001,1.16928E+000,-3.16792E-002,0.00000E+000,2.59796E-002,9.39161E-001,0.00000E+000,-4.24311E-003,-7.47897E-002,1.00000E+000,25
1029,1347,1.33703E+001,9.62614E-001,-6.54634E-002,7.08597E+000,-4.38379E-001,-1.23292E-001,7.10059E+000,1.28197E-002,4.77995E-001,0,1.08101E+002,-7.55712E+000,9.98538E-001,6.74562E+001,-3.92383E+001,9.97924E-001,1.57087E-001,-6.51605E-002,3.75491E-004,1.57088E-001,-6.51612E-002,9.68016E-002,1.57846E-001,1.16967E+000,-3.16655E-002,0.00000E+000,2.61615E-002,9.39168E-001,0.00000E+000,-2.40232E-003,-7.47253E-002,1.00000E+000,25
1029,1327,1.33772E+001,-2.59471E-001,-2.70522E-002,7.13159E+000,-3.60585E-001,-4.88406E-002,7.14087E+000,1.43038E-002,4.39741E-001,0,1.08532E+002,-6.45996E+000,9.98258E-001,6.74797E+001,-3.82599E+001,9.97685E-001,1.56414E-001,-6.51980E-002,2.84946E-005,1.56414E-001,-6.51980E-002,7.36703E-003,1.57133E-001,1.16889E+000,-3.16886E-002,0.00000E+000,2.57981E-002,9.39157E-001,0.00000E+000,-6.07958E-003,-7.48340E-002,1.00000E+000,25
829,1327,-1.98408E+000,-5.34097E-001,4.09770E-002,4.82952E+000,-5.10085E-001,9.27432E-002,4.85727E+000,2.24734E-002,5.87641E-001,0,7.42540E+001,-8.81602E+000,9.98234E-001,2.99211E+001,-4.46151E+001,9.97935E-001,1.66735E-001,-6.94614E-002,-2.55505E-003,1.66763E-001,-6.94890E-002,-6.19699E-001,1.67532E-001,1.18145E+000,-2.60179E-003,0.00000E+000,-2.79590E-003,9.37113E-001,0.00000E+000,3.33301E-004,-9.51554E-002,1.00000E+000,25
829,1307,-1.98689E+000,-1.71737E+000,2.41918E-001,4.83901E+000,-4.18218E-001,2.27968E-001,4.86239E+000,1.60492E-002,4.68259E-001,0,7.39471E+001,-7.59083E+000,9.97819E-001,3.01303E+001,-4.33606E+001,9.95254E-001,1.67013E-001,-6.94601E-002,-2.48593E-003,1.67039E-001,-6.94862E-002,-6.02234E-001,1.67824E-001,1.18178E+000,-2.59857E-003,0.00000E+000,-2.99685E-003,9.37111E-001,0.00000E+000,4.04518E-003,-9.51201E-002,1.00000E+000,25
829,1317,-1.99141E+000,-1.12612E+000,1.22829E-001,4.83142E+000,-4.62622E-001,1.57063E-001,4.85606E+000,1.81191E-002,5.15368E-001,0,7.40696E+001,-8.16239E+000,9.97706E-001,2.98906E+001,-4.39617E+001,9.97074E-001,1.66876E-001,-6.94604E-002,-2.52011E-003,1.66903E-001,-6.94873E-002,-6.10866E-001,1.67680E-001,1.18161E+000,-2.59938E-003,0.00000E+000,-2.89649E-003,9.37112E-001,0.00000E+000,2.19134E-003,-9.51290E-002,1.00000E+000,25
1029,1317,1.33843E+001,-8.68609E-001,2.54058E-002,7.15008E+000,-3.26555E-001,-1.24231E-002,7.15754E+000,1.53991E-002,4.40085E-001,0,1.08678E+002,-5.96778E+000,9.98920E-001,6.76089E+001,-3.78064E+001,9.97754E-001,1.56074E-001,-6.52127E-002,-1.42274E-004,1.56074E-001,-6.52128E-002,-3.68378E-002,1.56774E-001,1.16850E+000,-3.16954E-002,0.00000E+000,2.56175E-002,9.39154E-001,0.00000E+000,-7.90707E-003,-7.48660E-002,1.00000E+000,25
1029,1307,1.33960E+001,-1.46372E+000,1.08223E-001,7.17059E+000,-2.80360E-001,4.32249E-002,7.17620E+000,1.33792E-002,4.92426E-001,0,1.08776E+002,-5.35189E+000,9.99000E-001,6.78667E+001,-3.71748E+001,9.96834E-001,1.55730E-001,-6.52260E-002,-3.12297E-004,1.55731E-001,-6.52264E-002,-8.09810E-002,1.56413E-001,1.16812E+000,-3.17006E-002,0.00000E+000,2.54372E-002,9.39151E-001,0.00000E+000,-9.73190E-003,-7.48908E-002,1.00000E+000,25
1029,1297,1.34098E+001,-2.05700E+000,1.96420E-001,7.19101E+000,-2.31910E-001,9.46427E-002,7.19537E+000,1.27673E-002,4.71035E-001,0,1.08885E+002,-4.68242E+000,9.98608E-001,6.81675E+001,-3.65626E+001,9.97171E-001,1.55383E-001,-6.52382E-002,-4.82224E-004,1.55384E-001,-6.52392E-002,-1.25234E-001,1.56048E-001,1.16773E+000,-3.17046E-002,0.00000E+000,2.52565E-002,9.39150E-001,0.00000E+000,-1.15602E-002,-7.49095E-002,1.00000E+000,25
819,1317,-2.75255E+000,-1.13612E+000,1.29268E-001,4.71584E+000,-4.68125E-001,1.53954E-001,4.74152E+000,1.76172E-002,4.90968E-001,0,7.23538E+001,-8.22106E+000,9.97116E-001,2.81794E+001,-4.42431E+001,9.95941E-001,1.65758E-001,-6.92421E-002,-2.00420E-003,1.65775E-001,-6.92592E-002,-4.88601E-001,1.66520E-001,1.18029E+000,-2.41083E-003,0.00000E+000,-1.99934E-003,9.37153E-001,0.00000E+000,1.41089E-003,-9.32696E-002,1.00000E+000,25
819,1327,-2.74776E+000,-5.46026E-001,4.38667E-002,4.71368E+000,-5.15460E-001,9.70098E-002,4.74278E+000,1.69603E-002,4.96163E-001,0,7.25109E+001,-8.85924E+000,9.98001E-001,2.81619E+001,-4.49545E+001,9.97000E-001,1.65750E-001,-6.92440E-002,-2.08991E-003,1.65768E-001,-6.92626E-002,-5.09505E-001,1.66513E-001,1.18028E+000,-2.41094E-003,0.00000E+000,-2.01321E-003,9.37153E-001,0.00000E+000,-2.90503E-004,-9.32879E-002,1.00000E+000,25
819,1337,-2.72822E+000,5.38078E-002,-7.29455E-004,4.71844E+000,-5.59387E-001,4.17842E-002,4.75166E+000,1.46754E-002,5.21014E-001,0,7.27610E+001,-9.44826E+000,9.97290E-001,2.84702E+001,-4.55919E+001,9.96942E-001,1.65739E-001,-6.92480E-002,-2.17617E-003,1.65759E-001,-6.92682E-002,-5.30546E-001,1.66502E-001,1.18027E+000,-2.41119E-003,0.00000E+000,-2.02717E-003,9.37153E-001,0.00000E+000,-2.00077E-003,-9.33268E-002,1.00000E+000,25
819,1307,-2.75792E+000,-1.72313E+000,2.23065E-001,4.71436E+000,-4.21095E-001,2.04139E-001,4.73753E+000,1.70720E-002,5.17473E-001,0,7.21600E+001,-7.56866E+000,9.97586E-001,2.82084E+001,-4.34858E+001,9.96042E-001,1.65763E-001,-6.92410E-002,-1.91883E-003,1.65779E-001,-6.92567E-002,-4.67784E-001,1.66524E-001,1.18030E+000,-2.41076E-003,0.00000E+000,-1.98550E-003,9.37153E-001,0.00000E+000,3.10640E-003,-9.32593E-002,1.00000E+000,25
819,1347,-2.70137E+000,6.62742E-001,-1.49015E-002,4.72509E+000,-5.98156E-001,-9.98680E-003,4.76282E+000,1.33696E-002,5.14100E-001,0,7.30229E+001,-9.95060E+000,9.98417E-001,2.89652E+001,-4.61718E+001,9.98396E-001,1.65725E-001,-6.92534E-002,-2.26281E-003,1.65746E-001,-6.92752E-002,-5.51684E-001,1.66488E-001,1.18026E+000,-2.41152E-003,0.00000E+000,-2.04116E-003,9.37152E-001,0.00000E+000,-3.71601E-003,-9.33798E-002,1.00000E+000,25
819,1357,-2.67367E+000,1.26593E+000,1.76979E-002,4.72514E+000,-6.47916E-001,-5.22108E-002,4.76964E+000,1.68197E-002,5.42231E-001,0,7.31495E+001,-1.06686E+001,9.97804E-001,2.95824E+001,-4.69287E+001,9.97785E-001,1.65708E-001,-6.92608E-002,-2.34996E-003,1.65731E-001,-6.92843E-002,-5.72950E-001,1.66471E-001,1.18025E+000,-2.41198E-003,0.00000E+000,-2.05520E-003,9.37152E-001,0.00000E+000,-5.43761E-003,-9.34524E-002,1.00000E+000,25
1039,1337,1.41366E+001,3.72834E-001,-7.24232E-002,7.21821E+000,-3.83008E-001,-9.64351E-002,7.22901E+000,1.18060E-002,4.73420E-001,0,1.09932E+002,-6.74125E+000,9.98557E-001,6.92718E+001,-3.82534E+001,9.97619E-001,1.56775E-001,-6.48175E-002,-2.02486E-004,1.56775E-001,-6.48177E-002,-5.23553E-002,1.57557E-001,1.16931E+000,-3.15752E-002,0.00000E+000,2.50110E-002,9.39452E-001,0.00000E+000,-2.36065E-003,-7.37253E-002,1.00000E+000,25
1039,1347,1.41369E+001,9.72861E-001,-6.95846E-002,7.19585E+000,-4.32898E-001,-1.25382E-001,7.20995E+000,1.17129E-002,4.32567E-001,0,1.09695E+002,-7.48402E+000,9.99204E-001,6.93558E+001,-3.89906E+001,9.98618E-001,1.57207E-001,-6.48047E-002,-8.58532E-005,1.57207E-001,-6.48047E-002,-2.21566E-002,1.58013E-001,1.16981E+000,-3.15576E-002,0.00000E+000,2.50876E-002,9.39455E-001,0.00000E+000,-6.31171E-004,-7.36655E-002,1.00000E+000,25
1039,1317,1.41479E+001,-8.38001E-001,2.16508E-002,7.25780E+000,-3.00723E-001,-1.21645E-002,7.26404E+000,1.26043E-002,4.24943E-001,0,1.10220E+002,-5.58448E+000,9.98626E-001,6.94682E+001,-3.72345E+001,9.97469E-001,1.55902E-001,-6.48377E-002,-4.30659E-004,1.55903E-001,-6.48385E-002,-1.11782E-001,1.56636E-001,1.16829E+000,-3.15970E-002,0.00000E+000,2.48578E-002,9.39449E-001,0.00000E+000,-5.81780E-003,-7.38000E-002,1.00000E+000,25
1039,1327,1.41425E+001,-2.37753E-001,-3.26280E-002,7.24023E+000,-3.44009E-001,-5.34629E-002,7.24860E+000,1.12917E-002,4.08961E-001,0,1.10110E+002,-6.20617E+000,9.98732E-001,6.93611E+001,-3.78276E+001,9.97717E-001,1.56339E-001,-6.48282E-002,-3.17522E-004,1.56339E-001,-6.48287E-002,-8.22575E-002,1.57096E-001,1.16880E+000,-3.15876E-002,0.00000E+000,2.49341E-002,9.39450E-001,0.00000E+000,-4.09553E-003,-7.37677E-002,1.00000E+000,25
1039,1307,1.41611E+001,-1.44146E+000,9.11715E-002,7.28033E+000,-2.62084E-001,3.20712E-002,7.28511E+000,1.29242E-002,4.52020E-001,0,1.10393E+002,-5.05246E+000,9.98481E-001,6.97240E+001,-3.67180E+001,9.97442E-001,1.55462E-001,-6.48462E-002,-5.42928E-004,1.55464E-001,-6.48475E-002,-1.41198E-001,1.56174E-001,1.16779E+000,-3.16043E-002,0.00000E+000,2.47815E-002,9.39447E-001,0.00000E+000,-7.53894E-003,-7.38247E-002,1.00000E+000,25
1039,1297,1.41764E+001,-2.03979E+000,1.79909E-001,7.30173E+000,-2.19191E-001,8.15604E-002,7.30547E+000,1.28898E-002,4.29421E-001,0,1.10524E+002,-4.45794E+000,9.97735E-001,7.00480E+001,-3.61875E+001,9.97325E-001,1.55019E-001,-6.48537E-002,-6.54305E-004,1.55021E-001,-6.48556E-002,-1.70500E-001,1.55709E-001,1.16728E+000,-3.16090E-002,0.00000E+000,2.47052E-002,9.39447E-001,0.00000E+000,-9.26082E-003,-7.38409E-002,1.00000E+000,25
1049,1337,1.49126E+001,3.97832E-001,-6.57477E-002,7.33620E+000,-3.62826E-001,-9.24833E-002,7.34575E+000,1.64127E-002,4.58553E-001,0,1.11615E+002,-6.47796E+000,9.99355E-001,7.13462E+001,-3.77863E+001,9.98507E-001,1.56755E-001,-6.47532E-002,-7.94510E-004,1.56757E-001,-6.47561E-002,-2.05506E-001,1.57545E-001,1.16929E+000,-3.14074E-002,0.00000E+000,2.36722E-002,9.39440E-001,0.00000E+000,-1.06064E-003,-7.21844E-002,1.00000E+000,25
1049,1347,1.49201E+001,1.00230E+000,-5.70162E-002,7.31855E+000,-4.12210E-001,-1.25070E-001,7.33122E+000,1.36904E-002,4.72083E-001,0,1.11460E+002,-7.19787E+000,9.99116E-001,7.15507E+001,-3.84384E+001,9.97919E-001,1.57294E-001,-6.47491E-002,-7.45594E-004,1.57297E-001,-6.47516E-002,-1.92389E-001,1.58113E-001,1.16992E+000,-3.13832E-002,0.00000E+000,2.36429E-002,9.39439E-001,0.00000E+000,2.58945E-004,-7.21342E-002,1.00000E+000,25
1049,1307,1.49327E+001,-1.41706E+000,9.44731E-002,7.39232E+000,-2.43295E-001,2.48214E-002,7.39637E+000,1.59295E-002,3.83540E-001,0,1.12023E+002,-4.75120E+000,9.98696E-001,7.17249E+001,-3.62848E+001,9.97989E-001,1.55133E-001,-6.47617E-002,-9.25170E-004,1.55137E-001,-6.47656E-002,-2.41056E-001,1.55840E-001,1.16740E+000,-3.14422E-002,0.00000E+000,2.37596E-002,9.39442E-001,0.00000E+000,-4.99146E-003,-7.22567E-002,1.00000E+000,25
1049,1317,1.49183E+001,-8.14540E-001,2.76397E-002,7.36813E+000,-2.83714E-001,-1.80105E-002,7.37361E+000,1.39266E-002,4.22351E-001,0,1.11821E+002,-5.34022E+000,9.98186E-001,7.14536E+001,-3.67873E+001,9.96639E-001,1.55675E-001,-6.47591E-002,-8.82520E-004,1.55678E-001,-6.47627E-002,-2.29382E-001,1.56409E-001,1.16803E+000,-3.14328E-002,0.00000E+000,2.37305E-002,9.39441E-001,0.00000E+000,-3.68340E-003,-7.22372E-002,1.00000E+000,25
1049,1327,1.49114E+001,-2.18835E-001,-3.24222E-002,7.35214E+000,-3.31192E-001,-5.15360E-002,7.35978E+000,9.15787E-003,4.04127E-001,0,1.11711E+002,-6.02207E+000,9.98895E-001,7.13121E+001,-3.74380E+001,9.97276E-001,1.56215E-001,-6.47566E-002,-8.40168E-004,1.56218E-001,-6.47598E-002,-2.17843E-001,1.56977E-001,1.16866E+000,-3.14239E-002,0.00000E+000,2.37014E-002,9.39441E-001,0.00000E+000,-2.37444E-003,-7.22188E-002,1.00000E+000,25
809,1347,-3.47728E+000,6.50183E-001,-1.90750E-002,4.59752E+000,-6.03217E-001,-9.75713E-003,4.63693E+000,1.15616E-002,4.90727E-001,0,7.11079E+001,-1.00130E+001,9.98946E-001,2.70071E+001,-4.64770E+001,9.98919E-001,1.64886E-001,-6.90058E-002,-1.94921E-003,1.64902E-001,-6.90220E-002,-4.77448E-001,1.65630E-001,1.17927E+000,-2.60222E-003,0.00000E+000,-1.27770E-003,9.37234E-001,0.00000E+000,-4.02896E-003,-9.16325E-002,1.00000E+000,25
809,1357,-3.44938E+000,1.25845E+000,1.93351E-002,4.59727E+000,-6.48767E-001,-4.96824E-002,4.64309E+000,1.34576E-002,5.18454E-001,0,7.12204E+001,-1.06613E+001,9.98567E-001,2.76447E+001,-4.71704E+001,9.98150E-001,1.65030E-001,-6.90213E-002,-2.12344E-003,1.65050E-001,-6.90405E-002,-5.19761E-001,1.65782E-001,1.17945E+000,-2.59448E-003,0.00000E+000,-1.47272E-003,9.37226E-001,0.00000E+000,-5.66421E-003,-9.17029E-002,1.00000E+000,25
809,1327,-3.51615E+000,-5.58637E-001,3.45248E-002,4.59271E+000,-5.24089E-001,8.93211E-002,4.62338E+000,1.16853E-002,5.70226E-001,0,7.07252E+001,-8.96922E+000,9.98742E-001,2.63048E+001,-4.51962E+001,9.97413E-001,1.64592E-001,-6.89867E-002,-1.60163E-003,1.64603E-001,-6.89977E-002,-3.92849E-001,1.65318E-001,1.17891E+000,-2.61159E-003,0.00000E+000,-8.91059E-004,9.37244E-001,0.00000E+000,-7.86990E-004,-9.15473E-002,1.00000E+000,25
809,1337,-3.49551E+000,4.21065E-002,2.66254E-003,4.59825E+000,-5.65732E-001,4.44781E-002,4.63314E+000,9.99375E-003,5.14186E-001,0,7.09523E+001,-9.52769E+000,9.98700E-001,2.66616E+001,-4.58892E+001,9.98762E-001,1.64740E-001,-6.89952E-002,-1.77537E-003,1.64753E-001,-6.90087E-002,-4.35165E-001,1.65475E-001,1.17909E+000,-2.60743E-003,0.00000E+000,-1.08412E-003,9.37240E-001,0.00000E+000,-2.40582E-003,-9.15851E-002,1.00000E+000,25
809,1307,-3.52690E+000,-1.72354E+000,2.27848E-001,4.59276E+000,-4.16590E-001,2.10860E-001,4.61644E+000,2.07041E-002,5.94357E-001,0,7.03172E+001,-7.52876E+000,9.94362E-001,2.63795E+001,-4.35646E+001,9.93052E-001,1.64288E-001,-6.89801E-002,-1.25342E-003,1.64295E-001,-6.89868E-002,-3.07855E-001,1.64996E-001,1.17856E+000,-2.61458E-003,0.00000E+000,-5.06439E-004,9.37248E-001,0.00000E+000,2.43804E-003,-9.15201E-002,1.00000E+000,25
809,1317,-3.51876E+000,-1.14102E+000,1.20775E-001,4.59721E+000,-4.69054E-001,1.48333E-001,4.62346E+000,1.85984E-002,5.65539E-001,0,7.05967E+001,-8.21743E+000,9.98074E-001,2.63597E+001,-4.43656E+001,9.96663E-001,1.64441E-001,-6.89825E-002,-1.42756E-003,1.64450E-001,-6.89912E-002,-3.50389E-001,1.65158E-001,1.17873E+000,-2.61355E-003,0.00000E+000,-6.98581E-004,9.37246E-001,0.00000E+000,8.26936E-004,-9.15294E-002,1.00000E+000,25
1049,1297,1.49405E+001,-2.02353E+000,1.74518E-001,7.40867E+000,-2.07717E-001,7.58563E-002,7.41197E+000,1.33990E-002,3.80142E-001,0,1.12076E+002,-4.26799E+000,9.97894E-001,7.19153E+001,-3.58550E+001,9.96508E-001,1.54590E-001,-6.47643E-002,-9.67393E-004,1.54594E-001,-6.47685E-002,-2.52678E-001,1.55270E-001,1.16677E+000,-3.14504E-002,0.00000E+000,2.37886E-002,9.39442E-001,0.00000E+000,-6.29852E-003,-7.22739E-002,1.00000E+000,25
799,1337,-4.26293E+000,3.46400E-002,3.56427E-003,4.47846E+000,-5.66620E-001,4.93167E-002,4.51443E+000,1.01534E-002,5.08632E-001,0,6.91392E+001,-9.53669E+000,9.98993E-001,2.48511E+001,-4.61152E+001,9.98807E-001,1.63370E-001,-6.87388E-002,-1.31908E-003,1.63378E-001,-6.87463E-002,-3.25599E-001,1.64060E-001,1.17747E+000,-2.88335E-003,0.00000E+000,2.37308E-005,9.37324E-001,0.00000E+000,-2.77867E-003,-8.97444E-002,1.00000E+000,25
799,1347,-4.24355E+000,6.40132E-001,-1.68200E-002,4.47938E+000,-6.06573E-001,-1.76475E-003,4.52026E+000,1.23073E-002,5.22626E-001,0,6.93103E+001,-1.00804E+001,9.98485E-001,2.52177E+001,-4.67289E+001,9.98169E-001,1.63598E-001,-6.87543E-002,-1.57503E-003,1.63609E-001,-6.87650E-002,-3.88363E-001,1.64300E-001,1.17775E+000,-2.87552E-003,0.00000E+000,-3.42749E-004,9.37314E-001,0.00000E+000,-4.24451E-003,-8.97861E-002,1.00000E+000,25
799,1357,-4.21157E+000,1.25496E+000,1.76338E-002,4.48329E+000,-6.45230E-001,-4.65541E-002,4.52972E+000,1.26146E-002,5.05919E-001,0,6.94994E+001,-1.05919E+001,9.98101E-001,2.59129E+001,-4.73358E+001,9.97559E-001,1.63825E-001,-6.87774E-002,-1.83120E-003,1.63840E-001,-6.87918E-002,-4.51031E-001,1.64540E-001,1.17803E+000,-2.86361E-003,0.00000E+000,-7.11782E-004,9.37298E-001,0.00000E+000,-5.72055E-003,-8.98496E-002,1.00000E+000,25
799,1327,-4.27625E+000,-5.70224E-001,4.89258E-002,4.47969E+000,-5.28537E-001,1.05416E-001,4.51199E+000,1.83821E-002,5.21491E-001,0,6.89823E+001,-9.05510E+000,9.99085E-001,2.46382E+001,-4.55336E+001,9.97560E-001,1.63140E-001,-6.87264E-002,-1.06292E-003,1.63145E-001,-6.87313E-002,-2.62646E-001,1.63818E-001,1.17720E+000,-2.88953E-003,0.00000E+000,3.89621E-004,9.37333E-001,0.00000E+000,-1.31519E-003,-8.97114E-002,1.00000E+000,25
1059,1327,1.56812E+001,-2.02787E-001,-3.01796E-002,7.46371E+000,-3.21644E-001,-5.11383E-002,7.47081E+000,1.38815E-002,4.21439E-001,0,1.13311E+002,-5.89814E+000,9.99124E-001,7.32854E+001,-3.70864E+001,9.97763E-001,1.56270E-001,-6.49830E-002,-1.16489E-003,1.56276E-001,-6.49891E-002,-3.01649E-001,1.57012E-001,1.16874E+000,-3.07066E-002,0.00000E+000,2.24066E-002,9.39175E-001,0.00000E+000,-8.58833E-004,-7.09780E-002,1.00000E+000,25
1059,1337,1.56854E+001,4.17520E-001,-5.84037E-002,7.45020E+000,-3.50050E-001,-8.86070E-002,7.45894E+000,1.13049E-002,4.51608E-001,0,1.13237E+002,-6.30181E+000,9.99436E-001,7.33737E+001,-3.73997E+001,9.98849E-001,1.56866E-001,-6.49840E-002,-1.15921E-003,1.56872E-001,-6.49901E-002,-2.99370E-001,1.57639E-001,1.16944E+000,-3.06878E-002,0.00000E+000,2.23296E-002,9.39173E-001,0.00000E+000,1.52678E-005,-7.09544E-002,1.00000E+000,25
1059,1347,1.56951E+001,1.02428E+000,-4.87997E-002,7.43432E+000,-3.96530E-001,-1.21346E-001,7.44587E+000,1.64151E-002,4.23892E-001,0,1.13109E+002,-6.97241E+000,9.99260E-001,7.36121E+001,-3.80372E+001,9.97900E-001,1.57462E-001,-6.49853E-002,-1.15009E-003,1.57468E-001,-6.49912E-002,-2.96219E-001,1.58266E-001,1.17014E+000,-3.06607E-002,0.00000E+000,2.22524E-002,9.39170E-001,0.00000E+000,8.92015E-004,-7.09205E-002,1.00000E+000,25
1059,1297,1.57046E+001,-2.00346E+000,1.63396E-001,7.51715E+000,-1.90755E-001,7.30011E-002,7.51992E+000,1.32443E-002,3.27880E-001,0,1.13637E+002,-4.00604E+000,9.98209E-001,7.37766E+001,-3.54529E+001,9.96024E-001,1.54482E-001,-6.49807E-002,-1.17197E-003,1.54489E-001,-6.49869E-002,-3.05957E-001,1.55136E-001,1.16665E+000,-3.07387E-002,0.00000E+000,2.26367E-002,9.39179E-001,0.00000E+000,-3.47162E-003,-7.10181E-002,1.00000E+000,25
1059,1307,1.56977E+001,-1.40098E+000,8.68483E-002,7.50166E+000,-2.29630E-001,2.54263E-002,7.50522E+000,1.45875E-002,3.13179E-001,0,1.13587E+002,-4.55317E+000,9.98813E-001,7.36065E+001,-3.59590E+001,9.98043E-001,1.55078E-001,-6.49814E-002,-1.17019E-003,1.55084E-001,-6.49876E-002,-3.04666E-001,1.55760E-001,1.16735E+000,-3.07295E-002,0.00000E+000,2.25603E-002,9.39178E-001,0.00000E+000,-2.60345E-003,-7.10066E-002,1.00000E+000,25
1059,1317,1.56831E+001,-8.02016E-001,1.40808E-002,7.47781E+000,-2.74440E-001,-2.09974E-002,7.48287E+000,1.53627E-002,4.03642E-001,0,1.13407E+002,-5.21373E+000,9.98609E-001,7.33223E+001,-3.64762E+001,9.96536E-001,1.55674E-001,-6.49822E-002,-1.16817E-003,1.55680E-001,-6.49883E-002,-3.03317E-001,1.56386E-001,1.16804E+000,-3.07196E-002,0.00000E+000,2.24835E-002,9.39177E-001,0.00000E+000,-1.73230E-003,-7.09942E-002,1.00000E+000,25
799,1307,-4.28487E+000,-1.73129E+000,2.39570E-001,4.48057E+000,-4.18700E-001,2.18385E-001,4.50538E+000,2.70345E-002,5.76976E-001,0,6.86154E+001,-7.57220E+000,9.95996E-001,2.47413E+001,-4.38170E+001,9.95524E-001,1.62676E-001,-6.87169E-002,-5.50305E-004,1.62678E-001,-6.87182E-002,-1.36261E-001,1.63329E-001,1.17665E+000,-2.89358E-003,0.00000E+000,1.11701E-003,9.37338E-001,0.00000E+000,1.59418E-003,-8.96898E-002,1.00000E+000,25
799,1317,-4.28371E+000,-1.15113E+000,1.18866E-001,4.48075E+000,-4.71718E-001,1.55708E-001,4.50820E+000,2.25614E-002,5.78898E-001,0,6.88305E+001,-8.27906E+000,9.97723E-001,2.45795E+001,-4.46131E+001,9.95962E-001,1.62909E-001,-6.87187E-002,-8.06928E-004,1.62912E-001,-6.87215E-002,-1.99600E-001,1.63574E-001,1.17693E+000,-2.89315E-003,0.00000E+000,7.53808E-004,9.37337E-001,0.00000E+000,1.41468E-004,-8.96921E-002,1.00000E+000,25
789,1327,-5.03607E+000,-5.75382E-001,5.15307E-002,4.36719E+000,-5.26899E-001,1.13257E-001,4.40032E+000,1.64525E-002,5.39462E-001,0,6.72702E+001,-9.04890E+000,9.98731E-001,2.29535E+001,-4.57133E+001,9.97716E-001,1.61740E-001,-6.84652E-002,-7.20922E-004,1.61742E-001,-6.84675E-002,-1.79428E-001,1.62375E-001,1.17555E+000,-3.35980E-003,0.00000E+000,1.43905E-003,9.37439E-001,0.00000E+000,-1.69402E-003,-8.80585E-002,1.00000E+000,25
789,1337,-5.02196E+000,3.25858E-002,4.77431E-003,4.36623E+000,-5.62138E-001,5.24294E-002,4.40258E+000,1.24295E-002,5.13823E-001,0,6.74434E+001,-9.46888E+000,9.98403E-001,2.31764E+001,-4.62523E+001,9.98172E-001,1.62077E-001,-6.84821E-002,-1.04680E-003,1.62082E-001,-6.84869E-002,-2.60132E-001,1.62729E-001,1.17595E+000,-3.35044E-003,0.00000E+000,9.19443E-004,9.37427E-001,0.00000E+000,-2.94795E-003,-8.80878E-002,1.00000E+000,25
789,1347,-4.99972E+000,6.38262E-001,-1.09044E-002,4.36972E+000,-6.02938E-001,3.83701E-003,4.41112E+000,1.37221E-002,5.49062E-001,0,6.76453E+001,-1.00277E+001,9.97865E-001,2.35995E+001,-4.68643E+001,9.97182E-001,1.62414E-001,-6.85026E-002,-1.37276E-003,1.62422E-001,-6.85108E-002,-3.40597E-001,1.63083E-001,1.17635E+000,-3.33879E-003,0.00000E+000,3.98281E-004,9.37412E-001,0.00000E+000,-4.20563E-003,-8.81243E-002,1.00000E+000,25
789,1357,-4.97435E+000,1.24854E+000,1.39414E-002,4.36853E+000,-6.44952E-001,-4.40266E-002,4.41610E+000,1.24242E-002,5.38968E-001,0,6.77670E+001,-1.05869E+001,9.97540E-001,2.41710E+001,-4.75196E+001,9.96887E-001,1.62751E-001,-6.85309E-002,-1.69829E-003,1.62763E-001,-6.85434E-002,-4.20689E-001,1.63437E-001,1.17676E+000,-3.32230E-003,0.00000E+000,-1.25285E-004,9.37391E-001,0.00000E+000,-5.46910E-003,-8.81758E-002,1.00000E+000,25
1069,1327,1.64506E+001,-1.88447E-001,-4.22912E-002,7.57544E+000,-3.13987E-001,-6.04042E-002,7.58218E+000,1.49765E-002,4.41277E-001,0,1.14948E+002,-5.77075E+000,9.98969E-001,7.52305E+001,-3.67288E+001,9.97110E-001,1.56366E-001,-6.49843E-002,-1.46486E-003,1.56376E-001,-6.49940E-002,-3.79152E-001,1.57116E-001,1.16887E+000,-3.00933E-002,0.00000E+000,2.12838E-002,9.39138E-001,0.00000E+000,1.22264E-004,-7.00436E-002,1.00000E+000,25
1069,1337,1.64484E+001,4.28347E-001,-6.73419E-002,7.55637E+000,-3.44069E-001,-9.10399E-002,7.56475E+000,9.84034E-003,4.08114E-001,0,1.14768E+002,-6.20698E+000,9.99128E-001,7.52247E+001,-3.71340E+001,9.98146E-001,1.56936E-001,-6.49872E-002,-1.47984E-003,1.56946E-001,-6.49971E-002,-3.82039E-001,1.57716E-001,1.16954E+000,-3.00760E-002,0.00000E+000,2.11999E-002,9.39136E-001,0.00000E+000,5.49498E-004,-7.00325E-002,1.00000E+000,25
1069,1347,1.64547E+001,1.03872E+000,-6.72619E-002,7.53878E+000,-3.86845E-001,-1.25540E-001,7.54974E+000,1.03277E-002,4.24520E-001,0,1.14621E+002,-6.82593E+000,9.99247E-001,7.53926E+001,-3.76709E+001,9.98405E-001,1.57510E-001,-6.49908E-002,-1.49200E-003,1.57520E-001,-6.50008E-002,-3.84179E-001,1.58319E-001,1.17021E+000,-3.00517E-002,0.00000E+000,2.11155E-002,9.39133E-001,0.00000E+000,9.79444E-004,-7.00170E-002,1.00000E+000,25
789,1307,-5.03822E+000,-1.73995E+000,2.38432E-001,4.37474E+000,-4.21193E-001,2.24105E-001,4.40068E+000,1.80154E-002,5.45436E-001,0,6.70171E+001,-7.59559E+000,9.97587E-001,2.31482E+001,-4.40629E+001,9.94428E-001,1.61063E-001,-6.84519E-002,-6.83400E-005,1.61063E-001,-6.84519E-002,-1.70603E-002,1.61666E-001,1.17475E+000,-3.36585E-003,0.00000E+000,2.47125E-003,9.37447E-001,0.00000E+000,7.96886E-004,-8.80396E-002,1.00000E+000,25
789,1317,-5.03813E+000,-1.16291E+000,1.38796E-001,4.37107E+000,-4.78351E-001,1.68083E-001,4.40038E+000,1.94415E-002,5.70614E-001,0,6.71494E+001,-8.40489E+000,9.97607E-001,2.30194E+001,-4.49423E+001,9.93732E-001,1.61402E-001,-6.84575E-002,-3.94637E-004,1.61403E-001,-6.84582E-002,-9.83687E-002,1.62020E-001,1.17515E+000,-3.36350E-003,0.00000E+000,1.95558E-003,9.37444E-001,0.00000E+000,-4.47516E-004,-8.80470E-002,1.00000E+000,25
1069,1297,1.64579E+001,-1.98570E+000,1.43336E-001,7.61622E+000,-1.76307E-001,6.87636E-002,7.61857E+000,1.75494E-002,3.61750E-001,0,1.15062E+002,-3.80263E+000,9.96938E-001,7.54593E+001,-3.50260E+001,9.93982E-001,1.54653E-001,-6.49770E-002,-1.41264E-003,1.54662E-001,-6.49861E-002,-3.68502E-001,1.55317E-001,1.16687E+000,-3.01275E-002,0.00000E+000,2.15355E-002,9.39142E-001,0.00000E+000,-1.15930E-003,-7.00654E-002,1.00000E+000,25
1069,1307,1.64547E+001,-1.38576E+000,6.22777E-002,7.60545E+000,-2.17068E-001,2.16264E-002,7.60858E+000,1.23194E-002,3.28942E-001,0,1.15085E+002,-4.37435E+000,9.98706E-001,7.53377E+001,-3.55685E+001,9.97228E-001,1.55222E-001,-6.49791E-002,-1.43149E-003,1.55231E-001,-6.49884E-002,-3.72450E-001,1.55914E-001,1.16753E+000,-3.01198E-002,0.00000E+000,2.14520E-002,9.39141E-001,0.00000E+000,-7.34193E-004,-7.00605E-002,1.00000E+000,25
1069,1317,1.64540E+001,-7.80885E-001,9.07451E-003,7.59195E+000,-2.59157E-001,-1.98311E-002,7.59640E+000,1.31129E-002,4.21473E-001,0,1.15038E+002,-4.99254E+000,9.99147E-001,7.53047E+001,-3.60315E+001,9.97137E-001,1.55794E-001,-6.49817E-002,-1.44821E-003,1.55804E-001,-6.49912E-002,-3.75818E-001,1.56515E-001,1.16820E+000,-3.01066E-002,0.00000E+000,2.13680E-002,9.39140E-001,0.00000E+000,-3.06039E-004,-7.00521E-002,1.00000E+000,25
779,1327,-5.78897E+000,-5.75293E-001,5.76741E-002,4.26019E+000,-5.22634E-001,1.19773E-001,4.29380E+000,2.39397E-002,5.83293E-001,0,6.56432E+001,-8.98300E+000,9.98413E-001,2.13901E+001,-4.58062E+001,9.97194E-001,1.60251E-001,-6.79843E-002,-6.39832E-004,1.60252E-001,-6.79861E-002,-1.60621E-001,1.60864E-001,1.17380E+000,-4.07184E-003,0.00000E+000,2.17788E-003,9.37793E-001,0.00000E+000,-1.91760E-003,-8.68824E-002,1.00000E+000,25
779,1337,-5.77569E+000,1.91838E-002,8.03819E-003,4.25888E+000,-5.70038E-001,5.77228E-002,4.29725E+000,1.22097E-002,5.23247E-001,0,6.58176E+001,-9.58550E+000,9.97888E-001,2.15910E+001,-4.65660E+001,9.97633E-001,1.60755E-001,-6.80059E-002,-1.05712E-003,1.60760E-001,-6.80108E-002,-2.64760E-001,1.61393E-001,1.17439E+000,-4.05835E-003,0.00000E+000,1.45843E-003,9.37777E-001,0.00000E+000,-2.89985E-003,-8.69047E-002,1.00000E+000,25
779,1347,-5.75862E+000,6.30040E-001,-7.29707E-003,4.25682E+000,-6.04714E-001,6.53561E-003,4.29956E+000,1.50544E-002,5.30656E-001,0,6.59388E+001,-1.00458E+001,9.97091E-001,2.19380E+001,-4.71155E+001,9.96352E-001,1.61259E-001,-6.80332E-002,-1.47397E-003,1.61268E-001,-6.80427E-002,-3.68298E-001,1.61922E-001,1.17499E+000,-4.04065E-003,0.00000E+000,7.36746E-004,9.37755E-001,0.00000E+000,-3.88516E-003,-8.69339E-002,1.00000E+000,25
779,1357,-5.73646E+000,1.24305E+000,1.38211E-002,4.25337E+000,-6.43576E-001,-4.12876E-002,4.30198E+000,1.20259E-002,5.37194E-001,0,6.60245E+001,-1.05584E+001,9.97438E-001,2.24536E+001,-4.77146E+001,9.97151E-001,1.61765E-001,-6.80688E-002,-1.89100E-003,1.61780E-001,-6.80843E-002,-4.71370E-001,1.62454E-001,1.17559E+000,-4.01699E-003,0.00000E+000,1.05737E-005,9.37727E-001,0.00000E+000,-4.87660E-003,-8.69730E-002,1.00000E+000,25
779,1317,-5.78790E+000,-1.15744E+000,1.44927E-001,4.26702E+000,-4.67044E-001,1.73744E-001,4.29602E+000,2.44605E-002,5.53614E-001,0,6.55695E+001,-8.22826E+000,9.98797E-001,2.15059E+001,-4.49801E+001,9.97025E-001,1.59746E-001,-6.79740E-002,-2.19724E-004,1.59746E-001,-6.79742E-002,-5.52839E-002,1.60336E-001,1.17321E+000,-4.07718E-003,0.00000E+000,2.89629E-003,9.37799E-001,0.00000E+000,-9.36762E-004,-8.68736E-002,1.00000E+000,25
1079,1337,1.72178E+001,4.45076E-001,-8.41364E-002,7.66775E+000,-3.33756E-001,-1.04161E-001,7.67572E+000,1.44367E-002,4.01931E-001,0,1.16412E+002,-6.02389E+000,9.98539E-001,7.71664E+001,-3.67404E+001,9.98563E-001,1.57254E-001,-6.51539E-002,-1.76573E-003,1.57268E-001,-6.51679E-002,-4.54842E-001,1.58034E-001,1.16993E+000,-2.94196E-002,0.00000E+000,2.01010E-002,9.38975E-001,0.00000E+000,9.24610E-004,-6.95854E-002,1.00000E+000,25
1079,1347,1.72279E+001,1.05693E+000,-7.44810E-002,7.65370E+000,-3.75240E-001,-1.29482E-001,7.66399E+000,8.13419E-003,4.35254E-001,0,1.16284E+002,-6.65419E+000,9.99435E-001,7.74080E+001,-3.72649E+001,9.99342E-001,1.57793E-001,-6.51618E-002,-1.81513E-003,1.57808E-001,-6.51766E-002,-4.66417E-001,1.58602E-001,1.17056E+000,-2.93965E-002,0.00000E+000,1.99744E-002,9.38970E-001,0.00000E+000,9.51840E-004,-6.95844E-002,1.00000E+000,25
1079,1297,1.72302E+001,-1.96215E+000,1.50983E-001,7.72993E+000,-1.58666E-001,7.62796E-002,7.73193E+000,1.66906E-002,4.22623E-001,0,1.16655E+002,-3.58514E+000,9.97779E-001,7.74887E+001,-3.45525E+001,9.95954E-001,1.55105E-001,-6.51315E-002,-1.55084E-003,1.55116E-001,-6.51424E-002,-4.03433E-001,1.55777E-001,1.16742E+000,-2.94675E-002,0.00000E+000,2.06037E-002,9.38984E-001,0.00000E+000,8.16397E-004,-6.95874E-002,1.00000E+000,25
1079,1307,1.72205E+001,-1.37071E+000,5.76673E-002,7.71409E+000,-2.07946E-001,2.28881E-002,7.71693E+000,1.40661E-002,3.57279E-001,0,1.16631E+002,-4.24857E+000,9.98799E-001,7.72458E+001,-3.52160E+001,9.97475E-001,1.55640E-001,-6.51359E-002,-1.60684E-003,1.55652E-001,-6.51476E-002,-4.16978E-001,1.56339E-001,1.16804E+000,-2.94616E-002,0.00000E+000,2.04786E-002,9.38983E-001,0.00000E+000,8.43327E-004,-6.95872E-002,1.00000E+000,25
1079,1327,1.72190E+001,-1.72501E-001,-5.43309E-002,7.68542E+000,-3.04220E-001,-7.08571E-002,7.69176E+000,1.62248E-002,4.09199E-001,0,1.16561E+002,-5.59328E+000,9.98912E-001,7.71654E+001,-3.63727E+001,9.98207E-001,1.56717E-001,-6.51475E-002,-1.71362E-003,1.56730E-001,-6.51608E-002,-4.42502E-001,1.57470E-001,1.16930E+000,-2.94355E-002,0.00000E+000,2.02267E-002,9.38978E-001,0.00000E+000,8.97545E-004,-6.95861E-002,1.00000E+000,25
1079,1317,1.72171E+001,-7.63462E-001,-3.62552E-003,7.69795E+000,-2.48032E-001,-2.59311E-002,7.70199E+000,1.30425E-002,4.02917E-001,0,1.16574E+002,-4.79316E+000,9.98904E-001,7.71571E+001,-3.56468E+001,9.97997E-001,1.56179E-001,-6.51415E-002,-1.66058E-003,1.56191E-001,-6.51540E-002,-4.29860E-001,1.56905E-001,1.16867E+000,-2.94493E-002,0.00000E+000,2.03526E-002,9.38981E-001,0.00000E+000,8.70450E-004,-6.95867E-002,1.00000E+000,25
779,1307,-5.79790E+000,-1.75309E+000,2.47808E-001,4.26050E+000,-4.29936E-001,2.31994E-001,4.28842E+000,1.67740E-002,5.60282E-001,0,6.52807E+001,-7.73432E+000,9.98484E-001,2.14873E+001,-4.43778E+001,9.96007E-001,1.59242E-001,-6.79664E-002,1.98531E-004,1.59243E-001,-6.79666E-002,5.00640E-002,1.59810E-001,1.17262E+000,-4.08042E-003,0.00000E+000,3.61002E-003,9.37803E-001,0.00000E+000,3.76832E-005,-8.68683E-002,1.00000E+000,25
1089,1337,1.79853E+001,4.66358E-001,-8.93345E-002,7.77681E+000,-3.19521E-001,-1.05453E-001,7.78408E+000,1.29344E-002,4.65897E-001,0,1.17972E+002,-5.83128E+000,9.98275E-001,7.91028E+001,-3.62671E+001,9.97893E-001,1.58034E-001,-6.53848E-002,-1.90851E-003,1.58050E-001,-6.54011E-002,-4.89389E-001,1.58831E-001,1.17087E+000,-2.84598E-002,0.00000E+000,1.90181E-002,9.38740E-001,0.00000E+000,1.32253E-003,-6.89571E-002,1.00000E+000,25
1089,1347,1.79950E+001,1.07703E+000,-8.23162E-002,7.76226E+000,-3.61357E-001,-1.32973E-001,7.77180E+000,9.36573E-003,4.35270E-001,0,1.17846E+002,-6.44614E+000,9.99101E-001,7.93311E+001,-3.68344E+001,9.98521E-001,1.58674E-001,-6.53975E-002,-1.99603E-003,1.58692E-001,-6.54153E-002,-5.10337E-001,1.59505E-001,1.17162E+000,-2.84323E-002,0.00000E+000,1.88302E-002,9.38733E-001,0.00000E+000,1.10138E-003,-6.89652E-002,1.00000E+000,25
769,1347,-6.51749E+000,6.20913E-001,-4.81831E-003,4.14429E+000,-6.07534E-001,1.21326E-002,4.18860E+000,1.21242E-002,5.24557E-001,0,6.42277E+001,-1.00821E+001,9.97403E-001,2.02789E+001,-4.73722E+001,9.97139E-001,1.59717E-001,-6.75471E-002,-1.42930E-003,1.59726E-001,-6.75561E-002,-3.60323E-001,1.60357E-001,1.17318E+000,-4.50002E-003,0.00000E+000,1.15873E-003,9.38120E-001,0.00000E+000,-3.52365E-003,-8.58092E-002,1.00000E+000,25
769,1357,-6.49297E+000,1.23692E+000,1.39154E-002,4.14377E+000,-6.42996E-001,-3.63039E-002,4.19351E+000,1.17994E-002,5.44297E-001,0,6.43588E+001,-1.05459E+001,9.97966E-001,2.08275E+001,-4.79148E+001,9.97941E-001,1.60136E-001,-6.75805E-002,-1.82686E-003,1.60150E-001,-6.75951E-002,-4.59617E-001,1.60797E-001,1.17367E+000,-4.48094E-003,0.00000E+000,4.60526E-004,9.38094E-001,0.00000E+000,-4.37502E-003,-8.58420E-002,1.00000E+000,25
769,1327,-6.54486E+000,-5.82737E-001,6.90126E-002,4.14747E+000,-5.25099E-001,1.19228E-001,4.18228E+000,1.79183E-002,5.89307E-001,0,6.39478E+001,-9.02656E+000,9.98074E-001,1.97975E+001,-4.60458E+001,9.96176E-001,1.58884E-001,-6.75039E-002,-6.34089E-004,1.58886E-001,-6.75057E-002,-1.60478E-001,1.59482E-001,1.17219E+000,-4.52331E-003,0.00000E+000,2.54467E-003,9.38153E-001,0.00000E+000,-1.83368E-003,-8.57692E-002,1.00000E+000,25
769,1337,-6.53535E+000,5.97732E-003,8.59711E-003,4.14495E+000,-5.77516E-001,5.90619E-002,4.18540E+000,1.11896E-002,5.27262E-001,0,6.40999E+001,-9.68978E+000,9.97959E-001,1.99128E+001,-4.68746E+001,9.97469E-001,1.59301E-001,-6.75216E-002,-1.03228E-003,1.59305E-001,-6.75263E-002,-2.60748E-001,1.59920E-001,1.17269E+000,-4.51413E-003,0.00000E+000,1.85247E-003,9.38140E-001,0.00000E+000,-2.67772E-003,-8.57849E-002,1.00000E+000,25
1089,1327,1.79839E+001,-1.45584E-001,-7.09230E-002,7.79372E+000,-2.80765E-001,-7.70178E-002,7.79915E+000,1.45119E-002,4.02236E-001,0,1.18125E+002,-5.24952E+000,9.98321E-001,7.90456E+001,-3.58246E+001,9.97230E-001,1.57393E-001,-6.53740E-002,-1.81820E-003,1.57408E-001,-6.53889E-002,-4.67599E-001,1.58157E-001,1.17012E+000,-2.84806E-002,0.00000E+000,1.92060E-002,9.38745E-001,0.00000E+000,1.54365E-003,-6.89510E-002,1.00000E+000,25
1089,1317,1.79883E+001,-7.51996E-001,-1.22266E-002,7.81105E+000,-2.41453E-001,-3.03149E-002,7.81484E+000,1.32106E-002,4.40217E-001,0,1.18208E+002,-4.72349E+000,9.98862E-001,7.91458E+001,-3.53346E+001,9.98385E-001,1.56756E-001,-6.53650E-002,-1.72584E-003,1.56769E-001,-6.53784E-002,-4.45143E-001,1.57487E-001,1.16937E+000,-2.84954E-002,0.00000E+000,1.93930E-002,9.38749E-001,0.00000E+000,1.76360E-003,-6.89466E-002,1.00000E+000,25
1089,1297,1.80012E+001,-1.94093E+000,1.48578E-001,7.84221E+000,-1.44056E-001,7.45614E-002,7.84389E+000,1.20799E-002,4.53404E-001,0,1.18260E+002,-3.36761E+000,9.98930E-001,7.94873E+001,-3.41092E+001,9.98372E-001,1.55481E-001,-6.53493E-002,-1.53788E-003,1.55492E-001,-6.53600E-002,-3.98987E-001,1.56148E-001,1.16788E+000,-2.85163E-002,0.00000E+000,1.97660E-002,9.38754E-001,0.00000E+000,2.20251E-003,-6.89405E-002,1.00000E+000,25
1089,1307,1.79922E+001,-1.35188E+000,5.15145E-002,7.82659E+000,-1.96263E-001,1.60843E-002,7.82907E+000,1.17756E-002,4.27045E-001,0,1.18261E+002,-4.08318E+000,9.99159E-001,7.92475E+001,-3.47805E+001,9.98736E-001,1.56117E-001,-6.53563E-002,-1.63292E-003,1.56129E-001,-6.53683E-002,-4.22410E-001,1.56816E-001,1.16863E+000,-2.85088E-002,0.00000E+000,1.95798E-002,9.38752E-001,0.00000E+000,1.98345E-003,-6.89427E-002,1.00000E+000,25
769,1317,-6.55320E+000,-1.16589E+000,1.51047E-001,4.14716E+000,-4.72431E-001,1.80459E-001,4.17788E+000,2.06377E-002,5.49781E-001,0,6.37458E+001,-8.27352E+000,9.98888E-001,1.97560E+001,-4.52282E+001,9.97941E-001,1.58468E-001,-6.74910E-002,-2.37030E-004,1.58469E-001,-6.74913E-002,-6.01027E-002,1.59048E-001,1.17171E+000,-4.52944E-003,0.00000E+000,3.23270E-003,9.38162E-001,0.00000E+000,-9.94709E-004,-8.57587E-002,1.00000E+000,25
1099,1327,1.87482E+001,-1.28286E-001,-7.64171E-002,7.90074E+000,-2.68767E-001,-7.24296E-002,7.90564E+000,1.60213E-002,4.38048E-001,0,1.19631E+002,-5.09958E+000,9.96786E-001,8.09366E+001,-3.54288E+001,9.94220E-001,1.58162E-001,-6.55663E-002,-1.95775E-003,1.58179E-001,-6.55834E-002,-5.01320E-001,1.58946E-001,1.17104E+000,-2.76707E-002,0.00000E+000,1.82571E-002,9.38573E-001,0.00000E+000,1.83056E-003,-6.87792E-002,1.00000E+000,25
1099,1337,1.87567E+001,4.87648E-001,-8.80452E-002,7.88911E+000,-3.03970E-001,-1.01020E-001,7.89561E+000,1.53036E-002,4.45530E-001,0,1.19556E+002,-5.61206E+000,9.97151E-001,8.11147E+001,-3.58499E+001,9.96468E-001,1.58947E-001,-6.55778E-002,-2.04665E-003,1.58966E-001,-6.55964E-002,-5.22221E-001,1.59772E-001,1.17196E+000,-2.76427E-002,0.00000E+000,1.80696E-002,9.38567E-001,0.00000E+000,1.51154E-003,-6.87889E-002,1.00000E+000,25
1099,1347,1.87694E+001,1.10292E+000,-7.63300E-002,7.87545E+000,-3.43031E-001,-1.32210E-001,7.88403E+000,1.21582E-002,4.52406E-001,0,1.19454E+002,-6.18980E+000,9.98083E-001,8.13974E+001,-3.63357E+001,9.97667E-001,1.59733E-001,-6.55914E-002,-2.13212E-003,1.59753E-001,-6.56115E-002,-5.42092E-001,1.60600E-001,1.17288E+000,-2.76059E-002,0.00000E+000,1.78816E-002,9.38560E-001,0.00000E+000,1.19180E-003,-6.88016E-002,1.00000E+000,25
759,1347,-7.27031E+000,6.16942E-001,-5.72589E-003,4.03750E+000,-6.05471E-001,1.49527E-002,4.08267E+000,1.11867E-002,5.29861E-001,0,6.26099E+001,-1.00372E+001,9.97298E-001,1.87102E+001,-4.75357E+001,9.96981E-001,1.58199E-001,-6.71086E-002,-1.32485E-003,1.58207E-001,-6.71164E-002,-3.36894E-001,1.58811E-001,1.17140E+000,-4.78452E-003,0.00000E+000,1.56561E-003,9.38441E-001,0.00000E+000,-3.27769E-003,-8.46745E-002,1.00000E+000,25
759,1357,-7.25010E+000,1.22790E+000,1.23651E-002,4.03318E+000,-6.45398E-001,-3.25758E-002,4.08462E+000,1.19737E-002,5.62245E-001,0,6.26804E+001,-1.05801E+001,9.97637E-001,1.91920E+001,-4.81507E+001,9.97370E-001,1.58427E-001,-6.71324E-002,-1.61208E-003,1.58438E-001,-6.71439E-002,-4.09467E-001,1.59051E-001,1.17167E+000,-4.77429E-003,0.00000E+000,1.08309E-003,9.38423E-001,0.00000E+000,-4.14192E-003,-8.47070E-002,1.00000E+000,25
1099,1297,1.87672E+001,-1.92894E+000,1.29528E-001,7.95063E+000,-1.37163E-001,6.35134E-002,7.95207E+000,1.13960E-002,4.97179E-001,0,1.19845E+002,-3.26272E+000,9.98356E-001,8.13807E+001,-3.37678E+001,9.97114E-001,1.55816E-001,-6.55414E-002,-1.67583E-003,1.55829E-001,-6.55541E-002,-4.33736E-001,1.56481E-001,1.16830E+000,-2.77141E-002,0.00000E+000,1.88161E-002,9.38582E-001,0.00000E+000,2.78119E-003,-6.87641E-002,1.00000E+000,25
1099,1307,1.87623E+001,-1.33166E+000,4.27782E-002,7.93917E+000,-1.81770E-001,1.54597E-002,7.94127E+000,1.29636E-002,4.61748E-001,0,1.19867E+002,-3.87359E+000,9.98797E-001,8.12252E+001,-3.43357E+001,9.98065E-001,1.56597E-001,-6.55485E-002,-1.77180E-003,1.56611E-001,-6.55626E-002,-4.56944E-001,1.57301E-001,1.16921E+000,-2.77048E-002,0.00000E+000,1.86301E-002,9.38580E-001,0.00000E+000,2.46490E-003,-6.87673E-002,1.00000E+000,25
1099,1317,1.87542E+001,-7.31383E-001,-2.44080E-002,7.92063E+000,-2.25573E-001,-2.91387E-002,7.92390E+000,1.64998E-002,4.59086E-001,0,1.19764E+002,-4.49593E+000,9.98023E-001,8.10525E+001,-3.48828E+001,9.96614E-001,1.57379E-001,-6.55568E-002,-1.86566E-003,1.57395E-001,-6.55724E-002,-4.79441E-001,1.58123E-001,1.17012E+000,-2.76901E-002,0.00000E+000,1.84438E-002,9.38577E-001,0.00000E+000,2.14804E-003,-6.87724E-002,1.00000E+000,25
759,1327,-7.30525E+000,-5.93520E-001,6.85984E-002,4.03203E+000,-5.29945E-001,1.18290E-001,4.06843E+000,1.38693E-002,5.50589E-001,0,6.22117E+001,-9.07336E+000,9.98077E-001,1.81113E+001,-4.63347E+001,9.98107E-001,1.57743E-001,-6.70783E-002,-7.50897E-004,1.57746E-001,-6.70808E-002,-1.91363E-001,1.58332E-001,1.17086E+000,-4.79683E-003,0.00000E+000,2.52425E-003,9.38463E-001,0.00000E+000,-1.56068E-003,-8.46353E-002,1.00000E+000,25
759,1337,-7.28808E+000,1.13283E-002,1.77420E-002,4.03699E+000,-5.66490E-001,6.61863E-002,4.07708E+000,1.12909E-002,5.48733E-001,0,6.24481E+001,-9.53410E+000,9.97391E-001,1.83714E+001,-4.69064E+001,9.97217E-001,1.57971E-001,-6.70913E-002,-1.03801E-003,1.57976E-001,-6.70961E-002,-2.64246E-001,1.58572E-001,1.17113E+000,-4.79173E-003,0.00000E+000,2.04542E-003,9.38454E-001,0.00000E+000,-2.41830E-003,-8.46515E-002,1.00000E+000,25
759,1317,-7.31039E+000,-1.18234E+000,1.48000E-001,4.03393E+000,-4.83328E-001,1.72083E-001,4.06643E+000,1.81118E-002,5.69588E-001,0,6.20691E+001,-8.43664E+000,9.98374E-001,1.81114E+001,-4.55673E+001,9.97999E-001,1.57515E-001,-6.70699E-002,-4.64712E-004,1.57516E-001,-6.70709E-002,-1.18556E-001,1.58093E-001,1.17059E+000,-4.79977E-003,0.00000E+000,3.00004E-003,9.38468E-001,0.00000E+000,-7.08490E-004,-8.46259E-002,1.00000E+000,25
749,1317,-8.05573E+000,-1.18447E+000,1.66828E-001,3.93093E+000,-4.82200E-001,1.79323E-001,3.96445E+000,1.38764E-002,5.89196E-001,0,6.04955E+001,-8.42607E+000,9.98448E-001,1.67120E+001,-4.57311E+001,9.97125E-001,1.56566E-001,-6.67122E-002,-6.16104E-004,1.56567E-001,-6.67139E-002,-1.58098E-001,1.57136E-001,1.16948E+000,-4.68773E-003,0.00000E+000,2.62106E-003,9.38722E-001,0.00000E+000,-5.99197E-004,-8.35644E-002,1.00000E+000,25
749,1327,-8.05174E+000,-5.95650E-001,7.07621E-002,3.92950E+000,-5.28049E-001,1.16981E-001,3.96655E+000,1.08005E-002,5.34541E-001,0,6.06712E+001,-9.00452E+000,9.97818E-001,1.66519E+001,-4.64827E+001,9.97624E-001,1.56624E-001,-6.67171E-002,-8.18404E-004,1.56627E-001,-6.67201E-002,-2.09949E-001,1.57198E-001,1.16955E+000,-4.68715E-003,0.00000E+000,2.29479E-003,9.38719E-001,0.00000E+000,-1.31892E-003,-8.35705E-002,1.00000E+000,25
749,1337,-8.04201E+000,8.08150E-003,2.13176E-002,3.92735E+000,-5.64674E-001,6.73394E-002,3.96831E+000,1.07486E-002,5.71989E-001,0,6.07891E+001,-9.50097E+000,9.97750E-001,1.68012E+001,-4.70581E+001,9.97745E-001,1.56682E-001,-6.67259E-002,-1.02147E-003,1.56686E-001,-6.67306E-002,-2.61962E-001,1.57259E-001,1.16962E+000,-4.68587E-003,0.00000E+000,1.96683E-003,9.38713E-001,0.00000E+000,-2.04237E-003,-8.35839E-002,1.00000E+000,25
749,1347,-8.02782E+000,6.10770E-001,-5.58475E-003,3.92514E+000,-6.05373E-001,1.63553E-002,3.97158E+000,1.16329E-002,5.41188E-001,0,6.09082E+001,-1.00318E+001,9.97948E-001,1.70767E+001,-4.77332E+001,9.97917E-001,1.56739E-001,-6.67376E-002,-1.22477E-003,1.56746E-001,-6.67443E-002,-3.14000E-001,1.57320E-001,1.16969E+000,-4.68412E-003,0.00000E+000,1.63818E-003,9.38705E-001,0.00000E+000,-2.76735E-003,-8.36023E-002,1.00000E+000,25
1109,1297,1.95358E+001,-1.91304E+000,1.21281E-001,8.06303E+000,-1.24198E-001,7.01428E-002,8.06429E+000,1.19721E-002,4.92596E-001,0,1.21418E+002,-3.09756E+000,9.97693E-001,8.33397E+001,-3.34128E+001,9.95656E-001,1.56362E-001,-6.59601E-002,-1.72825E-003,1.56376E-001,-6.59735E-002,-4.45359E-001,1.57011E-001,1.16897E+000,-2.64369E-002,0.00000E+000,1.76194E-002,9.38218E-001,0.00000E+000,3.66669E-003,-6.88667E-002,1.00000E+000,25
1109,1307,1.95284E+001,-1.31436E+000,3.34438E-002,8.04907E+000,-1.67314E-001,2.12039E-002,8.05084E+000,1.35623E-002,4.25373E-001,0,1.21407E+002,-3.67234E+000,9.98061E-001,8.31443E+001,-3.39709E+001,9.97363E-001,1.57203E-001,-6.59651E-002,-1.79467E-003,1.57217E-001,-6.59795E-002,-4.60722E-001,1.57892E-001,1.16995E+000,-2.64269E-002,0.00000E+000,1.75061E-002,9.38217E-001,0.00000E+000,3.07251E-003,-6.88727E-002,1.00000E+000,25
1109,1317,1.95211E+001,-7.13315E-001,-3.54343E-002,8.03136E+000,-2.10686E-001,-2.43538E-002,8.03416E+000,1.53955E-002,4.27142E-001,0,1.21321E+002,-4.28533E+000,9.97427E-001,8.29804E+001,-3.44985E+001,9.96110E-001,1.58044E-001,-6.59710E-002,-1.85889E-003,1.58059E-001,-6.59864E-002,-4.75401E-001,1.58775E-001,1.17093E+000,-2.64112E-002,0.00000E+000,1.73926E-002,9.38215E-001,0.00000E+000,2.47682E-003,-6.88822E-002,1.00000E+000,25
749,1357,-8.00405E+000,1.22057E+000,1.44641E-002,3.92489E+000,-6.45664E-001,-2.77103E-002,3.97774E+000,1.40055E-002,5.58982E-001,0,6.10307E+001,-1.05865E+001,9.97946E-001,1.76201E+001,-4.83790E+001,9.97825E-001,1.56796E-001,-6.67540E-002,-1.42899E-003,1.56805E-001,-6.67631E-002,-3.66231E-001,1.57380E-001,1.16976E+000,-4.68154E-003,0.00000E+000,1.30754E-003,9.38692E-001,0.00000E+000,-3.49671E-003,-8.36292E-002,1.00000E+000,25
1109,1327,1.95170E+001,-1.10891E-001,-8.21197E-002,8.01204E+000,-2.55655E-001,-6.74741E-002,8.01641E+000,1.39451E-002,4.21361E-001,0,1.21197E+002,-4.92259E+000,9.96578E-001,8.29029E+001,-3.50569E+001,9.94828E-001,1.58886E-001,-6.59781E-002,-1.92028E-003,1.58903E-001,-6.59945E-002,-4.89244E-001,1.59661E-001,1.17192E+000,-2.63884E-002,0.00000E+000,1.72787E-002,9.38213E-001,0.00000E+000,1.87953E-003,-6.88961E-002,1.00000E+000,25
1109,1337,1.95216E+001,5.04472E-001,-9.78041E-002,7.99608E+000,-2.92048E-001,-1.01379E-001,8.00206E+000,1.46328E-002,4.65474E-001,0,1.21078E+002,-5.45661E+000,9.97819E-001,8.30124E+001,-3.54583E+001,9.97476E-001,1.59731E-001,-6.59864E-002,-1.97867E-003,1.59749E-001,-6.60038E-002,-5.02210E-001,1.60550E-001,1.17291E+000,-2.63575E-002,0.00000E+000,1.71643E-002,9.38209E-001,0.00000E+000,1.27949E-003,-6.89148E-002,1.00000E+000,25
1109,1347,1.95401E+001,1.11961E+000,-7.27359E-002,7.98457E+000,-3.33782E-001,-1.33128E-001,7.99265E+000,1.37318E-002,4.58699E-001,0,1.21008E+002,-6.06415E+000,9.98261E-001,8.34042E+001,-3.59803E+001,9.97278E-001,1.60579E-001,-6.59971E-002,-2.03146E-003,1.60597E-001,-6.60153E-002,-5.13654E-001,1.61441E-001,1.17390E+000,-2.63126E-002,0.00000E+000,1.70495E-002,9.38204E-001,0.00000E+000,6.76964E-004,-6.89420E-002,1.00000E+000,25
739,1337,-8.79367E+000,-4.12470E-003,2.36618E-002,3.81972E+000,-5.71119E-001,6.80118E-002,3.86278E+000,1.21984E-002,5.56504E-001,0,5.91631E+001,-9.58567E+000,9.97672E-001,1.52662E+001,-4.73643E+001,9.97403E-001,1.55311E-001,-6.61430E-002,-1.09450E-003,1.55317E-001,-6.61484E-002,-2.83165E-001,1.55884E-001,1.16801E+000,-4.66186E-003,0.00000E+000,1.79124E-003,9.39233E-001,0.00000E+000,-1.72585E-003,-8.32303E-002,1.00000E+000,25
739,1347,-8.78380E+000,6.01970E-001,-1.66034E-003,3.81364E+000,-6.08091E-001,2.01904E-002,3.86186E+000,9.26731E-003,5.48273E-001,0,5.92108E+001,-1.00740E+001,9.98761E-001,1.54810E+001,-4.79817E+001,9.98794E-001,1.55147E-001,-6.61549E-002,-1.31047E-003,1.55155E-001,-6.61626E-002,-3.39268E-001,1.55714E-001,1.16783E+000,-4.66653E-003,0.00000E+000,1.44790E-003,9.39225E-001,0.00000E+000,-2.49721E-003,-8.32493E-002,1.00000E+000,25
739,1357,-8.76085E+000,1.21482E+000,1.68443E-002,3.81315E+000,-6.44685E-001,-2.34601E-002,3.86733E+000,1.00111E-002,5.37773E-001,0,5.93269E+001,-1.05596E+001,9.98374E-001,1.60106E+001,-4.85933E+001,9.98561E-001,1.54982E-001,-6.61716E-002,-1.52858E-003,1.54993E-001,-6.61822E-002,-3.95995E-001,1.55542E-001,1.16764E+000,-4.67337E-003,0.00000E+000,1.10266E-003,9.39212E-001,0.00000E+000,-3.27286E-003,-8.32772E-002,1.00000E+000,25
739,1327,-8.80470E+000,-6.02711E-001,7.28816E-002,3.82043E+000,-5.29324E-001,1.17245E-001,3.85870E+000,1.14125E-002,5.10737E-001,0,5.90234E+001,-9.00780E+000,9.98861E-001,1.50970E+001,-4.67116E+001,9.98582E-001,1.55474E-001,-6.61339E-002,-8.79435E-004,1.55477E-001,-6.61374E-002,-2.27370E-001,1.56053E-001,1.16820E+000,-4.65843E-003,0.00000E+000,2.13399E-003,9.39239E-001,0.00000E+000,-9.55790E-004,-8.32163E-002,1.00000E+000,25
1119,1297,2.03016E+001,-1.89795E+000,1.09635E-001,8.17224E+000,-1.12224E-001,7.36541E-002,8.17334E+000,1.27694E-002,4.35321E-001,0,1.22953E+002,-2.91138E+000,9.98690E-001,8.52540E+001,-3.30898E+001,9.97839E-001,1.57146E-001,-6.58336E-002,-1.89402E-003,1.57162E-001,-6.58497E-002,-4.86631E-001,1.57848E-001,1.16991E+000,-2.52773E-002,0.00000E+000,1.63556E-002,9.38379E-001,0.00000E+000,3.81044E-003,-6.91469E-002,1.00000E+000,25
1119,1307,2.02958E+001,-1.30049E+000,2.85746E-002,8.15845E+000,-1.57682E-001,2.58467E-002,8.16001E+000,1.17188E-002,4.18604E-001,0,1.22940E+002,-3.54847E+000,9.98503E-001,8.50947E+001,-3.36542E+001,9.98365E-001,1.57933E-001,-6.58355E-002,-1.91047E-003,1.57949E-001,-6.58518E-002,-4.89128E-001,1.58674E-001,1.17083E+000,-2.52660E-002,0.00000E+000,1.63478E-002,9.38379E-001,0.00000E+000,3.05851E-003,-6.91563E-002,1.00000E+000,25
1119,1317,2.02940E+001,-6.98214E-001,-3.68361E-002,8.14545E+000,-2.00075E-001,-1.93806E-002,8.14793E+000,1.26510E-002,4.07182E-001,0,1.22924E+002,-4.14846E+000,9.97873E-001,8.50231E+001,-3.41743E+001,9.97680E-001,1.58720E-001,-6.58376E-002,-1.92511E-003,1.58736E-001,-6.58541E-002,-4.91143E-001,1.59501E-001,1.17175E+000,-2.52501E-002,0.00000E+000,1.63400E-002,9.38378E-001,0.00000E+000,2.30548E-003,-6.91692E-002,1.00000E+000,25
1119,1327,2.02919E+001,-9.28920E-002,-7.90732E-002,8.12717E+000,-2.42587E-001,-6.11203E-002,8.13102E+000,1.17542E-002,4.00714E-001,0,1.22809E+002,-4.75494E+000,9.97719E-001,8.49820E+001,-3.46960E+001,9.97401E-001,1.59508E-001,-6.58402E-002,-1.93700E-003,1.59524E-001,-6.58569E-002,-4.92444E-001,1.60330E-001,1.17267E+000,-2.52275E-002,0.00000E+000,1.63322E-002,9.38378E-001,0.00000E+000,1.55015E-003,-6.91877E-002,1.00000E+000,25
1119,1337,2.02959E+001,5.16273E-001,-9.96767E-002,8.10985E+000,-2.86108E-001,-1.02514E-001,8.11554E+000,1.04011E-002,4.64017E-001,0,1.22702E+002,-5.38685E+000,9.98782E-001,8.50726E+001,-3.51718E+001,9.98225E-001,1.60299E-001,-6.58433E-002,-1.94597E-003,1.60315E-001,-6.58600E-002,-4.92986E-001,1.61163E-001,1.17360E+000,-2.51976E-002,0.00000E+000,1.63243E-002,9.38378E-001,0.00000E+000,7.90696E-004,-6.92122E-002,1.00000E+000,25
1119,1347,2.03108E+001,1.13080E+000,-7.70700E-002,8.09523E+000,-3.27783E-001,-1.33814E-001,8.10297E+000,1.50386E-002,4.46036E-001,0,1.22585E+002,-5.99626E+000,9.98708E-001,8.54016E+001,-3.57022E+001,9.97931E-001,1.61090E-001,-6.58471E-002,-1.95029E-003,1.61107E-001,-6.58638E-002,-4.92351E-001,1.61997E-001,1.17453E+000,-2.51565E-002,0.00000E+000,1.63165E-002,9.38378E-001,0.00000E+000,2.95005E-005,-6.92460E-002,1.00000E+000,25
739,1317,-8.80396E+000,-1.18884E+000,1.65601E-001,3.82624E+000,-4.81522E-001,1.74738E-001,3.86038E+000,1.48362E-002,5.76444E-001,0,5.89310E+001,-8.38986E+000,9.98621E-001,1.52224E+001,-4.59033E+001,9.97717E-001,1.55635E-001,-6.61291E-002,-6.66526E-004,1.55637E-001,-6.61311E-002,-1.72204E-001,1.56221E-001,1.16839E+000,-4.65694E-003,0.00000E+000,2.47463E-003,9.39242E-001,0.00000E+000,-1.90484E-004,-8.32102E-002,1.00000E+000,25
1129,1297,2.10659E+001,-1.87569E+000,1.06088E-001,8.27835E+000,-9.36565E-002,8.04573E-002,8.27927E+000,1.32260E-002,4.13779E-001,0,1.24421E+002,-2.65038E+000,9.99156E-001,8.71629E+001,-3.26554E+001,9.98223E-001,1.57695E-001,-6.59013E-002,-2.15415E-003,1.57715E-001,-6.59220E-002,-5.51927E-001,1.58421E-001,1.17057E+000,-2.42193E-002,0.00000E+000,1.50581E-002,9.38359E-001,0.00000E+000,3.01607E-003,-6.94435E-002,1.00000E+000,25
1129,1307,2.10597E+001,-1.28774E+000,1.84087E-002,8.26392E+000,-1.48763E-001,2.53218E-002,8.26530E+000,1.83686E-002,3.83345E-001,0,1.24433E+002,-3.41649E+000,9.98979E-001,8.69864E+001,-3.33584E+001,9.96454E-001,1.58540E-001,-6.58990E-002,-2.10491E-003,1.58560E-001,-6.59187E-002,-5.37289E-001,1.59308E-001,1.17156E+000,-2.42067E-002,0.00000E+000,1.51709E-002,9.38360E-001,0.00000E+000,2.29920E-003,-6.94526E-002,1.00000E+000,25
1129,1317,2.10630E+001,-6.87573E-001,-4.37736E-002,8.25551E+000,-1.93678E-001,-1.82526E-002,8.25781E+000,1.10009E-002,3.86126E-001,0,1.24481E+002,-4.06727E+000,9.98995E-001,8.69986E+001,-3.39087E+001,9.96941E-001,1.59385E-001,-6.58963E-002,-2.05347E-003,1.59404E-001,-6.59150E-002,-5.22200E-001,1.60197E-001,1.17255E+000,-2.41890E-002,0.00000E+000,1.52839E-002,9.38362E-001,0.00000E+000,1.58101E-003,-6.94655E-002,1.00000E+000,25
729,1347,-9.52574E+000,5.88053E-001,9.24383E-003,3.71461E+000,-6.17345E-001,2.48778E-002,3.76564E+000,8.40762E-003,5.57498E-001,0,5.77027E+001,-1.02151E+001,9.99223E-001,1.41228E+001,-4.83212E+001,9.99192E-001,1.53516E-001,-6.56277E-002,-1.13157E-003,1.53521E-001,-6.56336E-002,-2.95841E-001,1.54058E-001,1.16592E+000,-4.08475E-003,0.00000E+000,1.31786E-003,9.39644E-001,0.00000E+000,-2.40131E-003,-8.22679E-002,1.00000E+000,25
729,1357,-9.50929E+000,1.20653E+000,1.85689E-002,3.70897E+000,-6.47366E-001,-2.18491E-002,3.76511E+000,9.80164E-003,5.57514E-001,0,5.77464E+001,-1.05929E+001,9.98607E-001,1.45322E+001,-4.88236E+001,9.98895E-001,1.53061E-001,-6.56397E-002,-1.30386E-003,1.53069E-001,-6.56475E-002,-3.41572E-001,1.53584E-001,1.16540E+000,-4.10262E-003,0.00000E+000,1.08723E-003,9.39636E-001,0.00000E+000,-3.42617E-003,-8.23026E-002,1.00000E+000,25
1129,1327,2.10657E+001,-7.87172E-002,-8.18620E-002,8.24250E+000,-2.32013E-001,-5.36324E-002,8.24594E+000,1.33664E-002,3.96320E-001,0,1.24420E+002,-4.64144E+000,9.98656E-001,8.70387E+001,-3.43740E+001,9.97985E-001,1.60231E-001,-6.58932E-002,-1.99953E-003,1.60249E-001,-6.59109E-002,-5.06593E-001,1.61087E-001,1.17354E+000,-2.41653E-002,0.00000E+000,1.53971E-002,9.38365E-001,0.00000E+000,8.61527E-004,-6.94827E-002,1.00000E+000,25
729,1337,-9.54449E+000,-1.04710E-002,3.09040E-002,3.71285E+000,-5.71514E-001,7.52878E-002,3.75733E+000,1.11764E-002,5.44379E-001,0,5.75249E+001,-9.59205E+000,9.98374E-001,1.37630E+001,-4.75892E+001,9.97802E-001,1.53967E-001,-6.56183E-002,-9.61643E-004,1.53972E-001,-6.56225E-002,-2.50912E-001,1.54530E-001,1.16645E+000,-4.07100E-003,0.00000E+000,1.54770E-003,9.39650E-001,0.00000E+000,-1.37997E-003,-8.22411E-002,1.00000E+000,25
729,1327,-9.55404E+000,-6.07338E-001,7.90908E-002,3.71403E+000,-5.29951E-001,1.18889E-001,3.75353E+000,1.13601E-002,5.44490E-001,0,5.74100E+001,-9.01203E+000,9.98394E-001,1.36135E+001,-4.68827E+001,9.97788E-001,1.54416E-001,-6.56119E-002,-7.94812E-004,1.54418E-001,-6.56148E-002,-2.06968E-001,1.54998E-001,1.16697E+000,-4.06230E-003,0.00000E+000,1.77626E-003,9.39654E-001,0.00000E+000,-3.64288E-004,-8.22242E-002,1.00000E+000,25
1129,1337,2.10796E+001,5.33177E-001,-8.65115E-002,8.22904E+000,-2.77747E-001,-1.02606E-001,8.23437E+000,1.40812E-002,4.79276E-001,0,1.24395E+002,-5.28190E+000,9.98393E-001,8.73073E+001,-3.48300E+001,9.98327E-001,1.61085E-001,-6.58888E-002,-1.93777E-003,1.61102E-001,-6.59053E-002,-4.89110E-001,1.61987E-001,1.17454E+000,-2.41242E-002,0.00000E+000,1.55116E-002,9.38369E-001,0.00000E+000,1.33571E-004,-6.95126E-002,1.00000E+000,25
729,1317,-9.55758E+000,-1.19687E+000,1.58554E-001,3.71694E+000,-4.84027E-001,1.70715E-001,3.75221E+000,1.31447E-002,5.79608E-001,0,5.72925E+001,-8.40575E+000,9.98331E-001,1.36389E+001,-4.61125E+001,9.97394E-001,1.54862E-001,-6.56077E-002,-6.29820E-004,1.54863E-001,-6.56095E-002,-1.63676E-001,1.55464E-001,1.16749E+000,-4.05705E-003,0.00000E+000,2.00435E-003,9.39656E-001,0.00000E+000,6.49259E-004,-8.22140E-002,1.00000E+000,25
1129,1347,2.10873E+001,1.15169E+000,-7.77291E-002,8.20988E+000,-3.14139E-001,-1.36128E-001,8.21702E+000,1.66914E-002,4.76059E-001,0,1.24221E+002,-5.81019E+000,9.98169E-001,8.75002E+001,-3.52601E+001,9.97395E-001,1.61934E-001,-6.58844E-002,-1.87663E-003,1.61950E-001,-6.58999E-002,-4.71923E-001,1.62883E-001,1.17554E+000,-2.40840E-002,0.00000E+000,1.56257E-002,9.38374E-001,0.00000E+000,-5.91494E-004,-6.95418E-002,1.00000E+000,25
719,1347,-1.02796E+001,5.87269E-001,8.22288E-003,3.60471E+000,-6.11989E-001,2.53520E-002,3.65638E+000,1.29677E-002,5.83889E-001,0,5.60333E+001,-1.01318E+001,9.98561E-001,1.25588E+001,-4.84259E+001,9.98428E-001,1.52237E-001,-6.53531E-002,-1.03833E-003,1.52242E-001,-6.53580E-002,-2.73404E-001,1.52748E-001,1.16443E+000,-3.35361E-003,0.00000E+000,8.96162E-004,9.39787E-001,0.00000E+000,-2.22460E-003,-8.07576E-002,1.00000E+000,25
719,1357,-1.02651E+001,1.19658E+000,1.75312E-002,3.59748E+000,-6.51468E-001,-2.05548E-002,3.65605E+000,1.14142E-002,5.75800E-001,0,5.60521E+001,-1.06444E+001,9.98443E-001,1.29384E+001,-4.90754E+001,9.98644E-001,1.51508E-001,-6.53602E-002,-1.15127E-003,1.51514E-001,-6.53663E-002,-3.04149E-001,1.51988E-001,1.16359E+000,-3.38179E-003,0.00000E+000,8.07303E-004,9.39784E-001,0.00000E+000,-3.54540E-003,-8.08017E-002,1.00000E+000,25
719,1337,-1.02959E+001,-1.34211E-002,2.87912E-002,3.60441E+000,-5.69537E-001,7.04129E-002,3.64981E+000,1.45364E-002,5.79797E-001,0,5.58955E+001,-9.54870E+000,9.97414E-001,1.22316E+001,-4.77182E+001,9.96522E-001,1.52960E-001,-6.53477E-002,-9.29162E-004,1.52964E-001,-6.53517E-002,-2.43857E-001,1.53503E-001,1.16527E+000,-3.33283E-003,0.00000E+000,9.84540E-004,9.39789E-001,0.00000E+000,-9.10948E-004,-8.07251E-002,1.00000E+000,25
719,1327,-1.03027E+001,-6.08744E-001,8.52607E-002,3.60794E+000,-5.26971E-001,1.20641E-001,3.64822E+000,1.03592E-002,5.73388E-001,0,5.57977E+001,-8.96375E+000,9.97388E-001,1.21462E+001,-4.70067E+001,9.96798E-001,1.53677E-001,-6.53441E-002,-8.23676E-004,1.53680E-001,-6.53472E-002,-2.15469E-001,1.54252E-001,1.16611E+000,-3.31943E-003,0.00000E+000,1.07249E-003,9.39791E-001,0.00000E+000,3.96373E-004,-8.07042E-002,1.00000E+000,25
719,1317,-1.03071E+001,-1.19975E+000,1.70217E-001,3.60883E+000,-4.83069E-001,1.72188E-001,3.64509E+000,1.37774E-002,5.63417E-001,0,5.56510E+001,-8.37314E+000,9.97218E-001,1.21727E+001,-4.62915E+001,9.96376E-001,1.54391E-001,-6.53420E-002,-7.21139E-004,1.54393E-001,-6.53444E-002,-1.88036E-001,1.54998E-001,1.16694E+000,-3.31250E-003,0.00000E+000,1.16030E-003,9.39792E-001,0.00000E+000,1.70150E-003,-8.06933E-002,1.00000E+000,25
1139,1297,2.18486E+001,-1.86631E+000,1.09296E-001,8.40106E+000,-8.76246E-002,8.81759E-002,8.40198E+000,9.07592E-003,3.55498E-001,0,1.26135E+002,-2.58584E+000,9.99543E-001,8.93732E+001,-3.24515E+001,9.98557E-001,1.58154E-001,-6.60881E-002,-2.34137E-003,1.58179E-001,-6.61125E-002,-5.98152E-001,1.58887E-001,1.17113E+000,-2.31222E-002,0.00000E+000,1.38956E-002,9.38233E-001,0.00000E+000,1.80001E-003,-6.98947E-002,1.00000E+000,25
1139,1307,2.18396E+001,-1.27926E+000,1.04364E-002,8.38486E+000,-1.43686E-001,2.65995E-002,8.38613E+000,1.20103E-002,3.28015E-001,0,1.26149E+002,-3.34721E+000,9.99270E-001,8.91353E+001,-3.31417E+001,9.98074E-001,1.59121E-001,-6.60840E-002,-2.25798E-003,1.59143E-001,-6.61067E-002,-5.74390E-001,1.59901E-001,1.17226E+000,-2.31096E-002,0.00000E+000,1.40642E-002,9.38235E-001,0.00000E+000,1.19794E-003,-6.99014E-002,1.00000E+000,25
1139,1337,2.18518E+001,5.56469E-001,-8.71877E-002,8.34000E+000,-2.60384E-001,-1.01274E-001,8.34467E+000,1.47440E-002,4.96129E-001,0,1.25957E+002,-5.04797E+000,9.97842E-001,8.93447E+001,-3.43594E+001,9.97054E-001,1.62032E-001,-6.60643E-002,-1.98091E-003,1.62049E-001,-6.60815E-002,-4.97537E-001,1.62965E-001,1.17568E+000,-2.30113E-002,0.00000E+000,1.45739E-002,9.38249E-001,0.00000E+000,-6.22092E-004,-6.99538E-002,1.00000E+000,25
1139,1347,2.18724E+001,1.16960E+000,-6.32399E-002,8.32949E+000,-3.05321E-001,-1.36109E-001,8.33620E+000,1.49019E-002,5.01160E-001,0,1.25917E+002,-5.70275E+000,9.97788E-001,8.97605E+001,-3.48996E+001,9.96461E-001,1.63006E-001,-6.60551E-002,-1.87949E-003,1.63021E-001,-6.60705E-002,-4.70081E-001,1.63994E-001,1.17682E+000,-2.29578E-002,0.00000E+000,1.47449E-002,9.38257E-001,0.00000E+000,-1.23288E-003,-6.99823E-002,1.00000E+000,25
1139,1327,2.18432E+001,-6.35712E-002,-8.92495E-002,8.35875E+000,-2.24331E-001,-5.98551E-002,8.36197E+000,1.46626E-002,4.45485E-001,0,1.26093E+002,-4.53054E+000,9.98228E-001,8.91500E+001,-3.39998E+001,9.96584E-001,1.61058E-001,-6.60726E-002,-2.07957E-003,1.61077E-001,-6.60917E-002,-5.24532E-001,1.61939E-001,1.17453E+000,-2.30583E-002,0.00000E+000,1.44031E-002,9.38242E-001,0.00000E+000,-1.23074E-005,-6.99288E-002,1.00000E+000,25
1139,1317,2.18313E+001,-6.77350E-001,-6.05771E-002,8.36578E+000,-1.87178E-001,-2.13524E-002,8.36790E+000,1.31471E-002,4.00056E-001,0,1.26056E+002,-3.98883E+000,9.99277E-001,8.89513E+001,-3.36109E+001,9.97649E-001,1.60087E-001,-6.60792E-002,-2.17191E-003,1.60108E-001,-6.61001E-002,-5.50152E-001,1.60917E-001,1.17339E+000,-2.30910E-002,0.00000E+000,1.42332E-002,9.38238E-001,0.00000E+000,5.94497E-004,-6.99114E-002,1.00000E+000,25
709,1347,-1.10365E+001,5.87099E-001,3.17503E-003,3.49146E+000,-6.05935E-001,2.21593E-002,3.54372E+000,1.28821E-002,5.57515E-001,0,5.43204E+001,-1.00029E+001,9.98089E-001,1.09437E+001,-4.85393E+001,9.97957E-001,1.51019E-001,-6.43848E-002,-1.14611E-003,1.51025E-001,-6.43909E-002,-3.04845E-001,1.51570E-001,1.16302E+000,-2.56309E-003,0.00000E+000,4.75548E-005,9.40613E-001,0.00000E+000,-2.06397E-003,-7.96267E-002,1.00000E+000,25
709,1357,-1.10193E+001,1.19627E+000,1.24425E-002,3.48761E+000,-6.43994E-001,-2.07505E-002,3.54663E+000,1.19001E-002,5.40940E-001,0,5.43819E+001,-1.05098E+001,9.98476E-001,1.13649E+001,-4.91965E+001,9.98626E-001,1.50144E-001,-6.43957E-002,-1.32316E-003,1.50152E-001,-6.44039E-002,-3.53349E-001,1.50657E-001,1.16201E+000,-2.59566E-003,0.00000E+000,-1.57000E-004,9.40607E-001,0.00000E+000,-3.43100E-003,-7.96707E-002,1.00000E+000,25
709,1337,-1.10423E+001,-2.01232E-002,3.39309E-002,3.50003E+000,-5.71343E-001,6.94034E-002,3.54704E+000,1.18169E-002,5.63678E-001,0,5.43158E+001,-9.55498E+000,9.97865E-001,1.08017E+001,-4.79457E+001,9.97345E-001,1.51887E-001,-6.43772E-002,-9.74233E-004,1.51891E-001,-6.43816E-002,-2.58101E-001,1.52477E-001,1.16403E+000,-2.54068E-003,0.00000E+000,2.51183E-004,9.40618E-001,0.00000E+000,-7.03139E-004,-7.95964E-002,1.00000E+000,25
709,1317,-1.10521E+001,-1.20059E+000,1.92839E-001,3.50411E+000,-4.81015E-001,1.80107E-001,3.54155E+000,1.45241E-002,5.71209E-001,0,5.40397E+001,-8.34559E+000,9.98133E-001,1.08118E+001,-4.64500E+001,9.97921E-001,1.53605E-001,-6.43693E-002,-6.42316E-004,1.53607E-001,-6.43711E-002,-1.68834E-001,1.54277E-001,1.16603E+000,-2.51900E-003,0.00000E+000,6.56167E-004,9.40622E-001,0.00000E+000,2.00335E-003,-7.95672E-002,1.00000E+000,25
709,1327,-1.10451E+001,-6.10482E-001,1.05152E-001,3.50539E+000,-5.25422E-001,1.23087E-001,3.54669E+000,1.55803E-002,5.97192E-001,0,5.42347E+001,-8.94946E+000,9.98332E-001,1.08172E+001,-4.71671E+001,9.97760E-001,1.52748E-001,-6.43726E-002,-8.07356E-004,1.52751E-001,-6.43756E-002,-2.13049E-001,1.53378E-001,1.16503E+000,-2.52799E-003,0.00000E+000,4.53809E-004,9.40620E-001,0.00000E+000,6.50998E-004,-7.95793E-002,1.00000E+000,25
1149,1297,2.26194E+001,-1.85793E+000,9.22712E-002,8.51326E+000,-8.39958E-002,8.36095E-002,8.51409E+000,2.12588E-002,3.78076E-001,0,1.27740E+002,-2.53284E+000,9.98648E-001,9.13696E+001,-3.21814E+001,9.95820E-001,1.58544E-001,-6.61979E-002,-2.49542E-003,1.58571E-001,-6.62256E-002,-6.36080E-001,1.59287E-001,1.17160E+000,-2.20415E-002,0.00000E+000,1.28338E-002,9.38176E-001,0.00000E+000,2.72565E-004,-7.03274E-002,1.00000E+000,25
1149,1307,2.26234E+001,-1.25446E+000,1.44391E-002,8.50879E+000,-1.23623E-001,3.80496E-002,8.50977E+000,1.36003E-002,3.69868E-001,0,1.27859E+002,-3.10203E+000,9.99001E-001,9.13687E+001,-3.26487E+001,9.97441E-001,1.59628E-001,-6.61941E-002,-2.41745E-003,1.59654E-001,-6.62200E-002,-6.13264E-001,1.60425E-001,1.17287E+000,-2.20248E-002,0.00000E+000,1.29784E-002,9.38178E-001,0.00000E+000,-1.84871E-004,-7.03334E-002,1.00000E+000,25
1149,1317,2.26184E+001,-6.53689E-001,-5.05512E-002,8.49075E+000,-1.69986E-001,-1.25215E-002,8.49246E+000,1.26158E-002,4.23867E-001,0,1.27792E+002,-3.76992E+000,9.98879E-001,9.12456E+001,-3.31559E+001,9.97051E-001,1.60716E-001,-6.61895E-002,-2.33556E-003,1.60740E-001,-6.62136E-002,-5.89669E-001,1.61569E-001,1.17415E+000,-2.19995E-002,0.00000E+000,1.31237E-002,9.38181E-001,0.00000E+000,-6.44440E-004,-7.03425E-002,1.00000E+000,25
1149,1327,2.26183E+001,-4.23303E-002,-9.41981E-002,8.47325E+000,-2.06667E-001,-5.95189E-002,8.47598E+000,1.29596E-002,3.89217E-001,0,1.27709E+002,-4.27928E+000,9.98582E-001,9.12333E+001,-3.35895E+001,9.96764E-001,1.61802E-001,-6.61841E-002,-2.25020E-003,1.61824E-001,-6.62063E-002,-5.65430E-001,1.62713E-001,1.17543E+000,-2.19657E-002,0.00000E+000,1.32689E-002,9.38184E-001,0.00000E+000,-1.10393E-003,-7.03547E-002,1.00000E+000,25
1149,1337,2.26306E+001,5.65890E-001,-1.01081E-001,8.45963E+000,-2.55886E-001,-1.03178E-001,8.46413E+000,1.97728E-002,4.84087E-001,0,1.27667E+002,-4.98486E+000,9.98443E-001,9.14689E+001,-3.40885E+001,9.97649E-001,1.62899E-001,-6.61771E-002,-2.15723E-003,1.62919E-001,-6.61974E-002,-5.39497E-001,1.63870E-001,1.17672E+000,-2.19155E-002,0.00000E+000,1.34158E-002,9.38190E-001,0.00000E+000,-1.56873E-003,-7.03727E-002,1.00000E+000,25
1149,1347,2.26566E+001,1.18242E+000,-6.43336E-002,8.45049E+000,-3.00558E-001,-1.40317E-001,8.45699E+000,1.87575E-002,4.93143E-001,0,1.27652E+002,-5.62258E+000,9.98578E-001,9.19859E+001,-3.46000E+001,9.97308E-001,1.63997E-001,-6.61683E-002,-2.05674E-003,1.64015E-001,-6.61866E-002,-5.11936E-001,1.65030E-001,1.17801E+000,-2.18476E-002,0.00000E+000,1.35630E-002,9.38198E-001,0.00000E+000,-2.03469E-003,-7.03972E-002,1.00000E+000,25
699,1347,-1.17758E+001,5.81952E-001,1.27300E-002,3.39389E+000,-6.07317E-001,2.58301E-002,3.44790E+000,1.32260E-002,5.82318E-001,0,5.28293E+001,-1.00132E+001,9.98583E-001,9.63958E+000,-4.87334E+001,9.98512E-001,1.49677E-001,-6.35030E-002,-1.01379E-003,1.49681E-001,-6.35078E-002,-2.72466E-001,1.50252E-001,1.16146E+000,-1.29338E-003,0.00000E+000,-7.39022E-004,9.41342E-001,0.00000E+000,-1.86244E-003,-7.82618E-002,1.00000E+000,25
699,1357,-1.17606E+001,1.18441E+000,2.20939E-002,3.38862E+000,-6.51605E-001,-1.52470E-002,3.45073E+000,1.26804E-002,5.84423E-001,0,5.28646E+001,-1.06308E+001,9.98497E-001,1.00317E+001,-4.94870E+001,9.98442E-001,1.48718E-001,-6.35107E-002,-1.15095E-003,1.48724E-001,-6.35170E-002,-3.10711E-001,1.49251E-001,1.16035E+000,-1.32815E-003,0.00000E+000,-8.79827E-004,9.41337E-001,0.00000E+000,-3.08191E-003,-7.83000E-002,1.00000E+000,25
699,1337,-1.17918E+001,-2.88278E-002,4.02740E-002,3.39235E+000,-5.75122E-001,7.08848E-002,3.44149E+000,9.96543E-003,5.58512E-001,0,5.26760E+001,-9.60054E+000,9.98500E-001,9.33145E+000,-4.82019E+001,9.98463E-001,1.50630E-001,-6.34975E-002,-8.81326E-004,1.50634E-001,-6.35011E-002,-2.35818E-001,1.51251E-001,1.16257E+000,-1.26874E-003,0.00000E+000,-5.98543E-004,9.41345E-001,0.00000E+000,-6.45802E-004,-7.82347E-002,1.00000E+000,25
699,1317,-1.18032E+001,-1.20152E+000,2.07118E-001,3.39248E+000,-4.80108E-001,1.77475E-001,3.43087E+000,1.45500E-002,6.23816E-001,0,5.23503E+001,-8.32329E+000,9.98624E-001,9.34072E+000,-4.65707E+001,9.98097E-001,1.52514E-001,-6.34929E-002,-6.31354E-004,1.52516E-001,-6.34947E-002,-1.67465E-001,1.53226E-001,1.16476E+000,-1.24904E-003,0.00000E+000,-3.20132E-004,9.41347E-001,0.00000E+000,1.76543E-003,-7.82130E-002,1.00000E+000,25
699,1327,-1.17976E+001,-6.11829E-001,1.09059E-001,3.39402E+000,-5.24935E-001,1.19210E-001,3.43645E+000,1.11808E-002,6.95979E-001,0,5.25529E+001,-8.93061E+000,9.98572E-001,9.29546E+000,-4.72514E+001,9.97642E-001,1.51571E-001,-6.34945E-002,-7.55344E-004,1.51574E-001,-6.34972E-002,-2.01228E-001,1.52237E-001,1.16366E+000,-1.25599E-003,0.00000E+000,-4.59630E-004,9.41346E-001,0.00000E+000,5.57280E-004,-7.82206E-002,1.00000E+000,25
1159,1307,2.33901E+001,-1.24711E+000,-8.50840E-003,8.61634E+000,-1.20369E-001,2.74303E-002,8.61722E+000,1.55296E-002,3.76392E-001,0,1.29417E+002,-3.04762E+000,9.97018E-001,9.32969E+001,-3.23885E+001,9.95715E-001,1.60265E-001,-6.65230E-002,-2.47572E-003,1.60292E-001,-6.65500E-002,-6.25367E-001,1.61059E-001,1.17364E+000,-2.10437E-002,0.00000E+000,1.21568E-002,9.37903E-001,0.00000E+000,-1.46771E-003,-7.06622E-002,1.00000E+000,25
1159,1317,2.33940E+001,-6.37312E-001,-6.74954E-002,8.60713E+000,-1.58539E-001,-1.72342E-002,8.60861E+000,1.56328E-002,4.39744E-001,0,1.29456E+002,-3.59953E+000,9.97528E-001,9.33233E+001,-3.27606E+001,9.97452E-001,1.61427E-001,-6.65236E-002,-2.46449E-003,1.61453E-001,-6.65502E-002,-6.19358E-001,1.62281E-001,1.17500E+000,-2.10164E-002,0.00000E+000,1.21684E-002,9.37903E-001,0.00000E+000,-1.95255E-003,-7.06719E-002,1.00000E+000,25
1159,1327,2.34042E+001,-2.98461E-002,-9.21151E-002,8.59734E+000,-2.01828E-001,-5.45590E-002,8.59988E+000,1.07374E-002,4.19070E-001,0,1.29451E+002,-4.22228E+000,9.98775E-001,9.34979E+001,-3.32864E+001,9.98242E-001,1.62589E-001,-6.65245E-002,-2.44747E-003,1.62615E-001,-6.65506E-002,-6.11961E-001,1.63505E-001,1.17637E+000,-2.09751E-002,0.00000E+000,1.21801E-002,9.37904E-001,0.00000E+000,-2.43834E-003,-7.06866E-002,1.00000E+000,25
1159,1297,2.33888E+001,-1.84531E+000,6.89553E-002,8.62436E+000,-7.55264E-002,7.56415E-002,8.62503E+000,1.58269E-002,4.25584E-001,0,1.29339E+002,-2.41370E+000,9.97762E-001,9.33399E+001,-3.18197E+001,9.93743E-001,1.59109E-001,-6.65224E-002,-2.48369E-003,1.59137E-001,-6.65497E-002,-6.30593E-001,1.59845E-001,1.17228E+000,-2.10632E-002,0.00000E+000,1.21453E-002,9.37903E-001,0.00000E+000,-9.85932E-004,-7.06553E-002,1.00000E+000,25
1159,1337,2.34270E+001,5.78465E-001,-8.45713E-002,8.59060E+000,-2.51445E-001,-9.76830E-002,8.59483E+000,1.43143E-002,4.51756E-001,0,1.29506E+002,-4.93327E+000,9.99382E-001,9.39178E+001,-3.38441E+001,9.99268E-001,1.63758E-001,-6.65256E-002,-2.42224E-003,1.63783E-001,-6.65510E-002,-6.02578E-001,1.64738E-001,1.17775E+000,-2.09140E-002,0.00000E+000,1.21918E-002,9.37904E-001,0.00000E+000,-2.92790E-003,-7.07082E-002,1.00000E+000,25
1159,1347,2.34443E+001,1.19578E+000,-6.46281E-002,8.57529E+000,-2.92487E-001,-1.40817E-001,8.58143E+000,1.60648E-002,4.31092E-001,0,1.29426E+002,-5.51019E+000,9.98789E-001,9.42716E+001,-3.43206E+001,9.98130E-001,1.64925E-001,-6.65268E-002,-2.39446E-003,1.64949E-001,-6.65515E-002,-5.92663E-001,1.65971E-001,1.17913E+000,-2.08466E-002,0.00000E+000,1.22035E-002,9.37905E-001,0.00000E+000,-3.41728E-003,-7.07322E-002,1.00000E+000,25
689,1347,-1.25214E+001,5.71029E-001,1.58700E-002,3.28922E+000,-6.14588E-001,2.05859E-002,3.34621E+000,1.13241E-002,5.99354E-001,0,5.12531E+001,-1.00946E+001,9.99040E-001,8.22638E+000,-4.90072E+001,9.98447E-001,1.48238E-001,-6.28130E-002,-1.00008E-003,1.48243E-001,-6.28178E-002,-2.71491E-001,1.48817E-001,1.15979E+000,-1.19425E-004,0.00000E+000,-1.66116E-003,9.41915E-001,0.00000E+000,-1.86410E-003,-7.72252E-002,1.00000E+000,25
689,1357,-1.25083E+001,1.17367E+000,1.97761E-002,3.28415E+000,-6.56208E-001,-1.41894E-002,3.34910E+000,1.16670E-002,5.76258E-001,0,5.12732E+001,-1.06803E+001,9.98903E-001,8.57320E+000,-4.97608E+001,9.98767E-001,1.47087E-001,-6.28215E-002,-1.17140E-003,1.47094E-001,-6.28280E-002,-3.19726E-001,1.47614E-001,1.15846E+000,-1.56520E-004,0.00000E+000,-1.87651E-003,9.41909E-001,0.00000E+000,-2.94913E-003,-7.72555E-002,1.00000E+000,25
689,1337,-1.25313E+001,-2.39880E-002,4.76402E-002,3.29460E+000,-5.65213E-001,7.51724E-002,3.34358E+000,1.23844E-002,5.75294E-001,0,5.11762E+001,-9.44950E+000,9.98900E-001,8.02538E+000,-4.82398E+001,9.99007E-001,1.49389E-001,-6.28058E-002,-8.30990E-004,1.49393E-001,-6.28091E-002,-2.24375E-001,1.50022E-001,1.16113E+000,-8.80358E-005,0.00000E+000,-1.44539E-003,9.41920E-001,0.00000E+000,-7.76941E-004,-7.71997E-002,1.00000E+000,25
1169,1327,2.41777E+001,-1.89782E-002,-1.03381E-001,8.70921E+000,-1.96593E-001,-6.08086E-002,8.71164E+000,1.02142E-002,4.15072E-001,0,1.31053E+002,-4.14279E+000,9.99123E-001,9.55544E+001,-3.29976E+001,9.98827E-001,1.63161E-001,-6.68142E-002,-2.40881E-003,1.63186E-001,-6.68394E-002,-6.00040E-001,1.64073E-001,1.17707E+000,-1.98830E-002,0.00000E+000,1.14645E-002,9.37651E-001,0.00000E+000,-3.80401E-003,-7.08200E-002,1.00000E+000,25
1169,1337,2.42040E+001,5.97916E-001,-8.24406E-002,8.70394E+000,-2.37950E-001,-9.79659E-002,8.70774E+000,1.33314E-002,4.28096E-001,0,1.31101E+002,-4.74644E+000,9.99310E-001,9.60480E+001,-3.34596E+001,9.98942E-001,1.64330E-001,-6.68191E-002,-2.41190E-003,1.64355E-001,-6.68442E-002,-5.97760E-001,1.65306E-001,1.17845E+000,-1.98176E-002,0.00000E+000,1.14155E-002,9.37648E-001,0.00000E+000,-4.21872E-003,-7.08397E-002,1.00000E+000,25
1169,1347,2.42311E+001,1.21181E+000,-5.42220E-002,8.69628E+000,-2.84068E-001,-1.40312E-001,8.70205E+000,1.30817E-002,4.16397E-001,0,1.31132E+002,-5.40435E+000,9.98669E-001,9.65638E+001,-3.40005E+001,9.98400E-001,1.65498E-001,-6.68243E-002,-2.41242E-003,1.65524E-001,-6.68493E-002,-5.94868E-001,1.66540E-001,1.17983E+000,-1.97457E-002,0.00000E+000,1.13664E-002,9.37646E-001,0.00000E+000,-4.63413E-003,-7.08613E-002,1.00000E+000,25
689,1327,-1.25519E+001,-6.21176E-001,9.52549E-002,3.28367E+000,-5.26326E-001,1.14589E-001,3.32755E+000,1.36585E-002,6.44303E-001,0,5.08890E+001,-8.92111E+000,9.98059E-001,7.70339E+000,-4.74964E+001,9.97666E-001,1.50527E-001,-6.28014E-002,-6.68408E-004,1.50529E-001,-6.28035E-002,-1.79519E-001,1.51215E-001,1.16245E+000,-6.82614E-005,0.00000E+000,-1.23168E-003,9.41923E-001,0.00000E+000,2.99886E-004,-7.71835E-002,1.00000E+000,25
1169,1317,2.41701E+001,-6.28699E-001,-7.11691E-002,8.72131E+000,-1.53170E-001,-1.76886E-002,8.72267E+000,1.89176E-002,3.66051E-001,0,1.31068E+002,-3.53302E+000,9.98393E-001,9.54322E+001,-3.25597E+001,9.98330E-001,1.61995E-001,-6.68107E-002,-2.39563E-003,1.62020E-001,-6.68358E-002,-5.99807E-001,1.62845E-001,1.17569E+000,-1.99238E-002,0.00000E+000,1.15132E-002,9.37652E-001,0.00000E+000,-3.39092E-003,-7.08077E-002,1.00000E+000,25
1169,1307,2.41635E+001,-1.23619E+000,-2.08942E-002,8.72925E+000,-1.15251E-001,2.41253E-002,8.73004E+000,1.57898E-002,4.26072E-001,0,1.31022E+002,-2.98350E+000,9.98388E-001,9.53498E+001,-3.20733E+001,9.97450E-001,1.60840E-001,-6.68078E-002,-2.37845E-003,1.60865E-001,-6.68327E-002,-5.98537E-001,1.61629E-001,1.17433E+000,-1.99543E-002,0.00000E+000,1.15615E-002,9.37653E-001,0.00000E+000,-2.98206E-003,-7.07986E-002,1.00000E+000,25
1169,1297,2.41659E+001,-1.83394E+000,6.75497E-002,8.74014E+000,-6.89062E-002,7.95683E-002,8.74078E+000,1.31855E-002,4.50070E-001,0,1.30954E+002,-2.35008E+000,9.98678E-001,9.54666E+001,-3.15351E+001,9.95788E-001,1.59682E-001,-6.68057E-002,-2.35599E-003,1.59707E-001,-6.68302E-002,-5.95919E-001,1.60413E-001,1.17298E+000,-1.99721E-002,0.00000E+000,1.16098E-002,9.37654E-001,0.00000E+000,-2.57320E-003,-7.07932E-002,1.00000E+000,25
689,1317,-1.25568E+001,-1.20983E+000,1.88267E-001,3.28255E+000,-4.82266E-001,1.67109E-001,3.32199E+000,1.56808E-002,6.11785E-001,0,5.07113E+001,-8.31074E+000,9.98090E-001,7.74574E+000,-4.67674E+001,9.96089E-001,1.51660E-001,-6.27997E-002,-5.11177E-004,1.51661E-001,-6.28009E-002,-1.36567E-001,1.52406E-001,1.16377E+000,-6.03350E-005,0.00000E+000,-1.01832E-003,9.41924E-001,0.00000E+000,1.37491E-003,-7.71771E-002,1.00000E+000,25
679,1347,-1.32742E+001,5.65810E-001,1.37549E-002,3.17878E+000,-6.11376E-001,1.99980E-002,3.23711E+000,1.74117E-002,6.04878E-001,0,4.95694E+001,-1.00685E+001,9.98357E-001,6.69457E+000,-4.91888E+001,9.98051E-001,1.46738E-001,-6.21608E-002,-1.04285E-003,1.46743E-001,-6.21660E-002,-2.86018E-001,1.47313E-001,1.15805E+000,1.15208E-003,0.00000E+000,-2.76388E-003,9.42457E-001,0.00000E+000,-1.99550E-003,-7.62562E-002,1.00000E+000,25
679,1357,-1.32473E+001,1.16777E+000,1.30454E-002,3.18912E+000,-6.54779E-001,-1.11941E-002,3.25566E+000,8.82472E-003,5.87818E-001,0,4.98195E+001,-1.06556E+001,9.98939E-001,7.24175E+000,-4.99394E+001,9.98786E-001,1.45297E-001,-6.21738E-002,-1.33751E-003,1.45306E-001,-6.21825E-002,-3.69351E-001,1.45808E-001,1.15639E+000,1.10983E-003,0.00000E+000,-3.20901E-003,9.42445E-001,0.00000E+000,-3.10766E-003,-7.62844E-002,1.00000E+000,25
1179,1297,2.49340E+001,-1.82733E+000,4.44907E-002,8.85118E+000,-6.46872E-002,7.99650E-002,8.85178E+000,2.14163E-002,5.00298E-001,0,1.32516E+002,-2.32541E+000,9.99177E-001,9.74267E+001,-3.12664E+001,9.96799E-001,1.60130E-001,-6.69745E-002,-2.32678E-003,1.60154E-001,-6.69983E-002,-5.86937E-001,1.60865E-001,1.17352E+000,-1.91318E-002,0.00000E+000,1.10971E-002,9.37533E-001,0.00000E+000,-4.20975E-003,-7.12536E-002,1.00000E+000,25
1179,1307,2.49406E+001,-1.22838E+000,-2.92774E-002,8.84679E+000,-1.09154E-001,2.93108E-002,8.84752E+000,1.02925E-002,3.56478E-001,0,1.32660E+002,-2.91771E+000,9.99278E-001,9.74736E+001,-3.18745E+001,9.97962E-001,1.61210E-001,-6.69740E-002,-2.30256E-003,1.61233E-001,-6.69972E-002,-5.78083E-001,1.61998E-001,1.17479E+000,-1.91103E-002,0.00000E+000,1.11245E-002,9.37534E-001,0.00000E+000,-4.44343E-003,-7.12575E-002,1.00000E+000,25
1179,1317,2.49431E+001,-6.20617E-001,-1.12723E-001,8.83927E+000,-1.45865E-001,-2.69892E-002,8.84051E+000,2.37351E-002,3.07304E-001,0,1.32776E+002,-3.40022E+000,9.99204E-001,9.74421E+001,-3.22777E+001,9.98470E-001,1.62290E-001,-6.69735E-002,-2.27915E-003,1.62313E-001,-6.69962E-002,-5.69513E-001,1.63135E-001,1.17606E+000,-1.90907E-002,0.00000E+000,1.11520E-002,9.37534E-001,0.00000E+000,-4.67758E-003,-7.12612E-002,1.00000E+000,25
1179,1337,2.49840E+001,6.05969E-001,-1.00094E-001,8.82025E+000,-2.35214E-001,-1.15643E-001,8.82415E+000,1.12839E-002,4.34968E-001,0,1.32812E+002,-4.70664E+000,9.99159E-001,9.81968E+001,-3.31926E+001,9.97978E-001,1.64478E-001,-6.69717E-002,-2.19992E-003,1.64499E-001,-6.69926E-002,-5.44529E-001,1.65440E-001,1.17864E+000,-1.89748E-002,0.00000E+000,1.12077E-002,9.37537E-001,0.00000E+000,-5.15267E-003,-7.12825E-002,1.00000E+000,25
1179,1347,2.50225E+001,1.22625E+000,-6.08107E-002,8.82142E+000,-2.77804E-001,-1.56269E-001,8.82718E+000,1.12122E-002,4.37611E-001,0,1.32965E+002,-5.30397E+000,9.99199E-001,9.89057E+001,-3.36487E+001,9.98613E-001,1.65576E-001,-6.69706E-002,-2.15433E-003,1.65596E-001,-6.69905E-002,-5.30732E-001,1.66599E-001,1.17994E+000,-1.89025E-002,0.00000E+000,1.12357E-002,9.37538E-001,0.00000E+000,-5.39144E-003,-7.12958E-002,1.00000E+000,25
679,1327,-1.32977E+001,-6.28466E-001,1.01129E-001,3.17937E+000,-5.27864E-001,1.18487E-001,3.22507E+000,1.59024E-002,5.93811E-001,0,4.92909E+001,-8.92505E+000,9.97736E-001,6.29999E+000,-4.77502E+001,9.96883E-001,1.49588E-001,-6.21420E-002,-4.67750E-004,1.49589E-001,-6.21430E-002,-1.26576E-001,1.50301E-001,1.16136E+000,1.21358E-003,0.00000E+000,-1.88008E-003,9.42473E-001,0.00000E+000,2.12721E-004,-7.62151E-002,1.00000E+000,25
679,1337,-1.32848E+001,-3.12107E-002,4.12057E-002,3.18355E+000,-5.66675E-001,7.16225E-002,3.23439E+000,1.77003E-002,5.81769E-001,0,4.94943E+001,-9.44916E+000,9.98264E-001,6.47059E+000,-4.84406E+001,9.98215E-001,1.48168E-001,-6.21486E-002,-7.50969E-004,1.48171E-001,-6.21513E-002,-2.04580E-001,1.48810E-001,1.15971E+000,1.19134E-003,0.00000E+000,-2.32096E-003,9.42467E-001,0.00000E+000,-8.88843E-004,-7.62299E-002,1.00000E+000,25
1179,1327,2.49575E+001,-1.32921E-002,-1.11620E-001,8.82780E+000,-1.93606E-001,-6.05595E-002,8.83013E+000,1.58878E-002,3.95156E-001,0,1.32728E+002,-4.14266E+000,9.99156E-001,9.77169E+001,-3.28034E+001,9.97314E-001,1.63382E-001,-6.69727E-002,-2.24285E-003,1.63403E-001,-6.69945E-002,-5.57790E-001,1.64284E-001,1.17735E+000,-1.90406E-002,0.00000E+000,1.11797E-002,9.37535E-001,0.00000E+000,-4.91438E-003,-7.12704E-002,1.00000E+000,25
679,1317,-1.33034E+001,-1.21594E+000,1.97300E-001,3.17752E+000,-4.82919E-001,1.74828E-001,3.21876E+000,1.30411E-002,6.36125E-001,0,4.90918E+001,-8.34464E+000,9.98469E-001,6.33920E+000,-4.69707E+001,9.96827E-001,1.51002E-001,-6.21394E-002,-1.90544E-004,1.51002E-001,-6.21395E-002,-5.12212E-002,1.51788E-001,1.16300E+000,1.22361E-003,0.00000E+000,-1.44036E-003,9.42476E-001,0.00000E+000,1.31136E-003,-7.62083E-002,1.00000E+000,25
669,1327,-1.40391E+001,-6.43822E-001,1.03664E-001,3.07976E+000,-5.36411E-001,1.23012E-001,3.12855E+000,1.12024E-002,5.82359E-001,0,4.77642E+001,-9.06836E+000,9.99263E-001,4.95753E+000,-4.81010E+001,9.98786E-001,1.48502E-001,-6.15970E-002,-2.04082E-004,1.48502E-001,-6.15972E-002,-5.56549E-002,1.49219E-001,1.16009E+000,3.24746E-003,0.00000E+000,-3.00929E-003,9.42908E-001,0.00000E+000,-2.83948E-005,-7.51479E-002,1.00000E+000,25
669,1337,-1.40291E+001,-3.85971E-002,4.32225E-002,3.08070E+000,-5.69216E-001,7.33096E-002,3.13370E+000,1.08067E-002,6.06175E-001,0,4.79223E+001,-9.48087E+000,9.98761E-001,5.08430E+000,-4.86522E+001,9.98637E-001,1.46758E-001,-6.16045E-002,-5.55824E-004,1.46760E-001,-6.16060E-002,-1.52839E-001,1.47388E-001,1.15807E+000,3.21915E-003,0.00000E+000,-3.58129E-003,9.42900E-001,0.00000E+000,-1.10441E-003,-7.51630E-002,1.00000E+000,25
669,1347,-1.40145E+001,5.58186E-001,8.61121E-003,3.08341E+000,-6.11371E-001,3.29292E-002,3.14361E+000,9.50193E-003,5.90248E-001,0,4.80820E+001,-1.00649E+001,9.98560E-001,5.35165E+000,-4.94092E+001,9.98503E-001,1.45011E-001,-6.16149E-002,-9.11396E-004,1.45015E-001,-6.16189E-002,-2.52716E-001,1.45559E-001,1.15605E+000,3.18184E-003,0.00000E+000,-4.15302E-003,9.42890E-001,0.00000E+000,-2.17990E-003,-7.51828E-002,1.00000E+000,25
669,1357,-1.39899E+001,1.16803E+000,1.35385E-002,3.08861E+000,-6.46934E-001,-9.86770E-003,3.15565E+000,9.94543E-003,5.89531E-001,0,4.82807E+001,-1.05459E+001,9.98405E-001,5.88283E+000,-5.00449E+001,9.98611E-001,1.43251E-001,-6.16330E-002,-1.27894E-003,1.43259E-001,-6.16410E-002,-3.57636E-001,1.43722E-001,1.15402E+000,3.12126E-003,0.00000E+000,-4.72774E-003,9.42872E-001,0.00000E+000,-3.26104E-003,-7.52151E-002,1.00000E+000,25
1189,1337,2.57720E+001,6.17153E-001,-1.09091E-001,8.94373E+000,-2.31599E-001,-1.26350E-001,8.94762E+000,1.48706E-002,4.39120E-001,0,1.34599E+002,-4.63810E+000,9.99219E-001,1.00490E+002,-3.28969E+001,9.98340E-001,1.64205E-001,-6.72388E-002,-1.99551E-003,1.64222E-001,-6.72560E-002,-4.93956E-001,1.65115E-001,1.17833E+000,-1.82196E-002,0.00000E+000,1.10366E-002,9.37286E-001,0.00000E+000,-5.75330E-003,-7.12626E-002,1.00000E+000,25
669,1317,-1.40415E+001,-1.22474E+000,2.14545E-001,3.08001E+000,-4.85367E-001,1.87243E-001,3.12364E+000,1.31287E-002,6.05090E-001,0,4.75741E+001,-8.41161E+000,9.99237E-001,5.09074E+000,-4.72592E+001,9.98863E-001,1.50232E-001,-6.15961E-002,1.37210E-004,1.50232E-001,-6.15962E-002,3.71128E-002,1.51041E-001,1.16210E+000,3.25581E-003,0.00000E+000,-2.44033E-003,9.42911E-001,0.00000E+000,1.04189E-003,-7.51434E-002,1.00000E+000,25
1189,1297,2.57220E+001,-1.81903E+000,5.41631E-002,8.97138E+000,-6.25557E-002,7.30742E-002,8.97190E+000,1.50218E-002,4.67109E-001,0,1.34231E+002,-2.30590E+000,9.99050E-001,9.97482E+001,-3.10811E+001,9.96475E-001,1.60514E-001,-6.72329E-002,-2.00624E-003,1.60531E-001,-6.72506E-002,-5.04671E-001,1.61233E-001,1.17399E+000,-1.83476E-002,0.00000E+000,1.11793E-002,9.37291E-001,0.00000E+000,-5.85590E-003,-7.12656E-002,1.00000E+000,25
1189,1307,2.57152E+001,-1.22162E+000,-4.32841E-002,8.95810E+000,-1.09227E-001,1.67430E-002,8.95878E+000,1.17559E-002,4.13704E-001,0,1.34272E+002,-2.91840E+000,9.98286E-001,9.95525E+001,-3.16170E+001,9.98043E-001,1.61431E-001,-6.72337E-002,-2.01227E-003,1.61449E-001,-6.72514E-002,-5.04156E-001,1.62197E-001,1.17507E+000,-1.83366E-002,0.00000E+000,1.11439E-002,9.37290E-001,0.00000E+000,-5.83043E-003,-7.12654E-002,1.00000E+000,25
1189,1317,2.57339E+001,-6.00238E-001,-8.52767E-002,8.95717E+000,-1.40576E-001,-3.46138E-002,8.95834E+000,1.37389E-002,4.12967E-001,0,1.34455E+002,-3.31179E+000,9.99060E-001,9.98328E+001,-3.18710E+001,9.99160E-001,1.62357E-001,-6.72352E-002,-2.00950E-003,1.62374E-001,-6.72528E-002,-5.01429E-001,1.63170E-001,1.17615E+000,-1.83044E-002,0.00000E+000,1.11081E-002,9.37289E-001,0.00000E+000,-5.80473E-003,-7.12646E-002,1.00000E+000,25
1189,1327,2.57516E+001,4.00769E-003,-1.03697E-001,8.95131E+000,-1.89248E-001,-7.84880E-002,8.95365E+000,1.68284E-002,4.41749E-001,0,1.34536E+002,-4.03502E+000,9.99265E-001,1.00131E+002,-3.24297E+001,9.98935E-001,1.63280E-001,-6.72369E-002,-2.00397E-003,1.63297E-001,-6.72543E-002,-4.98043E-001,1.64141E-001,1.17724E+000,-1.82656E-002,0.00000E+000,1.10724E-002,9.37288E-001,0.00000E+000,-5.77905E-003,-7.12637E-002,1.00000E+000,25
659,1327,-1.47776E+001,-6.31039E-001,1.09951E-001,2.98142E+000,-5.19091E-001,1.24563E-001,3.02884E+000,1.71537E-002,5.75756E-001,0,4.62558E+001,-8.78282E+000,9.99053E-001,3.68134E+000,-4.80245E+001,9.97665E-001,1.47153E-001,-6.12271E-002,-1.57435E-004,1.47153E-001,-6.12272E-002,-4.32879E-002,1.47842E-001,1.15852E+000,5.37346E-003,0.00000E+000,-4.62029E-003,9.43200E-001,0.00000E+000,-4.11110E-004,-7.44285E-002,1.00000E+000,25
659,1337,-1.47496E+001,-5.22319E-002,5.82181E-002,3.00048E+000,-5.78248E-001,8.33635E-002,3.05683E+000,2.55533E-002,6.61547E-001,0,4.66778E+001,-9.65856E+000,9.98664E-001,4.10191E+000,-4.89692E+001,9.98293E-001,1.45270E-001,-6.12335E-002,-5.20378E-004,1.45271E-001,-6.12348E-002,-1.44381E-001,1.45866E-001,1.15634E+000,5.34316E-003,0.00000E+000,-5.21920E-003,9.43191E-001,0.00000E+000,-1.44586E-003,-7.44429E-002,1.00000E+000,25
659,1347,-1.47412E+001,5.54415E-001,2.76445E-002,2.99684E+000,-6.10242E-001,4.60739E-002,3.05869E+000,1.39381E-002,6.17484E-001,0,4.67264E+001,-1.00790E+001,9.99159E-001,4.28715E+000,-4.96005E+001,9.99157E-001,1.43384E-001,-6.12430E-002,-8.87430E-004,1.43388E-001,-6.12469E-002,-2.48475E-001,1.43894E-001,1.15417E+000,5.30283E-003,0.00000E+000,-5.81753E-003,9.43180E-001,0.00000E+000,-2.47959E-003,-7.44621E-002,1.00000E+000,25
659,1357,-1.47253E+001,1.16860E+000,2.51597E-002,2.99412E+000,-6.40652E-001,-9.35122E-004,3.06190E+000,9.87237E-003,6.03926E-001,0,4.68120E+001,-1.04642E+001,9.98792E-001,4.66799E+000,-5.01631E+001,9.98993E-001,1.41484E-001,-6.12596E-002,-1.26602E-003,1.41491E-001,-6.12675E-002,-3.57761E-001,1.41914E-001,1.15198E+000,5.24009E-003,0.00000E+000,-6.41875E-003,9.43163E-001,0.00000E+000,-3.51832E-003,-7.44919E-002,1.00000E+000,25
1199,1307,2.64962E+001,-1.21073E+000,-4.72184E-002,9.07220E+000,-1.06397E-001,2.33042E-003,9.07282E+000,1.56295E-002,4.39286E-001,0,1.35927E+002,-2.86287E+000,9.98404E-001,1.01750E+002,-3.13324E+001,9.97640E-001,1.61482E-001,-6.71943E-002,-1.61957E-003,1.61493E-001,-6.72058E-002,-4.05764E-001,1.62248E-001,1.17514E+000,-1.73139E-002,0.00000E+000,1.11277E-002,9.37303E-001,0.00000E+000,-6.68390E-003,-7.09176E-002,1.00000E+000,25
1199,1317,2.65068E+001,-6.02177E-001,-9.73651E-002,9.06555E+000,-1.47681E-001,-4.78727E-002,9.06687E+000,1.38743E-002,4.30619E-001,0,1.36027E+002,-3.43428E+000,9.97606E-001,1.01891E+002,-3.17711E+001,9.96832E-001,1.62302E-001,-6.71968E-002,-1.63560E-003,1.62314E-001,-6.72085E-002,-4.08310E-001,1.63111E-001,1.17611E+000,-1.72887E-002,0.00000E+000,1.10470E-002,9.37301E-001,0.00000E+000,-6.39938E-003,-7.09101E-002,1.00000E+000,25
1199,1327,2.65246E+001,1.13298E-002,-1.27981E-001,9.06344E+000,-1.85101E-001,-8.93152E-002,9.06577E+000,1.44429E-002,4.14452E-001,0,1.36155E+002,-3.97100E+000,9.98381E-001,1.02175E+002,-3.21797E+001,9.97666E-001,1.63123E-001,-6.71997E-002,-1.64999E-003,1.63135E-001,-6.72115E-002,-4.10428E-001,1.63975E-001,1.17707E+000,-1.72594E-002,0.00000E+000,1.09663E-002,9.37299E-001,0.00000E+000,-6.11464E-003,-7.09015E-002,1.00000E+000,25
659,1317,-1.47913E+001,-1.22731E+000,1.91123E-001,2.97279E+000,-4.82467E-001,1.73088E-001,3.01665E+000,1.37610E-002,6.05120E-001,0,4.59788E+001,-8.30652E+000,9.98227E-001,3.55700E+000,-4.73520E+001,9.95325E-001,1.49021E-001,-6.12248E-002,1.97876E-004,1.49021E-001,-6.12250E-002,5.39247E-002,1.49809E-001,1.16068E+000,5.39057E-003,0.00000E+000,-4.02455E-003,9.43204E-001,0.00000E+000,6.18145E-004,-7.44204E-002,1.00000E+000,25
1199,1337,2.65585E+001,6.29820E-001,-1.01472E-001,9.06250E+000,-2.27389E-001,-1.30724E-001,9.06629E+000,1.19745E-002,4.31146E-001,0,1.36284E+002,-4.57751E+000,9.99036E-001,1.02787E+002,-3.26214E+001,9.97873E-001,1.63951E-001,-6.72039E-002,-1.65563E-003,1.63962E-001,-6.72158E-002,-4.10348E-001,1.64847E-001,1.17805E+000,-1.72085E-002,0.00000E+000,1.08848E-002,9.37295E-001,0.00000E+000,-5.82695E-003,-7.08865E-002,1.00000E+000,25
1199,1297,2.65017E+001,-1.80219E+000,4.46588E-002,9.08496E+000,-5.31314E-002,5.57284E-002,9.08529E+000,1.21010E-002,4.36673E-001,0,1.35886E+002,-2.11556E+000,9.98348E-001,1.01918E+002,-3.07218E+001,9.96744E-001,1.60664E-001,-6.71927E-002,-1.59759E-003,1.60675E-001,-6.72039E-002,-4.01696E-001,1.61389E-001,1.17419E+000,-1.73248E-002,0.00000E+000,1.12080E-002,9.37304E-001,0.00000E+000,-6.96710E-003,-7.09208E-002,1.00000E+000,25
649,1347,-1.54875E+001,5.58169E-001,2.35461E-002,2.89066E+000,-6.01784E-001,3.76889E-002,2.95287E+000,1.43919E-002,6.41851E-001,0,4.51227E+001,-9.91913E+000,9.98611E-001,2.86769E+000,-4.96301E+001,9.97593E-001,1.41592E-001,-6.06913E-002,-7.94513E-004,1.41595E-001,-6.06944E-002,-2.25038E-001,1.42075E-001,1.15209E+000,7.69077E-003,0.00000E+000,-7.57057E-003,9.43633E-001,0.00000E+000,-2.89871E-003,-7.36706E-002,1.00000E+000,25
649,1357,-1.54672E+001,1.16606E+000,3.11447E-002,2.89296E+000,-6.37439E-001,3.28947E-003,2.96235E+000,9.70134E-003,5.94705E-001,0,4.52521E+001,-1.04056E+001,9.99001E-001,3.34388E+000,-5.03296E+001,9.98622E-001,1.39432E-001,-6.07058E-002,-1.17296E-003,1.39438E-001,-6.07127E-002,-3.35784E-001,1.39826E-001,1.14961E+000,7.62199E-003,0.00000E+000,-8.16939E-003,9.43616E-001,0.00000E+000,-3.98673E-003,-7.37008E-002,1.00000E+000,25
649,1337,-1.55070E+001,-4.33033E-002,5.69488E-002,2.88286E+000,-5.63095E-001,7.67656E-002,2.93834E+000,1.53429E-002,6.03354E-001,0,4.48899E+001,-9.38431E+000,9.98860E-001,2.52037E+000,-4.89664E+001,9.98172E-001,1.43744E-001,-6.06836E-002,-4.26951E-004,1.43745E-001,-6.06845E-002,-1.19663E-001,1.44324E-001,1.15457E+000,7.73552E-003,0.00000E+000,-6.97229E-003,9.43643E-001,0.00000E+000,-1.81168E-003,-7.36510E-002,1.00000E+000,25
649,1327,-1.55261E+001,-6.24921E-001,1.06603E-001,2.87225E+000,-5.09156E-001,1.13778E-001,2.91925E+000,1.18757E-002,5.72828E-001,0,4.46130E+001,-8.58079E+000,9.99373E-001,2.22972E+000,-4.80297E+001,9.99009E-001,1.45879E-001,-6.06791E-002,-6.65803E-005,1.45879E-001,-6.06792E-002,-1.84683E-002,1.46564E-001,1.15703E+000,7.76796E-003,0.00000E+000,-6.37699E-003,9.43651E-001,0.00000E+000,-7.30055E-004,-7.36368E-002,1.00000E+000,25
1209,1307,2.72783E+001,-1.19518E+000,-4.76386E-002,9.18765E+000,-9.76488E-002,-5.95734E-003,9.18817E+000,1.24308E-002,4.39127E-001,0,1.37571E+002,-2.73135E+000,9.98650E-001,1.03975E+002,-3.09958E+001,9.97468E-001,1.61164E-001,-6.68435E-002,-1.20150E-003,1.61170E-001,-6.68498E-002,-3.01913E-001,1.61948E-001,1.17479E+000,-1.62128E-002,0.00000E+000,1.10672E-002,9.37600E-001,0.00000E+000,-6.97680E-003,-7.04293E-002,1.00000E+000,25
1209,1317,2.72868E+001,-5.93540E-001,-1.02704E-001,9.18066E+000,-1.45043E-001,-5.40479E-002,9.18197E+000,1.39392E-002,4.36362E-001,0,1.37665E+002,-3.40477E+000,9.98593E-001,1.04077E+002,-3.15270E+001,9.96595E-001,1.62012E-001,-6.68452E-002,-1.20952E-003,1.62018E-001,-6.68515E-002,-3.02799E-001,1.62841E-001,1.17578E+000,-1.61893E-002,0.00000E+000,1.09913E-002,9.37598E-001,0.00000E+000,-6.50646E-003,-7.04181E-002,1.00000E+000,25
1209,1327,2.73146E+001,2.56726E-002,-1.20710E-001,9.18368E+000,-1.79033E-001,-1.00537E-001,9.18597E+000,1.33748E-002,3.92122E-001,0,1.37883E+002,-3.87341E+000,9.98862E-001,1.04531E+002,-3.18859E+001,9.97806E-001,1.62862E-001,-6.68475E-002,-1.21180E-003,1.62868E-001,-6.68539E-002,-3.02245E-001,1.63736E-001,1.17678E+000,-1.61518E-002,0.00000E+000,1.09151E-002,9.37595E-001,0.00000E+000,-6.03453E-003,-7.04004E-002,1.00000E+000,25
1209,1337,2.73479E+001,6.42430E-001,-9.12478E-002,9.18173E+000,-2.24538E-001,-1.40009E-001,9.18554E+000,1.34067E-002,4.46347E-001,0,1.37990E+002,-4.53573E+000,9.98846E-001,1.05136E+002,-3.23410E+001,9.96900E-001,1.63720E-001,-6.68506E-002,-1.20759E-003,1.63726E-001,-6.68570E-002,-3.00070E-001,1.64641E-001,1.17779E+000,-1.60984E-002,0.00000E+000,1.08381E-002,9.37591E-001,0.00000E+000,-5.55765E-003,-7.03751E-002,1.00000E+000,25
1209,1297,2.72821E+001,-1.78964E+000,3.44418E-002,9.20053E+000,-4.56660E-002,4.45196E-002,9.20075E+000,1.14574E-002,4.11980E-001,0,1.37546E+002,-1.99291E+000,9.98694E-001,1.04102E+002,-3.04249E+001,9.96780E-001,1.60316E-001,-6.68422E-002,-1.18949E-003,1.60322E-001,-6.68484E-002,-3.00013E-001,1.61057E-001,1.17380E+000,-1.62268E-002,0.00000E+000,1.11430E-002,9.37601E-001,0.00000E+000,-7.44624E-003,-7.04359E-002,1.00000E+000,25
649,1317,-1.55318E+001,-1.22240E+000,1.91761E-001,2.87019E+000,-4.74976E-001,1.58821E-001,2.91356E+000,1.04162E-002,5.95043E-001,0,4.44492E+001,-8.13338E+000,9.98909E-001,2.23826E+000,-4.73848E+001,9.98486E-001,1.48002E-001,-6.06797E-002,2.84872E-004,1.48003E-001,-6.06801E-002,7.82144E-002,1.48800E-001,1.15949E+000,7.78214E-003,0.00000E+000,-5.78335E-003,9.43655E-001,0.00000E+000,3.48563E-004,-7.36305E-002,1.00000E+000,25
639,1347,-1.62309E+001,5.64225E-001,2.11841E-002,2.78801E+000,-5.89495E-001,3.70897E-002,2.84989E+000,1.48120E-002,6.05925E-001,0,4.35495E+001,-9.69696E+000,9.98083E-001,1.50262E+000,-4.96581E+001,9.97343E-001,1.39947E-001,-5.99717E-002,-7.01745E-004,1.39949E-001,-5.99742E-002,-2.01114E-001,1.40425E-001,1.15018E+000,1.03441E-002,0.00000E+000,-9.55927E-003,9.44217E-001,0.00000E+000,-3.21120E-003,-7.25661E-002,1.00000E+000,25
639,1357,-1.62083E+001,1.17399E+000,2.99196E-002,2.79253E+000,-6.23892E-001,2.76786E-003,2.86138E+000,9.66272E-003,5.93427E-001,0,4.37123E+001,-1.01710E+001,9.98738E-001,2.01829E+000,-5.03156E+001,9.98650E-001,1.37610E-001,-5.99843E-002,-1.07138E-003,1.37616E-001,-5.99901E-002,-3.10653E-001,1.37992E-001,1.14750E+000,1.02699E-002,0.00000E+000,-1.01381E-002,9.44201E-001,0.00000E+000,-4.39147E-003,-7.25989E-002,1.00000E+000,25
639,1317,-1.62676E+001,-1.22914E+000,2.17350E-001,2.77226E+000,-4.80344E-001,1.71211E-001,2.81877E+000,1.35299E-002,6.64091E-001,0,4.29192E+001,-8.23832E+000,9.98886E-001,1.06414E+000,-4.76097E+001,9.97746E-001,1.46861E-001,-5.99682E-002,3.39424E-004,1.46862E-001,-5.99687E-002,9.40270E-002,1.47682E-001,1.15815E+000,1.04307E-002,0.00000E+000,-7.83626E-003,9.44236E-001,0.00000E+000,3.02000E-004,-7.25280E-002,1.00000E+000,25
639,1327,-1.62601E+001,-6.40939E-001,1.25440E-001,2.77751E+000,-5.20420E-001,1.27172E-001,2.82871E+000,9.99473E-003,5.96280E-001,0,4.31312E+001,-8.78999E+000,9.99137E-001,1.06088E+000,-4.84076E+001,9.98307E-001,1.44577E-001,-5.99645E-002,2.85267E-006,1.44577E-001,-5.99645E-002,7.99084E-004,1.45276E-001,1.15550E+000,1.04213E-002,0.00000E+000,-8.40720E-003,9.44234E-001,0.00000E+000,-8.62140E-004,-7.25321E-002,1.00000E+000,25
639,1337,-1.62496E+001,-3.81755E-002,5.30381E-002,2.78138E+000,-5.53440E-001,7.78372E-002,2.83697E+000,1.24251E-002,6.41923E-001,0,4.33319E+001,-9.21489E+000,9.98590E-001,1.16132E+000,-4.89661E+001,9.97968E-001,1.42266E-001,-5.99653E-002,-3.44464E-004,1.42266E-001,-5.99658E-002,-9.75925E-002,1.42850E-001,1.15284E+000,1.03940E-002,0.00000E+000,-8.98316E-003,9.44228E-001,0.00000E+000,-2.03652E-003,-7.25442E-002,1.00000E+000,25
1219,1317,2.80757E+001,-5.80776E-001,-9.66674E-002,9.30035E+000,-1.42597E-001,-6.25904E-002,9.30165E+000,1.66783E-002,4.81705E-001,0,1.39372E+002,-3.35766E+000,9.98727E-001,1.06418E+002,-3.12230E+001,9.96539E-001,1.61539E-001,-6.68021E-002,-7.05459E-004,1.61541E-001,-6.68043E-002,-1.77013E-001,1.62344E-001,1.17524E+000,-1.48789E-002,0.00000E+000,1.08871E-002,9.37580E-001,0.00000E+000,-6.24459E-003,-6.95284E-002,1.00000E+000,25
1219,1327,2.80996E+001,3.75193E-002,-1.18608E-001,9.30152E+000,-1.75458E-001,-1.05037E-001,9.30377E+000,8.54324E-003,4.16820E-001,0,1.39549E+002,-3.82549E+000,9.99471E-001,1.06806E+002,-3.15968E+001,9.98479E-001,1.62340E-001,-6.68024E-002,-6.90764E-004,1.62342E-001,-6.68045E-002,-1.72720E-001,1.63187E-001,1.17618E+000,-1.48464E-002,0.00000E+000,1.08358E-002,9.37578E-001,0.00000E+000,-5.57468E-003,-6.95051E-002,1.00000E+000,25
1219,1337,2.81357E+001,6.58698E-001,-8.94261E-002,9.30136E+000,-2.17113E-001,-1.47334E-001,9.30506E+000,1.19222E-002,4.77720E-001,0,1.39693E+002,-4.42767E+000,9.99056E-001,1.07451E+002,-3.19775E+001,9.97692E-001,1.63150E-001,-6.68030E-002,-6.68032E-004,1.63152E-001,-6.68049E-002,-1.66447E-001,1.64041E-001,1.17713E+000,-1.47946E-002,0.00000E+000,1.07839E-002,9.37576E-001,0.00000E+000,-4.89569E-003,-6.94682E-002,1.00000E+000,25
1219,1297,2.80674E+001,-1.77776E+000,2.76541E-002,9.31940E+000,-4.08739E-002,3.25998E-002,9.31954E+000,1.25254E-002,3.82366E-001,0,1.39256E+002,-1.88621E+000,9.98650E-001,1.06371E+002,-3.01479E+001,9.96835E-001,1.59933E-001,-6.68016E-002,-7.24066E-004,1.59936E-001,-6.68039E-002,-1.82969E-001,1.60656E-001,1.17336E+000,-1.49182E-002,0.00000E+000,1.09896E-002,9.37582E-001,0.00000E+000,-7.58476E-003,-6.95564E-002,1.00000E+000,25
1219,1307,2.80693E+001,-1.18100E+000,-3.81433E-002,9.30967E+000,-9.22430E-002,-1.11441E-002,9.31014E+000,1.57738E-002,4.09013E-001,0,1.39298E+002,-2.62867E+000,9.98767E-001,1.06356E+002,-3.07160E+001,9.96218E-001,1.60736E-001,-6.68018E-002,-7.15928E-004,1.60738E-001,-6.68041E-002,-1.80274E-001,1.61499E-001,1.17430E+000,-1.49014E-002,0.00000E+000,1.09384E-002,9.37581E-001,0.00000E+000,-6.91550E-003,-6.95444E-002,1.00000E+000,25
629,1347,-1.69689E+001,5.58288E-001,1.67004E-002,2.69079E+000,-5.89066E-001,3.70356E-002,2.75476E+000,1.30906E-002,5.91327E-001,0,4.20606E+001,-9.66950E+000,9.97807E-001,2.15651E-001,-4.98544E+001,9.97319E-001,1.38548E-001,-6.02821E-002,-6.96410E-004,1.38551E-001,-6.02846E-002,-2.00677E-001,1.38939E-001,1.14854E+000,1.30451E-002,0.00000E+000,-1.17714E-002,9.43822E-001,0.00000E+000,-3.19358E-003,-7.14369E-002,1.00000E+000,25
629,1357,-1.69412E+001,1.16863E+000,2.73825E-002,2.70035E+000,-6.22974E-001,2.82867E-003,2.77128E+000,1.10541E-002,5.85357E-001,0,4.23010E+001,-1.01392E+001,9.98119E-001,8.17814E-001,-5.05050E+001,9.97829E-001,1.36309E-001,-6.02874E-002,-8.81138E-004,1.36313E-001,-6.02914E-002,-2.56791E-001,1.36615E-001,1.14598E+000,1.29738E-002,0.00000E+000,-1.20131E-002,9.43815E-001,0.00000E+000,-4.28973E-003,-7.14674E-002,1.00000E+000,25
629,1327,-1.69976E+001,-6.40333E-001,1.21892E-001,2.68029E+000,-5.14040E-001,1.25936E-001,2.73204E+000,1.02928E-002,5.70454E-001,0,4.16456E+001,-8.66390E+000,9.98600E-001,-2.13718E-001,-4.85073E+001,9.98021E-001,1.42986E-001,-6.02807E-002,-3.59561E-004,1.42987E-001,-6.02813E-002,-1.01351E-001,1.43572E-001,1.15364E+000,1.31164E-002,0.00000E+000,-1.12904E-002,9.43829E-001,0.00000E+000,-1.01186E-003,-7.14064E-002,1.00000E+000,25
629,1337,-1.69837E+001,-4.32569E-002,5.33571E-002,2.68760E+000,-5.52444E-001,8.00036E-002,2.74496E+000,1.22631E-002,6.20596E-001,0,4.18910E+001,-9.18562E+000,9.98256E-001,-5.13416E-002,-4.91606E+001,9.97911E-001,1.40771E-001,-6.02802E-002,-5.23754E-004,1.40772E-001,-6.02815E-002,-1.49259E-001,1.41255E-001,1.15109E+000,1.30904E-002,0.00000E+000,-1.15309E-002,9.43826E-001,0.00000E+000,-2.10244E-003,-7.14175E-002,1.00000E+000,25
1229,1317,2.88646E+001,-5.58973E-001,-9.62764E-002,9.42281E+000,-1.27175E-001,-6.50926E-002,9.42389E+000,1.69350E-002,4.73811E-001,0,1.41091E+002,-3.13442E+000,9.98580E-001,1.08759E+002,-3.07928E+001,9.97791E-001,1.61245E-001,-6.64497E-002,-1.13076E-004,1.61245E-001,-6.64497E-002,-2.84537E-002,1.62074E-001,1.17491E+000,-1.35328E-002,0.00000E+000,1.08927E-002,9.37845E-001,0.00000E+000,-5.53605E-003,-6.85228E-002,1.00000E+000,25
1229,1327,2.88829E+001,4.65805E-002,-1.20344E-001,9.41768E+000,-1.76066E-001,-1.10986E-001,9.41998E+000,1.10658E-002,4.83897E-001,0,1.41196E+002,-3.83275E+000,9.99016E-001,1.09052E+002,-3.13218E+001,9.97878E-001,1.61969E-001,-6.64473E-002,-7.13065E-005,1.61969E-001,-6.64473E-002,-1.78864E-002,1.62837E-001,1.17576E+000,-1.35027E-002,0.00000E+000,1.08915E-002,9.37845E-001,0.00000E+000,-4.78248E-003,-6.84961E-002,1.00000E+000,25
1229,1337,2.89194E+001,6.70829E-001,-1.02762E-001,9.42084E+000,-2.09641E-001,-1.53745E-001,9.42442E+000,1.13971E-002,4.32980E-001,0,1.41392E+002,-4.31190E+000,9.98628E-001,1.09688E+002,-3.16832E+001,9.97564E-001,1.62694E-001,-6.64442E-002,-2.40865E-005,1.62694E-001,-6.64442E-002,-6.02282E-003,1.63601E-001,1.17661E+000,-1.34596E-002,0.00000E+000,1.08903E-002,9.37845E-001,0.00000E+000,-4.02756E-003,-6.84578E-002,1.00000E+000,25
629,1317,-1.70096E+001,-1.22673E+000,2.18942E-001,2.67027E+000,-4.71967E-001,1.74008E-001,2.71723E+000,1.17822E-002,6.27183E-001,0,4.13484E+001,-8.09271E+000,9.98697E-001,-2.64371E-001,-4.76968E+001,9.97980E-001,1.45178E-001,-6.02835E-002,-2.04287E-004,1.45178E-001,-6.02837E-002,-5.69680E-002,1.45872E-001,1.15617E+000,1.31244E-002,0.00000E+000,-1.10518E-002,9.43830E-001,0.00000E+000,7.04210E-005,-7.14029E-002,1.00000E+000,25
1229,1297,2.88535E+001,-1.76302E+000,2.64127E-002,9.43862E+000,-3.35197E-002,2.63565E-002,9.43871E+000,1.37166E-002,4.21358E-001,0,1.40943E+002,-1.78159E+000,9.98110E-001,1.08665E+002,-2.98040E+001,9.95493E-001,1.59801E-001,-6.64529E-002,-1.85723E-004,1.59801E-001,-6.64530E-002,-4.70319E-002,1.60554E-001,1.17322E+000,-1.35677E-002,0.00000E+000,1.08951E-002,9.37845E-001,0.00000E+000,-7.03523E-003,-6.85539E-002,1.00000E+000,25
1229,1307,2.88648E+001,-1.15914E+000,-3.90109E-002,9.43951E+000,-7.67065E-002,-1.17152E-002,9.43983E+000,1.95255E-002,4.33297E-001,0,1.41118E+002,-2.41434E+000,9.97916E-001,1.08796E+002,-3.02670E+001,9.96259E-001,1.60523E-001,-6.64515E-002,-1.51112E-004,1.60523E-001,-6.64516E-002,-3.81457E-002,1.61313E-001,1.17406E+000,-1.35542E-002,0.00000E+000,1.08939E-002,9.37845E-001,0.00000E+000,-6.28693E-003,-6.85419E-002,1.00000E+000,25
619,1327,-1.77371E+001,-6.41229E-001,1.21315E-001,2.58038E+000,-5.09402E-001,1.26350E-001,2.63322E+000,8.31852E-003,5.60958E-001,0,4.01118E+001,-8.57606E+000,9.98646E-001,-1.50680E+000,-4.86289E+001,9.98543E-001,1.41757E-001,-5.97527E-002,-6.19236E-004,1.41759E-001,-5.97546E-002,-1.76067E-001,1.42340E-001,1.15219E+000,1.58980E-002,0.00000E+000,-1.40597E-002,9.44235E-001,0.00000E+000,-1.19245E-003,-7.05893E-002,1.00000E+000,25
619,1337,-1.77197E+001,-4.24493E-002,5.96008E-002,2.59052E+000,-5.46497E-001,8.26321E-002,2.64883E+000,1.04603E-002,6.28036E-001,0,4.03935E+001,-9.09188E+000,9.97507E-001,-1.27071E+000,-4.92637E+001,9.97332E-001,1.39448E-001,-5.97523E-002,-6.84147E-004,1.39450E-001,-5.97546E-002,-1.96778E-001,1.39924E-001,1.14954E+000,1.58683E-002,0.00000E+000,-1.41228E-002,9.44235E-001,0.00000E+000,-2.17853E-003,-7.06003E-002,1.00000E+000,25
619,1347,-1.77005E+001,5.61260E-001,1.77550E-002,2.59946E+000,-5.79755E-001,4.16913E-002,2.66365E+000,1.24395E-002,6.13872E-001,0,4.06463E+001,-9.53498E+000,9.97415E-001,-9.50344E-001,-4.99068E+001,9.97104E-001,1.37133E-001,-5.97525E-002,-7.54052E-004,1.37136E-001,-5.97553E-002,-2.19433E-001,1.37513E-001,1.14688E+000,1.58269E-002,0.00000E+000,-1.41859E-002,9.44234E-001,0.00000E+000,-3.16406E-003,-7.06157E-002,1.00000E+000,25
619,1357,-1.76735E+001,1.17081E+000,1.87789E-002,2.60948E+000,-6.13308E-001,3.53166E-003,2.68059E+000,1.11854E-002,5.96827E-001,0,4.09045E+001,-9.98585E+000,9.98450E-001,-3.84899E-001,-5.05559E+001,9.98194E-001,1.34802E-001,-5.97540E-002,-8.36226E-004,1.34806E-001,-5.97576E-002,-2.46258E-001,1.35095E-001,1.14422E+000,1.57579E-002,0.00000E+000,-1.42493E-002,9.44232E-001,0.00000E+000,-4.15383E-003,-7.06413E-002,1.00000E+000,25
619,1317,-1.77462E+001,-1.22434E+000,2.19705E-001,2.57344E+000,-4.62606E-001,1.76266E-001,2.62062E+000,1.42605E-002,5.96140E-001,0,3.98574E+001,-7.94944E+000,9.98143E-001,-1.50611E+000,-4.77791E+001,9.97699E-001,1.44047E-001,-5.97542E-002,-5.63672E-004,1.44049E-001,-5.97558E-002,-1.58467E-001,1.44744E-001,1.15483E+000,1.59067E-002,0.00000E+000,-1.39969E-002,9.44236E-001,0.00000E+000,-2.11593E-004,-7.05861E-002,1.00000E+000,25
1239,1307,2.96388E+001,-1.15052E+000,-5.80528E-002,9.54825E+000,-7.28040E-002,-2.75221E-002,9.54857E+000,2.02708E-002,4.24657E-001,0,1.42692E+002,-2.34491E+000,9.97758E-001,1.10881E+002,-3.00037E+001,9.96020E-001,1.60025E-001,-6.58570E-002,1.01492E-004,1.60025E-001,-6.58570E-002,2.57438E-002,1.60857E-001,1.17349E+000,-1.25552E-002,0.00000E+000,1.05804E-002,9.38359E-001,0.00000E+000,-6.23438E-003,-6.78053E-002,1.00000E+000,25
1239,1317,2.96525E+001,-5.37533E-001,-1.07729E-001,9.54561E+000,-1.09634E-001,-7.20088E-002,9.54651E+000,1.87665E-002,4.13992E-001,0,1.42832E+002,-2.86596E+000,9.98163E-001,1.11071E+002,-3.03688E+001,9.97234E-001,1.60810E-001,-6.58497E-002,2.16378E-004,1.60810E-001,-6.58499E-002,5.46968E-002,1.61686E-001,1.17441E+000,-1.25323E-002,0.00000E+000,1.06997E-002,9.38362E-001,0.00000E+000,-5.10416E-003,-6.77770E-002,1.00000E+000,25
1239,1327,2.96728E+001,6.76442E-002,-1.09833E-001,9.53776E+000,-1.63838E-001,-1.13265E-001,9.53983E+000,1.50388E-002,4.82976E-001,0,1.42874E+002,-3.65106E+000,9.98396E-001,1.11423E+002,-3.09207E+001,9.97339E-001,1.61602E-001,-6.58387E-002,3.39284E-004,1.61602E-001,-6.58392E-002,8.54706E-002,1.62523E-001,1.17533E+000,-1.24928E-002,0.00000E+000,1.08201E-002,9.38367E-001,0.00000E+000,-3.96190E-003,-6.77283E-002,1.00000E+000,25
1239,1337,2.96974E+001,6.89078E-001,-9.97380E-002,9.53243E+000,-1.97485E-001,-1.49617E-001,9.53565E+000,1.26788E-002,4.14986E-001,0,1.42922E+002,-4.15114E+000,9.97947E-001,1.11860E+002,-3.13180E+001,9.96085E-001,1.62386E-001,-6.58272E-002,4.62344E-004,1.62387E-001,-6.58281E-002,1.16077E-001,1.63353E-001,1.17625E+000,-1.24508E-002,0.00000E+000,1.09397E-002,9.38373E-001,0.00000E+000,-2.82787E-003,-6.76766E-002,1.00000E+000,25
1239,1297,2.96362E+001,-1.75102E+000,2.43134E-002,9.55506E+000,-2.66026E-002,2.34629E-002,9.55512E+000,1.28147E-002,4.46242E-001,0,1.42573E+002,-1.71007E+000,9.98254E-001,1.10907E+002,-2.95086E+001,9.96319E-001,1.59239E-001,-6.58621E-002,-9.11424E-006,1.59239E-001,-6.58621E-002,-2.31988E-003,1.60030E-001,1.17258E+000,-1.25684E-002,0.00000E+000,1.04615E-002,9.38357E-001,0.00000E+000,-7.36188E-003,-6.78217E-002,1.00000E+000,25
609,1347,-1.84322E+001,5.60631E-001,2.20636E-002,2.50677E+000,-5.75280E-001,4.41878E-002,2.57232E+000,1.57918E-002,6.44982E-001,0,3.92156E+001,-9.46871E+000,9.97116E-001,-2.10322E+000,-5.00175E+001,9.96872E-001,1.35809E-001,-5.85578E-002,-9.91117E-004,1.35814E-001,-5.85628E-002,-2.92153E-001,1.36242E-001,1.14533E+000,1.84501E-002,0.00000E+000,-1.68398E-002,9.45238E-001,0.00000E+000,-3.00229E-003,-6.93778E-002,1.00000E+000,25
609,1357,-1.84067E+001,1.17589E+000,1.87429E-002,2.51628E+000,-6.02013E-001,7.03794E-003,2.58730E+000,1.24124E-002,6.15615E-001,0,3.94613E+001,-9.81028E+000,9.98281E-001,-1.57163E+000,-5.05778E+001,9.97903E-001,1.33436E-001,-5.85583E-002,-1.03345E-003,1.33441E-001,-5.85638E-002,-3.08396E-001,1.33773E-001,1.14262E+000,1.83845E-002,0.00000E+000,-1.68247E-002,9.45238E-001,0.00000E+000,-4.18199E-003,-6.94064E-002,1.00000E+000,25
609,1317,-1.84880E+001,-1.22712E+000,2.15920E-001,2.47033E+000,-4.59812E-001,1.70674E-001,2.51855E+000,1.42518E-002,6.29311E-001,0,3.82890E+001,-7.90910E+000,9.98567E-001,-2.83830E+000,-4.79000E+001,9.97472E-001,1.42856E-001,-5.85592E-002,-9.14909E-004,1.42860E-001,-5.85634E-002,-2.60253E-001,1.43631E-001,1.15342E+000,1.85303E-002,0.00000E+000,-1.68848E-002,9.45237E-001,0.00000E+000,5.21902E-004,-6.93429E-002,1.00000E+000,25
609,1327,-1.84740E+001,-6.45640E-001,1.20567E-001,2.48270E+000,-5.09298E-001,1.26690E-001,2.53757E+000,1.05854E-002,6.33050E-001,0,3.86119E+001,-8.58509E+000,9.98561E-001,-2.75652E+000,-4.87631E+001,9.97934E-001,1.40518E-001,-5.85582E-002,-9.31717E-004,1.40522E-001,-5.85626E-002,-2.68148E-001,1.41170E-001,1.15072E+000,1.85235E-002,0.00000E+000,-1.68698E-002,9.45237E-001,0.00000E+000,-6.51114E-004,-6.93459E-002,1.00000E+000,25
609,1337,-1.84535E+001,-4.18053E-002,6.12087E-002,2.49593E+000,-5.39638E-001,8.48554E-002,2.55501E+000,1.30451E-002,6.17958E-001,0,3.89341E+001,-8.98189E+000,9.97414E-001,-2.46531E+000,-4.93678E+001,9.96985E-001,1.38171E-001,-5.85578E-002,-9.58530E-004,1.38176E-001,-5.85625E-002,-2.79156E-001,1.38709E-001,1.14803E+000,1.84935E-002,0.00000E+000,-1.68548E-002,9.45237E-001,0.00000E+000,-1.82463E-003,-6.93589E-002,1.00000E+000,25
1249,1297,3.04218E+001,-1.73315E+000,2.72476E-002,9.67237E+000,-1.58148E-002,1.99287E-002,9.67240E+000,1.47284E-002,4.85070E-001,0,1.44212E+002,-1.56713E+000,9.98496E-001,1.13206E+002,-2.91257E+001,9.96738E-001,1.58308E-001,-6.51629E-002,1.72689E-004,1.58308E-001,-6.51630E-002,4.42757E-002,1.59131E-001,1.17151E+000,-1.11185E-002,0.00000E+000,9.70002E-003,9.38984E-001,0.00000E+000,-7.98304E-003,-6.72203E-002,1.00000E+000,25
1249,1307,3.04197E+001,-1.13710E+000,-6.13787E-002,9.66329E+000,-6.47998E-002,-2.78712E-002,9.66354E+000,1.83911E-002,4.48504E-001,0,1.44289E+002,-2.25290E+000,9.98391E-001,1.13098E+002,-2.96829E+001,9.96351E-001,1.59279E-001,-6.51513E-002,4.63948E-004,1.59280E-001,-6.51522E-002,1.18442E-001,1.60156E-001,1.17263E+000,-1.11064E-002,0.00000E+000,1.01283E-002,9.38989E-001,0.00000E+000,-6.33222E-003,-6.72025E-002,1.00000E+000,25
1249,1317,3.04276E+001,-5.31787E-001,-1.13628E-001,9.65578E+000,-1.08620E-001,-7.10944E-002,9.65665E+000,1.71886E-002,3.99446E-001,0,1.44357E+002,-2.87016E+000,9.97357E-001,1.13193E+002,-3.01799E+001,9.95669E-001,1.60250E-001,-6.51321E-002,7.62203E-004,1.60252E-001,-6.51347E-002,1.93761E-001,1.61185E-001,1.17376E+000,-1.10796E-002,0.00000E+000,1.05580E-002,9.38999E-001,0.00000E+000,-4.67596E-003,-6.71633E-002,1.00000E+000,25
1249,1327,3.04446E+001,8.68489E-002,-1.33670E-001,9.64723E+000,-1.46232E-001,-1.20071E-001,9.64909E+000,1.60546E-002,4.40403E-001,0,1.44419E+002,-3.40054E+000,9.97528E-001,1.13471E+002,-3.04958E+001,9.96391E-001,1.61223E-001,-6.51041E-002,1.06977E-003,1.61228E-001,-6.51091E-002,2.70809E-001,1.62219E-001,1.17490E+000,-1.10353E-002,0.00000E+000,1.09908E-002,9.39016E-001,0.00000E+000,-3.00755E-003,-6.70983E-002,1.00000E+000,25
1249,1337,3.04734E+001,7.09242E-001,-1.10189E-001,9.64317E+000,-1.82902E-001,-1.53209E-001,9.64612E+000,1.24085E-002,4.39926E-001,0,1.44470E+002,-3.95291E+000,9.98695E-001,1.13989E+002,-3.08719E+001,9.98065E-001,1.62195E-001,-6.50695E-002,1.38290E-003,1.62203E-001,-6.50779E-002,3.48627E-001,1.63255E-001,1.17604E+000,-1.09782E-002,0.00000E+000,1.14244E-002,9.39037E-001,0.00000E+000,-1.33634E-003,-6.70147E-002,1.00000E+000,25
1259,1327,3.12255E+001,9.98024E-002,-1.33985E-001,9.76175E+000,-1.37904E-001,-1.16909E-001,9.76342E+000,1.26554E-002,4.16001E-001,0,1.45992E+002,-3.30722E+000,9.98900E-001,1.15696E+002,-3.02101E+001,9.98186E-001,1.61010E-001,-6.47236E-002,1.72427E-003,1.61023E-001,-6.47368E-002,4.37621E-001,1.62050E-001,1.17466E+000,-1.00935E-002,0.00000E+000,1.13917E-002,9.39306E-001,0.00000E+000,-1.54526E-003,-6.60912E-002,1.00000E+000,25
1259,1337,3.12540E+001,7.19286E-001,-1.18546E-001,9.75666E+000,-1.78265E-001,-1.59727E-001,9.75960E+000,1.17348E-002,4.07129E-001,0,1.46071E+002,-3.88649E+000,9.99204E-001,1.16195E+002,-3.06163E+001,9.98987E-001,1.62014E-001,-6.46749E-002,2.14969E-003,1.62035E-001,-6.46953E-002,5.43270E-001,1.63127E-001,1.17584E+000,-1.00331E-002,0.00000E+000,1.20109E-002,9.39338E-001,0.00000E+000,5.56028E-004,-6.59839E-002,1.00000E+000,25
599,1347,-1.91568E+001,5.70744E-001,2.83707E-002,2.42021E+000,-5.60036E-001,4.56993E-002,2.48458E+000,1.52978E-002,6.57341E-001,0,3.78784E+001,-9.23021E+000,9.98243E-001,-3.13536E+000,-4.99761E+001,9.98335E-001,1.35136E-001,-5.85944E-002,-7.38280E-004,1.35139E-001,-5.85972E-002,-2.18342E-001,1.35535E-001,1.14452E+000,2.05832E-002,0.00000E+000,-1.81405E-002,9.45087E-001,0.00000E+000,-2.80963E-003,-6.79577E-002,1.00000E+000,25
599,1357,-1.91279E+001,1.17615E+000,2.54287E-002,2.43375E+000,-5.96301E-001,1.17231E-002,2.50576E+000,1.03428E-002,6.42447E-001,0,3.81807E+001,-9.73149E+000,9.98607E-001,-2.55196E+000,-5.06829E+001,9.98407E-001,1.32912E-001,-5.85924E-002,-5.25619E-004,1.32913E-001,-5.85938E-002,-1.57257E-001,1.33223E-001,1.14198E+000,2.05243E-002,0.00000E+000,-1.76469E-002,9.45098E-001,0.00000E+000,-4.04622E-003,-6.79864E-002,1.00000E+000,25
1259,1287,3.12045E+001,-2.31815E+000,1.13474E-001,9.79191E+000,3.93797E-002,5.33143E-002,9.79213E+000,1.53682E-002,4.29587E-001,0,1.45714E+002,-7.61893E-001,9.97665E-001,1.15532E+002,-2.83470E+001,9.94167E-001,1.56972E-001,-6.48155E-002,9.71272E-005,1.56972E-001,-6.48156E-002,2.50915E-002,1.57764E-001,1.16997E+000,-1.01858E-002,0.00000E+000,8.93751E-003,9.39258E-001,0.00000E+000,-9.87328E-003,-6.62550E-002,1.00000E+000,25
1259,1297,3.11988E+001,-1.72326E+000,4.60267E-003,9.78473E+000,-9.61084E-003,6.45345E-003,9.78474E+000,1.35594E-002,4.48285E-001,0,1.45824E+002,-1.45402E+000,9.98020E-001,1.15342E+002,-2.88509E+001,9.95394E-001,1.57987E-001,-6.48068E-002,4.94193E-004,1.57988E-001,-6.48079E-002,1.27091E-001,1.58835E-001,1.17114E+000,-1.01832E-002,0.00000E+000,9.54901E-003,9.39259E-001,0.00000E+000,-7.79822E-003,-6.62505E-002,1.00000E+000,25
1259,1307,3.11994E+001,-1.12216E+000,-7.64883E-002,9.77713E+000,-5.52240E-002,-3.84208E-002,9.77737E+000,1.36121E-002,4.42901E-001,0,1.45909E+002,-2.09815E+000,9.98305E-001,1.15288E+002,-2.93279E+001,9.96682E-001,1.58997E-001,-6.47894E-002,8.97096E-004,1.59001E-001,-6.47930E-002,2.29677E-001,1.59905E-001,1.17231E+000,-1.01683E-002,0.00000E+000,1.01616E-002,9.39267E-001,0.00000E+000,-5.71942E-003,-6.62239E-002,1.00000E+000,25
599,1327,-1.92069E+001,-6.28313E-001,1.31638E-001,2.38728E+000,-4.87892E-001,1.30590E-001,2.44012E+000,1.16797E-002,6.55162E-001,0,3.71295E+001,-8.25468E+000,9.98598E-001,-3.89971E+000,-4.86134E+001,9.97822E-001,1.39546E-001,-5.85895E-002,-1.18386E-003,1.39553E-001,-5.85965E-002,-3.42325E-001,1.40149E-001,1.14957E+000,2.06494E-002,0.00000E+000,-1.91240E-002,9.45074E-001,0.00000E+000,-3.46078E-004,-6.79254E-002,1.00000E+000,25
599,1337,-1.91856E+001,-3.35658E-002,6.14405E-002,2.40282E+000,-5.25775E-001,8.65458E-002,2.46119E+000,1.07895E-002,6.36478E-001,0,3.74958E+001,-8.76449E+000,9.98287E-001,-3.63031E+000,-4.93382E+001,9.98350E-001,1.37349E-001,-5.85938E-002,-9.56945E-004,1.37354E-001,-5.85985E-002,-2.79812E-001,1.37846E-001,1.14705E+000,2.06273E-002,0.00000E+000,-1.86334E-002,9.45078E-001,0.00000E+000,-1.57502E-003,-6.79362E-002,1.00000E+000,25
1259,1317,3.12088E+001,-5.13965E-001,-1.16288E-001,9.77064E+000,-9.71513E-002,-7.03355E-002,9.77138E+000,1.35390E-002,4.42118E-001,0,1.45944E+002,-2.72608E+000,9.98732E-001,1.15420E+002,-2.97814E+001,9.97463E-001,1.60005E-001,-6.47626E-002,1.30650E-003,1.60013E-001,-6.47702E-002,3.33027E-001,1.60977E-001,1.17348E+000,-1.01397E-002,0.00000E+000,1.07757E-002,9.39282E-001,0.00000E+000,-3.63558E-003,-6.61732E-002,1.00000E+000,25
599,1317,-1.92278E+001,-1.22099E+000,2.24916E-001,2.36772E+000,-4.50576E-001,1.71471E-001,2.41630E+000,1.46224E-002,6.26588E-001,0,3.67068E+001,-7.73946E+000,9.98437E-001,-4.09560E+000,-4.79290E+001,9.98060E-001,1.41735E-001,-5.85821E-002,-1.41770E-003,1.41745E-001,-5.85922E-002,-4.05470E-001,1.42452E-001,1.15209E+000,2.06548E-002,0.00000E+000,-1.96144E-002,9.45073E-001,0.00000E+000,8.82263E-004,-6.79228E-002,1.00000E+000,25
589,1347,-1.98898E+001,5.82360E-001,3.46341E-002,2.32557E+000,-5.42801E-001,5.16912E-002,2.38864E+000,1.07723E-002,6.45531E-001,0,3.64014E+001,-8.95457E+000,9.98591E-001,-4.29061E+000,-4.99252E+001,9.98547E-001,1.34526E-001,-5.83430E-002,-1.15574E-004,1.34526E-001,-5.83431E-002,-3.43338E-002,1.34919E-001,1.14376E+000,2.34453E-002,0.00000E+000,-1.93410E-002,9.45202E-001,0.00000E+000,-2.70010E-003,-6.64023E-002,1.00000E+000,25
589,1357,-1.98569E+001,1.18672E+000,3.26603E-002,2.34274E+000,-5.81119E-001,1.53645E-002,2.41378E+000,8.70498E-003,6.42799E-001,0,3.67666E+001,-9.47782E+000,9.98689E-001,-3.64171E+000,-5.06456E+001,9.98959E-001,1.32268E-001,-5.83415E-002,1.01045E-004,1.32268E-001,-5.83416E-002,3.03733E-002,1.32574E-001,1.14119E+000,2.33841E-002,0.00000E+000,-1.88538E-002,9.45213E-001,0.00000E+000,-3.80705E-003,-6.64286E-002,1.00000E+000,25
589,1337,-1.99151E+001,-2.68405E-002,6.78239E-002,2.31064E+000,-5.14143E-001,8.69260E-002,2.36875E+000,7.82604E-003,6.27302E-001,0,3.60737E+001,-8.57106E+000,9.99170E-001,-4.73315E+000,-4.93586E+001,9.99165E-001,1.36770E-001,-5.83408E-002,-3.40396E-004,1.36770E-001,-5.83414E-002,-9.99595E-002,1.37261E-001,1.14633E+000,2.34857E-002,0.00000E+000,-1.98268E-002,9.45194E-001,0.00000E+000,-1.59649E-003,-6.63849E-002,1.00000E+000,25
589,1327,-1.99310E+001,-6.08271E-001,1.43159E-001,2.30068E+000,-4.63751E-001,1.37446E-001,2.35098E+000,1.52438E-002,6.95100E-001,0,3.57752E+001,-7.89288E+000,9.99139E-001,-4.90124E+000,-4.84131E+001,9.98156E-001,1.38994E-001,-5.83356E-002,-5.71246E-004,1.38996E-001,-5.83373E-002,-1.65862E-001,1.39592E-001,1.14888E+000,2.35087E-002,0.00000E+000,-2.03097E-002,9.45190E-001,0.00000E+000,-4.99184E-004,-6.63750E-002,1.00000E+000,25
1269,1327,3.20116E+001,1.15187E-001,-1.29948E-001,9.88041E+000,-1.29253E-001,-1.10935E-001,9.88188E+000,1.12782E-002,4.20680E-001,0,1.47611E+002,-3.20163E+000,9.99007E-001,1.18009E+002,-2.98813E+001,9.98288E-001,1.60913E-001,-6.41451E-002,2.28912E-003,1.60937E-001,-6.41684E-002,5.82689E-001,1.62034E-001,1.17455E+000,-9.11261E-003,0.00000E+000,1.16294E-002,9.39711E-001,0.00000E+000,-6.37902E-004,-6.38274E-002,1.00000E+000,25
1269,1337,3.20474E+001,7.29246E-001,-1.07445E-001,9.88155E+000,-1.75094E-001,-1.50003E-001,9.88424E+000,1.12973E-002,3.94732E-001,0,1.47768E+002,-3.87634E+000,9.98858E-001,1.18629E+002,-3.03937E+001,9.97660E-001,1.62011E-001,-6.40826E-002,2.81845E-003,1.62046E-001,-6.41177E-002,7.14094E-001,1.63217E-001,1.17585E+000,-9.04427E-003,0.00000E+000,1.24382E-002,9.39754E-001,0.00000E+000,1.56303E-003,-6.37112E-002,1.00000E+000,25
589,1317,-1.99558E+001,-1.20396E+000,2.39200E-001,2.27696E+000,-4.29453E-001,1.79361E-001,2.32404E+000,1.22489E-002,5.99873E-001,0,3.52861E+001,-7.39988E+000,9.97824E-001,-5.14741E+000,-4.78126E+001,9.96837E-001,1.41215E-001,-5.83271E-002,-8.10257E-004,1.41218E-001,-5.83304E-002,-2.32649E-001,1.41928E-001,1.15143E+000,2.35130E-002,0.00000E+000,-2.07933E-002,9.45189E-001,0.00000E+000,5.99479E-004,-6.63732E-002,1.00000E+000,25
1269,1317,3.19976E+001,-4.97727E-001,-1.14153E-001,9.88999E+000,-8.75531E-002,-7.45533E-002,9.89066E+000,1.16622E-002,4.16240E-001,0,1.47612E+002,-2.58441E+000,9.98894E-001,1.17775E+002,-2.94514E+001,9.97923E-001,1.59814E-001,-6.41905E-002,1.77041E-003,1.59828E-001,-6.42045E-002,4.52798E-001,1.60854E-001,1.17326E+000,-9.15923E-003,0.00000E+000,1.08238E-002,9.39682E-001,0.00000E+000,-2.83000E-003,-6.39066E-002,1.00000E+000,25
1269,1307,3.19870E+001,-1.10654E+000,-6.72458E-002,9.89539E+000,-4.64618E-002,-3.55079E-002,9.89556E+000,1.25820E-002,4.36962E-001,0,1.47531E+002,-1.98625E+000,9.98252E-001,1.17633E+002,-2.90146E+001,9.97065E-001,1.58713E-001,-6.42238E-002,1.25990E-003,1.58720E-001,-6.42309E-002,3.23787E-001,1.59678E-001,1.17198E+000,-9.19071E-003,0.00000E+000,1.00218E-002,9.39663E-001,0.00000E+000,-5.01245E-003,-6.39601E-002,1.00000E+000,25
1269,1297,3.19792E+001,-1.71278E+000,-2.98805E-003,9.89842E+000,-4.73609E-003,1.84191E-003,9.89842E+000,1.33968E-002,4.41059E-001,0,1.47414E+002,-1.37903E+000,9.98104E-001,1.17555E+002,-2.85842E+001,9.96702E-001,1.57606E-001,-6.42490E-002,7.53901E-004,1.57609E-001,-6.42516E-002,1.94698E-001,1.58502E-001,1.17070E+000,-9.21212E-003,0.00000E+000,9.22067E-003,9.39649E-001,0.00000E+000,-7.19256E-003,-6.39965E-002,1.00000E+000,25
1269,1287,3.19874E+001,-2.30990E+000,1.10931E-001,9.90579E+000,4.07713E-002,4.54313E-002,9.90598E+000,1.80290E-002,4.31549E-001,0,1.47319E+002,-7.32325E-001,9.98367E-001,1.17787E+002,-2.81227E+001,9.95819E-001,1.56498E-001,-6.42560E-002,2.59429E-004,1.56498E-001,-6.42563E-002,6.73338E-002,1.57330E-001,1.16942E+000,-9.21054E-003,0.00000E+000,8.42263E-003,9.39650E-001,0.00000E+000,-9.36418E-003,-6.39938E-002,1.00000E+000,25
579,1347,-2.06166E+001,5.90120E-001,4.23186E-002,2.23608E+000,-5.30289E-001,5.48705E-002,2.29876E+000,9.03750E-003,6.48824E-001,0,3.50116E+001,-8.75116E+000,9.98687E-001,-5.34207E+000,-4.99283E+001,9.98857E-001,1.33384E-001,-5.79209E-002,5.53258E-004,1.33386E-001,-5.79225E-002,1.65699E-001,1.33770E-001,1.14240E+000,2.63473E-002,0.00000E+000,-2.04766E-002,9.45512E-001,0.00000E+000,-3.03174E-003,-6.53586E-002,1.00000E+000,25
579,1357,-2.05773E+001,1.20254E+000,4.24989E-002,2.25955E+000,-5.60876E-001,1.88309E-002,2.32820E+000,9.36572E-003,6.60504E-001,0,3.54720E+001,-9.15792E+000,9.99097E-001,-4.58517E+000,-5.05237E+001,9.99331E-001,1.30960E-001,-5.79201E-002,8.16272E-004,1.30964E-001,-5.79236E-002,2.47605E-001,1.31254E-001,1.13964E+000,2.62812E-002,0.00000E+000,-1.99018E-002,9.45526E-001,0.00000E+000,-4.22919E-003,-6.53873E-002,1.00000E+000,25
579,1337,-2.06475E+001,-1.62011E-002,7.86466E-002,2.21544E+000,-4.98989E-001,9.32126E-002,2.27285E+000,9.04187E-003,6.35015E-001,0,3.45861E+001,-8.33442E+000,9.98400E-001,-5.86060E+000,-4.93208E+001,9.98755E-001,1.35792E-001,-5.79171E-002,2.81269E-004,1.35792E-001,-5.79175E-002,8.31945E-002,1.36280E-001,1.14515E+000,2.63900E-002,0.00000E+000,-2.10492E-002,9.45503E-001,0.00000E+000,-1.83859E-003,-6.53401E-002,1.00000E+000,25
579,1327,-2.06734E+001,-6.02034E-001,1.38857E-001,2.19599E+000,-4.53212E-001,1.32317E-001,2.24617E+000,1.04435E-002,6.87595E-001,0,3.41718E+001,-7.68582E+000,9.99019E-001,-6.22668E+000,-4.84174E+001,9.98248E-001,1.38177E-001,-5.79102E-002,4.33181E-006,1.38177E-001,-5.79102E-002,1.26574E-003,1.38778E-001,1.14788E+000,2.64167E-002,0.00000E+000,-2.16184E-002,9.45497E-001,0.00000E+000,-6.52775E-004,-6.53285E-002,1.00000E+000,25
579,1317,-2.06904E+001,-1.18959E+000,2.36880E-001,2.18022E+000,-4.12306E-001,1.77832E-001,2.22598E+000,1.53549E-002,6.68886E-001,0,3.37969E+001,-7.11326E+000,9.97787E-001,-6.34650E+000,-4.76551E+001,9.96452E-001,1.40553E-001,-5.78992E-002,-2.81415E-004,1.40554E-001,-5.78996E-002,-8.12479E-002,1.41278E-001,1.15061E+000,2.64221E-002,0.00000E+000,-2.21873E-002,9.45496E-001,0.00000E+000,5.32462E-004,-6.53261E-002,1.00000E+000,25
1279,1317,3.27773E+001,-4.90307E-001,-1.19419E-001,1.00031E+001,-8.44118E-002,-7.36892E-002,1.00037E+001,1.01233E-002,3.81253E-001,0,1.49171E+002,-2.55597E+000,9.98708E-001,1.19983E+002,-2.92483E+001,9.97257E-001,1.59402E-001,-6.33137E-002,2.16015E-003,1.59423E-001,-6.33346E-002,5.55650E-001,1.60541E-001,1.17279E+000,-8.04691E-003,0.00000E+000,1.06390E-002,9.40375E-001,0.00000E+000,-2.11713E-003,-6.16149E-002,1.00000E+000,25
1279,1327,3.28033E+001,1.28511E-001,-1.29048E-001,1.00038E+001,-1.22692E-001,-1.09344E-001,1.00052E+001,1.66898E-002,4.41101E-001,0,1.49316E+002,-3.12955E+000,9.98173E-001,1.20410E+002,-2.95693E+001,9.97589E-001,1.60636E-001,-6.32573E-002,2.77807E-003,1.60671E-001,-6.32918E-002,7.10780E-001,1.61871E-001,1.17424E+000,-7.99099E-003,0.00000E+000,1.16178E-002,9.40413E-001,0.00000E+000,2.97331E-004,-6.15218E-002,1.00000E+000,25
1279,1337,3.28378E+001,7.42447E-001,-1.05750E-001,1.00036E+001,-1.70210E-001,-1.47129E-001,1.00061E+001,1.29146E-002,4.26418E-001,0,1.49449E+002,-3.81751E+000,9.98695E-001,1.21008E+002,-3.00786E+001,9.98079E-001,1.61866E-001,-6.31834E-002,3.40600E-003,1.61918E-001,-6.32350E-002,8.66876E-001,1.63206E-001,1.17569E+000,-7.91416E-003,0.00000E+000,1.25998E-002,9.40465E-001,0.00000E+000,2.71945E-003,-6.13939E-002,1.00000E+000,25
1279,1307,3.27592E+001,-1.09793E+000,-8.03439E-002,1.00023E+001,-4.21163E-002,-3.79632E-002,1.00025E+001,1.17141E-002,4.34490E-001,0,1.49012E+002,-1.93374E+000,9.98582E-001,1.19714E+002,-2.87623E+001,9.96502E-001,1.58170E-001,-6.33549E-002,1.55400E-003,1.58181E-001,-6.33658E-002,4.01906E-001,1.59219E-001,1.17135E+000,-8.08507E-003,0.00000E+000,9.66808E-003,9.40349E-001,0.00000E+000,-4.51218E-003,-6.16784E-002,1.00000E+000,25
1279,1297,3.27595E+001,-1.69748E+000,2.55548E-003,1.00100E+001,5.80114E-003,5.16279E-003,1.00100E+001,2.11941E-002,3.69448E-001,0,1.48932E+002,-1.22702E+000,9.98075E-001,1.19785E+002,-2.83031E+001,9.96705E-001,1.56930E-001,-6.33778E-002,9.56722E-004,1.56934E-001,-6.33820E-002,2.48810E-001,1.57898E-001,1.16991E+000,-8.10163E-003,0.00000E+000,8.69726E-003,9.40338E-001,0.00000E+000,-6.90692E-003,-6.17060E-002,1.00000E+000,25
1279,1287,3.27628E+001,-2.31238E+000,9.70495E-002,1.00164E+001,3.52932E-002,4.39010E-002,1.00166E+001,1.93315E-002,3.30794E-001,0,1.48854E+002,-7.91784E-001,9.98360E-001,1.19916E+002,-2.80935E+001,9.95825E-001,1.55686E-001,-6.33923E-002,3.65150E-004,1.55686E-001,-6.33929E-002,9.54980E-002,1.56578E-001,1.16848E+000,-8.10857E-003,0.00000E+000,7.72948E-003,9.40334E-001,0.00000E+000,-9.29416E-003,-6.17175E-002,1.00000E+000,25
569,1347,-2.13424E+001,6.05428E-001,4.68935E-002,2.14756E+000,-5.10324E-001,5.66160E-002,2.20809E+000,9.87162E-003,6.59286E-001,0,3.36373E+001,-8.42608E+000,9.98543E-001,-6.37905E+000,-4.98055E+001,9.98260E-001,1.32637E-001,-5.73874E-002,1.13554E-003,1.32643E-001,-5.73941E-002,3.42370E-001,1.33043E-001,1.14147E+000,2.93894E-002,0.00000E+000,-2.19067E-002,9.45935E-001,0.00000E+000,-3.11560E-003,-6.45466E-002,1.00000E+000,25
569,1357,-2.13059E+001,1.20976E+000,3.93263E-002,2.16961E+000,-5.46655E-001,2.04912E-002,2.23751E+000,9.46378E-003,6.43569E-001,0,3.40773E+001,-8.92433E+000,9.98875E-001,-5.68938E+000,-5.05241E+001,9.98633E-001,1.30096E-001,-5.73894E-002,1.50334E-003,1.30108E-001,-5.74015E-002,4.59385E-001,1.30407E-001,1.13858E+000,2.93265E-002,0.00000E+000,-2.11286E-002,9.45952E-001,0.00000E+000,-4.58858E-003,-6.45787E-002,1.00000E+000,25
569,1327,-2.14010E+001,-5.99024E-001,1.34917E-001,2.10640E+000,-4.44835E-001,1.31752E-001,2.15688E+000,1.52543E-002,6.93606E-001,0,3.27913E+001,-7.53911E+000,9.99263E-001,-7.32160E+000,-4.84634E+001,9.98779E-001,1.37672E-001,-5.73702E-002,3.82131E-004,1.37672E-001,-5.73710E-002,1.12255E-001,1.38307E-001,1.14722E+000,2.94656E-002,0.00000E+000,-2.34570E-002,9.45915E-001,0.00000E+000,-1.81067E-004,-6.45077E-002,1.00000E+000,25
569,1337,-2.13736E+001,1.01167E-003,8.30131E-002,2.12585E+000,-4.78114E-001,9.10011E-002,2.18086E+000,8.93090E-003,6.45037E-001,0,3.32055E+001,-7.98213E+000,9.98718E-001,-6.90331E+000,-4.91665E+001,9.98652E-001,1.35163E-001,-5.73797E-002,7.59420E-004,1.35166E-001,-5.73827E-002,2.25979E-001,1.35679E-001,1.14435E+000,2.94309E-002,0.00000E+000,-2.26834E-002,9.45924E-001,0.00000E+000,-1.64551E-003,-6.45254E-002,1.00000E+000,25
1289,1327,3.35786E+001,1.34537E-001,-1.39907E-001,1.01134E+001,-1.21158E-001,-1.08688E-001,1.01147E+001,1.53039E-002,4.31621E-001,0,1.50823E+002,-3.12653E+000,9.97691E-001,1.22544E+002,-2.93620E+001,9.96484E-001,1.60315E-001,-6.20697E-002,3.24635E-003,1.60362E-001,-6.21171E-002,8.36161E-001,1.61713E-001,1.17387E+000,-6.58789E-003,0.00000E+000,1.13585E-002,9.41390E-001,0.00000E+000,1.06454E-003,-5.89359E-002,1.00000E+000,25
1289,1337,3.36154E+001,7.56133E-001,-1.12263E-001,1.01154E+001,-1.61460E-001,-1.41445E-001,1.01176E+001,1.43184E-002,4.45741E-001,0,1.50964E+002,-3.72570E+000,9.98484E-001,1.23181E+002,-2.97455E+001,9.97593E-001,1.61752E-001,-6.19884E-002,3.94717E-003,1.61821E-001,-6.20580E-002,1.01038E+000,1.63279E-001,1.17558E+000,-6.49801E-003,0.00000E+000,1.24643E-002,9.41449E-001,0.00000E+000,3.69350E-003,-5.87970E-002,1.00000E+000,25
569,1317,-2.14245E+001,-1.17952E+000,2.33591E-001,2.08269E+000,-3.97207E-001,1.68668E-001,2.12692E+000,1.74132E-002,6.62702E-001,0,3.23130E+001,-6.85367E+000,9.98152E-001,-7.53449E+000,-4.75993E+001,9.96595E-001,1.40168E-001,-5.73515E-002,-9.86913E-006,1.40168E-001,-5.73515E-002,-2.86280E-003,1.40937E-001,1.15009E+000,2.94646E-002,0.00000E+000,-2.42300E-002,9.45915E-001,0.00000E+000,1.28214E-003,-6.45082E-002,1.00000E+000,25
1289,1317,3.35548E+001,-4.82238E-001,-1.19081E-001,1.01125E+001,-8.44295E-002,-7.07403E-002,1.01131E+001,1.63438E-002,4.70351E-001,0,1.50663E+002,-2.59037E+000,9.98711E-001,1.22166E+002,-2.89859E+001,9.96104E-001,1.58880E-001,-6.21266E-002,2.56317E-003,1.58910E-001,-6.21563E-002,6.64380E-001,1.60160E-001,1.17219E+000,-6.64718E-003,0.00000E+000,1.02620E-002,9.41352E-001,0.00000E+000,-1.54226E-003,-5.90275E-002,1.00000E+000,25
1289,1287,3.35366E+001,-2.29227E+000,8.14076E-002,1.01234E+001,4.97758E-002,3.43313E-002,1.01236E+001,2.04101E-002,4.15803E-001,0,1.50356E+002,-5.93832E-001,9.98416E-001,1.22023E+002,-2.76166E+001,9.95210E-001,1.54533E-001,-6.22130E-002,5.60923E-004,1.54534E-001,-6.22144E-002,1.48276E-001,1.55509E-001,1.16714E+000,-6.72234E-003,0.00000E+000,6.98361E-003,9.41303E-001,0.00000E+000,-9.33621E-003,-5.91435E-002,1.00000E+000,25
1289,1297,3.35396E+001,-1.68910E+000,9.62202E-003,1.01197E+001,8.76814E-003,5.28920E-003,1.01197E+001,2.13905E-002,2.98020E-001,0,1.50434E+002,-1.18413E+000,9.98416E-001,1.22017E+002,-2.81331E+001,9.96782E-001,1.55984E-001,-6.21910E-002,1.22212E-003,1.55991E-001,-6.21979E-002,3.20931E-001,1.57054E-001,1.16881E+000,-6.70516E-003,0.00000E+000,8.07106E-003,9.41314E-001,0.00000E+000,-6.75094E-003,-5.91170E-002,1.00000E+000,25
1289,1307,3.35431E+001,-1.08967E+000,-7.82761E-002,1.01168E+001,-4.08197E-002,-3.83631E-002,1.01170E+001,1.41248E-002,4.43099E-001,0,1.50591E+002,-1.92611E+000,9.99271E-001,1.21999E+002,-2.85415E+001,9.97354E-001,1.57438E-001,-6.21688E-002,1.88774E-003,1.57454E-001,-6.21851E-002,4.92468E-001,1.58608E-001,1.17050E+000,-6.68863E-003,0.00000E+000,9.16681E-003,9.41325E-001,0.00000E+000,-4.14593E-003,-5.90915E-002,1.00000E+000,25
559,1327,-2.21202E+001,-5.88970E-001,1.32143E-001,2.02392E+000,-4.31036E-001,1.26741E-001,2.07319E+000,2.65404E-002,8.18424E-001,0,3.15300E+001,-7.34624E+000,9.99431E-001,-8.27853E+000,-4.83437E+001,9.98603E-001,1.37139E-001,-5.72177E-002,9.37628E-004,1.37143E-001,-5.72222E-002,2.76402E-001,1.37768E-001,1.14652E+000,3.26888E-002,0.00000E+000,-2.50848E-002,9.45932E-001,0.00000E+000,8.10381E-005,-6.30736E-002,1.00000E+000,25
559,1337,-2.20990E+001,1.26338E-002,7.76666E-002,2.03758E+000,-4.61595E-001,8.49139E-002,2.09093E+000,7.92720E-003,6.60449E-001,0,3.18550E+001,-7.69862E+000,9.99455E-001,-7.96031E+000,-4.90744E+001,9.99287E-001,1.34686E-001,-5.72266E-002,1.23400E-003,1.34694E-001,-5.72346E-002,3.68393E-001,1.35199E-001,1.14372E+000,3.26564E-002,0.00000E+000,-2.44660E-002,9.45939E-001,0.00000E+000,-1.51927E-003,-6.30921E-002,1.00000E+000,25
559,1347,-2.20725E+001,6.16703E-001,4.57422E-002,2.05450E+000,-4.92394E-001,5.41100E-002,2.11337E+000,1.17011E-002,6.35152E-001,0,3.22017E+001,-8.13307E+000,9.98684E-001,-7.49626E+000,-4.97502E+001,9.98079E-001,1.32218E-001,-5.72339E-002,1.52800E-003,1.32230E-001,-5.72462E-002,4.62072E-001,1.32626E-001,1.14091E+000,3.26162E-002,0.00000E+000,-2.38456E-002,9.45948E-001,0.00000E+000,-3.12372E-003,-6.31150E-002,1.00000E+000,25
559,1357,-2.20341E+001,1.22106E+000,4.08364E-002,2.07928E+000,-5.27621E-001,2.43889E-002,2.14532E+000,1.05102E-002,6.20395E-001,0,3.26677E+001,-8.63420E+000,9.98571E-001,-6.76739E+000,-5.04753E+001,9.98415E-001,1.29731E-001,-5.72376E-002,1.81560E-003,1.29749E-001,-5.72552E-002,5.56312E-001,1.30047E-001,1.13808E+000,3.25582E-002,0.00000E+000,-2.32230E-002,9.45961E-001,0.00000E+000,-4.73402E-003,-6.31481E-002,1.00000E+000,25
559,1317,-2.21499E+001,-1.16284E+000,2.36861E-001,1.99353E+000,-3.77398E-001,1.66969E-001,2.03579E+000,2.64328E-002,6.76364E-001,0,3.09377E+001,-6.51595E+000,9.99095E-001,-8.56462E+000,-4.74452E+001,9.97998E-001,1.39582E-001,-5.72017E-002,6.26299E-004,1.39584E-001,-5.72037E-002,1.82351E-001,1.40339E-001,1.14933E+000,3.26859E-002,0.00000E+000,-2.57037E-002,9.45933E-001,0.00000E+000,1.68173E-003,-6.30753E-002,1.00000E+000,25
1299,1327,3.43625E+001,1.50024E-001,-1.32773E-001,1.02269E+001,-1.13100E-001,-1.05006E-001,1.02280E+001,1.98361E-002,4.47281E-001,0,1.52364E+002,-3.03217E+000,9.97611E-001,1.24837E+002,-2.90339E+001,9.96640E-001,1.60075E-001,-6.07105E-002,3.70505E-003,1.60137E-001,-6.07727E-002,9.61132E-001,1.61680E-001,1.17361E+000,-4.67256E-003,0.00000E+000,1.06847E-002,9.42523E-001,0.00000E+000,1.64457E-003,-5.59916E-002,1.00000E+000,25
1299,1337,3.44093E+001,7.68264E-001,-1.05611E-001,1.02373E+001,-1.58417E-001,-1.42795E-001,1.02396E+001,1.84703E-002,4.73718E-001,0,1.52653E+002,-3.69349E+000,9.97441E-001,1.25627E+002,-2.94599E+001,9.96185E-001,1.61760E-001,-6.06197E-002,4.47980E-003,1.61850E-001,-6.07099E-002,1.15359E+000,1.63525E-001,1.17560E+000,-4.56277E-003,0.00000E+000,1.19124E-002,9.42590E-001,0.00000E+000,4.52022E-003,-5.58335E-002,1.00000E+000,25
1299,1287,3.43228E+001,-2.28143E+000,9.39068E-002,1.02378E+001,5.17923E-002,3.71303E-002,1.02380E+001,1.47334E-002,4.78503E-001,0,1.51911E+002,-5.87100E-001,9.98702E-001,1.24359E+002,-2.73538E+001,9.96534E-001,1.53304E-001,-6.08570E-002,7.57814E-004,1.53307E-001,-6.08597E-002,2.02739E-001,1.54388E-001,1.16572E+000,-4.82588E-003,0.00000E+000,5.83926E-003,9.42429E-001,0.00000E+000,-9.70587E-003,-5.62124E-002,1.00000E+000,25
1299,1297,3.43251E+001,-1.68502E+000,1.27673E-002,1.02348E+001,4.27393E-003,4.11217E-003,1.02349E+001,1.58598E-002,4.64016E-001,0,1.52023E+002,-1.31578E+000,9.99067E-001,1.24331E+002,-2.79027E+001,9.96951E-001,1.55006E-001,-6.08381E-002,1.48204E-003,1.55016E-001,-6.08483E-002,3.93382E-001,1.56205E-001,1.16768E+000,-4.81001E-003,0.00000E+000,7.04438E-003,9.42438E-001,0.00000E+000,-6.88290E-003,-5.61895E-002,1.00000E+000,25
1299,1307,3.43440E+001,-1.07204E+000,-4.04855E-002,1.02432E+001,-3.23067E-002,-2.02817E-002,1.02433E+001,2.95848E-002,4.91800E-001,0,1.52252E+002,-1.87403E+000,9.98783E-001,1.24596E+002,-2.82307E+001,9.97203E-001,1.56707E-001,-6.08064E-002,2.21763E-003,1.56730E-001,-6.08290E-002,5.84069E-001,1.58032E-001,1.16966E+000,-4.77792E-003,0.00000E+000,8.25760E-003,9.42458E-001,0.00000E+000,-4.04097E-003,-5.61433E-002,1.00000E+000,25
1299,1317,3.43518E+001,-4.64065E-001,-1.03722E-001,1.02355E+001,-7.52685E-002,-7.25497E-002,1.02360E+001,2.50880E-002,4.85933E-001,0,1.52361E+002,-2.47016E+000,9.97818E-001,1.24674E+002,-2.86338E+001,9.96462E-001,1.58397E-001,-6.07632E-002,2.95914E-003,1.58437E-001,-6.08031E-002,7.73431E-001,1.59857E-001,1.17163E+000,-4.73114E-003,0.00000E+000,9.47115E-003,9.42487E-001,0.00000E+000,-1.19826E-003,-5.60760E-002,1.00000E+000,25
559,1307,-2.21761E+001,-1.74816E+000,3.56724E-001,1.96488E+000,-3.36358E-001,2.11295E-001,2.00463E+000,1.28066E-002,6.64230E-001,0,3.03642E+001,-5.96445E+000,9.98104E-001,-8.75535E+000,-4.66871E+001,9.97074E-001,1.42017E-001,-5.71841E-002,3.12213E-004,1.42017E-001,-5.71846E-002,8.98007E-002,1.42912E-001,1.15213E+000,3.26755E-002,0.00000E+000,-2.63225E-002,9.45935E-001,0.00000E+000,3.28211E-003,-6.30812E-002,1.00000E+000,25
549,1347,-2.27930E+001,6.31283E-001,4.35190E-002,1.97072E+000,-4.73446E-001,5.06842E-002,2.02742E+000,1.06252E-002,6.63413E-001,0,3.09119E+001,-7.81381E+000,9.98458E-001,-8.46361E+000,-4.96145E+001,9.97952E-001,1.31858E-001,-5.69953E-002,1.97896E-003,1.31879E-001,-5.70160E-002,6.00305E-001,1.32281E-001,1.14041E+000,3.56523E-002,0.00000E+000,-2.55331E-002,9.46041E-001,0.00000E+000,-2.90789E-003,-6.15760E-002,1.00000E+000,25
549,1357,-2.27551E+001,1.24308E+000,4.48662E-002,1.99430E+000,-5.02035E-001,2.19332E-002,2.05664E+000,1.13691E-002,6.46564E-001,0,3.13544E+001,-8.20784E+000,9.98504E-001,-7.72018E+000,-5.02424E+001,9.98228E-001,1.29473E-001,-5.69996E-002,2.26000E-003,1.29501E-001,-5.70269E-002,6.94272E-001,1.29808E-001,1.13770E+000,3.55940E-002,0.00000E+000,-2.49247E-002,9.46055E-001,0.00000E+000,-4.58016E-003,-6.16120E-002,1.00000E+000,25
549,1327,-2.28674E+001,-5.66482E-001,1.55668E-001,1.91155E+000,-4.04166E-001,1.38048E-001,1.95868E+000,2.15301E-002,7.70269E-001,0,2.97526E+001,-6.92469E+000,9.98563E-001,-9.57203E+000,-4.81798E+001,9.96750E-001,1.36579E-001,-5.69754E-002,1.39645E-003,1.36589E-001,-5.69855E-002,4.13348E-001,1.37211E-001,1.14579E+000,3.57138E-002,0.00000E+000,-2.67444E-002,9.46028E-001,0.00000E+000,4.21465E-004,-6.15380E-002,1.00000E+000,25
549,1337,-2.28241E+001,3.03923E-002,8.30276E-002,1.94871E+000,-4.37555E-001,8.70379E-002,1.99913E+000,8.44963E-003,6.65552E-001,0,3.04702E+001,-7.33750E+000,9.99123E-001,-8.97594E+000,-4.89167E+001,9.98994E-001,1.34232E-001,-5.69865E-002,1.68907E-003,1.34247E-001,-5.70015E-002,5.06054E-001,1.34754E-001,1.14311E+000,3.56891E-002,0.00000E+000,-2.61410E-002,9.46033E-001,0.00000E+000,-1.23693E-003,-6.15532E-002,1.00000E+000,25
1309,1317,3.51221E+001,-4.62487E-001,-1.31229E-001,1.03393E+001,-7.74893E-002,-8.82448E-002,1.03400E+001,2.03229E-002,4.54458E-001,0,1.53850E+002,-2.48421E+000,9.97570E-001,1.26721E+002,-2.84729E+001,9.96277E-001,1.58300E-001,-5.95996E-002,3.44944E-003,1.58354E-001,-5.96542E-002,9.06713E-001,1.59951E-001,1.17153E+000,-2.21417E-003,0.00000E+000,8.37719E-003,9.43438E-001,0.00000E+000,-9.59872E-004,-5.29598E-002,1.00000E+000,25
1309,1327,3.51479E+001,1.56805E-001,-1.48278E-001,1.03429E+001,-1.12094E-001,-1.18437E-001,1.03442E+001,2.39518E-002,4.26938E-001,0,1.54018E+002,-3.00440E+000,9.97140E-001,1.27132E+002,-2.88092E+001,9.95443E-001,1.60224E-001,-5.95464E-002,4.16343E-003,1.60303E-001,-5.96252E-002,1.08492E+000,1.62045E-001,1.17379E+000,-2.13736E-003,0.00000E+000,9.52223E-003,9.43477E-001,0.00000E+000,2.00613E-003,-5.28592E-002,1.00000E+000,25
1309,1337,3.51920E+001,7.80605E-001,-1.13912E-001,1.03518E+001,-1.51184E-001,-1.44150E-001,1.03539E+001,2.32926E-002,4.61174E-001,0,1.54231E+002,-3.60416E+000,9.98049E-001,1.27886E+002,-2.91595E+001,9.97201E-001,1.62151E-001,-5.94654E-002,4.90139E-003,1.62259E-001,-5.95738E-002,1.26636E+000,1.64158E-001,1.17608E+000,-2.01558E-003,0.00000E+000,1.06775E-002,9.43539E-001,0.00000E+000,4.99857E-003,-5.26996E-002,1.00000E+000,25
549,1317,-2.28804E+001,-1.14827E+000,2.53968E-001,1.89895E+000,-3.59085E-001,1.79218E-001,1.94090E+000,1.84655E-002,7.56002E-001,0,2.94402E+001,-6.27504E+000,9.98886E-001,-9.62579E+000,-4.73207E+001,9.97673E-001,1.38916E-001,-5.69596E-002,1.09435E-003,1.38923E-001,-5.69657E-002,3.20095E-001,1.39670E-001,1.14847E+000,3.57155E-002,0.00000E+000,-2.73477E-002,9.46027E-001,0.00000E+000,2.07967E-003,-6.15369E-002,1.00000E+000,25
549,1307,-2.29032E+001,-1.73419E+000,3.48170E-001,1.87459E+000,-3.18001E-001,2.03518E-001,1.91223E+000,1.31116E-002,6.85950E-001,0,2.89864E+001,-5.65055E+000,9.98356E-001,-9.84117E+000,-4.65441E+001,9.97498E-001,1.41250E-001,-5.69420E-002,7.88534E-004,1.41254E-001,-5.69452E-002,2.27954E-001,1.42134E-001,1.15116E+000,3.57093E-002,0.00000E+000,-2.79522E-002,9.46029E-001,0.00000E+000,3.74133E-003,-6.15407E-002,1.00000E+000,25
1309,1287,3.51062E+001,-2.27930E+000,8.88851E-002,1.03481E+001,4.81001E-002,1.90874E-002,1.03482E+001,1.30305E-002,4.77732E-001,0,1.53495E+002,-6.45527E-001,9.98706E-001,1.26635E+002,-2.72217E+001,9.96701E-001,1.52474E-001,-5.96676E-002,1.37483E-003,1.52483E-001,-5.96765E-002,3.71298E-001,1.53678E-001,1.16477E+000,-2.29985E-003,0.00000E+000,4.95784E-003,9.43395E-001,0.00000E+000,-9.81706E-003,-5.30721E-002,1.00000E+000,25
1309,1297,3.51077E+001,-1.68447E+000,-1.29108E-003,1.03461E+001,-2.68764E-003,-1.62353E-002,1.03461E+001,1.76136E-002,4.72989E-001,0,1.53634E+002,-1.38792E+000,9.98542E-001,1.26585E+002,-2.77693E+001,9.96364E-001,1.54427E-001,-5.96556E-002,2.05906E-003,1.54447E-001,-5.96754E-002,5.51005E-001,1.55771E-001,1.16702E+000,-2.28767E-003,0.00000E+000,6.09644E-003,9.43401E-001,0.00000E+000,-6.86773E-003,-5.30561E-002,1.00000E+000,25
1309,1307,3.51084E+001,-1.07134E+000,-8.89536E-002,1.03420E+001,-3.35812E-002,-5.43003E-002,1.03422E+001,1.92754E-002,3.86086E-001,0,1.53745E+002,-1.81606E+000,9.98475E-001,1.26528E+002,-2.80780E+001,9.97596E-001,1.56361E-001,-5.96399E-002,2.74296E-003,1.56396E-001,-5.96747E-002,7.27433E-001,1.57852E-001,1.16926E+000,-2.27074E-003,0.00000E+000,7.23160E-003,9.43410E-001,0.00000E+000,-3.92732E-003,-5.30339E-002,1.00000E+000,25
539,1347,-2.35187E+001,6.50384E-001,4.65674E-002,1.88118E+000,-4.48611E-001,5.14423E-002,1.93461E+000,9.48914E-003,6.58111E-001,0,2.95178E+001,-7.41752E+000,9.98642E-001,-9.48809E+000,-4.94389E+001,9.98609E-001,1.31551E-001,-5.66679E-002,2.19217E-003,1.31577E-001,-5.66934E-002,6.67198E-001,1.31995E-001,1.13997E+000,3.83256E-002,0.00000E+000,-2.73823E-002,9.46214E-001,0.00000E+000,-2.57318E-003,-6.00575E-002,1.00000E+000,25
539,1357,-2.34794E+001,1.26432E+000,4.13330E-002,1.90724E+000,-4.74374E-001,2.20942E-002,1.96547E+000,8.72598E-003,6.54427E-001,0,3.00002E+001,-7.76645E+000,9.99084E-001,-8.74184E+000,-5.00148E+001,9.98907E-001,1.29343E-001,-5.66735E-002,2.44620E-003,1.29376E-001,-5.67057E-002,7.53289E-001,1.29704E-001,1.13747E+000,3.82759E-002,0.00000E+000,-2.68341E-002,9.46225E-001,0.00000E+000,-4.24616E-003,-6.00908E-002,1.00000E+000,25
539,1327,-2.35824E+001,-5.46475E-001,1.37890E-001,1.83302E+000,-3.76649E-001,1.20730E-001,1.87521E+000,1.11856E-002,6.60462E-001,0,2.85780E+001,-6.42239E+000,9.97243E-001,-1.04961E+001,-4.79923E+001,9.97198E-001,1.35930E-001,-5.66483E-002,1.66843E-003,1.35944E-001,-5.66628E-002,4.96343E-001,1.36570E-001,1.14496E+000,3.83835E-002,0.00000E+000,-2.84752E-002,9.46201E-001,0.00000E+000,7.62384E-004,-6.00188E-002,1.00000E+000,25
539,1337,-2.35504E+001,5.20033E-002,8.14227E-002,1.85849E+000,-4.10486E-001,8.27755E-002,1.90508E+000,1.00691E-002,6.43265E-001,0,2.90780E+001,-6.88591E+000,9.98320E-001,-1.00222E+001,-4.86991E+001,9.98253E-001,1.33749E-001,-5.66590E-002,1.93153E-003,1.33769E-001,-5.66785E-002,5.81136E-001,1.34287E-001,1.14247E+000,3.83590E-002,0.00000E+000,-2.79299E-002,9.46206E-001,0.00000E+000,-9.01756E-004,-6.00352E-002,1.00000E+000,25
1319,1297,3.58716E+001,-1.67816E+000,-3.03645E-002,1.04431E+001,1.46925E-003,-3.38990E-002,1.04432E+001,1.51067E-002,3.50901E-001,0,1.55025E+002,-1.27435E+000,9.98762E-001,1.28536E+002,-2.75817E+001,9.97103E-001,1.53924E-001,-5.83691E-002,2.83091E-003,1.53962E-001,-5.84068E-002,7.63853E-001,1.55449E-001,1.16644E+000,9.04342E-004,0.00000E+000,4.99052E-003,9.44451E-001,0.00000E+000,-7.29591E-003,-4.94425E-002,1.00000E+000,25
1319,1307,3.58831E+001,-1.07156E+000,-9.92522E-002,1.04464E+001,-3.87534E-002,-6.48303E-002,1.04467E+001,1.83995E-002,3.40023E-001,0,1.55214E+002,-1.88424E+000,9.98490E-001,1.28667E+002,-2.79915E+001,9.97853E-001,1.56151E-001,-5.83494E-002,3.51675E-003,1.56209E-001,-5.84071E-002,9.39033E-001,1.57856E-001,1.16902E+000,9.36859E-004,0.00000E+000,6.12094E-003,9.44466E-001,0.00000E+000,-4.08487E-003,-4.94021E-002,1.00000E+000,25
539,1307,-2.36312E+001,-1.72312E+000,3.35843E-001,1.78260E+000,-3.00936E-001,1.88759E-001,1.81765E+000,8.99301E-003,6.79062E-001,0,2.75976E+001,-5.35926E+000,9.98635E-001,-1.09470E+001,-4.64524E+001,9.98337E-001,1.40254E-001,-5.66163E-002,1.12102E-003,1.40260E-001,-5.66227E-002,3.26241E-001,1.41125E-001,1.14993E+000,3.83775E-002,0.00000E+000,-2.95627E-002,9.46202E-001,0.00000E+000,4.08143E-003,-6.00229E-002,1.00000E+000,25
539,1317,-2.36080E+001,-1.14134E+000,2.28732E-001,1.80809E+000,-3.43956E-001,1.56401E-001,1.84714E+000,1.05534E-002,7.00209E-001,0,2.80898E+001,-5.99158E+000,9.97972E-001,-1.07677E+001,-4.72912E+001,9.97400E-001,1.38097E-001,-5.66334E-002,1.39684E-003,1.38107E-001,-5.66435E-002,4.10966E-001,1.38849E-001,1.14745E+000,3.83863E-002,0.00000E+000,-2.90193E-002,9.46201E-001,0.00000E+000,2.42311E-003,-6.00170E-002,1.00000E+000,25
1319,1287,3.58788E+001,-2.28459E+000,6.61336E-002,1.04513E+001,3.80082E-002,-8.89593E-004,1.04514E+001,1.57477E-002,4.36276E-001,0,1.54989E+002,-7.58786E-001,9.98475E-001,1.28727E+002,-2.71890E+001,9.97614E-001,1.51689E-001,-5.83732E-002,2.15893E-003,1.51711E-001,-5.83954E-002,5.88778E-001,1.53045E-001,1.16387E+000,8.99901E-004,0.00000E+000,3.86373E-003,9.44449E-001,0.00000E+000,-1.04966E-002,-4.94481E-002,1.00000E+000,25
529,1327,-2.43050E+001,-5.30046E-001,1.41088E-001,1.74555E+000,-3.54900E-001,1.18897E-001,1.78523E+000,1.01030E-002,6.67999E-001,0,2.72227E+001,-6.08212E+000,9.97108E-001,-1.14696E+001,-4.78473E+001,9.96930E-001,1.35421E-001,-5.59254E-002,2.03229E-003,1.35443E-001,-5.59470E-002,6.08446E-001,1.36123E-001,1.14432E+000,4.02235E-002,0.00000E+000,-2.93825E-002,9.46769E-001,0.00000E+000,1.54824E-003,-5.83795E-002,1.00000E+000,25
529,1307,-2.43550E+001,-1.70519E+000,3.42425E-001,1.69334E+000,-2.78395E-001,1.86837E-001,1.72622E+000,1.21488E-002,6.54560E-001,0,2.62154E+001,-4.99302E+000,9.98801E-001,-1.19262E+001,-4.63037E+001,9.98330E-001,1.39174E-001,-5.59134E-002,1.79653E-003,1.39190E-001,-5.59299E-002,5.27568E-001,1.40082E-001,1.14863E+000,4.02163E-002,0.00000E+000,-2.98993E-002,9.46770E-001,0.00000E+000,5.15485E-003,-5.83855E-002,1.00000E+000,25
529,1317,-2.43321E+001,-1.12276E+000,2.29361E-001,1.72006E+000,-3.19724E-001,1.57723E-001,1.75662E+000,9.96002E-003,6.47002E-001,0,2.67184E+001,-5.58380E+000,9.98712E-001,-1.17691E+001,-4.71362E+001,9.98212E-001,1.37302E-001,-5.59201E-002,1.91799E-003,1.37321E-001,-5.59391E-002,5.68663E-001,1.38105E-001,1.14647E+000,4.02288E-002,0.00000E+000,-2.96410E-002,9.46769E-001,0.00000E+000,3.35271E-003,-5.83751E-002,1.00000E+000,25
