Coordinates.Image X [Pixel],Coordinates.Image Y [Pixel],coor.X [mm],coor.Y [mm],coor.Z [mm],disp.Horizontal Displacement U [mm],disp.Vertical Displacement V [mm],disp.Out-Of-Plane: W [mm],disp.Displacement Magnitude [mm],stats.Sigma [mm],stats.Epipolar Distance [Pixel],stats.Shape Index [-],SameCamera.Horizontal: u [Pixel],SameCamera.Vertical: v [Pixel],SameCamera.Correlation Value 2D [-],CrossCamera.Horizontal: q [Pixel],CrossCamera.Vertical: r [Pixel],CrossCamera.Correlation Value Persp [-],strain.Strain-global frame: Exx [ ],strain.Strain-global frame: Eyy [ ],strain.Strain-global frame: Exy [ ],strain.Maximum Principal Strain: EI [ ],strain.Minimum Principal Strain: EII [ ],strain.Shear Angle Gamma [deg],strain.Von Mises Equivalent Strain [ ],defgradient.F[0,0] [-],defgradient.F[0,1] [-],defgradient.F[0,2] [-],defgradient.F[1,0] [-],defgradient.F[1,1] [-],defgradient.F[1,2] [-],defgradient.F[2,0] [-],defgradient.F[2,1] [-],defgradient.F[2,2] [-],ext.Current Image [#]
929,1317,6.62138E+000,-1.13808E+000,7.64424E-002,6.95745E+000,-5.21718E-001,1.63163E-001,6.97889E+000,1.45318E-002,4.57400E-001,0,1.05975E+002,-9.34335E+000,9.98284E-001,6.28030E+001,-4.29464E+001,9.97079E-001,1.88912E-001,-7.92903E-002,-3.57970E-004,1.88912E-001,-7.92908E-002,-7.64727E-002,1.89722E-001,1.20787E+000,-2.09844E-002,0.00000E+000,1.67054E-002,9.27925E-001,0.00000E+000,-1.57870E-002,-9.63765E-002,1.00000E+000,29
919,1307,5.83468E+000,-1.73940E+000,1.49479E-001,6.83730E+000,-4.73768E-001,2.40997E-001,6.85793E+000,1.72000E-002,4.74719E-001,0,1.03949E+002,-8.71840E+000,9.96672E-001,6.06861E+001,-4.24934E+001,9.94519E-001,1.92543E-001,-7.90431E-002,-9.86409E-004,1.92546E-001,-7.90467E-002,-2.08096E-001,1.93571E-001,1.21229E+000,-1.85566E-002,0.00000E+000,1.35063E-002,9.28257E-001,0.00000E+000,-1.42711E-002,-9.69998E-002,1.00000E+000,29
919,1317,5.81861E+000,-1.16077E+000,3.41206E-002,6.81841E+000,-5.30131E-001,1.76549E-001,6.84127E+000,2.09435E-002,4.52879E-001,0,1.03900E+002,-9.49485E+000,9.94688E-001,6.02871E+001,-4.33127E+001,9.93106E-001,1.90234E-001,-7.90503E-002,-1.19875E-003,1.90239E-001,-7.90557E-002,-2.55052E-001,1.91141E-001,1.20947E+000,-1.85690E-002,0.00000E+000,1.30108E-002,9.28254E-001,0.00000E+000,-1.26991E-002,-9.69929E-002,1.00000E+000,29
919,1327,5.82313E+000,-5.71905E-001,-1.61070E-002,6.80582E+000,-5.88337E-001,1.11191E-001,6.83210E+000,1.58737E-002,4.94754E-001,0,1.03934E+002,-1.02884E+001,9.97372E-001,6.03439E+001,-4.40786E+001,9.95962E-001,1.87894E-001,-7.90661E-002,-1.43846E-003,1.87902E-001,-7.90738E-002,-3.08714E-001,1.88686E-001,1.20662E+000,-1.86434E-002,0.00000E+000,1.25104E-002,9.28241E-001,0.00000E+000,-1.11115E-002,-9.69514E-002,1.00000E+000,29
929,1307,6.63243E+000,-1.71639E+000,1.78070E-001,6.97569E+000,-4.61753E-001,2.33769E-001,6.99486E+000,1.45115E-002,4.93362E-001,0,1.05994E+002,-8.53393E+000,9.98449E-001,6.30947E+001,-4.20875E+001,9.97587E-001,1.91264E-001,-7.92905E-002,-3.28918E-004,1.91265E-001,-7.92909E-002,-6.96554E-002,1.92193E-001,1.21076E+000,-2.09524E-002,0.00000E+000,1.68816E-002,9.27927E-001,0.00000E+000,-1.78533E-002,-9.63995E-002,1.00000E+000,29
929,1327,6.61713E+000,-5.45208E-001,9.85781E-003,6.93976E+000,-5.71192E-001,9.87578E-002,6.96393E+000,1.30416E-002,4.46231E-001,0,1.05931E+002,-1.00163E+001,9.98523E-001,6.26907E+001,-4.36416E+001,9.97844E-001,1.86544E-001,-7.92900E-002,-3.98595E-004,1.86545E-001,-7.92906E-002,-8.59099E-002,1.87242E-001,1.20498E+000,-2.10444E-002,0.00000E+000,1.65288E-002,9.27921E-001,0.00000E+000,-1.37160E-002,-9.63336E-002,1.00000E+000,29
939,1307,7.42219E+000,-1.69823E+000,1.61691E-001,7.11111E+000,-4.50496E-001,2.06998E-001,7.12837E+000,1.56607E-002,4.98008E-001,0,1.08066E+002,-8.32039E+000,9.98630E-001,6.52909E+001,-4.16691E+001,9.97751E-001,1.89754E-001,-7.87096E-002,1.44728E-004,1.89754E-001,-7.87096E-002,3.08881E-002,1.90670E-001,1.20893E+000,-2.37992E-002,0.00000E+000,2.01810E-002,9.28284E-001,0.00000E+000,-2.05106E-002,-9.49784E-002,1.00000E+000,29
939,1317,7.41031E+000,-1.11845E+000,6.51553E-002,7.09124E+000,-5.08938E-001,1.38060E-001,7.11082E+000,1.57156E-002,4.31161E-001,0,1.08016E+002,-9.10628E+000,9.98112E-001,6.49979E+001,-4.25298E+001,9.96617E-001,1.87640E-001,-7.87056E-002,1.71874E-004,1.87640E-001,-7.87057E-002,3.69732E-002,1.88450E-001,1.20632E+000,-2.38315E-002,0.00000E+000,2.00809E-002,9.28283E-001,0.00000E+000,-1.80777E-002,-9.49482E-002,1.00000E+000,29
939,1327,7.40864E+000,-5.18865E-001,5.07180E-003,7.07448E+000,-5.54965E-001,7.33585E-002,7.09659E+000,1.30193E-002,4.51425E-001,0,1.07986E+002,-9.70938E+000,9.97890E-001,6.49396E+001,-4.31173E+001,9.96988E-001,1.85502E-001,-7.87003E-002,1.87417E-004,1.85502E-001,-7.87004E-002,4.06438E-002,1.86210E-001,1.20370E+000,-2.38925E-002,0.00000E+000,1.99801E-002,9.28281E-001,0.00000E+000,-1.56276E-002,-9.48912E-002,1.00000E+000,29
919,1337,5.83519E+000,3.01172E-002,-3.93616E-002,6.79583E+000,-6.34907E-001,4.97337E-002,6.82561E+000,1.48105E-002,4.52484E-001,0,1.03985E+002,-1.08977E+001,9.96952E-001,6.05761E+001,-4.47418E+001,9.96562E-001,1.85549E-001,-7.90848E-002,-1.68709E-003,1.85560E-001,-7.90955E-002,-3.65253E-001,1.86231E-001,1.20377E+000,-1.87391E-002,0.00000E+000,1.20104E-002,9.28225E-001,0.00000E+000,-9.52521E-003,-9.68980E-002,1.00000E+000,29
929,1337,6.62462E+000,4.87602E-002,-2.72996E-002,6.92765E+000,-6.25174E-001,3.54935E-002,6.95589E+000,1.34093E-002,4.22615E-001,0,1.05962E+002,-1.07329E+001,9.98658E-001,6.28212E+001,-4.43890E+001,9.98233E-001,1.84155E-001,-7.92897E-002,-4.50847E-004,1.84156E-001,-7.92905E-002,-9.80528E-002,1.84747E-001,1.20208E+000,-2.11318E-002,0.00000E+000,1.63513E-002,9.27916E-001,0.00000E+000,-1.16351E-002,-9.62709E-002,1.00000E+000,29
939,1337,7.41348E+000,7.57926E-002,-2.93970E-002,7.06057E+000,-6.07238E-001,1.73638E-002,7.08666E+000,1.19212E-002,4.35250E-001,0,1.07967E+002,-1.04286E+001,9.98647E-001,6.50338E+001,-4.38548E+001,9.98080E-001,1.83353E-001,-7.86943E-002,1.96527E-004,1.83354E-001,-7.86944E-002,4.29698E-002,1.83965E-001,1.20108E+000,-2.39683E-002,0.00000E+000,1.98793E-002,9.28278E-001,0.00000E+000,-1.31782E-002,-9.48204E-002,1.00000E+000,29
949,1317,8.20596E+000,-1.08926E+000,6.59516E-002,7.22994E+000,-4.89309E-001,1.19221E-001,7.24746E+000,2.34220E-002,4.57983E-001,0,1.10104E+002,-8.77533E+000,9.95329E-001,6.73276E+001,-4.19639E+001,9.93495E-001,1.86326E-001,-7.80347E-002,6.04240E-004,1.86328E-001,-7.80361E-002,1.30958E-001,1.87145E-001,1.20472E+000,-2.63722E-002,0.00000E+000,2.29914E-002,9.28657E-001,0.00000E+000,-1.98741E-002,-9.27590E-002,1.00000E+000,29
949,1327,8.19867E+000,-4.91310E-001,3.92023E-003,7.20864E+000,-5.35068E-001,5.78818E-002,7.22870E+000,2.04251E-002,4.37602E-001,0,1.09996E+002,-9.38265E+000,9.96391E-001,6.71781E+001,-4.25917E+001,9.95278E-001,1.84581E-001,-7.80248E-002,6.76920E-004,1.84582E-001,-7.80266E-002,1.47690E-001,1.85316E-001,1.20256E+000,-2.64191E-002,0.00000E+000,2.29530E-002,9.28656E-001,0.00000E+000,-1.70224E-002,-9.26971E-002,1.00000E+000,29
949,1337,8.20359E+000,1.02708E-001,-2.94179E-002,7.19530E+000,-5.88033E-001,5.98179E-003,7.21929E+000,1.48828E-002,4.33252E-001,0,1.09973E+002,-1.01242E+001,9.97901E-001,6.72747E+001,-4.33341E+001,9.96776E-001,1.82820E-001,-7.80135E-002,7.43653E-004,1.82822E-001,-7.80156E-002,1.63352E-001,1.83475E-001,1.20039E+000,-2.64801E-002,0.00000E+000,2.29146E-002,9.28655E-001,0.00000E+000,-1.41637E-002,-9.26165E-002,1.00000E+000,29
949,1307,8.22036E+000,-1.67675E+000,1.57812E-001,7.25204E+000,-4.37789E-001,1.81705E-001,7.26751E+000,1.91115E-002,4.96583E-001,0,1.10211E+002,-8.08090E+000,9.97116E-001,6.76487E+001,-4.12282E+001,9.95728E-001,1.88055E-001,-7.80423E-002,5.23066E-004,1.88056E-001,-7.80434E-002,1.12625E-001,1.88960E-001,1.20687E+000,-2.63465E-002,0.00000E+000,2.30296E-002,9.28658E-001,0.00000E+000,-2.27160E-002,-9.27930E-002,1.00000E+000,29
909,1317,5.03473E+000,-1.17608E+000,3.39975E-002,6.68625E+000,-5.37632E-001,1.78734E-001,6.71021E+000,1.97914E-002,4.29619E-001,0,1.01953E+002,-9.61707E+000,9.92784E-001,5.81567E+001,-4.36624E+001,9.91697E-001,1.91554E-001,-7.96779E-002,-2.12739E-003,1.91571E-001,-7.96946E-002,-4.49358E-001,1.92470E-001,1.21107E+000,-1.60893E-002,0.00000E+000,9.05563E-003,9.27726E-001,0.00000E+000,-9.21714E-003,-9.71072E-002,1.00000E+000,29
909,1327,5.04590E+000,-5.81314E-001,-1.95113E-002,6.68079E+000,-5.90485E-001,1.11863E-001,6.70777E+000,1.60645E-002,4.66167E-001,0,1.02098E+002,-1.03063E+001,9.94969E-001,5.83107E+001,-4.43336E+001,9.95478E-001,1.89291E-001,-7.96917E-002,-2.35410E-003,1.89312E-001,-7.97123E-002,-5.01394E-001,1.90096E-001,1.20832E+000,-1.61587E-002,0.00000E+000,8.62334E-003,9.27715E-001,0.00000E+000,-8.21532E-003,-9.70819E-002,1.00000E+000,29
909,1337,5.05477E+000,2.41681E-002,-4.04793E-002,6.66750E+000,-6.36503E-001,5.17161E-002,6.69801E+000,1.71559E-002,5.17962E-001,0,1.02092E+002,-1.09098E+001,9.97090E-001,5.84994E+001,-4.49034E+001,9.96877E-001,1.87016E-001,-7.97086E-002,-2.59099E-003,1.87041E-001,-7.97338E-002,-5.56508E-001,1.87717E-001,1.20556E+000,-1.62510E-002,0.00000E+000,8.18991E-003,9.27700E-001,0.00000E+000,-7.21085E-003,-9.70482E-002,1.00000E+000,29
909,1307,5.04415E+000,-1.75478E+000,1.50432E-001,6.69745E+000,-4.81537E-001,2.39562E-001,6.71902E+000,1.93362E-002,4.17254E-001,0,1.01898E+002,-8.82999E+000,9.94411E-001,5.84565E+001,-4.28627E+001,9.89707E-001,1.93787E-001,-7.96726E-002,-1.92799E-003,1.93801E-001,-7.96862E-002,-4.03929E-001,1.94818E-001,1.21378E+000,-1.60817E-002,0.00000E+000,9.48326E-003,9.27727E-001,0.00000E+000,-1.02082E-002,-9.71100E-002,1.00000E+000,29
919,1347,5.85634E+000,6.42547E-001,-4.86142E-002,6.79169E+000,-6.75024E-001,-1.26306E-002,6.82516E+000,2.26854E-002,4.79498E-001,0,1.04122E+002,-1.14156E+001,9.98275E-001,6.09794E+001,-4.52412E+001,9.97778E-001,1.83186E-001,-7.91054E-002,-1.94283E-003,1.83200E-001,-7.91198E-002,-4.24368E-001,1.83766E-001,1.20092E+000,-1.88490E-002,0.00000E+000,1.15084E-002,9.28205E-001,0.00000E+000,-7.93234E-003,-9.68368E-002,1.00000E+000,29
929,1347,6.64137E+000,6.52871E-001,-3.99021E-002,6.91961E+000,-6.72616E-001,-2.70382E-002,6.95228E+000,1.29517E-002,4.26642E-001,0,1.06045E+002,-1.13642E+001,9.98556E-001,6.31468E+001,-4.50203E+001,9.98184E-001,1.81752E-001,-7.92894E-002,-5.13010E-004,1.81753E-001,-7.92904E-002,-1.12600E-001,1.82244E-001,1.19916E+000,-2.12423E-002,0.00000E+000,1.61734E-002,9.27909E-001,0.00000E+000,-9.54948E-003,-9.61918E-002,1.00000E+000,29
939,1347,7.43094E+000,6.79754E-001,-3.59929E-002,7.05355E+000,-6.54932E-001,-3.68517E-002,7.08399E+000,1.78352E-002,4.44587E-001,0,1.08038E+002,-1.10825E+001,9.98415E-001,6.53811E+001,-4.44971E+001,9.97071E-001,1.81187E-001,-7.86872E-002,1.95870E-004,1.81187E-001,-7.86873E-002,4.31845E-002,1.81708E-001,1.19844E+000,-2.40672E-002,0.00000E+000,1.97781E-002,9.28274E-001,0.00000E+000,-1.07197E-002,-9.47281E-002,1.00000E+000,29
949,1347,8.22444E+000,7.04604E-001,-2.57637E-002,7.18963E+000,-6.40167E-001,-4.63058E-002,7.21823E+000,1.47884E-002,4.53187E-001,0,1.10058E+002,-1.08427E+001,9.97567E-001,6.76933E+001,-4.40235E+001,9.96154E-001,1.81038E-001,-7.79992E-002,7.99162E-004,1.81040E-001,-7.80017E-002,1.76763E-001,1.81616E-001,1.19822E+000,-2.65688E-002,0.00000E+000,2.28759E-002,9.28654E-001,0.00000E+000,-1.12882E-002,-9.24994E-002,1.00000E+000,29
959,1317,8.99226E+000,-1.06609E+000,5.54098E-002,7.36074E+000,-4.73211E-001,9.76806E-002,7.37658E+000,2.15652E-002,4.35665E-001,0,1.12083E+002,-8.48773E+000,9.96111E-001,6.94943E+001,-4.14927E+001,9.95034E-001,1.85136E-001,-7.72304E-002,6.48769E-004,1.85138E-001,-7.72320E-002,1.41677E-001,1.85983E-001,1.20324E+000,-2.90579E-002,0.00000E+000,2.52089E-002,9.29142E-001,0.00000E+000,-2.07667E-002,-9.02695E-002,1.00000E+000,29
959,1327,8.99061E+000,-4.68289E-001,-9.30312E-003,7.34675E+000,-5.18358E-001,4.17345E-002,7.36513E+000,2.88862E-002,4.22809E-001,0,1.12070E+002,-9.09985E+000,9.98263E-001,6.94267E+001,-4.21106E+001,9.97339E-001,1.83695E-001,-7.72138E-002,8.04708E-004,1.83698E-001,-7.72163E-002,1.76712E-001,1.84473E-001,1.20144E+000,-2.90923E-002,0.00000E+000,2.53069E-002,9.29144E-001,0.00000E+000,-1.77543E-002,-9.02117E-002,1.00000E+000,29
959,1337,8.99591E+000,1.23772E-001,-3.16872E-002,7.33142E+000,-5.75811E-001,-9.13327E-003,7.35401E+000,2.18275E-002,4.28377E-001,0,1.12013E+002,-9.90474E+000,9.97296E-001,6.95495E+001,-4.29002E+001,9.96398E-001,1.82236E-001,-7.71922E-002,9.51792E-004,1.82240E-001,-7.71957E-002,2.10203E-001,1.82948E-001,1.19964E+000,-2.91499E-002,0.00000E+000,2.54053E-002,9.29147E-001,0.00000E+000,-1.47262E-002,-9.01151E-002,1.00000E+000,29
959,1307,9.00279E+000,-1.65152E+000,1.44357E-001,7.37985E+000,-4.18000E-001,1.60787E-001,7.39342E+000,1.65815E-002,4.77477E-001,0,1.12140E+002,-7.75245E+000,9.96967E-001,6.97492E+001,-4.07198E+001,9.95640E-001,1.86564E-001,-7.72447E-002,4.88490E-004,1.86565E-001,-7.72456E-002,1.06093E-001,1.87482E-001,1.20503E+000,-2.90340E-002,0.00000E+000,2.51111E-002,9.29141E-001,0.00000E+000,-2.37753E-002,-9.03096E-002,1.00000E+000,29
959,1347,9.01132E+000,7.21714E-001,-3.62201E-002,7.32221E+000,-6.29660E-001,-6.02398E-002,7.34949E+000,1.60878E-002,4.24429E-001,0,1.12044E+002,-1.06574E+001,9.97035E-001,6.98654E+001,-4.36437E+001,9.96528E-001,1.80765E-001,-7.71682E-002,1.09396E-003,1.80769E-001,-7.71729E-002,2.43001E-001,1.81412E-001,1.19783E+000,-2.92185E-002,0.00000E+000,2.55038E-002,9.29151E-001,0.00000E+000,-1.16948E-002,-8.99999E-002,1.00000E+000,29
909,1347,5.07611E+000,6.32112E-001,-3.69125E-002,6.66164E+000,-6.80610E-001,-7.82472E-003,6.69633E+000,1.92151E-002,4.99864E-001,0,1.02191E+002,-1.14990E+001,9.98304E-001,5.89337E+001,-4.55248E+001,9.96945E-001,1.84740E-001,-7.97284E-002,-2.83635E-003,1.84770E-001,-7.97588E-002,-6.14388E-001,1.85344E-001,1.20282E+000,-1.63643E-002,0.00000E+000,7.75747E-003,9.27682E-001,0.00000E+000,-6.20868E-003,-9.70069E-002,1.00000E+000,29
899,1327,4.26253E+000,-5.80620E-001,1.66977E-002,6.54109E+000,-5.89736E-001,1.14398E-001,6.56862E+000,1.20224E-002,4.84959E-001,0,1.00019E+002,-1.02777E+001,9.96763E-001,5.62732E+001,-4.44955E+001,9.96548E-001,1.90267E-001,-8.02056E-002,-3.12772E-003,1.90303E-001,-8.02417E-002,-6.62444E-001,1.91080E-001,1.20951E+000,-1.38301E-002,0.00000E+000,5.14249E-003,9.27311E-001,0.00000E+000,-5.39255E-003,-9.76037E-002,1.00000E+000,29
899,1337,4.27881E+000,2.06959E-002,-2.83067E-002,6.53910E+000,-6.35525E-001,4.74083E-002,6.57008E+000,1.81050E-002,5.03848E-001,0,1.00211E+002,-1.08738E+001,9.98599E-001,5.65259E+001,-4.50953E+001,9.98136E-001,1.88236E-001,-8.02175E-002,-3.32569E-003,1.88277E-001,-8.02587E-002,-7.09655E-001,1.88958E-001,1.20706E+000,-1.38980E-002,0.00000E+000,4.81611E-003,9.27302E-001,0.00000E+000,-5.05175E-003,-9.75943E-002,1.00000E+000,29
899,1347,4.30998E+000,6.24150E-001,-2.54524E-002,6.54324E+000,-6.84298E-001,-1.29898E-002,6.57894E+000,1.49249E-002,4.87446E-001,0,1.00467E+002,-1.15296E+001,9.98540E-001,5.71116E+001,-4.57841E+001,9.97899E-001,1.86195E-001,-8.02337E-002,-3.53756E-003,1.86242E-001,-8.02807E-002,-7.60577E-001,1.86831E-001,1.20460E+000,-1.39983E-002,0.00000E+000,4.48885E-003,9.27289E-001,0.00000E+000,-4.71004E-003,-9.75804E-002,1.00000E+000,29
899,1317,4.25977E+000,-1.17101E+000,9.02898E-002,6.55099E+000,-5.36834E-001,1.83543E-001,6.57551E+000,1.57026E-002,4.83372E-001,0,9.99303E+001,-9.58611E+000,9.96048E-001,5.62923E+001,-4.37788E+001,9.94109E-001,1.92289E-001,-8.01964E-002,-2.93882E-003,1.92321E-001,-8.02281E-002,-6.17852E-001,1.93199E-001,1.21196E+000,-1.37829E-002,0.00000E+000,5.46805E-003,9.27318E-001,0.00000E+000,-5.73248E-003,-9.76102E-002,1.00000E+000,29
899,1307,4.25893E+000,-1.75120E+000,1.85434E-001,6.55715E+000,-4.78079E-001,2.47652E-001,6.57922E+000,1.59566E-002,4.30107E-001,0,9.97941E+001,-8.75707E+000,9.95987E-001,5.63891E+001,-4.29754E+001,9.92388E-001,1.94300E-001,-8.01900E-002,-2.75915E-003,1.94328E-001,-8.02178E-002,-5.75853E-001,1.95311E-001,1.21441E+000,-1.37567E-002,0.00000E+000,5.79250E-003,9.27321E-001,0.00000E+000,-6.07127E-003,-9.76139E-002,1.00000E+000,29
889,1327,3.48006E+000,-5.87296E-001,2.77261E-002,6.40664E+000,-5.92715E-001,1.13860E-001,6.43501E+000,1.05353E-002,4.97502E-001,0,9.80331E+001,-1.03053E+001,9.97814E-001,5.42007E+001,-4.47200E+001,9.97416E-001,1.91268E-001,-7.95624E-002,-3.90017E-003,1.91324E-001,-7.96186E-002,-8.24875E-001,1.92219E-001,1.21074E+000,-1.18832E-002,0.00000E+000,1.93510E-003,9.27998E-001,0.00000E+000,-2.28630E-003,-9.84225E-002,1.00000E+000,29
889,1337,3.49037E+000,1.44149E-002,-1.90853E-002,6.39996E+000,-6.36483E-001,5.03013E-002,6.43172E+000,1.65584E-002,5.01244E-001,0,9.81416E+001,-1.08792E+001,9.98468E-001,5.43580E+001,-4.53201E+001,9.97961E-001,1.89314E-001,-7.95629E-002,-3.93749E-003,1.89372E-001,-7.96205E-002,-8.38811E-001,1.90169E-001,1.20838E+000,-1.19440E-002,0.00000E+000,2.00507E-003,9.28000E-001,0.00000E+000,-3.11064E-003,-9.84437E-002,1.00000E+000,29
889,1347,3.52261E+000,6.15484E-001,-1.72728E-002,6.40596E+000,-6.86908E-001,-8.48607E-003,6.44269E+000,1.34269E-002,4.75938E-001,0,9.84200E+001,-1.15615E+001,9.98115E-001,5.49595E+001,-4.60498E+001,9.97740E-001,1.87348E-001,-7.95635E-002,-3.98843E-003,1.87407E-001,-7.96231E-002,-8.55910E-001,1.88111E-001,1.20601E+000,-1.20375E-002,0.00000E+000,2.07531E-003,9.28003E-001,0.00000E+000,-3.93825E-003,-9.84764E-002,1.00000E+000,29
969,1297,9.81960E+000,-2.20852E+000,2.44505E-001,7.54198E+000,-3.45208E-001,1.90781E-001,7.55229E+000,2.15090E-002,4.53175E-001,0,1.14387E+002,-6.66719E+000,9.98350E-001,7.25280E+001,-3.94627E+001,9.96487E-001,1.86188E-001,-7.67841E-002,2.14037E-004,1.86188E-001,-7.67843E-002,4.66339E-002,1.87138E-001,1.20461E+000,-3.13568E-002,0.00000E+000,2.66286E-002,9.29326E-001,0.00000E+000,-2.72460E-002,-8.77557E-002,1.00000E+000,29
969,1307,9.78691E+000,-1.63935E+000,1.19517E-001,7.50729E+000,-4.13473E-001,1.21538E-001,7.51965E+000,3.81688E-002,4.47722E-001,0,1.14130E+002,-7.59674E+000,9.97615E-001,7.18573E+001,-4.03943E+001,9.95273E-001,1.85076E-001,-7.67712E-002,4.15868E-004,1.85077E-001,-7.67718E-002,9.09973E-002,1.85970E-001,1.20319E+000,-3.13613E-002,0.00000E+000,2.67825E-002,9.29326E-001,0.00000E+000,-2.41257E-002,-8.77460E-002,1.00000E+000,29
969,1317,9.78229E+000,-1.05179E+000,5.29674E-002,7.49304E+000,-4.66779E-001,7.63709E-002,7.50795E+000,1.35184E-002,4.20032E-001,0,1.14082E+002,-8.35907E+000,9.98832E-001,7.17384E+001,-4.11724E+001,9.98236E-001,1.83952E-001,-7.67529E-002,6.10917E-004,1.83954E-001,-7.67543E-002,1.34262E-001,1.84792E-001,1.20176E+000,-3.13827E-002,0.00000E+000,2.69365E-002,9.29329E-001,0.00000E+000,-2.10031E-002,-8.76991E-002,1.00000E+000,29
889,1317,3.47113E+000,-1.17611E+000,9.96635E-002,6.40981E+000,-5.38862E-001,1.79200E-001,6.43491E+000,1.44517E-002,5.29097E-001,0,9.78557E+001,-9.60527E+000,9.97681E-001,5.41211E+001,-4.39576E+001,9.96854E-001,1.93215E-001,-7.95620E-002,-3.87008E-003,1.93270E-001,-7.96169E-002,-8.12678E-001,1.94266E-001,1.21310E+000,-1.18399E-002,0.00000E+000,1.86525E-003,9.27997E-001,0.00000E+000,-1.46319E-003,-9.84074E-002,1.00000E+000,29
969,1327,9.77416E+000,-4.55185E-001,-1.94820E-002,7.47187E+000,-5.13636E-001,1.00183E-002,7.48951E+000,2.02628E-002,4.37678E-001,0,1.13999E+002,-8.99111E+000,9.98229E-001,7.15547E+001,-4.17759E+001,9.96195E-001,1.82815E-001,-7.67322E-002,8.02964E-004,1.82818E-001,-7.67347E-002,1.77254E-001,1.83602E-001,1.20033E+000,-3.14117E-002,0.00000E+000,2.70907E-002,9.29332E-001,0.00000E+000,-1.78743E-002,-8.76357E-002,1.00000E+000,29
889,1307,3.46576E+000,-1.75773E+000,1.94072E-001,6.41073E+000,-4.82343E-001,2.39574E-001,6.43332E+000,1.74042E-002,4.81056E-001,0,9.76540E+001,-8.80268E+000,9.96894E-001,5.41470E+001,-4.31709E+001,9.94409E-001,1.95150E-001,-7.95618E-002,-3.84850E-003,1.95204E-001,-7.96157E-002,-8.02459E-001,1.96306E-001,1.21545E+000,-1.18172E-002,0.00000E+000,1.79564E-003,9.27996E-001,0.00000E+000,-6.43095E-004,-9.83995E-002,1.00000E+000,29
969,1337,9.77944E+000,1.38428E-001,-4.25053E-002,7.45857E+000,-5.66584E-001,-3.17973E-002,7.48013E+000,1.84476E-002,3.88429E-001,0,1.13942E+002,-9.74705E+000,9.97725E-001,7.16754E+001,-4.25655E+001,9.97308E-001,1.81666E-001,-7.67076E-002,9.89914E-004,1.81670E-001,-7.67114E-002,2.19515E-001,1.82400E-001,1.19889E+000,-3.14531E-002,0.00000E+000,2.72453E-002,9.29336E-001,0.00000E+000,-1.47407E-002,-8.75454E-002,1.00000E+000,29
969,1347,9.78802E+000,7.54390E-001,-4.77083E-002,7.44379E+000,-6.03318E-001,-7.69254E-002,7.46859E+000,1.56094E-002,4.27140E-001,0,1.13863E+002,-1.02441E+001,9.97375E-001,7.18847E+001,-4.30066E+001,9.97004E-001,1.80498E-001,-7.66796E-002,1.17334E-003,1.80503E-001,-7.66849E-002,2.61398E-001,1.81181E-001,1.19745E+000,-3.15050E-002,0.00000E+000,2.74008E-002,9.29342E-001,0.00000E+000,-1.15862E-002,-8.74317E-002,1.00000E+000,29
879,1327,2.70244E+000,-5.88626E-001,4.53086E-002,6.27652E+000,-5.90159E-001,1.19193E-001,6.30533E+000,1.52708E-002,5.07328E-001,0,9.60887E+001,-1.02641E+001,9.97698E-001,5.22240E+001,-4.48770E+001,9.97416E-001,1.92072E-001,-7.98400E-002,-4.38918E-003,1.92143E-001,-7.99108E-002,-9.24543E-001,1.93047E-001,1.21173E+000,-1.01933E-002,0.00000E+000,-4.54408E-004,9.27696E-001,0.00000E+000,-2.33081E-004,-9.78564E-002,1.00000E+000,29
879,1337,2.71248E+000,7.02366E-003,-1.39963E-002,6.27023E+000,-6.39099E-001,4.55871E-002,6.30288E+000,1.50122E-002,4.84673E-001,0,9.62383E+001,-1.08874E+001,9.96719E-001,5.23495E+001,-4.55590E+001,9.96605E-001,1.90339E-001,-7.98363E-002,-4.35217E-003,1.90409E-001,-7.99064E-002,-9.22642E-001,1.91226E-001,1.20964E+000,-1.02452E-002,0.00000E+000,-2.09090E-004,9.27702E-001,0.00000E+000,-1.59003E-003,-9.78899E-002,1.00000E+000,29
879,1347,2.73902E+000,6.13220E-001,-1.57151E-002,6.27202E+000,-6.84655E-001,-1.04111E-002,6.30929E+000,1.71874E-002,5.00940E-001,0,9.64417E+001,-1.14986E+001,9.96888E-001,5.28573E+001,-4.61835E+001,9.96764E-001,1.88590E-001,-7.98311E-002,-4.32576E-003,1.88659E-001,-7.99008E-002,-9.23035E-001,1.89394E-001,1.20752E+000,-1.03236E-002,0.00000E+000,3.77620E-005,9.27711E-001,0.00000E+000,-2.95546E-003,-9.79406E-002,1.00000E+000,29
879,1307,2.67592E+000,-1.75682E+000,2.10631E-001,6.26670E+000,-4.79309E-001,2.36659E-001,6.28945E+000,2.00376E-002,4.83565E-001,0,9.55260E+001,-8.72635E+000,9.95983E-001,5.19807E+001,-4.32920E+001,9.93956E-001,1.95513E-001,-7.98443E-002,-4.48355E-003,1.95586E-001,-7.99173E-002,-9.32600E-001,1.96672E-001,1.21592E+000,-1.01399E-002,0.00000E+000,-9.43467E-004,9.27689E-001,0.00000E+000,2.47209E-003,-9.78219E-002,1.00000E+000,29
879,1317,2.68830E+000,-1.17496E+000,1.23103E-001,6.27418E+000,-5.33469E-001,1.89450E-001,6.29967E+000,1.49041E-002,4.37477E-001,0,9.58111E+001,-9.49028E+000,9.97800E-001,5.20780E+001,-4.41380E+001,9.96858E-001,1.93801E-001,-7.98428E-002,-4.43211E-003,1.93872E-001,-7.99145E-002,-9.27677E-001,1.94866E-001,1.21383E+000,-1.01557E-002,0.00000E+000,-6.99783E-004,9.27691E-001,0.00000E+000,1.12418E-003,-9.78321E-002,1.00000E+000,29
979,1307,1.06054E+001,-1.61768E+000,1.43204E-001,7.66541E+000,-4.01512E-001,1.16663E-001,7.67681E+000,2.21622E-002,4.09285E-001,0,1.16453E+002,-7.39910E+000,9.98827E-001,7.45988E+001,-4.00256E+001,9.98778E-001,1.83762E-001,-7.62428E-002,3.71956E-004,1.83763E-001,-7.62434E-002,8.19656E-002,1.84648E-001,1.20153E+000,-3.31212E-002,0.00000E+000,2.79583E-002,9.29534E-001,0.00000E+000,-2.31381E-002,-8.46415E-002,1.00000E+000,29
979,1317,1.05808E+001,-1.02508E+000,5.09908E-002,7.63268E+000,-4.49378E-001,5.30260E-002,7.64608E+000,1.29860E-002,4.30060E-001,0,1.16193E+002,-8.05414E+000,9.98243E-001,7.41206E+001,-4.06475E+001,9.97780E-001,1.83052E-001,-7.62218E-002,6.14362E-004,1.83053E-001,-7.62233E-002,1.35764E-001,1.83904E-001,1.20061E+000,-3.31329E-002,0.00000E+000,2.82061E-002,9.29537E-001,0.00000E+000,-2.01721E-002,-8.46041E-002,1.00000E+000,29
979,1327,1.05660E+001,-4.30153E-001,-1.00645E-002,7.60572E+000,-4.97129E-001,2.05822E-003,7.62195E+000,1.43503E-002,4.39545E-001,0,1.15969E+002,-8.73599E+000,9.96699E-001,7.38565E+001,-4.13048E+001,9.95656E-001,1.82331E-001,-7.61973E-002,8.54343E-004,1.82334E-001,-7.62001E-002,1.89339E-001,1.83151E-001,1.19969E+000,-3.31505E-002,0.00000E+000,2.84541E-002,9.29542E-001,0.00000E+000,-1.72030E-002,-8.45475E-002,1.00000E+000,29
979,1337,1.05640E+001,1.70580E-001,-4.76805E-002,7.58727E+000,-5.42123E-001,-4.40006E-002,7.60674E+000,1.91265E-002,4.26908E-001,0,1.15850E+002,-9.37136E+000,9.95103E-001,7.38351E+001,-4.19335E+001,9.94617E-001,1.81599E-001,-7.61693E-002,1.09210E-003,1.81603E-001,-7.61739E-002,2.42742E-001,1.82387E-001,1.19876E+000,-3.31741E-002,0.00000E+000,2.87027E-002,9.29549E-001,0.00000E+000,-1.42272E-002,-8.44716E-002,1.00000E+000,29
979,1347,1.05712E+001,7.83238E-001,-4.69987E-002,7.56962E+000,-5.81904E-001,-8.93456E-002,7.59248E+000,1.98078E-002,4.28104E-001,0,1.15729E+002,-9.91771E+000,9.93310E-001,7.40330E+001,-4.24558E+001,9.92838E-001,1.80854E-001,-7.61343E-002,1.32579E-003,1.80861E-001,-7.61411E-002,2.95577E-001,1.81612E-001,1.19783E+000,-3.32099E-002,0.00000E+000,2.89527E-002,9.29558E-001,0.00000E+000,-1.12352E-002,-8.43566E-002,1.00000E+000,29
979,1297,1.06074E+001,-2.18991E+000,2.27818E-001,7.67391E+000,-3.33819E-001,1.65523E-001,7.68295E+000,1.79403E-002,4.52690E-001,0,1.16390E+002,-6.44146E+000,9.98386E-001,7.47135E+001,-3.90422E+001,9.97981E-001,1.84464E-001,-7.62625E-002,1.28343E-004,1.84464E-001,-7.62625E-002,2.82039E-002,1.85383E-001,1.20245E+000,-3.31118E-002,0.00000E+000,2.77105E-002,9.29532E-001,0.00000E+000,-2.61045E-002,-8.46717E-002,1.00000E+000,29
869,1317,1.89262E+000,-1.17280E+000,1.13669E-001,6.12690E+000,-5.27292E-001,1.74541E-001,6.15202E+000,1.10759E-002,4.64972E-001,0,9.36710E+001,-9.34637E+000,9.98201E-001,4.97693E+001,-4.41750E+001,9.97216E-001,1.94007E-001,-8.02542E-002,-4.54106E-003,1.94082E-001,-8.03294E-002,-9.48324E-001,1.95039E-001,1.21410E+000,-8.26962E-003,0.00000E+000,-2.47651E-003,9.27265E-001,0.00000E+000,2.74850E-003,-9.73457E-002,1.00000E+000,29
869,1327,1.90942E+000,-5.85691E-001,4.34665E-002,6.13236E+000,-5.81767E-001,1.13517E-001,6.16094E+000,1.55550E-002,5.38590E-001,0,9.39635E+001,-1.01229E+001,9.97130E-001,4.99729E+001,-4.49178E+001,9.96590E-001,1.92634E-001,-8.02514E-002,-4.48473E-003,1.92707E-001,-8.03251E-002,-9.41289E-001,1.93594E-001,1.21243E+000,-8.29840E-003,0.00000E+000,-2.19047E-003,9.27269E-001,0.00000E+000,1.07807E-003,-9.73745E-002,1.00000E+000,29
869,1337,1.92647E+000,5.40595E-003,-1.74338E-003,6.13261E+000,-6.36020E-001,5.11609E-002,6.16571E+000,1.65726E-002,5.08862E-001,0,9.41750E+001,-1.08415E+001,9.95974E-001,5.02372E+001,-4.57052E+001,9.95650E-001,1.91252E-001,-8.02474E-002,-4.43388E-003,1.91324E-001,-8.03198E-002,-9.35371E-001,1.92143E-001,1.21076E+000,-8.34091E-003,0.00000E+000,-1.90367E-003,9.27277E-001,0.00000E+000,-5.96781E-004,-9.74169E-002,1.00000E+000,29
869,1347,1.94875E+000,6.13825E-001,-1.55889E-002,6.13289E+000,-6.76019E-001,-4.95663E-003,6.17003E+000,2.06933E-002,4.75361E-001,0,9.43555E+001,-1.13617E+001,9.96952E-001,5.06549E+001,-4.62964E+001,9.96738E-001,1.89863E-001,-8.02423E-002,-4.38838E-003,1.89935E-001,-8.03136E-002,-9.30550E-001,1.90687E-001,1.20908E+000,-8.39651E-003,0.00000E+000,-1.61638E-003,9.27286E-001,0.00000E+000,-2.27449E-003,-9.74725E-002,1.00000E+000,29
869,1307,1.88602E+000,-1.75280E+000,2.23798E-001,6.12464E+000,-4.71241E-001,2.41945E-001,6.14751E+000,1.62446E-002,4.87148E-001,0,9.33981E+001,-8.59510E+000,9.96732E-001,4.98124E+001,-4.33576E+001,9.95244E-001,1.95370E-001,-8.02556E-002,-4.60422E-003,1.95446E-001,-8.03325E-002,-9.56750E-001,1.96475E-001,1.21577E+000,-8.25843E-003,0.00000E+000,-2.76126E-003,9.27263E-001,0.00000E+000,4.41135E-003,-9.73345E-002,1.00000E+000,29
989,1307,1.13801E+001,-1.58102E+000,1.18414E-001,7.78336E+000,-3.71814E-001,8.12650E-002,7.79266E+000,1.72256E-002,4.57334E-001,0,1.18273E+002,-6.90372E+000,9.97658E-001,7.65752E+001,-3.92836E+001,9.97097E-001,1.82709E-001,-7.60184E-002,2.95275E-004,1.82710E-001,-7.60187E-002,6.53892E-002,1.83566E-001,1.20020E+000,-3.39929E-002,0.00000E+000,2.83206E-002,9.29513E-001,0.00000E+000,-2.12394E-002,-8.18541E-002,1.00000E+000,29
989,1317,1.13531E+001,-9.85444E-001,3.52430E-002,7.74933E+000,-4.17857E-001,3.21900E-002,7.76065E+000,1.77915E-002,5.19222E-001,0,1.17942E+002,-7.55614E+000,9.97998E-001,7.60771E+001,-3.98566E+001,9.97351E-001,1.82334E-001,-7.59946E-002,5.85759E-004,1.82336E-001,-7.59959E-002,1.29917E-001,1.83175E-001,1.19969E+000,-3.39984E-002,0.00000E+000,2.86619E-002,9.29516E-001,0.00000E+000,-1.83844E-002,-8.18231E-002,1.00000E+000,29
989,1327,1.13536E+001,-3.94773E-001,-1.58304E-002,7.73550E+000,-4.72171E-001,-1.73829E-002,7.74992E+000,2.10165E-002,5.20759E-001,0,1.17914E+002,-8.32756E+000,9.97061E-001,7.60671E+001,-4.06015E+001,9.95488E-001,1.81951E-001,-7.59639E-002,8.73960E-004,1.81954E-001,-7.59668E-002,1.94147E-001,1.82777E-001,1.19918E+000,-3.40097E-002,0.00000E+000,2.90035E-002,9.29524E-001,0.00000E+000,-1.55267E-002,-8.17598E-002,1.00000E+000,29
989,1297,1.14008E+001,-2.16614E+000,2.25392E-001,7.80974E+000,-3.16762E-001,1.48579E-001,7.81757E+000,1.58392E-002,4.53133E-001,0,1.18416E+002,-6.16794E+000,9.97392E-001,7.70204E+001,-3.85708E+001,9.96583E-001,1.83075E-001,-7.60407E-002,4.58694E-006,1.83075E-001,-7.60407E-002,1.01426E-003,1.83948E-001,1.20071E+000,-3.39884E-002,0.00000E+000,2.79798E-002,9.29510E-001,0.00000E+000,-2.40902E-002,-8.18794E-002,1.00000E+000,29
989,1337,1.13503E+001,2.00654E-001,-4.36897E-002,7.71292E+000,-5.22363E-001,-6.60149E-002,7.73087E+000,1.67394E-002,4.38867E-001,0,1.17742E+002,-9.03558E+000,9.94974E-001,7.60436E+001,-4.13668E+001,9.94939E-001,1.81560E-001,-7.59284E-002,1.15964E-003,1.81565E-001,-7.59337E-002,2.58034E-001,1.82373E-001,1.19867E+000,-3.40250E-002,0.00000E+000,2.93444E-002,9.29534E-001,0.00000E+000,-1.26745E-002,-8.16744E-002,1.00000E+000,29
989,1347,1.13573E+001,8.12023E-001,-4.53259E-002,7.69717E+000,-5.61271E-001,-1.03688E-001,7.71830E+000,1.81926E-002,4.29862E-001,0,1.17625E+002,-9.59584E+000,9.97320E-001,7.62319E+001,-4.19076E+001,9.97436E-001,1.81158E-001,-7.58895E-002,1.44525E-003,1.81166E-001,-7.58976E-002,3.22132E-001,1.81958E-001,1.19816E+000,-3.40430E-002,0.00000E+000,2.96871E-002,9.29546E-001,0.00000E+000,-9.80737E-003,-8.15736E-002,1.00000E+000,29
859,1327,1.12027E+000,-5.80967E-001,4.06228E-002,5.99145E+000,-5.72358E-001,1.05938E-001,6.01966E+000,1.44806E-002,5.28106E-001,0,9.18904E+001,-9.93156E+000,9.96203E-001,4.77850E+001,-4.49495E+001,9.95909E-001,1.92917E-001,-8.03344E-002,-4.32355E-003,1.92985E-001,-8.04028E-002,-9.06266E-001,1.93877E-001,1.21279E+000,-6.66331E-003,0.00000E+000,-3.19056E-003,9.27099E-001,0.00000E+000,1.78487E-003,-9.63716E-002,1.00000E+000,29
859,1337,1.14237E+000,1.38832E-002,1.11928E-003,5.99705E+000,-6.21801E-001,4.99456E-002,6.02940E+000,1.65383E-002,5.14998E-001,0,9.21598E+001,-1.06095E+001,9.96038E-001,4.81411E+001,-4.56842E+001,9.95539E-001,1.91921E-001,-8.03329E-002,-4.30739E-003,1.91989E-001,-8.04010E-002,-9.06186E-001,1.92832E-001,1.21158E+000,-6.69349E-003,0.00000E+000,-2.96913E-003,9.27105E-001,0.00000E+000,-5.20486E-005,-9.64175E-002,1.00000E+000,29
859,1347,1.16531E+000,6.11948E-001,-8.37703E-003,5.99752E+000,-6.72428E-001,-4.91744E-003,6.03510E+000,2.21099E-002,4.59454E-001,0,9.23412E+001,-1.12853E+001,9.97628E-001,4.85783E+001,-4.64575E+001,9.97332E-001,1.90918E-001,-8.03308E-002,-4.29565E-003,1.90986E-001,-8.03988E-002,-9.07066E-001,1.91780E-001,1.21036E+000,-6.73451E-003,0.00000E+000,-2.74696E-003,9.27112E-001,0.00000E+000,-1.89512E-003,-9.64797E-002,1.00000E+000,29
859,1307,1.09551E+000,-1.74744E+000,2.23593E-001,5.98196E+000,-4.63449E-001,2.35933E-001,6.00452E+000,1.92199E-002,5.93406E-001,0,9.12957E+001,-8.46596E+000,9.97385E-001,4.76101E+001,-4.33233E+001,9.96899E-001,1.94885E-001,-8.03360E-002,-4.36881E-003,1.94954E-001,-8.04053E-002,-9.09199E-001,1.95948E-001,1.21519E+000,-6.63518E-003,0.00000E+000,-3.63117E-003,9.27094E-001,0.00000E+000,5.44008E-003,-9.63289E-002,1.00000E+000,29
859,1317,1.10954E+000,-1.17499E+000,1.12501E-001,5.99164E+000,-5.26458E-001,1.67266E-001,6.01705E+000,1.52747E-002,5.20378E-001,0,9.16872E+001,-9.30379E+000,9.96902E-001,4.76774E+001,-4.42815E+001,9.95295E-001,1.93904E-001,-8.03355E-002,-4.34380E-003,1.93973E-001,-8.04043E-002,-9.07228E-001,1.94916E-001,1.21399E+000,-6.64327E-003,0.00000E+000,-3.41120E-003,9.27095E-001,0.00000E+000,3.61532E-003,-9.63412E-002,1.00000E+000,29
999,1337,1.21322E+001,2.26794E-001,-4.73326E-002,7.83991E+000,-5.00659E-001,-6.89112E-002,7.85618E+000,1.34152E-002,3.82566E-001,0,1.19588E+002,-8.70962E+000,9.98871E-001,7.81754E+001,-4.08790E+001,9.98288E-001,1.81359E-001,-7.58072E-002,9.98789E-004,1.81363E-001,-7.58111E-002,2.22522E-001,1.82174E-001,1.19839E+000,-3.43824E-002,0.00000E+000,2.91359E-002,9.29425E-001,0.00000E+000,-1.04440E-002,-7.86832E-002,1.00000E+000,29
999,1347,1.21449E+001,8.39210E-001,-4.32550E-002,7.82730E+000,-5.41666E-001,-1.10653E-001,7.84680E+000,1.25842E-002,3.91928E-001,0,1.19532E+002,-9.28052E+000,9.98964E-001,7.84594E+001,-4.14047E+001,9.98532E-001,1.81274E-001,-7.57683E-002,1.27814E-003,1.81280E-001,-7.57747E-002,2.84893E-001,1.82091E-001,1.19827E+000,-3.43872E-002,0.00000E+000,2.94686E-002,9.29438E-001,0.00000E+000,-7.73954E-003,-7.85787E-002,1.00000E+000,29
999,1307,1.21644E+001,-1.55138E+000,1.09117E-001,7.91040E+000,-3.49213E-001,6.15837E-002,7.91834E+000,1.13027E-002,4.49929E-001,0,1.20174E+002,-6.52435E+000,9.98286E-001,7.87336E+001,-3.87101E+001,9.98138E-001,1.81569E-001,-7.58902E-002,1.63073E-004,1.81570E-001,-7.58903E-002,3.62907E-002,1.82382E-001,1.19876E+000,-3.43751E-002,0.00000E+000,2.81465E-002,9.29406E-001,0.00000E+000,-1.84866E-002,-7.88420E-002,1.00000E+000,29
999,1317,1.21455E+001,-9.58495E-001,3.23872E-002,7.88414E+000,-3.97571E-001,1.74621E-002,7.89418E+000,1.72223E-002,4.83347E-001,0,1.19945E+002,-7.22298E+000,9.97075E-001,7.83742E+001,-3.93499E+001,9.94799E-001,1.81507E-001,-7.58674E-002,4.42337E-004,1.81507E-001,-7.58681E-002,9.84713E-002,1.82319E-001,1.19864E+000,-3.43765E-002,0.00000E+000,2.84763E-002,9.29410E-001,0.00000E+000,-1.58055E-002,-7.88114E-002,1.00000E+000,29
999,1327,1.21407E+001,-3.74371E-001,-2.28443E-002,7.86647E+000,-4.57123E-001,-2.94479E-002,7.87979E+000,2.04386E-002,5.09469E-001,0,1.19853E+002,-8.10187E+000,9.97587E-001,7.82727E+001,-4.01737E+001,9.95869E-001,1.81437E-001,-7.58396E-002,7.21126E-004,1.81439E-001,-7.58416E-002,1.60594E-001,1.82250E-001,1.19852E+000,-3.43789E-002,0.00000E+000,2.88064E-002,9.29416E-001,0.00000E+000,-1.31228E-002,-7.87581E-002,1.00000E+000,29
999,1297,1.21882E+001,-2.14516E+000,2.18109E-001,7.93955E+000,-3.03028E-001,1.29010E-001,7.94638E+000,1.24305E-002,4.63930E-001,0,1.20359E+002,-5.93215E+000,9.97013E-001,7.92292E+001,-3.81279E+001,9.94817E-001,1.81625E-001,-7.59111E-002,-1.16329E-004,1.81625E-001,-7.59111E-002,-2.58805E-002,1.82438E-001,1.19888E+000,-3.43741E-002,0.00000E+000,2.78170E-002,9.29403E-001,0.00000E+000,-2.11654E-002,-7.88642E-002,1.00000E+000,29
849,1337,3.56229E-001,1.45752E-002,7.25053E-003,5.85819E+000,-6.17815E-001,4.81250E-002,5.89087E+000,1.98721E-002,5.44790E-001,0,9.00955E+001,-1.05174E+001,9.97449E-001,4.60246E+001,-4.57792E+001,9.96751E-001,1.92248E-001,-8.00831E-002,-3.88594E-003,1.92303E-001,-8.01386E-002,-8.17342E-001,1.93190E-001,1.21197E+000,-5.29957E-003,0.00000E+000,-3.24068E-003,9.27203E-001,0.00000E+000,-4.57121E-005,-9.49545E-002,1.00000E+000,29
849,1347,3.74114E-001,6.07872E-001,-9.81132E-003,5.85642E+000,-6.70000E-001,-1.62985E-003,5.89462E+000,1.74914E-002,4.58424E-001,0,9.02279E+001,-1.12303E+001,9.97859E-001,4.63674E+001,-4.66275E+001,9.97623E-001,1.91692E-001,-8.00816E-002,-3.86961E-003,1.91747E-001,-8.01367E-002,-8.15577E-001,1.92606E-001,1.21130E+000,-5.31953E-003,0.00000E+000,-3.03815E-003,9.27209E-001,0.00000E+000,-1.81321E-003,-9.50070E-002,1.00000E+000,29
849,1357,4.06349E-001,1.21710E+000,2.31697E-002,5.85856E+000,-7.15848E-001,-5.20130E-002,5.90236E+000,1.49330E-002,4.79582E-001,0,9.04092E+001,-1.18676E+001,9.97979E-001,4.70470E+001,-4.72876E+001,9.98086E-001,1.91128E-001,-8.00793E-002,-3.85749E-003,1.91183E-001,-8.01342E-002,-8.14721E-001,1.92014E-001,1.21062E+000,-5.35003E-003,0.00000E+000,-2.83381E-003,9.27218E-001,0.00000E+000,-3.59635E-003,-9.50871E-002,1.00000E+000,29
849,1327,3.41684E-001,-5.74054E-001,4.88193E-002,5.85887E+000,-5.62565E-001,1.00596E-001,5.88668E+000,1.95851E-002,5.10879E-001,0,8.99320E+001,-9.72854E+000,9.97684E-001,4.57906E+001,-4.49734E+001,9.97413E-001,1.92800E-001,-8.00843E-002,-3.90417E-003,1.92856E-001,-8.01402E-002,-8.19509E-001,1.93771E-001,1.21265E+000,-5.28407E-003,0.00000E+000,-3.44324E-003,9.27198E-001,0.00000E+000,1.72198E-003,-9.49138E-002,1.00000E+000,29
1009,1337,1.29247E+001,2.66847E-001,-5.22001E-002,7.97860E+000,-4.67396E-001,-6.53773E-002,7.99255E+000,1.90992E-002,4.17213E-001,0,1.21581E+002,-8.21385E+000,9.98729E-001,8.04737E+001,-4.01265E+001,9.98690E-001,1.81121E-001,-7.56099E-002,6.79986E-004,1.81123E-001,-7.56117E-002,1.51754E-001,1.81944E-001,1.19809E+000,-3.43561E-002,0.00000E+000,2.83737E-002,9.29433E-001,0.00000E+000,-8.51334E-003,-7.59774E-002,1.00000E+000,29
1009,1347,1.29295E+001,8.54418E-001,-4.25328E-002,7.95595E+000,-5.32860E-001,-1.10638E-001,7.97454E+000,1.27439E-002,3.90729E-001,0,1.21394E+002,-9.16531E+000,9.99418E-001,8.06417E+001,-4.10663E+001,9.99170E-001,1.81280E-001,-7.55795E-002,8.96564E-004,1.81283E-001,-7.55826E-002,1.99987E-001,1.82115E-001,1.19827E+000,-3.43487E-002,0.00000E+000,2.86077E-002,9.29443E-001,0.00000E+000,-6.20630E-003,-7.58804E-002,1.00000E+000,29
1009,1297,1.29697E+001,-2.12364E+000,2.09842E-001,8.06447E+000,-2.86758E-001,1.15305E-001,8.07039E+000,1.56443E-002,4.01026E-001,0,1.22205E+002,-5.64890E+000,9.95754E-001,8.13486E+001,-3.77125E+001,9.94122E-001,1.80437E-001,-7.56857E-002,-1.75886E-004,1.80437E-001,-7.56858E-002,-3.93465E-002,1.81215E-001,1.19739E+000,-3.43672E-002,0.00000E+000,2.74435E-002,9.29419E-001,0.00000E+000,-1.76839E-002,-7.61222E-002,1.00000E+000,29
1009,1307,1.29509E+001,-1.52645E+000,1.05943E-001,8.04039E+000,-3.28997E-001,5.30202E-002,8.04729E+000,1.54131E-002,4.05383E-001,0,1.22078E+002,-6.21307E+000,9.97494E-001,8.09426E+001,-3.82408E+001,9.97540E-001,1.80615E-001,-7.56700E-002,3.72952E-005,1.80615E-001,-7.56700E-002,8.33780E-003,1.81405E-001,1.19757E+000,-3.43658E-002,0.00000E+000,2.76755E-002,9.29421E-001,0.00000E+000,-1.53969E-002,-7.61032E-002,1.00000E+000,29
1009,1317,1.29366E+001,-9.33591E-001,3.45046E-002,8.01835E+000,-3.77483E-001,1.29643E-002,8.02724E+000,1.61464E-002,4.40774E-001,0,1.21899E+002,-6.92919E+000,9.97733E-001,8.06640E+001,-3.88892E+001,9.97662E-001,1.80789E-001,-7.56528E-002,2.50921E-004,1.80789E-001,-7.56530E-002,5.60623E-002,1.81589E-001,1.19774E+000,-3.43637E-002,0.00000E+000,2.79079E-002,9.29423E-001,0.00000E+000,-1.31062E-002,-7.60759E-002,1.00000E+000,29
849,1317,3.21225E-001,-1.16112E+000,1.19511E-001,5.85059E+000,-5.08656E-001,1.67323E-001,5.87505E+000,1.95460E-002,5.98818E-001,0,8.95810E+001,-9.04062E+000,9.97300E-001,4.55309E+001,-4.41469E+001,9.95997E-001,1.93348E-001,-8.00853E-002,-3.92364E-003,1.93404E-001,-8.01416E-002,-8.21943E-001,1.94347E-001,1.21332E+000,-5.27166E-003,0.00000E+000,-3.64525E-003,9.27194E-001,0.00000E+000,3.48483E-003,-9.48812E-002,1.00000E+000,29
1009,1327,1.29294E+001,-3.39872E-001,-2.58725E-002,7.99655E+000,-4.29390E-001,-4.62731E-002,8.00820E+000,1.55688E-002,4.30348E-001,0,1.21787E+002,-7.63448E+000,9.98751E-001,8.05176E+001,-3.95702E+001,9.98360E-001,1.80958E-001,-7.56309E-002,4.65734E-004,1.80959E-001,-7.56317E-002,1.03997E-001,1.81769E-001,1.19792E+000,-3.43597E-002,0.00000E+000,2.81409E-002,9.29429E-001,0.00000E+000,-1.08090E-002,-7.60242E-002,1.00000E+000,29
849,1307,3.00321E-001,-1.74416E+000,2.19864E-001,5.83403E+000,-4.55486E-001,2.25402E-001,5.85613E+000,2.08610E-002,6.49229E-001,0,8.91240E+001,-8.33569E+000,9.97516E-001,4.53328E+001,-4.33397E+001,9.96547E-001,1.93890E-001,-8.00857E-002,-3.94625E-003,1.93947E-001,-8.01425E-002,-8.25040E-001,1.94919E-001,1.21399E+000,-5.26716E-003,0.00000E+000,-3.84668E-003,9.27193E-001,0.00000E+000,5.24269E-003,-9.48693E-002,1.00000E+000,29
839,1337,-4.34831E-001,2.60832E-003,1.62343E-002,5.71374E+000,-6.24748E-001,4.76412E-002,5.74800E+000,3.75294E-002,5.19087E-001,0,8.79412E+001,-1.05998E+001,9.97887E-001,4.38423E+001,-4.61044E+001,9.96965E-001,1.92262E-001,-8.01783E-002,-3.26171E-003,1.92301E-001,-8.02173E-002,-6.85827E-001,1.93179E-001,1.21199E+000,-4.09646E-003,0.00000E+000,-2.92701E-003,9.26977E-001,0.00000E+000,-7.28641E-004,-9.34085E-002,1.00000E+000,29
839,1347,-4.14969E-001,6.02104E-001,-8.01218E-003,5.71605E+000,-6.69485E-001,2.04984E-004,5.75512E+000,1.52842E-002,4.60996E-001,0,8.81270E+001,-1.12111E+001,9.97971E-001,4.42013E+001,-4.68288E+001,9.97410E-001,1.91953E-001,-8.01763E-002,-3.22956E-003,1.91992E-001,-8.02146E-002,-6.79844E-001,1.92854E-001,1.21162E+000,-4.10637E-003,0.00000E+000,-2.70334E-003,9.26983E-001,0.00000E+000,-2.53278E-003,-9.34567E-002,1.00000E+000,29
839,1357,-3.80473E-001,1.21690E+000,2.17725E-002,5.72158E+000,-7.08786E-001,-4.90570E-002,5.76552E+000,1.27110E-002,4.66962E-001,0,8.83547E+001,-1.17436E+001,9.98388E-001,4.49121E+001,-4.74051E+001,9.98057E-001,1.91639E-001,-8.01730E-002,-3.19985E-003,1.91676E-001,-8.02107E-002,-6.74378E-001,1.92524E-001,1.21125E+000,-4.12269E-003,0.00000E+000,-2.47771E-003,9.26992E-001,0.00000E+000,-4.35272E-003,-9.35360E-002,1.00000E+000,29
1019,1337,1.37225E+001,2.94572E-001,-4.81881E-002,8.11609E+000,-4.49938E-001,-7.95626E-002,8.12894E+000,1.75886E-002,4.91174E-001,0,1.23617E+002,-7.94871E+000,9.98348E-001,8.28742E+001,-3.95641E+001,9.98195E-001,1.80896E-001,-7.54693E-002,3.67646E-004,1.80897E-001,-7.54698E-002,8.21659E-002,1.81722E-001,1.19781E+000,-3.42610E-002,0.00000E+000,2.75893E-002,9.29445E-001,0.00000E+000,-6.70754E-003,-7.39870E-002,1.00000E+000,29
1019,1347,1.37177E+001,8.84705E-001,-4.55986E-002,8.08942E+000,-5.09995E-001,-1.06717E-001,8.10619E+000,1.55608E-002,4.45547E-001,0,1.23308E+002,-8.83816E+000,9.98735E-001,8.28785E+001,-4.04580E+001,9.98734E-001,1.81205E-001,-7.54476E-002,5.49210E-004,1.81207E-001,-7.54488E-002,1.22606E-001,1.82049E-001,1.19818E+000,-3.42488E-002,0.00000E+000,2.77764E-002,9.29451E-001,0.00000E+000,-4.72185E-003,-7.39206E-002,1.00000E+000,29
839,1327,-4.63519E-001,-5.73272E-001,4.57978E-002,5.70465E+000,-5.54389E-001,1.10195E-001,5.73258E+000,3.17798E-002,5.33560E-001,0,8.75949E+001,-9.61270E+000,9.98575E-001,4.33641E+001,-4.50517E+001,9.97754E-001,1.92567E-001,-8.01805E-002,-3.29356E-003,1.92607E-001,-8.02203E-002,-6.91739E-001,1.93500E-001,1.21236E+000,-4.08541E-003,0.00000E+000,-3.15112E-003,9.26970E-001,0.00000E+000,1.07905E-003,-9.33548E-002,1.00000E+000,29
1019,1327,1.37197E+001,-3.15286E-001,-2.90372E-002,8.13151E+000,-4.11061E-001,-4.63556E-002,8.14203E+000,1.69123E-002,4.43518E-001,0,1.23738E+002,-7.36643E+000,9.98033E-001,8.27887E+001,-3.90736E+001,9.97823E-001,1.80583E-001,-7.54890E-002,1.86698E-004,1.80583E-001,-7.54892E-002,4.17733E-002,1.81391E-001,1.19745E+000,-3.42711E-002,0.00000E+000,2.74022E-002,9.29440E-001,0.00000E+000,-8.69271E-003,-7.40426E-002,1.00000E+000,29
1019,1317,1.37258E+001,-9.14681E-001,2.63170E-002,8.14870E+000,-3.65837E-001,-8.24331E-003,8.15692E+000,1.68263E-002,4.48933E-001,0,1.23855E+002,-6.73110E+000,9.98304E-001,8.29095E+001,-3.84741E+001,9.97994E-001,1.80267E-001,-7.55049E-002,7.61959E-006,1.80267E-001,-7.55049E-002,1.70688E-003,1.81056E-001,1.19709E+000,-3.42773E-002,0.00000E+000,2.72156E-002,9.29437E-001,0.00000E+000,-1.06731E-002,-7.40762E-002,1.00000E+000,29
839,1317,-4.70653E-001,-1.15660E+000,1.19661E-001,5.70548E+000,-4.98378E-001,1.59800E-001,5.72943E+000,1.61198E-002,5.19403E-001,0,8.74366E+001,-8.82820E+000,9.97493E-001,4.33188E+001,-4.42217E+001,9.95445E-001,1.92869E-001,-8.01814E-002,-3.32796E-003,1.92909E-001,-8.02220E-002,-6.98187E-001,1.93818E-001,1.21273E+000,-4.08089E-003,0.00000E+000,-3.37435E-003,9.26967E-001,0.00000E+000,2.87957E-003,-9.33328E-002,1.00000E+000,29
1019,1297,1.37499E+001,-2.09670E+000,1.87643E-001,8.18913E+000,-2.64749E-001,9.37376E-002,8.19394E+000,1.56845E-002,4.17957E-001,0,1.24073E+002,-5.29244E+000,9.98516E-001,8.34292E+001,-3.71437E+001,9.97784E-001,1.79624E-001,-7.55334E-002,-3.48591E-004,1.79624E-001,-7.55338E-002,-7.82762E-002,1.80379E-001,1.19637E+000,-3.42863E-002,0.00000E+000,2.68435E-002,9.29432E-001,0.00000E+000,-1.46214E-002,-7.41260E-002,1.00000E+000,29
1019,1307,1.37308E+001,-1.50506E+000,9.04997E-002,8.16384E+000,-3.14824E-001,3.51181E-002,8.16998E+000,1.93290E-002,4.64737E-001,0,1.23918E+002,-5.98149E+000,9.98696E-001,8.30293E+001,-3.77493E+001,9.98190E-001,1.79948E-001,-7.55202E-002,-1.70632E-004,1.79948E-001,-7.55203E-002,-3.82688E-002,1.80720E-001,1.19673E+000,-3.42829E-002,0.00000E+000,2.70298E-002,9.29434E-001,0.00000E+000,-1.26445E-002,-7.41072E-002,1.00000E+000,29
839,1307,-4.79074E-001,-1.73694E+000,2.20984E-001,5.70089E+000,-4.42677E-001,2.16527E-001,5.72214E+000,1.45740E-002,5.06512E-001,0,8.71676E+001,-8.05698E+000,9.96606E-001,4.33173E+001,-4.34030E+001,9.94506E-001,1.93166E-001,-8.01819E-002,-3.36320E-003,1.93207E-001,-8.02233E-002,-7.04811E-001,1.94131E-001,1.21310E+000,-4.07868E-003,0.00000E+000,-3.59696E-003,9.26966E-001,0.00000E+000,4.67514E-003,-9.33221E-002,1.00000E+000,29
829,1337,-1.22226E+000,7.73378E-003,1.35774E-002,5.57575E+000,-6.11752E-001,5.13084E-002,5.60944E+000,2.66742E-002,5.36316E-001,0,8.58653E+001,-1.04133E+001,9.96394E-001,4.16975E+001,-4.61188E+001,9.95390E-001,1.91747E-001,-8.01341E-002,-2.62246E-003,1.91773E-001,-8.01594E-002,-5.52583E-001,1.92630E-001,1.21137E+000,-3.24671E-003,0.00000E+000,-2.31212E-003,9.26881E-001,0.00000E+000,-1.48464E-003,-9.18373E-002,1.00000E+000,29
829,1347,-1.20001E+000,6.03815E-001,7.79043E-004,5.57802E+000,-6.63039E-001,2.78633E-003,5.61729E+000,1.41606E-002,4.87513E-001,0,8.60531E+001,-1.11043E+001,9.96321E-001,4.21203E+001,-4.69179E+001,9.95968E-001,1.91628E-001,-8.01365E-002,-2.66301E-003,1.91654E-001,-8.01626E-002,-5.61368E-001,1.92506E-001,1.21123E+000,-3.25095E-003,0.00000E+000,-2.22651E-003,9.26884E-001,0.00000E+000,-3.35274E-003,-9.18942E-002,1.00000E+000,29
829,1357,-1.17025E+000,1.21522E+000,2.25987E-002,5.58046E+000,-7.04610E-001,-4.74142E-002,5.62497E+000,1.42513E-002,4.96584E-001,0,8.62382E+001,-1.16685E+001,9.97747E-001,4.27413E+001,-4.75299E+001,9.97631E-001,1.91505E-001,-8.01398E-002,-2.70453E-003,1.91532E-001,-8.01667E-002,-5.70370E-001,1.92377E-001,1.21109E+000,-3.25676E-003,0.00000E+000,-2.14050E-003,9.26887E-001,0.00000E+000,-5.22921E-003,-9.19720E-002,1.00000E+000,29
1029,1337,1.44930E+001,3.11169E-001,-5.74768E-002,8.23165E+000,-4.37827E-001,-8.17449E-002,8.24370E+000,1.48564E-002,4.43462E-001,0,1.25284E+002,-7.76175E+000,9.97693E-001,8.48296E+001,-3.92092E+001,9.97043E-001,1.80845E-001,-7.51661E-002,1.57355E-004,1.80845E-001,-7.51662E-002,3.52164E-002,1.81701E-001,1.19775E+000,-3.39706E-002,0.00000E+000,2.68406E-002,9.29635E-001,0.00000E+000,-4.72299E-003,-7.23758E-002,1.00000E+000,29
1029,1347,1.44919E+001,9.19184E-001,-5.40021E-002,8.20761E+000,-4.81809E-001,-1.11831E-001,8.22250E+000,1.42642E-002,4.73492E-001,0,1.25018E+002,-8.41972E+000,9.98233E-001,8.48930E+001,-3.97882E+001,9.97566E-001,1.81282E-001,-7.51445E-002,3.39764E-004,1.81282E-001,-7.51449E-002,7.59166E-002,1.82163E-001,1.19827E+000,-3.39525E-002,0.00000E+000,2.70321E-002,9.29642E-001,0.00000E+000,-2.85030E-003,-7.23103E-002,1.00000E+000,29
1029,1327,1.45025E+001,-2.92133E-001,-2.78258E-002,8.25687E+000,-3.93247E-001,-4.96142E-002,8.26637E+000,1.65760E-002,4.36851E-001,0,1.25549E+002,-7.11958E+000,9.97558E-001,8.49563E+001,-3.86199E+001,9.97091E-001,1.80406E-001,-7.51839E-002,-2.25298E-005,1.80406E-001,-7.51839E-002,-5.05053E-003,1.81238E-001,1.19723E+000,-3.39831E-002,0.00000E+000,2.66495E-002,9.29631E-001,0.00000E+000,-6.59107E-003,-7.24207E-002,1.00000E+000,29
829,1327,-1.24752E+000,-5.73364E-001,4.39568E-002,5.56607E+000,-5.49352E-001,9.57230E-002,5.59394E+000,2.65754E-002,5.60211E-001,0,8.55694E+001,-9.51811E+000,9.97424E-001,4.12721E+001,-4.51415E+001,9.97318E-001,1.91863E-001,-8.01322E-002,-2.58251E-003,1.91887E-001,-8.01567E-002,-5.43942E-001,1.92751E-001,1.21151E+000,-3.24339E-003,0.00000E+000,-2.39744E-003,9.26879E-001,0.00000E+000,3.76948E-004,-9.17928E-002,1.00000E+000,29
829,1307,-1.24911E+000,-1.74431E+000,2.43039E-001,5.57679E+000,-4.45164E-001,2.29088E-001,5.59921E+000,1.74854E-002,4.34906E-001,0,8.52820E+001,-8.08721E+000,9.97253E-001,4.14966E+001,-4.36993E+001,9.94935E-001,1.92082E-001,-8.01306E-002,-2.50468E-003,1.92105E-001,-8.01537E-002,-5.27130E-001,1.92981E-001,1.21178E+000,-3.24075E-003,0.00000E+000,-2.56744E-003,9.26878E-001,0.00000E+000,4.08611E-003,-9.17575E-002,1.00000E+000,29
829,1317,-1.25449E+000,-1.15822E+000,1.23463E-001,5.56835E+000,-4.94719E-001,1.57697E-001,5.59250E+000,2.03592E-002,4.84253E-001,0,8.53959E+001,-8.74243E+000,9.96821E-001,4.12430E+001,-4.43761E+001,9.96504E-001,1.91974E-001,-8.01311E-002,-2.54328E-003,1.91998E-001,-8.01548E-002,-5.35462E-001,1.92868E-001,1.21165E+000,-3.24142E-003,0.00000E+000,-2.48254E-003,9.26878E-001,0.00000E+000,2.23377E-003,-9.17664E-002,1.00000E+000,29
1029,1317,1.45099E+001,-8.96883E-001,1.63799E-002,8.27563E+000,-3.54829E-001,-2.14491E-002,8.28326E+000,1.73538E-002,4.61897E-001,0,1.25730E+002,-6.54849E+000,9.98504E-001,8.50761E+001,-3.80708E+001,9.97364E-001,1.79965E-001,-7.51994E-002,-2.00326E-004,1.79966E-001,-7.51996E-002,-4.49819E-002,1.80773E-001,1.19672E+000,-3.39921E-002,0.00000E+000,2.64594E-002,9.29628E-001,0.00000E+000,-8.44987E-003,-7.24532E-002,1.00000E+000,29
1029,1307,1.45232E+001,-1.48654E+000,1.01867E-001,8.29777E+000,-3.03184E-001,3.68684E-002,8.30338E+000,1.46685E-002,4.91014E-001,0,1.25839E+002,-5.83735E+000,9.98697E-001,8.53643E+001,-3.73747E+001,9.96552E-001,1.79522E-001,-7.52136E-002,-3.77184E-004,1.79522E-001,-7.52141E-002,-8.48370E-002,1.80306E-001,1.19620E+000,-3.39991E-002,0.00000E+000,2.62696E-002,9.29625E-001,0.00000E+000,-1.03059E-002,-7.24784E-002,1.00000E+000,29
1029,1297,1.45385E+001,-2.07277E+000,1.94749E-001,8.31965E+000,-2.47677E-001,9.29721E-002,8.32385E+000,1.40578E-002,4.55252E-001,0,1.25949E+002,-5.05642E+000,9.98118E-001,8.56964E+001,-3.66727E+001,9.96988E-001,1.79073E-001,-7.52265E-002,-5.53806E-004,1.79075E-001,-7.52277E-002,-1.24776E-001,1.79835E-001,1.19569E+000,-3.40044E-002,0.00000E+000,2.60794E-002,9.29623E-001,0.00000E+000,-1.21654E-002,-7.24974E-002,1.00000E+000,29
819,1317,-2.03403E+000,-1.16891E+000,1.33301E-001,5.43436E+000,-5.00916E-001,1.57987E-001,5.45969E+000,1.98805E-002,4.63239E-001,0,8.33951E+001,-8.81860E+000,9.96043E-001,3.92510E+001,-4.46759E+001,9.95188E-001,1.90652E-001,-7.98670E-002,-1.96225E-003,1.90666E-001,-7.98813E-002,-4.15573E-001,1.91499E-001,1.21004E+000,-3.05343E-003,0.00000E+000,-1.46307E-003,9.26959E-001,0.00000E+000,1.40258E-003,-8.98221E-002,1.00000E+000,29
819,1327,-2.03013E+000,-5.84634E-001,5.47012E-002,5.43132E+000,-5.54068E-001,1.07844E-001,5.46057E+000,1.95305E-002,4.93984E-001,0,8.35187E+001,-9.57859E+000,9.97130E-001,3.92350E+001,-4.54772E+001,9.96348E-001,1.90664E-001,-7.98695E-002,-2.06743E-003,1.90680E-001,-7.98853E-002,-4.37823E-001,1.91513E-001,1.21005E+000,-3.05329E-003,0.00000E+000,-1.52143E-003,9.26959E-001,0.00000E+000,-2.72600E-004,-8.98401E-002,1.00000E+000,29
819,1337,-2.00996E+000,9.48408E-003,1.60320E-002,5.43669E+000,-6.03711E-001,5.85456E-002,5.47042E+000,1.68058E-002,5.26248E-001,0,8.37600E+001,-1.02770E+001,9.96455E-001,3.95651E+001,-4.62104E+001,9.96128E-001,1.90673E-001,-7.98745E-002,-2.17316E-003,1.90690E-001,-7.98920E-002,-4.60187E-001,1.91523E-001,1.21007E+000,-3.05299E-003,0.00000E+000,-1.58012E-003,9.26957E-001,0.00000E+000,-1.95686E-003,-8.98784E-002,1.00000E+000,29
819,1307,-2.03925E+000,-1.75114E+000,2.22865E-001,5.43303E+000,-4.49100E-001,2.03939E-001,5.45537E+000,1.87920E-002,4.70190E-001,0,8.32153E+001,-8.06925E+000,9.96848E-001,3.92727E+001,-4.38472E+001,9.95810E-001,1.90637E-001,-7.98655E-002,-1.85743E-003,1.90650E-001,-7.98783E-002,-3.93402E-001,1.91483E-001,1.21003E+000,-3.05351E-003,0.00000E+000,-1.40491E-003,9.26960E-001,0.00000E+000,3.07181E-003,-8.98119E-002,1.00000E+000,29
819,1347,-1.98173E+000,6.12181E-001,2.90091E-003,5.44473E+000,-6.48718E-001,7.81559E-003,5.48325E+000,1.56725E-002,5.15246E-001,0,8.40403E+001,-1.08804E+001,9.97784E-001,4.00816E+001,-4.68890E+001,9.97939E-001,1.90679E-001,-7.98813E-002,-2.27927E-003,1.90698E-001,-7.99005E-002,-4.82628E-001,1.91531E-001,1.21008E+000,-3.05258E-003,0.00000E+000,-1.63898E-003,9.26956E-001,0.00000E+000,-3.64627E-003,-8.99307E-002,1.00000E+000,29
819,1357,-1.95470E+000,1.20677E+000,2.73806E-002,5.44411E+000,-7.07079E-001,-4.25281E-002,5.49000E+000,1.96920E-002,5.06510E-001,0,8.41831E+001,-1.16986E+001,9.97103E-001,4.06659E+001,-4.77773E+001,9.97030E-001,1.90683E-001,-7.98905E-002,-2.38586E-003,1.90704E-001,-7.99115E-002,-5.05170E-001,1.91535E-001,1.21009E+000,-3.05202E-003,0.00000E+000,-1.69807E-003,9.26953E-001,0.00000E+000,-5.34227E-003,-9.00021E-002,1.00000E+000,29
1039,1337,1.52791E+001,3.35934E-001,-6.54254E-002,8.36077E+000,-4.19907E-001,-8.94373E-002,8.37179E+000,1.33934E-002,4.70003E-001,0,1.27168E+002,-7.49155E+000,9.98227E-001,8.70356E+001,-3.86919E+001,9.96994E-001,1.80882E-001,-7.47617E-002,-2.99493E-004,1.80883E-001,-7.47620E-002,-6.71232E-002,1.81786E-001,1.19780E+000,-3.38465E-002,0.00000E+000,2.57666E-002,9.29968E-001,0.00000E+000,-2.77701E-003,-7.13158E-002,1.00000E+000,29
1039,1347,1.52765E+001,9.27933E-001,-6.43534E-002,8.33549E+000,-4.77826E-001,-1.20151E-001,8.35004E+000,1.28873E-002,3.96809E-001,0,1.26893E+002,-8.34326E+000,9.99080E-001,8.70675E+001,-3.95635E+001,9.98323E-001,1.81414E-001,-7.47499E-002,-1.89939E-004,1.81415E-001,-7.47501E-002,-4.24832E-002,1.82348E-001,1.19844E+000,-3.38245E-002,0.00000E+000,2.58282E-002,9.29970E-001,0.00000E+000,-1.06162E-003,-7.12566E-002,1.00000E+000,29
1039,1317,1.52919E+001,-8.64629E-001,1.56501E-002,8.40183E+000,-3.27351E-001,-1.81653E-002,8.40822E+000,1.42825E-002,4.24887E-001,0,1.27524E+002,-6.13838E+000,9.98118E-001,8.72350E+001,-3.74889E+001,9.97019E-001,1.79808E-001,-7.47803E-002,-5.12253E-004,1.79809E-001,-7.47813E-002,-1.15283E-001,1.80655E-001,1.19652E+000,-3.38741E-002,0.00000E+000,2.56435E-002,9.29965E-001,0.00000E+000,-6.20551E-003,-7.13897E-002,1.00000E+000,29
1039,1327,1.52862E+001,-2.69805E-001,-3.28641E-002,8.38388E+000,-3.76060E-001,-5.36990E-002,8.39248E+000,1.27022E-002,4.13784E-001,0,1.27388E+002,-6.86431E+000,9.98288E-001,8.71307E+001,-3.81735E+001,9.97399E-001,1.80345E-001,-7.47716E-002,-4.06934E-004,1.80346E-001,-7.47722E-002,-9.13916E-002,1.81220E-001,1.19716E+000,-3.38622E-002,0.00000E+000,2.57048E-002,9.29966E-001,0.00000E+000,-4.49757E-003,-7.13578E-002,1.00000E+000,29
1039,1307,1.53061E+001,-1.46335E+000,8.25197E-002,8.42531E+000,-2.83970E-001,2.34194E-002,8.43013E+000,1.46457E-002,4.33713E-001,0,1.27720E+002,-5.51288E+000,9.97979E-001,8.75018E+001,-3.69049E+001,9.96963E-001,1.79269E-001,-7.47882E-002,-6.16502E-004,1.79270E-001,-7.47897E-002,-1.39034E-001,1.80088E-001,1.19588E+000,-3.38832E-002,0.00000E+000,2.55822E-002,9.29964E-001,0.00000E+000,-7.91226E-003,-7.14142E-002,1.00000E+000,29
1039,1297,1.53233E+001,-2.05514E+000,1.76667E-001,8.44864E+000,-2.34537E-001,7.83184E-002,8.45226E+000,1.51448E-002,4.08255E-001,0,1.27856E+002,-4.82209E+000,9.96721E-001,8.78654E+001,-3.62886E+001,9.96643E-001,1.78726E-001,-7.47952E-002,-7.19619E-004,1.78728E-001,-7.47973E-002,-1.62632E-001,1.79518E-001,1.19525E+000,-3.38892E-002,0.00000E+000,2.55209E-002,9.29964E-001,0.00000E+000,-9.61965E-003,-7.14303E-002,1.00000E+000,29
1049,1337,1.60742E+001,3.60259E-001,-7.08611E-002,8.49776E+000,-4.00399E-001,-9.75968E-002,8.50775E+000,1.87129E-002,4.32093E-001,0,1.29168E+002,-7.20351E+000,9.99132E-001,8.93905E+001,-3.82180E+001,9.98075E-001,1.80862E-001,-7.46942E-002,-9.41188E-004,1.80865E-001,-7.46977E-002,-2.11011E-001,1.81775E-001,1.19778E+000,-3.36184E-002,0.00000E+000,2.42962E-002,9.29972E-001,0.00000E+000,-1.35896E-003,-6.98379E-002,1.00000E+000,29
1049,1347,1.60808E+001,9.58123E-001,-5.37766E-002,8.47923E+000,-4.56383E-001,-1.21830E-001,8.49238E+000,1.48328E-002,4.42021E-001,0,1.28968E+002,-8.04727E+000,9.98960E-001,8.95921E+001,-3.89900E+001,9.97468E-001,1.81495E-001,-7.46935E-002,-9.15417E-004,1.81498E-001,-7.46968E-002,-2.04727E-001,1.82442E-001,1.19854E+000,-3.35894E-002,0.00000E+000,2.42224E-002,9.29969E-001,0.00000E+000,-6.98432E-005,-6.97889E-002,1.00000E+000,29
1049,1307,1.60977E+001,-1.43627E+000,9.19602E-002,8.55725E+000,-2.62497E-001,2.23085E-002,8.56131E+000,1.81835E-002,3.67248E-001,0,1.29611E+002,-5.18743E+000,9.98280E-001,8.98303E+001,-3.64402E+001,9.97546E-001,1.78962E-001,-7.46957E-002,-1.00023E-003,1.78966E-001,-7.46996E-002,-2.25926E-001,1.79778E-001,1.19551E+000,-3.36601E-002,0.00000E+000,2.45161E-002,9.29976E-001,0.00000E+000,-5.19827E-003,-6.99085E-002,1.00000E+000,29
1049,1317,1.60809E+001,-8.39404E-001,2.71347E-002,8.53079E+000,-3.08578E-001,-1.85154E-002,8.53639E+000,1.57334E-002,4.02071E-001,0,1.29370E+002,-5.87165E+000,9.97608E-001,8.95263E+001,-3.70344E+001,9.96070E-001,1.79596E-001,-7.46952E-002,-9.81568E-004,1.79600E-001,-7.46990E-002,-2.21158E-001,1.80445E-001,1.19626E+000,-3.36488E-002,0.00000E+000,2.44429E-002,9.29975E-001,0.00000E+000,-3.92070E-003,-6.98894E-002,1.00000E+000,29
1049,1327,1.60737E+001,-2.50921E-001,-3.31733E-002,8.51444E+000,-3.63279E-001,-5.22871E-002,8.52235E+000,1.04095E-002,3.94994E-001,0,1.29258E+002,-6.67555E+000,9.98524E-001,8.93776E+001,-3.77883E+001,9.96689E-001,1.80229E-001,-7.46948E-002,-9.63263E-004,1.80233E-001,-7.46984E-002,-2.16496E-001,1.81110E-001,1.19702E+000,-3.36382E-002,0.00000E+000,2.43697E-002,9.29974E-001,0.00000E+000,-2.64228E-003,-6.98715E-002,1.00000E+000,29
809,1347,-2.77851E+000,5.98552E-001,-2.95373E-003,5.29629E+000,-6.54848E-001,6.36413E-003,5.33662E+000,1.28913E-002,4.95412E-001,0,8.18194E+001,-1.09546E+001,9.98726E-001,3.77936E+001,-4.72077E+001,9.98709E-001,1.89580E-001,-7.95613E-002,-1.92147E-003,1.89594E-001,-7.95750E-002,-4.09021E-001,1.90407E-001,1.20875E+000,-3.25849E-003,0.00000E+000,-7.99951E-004,9.27107E-001,0.00000E+000,-3.84846E-003,-8.81566E-002,1.00000E+000,29
809,1357,-2.75178E+000,1.19809E+000,2.82214E-002,5.29488E+000,-7.09122E-001,-4.07961E-002,5.34231E+000,1.59144E-002,4.73525E-001,0,8.19373E+001,-1.17003E+001,9.98116E-001,3.83925E+001,-4.80429E+001,9.97459E-001,1.89732E-001,-7.95800E-002,-2.12889E-003,1.89749E-001,-7.95968E-002,-4.52881E-001,1.90567E-001,1.20894E+000,-3.25023E-003,0.00000E+000,-1.06552E-003,9.27095E-001,0.00000E+000,-5.43391E-003,-8.82248E-002,1.00000E+000,29
809,1327,-2.81728E+000,-5.98955E-001,4.43738E-002,5.29158E+000,-5.64407E-001,9.91701E-002,5.32252E+000,1.27028E-002,5.43392E-001,0,8.14573E+001,-9.69806E+000,9.98469E-001,3.70821E+001,-4.57578E+001,9.97266E-001,1.89273E-001,-7.95381E-002,-1.50811E-003,1.89281E-001,-7.95466E-002,-3.21432E-001,1.90082E-001,1.20837E+000,-3.26851E-003,0.00000E+000,-2.73604E-004,9.27120E-001,0.00000E+000,-7.06140E-004,-8.80740E-002,1.00000E+000,29
809,1337,-2.79633E+000,-3.77665E-003,1.79212E-002,5.29744E+000,-6.11615E-001,5.97368E-002,5.33296E+000,1.10623E-002,5.18406E-001,0,8.16724E+001,-1.03743E+001,9.98477E-001,3.74546E+001,-4.65312E+001,9.98534E-001,1.89428E-001,-7.95485E-002,-1.71469E-003,1.89439E-001,-7.95594E-002,-3.65235E-001,1.90246E-001,1.20856E+000,-3.26407E-003,0.00000E+000,-5.36414E-004,9.27114E-001,0.00000E+000,-2.27513E-003,-8.81106E-002,1.00000E+000,29
809,1307,-2.82745E+000,-1.75165E+000,2.29703E-001,5.29221E+000,-4.44698E-001,2.12716E-001,5.31512E+000,2.29729E-002,5.68219E-001,0,8.10787E+001,-8.04364E+000,9.92899E-001,3.71476E+001,-4.39236E+001,9.92091E-001,1.88957E-001,-7.95297E-002,-1.09445E-003,1.88961E-001,-7.95342E-002,-2.33554E-001,1.89748E-001,1.20799E+000,-3.27170E-003,0.00000E+000,2.49825E-004,9.27125E-001,0.00000E+000,2.41876E-003,-8.80476E-002,1.00000E+000,29
809,1317,-2.81950E+000,-1.17384E+000,1.27207E-001,5.29648E+000,-5.01874E-001,1.54765E-001,5.32245E+000,2.03939E-002,5.56670E-001,0,8.13431E+001,-8.82777E+000,9.97579E-001,3.71359E+001,-4.47967E+001,9.96309E-001,1.89116E-001,-7.95328E-002,-1.30129E-003,1.89122E-001,-7.95391E-002,-2.77522E-001,1.89916E-001,1.20818E+000,-3.27061E-003,0.00000E+000,-1.16479E-005,9.27123E-001,0.00000E+000,8.57753E-004,-8.80567E-002,1.00000E+000,29
1049,1297,1.61059E+001,-2.03891E+000,1.73849E-001,8.57405E+000,-2.23096E-001,7.51875E-002,8.57728E+000,1.57145E-002,3.50451E-001,0,1.29662E+002,-4.63660E+000,9.96961E-001,9.00310E+001,-3.59643E+001,9.95572E-001,1.78327E-001,-7.46962E-002,-1.01841E-003,1.78331E-001,-7.47003E-002,-2.30608E-001,1.79111E-001,1.19475E+000,-3.36700E-002,0.00000E+000,2.45892E-002,9.29977E-001,0.00000E+000,-6.47482E-003,-6.99253E-002,1.00000E+000,29
799,1337,-3.58442E+000,-1.25486E-002,1.05751E-002,5.15697E+000,-6.13808E-001,5.63275E-002,5.19368E+000,1.14272E-002,4.89850E-001,0,7.95765E+001,-1.03709E+001,9.98700E-001,3.53016E+001,-4.67734E+001,9.98591E-001,1.87752E-001,-7.91849E-002,-1.20643E-003,1.87758E-001,-7.91904E-002,-2.58944E-001,1.88522E-001,1.20653E+000,-3.55493E-003,0.00000E+000,6.60558E-004,9.27298E-001,0.00000E+000,-2.57394E-003,-8.62199E-002,1.00000E+000,29
799,1347,-3.56541E+000,5.86727E-001,-3.91546E-003,5.15752E+000,-6.59978E-001,1.11398E-002,5.19959E+000,1.38405E-002,4.88804E-001,0,7.97240E+001,-1.10201E+001,9.98046E-001,3.56747E+001,-4.75017E+001,9.97818E-001,1.87980E-001,-7.92033E-002,-1.50356E-003,1.87988E-001,-7.92118E-002,-3.22415E-001,1.88762E-001,1.20681E+000,-3.54693E-003,0.00000E+000,2.06385E-004,9.27285E-001,0.00000E+000,-3.93520E-003,-8.62587E-002,1.00000E+000,29
799,1357,-3.53332E+000,1.19483E+000,3.07825E-002,5.16153E+000,-7.05366E-001,-3.34054E-002,5.20961E+000,1.45289E-002,4.86840E-001,0,7.99132E+001,-1.16477E+001,9.97397E-001,3.63683E+001,-4.82038E+001,9.96960E-001,1.88207E-001,-7.92305E-002,-1.80126E-003,1.88219E-001,-7.92426E-002,-3.85878E-001,1.89000E-001,1.20710E+000,-3.53478E-003,0.00000E+000,-2.51073E-004,9.27266E-001,0.00000E+000,-5.30630E-003,-8.63177E-002,1.00000E+000,29
799,1327,-3.59666E+000,-6.11340E-001,6.09863E-002,5.15928E+000,-5.69653E-001,1.17476E-001,5.19196E+000,1.98581E-002,5.03857E-001,0,7.94190E+001,-9.80329E+000,9.98876E-001,3.51191E+001,-4.61100E+001,9.97436E-001,1.87523E-001,-7.91701E-002,-9.09186E-004,1.87526E-001,-7.91732E-002,-1.95325E-001,1.88281E-001,1.20625E+000,-3.56123E-003,0.00000E+000,1.11395E-003,9.27308E-001,0.00000E+000,-1.21503E-003,-8.61893E-002,1.00000E+000,29
1059,1327,1.68627E+001,-2.35526E-001,-2.88283E-002,8.64513E+000,-3.54383E-001,-4.97870E-002,8.65254E+000,1.59548E-002,4.08105E-001,0,1.31123E+002,-6.56715E+000,9.98828E-001,9.16583E+001,-3.74514E+001,9.97301E-001,1.80329E-001,-7.49953E-002,-1.29931E-003,1.80336E-001,-7.50019E-002,-2.91560E-001,1.81184E-001,1.19716E+000,-3.28049E-002,0.00000E+000,2.29797E-002,9.29655E-001,0.00000E+000,-9.90623E-004,-6.87322E-002,1.00000E+000,29
1059,1337,1.68663E+001,3.80490E-001,-6.10841E-002,8.63108E+000,-3.87080E-001,-9.12874E-002,8.64023E+000,1.27043E-002,4.32254E-001,0,1.31057E+002,-7.03106E+000,9.99282E-001,9.17292E+001,-3.78226E+001,9.98590E-001,1.81006E-001,-7.50004E-002,-1.32929E-003,1.81013E-001,-7.50073E-002,-2.97491E-001,1.81896E-001,1.19798E+000,-3.27830E-002,0.00000E+000,2.28391E-002,9.29651E-001,0.00000E+000,-2.03592E-004,-6.87110E-002,1.00000E+000,29
1059,1347,1.68748E+001,9.78988E-001,-5.17961E-002,8.61407E+000,-4.41819E-001,-1.24343E-001,8.62629E+000,1.81979E-002,3.94816E-001,0,1.30912E+002,-7.82879E+000,9.99078E-001,9.19454E+001,-3.85895E+001,9.97476E-001,1.81684E-001,-7.50067E-002,-1.35547E-003,1.81691E-001,-7.50138E-002,-3.02542E-001,1.82609E-001,1.19879E+000,-3.27515E-002,0.00000E+000,2.26981E-002,9.29646E-001,0.00000E+000,5.85911E-004,-6.86804E-002,1.00000E+000,29
1059,1297,1.68888E+001,-2.01811E+000,1.59698E-001,8.70131E+000,-2.05404E-001,6.93026E-002,8.70401E+000,1.52235E-002,2.94102E-001,0,1.31503E+002,-4.35782E+000,9.97597E-001,9.21864E+001,-3.55445E+001,9.95032E-001,1.78300E-001,-7.49833E-002,-1.19840E-003,1.78305E-001,-7.49889E-002,-2.71085E-001,1.79054E-001,1.19473E+000,-3.28422E-002,0.00000E+000,2.33998E-002,9.29661E-001,0.00000E+000,-3.34289E-003,-6.87683E-002,1.00000E+000,29
1059,1307,1.68818E+001,-1.41926E+000,8.62170E-002,8.68579E+000,-2.47915E-001,2.47950E-002,8.68937E+000,1.58015E-002,2.85737E-001,0,1.31442E+002,-4.97666E+000,9.98594E-001,9.20209E+001,-3.61078E+001,9.97860E-001,1.78975E-001,-7.49871E-002,-1.23259E-003,1.78981E-001,-7.49930E-002,-2.78074E-001,1.79762E-001,1.19554E+000,-3.28315E-002,0.00000E+000,2.32602E-002,9.29659E-001,0.00000E+000,-2.56130E-003,-6.87580E-002,1.00000E+000,29
1059,1317,1.68645E+001,-8.27131E-001,1.37104E-002,8.65922E+000,-2.99556E-001,-2.13678E-002,8.66442E+000,1.70019E-002,3.73232E-001,0,1.31224E+002,-5.74712E+000,9.98246E-001,9.16940E+001,-3.67306E+001,9.96141E-001,1.79652E-001,-7.49910E-002,-1.26662E-003,1.79658E-001,-7.49973E-002,-2.84986E-001,1.80473E-001,1.19635E+000,-3.28200E-002,0.00000E+000,2.31201E-002,9.29657E-001,0.00000E+000,-1.77702E-003,-6.87468E-002,1.00000E+000,29
799,1307,-3.60353E+000,-1.75878E+000,2.47819E-001,5.16191E+000,-4.46185E-001,2.26634E-001,5.18611E+000,2.94842E-002,5.56914E-001,0,7.90858E+001,-8.09196E+000,9.94956E-001,3.52412E+001,-4.41790E+001,9.94898E-001,1.87061E-001,-7.91582E-002,-3.15066E-004,1.87062E-001,-7.91585E-002,-6.78083E-002,1.87796E-001,1.20570E+000,-3.56537E-003,0.00000E+000,2.01504E-003,9.27315E-001,0.00000E+000,1.48573E-003,-8.61692E-002,1.00000E+000,29
799,1317,-3.60289E+000,-1.18356E+000,1.32921E-001,5.16157E+000,-5.04141E-001,1.69763E-001,5.18891E+000,2.49148E-002,5.65748E-001,0,7.92770E+001,-8.89530E+000,9.97057E-001,3.50856E+001,-4.50587E+001,9.95563E-001,1.87293E-001,-7.91607E-002,-6.12355E-004,1.87294E-001,-7.91621E-002,-1.31674E-001,1.88040E-001,1.20598E+000,-3.56493E-003,0.00000E+000,1.56516E-003,9.27314E-001,0.00000E+000,1.37334E-004,-8.61713E-002,1.00000E+000,29
789,1327,-4.37664E+000,-6.16553E-001,6.15562E-002,5.02663E+000,-5.68069E-001,1.23283E-001,5.06012E+000,1.86103E-002,5.20092E-001,0,7.74111E+001,-9.79000E+000,9.98301E-001,3.31151E+001,-4.62894E+001,9.97325E-001,1.85835E-001,-7.88281E-002,-5.64394E-004,1.85836E-001,-7.88293E-002,-1.22182E-001,1.86547E-001,1.20422E+000,-4.05246E-003,0.00000E+000,2.17355E-003,9.27500E-001,0.00000E+000,-1.66753E-003,-8.46212E-002,1.00000E+000,29
789,1337,-4.36228E+000,-1.34732E-002,1.61645E-002,5.02591E+000,-6.08197E-001,6.38196E-002,5.06298E+000,1.41117E-002,4.96106E-001,0,7.75846E+001,-1.02933E+001,9.97833E-001,3.33436E+001,-4.69043E+001,9.97817E-001,1.86172E-001,-7.88480E-002,-9.39703E-004,1.86175E-001,-7.88514E-002,-2.03155E-001,1.86899E-001,1.20463E+000,-4.04292E-003,0.00000E+000,1.55077E-003,9.27485E-001,0.00000E+000,-2.78935E-003,-8.46474E-002,1.00000E+000,29
789,1347,-4.33870E+000,5.84987E-001,6.20519E-004,5.03074E+000,-6.56213E-001,1.53619E-002,5.07338E+000,1.54287E-002,5.21411E-001,0,7.78076E+001,-1.09631E+001,9.97135E-001,3.37853E+001,-4.76310E+001,9.96669E-001,1.86508E-001,-7.88721E-002,-1.31526E-003,1.86514E-001,-7.88787E-002,-2.83957E-001,1.87252E-001,1.20504E+000,-4.03104E-003,0.00000E+000,9.26054E-004,9.27467E-001,0.00000E+000,-3.91463E-003,-8.46800E-002,1.00000E+000,29
789,1357,-4.31464E+000,1.18882E+000,2.92098E-002,5.02824E+000,-7.04676E-001,-2.87582E-002,5.07746E+000,1.43245E-002,5.16198E-001,0,7.78970E+001,-1.16366E+001,9.96536E-001,3.43424E+001,-4.83900E+001,9.96133E-001,1.86844E-001,-7.89052E-002,-1.69071E-003,1.86854E-001,-7.89160E-002,-3.64498E-001,1.87604E-001,1.20545E+000,-4.01424E-003,0.00000E+000,2.98324E-004,9.27442E-001,0.00000E+000,-5.04535E-003,-8.47262E-002,1.00000E+000,29
1069,1327,1.76513E+001,-2.20558E-001,-3.93394E-002,8.77612E+000,-3.46098E-001,-5.74525E-002,8.78313E+000,1.68906E-002,4.32165E-001,0,1.33029E+002,-6.43869E+000,9.98544E-001,9.39129E+001,-3.70835E+001,9.96705E-001,1.80490E-001,-7.50295E-002,-1.61738E-003,1.80501E-001,-7.50398E-002,-3.62650E-001,1.81353E-001,1.19738E+000,-3.20922E-002,0.00000E+000,2.17631E-002,9.29586E-001,0.00000E+000,5.25313E-005,-6.76888E-002,1.00000E+000,29
1069,1337,1.76480E+001,3.91128E-001,-6.20808E-002,8.75593E+000,-3.81288E-001,-8.57788E-002,8.76465E+000,1.08442E-002,3.97645E-001,0,1.32823E+002,-6.96396E+000,9.98891E-001,9.38911E+001,-3.75711E+001,9.97934E-001,1.81126E-001,-7.50371E-002,-1.67517E-003,1.81137E-001,-7.50481E-002,-3.74661E-001,1.82022E-001,1.19814E+000,-3.20725E-002,0.00000E+000,2.16030E-002,9.29582E-001,0.00000E+000,3.78279E-004,-6.76804E-002,1.00000E+000,29
1069,1347,1.76536E+001,9.94551E-001,-6.27101E-002,8.73768E+000,-4.31019E-001,-1.20989E-001,8.74914E+000,1.13463E-002,4.30909E-001,0,1.32670E+002,-7.70261E+000,9.99050E-001,9.40438E+001,-3.82032E+001,9.98242E-001,1.81766E-001,-7.50464E-002,-1.73006E-003,1.81777E-001,-7.50580E-002,-3.85960E-001,1.82694E-001,1.19891E+000,-3.20447E-002,0.00000E+000,2.14419E-002,9.29576E-001,0.00000E+000,7.06129E-004,-6.76685E-002,1.00000E+000,29
789,1307,-4.37629E+000,-1.76996E+000,2.36864E-001,5.03667E+000,-4.51203E-001,2.22537E-001,5.06173E+000,1.92974E-002,5.28282E-001,0,7.72285E+001,-8.13250E+000,9.97092E-001,3.33209E+001,-4.44440E+001,9.94083E-001,1.85162E-001,-7.88116E-002,1.86152E-004,1.85162E-001,-7.88118E-002,4.04045E-002,1.85844E-001,1.20341E+000,-4.05864E-003,0.00000E+000,3.41035E-003,9.27509E-001,0.00000E+000,5.60293E-004,-8.46043E-002,1.00000E+000,29
789,1317,-4.37809E+000,-1.19749E+000,1.51591E-001,5.03111E+000,-5.12926E-001,1.80877E-001,5.06042E+000,2.10057E-002,5.38314E-001,0,7.72884E+001,-9.03949E+000,9.97075E-001,3.31978E+001,-4.54305E+001,9.93178E-001,1.85499E-001,-7.88187E-002,-1.89076E-004,1.85499E-001,-7.88188E-002,-4.09858E-002,1.86195E-001,1.20381E+000,-4.05624E-003,0.00000E+000,2.79250E-003,9.27506E-001,0.00000E+000,-5.52644E-004,-8.46109E-002,1.00000E+000,29
1069,1297,1.76594E+001,-2.00006E+000,1.39029E-001,8.81764E+000,-1.90667E-001,6.44567E-002,8.81994E+000,1.98046E-002,3.40626E-001,0,1.33176E+002,-4.15750E+000,9.95982E-001,9.41440E+001,-3.51038E+001,9.92673E-001,1.78580E-001,-7.50105E-002,-1.43590E-003,1.78588E-001,-7.50186E-002,-3.24411E-001,1.79347E-001,1.19509E+000,-3.21313E-002,0.00000E+000,2.22431E-002,9.29594E-001,0.00000E+000,-9.24522E-004,-6.77055E-002,1.00000E+000,29
1069,1307,1.76557E+001,-1.40527E+000,5.77280E-002,8.80649E+000,-2.36575E-001,1.70768E-002,8.80968E+000,1.34138E-002,2.97112E-001,0,1.33196E+002,-4.80866E+000,9.98376E-001,9.40158E+001,-3.57282E+001,9.97034E-001,1.79214E-001,-7.50160E-002,-1.49781E-003,1.79223E-001,-7.50248E-002,-3.37545E-001,1.80013E-001,1.19585E+000,-3.21225E-002,0.00000E+000,2.20839E-002,9.29592E-001,0.00000E+000,-6.00441E-004,-6.77017E-002,1.00000E+000,29
1069,1317,1.76554E+001,-8.05565E-001,8.45901E-003,8.79329E+000,-2.83837E-001,-2.04466E-002,8.79790E+000,1.43323E-002,4.18290E-001,0,1.33141E+002,-5.53536E+000,9.98866E-001,9.39928E+001,-3.62628E+001,9.97044E-001,1.79852E-001,-7.50227E-002,-1.55763E-003,1.79862E-001,-7.50323E-002,-3.50136E-001,1.80683E-001,1.19661E+000,-3.21075E-002,0.00000E+000,2.19235E-002,9.29589E-001,0.00000E+000,-2.74013E-004,-6.76953E-002,1.00000E+000,29
779,1327,-5.14792E+000,-6.16632E-001,6.86292E-002,4.90124E+000,-5.63972E-001,1.30728E-001,4.93532E+000,2.64758E-002,5.69004E-001,0,7.55056E+001,-9.72899E+000,9.97968E-001,3.12667E+001,-4.63865E+001,9.96643E-001,1.84078E-001,-7.82510E-002,-5.06187E-004,1.84079E-001,-7.82520E-002,-1.10557E-001,1.84766E-001,1.20210E+000,-4.82603E-003,0.00000E+000,2.89834E-003,9.27944E-001,0.00000E+000,-1.89399E-003,-8.34662E-002,1.00000E+000,29
779,1337,-5.13351E+000,-2.87032E-002,1.80872E-002,4.90107E+000,-6.17925E-001,6.77718E-002,4.94033E+000,1.39441E-002,5.16633E-001,0,7.57018E+001,-1.04386E+001,9.97145E-001,3.14812E+001,-4.72399E+001,9.97155E-001,1.84603E-001,-7.82765E-002,-9.84988E-004,1.84607E-001,-7.82802E-002,-2.14679E-001,1.85315E-001,1.20274E+000,-4.81164E-003,0.00000E+000,2.05777E-003,9.27925E-001,0.00000E+000,-2.78082E-003,-8.34863E-002,1.00000E+000,29
779,1347,-5.11682E+000,5.76212E-001,4.68969E-003,4.89862E+000,-6.58543E-001,1.85224E-002,4.94272E+000,1.72269E-002,5.17374E-001,0,7.58115E+001,-1.09956E+001,9.96155E-001,3.18248E+001,-4.78869E+001,9.95457E-001,1.85128E-001,-7.83085E-002,-1.46353E-003,1.85136E-001,-7.83167E-002,-3.18296E-001,1.85866E-001,1.20337E+000,-4.79277E-003,0.00000E+000,1.21449E-003,9.27900E-001,0.00000E+000,-3.67052E-003,-8.35127E-002,1.00000E+000,29
779,1357,-5.09549E+000,1.18289E+000,2.80079E-002,4.89434E+000,-7.03727E-001,-2.71008E-002,4.94475E+000,1.40518E-002,5.24934E-001,0,7.58773E+001,-1.16150E+001,9.96504E-001,3.23299E+001,-4.85862E+001,9.96286E-001,1.85655E-001,-7.83500E-002,-1.94261E-003,1.85670E-001,-7.83643E-002,-4.21565E-001,1.86420E-001,1.20401E+000,-4.76754E-003,0.00000E+000,3.65807E-004,9.27866E-001,0.00000E+000,-4.56590E-003,-8.35480E-002,1.00000E+000,29
779,1317,-5.14368E+000,-1.19190E+000,1.49800E-001,4.91123E+000,-5.01510E-001,1.78618E-001,4.94000E+000,2.60186E-002,5.23036E-001,0,7.54973E+001,-8.84280E+000,9.98451E-001,3.14174E+001,-4.54506E+001,9.96892E-001,1.83552E-001,-7.82385E-002,-2.46205E-005,1.83552E-001,-7.82385E-002,-5.38848E-003,1.84217E-001,1.20147E+000,-4.83172E-003,0.00000E+000,3.73748E-003,9.27952E-001,0.00000E+000,-1.00867E-003,-8.34582E-002,1.00000E+000,29
1079,1337,1.84351E+001,4.08299E-001,-7.80638E-002,8.88502E+000,-3.70533E-001,-9.80884E-002,8.89328E+000,1.67040E-002,3.85299E-001,0,1.34716E+002,-6.77573E+000,9.98133E-001,9.61170E+001,-3.71736E+001,9.98155E-001,1.81545E-001,-7.52719E-002,-1.97350E-003,1.81560E-001,-7.52871E-002,-4.40252E-001,1.82439E-001,1.19867E+000,-3.13229E-002,0.00000E+000,2.04204E-002,9.29360E-001,0.00000E+000,8.61992E-004,-6.71918E-002,1.00000E+000,29
1079,1347,1.84468E+001,1.01316E+000,-6.74388E-002,8.87252E+000,-4.19006E-001,-1.22440E-001,8.88325E+000,9.41670E-003,4.29785E-001,0,1.34607E+002,-7.52758E+000,9.99270E-001,9.63802E+001,-3.78001E+001,9.99139E-001,1.82133E-001,-7.52865E-002,-2.07416E-003,1.82149E-001,-7.53032E-002,-4.61621E-001,1.83058E-001,1.19937E+000,-3.12971E-002,0.00000E+000,2.02033E-002,9.29352E-001,0.00000E+000,7.61521E-004,-6.71954E-002,1.00000E+000,29
1079,1297,1.84505E+001,-1.97621E+000,1.46688E-001,8.95032E+000,-1.72725E-001,7.19850E-002,8.95228E+000,1.87023E-002,4.15052E-001,0,1.35038E+002,-3.94491E+000,9.97148E-001,9.64750E+001,-3.46168E+001,9.95196E-001,1.79205E-001,-7.52304E-002,-1.55326E-003,1.79214E-001,-7.52398E-002,-3.49758E-001,1.79980E-001,1.19586E+000,-3.13764E-002,0.00000E+000,2.12830E-002,9.29377E-001,0.00000E+000,1.26120E-003,-6.71841E-002,1.00000E+000,29
1079,1307,1.84399E+001,-1.39070E+000,5.14913E-002,8.93354E+000,-2.27931E-001,1.67121E-002,8.93646E+000,1.55675E-002,3.56341E-001,0,1.35011E+002,-4.70490E+000,9.98521E-001,9.62145E+001,-3.53624E+001,9.97161E-001,1.79788E-001,-7.52385E-002,-1.66059E-003,1.79799E-001,-7.52493E-002,-3.73058E-001,1.80593E-001,1.19656E+000,-3.13697E-002,0.00000E+000,2.10684E-002,9.29375E-001,0.00000E+000,1.16186E-003,-6.71851E-002,1.00000E+000,29
1079,1327,1.84381E+001,-2.03662E-001,-4.95100E-002,8.90455E+000,-3.35380E-001,-6.60362E-002,8.91111E+000,1.84112E-002,4.18364E-001,0,1.34896E+002,-6.26259E+000,9.98481E-001,9.61451E+001,-3.67058E+001,9.97877E-001,1.80960E-001,-7.52601E-002,-1.87017E-003,1.80974E-001,-7.52738E-002,-4.18177E-001,1.81824E-001,1.19797E+000,-3.13406E-002,0.00000E+000,2.06362E-002,9.29366E-001,0.00000E+000,9.61845E-004,-6.71892E-002,1.00000E+000,29
1079,1317,1.84352E+001,-7.88230E-001,-1.10145E-002,8.91598E+000,-2.72800E-001,-3.33200E-002,8.92022E+000,1.48470E-002,4.25774E-001,0,1.34938E+002,-5.33822E+000,9.98521E-001,9.61007E+001,-3.58502E+001,9.97521E-001,1.80375E-001,-7.52490E-002,-1.76578E-003,1.80387E-001,-7.52612E-002,-3.95759E-001,1.81209E-001,1.19726E+000,-3.13560E-002,0.00000E+000,2.08522E-002,9.29371E-001,0.00000E+000,1.06180E-003,-6.71870E-002,1.00000E+000,29
779,1307,-5.15511E+000,-1.78574E+000,2.42283E-001,4.90329E+000,-4.62591E-001,2.26468E-001,4.93027E+000,1.80539E-002,5.24720E-001,0,7.52180E+001,-8.29222E+000,9.98143E-001,3.13510E+001,-4.48027E+001,9.95784E-001,1.83028E-001,-7.82291E-002,4.54707E-004,1.83029E-001,-7.82299E-002,9.97202E-002,1.83671E-001,1.20084E+000,-4.83518E-003,0.00000E+000,4.57110E-003,9.27956E-001,0.00000E+000,-1.29170E-004,-8.34534E-002,1.00000E+000,29
1089,1337,1.92220E+001,4.30014E-001,-8.41177E-002,9.01346E+000,-3.55865E-001,-1.00237E-001,9.02104E+000,1.48122E-002,4.53865E-001,0,1.36555E+002,-6.58001E+000,9.97700E-001,9.83606E+001,-3.66874E+001,9.97450E-001,1.82463E-001,-7.55934E-002,-2.11124E-003,1.82480E-001,-7.56107E-002,-4.68712E-001,1.83370E-001,1.19980E+000,-3.02778E-002,0.00000E+000,1.92983E-002,9.29057E-001,0.00000E+000,1.35239E-003,-6.67335E-002,1.00000E+000,29
1089,1347,1.92313E+001,1.03341E+000,-7.54862E-002,8.99860E+000,-4.04973E-001,-1.26143E-001,9.00859E+000,1.06677E-002,4.23177E-001,0,1.36417E+002,-7.31642E+000,9.98833E-001,9.85828E+001,-3.73684E+001,9.98163E-001,1.83138E-001,-7.56127E-002,-2.25016E-003,1.83158E-001,-7.56322E-002,-4.98208E-001,1.84081E-001,1.20061E+000,-3.02481E-002,0.00000E+000,1.90207E-002,9.29047E-001,0.00000E+000,9.92354E-004,-6.67467E-002,1.00000E+000,29
769,1347,-5.89392E+000,5.66514E-001,7.41042E-003,4.76786E+000,-6.61933E-001,2.43613E-002,4.81366E+000,1.43249E-002,5.24237E-001,0,7.38264E+001,-1.10453E+001,9.96517E-001,2.98818E+001,-4.81486E+001,9.96177E-001,1.83300E-001,-7.77192E-002,-1.48455E-003,1.83309E-001,-7.77277E-002,-3.25857E-001,1.84013E-001,1.20117E+000,-5.38934E-003,0.00000E+000,1.61592E-003,9.28362E-001,0.00000E+000,-3.38327E-003,-8.24055E-002,1.00000E+000,29
769,1357,-5.86963E+000,1.17667E+000,2.84905E-002,4.76710E+000,-7.03240E-001,-2.17288E-002,4.81874E+000,1.38798E-002,5.37921E-001,0,7.39461E+001,-1.16053E+001,9.97403E-001,3.04296E+001,-4.87879E+001,9.97132E-001,1.83717E-001,-7.77588E-002,-1.94845E-003,1.83731E-001,-7.77733E-002,-4.26923E-001,1.84450E-001,1.20168E+000,-5.36987E-003,0.00000E+000,7.95730E-004,9.28330E-001,0.00000E+000,-4.23528E-003,-8.24383E-002,1.00000E+000,29
769,1327,-5.92058E+000,-6.25588E-001,8.09839E-002,4.77175E+000,-5.67950E-001,1.31199E-001,4.80722E+000,1.92674E-002,5.55056E-001,0,7.35564E+001,-9.78610E+000,9.97685E-001,2.94144E+001,-4.66635E+001,9.95782E-001,1.82470E-001,-7.76675E-002,-5.57915E-004,1.82471E-001,-7.76687E-002,-1.22881E-001,1.83142E-001,1.20017E+000,-5.41311E-003,0.00000E+000,3.24356E-003,9.28400E-001,0.00000E+000,-1.69249E-003,-8.23654E-002,1.00000E+000,29
769,1337,-5.91158E+000,-4.30875E-002,2.05574E-002,4.76872E+000,-6.26580E-001,7.10223E-002,4.81023E+000,1.28974E-002,5.18634E-001,0,7.37023E+001,-1.05621E+001,9.97251E-001,2.95204E+001,-4.75739E+001,9.96911E-001,1.82885E-001,-7.76888E-002,-1.02170E-003,1.82889E-001,-7.76928E-002,-2.24650E-001,1.83577E-001,1.20067E+000,-5.40375E-003,0.00000E+000,2.43072E-003,9.28385E-001,0.00000E+000,-2.53686E-003,-8.23812E-002,1.00000E+000,29
1089,1327,1.92217E+001,-1.76225E-001,-6.96850E-002,9.03148E+000,-3.11406E-001,-7.57798E-002,9.03716E+000,1.62824E-002,4.07796E-001,0,1.36740E+002,-5.90439E+000,9.97727E-001,9.83168E+001,-3.61416E+001,9.96787E-001,1.81787E-001,-7.55769E-002,-1.96938E-003,1.81802E-001,-7.55920E-002,-4.38401E-001,1.82659E-001,1.19899E+000,-3.03004E-002,0.00000E+000,1.95757E-002,9.29065E-001,0.00000E+000,1.71233E-003,-6.67234E-002,1.00000E+000,29
1089,1317,1.92257E+001,-7.78238E-001,-1.87963E-002,9.04848E+000,-2.67695E-001,-3.68847E-002,9.05252E+000,1.49548E-002,4.31552E-001,0,1.36846E+002,-5.28026E+000,9.98551E-001,9.84002E+001,-3.55764E+001,9.97993E-001,1.81113E-001,-7.55630E-002,-1.82562E-003,1.81126E-001,-7.55760E-002,-4.07492E-001,1.81951E-001,1.19818E+000,-3.03164E-002,0.00000E+000,1.98517E-002,9.29071E-001,0.00000E+000,2.07035E-003,-6.67163E-002,1.00000E+000,29
1089,1297,1.92412E+001,-1.95332E+000,1.46860E-001,9.08219E+000,-1.56441E-001,7.28434E-002,9.08383E+000,1.34263E-002,4.47843E-001,0,1.36911E+002,-3.71092E+000,9.98640E-001,9.87898E+001,-3.41501E+001,9.98118E-001,1.79768E-001,-7.55389E-002,-1.53490E-003,1.79777E-001,-7.55481E-002,-3.44444E-001,1.80538E-001,1.19657E+000,-3.03390E-002,0.00000E+000,2.04025E-002,9.29078E-001,0.00000E+000,2.78473E-003,-6.67063E-002,1.00000E+000,29
1089,1307,1.92314E+001,-1.37112E+000,4.72178E-002,9.06581E+000,-2.15498E-001,1.17876E-002,9.06838E+000,1.29474E-002,4.13053E-001,0,1.36915E+002,-4.52847E+000,9.98937E-001,9.85345E+001,-3.49237E+001,9.98603E-001,1.80440E-001,-7.55497E-002,-1.68129E-003,1.80451E-001,-7.55608E-002,-3.76286E-001,1.81243E-001,1.19737E+000,-3.03308E-002,0.00000E+000,2.01276E-002,9.29075E-001,0.00000E+000,2.42820E-003,-6.67099E-002,1.00000E+000,29
769,1317,-5.92907E+000,-1.20186E+000,1.52221E-001,4.77129E+000,-5.08402E-001,1.81633E-001,4.80173E+000,2.18365E-002,5.20413E-001,0,7.33833E+001,-8.90151E+000,9.98656E-001,2.93449E+001,-4.57159E+001,9.97898E-001,1.82056E-001,-7.76518E-002,-9.57057E-005,1.82056E-001,-7.76518E-002,-2.11143E-002,1.82710E-001,1.19967E+000,-5.41937E-003,0.00000E+000,4.05143E-003,9.28410E-001,0.00000E+000,-8.53284E-004,-8.23549E-002,1.00000E+000,29
1099,1327,2.00041E+001,-1.59159E-001,-7.54752E-002,9.15664E+000,-2.99641E-001,-7.14876E-002,9.16182E+000,1.82017E-002,4.30823E-001,0,1.38503E+002,-5.75383E+000,9.95548E-001,1.00497E+002,-3.57533E+001,9.93180E-001,1.82729E-001,-7.58158E-002,-2.11809E-003,1.82747E-001,-7.58332E-002,-4.69344E-001,1.83626E-001,1.20014E+000,-2.94334E-002,0.00000E+000,1.85755E-002,9.28863E-001,0.00000E+000,2.14176E-003,-6.67143E-002,1.00000E+000,29
1099,1337,2.00126E+001,4.51014E-001,-8.53925E-002,9.14509E+000,-3.40604E-001,-9.83673E-002,9.15195E+000,1.77323E-002,4.37888E-001,0,1.38422E+002,-6.36495E+000,9.96116E-001,1.00676E+002,-3.62648E+001,9.95618E-001,1.83565E-001,-7.58328E-002,-2.25428E-003,1.83585E-001,-7.58524E-002,-4.97874E-001,1.84505E-001,1.20115E+000,-2.94028E-002,0.00000E+000,1.83028E-002,9.28855E-001,0.00000E+000,1.72288E-003,-6.67271E-002,1.00000E+000,29
1099,1347,2.00243E+001,1.06039E+000,-7.14886E-002,9.13037E+000,-3.85567E-001,-1.27369E-001,9.13940E+000,1.38632E-002,4.47019E-001,0,1.38295E+002,-7.04551E+000,9.97593E-001,1.00942E+002,-3.68432E+001,9.97011E-001,1.84402E-001,-7.58528E-002,-2.38691E-003,1.84424E-001,-7.58747E-002,-5.25425E-001,1.85386E-001,1.20215E+000,-2.93626E-002,0.00000E+000,1.80295E-002,9.28844E-001,0.00000E+000,1.30303E-003,-6.67438E-002,1.00000E+000,29
759,1347,-6.66396E+000,5.62495E-001,5.82596E-003,4.64385E+000,-6.59918E-001,2.65046E-002,4.69058E+000,1.27988E-002,5.16819E-001,0,7.19524E+001,-1.09911E+001,9.96543E-001,2.80430E+001,-4.83198E+001,9.96163E-001,1.81510E-001,-7.71863E-002,-1.40438E-003,1.81517E-001,-7.71939E-002,-3.11029E-001,1.82192E-001,1.19902E+000,-5.72650E-003,0.00000E+000,2.00591E-003,9.28770E-001,0.00000E+000,-3.04645E-003,-8.12710E-002,1.00000E+000,29
759,1357,-6.64393E+000,1.16793E+000,2.72372E-002,4.63935E+000,-7.05371E-001,-1.77036E-002,4.69270E+000,1.39612E-002,5.35540E-001,0,7.20095E+001,-1.16235E+001,9.96943E-001,2.85275E+001,-4.90325E+001,9.96432E-001,1.81702E-001,-7.72158E-002,-1.75587E-003,1.81714E-001,-7.72277E-002,-3.88532E-001,1.82394E-001,1.19925E+000,-5.71764E-003,0.00000E+000,1.40759E-003,9.28747E-001,0.00000E+000,-3.94505E-003,-8.13049E-002,1.00000E+000,29
1099,1297,2.00249E+001,-1.94187E+000,1.26475E-001,9.20842E+000,-1.50098E-001,6.04602E-002,9.20984E+000,1.26957E-002,4.72641E-001,0,1.38754E+002,-3.60497E+000,9.97877E-001,1.00966E+002,-3.38221E+001,9.96701E-001,1.80233E-001,-7.57789E-002,-1.69420E-003,1.80244E-001,-7.57901E-002,-3.79143E-001,1.81002E-001,1.19715E+000,-2.94808E-002,0.00000E+000,1.93878E-002,9.28876E-001,0.00000E+000,3.38978E-003,-6.66945E-002,1.00000E+000,29
1099,1307,2.00193E+001,-1.35055E+000,3.93846E-002,9.19618E+000,-2.00660E-001,1.20661E-002,9.19837E+000,1.44942E-002,4.34153E-001,0,1.38768E+002,-4.31153E+000,9.98448E-001,1.00798E+002,-3.44805E+001,9.97762E-001,1.81064E-001,-7.57895E-002,-1.83755E-003,1.81077E-001,-7.58026E-002,-4.09870E-001,1.81875E-001,1.19815E+000,-2.94707E-002,0.00000E+000,1.91176E-002,9.28873E-001,0.00000E+000,2.97455E-003,-6.66987E-002,1.00000E+000,29
1099,1317,2.00104E+001,-7.57204E-001,-3.18960E-002,9.17679E+000,-2.51394E-001,-3.66267E-002,9.18031E+000,1.88793E-002,4.44780E-001,0,1.38671E+002,-5.04444E+000,9.97268E-001,1.00605E+002,-3.51169E+001,9.95813E-001,1.81896E-001,-7.58019E-002,-1.97872E-003,1.81912E-001,-7.58170E-002,-4.39907E-001,1.82750E-001,1.19914E+000,-2.94546E-002,0.00000E+000,1.88468E-002,9.28869E-001,0.00000E+000,2.55858E-003,-6.67054E-002,1.00000E+000,29
759,1327,-6.69931E+000,-6.37520E-001,7.67950E-002,4.63798E+000,-5.73945E-001,1.26486E-001,4.67507E+000,1.54435E-002,5.22800E-001,0,7.15569E+001,-9.84345E+000,9.97542E-001,2.74328E+001,-4.69609E+001,9.97784E-001,1.81125E-001,-7.71483E-002,-7.03482E-004,1.81127E-001,-7.71502E-002,-1.56060E-001,1.81788E-001,1.19855E+000,-5.73716E-003,0.00000E+000,3.19429E-003,9.28797E-001,0.00000E+000,-1.26162E-003,-8.12303E-002,1.00000E+000,29
759,1337,-6.68210E+000,-3.72311E-002,2.80251E-002,4.64298E+000,-6.15050E-001,7.64694E-002,4.68416E+000,1.28939E-002,5.36368E-001,0,7.17882E+001,-1.03907E+001,9.96627E-001,2.76975E+001,-4.75983E+001,9.96541E-001,1.81318E-001,-7.71646E-002,-1.05391E-003,1.81322E-001,-7.71689E-002,-2.33607E-001,1.81990E-001,1.19879E+000,-5.73274E-003,0.00000E+000,2.60075E-003,9.28786E-001,0.00000E+000,-2.15305E-003,-8.12472E-002,1.00000E+000,29
759,1317,-6.70279E+000,-1.21925E+000,1.54282E-001,4.64153E+000,-5.20238E-001,1.78366E-001,4.67400E+000,1.98993E-002,5.37258E-001,0,7.14434E+001,-9.08686E+000,9.98010E-001,2.74547E+001,-4.60838E+001,9.97664E-001,1.80932E-001,-7.71374E-002,-3.54569E-004,1.80933E-001,-7.71379E-002,-7.87200E-002,1.81586E-001,1.19832E+000,-5.73971E-003,0.00000E+000,3.78398E-003,9.28804E-001,0.00000E+000,-3.75957E-004,-8.12205E-002,1.00000E+000,29
749,1317,-7.46621E+000,-1.22255E+000,1.72979E-001,4.52046E+000,-5.20279E-001,1.85474E-001,4.55408E+000,1.51905E-002,5.71596E-001,0,6.95980E+001,-9.09945E+000,9.98014E-001,2.57727E+001,-4.62601E+001,9.96807E-001,1.79795E-001,-7.67217E-002,-5.33567E-004,1.79797E-001,-7.67228E-002,-1.19177E-001,1.80439E-001,1.19696E+000,-5.57735E-003,0.00000E+000,3.32189E-003,9.29132E-001,0.00000E+000,-2.63150E-004,-8.04241E-002,1.00000E+000,29
749,1327,-7.46289E+000,-6.38732E-001,7.57928E-002,4.51835E+000,-5.71131E-001,1.22011E-001,4.55593E+000,1.24229E-002,5.16659E-001,0,6.97685E+001,-9.75610E+000,9.97169E-001,2.56989E+001,-4.70852E+001,9.96951E-001,1.79791E-001,-7.67283E-002,-7.92983E-004,1.79793E-001,-7.67307E-002,-1.77118E-001,1.80435E-001,1.19695E+000,-5.57739E-003,0.00000E+000,2.89202E-003,9.29129E-001,0.00000E+000,-1.01588E-003,-8.04305E-002,1.00000E+000,29
749,1337,-7.45341E+000,-4.09339E-002,2.79919E-002,4.51595E+000,-6.13689E-001,7.40137E-002,4.55806E+000,1.23886E-002,5.70248E-001,0,6.98789E+001,-1.03597E+001,9.97107E-001,2.58470E+001,-4.77459E+001,9.97063E-001,1.79785E-001,-7.67400E-002,-1.05381E-003,1.79789E-001,-7.67443E-002,-2.35368E-001,1.80430E-001,1.19695E+000,-5.57749E-003,0.00000E+000,2.45985E-003,9.29121E-001,0.00000E+000,-1.77263E-003,-8.04444E-002,1.00000E+000,29
749,1347,-7.43901E+000,5.56381E-001,5.25990E-003,4.51395E+000,-6.59762E-001,2.72000E-002,4.56199E+000,1.32591E-002,5.19008E-001,0,6.99892E+001,-1.09761E+001,9.97463E-001,2.61345E+001,-4.85216E+001,9.97353E-001,1.79779E-001,-7.67553E-002,-1.31526E-003,1.79786E-001,-7.67621E-002,-2.93747E-001,1.80424E-001,1.19694E+000,-5.57762E-003,0.00000E+000,2.02672E-003,9.29110E-001,0.00000E+000,-2.53106E-003,-8.04637E-002,1.00000E+000,29
1109,1297,2.08133E+001,-1.92529E+000,1.19961E-001,9.34058E+000,-1.36441E-001,6.88230E-002,9.34183E+000,1.35403E-002,4.86887E-001,0,1.40600E+002,-3.44507E+000,9.96863E-001,1.03243E+002,-3.34487E+001,9.94985E-001,1.80890E-001,-7.63112E-002,-1.74713E-003,1.80902E-001,-7.63231E-002,-3.89177E-001,1.81636E-001,1.19798E+000,-2.80244E-002,0.00000E+000,1.81045E-002,9.28413E-001,0.00000E+000,3.94732E-003,-6.67911E-002,1.00000E+000,29
1109,1307,2.08045E+001,-1.33278E+000,2.91464E-002,9.32515E+000,-1.85732E-001,1.69065E-002,9.32702E+000,1.51469E-002,4.18584E-001,0,1.40582E+002,-4.11430E+000,9.97482E-001,1.03020E+002,-3.40941E+001,9.96949E-001,1.81798E-001,-7.63189E-002,-1.85188E-003,1.81811E-001,-7.63322E-002,-4.11046E-001,1.82588E-001,1.19906E+000,-2.80133E-002,0.00000E+000,1.79156E-002,9.28412E-001,0.00000E+000,3.36570E-003,-6.67970E-002,1.00000E+000,29
1109,1317,2.07967E+001,-7.38267E-001,-3.83940E-002,9.30699E+000,-2.35637E-001,-2.73135E-002,9.31002E+000,1.74480E-002,4.13189E-001,0,1.40487E+002,-4.83353E+000,9.96522E-001,1.02851E+002,-3.47267E+001,9.95370E-001,1.82706E-001,-7.63280E-002,-1.95434E-003,1.82721E-001,-7.63427E-002,-4.32247E-001,1.83542E-001,1.20015E+000,-2.79959E-002,0.00000E+000,1.77261E-002,9.28408E-001,0.00000E+000,2.78257E-003,-6.68064E-002,1.00000E+000,29
749,1357,-7.41529E+000,1.16067E+000,3.14281E-002,4.51365E+000,-7.05562E-001,-1.07462E-002,4.56848E+000,1.63132E-002,5.27796E-001,0,7.00919E+001,-1.16287E+001,9.97325E-001,2.66898E+001,-4.92687E+001,9.97075E-001,1.79772E-001,-7.67767E-002,-1.57839E-003,1.79782E-001,-7.67864E-002,-3.52488E-001,1.80417E-001,1.19694E+000,-5.57782E-003,0.00000E+000,1.59088E-003,9.29094E-001,0.00000E+000,-3.29423E-003,-8.04919E-002,1.00000E+000,29
1109,1327,2.07912E+001,-1.42277E-001,-8.40537E-002,9.28625E+000,-2.87041E-001,-6.94082E-002,9.29095E+000,1.58036E-002,4.04834E-001,0,1.40339E+002,-5.57690E+000,9.95461E-001,1.02751E+002,-3.53858E+001,9.93802E-001,1.83616E-001,-7.63388E-002,-2.05383E-003,1.83632E-001,-7.63550E-002,-4.52641E-001,1.84498E-001,1.20124E+000,-2.79705E-002,0.00000E+000,1.75361E-002,9.28404E-001,0.00000E+000,2.19784E-003,-6.68200E-002,1.00000E+000,29
1109,1337,2.07951E+001,4.68010E-001,-9.78551E-002,9.26953E+000,-3.28509E-001,-1.01430E-001,9.27590E+000,1.66601E-002,4.48873E-001,0,1.40201E+002,-6.19938E+000,9.97191E-001,1.02849E+002,-3.58673E+001,9.96854E-001,1.84529E-001,-7.63516E-002,-2.15023E-003,1.84546E-001,-7.63693E-002,-4.72201E-001,1.85458E-001,1.20234E+000,-2.79363E-002,0.00000E+000,1.73453E-002,9.28398E-001,0.00000E+000,1.61037E-003,-6.68383E-002,1.00000E+000,29
1109,1347,2.08135E+001,1.07702E+000,-6.74906E-002,9.25798E+000,-3.76373E-001,-1.27883E-001,9.26651E+000,1.57523E-002,4.65332E-001,0,1.40108E+002,-6.93061E+000,9.97709E-001,1.03244E+002,-3.64817E+001,9.96531E-001,1.85444E-001,-7.63678E-002,-2.24074E-003,1.85463E-001,-7.63869E-002,-4.90324E-001,1.86421E-001,1.20344E+000,-2.78866E-002,0.00000E+000,1.71536E-002,9.28389E-001,0.00000E+000,1.02040E-003,-6.68649E-002,1.00000E+000,29
739,1337,-8.22173E+000,-5.46482E-002,2.85844E-002,4.39166E+000,-6.21643E-001,7.29344E-002,4.43604E+000,1.41405E-002,5.45266E-001,0,6.80080E+001,-1.04571E+001,9.97101E-001,2.40475E+001,-4.80783E+001,9.96494E-001,1.78136E-001,-7.60607E-002,-1.19179E-003,1.78141E-001,-7.60663E-002,-2.68620E-001,1.78773E-001,1.19498E+000,-5.55466E-003,0.00000E+000,2.18008E-003,9.29736E-001,0.00000E+000,-1.60405E-003,-8.02119E-002,1.00000E+000,29
739,1347,-8.21270E+000,5.46935E-001,8.70616E-003,4.38473E+000,-6.63125E-001,3.05569E-002,4.43470E+000,1.03928E-002,5.30161E-001,0,6.80265E+001,-1.10270E+001,9.98595E-001,2.42615E+001,-4.87792E+001,9.98429E-001,1.77889E-001,-7.60764E-002,-1.47094E-003,1.77898E-001,-7.60849E-002,-3.31836E-001,1.78517E-001,1.19468E+000,-5.56187E-003,0.00000E+000,1.72492E-003,9.29725E-001,0.00000E+000,-2.42936E-003,-8.02322E-002,1.00000E+000,29
739,1357,-8.18904E+000,1.15437E+000,3.00983E-002,4.38496E+000,-7.05127E-001,-1.02061E-002,4.44130E+000,1.19559E-002,5.18440E-001,0,6.81445E+001,-1.16057E+001,9.97825E-001,2.48068E+001,-4.94793E+001,9.97920E-001,1.77641E-001,-7.60984E-002,-1.75312E-003,1.77653E-001,-7.61105E-002,-3.95840E-001,1.78258E-001,1.19439E+000,-5.57245E-003,0.00000E+000,1.26716E-003,9.29708E-001,0.00000E+000,-3.25941E-003,-8.02621E-002,1.00000E+000,29
739,1327,-8.23320E+000,-6.47467E-001,7.38043E-002,4.39193E+000,-5.74081E-001,1.18168E-001,4.43086E+000,1.33666E-002,4.85185E-001,0,6.78723E+001,-9.77036E+000,9.98431E-001,2.38629E+001,-4.73369E+001,9.98117E-001,1.78381E-001,-7.60486E-002,-9.13944E-004,1.78384E-001,-7.60518E-002,-2.05810E-001,1.79028E-001,1.19527E+000,-5.54935E-003,0.00000E+000,2.63441E-003,9.29744E-001,0.00000E+000,-7.80222E-004,-8.01969E-002,1.00000E+000,29
1119,1297,2.15973E+001,-1.90987E+000,1.09313E-001,9.46798E+000,-1.24150E-001,7.33320E-002,9.46908E+000,1.45751E-002,4.35720E-001,0,1.42388E+002,-3.26190E+000,9.98205E-001,1.05450E+002,-3.31180E+001,9.97458E-001,1.81816E-001,-7.62259E-002,-1.95074E-003,1.81831E-001,-7.62406E-002,-4.33111E-001,1.82619E-001,1.19912E+000,-2.67523E-002,0.00000E+000,1.67249E-002,9.28545E-001,0.00000E+000,3.89566E-003,-6.71884E-002,1.00000E+000,29
1119,1307,2.15911E+001,-1.31787E+000,2.98518E-002,9.45379E+000,-1.75067E-001,2.71240E-002,9.45545E+000,1.33014E-002,4.16726E-001,0,1.42365E+002,-3.99192E+000,9.98070E-001,1.05287E+002,-3.37689E+001,9.98008E-001,1.82661E-001,-7.62297E-002,-1.99408E-003,1.82677E-001,-7.62450E-002,-4.41280E-001,1.83506E-001,1.20013E+000,-2.67397E-002,0.00000E+000,1.66593E-002,9.28544E-001,0.00000E+000,3.20090E-003,-6.71970E-002,1.00000E+000,29
1119,1317,2.15896E+001,-7.21971E-001,-3.50389E-002,9.44104E+000,-2.23831E-001,-1.75833E-002,9.44371E+000,1.40270E-002,3.96129E-001,0,1.42353E+002,-4.69305E+000,9.97295E-001,1.05219E+002,-3.43909E+001,9.97393E-001,1.83506E-001,-7.62340E-002,-2.03551E-003,1.83522E-001,-7.62500E-002,-4.48973E-001,1.84394E-001,1.20114E+000,-2.67223E-002,0.00000E+000,1.65937E-002,9.28543E-001,0.00000E+000,2.50508E-003,-6.72090E-002,1.00000E+000,29
1119,1327,2.15859E+001,-1.23550E-001,-7.79940E-002,9.42123E+000,-2.73244E-001,-6.00410E-002,9.42539E+000,1.31962E-002,3.77392E-001,0,1.42220E+002,-5.40440E+000,9.97042E-001,1.05151E+002,-3.50216E+001,9.97079E-001,1.84353E-001,-7.62392E-002,-2.07406E-003,1.84369E-001,-7.62557E-002,-4.55981E-001,1.85284E-001,1.20215E+000,-2.66974E-002,0.00000E+000,1.65278E-002,9.28541E-001,0.00000E+000,1.80711E-003,-6.72261E-002,1.00000E+000,29
1119,1337,2.15888E+001,4.79819E-001,-9.62509E-002,9.40276E+000,-3.22561E-001,-9.90879E-002,9.40881E+000,1.19681E-002,4.36364E-001,0,1.42086E+002,-6.13479E+000,9.98418E-001,1.05225E+002,-3.55918E+001,9.97806E-001,1.85202E-001,-7.62453E-002,-2.10961E-003,1.85219E-001,-7.62624E-002,-4.62277E-001,1.86179E-001,1.20318E+000,-2.66644E-002,0.00000E+000,1.64616E-002,9.28539E-001,0.00000E+000,1.10528E-003,-6.72488E-002,1.00000E+000,29
1119,1347,2.16033E+001,1.08776E+000,-6.92690E-002,9.38775E+000,-3.70824E-001,-1.26013E-001,9.39592E+000,1.72904E-002,4.24289E-001,0,1.41945E+002,-6.86442E+000,9.98312E-001,1.05550E+002,-3.62285E+001,9.97361E-001,1.86053E-001,-7.62529E-002,-2.14023E-003,1.86070E-001,-7.62703E-002,-4.67453E-001,1.87074E-001,1.20420E+000,-2.66191E-002,0.00000E+000,1.63952E-002,9.28536E-001,0.00000E+000,4.01770E-004,-6.72800E-002,1.00000E+000,29
739,1317,-8.23239E+000,-1.22664E+000,1.71082E-001,4.39781E+000,-5.19320E-001,1.80219E-001,4.43203E+000,1.65199E-002,5.38550E-001,0,6.77646E+001,-9.04495E+000,9.98143E-001,2.40021E+001,-4.64387E+001,9.97393E-001,1.78624E-001,-7.60420E-002,-6.39109E-004,1.78625E-001,-7.60436E-002,-1.43788E-001,1.79281E-001,1.19556E+000,-5.54705E-003,0.00000E+000,3.08587E-003,9.29748E-001,0.00000E+000,3.83870E-005,-8.01904E-002,1.00000E+000,29
1129,1297,2.23794E+001,-1.88603E+000,1.07362E-001,9.59189E+000,-1.03997E-001,8.17309E-002,9.59280E+000,1.47263E-002,4.18978E-001,0,1.44099E+002,-2.98507E+000,9.98910E-001,1.07646E+002,-3.26582E+001,9.97964E-001,1.82532E-001,-7.63337E-002,-2.23791E-003,1.82551E-001,-7.63530E-002,-4.95276E-001,1.83363E-001,1.20000E+000,-2.56283E-002,0.00000E+000,1.53318E-002,9.28495E-001,0.00000E+000,3.42402E-003,-6.75783E-002,1.00000E+000,29
1129,1307,2.23737E+001,-1.30493E+000,1.95762E-002,9.57789E+000,-1.65949E-001,2.64893E-002,9.57936E+000,2.06176E-002,3.69176E-001,0,1.44121E+002,-3.85336E+000,9.98650E-001,1.07476E+002,-3.34741E+001,9.95851E-001,1.83427E-001,-7.63329E-002,-2.21169E-003,1.83446E-001,-7.63517E-002,-4.87791E-001,1.84302E-001,1.20107E+000,-2.56146E-002,0.00000E+000,1.54022E-002,9.28496E-001,0.00000E+000,2.62657E-003,-6.75885E-002,1.00000E+000,29
1129,1317,2.23772E+001,-7.11533E-001,-4.23473E-002,9.56966E+000,-2.17639E-001,-1.68263E-002,9.57215E+000,1.21809E-002,3.59434E-001,0,1.44173E+002,-4.60943E+000,9.98618E-001,1.07491E+002,-3.41336E+001,9.96712E-001,1.84322E-001,-7.63320E-002,-2.18319E-003,1.84340E-001,-7.63503E-002,-4.79855E-001,1.85243E-001,1.20214E+000,-2.55953E-002,0.00000E+000,1.54726E-002,9.28497E-001,0.00000E+000,1.82761E-003,-6.76029E-002,1.00000E+000,29
729,1347,-8.96991E+000,5.32158E-001,2.03259E-002,4.27043E+000,-6.73239E-001,3.59599E-002,4.32332E+000,9.55560E-003,5.55264E-001,0,6.62866E+001,-1.11893E+001,9.99137E-001,2.26667E+001,-4.91273E+001,9.98876E-001,1.75980E-001,-7.54803E-002,-1.30088E-003,1.75987E-001,-7.54870E-002,-2.96397E-001,1.76578E-001,1.19241E+000,-4.88088E-003,0.00000E+000,1.53009E-003,9.30205E-001,0.00000E+000,-2.51721E-003,-7.92279E-002,1.00000E+000,29
729,1357,-8.95423E+000,1.14671E+000,3.19869E-002,4.26402E+000,-7.07183E-001,-8.43115E-003,4.32228E+000,1.15465E-002,5.48635E-001,0,6.63109E+001,-1.16327E+001,9.98228E-001,2.30680E+001,-4.96972E+001,9.98399E-001,1.75432E-001,-7.54962E-002,-1.52529E-003,1.75441E-001,-7.55055E-002,-3.48262E-001,1.76007E-001,1.19176E+000,-4.90292E-003,0.00000E+000,1.20783E-003,9.30194E-001,0.00000E+000,-3.59523E-003,-7.92645E-002,1.00000E+000,29
1129,1327,2.23793E+001,-1.08631E-001,-7.88786E-002,9.55612E+000,-2.61926E-001,-5.06490E-002,9.55984E+000,1.48687E-002,3.68323E-001,0,1.44099E+002,-5.28449E+000,9.98135E-001,1.07523E+002,-3.46926E+001,9.97836E-001,1.85217E-001,-7.63309E-002,-2.15210E-003,1.85235E-001,-7.63486E-002,-4.71407E-001,1.86185E-001,1.20322E+000,-2.55697E-002,0.00000E+000,1.55432E-002,9.28499E-001,0.00000E+000,1.02719E-003,-6.76220E-002,1.00000E+000,29
729,1337,-8.98964E+000,-6.05517E-002,3.89024E-002,4.26769E+000,-6.21595E-001,8.32862E-002,4.31353E+000,1.26909E-002,5.34302E-001,0,6.61024E+001,-1.04618E+001,9.97935E-001,2.22860E+001,-4.83046E+001,9.97269E-001,1.76525E-001,-7.54677E-002,-1.07940E-003,1.76530E-001,-7.54723E-002,-2.45418E-001,1.77147E-001,1.19306E+000,-4.86392E-003,0.00000E+000,1.85121E-003,9.30213E-001,0.00000E+000,-1.44302E-003,-7.91998E-002,1.00000E+000,29
729,1327,-8.99944E+000,-6.51395E-001,8.35079E-002,4.26864E+000,-5.74008E-001,1.23306E-001,4.30882E+000,1.30504E-002,5.13261E-001,0,6.59933E+001,-9.76649E+000,9.97854E-001,2.21254E+001,-4.75096E+001,9.97275E-001,1.77066E-001,-7.54592E-002,-8.61777E-004,1.77069E-001,-7.54621E-002,-1.95527E-001,1.77711E-001,1.19370E+000,-4.85318E-003,0.00000E+000,2.17049E-003,9.30218E-001,0.00000E+000,-3.74946E-004,-7.91820E-002,1.00000E+000,29
1129,1337,2.23925E+001,4.95996E-001,-8.42551E-002,9.54189E+000,-3.14928E-001,-1.00350E-001,9.54761E+000,1.60510E-002,4.49413E-001,0,1.44065E+002,-6.04058E+000,9.97936E-001,1.07775E+002,-3.52578E+001,9.97894E-001,1.86121E-001,-7.63294E-002,-2.11304E-003,1.86138E-001,-7.63464E-002,-4.61261E-001,1.87137E-001,1.20430E+000,-2.55250E-002,0.00000E+000,1.56147E-002,9.28502E-001,0.00000E+000,2.17231E-004,-6.76552E-002,1.00000E+000,29
729,1317,-9.00237E+000,-1.23471E+000,1.64968E-001,4.27215E+000,-5.21867E-001,1.77129E-001,4.30755E+000,1.46268E-002,5.41347E-001,0,6.58771E+001,-9.06138E+000,9.97838E-001,2.21663E+001,-4.66527E+001,9.97000E-001,1.77604E-001,-7.54534E-002,-6.46431E-004,1.77605E-001,-7.54551E-002,-1.46360E-001,1.78273E-001,1.19434E+000,-4.84671E-003,0.00000E+000,2.48907E-003,9.30222E-001,0.00000E+000,6.90764E-004,-7.91712E-002,1.00000E+000,29
1129,1347,2.23987E+001,1.10845E+000,-7.31193E-002,9.52127E+000,-3.57383E-001,-1.31519E-001,9.52889E+000,1.92140E-002,4.59638E-001,0,1.43859E+002,-6.68017E+000,9.97553E-001,1.07944E+002,-3.57778E+001,9.96637E-001,1.87020E-001,-7.63280E-002,-2.07455E-003,1.87036E-001,-7.63443E-002,-4.51315E-001,1.88085E-001,1.20539E+000,-2.54813E-002,0.00000E+000,1.56858E-002,9.28505E-001,0.00000E+000,-5.89510E-004,-6.76878E-002,1.00000E+000,29
719,1347,-9.74135E+000,5.33233E-001,1.94105E-002,4.14295E+000,-6.66026E-001,3.65397E-002,4.19631E+000,1.48142E-002,5.70072E-001,0,6.43508E+001,-1.10691E+001,9.98107E-001,2.08302E+001,-4.92116E+001,9.98014E-001,1.74503E-001,-7.51079E-002,-1.16911E-003,1.74508E-001,-7.51134E-002,-2.68351E-001,1.75071E-001,1.19065E+000,-3.95603E-003,0.00000E+000,1.04470E-003,9.30437E-001,0.00000E+000,-2.27553E-003,-7.76490E-002,1.00000E+000,29
719,1357,-9.72775E+000,1.13615E+000,3.09973E-002,4.13480E+000,-7.11897E-001,-7.08864E-003,4.19565E+000,1.30295E-002,5.56318E-001,0,6.43489E+001,-1.16861E+001,9.98102E-001,2.11990E+001,-4.99660E+001,9.98237E-001,1.73686E-001,-7.51168E-002,-1.30736E-003,1.73693E-001,-7.51236E-002,-3.01056E-001,1.74220E-001,1.18968E+000,-3.98830E-003,0.00000E+000,8.99653E-004,9.30432E-001,0.00000E+000,-3.47652E-003,-7.76891E-002,1.00000E+000,29
719,1337,-9.75823E+000,-6.23056E-002,3.70081E-002,4.14211E+000,-6.18421E-001,7.86298E-002,4.18876E+000,1.65332E-002,5.62388E-001,0,6.42130E+001,-1.03945E+001,9.96506E-001,2.04889E+001,-4.84213E+001,9.95772E-001,1.75313E-001,-7.51011E-002,-1.03516E-003,1.75317E-001,-7.51054E-002,-2.36842E-001,1.75916E-001,1.19161E+000,-3.93222E-003,0.00000E+000,1.18893E-003,9.30440E-001,0.00000E+000,-1.08121E-003,-7.76195E-002,1.00000E+000,29
719,1327,-9.76477E+000,-6.51594E-001,9.21296E-002,4.14589E+000,-5.69821E-001,1.27510E-001,4.18681E+000,1.19137E-002,5.47455E-001,0,6.41216E+001,-9.70538E+000,9.96582E-001,2.04053E+001,-4.76197E+001,9.95942E-001,1.76117E-001,-7.50966E-002,-9.05380E-004,1.76121E-001,-7.50998E-002,-2.06492E-001,1.76755E-001,1.19257E+000,-3.91686E-003,0.00000E+000,1.33245E-003,9.30443E-001,0.00000E+000,1.07165E-004,-7.76005E-002,1.00000E+000,29
719,1317,-9.76946E+000,-1.23727E+000,1.76850E-001,4.14651E+000,-5.20587E-001,1.78820E-001,4.18289E+000,1.55083E-002,5.35890E-001,0,6.39696E+001,-9.02749E+000,9.96429E-001,2.04280E+001,-4.68240E+001,9.95652E-001,1.76918E-001,-7.50939E-002,-7.78937E-004,1.76920E-001,-7.50963E-002,-1.77092E-001,1.77592E-001,1.19353E+000,-3.90891E-003,0.00000E+000,1.47571E-003,9.30444E-001,0.00000E+000,1.29339E-003,-7.75906E-002,1.00000E+000,29
1139,1297,2.31834E+001,-1.87765E+000,1.05690E-001,9.73580E+000,-9.89690E-002,8.45698E-002,9.73667E+000,9.81715E-003,3.65417E-001,0,1.46132E+002,-2.93109E+000,9.99370E-001,1.10186E+002,-3.24550E+001,9.98545E-001,1.83165E-001,-7.65408E-002,-2.44404E-003,1.83188E-001,-7.65638E-002,-5.39135E-001,1.84008E-001,1.20078E+000,-2.44625E-002,0.00000E+000,1.40904E-002,9.28358E-001,0.00000E+000,2.46604E-003,-6.81047E-002,1.00000E+000,29
1139,1307,2.31739E+001,-1.29782E+000,6.84676E-003,9.71913E+000,-1.62247E-001,2.30099E-002,9.72051E+000,1.33635E-002,3.15174E-001,0,1.46143E+002,-3.79875E+000,9.98981E-001,1.09942E+002,-3.32659E+001,9.97885E-001,1.84167E-001,-7.65383E-002,-2.38741E-003,1.84189E-001,-7.65602E-002,-5.24627E-001,1.85061E-001,1.20198E+000,-2.44491E-002,0.00000E+000,1.42196E-002,9.28359E-001,0.00000E+000,1.62924E-003,-6.81140E-002,1.00000E+000,29
1139,1337,2.31847E+001,5.20077E-001,-8.30462E-002,9.67292E+000,-2.96776E-001,-9.71321E-002,9.67796E+000,1.64238E-002,4.65886E-001,0,1.45902E+002,-5.80183E+000,9.97321E-001,1.10135E+002,-3.47774E+001,9.96423E-001,1.87187E-001,-7.65262E-002,-2.19040E-003,1.87205E-001,-7.65444E-002,-4.75855E-001,1.88239E-001,1.20561E+000,-2.43445E-002,0.00000E+000,1.46101E-002,9.28370E-001,0.00000E+000,-9.00729E-004,-6.81869E-002,1.00000E+000,29
1139,1347,2.32041E+001,1.12620E+000,-5.82636E-002,9.66117E+000,-3.48717E-001,-1.31133E-001,9.66835E+000,1.71057E-002,4.77059E-001,0,1.45839E+002,-6.57544E+000,9.97053E-001,1.10528E+002,-3.54223E+001,9.95564E-001,1.88197E-001,-7.65206E-002,-2.11558E-003,1.88214E-001,-7.65375E-002,-4.57861E-001,1.89304E-001,1.20683E+000,-2.42876E-002,0.00000E+000,1.47412E-002,9.28377E-001,0.00000E+000,-1.74989E-003,-6.82265E-002,1.00000E+000,29
1139,1327,2.31773E+001,-9.38400E-002,-8.66690E-002,9.69287E+000,-2.54600E-001,-5.72746E-002,9.69638E+000,1.61945E-002,4.19787E-001,0,1.46064E+002,-5.18256E+000,9.97765E-001,1.09961E+002,-3.43197E+001,9.96135E-001,1.86177E-001,-7.65313E-002,-2.26244E-003,1.86197E-001,-7.65508E-002,-4.93381E-001,1.87175E-001,1.20439E+000,-2.43945E-002,0.00000E+000,1.44793E-002,9.28365E-001,0.00000E+000,-5.30043E-005,-6.81521E-002,1.00000E+000,29
1139,1317,2.31639E+001,-7.02198E-001,-6.41867E-002,9.69837E+000,-2.12027E-001,-2.49621E-002,9.70072E+000,1.46623E-002,3.59122E-001,0,1.46028E+002,-4.52956E+000,9.99037E-001,1.09731E+002,-3.38439E+001,9.97271E-001,1.85170E-001,-7.65353E-002,-2.32809E-003,1.85191E-001,-7.65560E-002,-5.09639E-001,1.86115E-001,1.20318E+000,-2.44292E-002,0.00000E+000,1.43491E-002,9.28361E-001,0.00000E+000,7.90494E-004,-6.81278E-002,1.00000E+000,29
709,1347,-1.05176E+001,5.32652E-001,1.35072E-002,4.01036E+000,-6.60382E-001,3.24916E-002,4.06450E+000,1.39545E-002,5.44745E-001,0,6.23473E+001,-1.09427E+001,9.97723E-001,1.89127E+001,-4.93314E+001,9.97716E-001,1.73098E-001,-7.39552E-002,-1.32344E-003,1.73105E-001,-7.39622E-002,-3.06917E-001,1.73715E-001,1.18898E+000,-3.12719E-003,0.00000E+000,9.75536E-005,9.31436E-001,0.00000E+000,-2.04871E-003,-7.66027E-002,1.00000E+000,29
709,1357,-1.04997E+001,1.13655E+000,2.63627E-002,4.00724E+000,-7.03715E-001,-6.83031E-003,4.06857E+000,1.33006E-002,5.31481E-001,0,6.24095E+001,-1.15442E+001,9.98160E-001,1.93521E+001,-5.00745E+001,9.98319E-001,1.72149E-001,-7.39681E-002,-1.53074E-003,1.72159E-001,-7.39776E-002,-3.56335E-001,1.72725E-001,1.18786E+000,-3.16331E-003,0.00000E+000,-1.77392E-004,9.31427E-001,0.00000E+000,-3.22197E-003,-7.66404E-002,1.00000E+000,29
709,1337,-1.05215E+001,-6.95130E-002,4.51236E-002,4.02085E+000,-6.20732E-001,8.05961E-002,4.06928E+000,1.29170E-002,5.40733E-001,0,6.23693E+001,-1.04103E+001,9.97421E-001,1.88043E+001,-4.86680E+001,9.97007E-001,1.74040E-001,-7.39460E-002,-1.12184E-003,1.74046E-001,-7.39511E-002,-2.59187E-001,1.74699E-001,1.19010E+000,-3.10234E-003,0.00000E+000,3.71207E-004,9.31442E-001,0.00000E+000,-8.80976E-004,-7.65768E-002,1.00000E+000,29
709,1317,-1.05308E+001,-1.23855E+000,1.95269E-001,4.02539E+000,-5.18973E-001,1.82537E-001,4.06281E+000,1.61739E-002,5.49163E-001,0,6.21226E+001,-8.99840E+000,9.97692E-001,1.88006E+001,-4.69795E+001,9.97559E-001,1.75907E-001,-7.39364E-002,-7.31676E-004,1.75909E-001,-7.39385E-002,-1.67791E-001,1.76652E-001,1.19233E+000,-3.07828E-003,0.00000E+000,9.15353E-004,9.31448E-001,0.00000E+000,1.44102E-003,-7.65516E-002,1.00000E+000,29
709,1327,-1.05240E+001,-6.54060E-001,1.10155E-001,4.02649E+000,-5.69000E-001,1.28091E-001,4.06851E+000,1.80427E-002,5.79339E-001,0,6.23091E+001,-9.70029E+000,9.97765E-001,1.88090E+001,-4.77853E+001,9.97125E-001,1.74976E-001,-7.39405E-002,-9.25745E-004,1.74979E-001,-7.39440E-002,-2.13085E-001,1.75677E-001,1.19121E+000,-3.08825E-003,0.00000E+000,6.43468E-004,9.31446E-001,0.00000E+000,2.80824E-004,-7.65621E-002,1.00000E+000,29
1149,1297,2.39745E+001,-1.86923E+000,9.49213E-002,9.86834E+000,-9.52866E-002,8.62596E-002,9.86917E+000,2.36987E-002,3.87544E-001,0,1.47999E+002,-2.89323E+000,9.98288E-001,1.12517E+002,-3.21956E+001,9.95347E-001,1.83704E-001,-7.66977E-002,-2.63611E-003,1.83731E-001,-7.67244E-002,-5.79939E-001,1.84561E-001,1.20144E+000,-2.33626E-002,0.00000E+000,1.29544E-002,9.28285E-001,0.00000E+000,1.12825E-003,-6.89575E-002,1.00000E+000,29
1149,1307,2.39790E+001,-1.27189E+000,1.19323E-002,9.86430E+000,-1.41050E-001,3.55428E-002,9.86538E+000,1.54279E-002,3.76788E-001,0,1.48148E+002,-3.55159E+000,9.98657E-001,1.12515E+002,-3.27455E+001,9.96992E-001,1.84820E-001,-7.66957E-002,-2.58675E-003,1.84846E-001,-7.67213E-002,-5.66659E-001,1.85733E-001,1.20278E+000,-2.33450E-002,0.00000E+000,1.30622E-002,9.28287E-001,0.00000E+000,3.54012E-004,-6.89676E-002,1.00000E+000,29
1149,1317,2.39732E+001,-6.77684E-001,-5.20164E-002,9.84554E+000,-1.93981E-001,-1.39867E-002,9.84746E+000,1.43076E-002,4.01029E-001,0,1.48068E+002,-4.31471E+000,9.98491E-001,1.12382E+002,-3.33689E+001,9.96543E-001,1.85940E-001,-7.66932E-002,-2.53351E-003,1.85964E-001,-7.67176E-002,-5.52640E-001,1.86910E-001,1.20413E+000,-2.33183E-002,0.00000E+000,1.31704E-002,9.28289E-001,0.00000E+000,-4.23867E-004,-6.89831E-002,1.00000E+000,29
1149,1327,2.39715E+001,-7.25442E-002,-9.33078E-002,9.82644E+000,-2.36881E-001,-5.86286E-002,9.82947E+000,1.47696E-002,3.75258E-001,0,1.47954E+002,-4.93578E+000,9.98168E-001,1.12346E+002,-3.38971E+001,9.96252E-001,1.87057E-001,-7.66903E-002,-2.47671E-003,1.87080E-001,-7.67136E-002,-5.37971E-001,1.88086E-001,1.20548E+000,-2.32826E-002,0.00000E+000,1.32787E-002,9.28292E-001,0.00000E+000,-1.20165E-003,-6.90037E-002,1.00000E+000,29
1149,1337,2.39836E+001,5.29489E-001,-9.25166E-002,9.81269E+000,-2.92287E-001,-9.46132E-002,9.81750E+000,2.18618E-002,4.64284E-001,0,1.47878E+002,-5.75702E+000,9.98010E-001,1.12588E+002,-3.45091E+001,9.97190E-001,1.88185E-001,-7.66865E-002,-2.41247E-003,1.88207E-001,-7.67085E-002,-5.21797E-001,1.89276E-001,1.20684E+000,-2.32297E-002,0.00000E+000,1.33882E-002,9.28296E-001,0.00000E+000,-1.98847E-003,-6.90342E-002,1.00000E+000,29
1149,1347,2.40102E+001,1.13835E+000,-5.71497E-002,9.80411E+000,-3.44626E-001,-1.33133E-001,9.81107E+000,2.07509E-002,4.65337E-001,0,1.47876E+002,-6.51227E+000,9.98126E-001,1.13106E+002,-3.51376E+001,9.97026E-001,1.89314E-001,-7.66818E-002,-2.34060E-003,1.89334E-001,-7.67024E-002,-5.04117E-001,1.90467E-001,1.20821E+000,-2.31580E-002,0.00000E+000,1.34980E-002,9.28302E-001,0.00000E+000,-2.77734E-003,-6.90757E-002,1.00000E+000,29
699,1347,-1.12729E+001,5.27453E-001,2.57505E-002,3.89679E+000,-6.61816E-001,3.88506E-002,3.95278E+000,1.42780E-002,5.67354E-001,0,6.06060E+001,-1.09566E+001,9.98415E-001,1.73670E+001,-4.95352E+001,9.98288E-001,1.71569E-001,-7.29478E-002,-1.17412E-003,1.71574E-001,-7.29534E-002,-2.75115E-001,1.72213E-001,1.18717E+000,-1.69276E-003,0.00000E+000,-7.51483E-004,9.32298E-001,0.00000E+000,-1.87918E-003,-7.55273E-002,1.00000E+000,29
699,1357,-1.12578E+001,1.12348E+000,3.50949E-002,3.89139E+000,-7.12533E-001,-2.24606E-003,3.95609E+000,1.41068E-002,5.54850E-001,0,6.06398E+001,-1.16695E+001,9.98241E-001,1.77546E+001,-5.03936E+001,9.98105E-001,1.70561E-001,-7.29573E-002,-1.33947E-003,1.70568E-001,-7.29647E-002,-3.15141E-001,1.71161E-001,1.18598E+000,-1.73011E-003,0.00000E+000,-9.59026E-004,9.32292E-001,0.00000E+000,-2.90959E-003,-7.55596E-002,1.00000E+000,29
699,1337,-1.12878E+001,-7.94278E-002,4.81029E-002,3.89635E+000,-6.25722E-001,7.87137E-002,3.94705E+000,1.07118E-002,5.31802E-001,0,6.04848E+001,-1.04632E+001,9.98357E-001,1.70636E+001,-4.89394E+001,9.98219E-001,1.72572E-001,-7.29409E-002,-1.01375E-003,1.72576E-001,-7.29451E-002,-2.36576E-001,1.73262E-001,1.18836E+000,-1.66629E-003,0.00000E+000,-5.44449E-004,9.32303E-001,0.00000E+000,-8.51308E-004,-7.55044E-002,1.00000E+000,29
699,1317,-1.12991E+001,-1.23998E+000,2.08608E-001,3.89658E+000,-5.18568E-001,1.78965E-001,3.93501E+000,1.56541E-002,6.09444E-001,0,6.01756E+001,-8.98366E+000,9.98384E-001,1.70598E+001,-4.71042E+001,9.97950E-001,1.74553E-001,-7.29352E-002,-7.09154E-004,1.74555E-001,-7.29372E-002,-1.64174E-001,1.75339E-001,1.19071E+000,-1.64510E-003,0.00000E+000,-1.34218E-004,9.32307E-001,0.00000E+000,1.18540E-003,-7.54861E-002,1.00000E+000,29
699,1327,-1.12936E+001,-6.56495E-001,1.11399E-001,3.89799E+000,-5.69602E-001,1.21549E-001,3.94127E+000,1.23199E-002,6.86846E-001,0,6.03758E+001,-9.69487E+000,9.98360E-001,1.70138E+001,-4.78783E+001,9.97180E-001,1.73561E-001,-7.29373E-002,-8.60447E-004,1.73564E-001,-7.29403E-002,-1.99998E-001,1.74299E-001,1.18953E+000,-1.65258E-003,0.00000E+000,-3.39756E-004,9.32305E-001,0.00000E+000,1.64947E-004,-7.54926E-002,1.00000E+000,29
1159,1307,2.47648E+001,-1.26492E+000,-9.05604E-003,9.99101E+000,-1.38175E-001,2.68826E-002,9.99201E+000,1.77864E-002,3.68865E-001,0,1.49968E+002,-3.50301E+000,9.96184E-001,1.14754E+002,-3.25007E+001,9.94564E-001,1.85536E-001,-7.70991E-002,-2.65300E-003,1.85563E-001,-7.71259E-002,-5.78692E-001,1.86441E-001,1.20366E+000,-2.23148E-002,0.00000E+000,1.22128E-002,9.27969E-001,0.00000E+000,-9.63327E-004,-6.96515E-002,1.00000E+000,29
1159,1317,2.47694E+001,-6.60497E-001,-6.73862E-002,9.98250E+000,-1.81724E-001,-1.71250E-002,9.98417E+000,1.85771E-002,4.21816E-001,0,1.50016E+002,-4.14097E+000,9.96660E-001,1.14791E+002,-3.29600E+001,9.96417E-001,1.86740E-001,-7.71019E-002,-2.66970E-003,1.86768E-001,-7.71289E-002,-5.79670E-001,1.87708E-001,1.20512E+000,-2.22857E-002,0.00000E+000,1.21881E-002,9.27968E-001,0.00000E+000,-1.74145E-003,-6.96671E-002,1.00000E+000,29
1159,1327,2.47785E+001,-5.96241E-002,-9.28640E-002,9.97169E+000,-2.31606E-001,-5.53079E-002,9.97454E+000,1.26751E-002,4.00519E-001,0,1.50000E+002,-4.86960E+000,9.98318E-001,1.14946E+002,-3.35838E+001,9.97659E-001,1.87945E-001,-7.71055E-002,-2.68047E-003,1.87972E-001,-7.71326E-002,-5.79356E-001,1.88977E-001,1.20657E+000,-2.22417E-002,0.00000E+000,1.21633E-002,9.27968E-001,0.00000E+000,-2.52115E-003,-6.96907E-002,1.00000E+000,29
1159,1297,2.47643E+001,-1.85660E+000,7.13384E-002,9.99984E+000,-8.68151E-002,7.80245E-002,1.00005E+001,1.73615E-002,4.21540E-001,0,1.49886E+002,-2.76988E+000,9.97083E-001,1.14813E+002,-3.18381E+001,9.93327E-001,1.84337E-001,-7.70968E-002,-2.63311E-003,1.84364E-001,-7.71233E-002,-5.76993E-001,1.85182E-001,1.20222E+000,-2.23355E-002,0.00000E+000,1.22373E-002,9.27969E-001,0.00000E+000,-1.90130E-004,-6.96404E-002,1.00000E+000,29
1159,1337,2.48012E+001,5.41067E-001,-8.30067E-002,9.96484E+000,-2.88843E-001,-9.61184E-002,9.96949E+000,1.68679E-002,4.29595E-001,0,1.50043E+002,-5.70758E+000,9.99198E-001,1.15363E+002,-3.42638E+001,9.98986E-001,1.89157E-001,-7.71102E-002,-2.68299E-003,1.89184E-001,-7.71372E-002,-5.77253E-001,1.90254E-001,1.20804E+000,-2.21767E-002,0.00000E+000,1.21384E-002,9.27967E-001,0.00000E+000,-3.30696E-003,-6.97255E-002,1.00000E+000,29
1159,1347,2.48182E+001,1.15187E+000,-5.76278E-002,9.94925E+000,-3.36405E-001,-1.33817E-001,9.95583E+000,1.77423E-002,4.14272E-001,0,1.49935E+002,-6.40600E+000,9.98352E-001,1.15716E+002,-3.48480E+001,9.98035E-001,1.90366E-001,-7.71152E-002,-2.68289E-003,1.90393E-001,-7.71421E-002,-5.74611E-001,1.91531E-001,1.20950E+000,-2.21050E-002,0.00000E+000,1.21135E-002,9.27965E-001,0.00000E+000,-4.09248E-003,-6.97639E-002,1.00000E+000,29
689,1347,-1.20333E+001,5.16967E-001,3.06656E-002,3.77726E+000,-6.68650E-001,3.53814E-002,3.83615E+000,1.24847E-002,5.92277E-001,0,5.87999E+001,-1.10374E+001,9.98853E-001,1.57278E+001,-4.98040E+001,9.98110E-001,1.69930E-001,-7.21339E-002,-1.15793E-003,1.69935E-001,-7.21394E-002,-2.74069E-001,1.70580E-001,1.18523E+000,-3.94386E-004,0.00000E+000,-1.73311E-003,9.32995E-001,0.00000E+000,-1.93396E-003,-7.46471E-002,1.00000E+000,29
689,1357,-1.20215E+001,1.11214E+000,3.34955E-002,3.77095E+000,-7.17730E-001,-4.70005E-004,3.83864E+000,1.32367E-002,5.55994E-001,0,5.88047E+001,-1.17327E+001,9.98594E-001,1.60500E+001,-5.06755E+001,9.98471E-001,1.68724E-001,-7.21440E-002,-1.35825E-003,1.68732E-001,-7.21516E-002,-3.23077E-001,1.69320E-001,1.18380E+000,-4.34067E-004,0.00000E+000,-2.01502E-003,9.32987E-001,0.00000E+000,-2.83934E-003,-7.46723E-002,1.00000E+000,29
689,1337,-1.20439E+001,-7.34388E-002,5.38909E-002,3.78199E+000,-6.14664E-001,8.14232E-002,3.83248E+000,1.33004E-002,5.55151E-001,0,5.87371E+001,-1.02920E+001,9.98801E-001,1.54956E+001,-4.89550E+001,9.98862E-001,1.71136E-001,-7.21254E-002,-9.59895E-004,1.71140E-001,-7.21292E-002,-2.26081E-001,1.71842E-001,1.18665E+000,-3.60806E-004,0.00000E+000,-1.45066E-003,9.33001E-001,0.00000E+000,-1.02685E-003,-7.46257E-002,1.00000E+000,29
1169,1327,2.55719E+001,-4.87713E-002,-1.01572E-001,1.01034E+001,-2.26386E-001,-5.89990E-002,1.01061E+001,1.18680E-002,4.17489E-001,0,1.51869E+002,-4.80939E+000,9.98850E-001,1.17323E+002,-3.32885E+001,9.98454E-001,1.88588E-001,-7.74493E-002,-2.63070E-003,1.88614E-001,-7.74753E-002,-5.66494E-001,1.89613E-001,1.20737E+000,-2.10961E-002,0.00000E+000,1.14595E-002,9.27688E-001,0.00000E+000,-3.96982E-003,-7.01505E-002,1.00000E+000,29
1169,1337,2.55983E+001,5.61606E-001,-8.06697E-002,1.00982E+001,-2.74260E-001,-9.61950E-002,1.01024E+001,1.52341E-002,4.24653E-001,0,1.51917E+002,-5.51713E+000,9.99137E-001,1.17813E+002,-3.38514E+001,9.98658E-001,1.89788E-001,-7.74581E-002,-2.66353E-003,1.89815E-001,-7.74847E-002,-5.70968E-001,1.90878E-001,1.20882E+000,-2.10272E-002,0.00000E+000,1.13720E-002,9.27684E-001,0.00000E+000,-4.68765E-003,-7.01845E-002,1.00000E+000,29
1169,1347,2.56261E+001,1.16749E+000,-4.99290E-002,1.00912E+001,-3.28393E-001,-1.36019E-001,1.00974E+001,1.50213E-002,4.08405E-001,0,1.51946E+002,-6.30824E+000,9.98195E-001,1.18338E+002,-3.45215E+001,9.98089E-001,1.90988E-001,-7.74676E-002,-2.69380E-003,1.91015E-001,-7.74946E-002,-5.74853E-001,1.92144E-001,1.21028E+000,-2.09514E-002,0.00000E+000,1.12843E-002,9.27679E-001,0.00000E+000,-5.40669E-003,-7.02219E-002,1.00000E+000,29
689,1327,-1.20656E+001,-6.65732E-001,1.00587E-001,3.76997E+000,-5.70882E-001,1.19921E-001,3.81483E+000,1.47578E-002,6.28461E-001,0,5.84350E+001,-9.68484E+000,9.97789E-001,1.51559E+001,-4.81335E+001,9.97352E-001,1.72328E-001,-7.21200E-002,-7.68889E-004,1.72330E-001,-7.21224E-002,-1.80217E-001,1.73091E-001,1.18807E+000,-3.39642E-004,0.00000E+000,-1.17093E-003,9.33005E-001,0.00000E+000,-1.28483E-004,-7.46123E-002,1.00000E+000,29
1169,1317,2.55641E+001,-6.52416E-001,-6.99084E-002,1.01153E+001,-1.76888E-001,-1.64280E-002,1.01168E+001,2.19773E-002,3.37871E-001,0,1.51882E+002,-4.08297E+000,9.97903E-001,1.17199E+002,-3.27733E+001,9.97833E-001,1.87390E-001,-7.74430E-002,-2.58766E-003,1.87415E-001,-7.74683E-002,-5.59761E-001,1.88351E-001,1.20592E+000,-2.11392E-002,0.00000E+000,1.15466E-002,9.27691E-001,0.00000E+000,-3.25485E-003,-7.01292E-002,1.00000E+000,29
1169,1307,2.55572E+001,-1.25461E+000,-2.15928E-002,1.01229E+001,-1.33672E-001,2.34267E-002,1.01239E+001,1.78078E-002,3.98183E-001,0,1.51840E+002,-3.44083E+000,9.97898E-001,1.17111E+002,-3.22032E+001,9.96923E-001,1.86203E-001,-7.74378E-002,-2.54083E-003,1.86227E-001,-7.74622E-002,-5.52118E-001,1.87102E-001,1.20449E+000,-2.11713E-002,0.00000E+000,1.16329E-002,9.27693E-001,0.00000E+000,-2.54723E-003,-7.01134E-002,1.00000E+000,29
1169,1297,2.55604E+001,-1.84611E+000,6.37951E-002,1.01346E+001,-8.10731E-002,7.58137E-002,1.01352E+001,1.45942E-002,4.64062E-001,0,1.51793E+002,-2.71850E+000,9.98149E-001,1.17235E+002,-3.15431E+001,9.95547E-001,1.85013E-001,-7.74338E-002,-2.48858E-003,1.85037E-001,-7.74574E-002,-5.43227E-001,1.85852E-001,1.20305E+000,-2.11901E-002,0.00000E+000,1.17191E-002,9.27694E-001,0.00000E+000,-1.83962E-003,-7.01041E-002,1.00000E+000,29
689,1317,-1.20702E+001,-1.24829E+000,1.94076E-001,3.76922E+000,-5.20726E-001,1.72919E-001,3.80894E+000,1.71756E-002,5.82970E-001,0,5.82594E+001,-8.97123E+000,9.97575E-001,1.52061E+001,-4.73194E+001,9.95668E-001,1.73515E-001,-7.21179E-002,-5.83538E-004,1.73517E-001,-7.21193E-002,-1.36113E-001,1.74338E-001,1.18948E+000,-3.31145E-004,0.00000E+000,-8.91700E-004,9.33007E-001,0.00000E+000,7.68268E-004,-7.46069E-002,1.00000E+000,29
679,1347,-1.28027E+001,5.10511E-001,2.66616E-002,3.65028E+000,-6.66675E-001,3.29047E-002,3.71080E+000,1.99090E-002,5.97375E-001,0,5.68709E+001,-1.10240E+001,9.97906E-001,1.39342E+001,-5.00028E+001,9.97481E-001,1.68212E-001,-7.13745E-002,-1.18758E-003,1.68218E-001,-7.13804E-002,-2.83992E-001,1.68859E-001,1.18319E+000,1.03526E-003,0.00000E+000,-2.90535E-003,9.33643E-001,0.00000E+000,-2.04102E-003,-7.38155E-002,1.00000E+000,29
679,1357,-1.27754E+001,1.10656E+000,2.65195E-002,3.66101E+000,-7.15989E-001,2.27996E-003,3.73036E+000,9.88252E-003,5.72567E-001,0,5.71260E+001,-1.17032E+001,9.98720E-001,1.44867E+001,-5.08481E+001,9.98508E-001,1.66706E-001,-7.13895E-002,-1.52255E-003,1.66716E-001,-7.13992E-002,-3.66371E-001,1.67287E-001,1.18141E+000,9.90160E-004,0.00000E+000,-3.43857E-003,9.33629E-001,0.00000E+000,-2.94407E-003,-7.38384E-002,1.00000E+000,29
1179,1297,2.63473E+001,-1.83926E+000,3.76295E-002,1.02645E+001,-7.66236E-002,7.31038E-002,1.02650E+001,2.34516E-002,5.10058E-001,0,1.53630E+002,-2.68444E+000,9.98904E-001,1.19493E+002,-3.12646E+001,9.96598E-001,1.85487E-001,-7.76076E-002,-2.48268E-003,1.85511E-001,-7.76310E-002,-5.40605E-001,1.86331E-001,1.20364E+000,-2.03478E-002,0.00000E+000,1.11907E-002,9.27581E-001,0.00000E+000,-3.61816E-003,-7.07287E-002,1.00000E+000,29
1179,1307,2.63550E+001,-1.24695E+000,-3.47146E-002,1.02612E+001,-1.27717E-001,2.38737E-002,1.02620E+001,1.13186E-002,3.38705E-001,0,1.53787E+002,-3.37522E+000,9.99099E-001,1.19559E+002,-3.19893E+001,9.97718E-001,1.86590E-001,-7.76080E-002,-2.47267E-003,1.86614E-001,-7.76312E-002,-5.36176E-001,1.87489E-001,1.20497E+000,-2.03253E-002,0.00000E+000,1.12073E-002,9.27581E-001,0.00000E+000,-4.11882E-003,-7.07372E-002,1.00000E+000,29
1179,1317,2.63582E+001,-6.43022E-001,-1.17257E-001,1.02544E+001,-1.68271E-001,-3.15231E-002,1.02558E+001,2.49808E-002,3.00986E-001,0,1.53913E+002,-3.93177E+000,9.99061E-001,1.19541E+002,-3.24452E+001,9.98456E-001,1.87694E-001,-7.76085E-002,-2.46351E-003,1.87717E-001,-7.76313E-002,-5.31969E-001,1.88650E-001,1.20631E+000,-2.03047E-002,0.00000E+000,1.12239E-002,9.27581E-001,0.00000E+000,-4.62048E-003,-7.07450E-002,1.00000E+000,29
1179,1337,2.64003E+001,5.68847E-001,-9.36381E-002,1.02366E+001,-2.72337E-001,-1.09188E-001,1.02408E+001,1.27560E-002,4.15964E-001,0,1.53920E+002,-5.49596E+000,9.98857E-001,1.20321E+002,-3.36131E+001,9.97624E-001,1.89928E-001,-7.76102E-002,-2.41264E-003,1.89950E-001,-7.76319E-002,-5.16633E-001,1.91003E-001,1.20901E+000,-2.01832E-002,0.00000E+000,1.12575E-002,9.27583E-001,0.00000E+000,-5.63847E-003,-7.07907E-002,1.00000E+000,29
1179,1347,2.64404E+001,1.18178E+000,-5.49645E-002,1.02393E+001,-3.22275E-001,-1.50423E-001,1.02455E+001,1.25628E-002,4.18820E-001,0,1.54096E+002,-6.21205E+000,9.98952E-001,1.21048E+002,-3.41786E+001,9.98403E-001,1.91049E-001,-7.76112E-002,-2.38121E-003,1.91070E-001,-7.76323E-002,-5.07776E-001,1.92185E-001,1.21037E+000,-2.01073E-002,0.00000E+000,1.12744E-002,9.27584E-001,0.00000E+000,-6.15009E-003,-7.08192E-002,1.00000E+000,29
679,1327,-1.28277E+001,-6.72095E-001,1.11538E-001,3.64935E+000,-5.71493E-001,1.28896E-001,3.69607E+000,1.76403E-002,5.80704E-001,0,5.65739E+001,-9.68490E+000,9.97172E-001,1.35131E+001,-4.83846E+001,9.96339E-001,1.71194E-001,-7.13530E-002,-5.32948E-004,1.71195E-001,-7.13542E-002,-1.25895E-001,1.71983E-001,1.18672E+000,1.10092E-003,0.00000E+000,-1.84671E-003,9.33663E-001,0.00000E+000,-2.48172E-004,-7.37822E-002,1.00000E+000,29
679,1337,-1.28145E+001,-8.07262E-002,5.13313E-002,3.65390E+000,-6.16190E-001,8.17481E-002,3.70639E+000,1.98158E-002,5.64890E-001,0,5.67852E+001,-1.03009E+001,9.97926E-001,1.36871E+001,-4.91657E+001,9.97750E-001,1.69708E-001,-7.13606E-002,-8.55657E-004,1.69711E-001,-7.13636E-002,-2.03364E-001,1.70425E-001,1.18496E+000,1.07717E-003,0.00000E+000,-2.37477E-003,9.33655E-001,0.00000E+000,-1.14247E-003,-7.37942E-002,1.00000E+000,29
1179,1327,2.63713E+001,-4.47945E-002,-1.11667E-001,1.02416E+001,-2.25109E-001,-6.06068E-002,1.02442E+001,1.76808E-002,3.80199E-001,0,1.53827E+002,-4.82596E+000,9.98862E-001,1.19797E+002,-3.31236E+001,9.96982E-001,1.88809E-001,-7.76092E-002,-2.44139E-003,1.88831E-001,-7.76316E-002,-5.24987E-001,1.89823E-001,1.20766E+000,-2.02522E-002,0.00000E+000,1.12406E-002,9.27582E-001,0.00000E+000,-5.12786E-003,-7.07647E-002,1.00000E+000,29
679,1317,-1.28335E+001,-1.25418E+000,2.07341E-001,3.64740E+000,-5.21159E-001,1.84869E-001,3.68908E+000,1.44838E-002,6.16559E-001,0,5.63725E+001,-9.01365E+000,9.97940E-001,1.35506E+001,-4.75258E+001,9.96471E-001,1.72672E-001,-7.13499E-002,-2.16627E-004,1.72672E-001,-7.13501E-002,-5.08634E-002,1.73537E-001,1.18848E+000,1.11165E-003,0.00000E+000,-1.32011E-003,9.33666E-001,0.00000E+000,6.43656E-004,-7.37767E-002,1.00000E+000,29
669,1327,-1.35842E+001,-6.86995E-001,1.17252E-001,3.53462E+000,-5.79584E-001,1.36601E-001,3.58443E+000,1.22050E-002,5.78317E-001,0,5.48084E+001,-9.83084E+000,9.99051E-001,1.19449E+001,-4.87326E+001,9.98722E-001,1.69928E-001,-7.07046E-002,-2.14936E-004,1.69928E-001,-7.07048E-002,-5.11772E-002,1.70724E-001,1.18521E+000,3.35632E-003,0.00000E+000,-3.00901E-003,9.34202E-001,0.00000E+000,-3.97588E-004,-7.28604E-002,1.00000E+000,29
669,1337,-1.35744E+001,-8.69076E-002,5.89323E-002,3.53543E+000,-6.17526E-001,8.90194E-002,3.59006E+000,1.21258E-002,5.81978E-001,0,5.49596E+001,-1.03206E+001,9.98382E-001,1.20742E+001,-4.93764E+001,9.98414E-001,1.68087E-001,-7.07133E-002,-6.20316E-004,1.68089E-001,-7.07149E-002,-1.48832E-001,1.68792E-001,1.18304E+000,3.32580E-003,0.00000E+000,-3.69145E-003,9.34192E-001,0.00000E+000,-1.29772E-003,-7.28730E-002,1.00000E+000,29
669,1347,-1.35596E+001,5.03952E-001,2.37084E-002,3.53826E+000,-6.65606E-001,4.80264E-002,3.60064E+000,1.07780E-002,5.62389E-001,0,5.51239E+001,-1.09963E+001,9.98264E-001,1.23400E+001,-5.02239E+001,9.98067E-001,1.66243E-001,-7.07252E-002,-1.02976E-003,1.66247E-001,-7.07297E-002,-2.48977E-001,1.66862E-001,1.18086E+000,3.28559E-003,0.00000E+000,-4.37359E-003,9.34180E-001,0.00000E+000,-2.19746E-003,-7.28896E-002,1.00000E+000,29
669,1357,-1.35343E+001,1.10830E+000,2.78112E-002,3.54420E+000,-7.06662E-001,4.40500E-003,3.61396E+000,1.15459E-002,5.54877E-001,0,5.53367E+001,-1.15601E+001,9.98134E-001,1.28779E+001,-5.09444E+001,9.97997E-001,1.64384E-001,-7.07461E-002,-1.45207E-003,1.64393E-001,-7.07550E-002,-3.53819E-001,1.64923E-001,1.17867E+000,3.22030E-003,0.00000E+000,-5.05942E-003,9.34159E-001,0.00000E+000,-3.10206E-003,-7.29166E-002,1.00000E+000,29
1189,1337,2.72075E+001,5.79708E-001,-1.08705E-001,1.03792E+001,-2.69043E-001,-1.25964E-001,1.03835E+001,1.65605E-002,4.19535E-001,0,1.55999E+002,-5.42200E+000,9.99007E-001,1.22914E+002,-3.33072E+001,9.98109E-001,1.89589E-001,-7.78794E-002,-2.13480E-003,1.89606E-001,-7.78965E-002,-4.57268E-001,1.90608E-001,1.20862E+000,-1.93529E-002,0.00000E+000,1.11868E-002,9.27327E-001,0.00000E+000,-6.26957E-003,-7.06973E-002,1.00000E+000,29
669,1317,-1.35863E+001,-1.26359E+000,2.19856E-001,3.53514E+000,-5.24223E-001,1.92554E-001,3.57898E+000,1.47188E-002,5.95466E-001,0,5.46443E+001,-9.08318E+000,9.98977E-001,1.20599E+001,-4.78105E+001,9.98727E-001,1.71754E-001,-7.07036E-002,1.79181E-004,1.71754E-001,-7.07037E-002,4.23428E-002,1.72645E-001,1.18738E+000,3.36534E-003,0.00000E+000,-2.33030E-003,9.34205E-001,0.00000E+000,4.97627E-004,-7.28566E-002,1.00000E+000,29
1189,1297,2.71558E+001,-1.83149E+000,5.20446E-002,1.04052E+001,-7.50159E-002,7.09557E-002,1.04057E+001,1.63307E-002,4.47499E-001,0,1.55612E+002,-2.67152E+000,9.98758E-001,1.22149E+002,-3.11103E+001,9.96299E-001,1.85843E-001,-7.78718E-002,-2.12836E-003,1.85861E-001,-7.78889E-002,-4.62376E-001,1.86670E-001,1.20409E+000,-1.94862E-002,0.00000E+000,1.13138E-002,9.27331E-001,0.00000E+000,-5.59537E-003,-7.06775E-002,1.00000E+000,29
1189,1307,2.71495E+001,-1.24050E+000,-4.73624E-002,1.03924E+001,-1.28105E-001,1.26647E-002,1.03932E+001,1.33022E-002,4.05185E-001,0,1.55672E+002,-3.39125E+000,9.97985E-001,1.21958E+002,-3.17331E+001,9.97447E-001,1.86775E-001,-7.78728E-002,-2.13875E-003,1.86792E-001,-7.78901E-002,-4.62997E-001,1.87648E-001,1.20522E+000,-1.94748E-002,0.00000E+000,1.12823E-002,9.27330E-001,0.00000E+000,-5.76273E-003,-7.06792E-002,1.00000E+000,29
1189,1317,2.71687E+001,-6.25342E-001,-9.14856E-002,1.03920E+001,-1.65681E-001,-4.08227E-002,1.03934E+001,1.58546E-002,4.07084E-001,0,1.55872E+002,-3.88433E+000,9.98914E-001,1.22242E+002,-3.20747E+001,9.98823E-001,1.87714E-001,-7.78748E-002,-2.14028E-003,1.87731E-001,-7.78920E-002,-4.61686E-001,1.88635E-001,1.20635E+000,-1.94412E-002,0.00000E+000,1.12504E-002,9.27330E-001,0.00000E+000,-5.93165E-003,-7.06842E-002,1.00000E+000,29
1189,1327,2.71875E+001,-2.73846E-002,-1.05625E-001,1.03872E+001,-2.20640E-001,-8.04159E-002,1.03898E+001,1.86493E-002,4.25937E-001,0,1.55951E+002,-4.71576E+000,9.99135E-001,1.22560E+002,-3.27421E+001,9.98720E-001,1.88651E-001,-7.78770E-002,-2.13901E-003,1.88668E-001,-7.78941E-002,-4.59787E-001,1.89620E-001,1.20748E+000,-1.94008E-002,0.00000E+000,1.12187E-002,9.27328E-001,0.00000E+000,-6.10039E-003,-7.06902E-002,1.00000E+000,29
659,1327,-1.43385E+001,-6.73081E-001,1.22472E-001,3.42049E+000,-5.61133E-001,1.37084E-001,3.46892E+000,1.91994E-002,5.68152E-001,0,5.30622E+001,-9.52157E+000,9.98770E-001,1.04214E+001,-4.86401E+001,9.97354E-001,1.68376E-001,-7.02761E-002,-1.54762E-004,1.68376E-001,-7.02762E-002,-3.71553E-002,1.69141E-001,1.18337E+000,5.63402E-003,0.00000E+000,-4.67401E-003,9.34562E-001,0.00000E+000,-6.46931E-004,-7.23715E-002,1.00000E+000,29
659,1337,-1.43107E+001,-1.01482E-001,8.03870E-002,3.43931E+000,-6.27499E-001,1.05532E-001,3.49768E+000,2.68191E-002,6.19175E-001,0,5.34549E+001,-1.05162E+001,9.98511E-001,1.08633E+001,-4.97328E+001,9.98278E-001,1.66377E-001,-7.02834E-002,-5.70536E-004,1.66378E-001,-7.02847E-002,-1.38126E-001,1.67044E-001,1.18101E+000,5.60115E-003,0.00000E+000,-5.38231E-003,9.34553E-001,0.00000E+000,-1.49331E-003,-7.23833E-002,1.00000E+000,29
659,1347,-1.43002E+001,5.00549E-001,4.73332E-002,3.43788E+000,-6.64108E-001,6.57627E-002,3.50205E+000,1.62491E-002,5.85255E-001,0,5.35454E+001,-1.10110E+001,9.98871E-001,1.10738E+001,-5.04233E+001,9.98908E-001,1.64375E-001,-7.02941E-002,-9.90683E-004,1.64379E-001,-7.02983E-002,-2.41875E-001,1.64951E-001,1.17865E+000,5.55741E-003,0.00000E+000,-6.08994E-003,9.34539E-001,0.00000E+000,-2.33890E-003,-7.23989E-002,1.00000E+000,29
659,1357,-1.42848E+001,1.10855E+000,3.83738E-002,3.43459E+000,-7.00704E-001,1.22790E-002,3.50536E+000,1.15714E-002,5.60581E-001,0,5.36413E+001,-1.14747E+001,9.98475E-001,1.14260E+001,-5.10714E+001,9.98546E-001,1.62357E-001,-7.03131E-002,-1.42328E-003,1.62366E-001,-7.03218E-002,-3.50469E-001,1.62849E-001,1.17628E+000,5.48937E-003,0.00000E+000,-6.80109E-003,9.34519E-001,0.00000E+000,-3.18868E-003,-7.24233E-002,1.00000E+000,29
1199,1307,2.79519E+001,-1.22947E+000,-4.10662E-002,1.05279E+001,-1.25133E-001,8.48258E-003,1.05286E+001,1.73146E-002,4.09643E-001,0,1.57584E+002,-3.34825E+000,9.98123E-001,1.24512E+002,-3.14768E+001,9.97140E-001,1.86802E-001,-7.77951E-002,-1.72895E-003,1.86813E-001,-7.78064E-002,-3.74365E-001,1.87680E-001,1.20527E+000,-1.84589E-002,0.00000E+000,1.13258E-002,9.27398E-001,0.00000E+000,-6.58944E-003,-7.06325E-002,1.00000E+000,29
1199,1317,2.79614E+001,-6.27572E-001,-9.47759E-002,1.05201E+001,-1.73076E-001,-4.52835E-002,1.05217E+001,1.53190E-002,4.14607E-001,0,1.57685E+002,-4.02827E+000,9.97305E-001,1.24631E+002,-3.20017E+001,9.95941E-001,1.87611E-001,-7.77976E-002,-1.74422E-003,1.87622E-001,-7.78091E-002,-3.76517E-001,1.88530E-001,1.20624E+000,-1.84333E-002,0.00000E+000,1.12625E-002,9.27396E-001,0.00000E+000,-6.53778E-003,-7.06312E-002,1.00000E+000,29
1199,1327,2.79797E+001,-2.02190E-002,-1.29807E-001,1.05185E+001,-2.16650E-001,-9.11417E-002,1.05211E+001,1.59774E-002,4.01043E-001,0,1.57837E+002,-4.65859E+000,9.98126E-001,1.24912E+002,-3.24919E+001,9.97163E-001,1.88419E-001,-7.78004E-002,-1.75788E-003,1.88431E-001,-7.78120E-002,-3.78308E-001,1.89381E-001,1.20722E+000,-1.84036E-002,0.00000E+000,1.11992E-002,9.27394E-001,0.00000E+000,-6.48607E-003,-7.06296E-002,1.00000E+000,29
659,1317,-1.43522E+001,-1.26498E+000,1.96133E-001,3.41192E+000,-5.20136E-001,1.78097E-001,3.45593E+000,1.50015E-002,5.79564E-001,0,5.28065E+001,-8.94895E+000,9.97686E-001,1.02784E+001,-4.78943E+001,9.95068E-001,1.70360E-001,-7.02735E-002,2.52702E-004,1.70360E-001,-7.02738E-002,6.01693E-002,1.71227E-001,1.18572E+000,5.65258E-003,0.00000E+000,-3.96952E-003,9.34568E-001,0.00000E+000,1.94893E-004,-7.23648E-002,1.00000E+000,29
1199,1337,2.80142E+001,5.91860E-001,-1.05501E-001,1.05182E+001,-2.65349E-001,-1.34752E-001,1.05224E+001,1.28514E-002,4.25704E-001,0,1.57983E+002,-5.36988E+000,9.98817E-001,1.25527E+002,-3.30210E+001,9.97799E-001,1.89235E-001,-7.78046E-002,-1.76293E-003,1.89247E-001,-7.78162E-002,-3.78230E-001,1.90240E-001,1.20821E+000,-1.83522E-002,0.00000E+000,1.11353E-002,9.27391E-001,0.00000E+000,-6.43383E-003,-7.06269E-002,1.00000E+000,29
1199,1297,2.79566E+001,-1.81420E+000,4.47515E-002,1.05399E+001,-6.51438E-002,5.58211E-002,1.05402E+001,1.34533E-002,4.14723E-001,0,1.57553E+002,-2.48113E+000,9.97838E-001,1.24659E+002,-3.07478E+001,9.96382E-001,1.85996E-001,-7.77935E-002,-1.70782E-003,1.86007E-001,-7.78046E-002,-3.70923E-001,1.86833E-001,1.20430E+000,-1.84699E-002,0.00000E+000,1.13887E-002,9.27399E-001,0.00000E+000,-6.64087E-003,-7.06331E-002,1.00000E+000,29
649,1347,-1.50643E+001,5.04446E-001,3.50853E-002,3.31388E+000,-6.55507E-001,4.92281E-002,3.37845E+000,1.63874E-002,6.26674E-001,0,5.16927E+001,-1.08370E+001,9.98187E-001,9.35673E+000,-5.04267E+001,9.97178E-001,1.62331E-001,-6.97214E-002,-8.76080E-004,1.62334E-001,-6.97247E-002,-2.16308E-001,1.62871E-001,1.17623E+000,8.11673E-003,0.00000E+000,-7.89431E-003,9.35028E-001,0.00000E+000,-2.59708E-003,-7.19195E-002,1.00000E+000,29
649,1357,-1.50426E+001,1.10574E+000,4.17535E-002,3.31748E+000,-6.97757E-001,1.38982E-002,3.39010E+000,1.11006E-002,5.64263E-001,0,5.18456E+001,-1.14189E+001,9.98694E-001,9.84779E+000,-5.12318E+001,9.98268E-001,1.60033E-001,-6.97373E-002,-1.29679E-003,1.60040E-001,-6.97447E-002,-3.23357E-001,1.60479E-001,1.17353E+000,8.04195E-003,0.00000E+000,-8.58531E-003,9.35009E-001,0.00000E+000,-3.42907E-003,-7.19425E-002,1.00000E+000,29
649,1337,-1.50842E+001,-9.10053E-002,7.19842E-002,3.30568E+000,-6.10797E-001,9.18010E-002,3.36289E+000,1.69007E-002,5.93104E-001,0,5.14429E+001,-1.02161E+001,9.98618E-001,9.01482E+000,-4.96767E+001,9.97936E-001,1.64621E-001,-6.97129E-002,-4.67017E-004,1.64622E-001,-6.97138E-002,-1.14187E-001,1.65263E-001,1.17892E+000,8.16539E-003,0.00000E+000,-7.20399E-003,9.35041E-001,0.00000E+000,-1.76592E-003,-7.19044E-002,1.00000E+000,29
649,1327,-1.51047E+001,-6.66418E-001,1.17654E-001,3.29367E+000,-5.50654E-001,1.24829E-001,3.34172E+000,1.32518E-002,5.68398E-001,0,5.11540E+001,-9.30729E+000,9.99201E-001,8.69324E+000,-4.86344E+001,9.98877E-001,1.66893E-001,-6.97081E-002,-6.57356E-005,1.66893E-001,-6.97082E-002,-1.59186E-002,1.67646E-001,1.18160E+000,8.20067E-003,0.00000E+000,-6.51715E-003,9.35050E-001,0.00000E+000,-9.38945E-004,-7.18936E-002,1.00000E+000,29
1209,1307,2.87524E+001,-1.21498E+000,-4.85481E-002,1.06618E+001,-1.17447E-001,-6.86686E-003,1.06624E+001,1.30547E-002,4.27828E-001,0,1.59513E+002,-3.22981E+000,9.98617E-001,1.27023E+002,-3.11307E+001,9.97232E-001,1.86379E-001,-7.73458E-002,-1.26067E-003,1.86385E-001,-7.73518E-002,-2.73881E-001,1.87280E-001,1.20478E+000,-1.73021E-002,0.00000E+000,1.13445E-002,9.27774E-001,0.00000E+000,-6.90067E-003,-7.00296E-002,1.00000E+000,29
1209,1317,2.87608E+001,-6.20049E-001,-1.05320E-001,1.06547E+001,-1.71553E-001,-5.66642E-002,1.06562E+001,1.49861E-002,4.23742E-001,0,1.59613E+002,-4.00934E+000,9.98450E-001,1.27120E+002,-3.17600E+001,9.96134E-001,1.87220E-001,-7.73470E-002,-1.26277E-003,1.87226E-001,-7.73531E-002,-2.73462E-001,1.88165E-001,1.20579E+000,-1.72781E-002,0.00000E+000,1.12935E-002,9.27773E-001,0.00000E+000,-6.63261E-003,-7.00233E-002,1.00000E+000,29
1209,1327,2.87906E+001,-5.14217E-003,-1.20796E-001,1.06597E+001,-2.09848E-001,-1.00623E-001,1.06622E+001,1.45653E-002,3.89814E-001,0,1.59849E+002,-4.56242E+000,9.98624E-001,1.27605E+002,-3.21829E+001,9.97615E-001,1.88063E-001,-7.73488E-002,-1.25917E-003,1.88069E-001,-7.73548E-002,-2.71814E-001,1.89053E-001,1.20681E+000,-1.72400E-002,0.00000E+000,1.12423E-002,9.27771E-001,0.00000E+000,-6.36363E-003,-7.00132E-002,1.00000E+000,29
1209,1337,2.88225E+001,6.03715E-001,-9.55258E-002,1.06563E+001,-2.63253E-001,-1.44287E-001,1.06605E+001,1.48113E-002,4.43656E-001,0,1.59951E+002,-5.34354E+000,9.98352E-001,1.28178E+002,-3.27486E+001,9.96779E-001,1.88914E-001,-7.73512E-002,-1.24908E-003,1.88920E-001,-7.73570E-002,-2.68773E-001,1.89949E-001,1.20783E+000,-1.71857E-002,0.00000E+000,1.11906E-002,9.27768E-001,0.00000E+000,-6.09182E-003,-6.99988E-002,1.00000E+000,29
1209,1297,2.87583E+001,-1.80145E+000,3.68675E-002,1.06768E+001,-5.74781E-002,4.69453E-002,1.06770E+001,1.22504E-002,4.01903E-001,0,1.59501E+002,-2.36939E+000,9.98398E-001,1.27187E+002,-3.04449E+001,9.96710E-001,1.85539E-001,-7.73448E-002,-1.25463E-003,1.85545E-001,-7.73508E-002,-2.73439E-001,1.86397E-001,1.20377E+000,-1.73163E-002,0.00000E+000,1.13955E-002,9.27775E-001,0.00000E+000,-7.16822E-003,-7.00334E-002,1.00000E+000,29
649,1317,-1.51100E+001,-1.26014E+000,2.00041E-001,3.29198E+000,-5.12710E-001,1.67101E-001,3.33585E+000,1.12927E-002,5.81724E-001,0,5.10025E+001,-8.78819E+000,9.98656E-001,8.70035E+000,-4.79311E+001,9.98359E-001,1.69153E-001,-6.97090E-002,3.25963E-004,1.69153E-001,-6.97094E-002,7.81885E-002,1.70022E-001,1.18427E+000,8.21610E-003,0.00000E+000,-5.83226E-003,9.35054E-001,0.00000E+000,-1.14327E-004,-7.18888E-002,1.00000E+000,29
639,1347,-1.58238E+001,5.10260E-001,2.89529E-002,3.19508E+000,-6.43461E-001,4.48586E-002,3.25954E+000,1.67845E-002,5.88113E-001,0,4.98835E+001,-1.06068E+001,9.97448E-001,7.73148E+000,-5.04536E+001,9.96925E-001,1.60449E-001,-6.89227E-002,-7.87007E-004,1.60452E-001,-6.89254E-002,-1.96586E-001,1.60982E-001,1.17399E+000,1.09888E-002,0.00000E+000,-1.00080E-002,9.35693E-001,0.00000E+000,-2.85241E-003,-7.09992E-002,1.00000E+000,29
639,1357,-1.58000E+001,1.11524E+000,4.00376E-002,3.20083E+000,-6.82643E-001,1.28858E-002,3.27284E+000,1.11553E-002,5.73091E-001,0,5.00589E+001,-1.11618E+001,9.98386E-001,8.27036E+000,-5.11897E+001,9.98198E-001,1.57953E-001,-6.89363E-002,-1.19300E-003,1.57959E-001,-6.89426E-002,-3.01254E-001,1.58384E-001,1.17107E+000,1.09078E-002,0.00000E+000,-1.06705E-002,9.35675E-001,0.00000E+000,-3.74103E-003,-7.10238E-002,1.00000E+000,29
639,1317,-1.58594E+001,-1.26913E+000,2.22382E-001,3.18043E+000,-5.20328E-001,1.76243E-001,3.22753E+000,1.51229E-002,6.33754E-001,0,4.92746E+001,-8.91099E+000,9.98514E-001,7.30556E+000,-4.81938E+001,9.97571E-001,1.67836E-001,-6.89197E-002,3.58109E-004,1.67836E-001,-6.89202E-002,8.66637E-002,1.68727E-001,1.18269E+000,1.10833E-002,0.00000E+000,-8.03632E-003,9.35715E-001,0.00000E+000,-2.07738E-004,-7.09705E-002,1.00000E+000,29
639,1327,-1.58518E+001,-6.84954E-001,1.34680E-001,3.18581E+000,-5.64435E-001,1.36413E-001,3.23830E+000,1.11123E-002,5.85034E-001,0,4.94782E+001,-9.54686E+000,9.98868E-001,7.31535E+000,-4.90521E+001,9.98147E-001,1.65395E-001,-6.89154E-002,-1.22920E-005,1.65395E-001,-6.89154E-002,-3.00576E-003,1.66159E-001,1.17981E+000,1.10731E-002,0.00000E+000,-8.68962E-003,9.35712E-001,0.00000E+000,-1.08402E-003,-7.09736E-002,1.00000E+000,29
639,1337,-1.58427E+001,-8.57825E-002,6.47175E-002,3.18830E+000,-6.01047E-001,8.95167E-002,3.24569E+000,1.37067E-002,6.25821E-001,0,4.96516E+001,-1.00328E+001,9.98256E-001,7.40071E+000,-4.96727E+001,9.97726E-001,1.62926E-001,-6.89159E-002,-3.94305E-004,1.62927E-001,-6.89166E-002,-9.74451E-002,1.63570E-001,1.17690E+000,1.10432E-002,0.00000E+000,-9.34872E-003,9.35706E-001,0.00000E+000,-1.96806E-003,-7.09826E-002,1.00000E+000,29
1219,1317,2.95705E+001,-6.06878E-001,-9.60485E-002,1.07952E+001,-1.68699E-001,-6.19715E-002,1.07967E+001,1.89911E-002,4.73810E-001,0,1.61597E+002,-3.96851E+000,9.98399E-001,1.29799E+002,-3.14524E+001,9.95849E-001,1.86623E-001,-7.72979E-002,-6.90577E-004,1.86624E-001,-7.72997E-002,-1.49919E-001,1.87538E-001,1.20509E+000,-1.58588E-002,0.00000E+000,1.12729E-002,9.27766E-001,0.00000E+000,-6.49000E-003,-6.92217E-002,1.00000E+000,29
1219,1327,2.95950E+001,5.76059E-003,-1.20468E-001,1.07969E+001,-2.07217E-001,-1.06897E-001,1.07994E+001,9.55722E-003,4.04418E-001,0,1.61791E+002,-4.52325E+000,9.99254E-001,1.30189E+002,-3.19078E+001,9.98352E-001,1.87424E-001,-7.72974E-002,-6.67107E-004,1.87425E-001,-7.72991E-002,-1.44386E-001,1.88381E-001,1.20605E+000,-1.58254E-002,0.00000E+000,1.12455E-002,9.27765E-001,0.00000E+000,-5.92963E-003,-6.92022E-002,1.00000E+000,29
1219,1337,2.96309E+001,6.20258E-001,-9.30793E-002,1.07966E+001,-2.55553E-001,-1.50987E-001,1.08007E+001,1.39537E-002,4.72431E-001,0,1.61938E+002,-5.23478E+000,9.98650E-001,1.30824E+002,-3.23816E+001,9.97166E-001,1.88234E-001,-7.72967E-002,-6.35506E-004,1.88236E-001,-7.72983E-002,-1.37127E-001,1.89235E-001,1.20703E+000,-1.57724E-002,0.00000E+000,1.12178E-002,9.27763E-001,0.00000E+000,-5.36165E-003,-6.91714E-002,1.00000E+000,29
1219,1297,2.95643E+001,-1.78950E+000,3.28504E-002,1.08163E+001,-5.26075E-002,3.77961E-002,1.08165E+001,1.34171E-002,3.73505E-001,0,1.61487E+002,-2.27112E+000,9.98397E-001,1.29792E+002,-3.01700E+001,9.96694E-001,1.85017E-001,-7.72985E-002,-7.26769E-004,1.85019E-001,-7.73005E-002,-1.58742E-001,1.85851E-001,1.20316E+000,-1.58991E-002,0.00000E+000,1.13276E-002,9.27767E-001,0.00000E+000,-7.61101E-003,-6.92451E-002,1.00000E+000,29
1219,1307,2.95646E+001,-1.19972E+000,-3.70821E-002,1.08050E+001,-1.10969E-001,-1.00829E-002,1.08055E+001,1.71740E-002,3.97790E-001,0,1.61524E+002,-3.11831E+000,9.98537E-001,1.29745E+002,-3.08363E+001,9.95813E-001,1.85819E-001,-7.72982E-002,-7.09845E-004,1.85821E-001,-7.73001E-002,-1.54572E-001,1.86694E-001,1.20412E+000,-1.58818E-002,0.00000E+000,1.13003E-002,9.27766E-001,0.00000E+000,-7.05120E-003,-6.92351E-002,1.00000E+000,29
629,1347,-1.65768E+001,5.04313E-001,2.90022E-002,3.08296E+000,-6.43040E-001,4.93374E-002,3.14970E+000,1.50332E-002,5.87565E-001,0,4.81546E+001,-1.05950E+001,9.97030E-001,6.22697E+000,-5.06549E+001,9.96625E-001,1.58877E-001,-6.92367E-002,-7.63423E-004,1.58880E-001,-6.92393E-002,-1.91748E-001,1.59316E-001,1.17212E+000,1.39856E-002,0.00000E+000,-1.23645E-002,9.35325E-001,0.00000E+000,-2.72278E-003,-7.02988E-002,1.00000E+000,29
629,1357,-1.65476E+001,1.10964E+000,3.96446E-002,3.09395E+000,-6.81970E-001,1.50909E-002,3.16826E+000,1.28299E-002,5.69755E-001,0,4.84174E+001,-1.11392E+001,9.97414E-001,6.84873E+000,-5.13871E+001,9.97206E-001,1.56471E-001,-6.92425E-002,-9.69501E-004,1.56475E-001,-6.92466E-002,-2.46095E-001,1.56819E-001,1.16931E+000,1.39074E-002,0.00000E+000,-1.26646E-002,9.35316E-001,0.00000E+000,-3.51387E-003,-7.03208E-002,1.00000E+000,29
629,1327,-1.66048E+001,-6.83510E-001,1.32255E-001,3.07310E+000,-5.57217E-001,1.36299E-001,3.12619E+000,1.18163E-002,5.61756E-001,0,4.77526E+001,-9.40962E+000,9.98129E-001,5.80484E+000,-4.91420E+001,9.97584E-001,1.63646E-001,-6.92356E-002,-3.86403E-004,1.63647E-001,-6.92362E-002,-9.50663E-002,1.64291E-001,1.17772E+000,1.40640E-002,0.00000E+000,-1.17672E-002,9.35333E-001,0.00000E+000,-1.14838E-003,-7.02767E-002,1.00000E+000,29
629,1337,-1.65909E+001,-9.13777E-002,6.63942E-002,3.08040E+000,-6.00565E-001,9.30406E-002,3.13978E+000,1.39449E-002,6.20433E-001,0,4.79916E+001,-1.00210E+001,9.97805E-001,5.97340E+000,-4.98719E+001,9.97376E-001,1.61266E-001,-6.92347E-002,-5.70358E-004,1.61267E-001,-6.92362E-002,-1.41774E-001,1.61803E-001,1.17492E+000,1.40354E-002,0.00000E+000,-1.20658E-002,9.35330E-001,0.00000E+000,-1.93536E-003,-7.02848E-002,1.00000E+000,29
1229,1317,3.03794E+001,-5.83131E-001,-9.38706E-002,1.09375E+001,-1.51333E-001,-6.26867E-002,1.09388E+001,2.00500E-002,4.64766E-001,0,1.63582E+002,-3.72210E+000,9.97846E-001,1.32460E+002,-3.09947E+001,9.97220E-001,1.86265E-001,-7.68995E-002,-5.36066E-005,1.86265E-001,-7.68995E-002,-1.16711E-002,1.87206E-001,1.20467E+000,-1.44676E-002,0.00000E+000,1.13594E-002,9.28089E-001,0.00000E+000,-5.77733E-003,-6.85169E-002,1.00000E+000,29
1229,1327,3.03977E+001,1.45327E-002,-1.20758E-001,1.09325E+001,-2.08114E-001,-1.11400E-001,1.09351E+001,1.24148E-002,4.66039E-001,0,1.63701E+002,-4.53855E+000,9.98711E-001,1.32750E+002,-3.16414E+001,9.97574E-001,1.86974E-001,-7.68964E-002,-4.85234E-006,1.86974E-001,-7.68964E-002,-1.05362E-003,1.87953E-001,1.20552E+000,-1.44374E-002,0.00000E+000,1.13783E-002,9.28089E-001,0.00000E+000,-5.12465E-003,-6.84937E-002,1.00000E+000,29
1229,1337,3.04355E+001,6.33275E-001,-1.03203E-001,1.09369E+001,-2.47195E-001,-1.54186E-001,1.09408E+001,1.31190E-002,4.14155E-001,0,1.63912E+002,-5.10935E+000,9.98060E-001,1.33399E+002,-3.20855E+001,9.97085E-001,1.87683E-001,-7.68923E-002,4.92355E-005,1.87683E-001,-7.68923E-002,1.06623E-002,1.88701E-001,1.20637E+000,-1.43941E-002,0.00000E+000,1.13973E-002,9.28090E-001,0.00000E+000,-4.47079E-003,-6.84606E-002,1.00000E+000,29
629,1317,-1.66181E+001,-1.26531E+000,2.28042E-001,3.06175E+000,-5.10543E-001,1.83108E-001,3.10942E+000,1.33049E-002,5.95779E-001,0,4.74368E+001,-8.74979E+000,9.98309E-001,5.73123E+000,-4.82705E+001,9.97613E-001,1.66002E-001,-6.92389E-002,-2.12101E-004,1.66002E-001,-6.92391E-002,-5.16596E-002,1.66761E-001,1.18049E+000,1.40728E-002,0.00000E+000,-1.14709E-002,9.35334E-001,0.00000E+000,-3.67414E-004,-7.02742E-002,1.00000E+000,29
1229,1297,3.03694E+001,-1.77449E+000,2.48445E-002,1.09545E+001,-4.49936E-002,2.47883E-002,1.09546E+001,1.52597E-002,4.18602E-001,0,1.63463E+002,-2.15412E+000,9.97583E-001,1.32380E+002,-2.98028E+001,9.94850E-001,1.84852E-001,-7.69037E-002,-1.40405E-004,1.84852E-001,-7.69038E-002,-3.07332E-002,1.85719E-001,1.20298E+000,-1.45026E-002,0.00000E+000,1.13218E-002,9.28088E-001,0.00000E+000,-7.07580E-003,-6.85437E-002,1.00000E+000,29
1229,1307,3.03796E+001,-1.17625E+000,-3.44207E-002,1.09544E+001,-9.38185E-002,-7.12490E-003,1.09548E+001,2.22825E-002,4.23166E-001,0,1.63599E+002,-2.89052E+000,9.97065E-001,1.32503E+002,-3.03675E+001,9.95696E-001,1.85558E-001,-7.69019E-002,-9.86894E-005,1.85558E-001,-7.69019E-002,-2.15442E-002,1.86462E-001,1.20382E+000,-1.44891E-002,0.00000E+000,1.13406E-002,9.28088E-001,0.00000E+000,-6.42768E-003,-6.85334E-002,1.00000E+000,29
619,1327,-1.73600E+001,-6.84509E-001,1.30942E-001,2.95746E+000,-5.52683E-001,1.35977E-001,3.01173E+000,9.45187E-003,5.46653E-001,0,4.59799E+001,-9.31710E+000,9.98340E-001,4.26679E+000,-4.92683E+001,9.98127E-001,1.62299E-001,-6.86223E-002,-6.35051E-004,1.62301E-001,-6.86240E-002,-1.57566E-001,1.62944E-001,1.17609E+000,1.72009E-002,0.00000E+000,-1.47344E-002,9.35850E-001,0.00000E+000,-1.26687E-003,-7.00557E-002,1.00000E+000,29
619,1337,-1.73420E+001,-9.10560E-002,6.97349E-002,2.96821E+000,-5.95103E-001,9.27662E-002,3.02870E+000,1.17767E-002,6.09949E-001,0,4.62710E+001,-9.91751E+000,9.96909E-001,4.51236E+000,-4.99869E+001,9.96715E-001,1.59803E-001,-6.86216E-002,-7.14371E-004,1.59805E-001,-6.86238E-002,-1.79184E-001,1.60335E-001,1.17316E+000,1.71680E-002,0.00000E+000,-1.48479E-002,9.35849E-001,0.00000E+000,-1.93453E-003,-7.00632E-002,1.00000E+000,29
619,1347,-1.73227E+001,5.08310E-001,2.95240E-002,2.97732E+000,-6.32705E-001,5.34603E-002,3.04428E+000,1.43011E-002,5.91552E-001,0,4.65227E+001,-1.04321E+001,9.96555E-001,4.83878E+000,-5.07013E+001,9.96299E-001,1.57301E-001,-6.86217E-002,-7.99085E-004,1.57304E-001,-6.86245E-002,-2.02651E-001,1.57730E-001,1.17023E+000,1.71223E-002,0.00000E+000,-1.49614E-002,9.35847E-001,0.00000E+000,-2.60184E-003,-7.00736E-002,1.00000E+000,29
619,1357,-1.72946E+001,1.11326E+000,3.28484E-002,2.98841E+000,-6.70857E-001,1.76012E-002,3.06283E+000,1.28457E-002,5.74542E-001,0,4.67914E+001,-1.09622E+001,9.97893E-001,5.42507E+000,-5.14250E+001,9.97744E-001,1.54782E-001,-6.86235E-002,-8.97096E-004,1.54785E-001,-6.86271E-002,-2.30069E-001,1.55116E-001,1.16729E+000,1.70460E-002,0.00000E+000,-1.50754E-002,9.35844E-001,0.00000E+000,-3.27202E-003,-7.00910E-002,1.00000E+000,29
619,1317,-1.73704E+001,-1.26195E+000,2.27963E-001,2.94923E+000,-5.00213E-001,1.84524E-001,2.99704E+000,1.61009E-002,5.82307E-001,0,4.57075E+001,-8.59665E+000,9.97622E-001,4.24502E+000,-4.83293E+001,9.97178E-001,1.64775E-001,-6.86243E-002,-5.65883E-004,1.64776E-001,-6.86256E-002,-1.38914E-001,1.65541E-001,1.17900E+000,1.72104E-002,0.00000E+000,-1.46214E-002,9.35851E-001,0.00000E+000,-6.02753E-004,-7.00535E-002,1.00000E+000,29
1239,1307,3.11751E+001,-1.16686E+000,-5.29843E-002,1.10846E+001,-8.91452E-002,-2.24535E-002,1.10850E+001,2.28803E-002,4.26402E-001,0,1.65469E+002,-2.81955E+000,9.96883E-001,1.34933E+002,-3.00853E+001,9.95235E-001,1.85001E-001,-7.62191E-002,2.09011E-004,1.85001E-001,-7.62193E-002,4.58442E-002,1.85954E-001,1.20316E+000,-1.33993E-002,0.00000E+000,1.10811E-002,9.28683E-001,0.00000E+000,-6.27804E-003,-6.78645E-002,1.00000E+000,29
1239,1317,3.11870E+001,-5.61295E-001,-1.15575E-001,1.10802E+001,-1.33397E-001,-7.98546E-002,1.10813E+001,2.22133E-002,4.10693E-001,0,1.65640E+002,-3.43178E+000,9.97396E-001,1.35078E+002,-3.05372E+001,9.96347E-001,1.85773E-001,-7.62105E-002,3.39720E-004,1.85773E-001,-7.62110E-002,7.42966E-002,1.86769E-001,1.20409E+000,-1.33762E-002,0.00000E+000,1.12351E-002,9.28687E-001,0.00000E+000,-5.23683E-003,-6.78385E-002,1.00000E+000,29
1239,1327,3.12078E+001,3.64321E-002,-1.10792E-001,1.10728E+001,-1.95050E-001,-1.14224E-001,1.10751E+001,1.72102E-002,4.68544E-001,0,1.65660E+002,-4.34793E+000,9.97829E-001,1.35442E+002,-3.12225E+001,9.96823E-001,1.86551E-001,-7.61977E-002,4.78474E-004,1.86552E-001,-7.61985E-002,1.04337E-001,1.87591E-001,1.20502E+000,-1.33364E-002,0.00000E+000,1.13906E-002,9.28693E-001,0.00000E+000,-4.18453E-003,-6.77936E-002,1.00000E+000,29
1239,1337,3.12320E+001,6.52160E-001,-1.02378E-001,1.10671E+001,-2.34403E-001,-1.52257E-001,1.10706E+001,1.43757E-002,3.99378E-001,0,1.65707E+002,-4.93895E+000,9.97258E-001,1.35867E+002,-3.17021E+001,9.95292E-001,1.87322E-001,-7.61842E-002,6.17251E-004,1.87324E-001,-7.61856E-002,1.34212E-001,1.88407E-001,1.20595E+000,-1.32942E-002,0.00000E+000,1.15451E-002,9.28700E-001,0.00000E+000,-3.13982E-003,-6.77459E-002,1.00000E+000,29
1239,1297,3.11717E+001,-1.76197E+000,2.27506E-002,1.10906E+001,-3.75520E-002,2.19000E-002,1.10907E+001,1.43300E-002,4.46908E-001,0,1.65363E+002,-2.07931E+000,9.97715E-001,1.34938E+002,-2.94957E+001,9.95664E-001,1.84229E-001,-7.62252E-002,8.25346E-005,1.84229E-001,-7.62252E-002,1.81563E-002,1.85141E-001,1.20224E+000,-1.34127E-002,0.00000E+000,1.09275E-002,9.28681E-001,0.00000E+000,-7.31675E-003,-6.78796E-002,1.00000E+000,29
609,1347,-1.80685E+001,5.07565E-001,3.38488E-002,2.87044E+000,-6.28345E-001,5.59730E-002,2.93894E+000,1.80395E-002,6.10730E-001,0,4.48748E+001,-1.03599E+001,9.96224E-001,3.46689E+000,-5.08216E+001,9.96029E-001,1.55789E-001,-6.72834E-002,-1.06616E-003,1.55794E-001,-6.72885E-002,-2.73834E-001,1.56275E-001,1.16842E+000,2.00202E-002,0.00000E+000,-1.78330E-002,9.36994E-001,0.00000E+000,-2.41639E-003,-6.92079E-002,1.00000E+000,29
609,1357,-1.80424E+001,1.11879E+000,3.00740E-002,2.88053E+000,-6.59107E-001,1.83690E-002,2.95503E+000,1.41897E-002,5.91009E-001,0,4.51308E+001,-1.07702E+001,9.97744E-001,4.00418E+000,-5.14369E+001,9.97389E-001,1.53209E-001,-6.72840E-002,-1.12585E-003,1.53214E-001,-6.72898E-002,-2.92546E-001,1.53592E-001,1.16541E+000,1.99473E-002,0.00000E+000,-1.78711E-002,9.36993E-001,0.00000E+000,-3.29692E-003,-6.92293E-002,1.00000E+000,29
609,1317,-1.81280E+001,-1.26526E+000,2.24441E-001,2.83030E+000,-4.97955E-001,1.79195E-001,2.87935E+000,1.58811E-002,5.93105E-001,0,4.38958E+001,-8.55213E+000,9.98060E-001,2.66950E+000,-4.84721E+001,9.97135E-001,1.63450E-001,-6.72859E-002,-9.42478E-004,1.63454E-001,-6.72897E-002,-2.34028E-001,1.64302E-001,1.17740E+000,2.01093E-002,0.00000E+000,-1.77192E-002,9.36995E-001,0.00000E+000,2.14101E-004,-6.91818E-002,1.00000E+000,29
609,1327,-1.81123E+001,-6.89096E-001,1.28942E-001,2.84440E+000,-5.52754E-001,1.35064E-001,2.90076E+000,1.12784E-002,5.98444E-001,0,4.42478E+001,-9.31393E+000,9.98455E-001,2.77642E+000,-4.94146E+001,9.97744E-001,1.60908E-001,-6.72843E-002,-9.74343E-004,1.60912E-001,-6.72885E-002,-2.44638E-001,1.61629E-001,1.17441E+000,2.01018E-002,0.00000E+000,-1.77571E-002,9.36995E-001,0.00000E+000,-6.61451E-004,-6.91840E-002,1.00000E+000,29
609,1337,-1.80908E+001,-8.99046E-002,6.94388E-002,2.85865E+000,-5.87737E-001,9.30856E-002,2.91993E+000,1.44040E-002,5.87973E-001,0,4.45874E+001,-9.78740E+000,9.96911E-001,3.08161E+000,-5.00870E+001,9.96437E-001,1.58356E-001,-6.72836E-002,-1.01709E-003,1.58361E-001,-6.72882E-002,-2.58258E-001,1.58955E-001,1.17142E+000,2.00684E-002,0.00000E+000,-1.77950E-002,9.36995E-001,0.00000E+000,-1.53737E-003,-6.91938E-002,1.00000E+000,29
1249,1297,3.19775E+001,-1.74326E+000,2.80675E-002,1.12280E+001,-2.59238E-002,2.07486E-002,1.12281E+001,1.64374E-002,4.77895E-001,0,1.67269E+002,-1.92784E+000,9.97923E-001,1.37563E+002,-2.91069E+001,9.96340E-001,1.83136E-001,-7.54716E-002,2.69745E-004,1.83136E-001,-7.54719E-002,5.97631E-002,1.84077E-001,1.20095E+000,-1.18652E-002,0.00000E+000,1.01458E-002,9.29368E-001,0.00000E+000,-7.98770E-003,-6.75338E-002,1.00000E+000,29
1249,1307,3.19740E+001,-1.15448E+000,-6.47755E-002,1.12176E+001,-8.21723E-002,-3.12680E-002,1.12179E+001,2.06303E-002,4.31339E-001,0,1.67348E+002,-2.71881E+000,9.97801E-001,1.37429E+002,-2.97701E+001,9.95770E-001,1.84118E-001,-7.54582E-002,5.97458E-004,1.84119E-001,-7.54596E-002,1.31875E-001,1.85114E-001,1.20212E+000,-1.18526E-002,0.00000E+000,1.06420E-002,9.29373E-001,0.00000E+000,-6.39060E-003,-6.75166E-002,1.00000E+000,29
1249,1317,3.19811E+001,-5.55748E-001,-1.17058E-001,1.12093E+001,-1.32581E-001,-7.45241E-002,1.12104E+001,1.99252E-002,3.86131E-001,0,1.67407E+002,-3.44656E+000,9.96166E-001,1.37511E+002,-3.03645E+001,9.94755E-001,1.85099E-001,-7.54363E-002,9.32310E-004,1.85102E-001,-7.54396E-002,2.05026E-001,1.86154E-001,1.20329E+000,-1.18249E-002,0.00000E+000,1.11398E-002,9.29385E-001,0.00000E+000,-4.78825E-003,-6.74787E-002,1.00000E+000,29
1249,1327,3.19987E+001,5.81639E-002,-1.30285E-001,1.12013E+001,-1.74916E-001,-1.16685E-001,1.12033E+001,1.87363E-002,4.46251E-001,0,1.67447E+002,-4.08151E+000,9.96450E-001,1.37803E+002,-3.07560E+001,9.95646E-001,1.86083E-001,-7.54041E-002,1.27678E-003,1.86089E-001,-7.54104E-002,2.79752E-001,1.87200E-001,1.20447E+000,-1.17789E-002,0.00000E+000,1.16412E-002,9.29405E-001,0.00000E+000,-3.17419E-003,-6.74159E-002,1.00000E+000,29
1249,1337,3.20265E+001,6.74358E-001,-1.10267E-001,1.11962E+001,-2.17786E-001,-1.53287E-001,1.11994E+001,1.47612E-002,4.18491E-001,0,1.67495E+002,-4.71567E+000,9.98050E-001,1.38295E+002,-3.12313E+001,9.97569E-001,1.87065E-001,-7.53647E-002,1.62689E-003,1.87075E-001,-7.53748E-002,3.55176E-001,1.88247E-001,1.20565E+000,-1.17198E-002,0.00000E+000,1.21435E-002,9.29430E-001,0.00000E+000,-1.55744E-003,-6.73350E-002,1.00000E+000,29
1259,1327,3.27977E+001,7.10632E-002,-1.36358E-001,1.13339E+001,-1.66643E-001,-1.19283E-001,1.13357E+001,1.47260E-002,4.05996E-001,0,1.69291E+002,-3.97183E+000,9.98332E-001,1.40311E+002,-3.04647E+001,9.97929E-001,1.85870E-001,-7.49470E-002,1.94949E-003,1.85884E-001,-7.49616E-002,4.28228E-001,1.87040E-001,1.20422E+000,-1.09002E-002,0.00000E+000,1.21301E-002,9.29794E-001,0.00000E+000,-1.49748E-003,-6.69160E-002,1.00000E+000,29
1259,1337,3.28279E+001,6.85193E-001,-1.14437E-001,1.13305E+001,-2.12358E-001,-1.55618E-001,1.13336E+001,1.37493E-002,3.96746E-001,0,1.69365E+002,-4.65528E+000,9.98836E-001,1.40840E+002,-3.09653E+001,9.98784E-001,1.86920E-001,-7.48914E-002,2.42669E-003,1.86943E-001,-7.49139E-002,5.31005E-001,1.88167E-001,1.20549E+000,-1.08354E-002,0.00000E+000,1.28296E-002,9.29829E-001,0.00000E+000,7.42799E-004,-6.68017E-002,1.00000E+000,29
599,1347,-1.88068E+001,5.19242E-001,4.29069E-002,2.77019E+000,-6.11539E-001,6.02355E-002,2.83752E+000,1.77620E-002,6.34071E-001,0,4.33199E+001,-1.01070E+001,9.97745E-001,2.23166E+000,-5.07585E+001,9.97795E-001,1.55003E-001,-6.73003E-002,-8.07377E-004,1.55006E-001,-6.73032E-002,-2.08087E-001,1.55453E-001,1.16746E+000,2.23056E-002,0.00000E+000,-1.92029E-002,9.36867E-001,0.00000E+000,-2.17021E-003,-6.79002E-002,1.00000E+000,29
599,1357,-1.87768E+001,1.11834E+000,3.51054E-002,2.78489E+000,-6.54111E-001,2.13997E-002,2.86075E+000,1.17597E-002,6.09368E-001,0,4.36542E+001,-1.06929E+001,9.98187E-001,2.81660E+000,-5.15552E+001,9.98022E-001,1.52579E-001,-6.72986E-002,-5.85238E-004,1.52581E-001,-6.73002E-002,-1.52500E-001,1.52934E-001,1.16463E+000,2.22400E-002,0.00000E+000,-1.87155E-002,9.36879E-001,0.00000E+000,-3.10505E-003,-6.79220E-002,1.00000E+000,29
1259,1287,3.27796E+001,-2.32182E+000,1.11917E-001,1.13669E+001,3.57040E-002,5.17570E-002,1.13671E+001,1.70573E-002,4.13692E-001,0,1.69043E+002,-1.00980E+000,9.96975E-001,1.40195E+002,-2.82287E+001,9.93430E-001,1.81642E-001,-7.50528E-002,1.18931E-004,1.81642E-001,-7.50529E-002,2.65460E-002,1.82553E-001,1.19919E+000,-1.09991E-002,0.00000E+000,9.35778E-003,9.29739E-001,0.00000E+000,-1.03772E-002,-6.70907E-002,1.00000E+000,29
1259,1297,3.27730E+001,-1.73369E+000,-3.97355E-004,1.13590E+001,-2.00406E-002,1.45342E-003,1.13590E+001,1.54535E-002,4.22306E-001,0,1.69161E+002,-1.80113E+000,9.97375E-001,1.39991E+002,-2.88323E+001,9.94564E-001,1.82705E-001,-7.50424E-002,5.66401E-004,1.82707E-001,-7.50437E-002,1.25907E-001,1.83675E-001,1.20044E+000,-1.09963E-002,0.00000E+000,1.00486E-002,9.29741E-001,0.00000E+000,-8.16457E-003,-6.70858E-002,1.00000E+000,29
1259,1307,3.27730E+001,-1.13900E+000,-8.21814E-002,1.13507E+001,-7.20698E-002,-4.41140E-002,1.13510E+001,1.51733E-002,4.24615E-001,0,1.69242E+002,-2.55370E+000,9.97836E-001,1.39926E+002,-2.94007E+001,9.96218E-001,1.83764E-001,-7.50223E-002,1.01997E-003,1.83768E-001,-7.50263E-002,2.25820E-001,1.84796E-001,1.20170E+000,-1.09803E-002,0.00000E+000,1.07406E-002,9.29749E-001,0.00000E+000,-5.94800E-003,-6.70576E-002,1.00000E+000,29
599,1327,-1.88606E+001,-6.70978E-001,1.38577E-001,2.73360E+000,-5.30557E-001,1.37529E-001,2.78801E+000,1.27531E-002,6.07708E-001,0,4.25329E+001,-8.95965E+000,9.98312E-001,1.39232E+000,-4.92579E+001,9.97640E-001,1.59810E-001,-6.72941E-002,-1.27373E-003,1.59817E-001,-6.73012E-002,-3.21334E-001,1.60479E-001,1.17308E+000,2.23794E-002,0.00000E+000,-2.01741E-002,9.36855E-001,0.00000E+000,-3.07827E-004,-6.78758E-002,1.00000E+000,29
599,1337,-1.88377E+001,-8.09399E-002,6.97027E-002,2.75074E+000,-5.73149E-001,9.48080E-002,2.81141E+000,1.19609E-002,6.15711E-001,0,4.29215E+001,-9.56177E+000,9.97989E-001,1.68856E+000,-5.00435E+001,9.97991E-001,1.57416E-001,-6.72991E-002,-1.03605E-003,1.57420E-001,-6.73039E-002,-2.64155E-001,1.57971E-001,1.17027E+000,2.23547E-002,0.00000E+000,-1.96896E-002,9.36859E-001,0.00000E+000,-1.23688E-003,-6.78839E-002,1.00000E+000,29
1259,1317,3.27811E+001,-5.37149E-001,-1.23442E-001,1.13430E+001,-1.20335E-001,-7.74891E-002,1.13439E+001,1.53874E-002,4.27660E-001,0,1.69266E+002,-3.28519E+000,9.98230E-001,1.40035E+002,-2.99446E+001,9.97154E-001,1.84819E-001,-7.49915E-002,1.48036E-003,1.84827E-001,-7.50000E-002,3.26448E-001,1.85918E-001,1.20296E+000,-1.09497E-002,0.00000E+000,1.14343E-002,9.29766E-001,0.00000E+000,-3.72614E-003,-6.70035E-002,1.00000E+000,29
599,1317,-1.88839E+001,-1.25999E+000,2.30873E-001,2.71170E+000,-4.89583E-001,1.77429E-001,2.76125E+000,1.60340E-002,5.75228E-001,0,4.20751E+001,-8.38084E+000,9.98096E-001,1.15836E+000,-4.85185E+001,9.97797E-001,1.62197E-001,-6.72859E-002,-1.51895E-003,1.62207E-001,-6.72960E-002,-3.79220E-001,1.62988E-001,1.17588E+000,2.23855E-002,0.00000E+000,-2.06583E-002,9.36854E-001,0.00000E+000,6.20779E-004,-6.78738E-002,1.00000E+000,29
589,1347,-1.95553E+001,5.30973E-001,4.47791E-002,2.66010E+000,-5.94188E-001,6.18362E-002,2.72635E+000,1.27497E-002,6.36635E-001,0,4.16170E+001,-9.82507E+000,9.98093E-001,8.25685E-001,-5.06911E+001,9.98048E-001,1.54301E-001,-6.70001E-002,-1.32933E-004,1.54301E-001,-6.70002E-002,-3.44168E-002,1.54746E-001,1.16657E+000,2.54920E-002,0.00000E+000,-2.05050E-002,9.37042E-001,0.00000E+000,-2.11746E-003,-6.66496E-002,1.00000E+000,29
589,1357,-1.95206E+001,1.12935E+000,4.36145E-002,2.67903E+000,-6.38491E-001,2.63187E-002,2.75419E+000,9.97987E-003,6.29168E-001,0,4.20082E+001,-1.04434E+001,9.98378E-001,1.50177E+000,-5.15061E+001,9.98657E-001,1.51833E-001,-6.69992E-002,9.15614E-005,1.51833E-001,-6.69993E-002,2.39731E-002,1.52181E-001,1.16370E+000,2.54236E-002,0.00000E+000,-2.00267E-002,9.37053E-001,0.00000E+000,-2.93121E-003,-6.66690E-002,1.00000E+000,29
589,1337,-1.95815E+001,-7.41541E-002,7.56272E-002,2.64431E+000,-5.61457E-001,9.47292E-002,2.70492E+000,9.00664E-003,6.13245E-001,0,4.12817E+001,-9.36812E+000,9.98963E-001,3.64618E-001,-5.00604E+001,9.98894E-001,1.56755E-001,-6.69973E-002,-3.66407E-004,1.56756E-001,-6.69979E-002,-9.38246E-002,1.57306E-001,1.16943E+000,2.55372E-002,0.00000E+000,-2.09818E-002,9.37034E-001,0.00000E+000,-1.30616E-003,-6.66368E-002,1.00000E+000,29
589,1327,-1.95975E+001,-6.49555E-001,1.49979E-001,2.63414E+000,-5.05035E-001,1.44267E-001,2.68599E+000,1.65889E-002,6.81400E-001,0,4.09809E+001,-8.59164E+000,9.98982E-001,1.91807E-001,-4.90209E+001,9.97930E-001,1.59188E-001,-6.69913E-002,-6.06518E-004,1.59190E-001,-6.69929E-002,-1.53642E-001,1.59853E-001,1.17228E+000,2.55628E-002,0.00000E+000,-2.14560E-002,9.37030E-001,0.00000E+000,-4.99479E-004,-6.66296E-002,1.00000E+000,29
1269,1327,3.36038E+001,8.71126E-002,-1.32721E-001,1.14726E+001,-1.57327E-001,-1.13709E-001,1.14742E+001,1.29547E-002,4.10121E-001,0,1.71186E+002,-3.85830E+000,9.98623E-001,1.42944E+002,-3.01231E+001,9.97978E-001,1.85756E-001,-7.42765E-002,2.54877E-003,1.85781E-001,-7.43015E-002,5.61527E-001,1.87017E-001,1.20409E+000,-9.89313E-003,0.00000E+000,1.24346E-002,9.30277E-001,0.00000E+000,-6.13707E-004,-6.46416E-002,1.00000E+000,29
1269,1337,3.36396E+001,6.93165E-001,-1.11969E-001,1.14738E+001,-2.11175E-001,-1.54528E-001,1.14767E+001,1.28440E-002,3.93104E-001,0,1.71349E+002,-4.66387E+000,9.98553E-001,1.43558E+002,-3.07485E+001,9.97131E-001,1.86929E-001,-7.42052E-002,3.14349E-003,1.86967E-001,-7.42431E-002,6.89583E-001,1.88282E-001,1.20552E+000,-9.81823E-003,0.00000E+000,1.33425E-002,9.30325E-001,0.00000E+000,1.79395E-003,-6.45147E-002,1.00000E+000,29
589,1317,-1.96258E+001,-1.24075E+000,2.48899E-001,2.60694E+000,-4.66243E-001,1.89059E-001,2.65504E+000,1.35009E-002,5.85897E-001,0,4.04286E+001,-8.03229E+000,9.97456E-001,-9.81794E-002,-4.83589E+001,9.96202E-001,1.61617E-001,-6.69820E-002,-8.55514E-004,1.61620E-001,-6.69852E-002,-2.14421E-001,1.62407E-001,1.17513E+000,2.55676E-002,0.00000E+000,-2.19307E-002,9.37029E-001,0.00000E+000,3.08205E-004,-6.66282E-002,1.00000E+000,29
1269,1317,3.35926E+001,-5.19122E-001,-1.16219E-001,1.14850E+001,-1.08948E-001,-7.66188E-002,1.14857E+001,1.32221E-002,4.00708E-001,0,1.71225E+002,-3.13037E+000,9.98471E-001,1.42759E+002,-2.95963E+001,9.97619E-001,1.84580E-001,-7.43285E-002,1.96537E-003,1.84595E-001,-7.43434E-002,4.34898E-001,1.85755E-001,1.20268E+000,-9.94423E-003,0.00000E+000,1.15304E-002,9.30244E-001,0.00000E+000,-3.01183E-003,-6.47282E-002,1.00000E+000,29
1269,1307,3.35812E+001,-1.12289E+000,-7.20015E-002,1.14895E+001,-6.28165E-002,-4.02636E-002,1.14898E+001,1.41725E-002,4.17462E-001,0,1.71142E+002,-2.43902E+000,9.97701E-001,1.42602E+002,-2.90805E+001,9.96564E-001,1.83401E-001,-7.43668E-002,1.39075E-003,1.83408E-001,-7.43743E-002,3.09120E-001,1.84497E-001,1.20127E+000,-9.97874E-003,0.00000E+000,1.06301E-002,9.30222E-001,0.00000E+000,-5.39951E-003,-6.47867E-002,1.00000E+000,29
1269,1297,3.35732E+001,-1.72333E+000,-5.47377E-003,1.14924E+001,-1.52864E-002,-6.43816E-004,1.14924E+001,1.51214E-002,4.04160E-001,0,1.71011E+002,-1.73100E+000,9.97415E-001,1.42525E+002,-2.85766E+001,9.96050E-001,1.82216E-001,-7.43958E-002,8.20906E-004,1.82218E-001,-7.43984E-002,1.83288E-001,1.83237E-001,1.19986E+000,-1.00022E-002,0.00000E+000,9.73077E-003,9.30207E-001,0.00000E+000,-7.78468E-003,-6.48265E-002,1.00000E+000,29
1269,1287,3.35833E+001,-2.31440E+000,1.14329E-001,1.15017E+001,3.62745E-002,4.88289E-002,1.15019E+001,1.99511E-002,3.78172E-001,0,1.70914E+002,-9.87872E-001,9.97765E-001,1.42792E+002,-2.80445E+001,9.95343E-001,1.81027E-001,-7.44043E-002,2.63398E-004,1.81027E-001,-7.44045E-002,5.90826E-002,1.81980E-001,1.19846E+000,-1.00005E-002,0.00000E+000,8.83487E-003,9.30208E-001,0.00000E+000,-1.01607E-002,-6.48236E-002,1.00000E+000,29
579,1347,-2.02964E+001,5.38176E-001,4.92960E-002,2.55631E+000,-5.82233E-001,6.18479E-002,2.62251E+000,1.06715E-002,6.36637E-001,0,4.00157E+001,-9.61983E+000,9.98181E-001,-4.55416E-001,-5.06993E+001,9.98460E-001,1.53036E-001,-6.64792E-002,6.00308E-004,1.53038E-001,-6.64809E-002,1.56685E-001,1.53476E-001,1.16502E+000,2.87396E-002,0.00000E+000,-2.17274E-002,9.37456E-001,0.00000E+000,-2.69557E-003,-6.59004E-002,1.00000E+000,29
579,1357,-2.02553E+001,1.14566E+000,5.16452E-002,2.58151E+000,-6.17752E-001,2.79771E-002,2.65454E+000,1.08118E-002,6.47394E-001,0,4.04978E+001,-1.01101E+001,9.98828E-001,3.32408E-001,-5.13743E+001,9.99105E-001,1.50379E-001,-6.64793E-002,8.81131E-004,1.50382E-001,-6.64829E-002,2.32798E-001,1.50718E-001,1.16194E+000,2.86656E-002,0.00000E+000,-2.11407E-002,9.37470E-001,0.00000E+000,-3.65929E-003,-6.59235E-002,1.00000E+000,29
579,1337,-2.03289E+001,-6.28211E-002,8.71463E-002,2.53407E+000,-5.45610E-001,1.01712E-001,2.59413E+000,1.08208E-002,6.25202E-001,0,3.95604E+001,-9.12248E+000,9.97818E-001,-9.92214E-001,-5.00134E+001,9.98258E-001,1.55675E-001,-6.64743E-002,3.09667E-004,1.55676E-001,-6.64748E-002,7.98676E-002,1.56228E-001,1.16810E+000,2.87873E-002,0.00000E+000,-2.23121E-002,9.37447E-001,0.00000E+000,-1.73529E-003,-6.58855E-002,1.00000E+000,29
579,1327,-2.03562E+001,-6.42164E-001,1.49154E-001,2.51318E+000,-4.93341E-001,1.42614E-001,2.56511E+000,1.14575E-002,6.81315E-001,0,3.91174E+001,-8.37613E+000,9.98773E-001,-1.37332E+000,-4.90134E+001,9.98061E-001,1.58290E-001,-6.64661E-002,1.35982E-005,1.58290E-001,-6.64661E-002,3.46652E-003,1.58966E-001,1.17115E+000,2.88172E-002,0.00000E+000,-2.28932E-002,9.37441E-001,0.00000E+000,-7.80894E-004,-6.58761E-002,1.00000E+000,29
579,1317,-2.03750E+001,-1.22452E+000,2.47208E-001,2.49570E+000,-4.47237E-001,1.88159E-001,2.54242E+000,1.66866E-002,6.59230E-001,0,3.87141E+001,-7.71846E+000,9.97528E-001,-1.51812E+000,-4.81739E+001,9.95826E-001,1.60895E-001,-6.64535E-002,-2.92083E-004,1.60896E-001,-6.64539E-002,-7.36098E-002,1.61705E-001,1.17421E+000,2.88232E-002,0.00000E+000,-2.34740E-002,9.37440E-001,0.00000E+000,1.73055E-004,-6.58742E-002,1.00000E+000,29
1279,1317,3.43909E+001,-5.11771E-001,-1.20162E-001,1.16168E+001,-1.05875E-001,-7.44329E-002,1.16175E+001,1.13391E-002,3.65742E-001,0,1.73033E+002,-3.10883E+000,9.98212E-001,1.45268E+002,-2.93955E+001,9.96937E-001,1.84136E-001,-7.33318E-002,2.39280E-003,1.84158E-001,-7.33541E-002,5.32423E-001,1.85423E-001,1.20216E+000,-8.73965E-003,0.00000E+000,1.13696E-002,9.31026E-001,0.00000E+000,-2.26128E-003,-6.21869E-002,1.00000E+000,29
1279,1327,3.44175E+001,1.01639E-001,-1.27649E-001,1.16180E+001,-1.49564E-001,-1.07945E-001,1.16195E+001,1.93244E-002,4.13231E-001,0,1.73175E+002,-3.77213E+000,9.97242E-001,1.45703E+002,-2.98083E+001,9.97123E-001,1.85472E-001,-7.32677E-002,3.08511E-003,1.85509E-001,-7.33045E-002,6.83041E-001,1.86864E-001,1.20377E+000,-8.67758E-003,0.00000E+000,1.24658E-002,9.31068E-001,0.00000E+000,3.27162E-004,-6.20871E-002,1.00000E+000,29
1279,1337,3.44508E+001,7.07083E-001,-1.06327E-001,1.16166E+001,-2.05574E-001,-1.47705E-001,1.16193E+001,1.54047E-002,4.17141E-001,0,1.73297E+002,-4.60256E+000,9.98086E-001,1.46275E+002,-3.04328E+001,9.97501E-001,1.86804E-001,-7.31838E-002,3.78817E-003,1.86859E-001,-7.32390E-002,8.34597E-001,1.88308E-001,1.20538E+000,-8.59231E-003,0.00000E+000,1.35655E-002,9.31126E-001,0.00000E+000,2.92371E-003,-6.19501E-002,1.00000E+000,29
1279,1307,3.43715E+001,-1.11474E+000,-8.53160E-002,1.16146E+001,-5.89276E-002,-4.29353E-002,1.16148E+001,1.29632E-002,4.20517E-001,0,1.72871E+002,-2.39862E+000,9.98136E-001,1.44975E+002,-2.88305E+001,9.96100E-001,1.82801E-001,-7.33789E-002,1.71332E-003,1.82812E-001,-7.33903E-002,3.83169E-001,1.83992E-001,1.20056E+000,-8.78199E-003,0.00000E+000,1.02821E-002,9.30997E-001,0.00000E+000,-4.82900E-003,-6.22549E-002,1.00000E+000,29
1279,1297,3.43711E+001,-1.70661E+000,-3.12541E-003,1.16217E+001,-3.33228E-003,-5.18096E-004,1.16217E+001,2.42829E-002,3.48385E-001,0,1.72781E+002,-1.56121E+000,9.97174E-001,1.45035E+002,-2.82571E+001,9.96017E-001,1.81456E-001,-7.34053E-002,1.04331E-003,1.81461E-001,-7.34096E-002,2.34543E-001,1.82560E-001,1.19896E+000,-8.80038E-003,0.00000E+000,9.19471E-003,9.30985E-001,0.00000E+000,-7.39649E-003,-6.22845E-002,1.00000E+000,29
1279,1287,3.43770E+001,-2.31778E+000,9.46547E-002,1.16307E+001,2.98940E-002,4.15062E-002,1.16308E+001,2.21072E-002,2.76734E-001,0,1.72726E+002,-1.05131E+000,9.97484E-001,1.45210E+002,-2.80159E+001,9.95277E-001,1.80107E-001,-7.34223E-002,3.79488E-004,1.80108E-001,-7.34228E-002,8.57612E-002,1.81129E-001,1.19737E+000,-8.80809E-003,0.00000E+000,8.11072E-003,9.30979E-001,0.00000E+000,-9.95598E-003,-6.22969E-002,1.00000E+000,29
569,1347,-2.10361E+001,5.55743E-001,5.67039E-002,2.45384E+000,-5.60009E-001,6.64265E-002,2.51781E+000,1.13176E-002,6.51283E-001,0,3.84185E+001,-9.26626E+000,9.97938E-001,-1.69816E+000,-5.05477E+001,9.97936E-001,1.52218E-001,-6.58582E-002,1.22449E-003,1.52225E-001,-6.58651E-002,3.21701E-001,1.52684E-001,1.16398E+000,3.21238E-002,0.00000E+000,-2.32932E-002,9.37962E-001,0.00000E+000,-2.81181E-003,-6.52627E-002,1.00000E+000,29
569,1357,-2.09982E+001,1.15502E+000,5.11445E-002,2.47732E+000,-6.01388E-001,3.23094E-002,2.54947E+000,1.06395E-002,6.37799E-001,0,3.88762E+001,-9.85104E+000,9.98519E-001,-9.82536E-001,-5.13459E+001,9.98383E-001,1.49415E-001,-6.58619E-002,1.62644E-003,1.49427E-001,-6.58741E-002,4.32844E-001,1.49775E-001,1.16073E+000,3.20530E-002,0.00000E+000,-2.24773E-002,9.37980E-001,0.00000E+000,-4.01430E-003,-6.52889E-002,1.00000E+000,29
569,1327,-2.10982E+001,-6.39211E-001,1.46676E-001,2.40927E+000,-4.85023E-001,1.43511E-001,2.46179E+000,1.70251E-002,6.65704E-001,0,3.75127E+001,-8.22087E+000,9.99015E-001,-2.68384E+000,-4.90760E+001,9.98568E-001,1.57773E-001,-6.58367E-002,4.01125E-004,1.57774E-001,-6.58374E-002,1.02780E-001,1.58492E-001,1.17046E+000,3.22096E-002,0.00000E+000,-2.49186E-002,9.37941E-001,0.00000E+000,-4.16072E-004,-6.52309E-002,1.00000E+000,29
569,1337,-2.10691E+001,-4.42192E-002,9.15902E-002,2.43036E+000,-5.23345E-001,9.95782E-002,2.48806E+000,1.05788E-002,6.23522E-001,0,3.79617E+001,-8.74096E+000,9.98181E-001,-2.25157E+000,-4.98455E+001,9.98217E-001,1.55006E-001,-6.58484E-002,8.13434E-004,1.55009E-001,-6.58514E-002,2.11024E-001,1.55592E-001,1.16723E+000,3.21705E-002,0.00000E+000,-2.41075E-002,9.37951E-001,0.00000E+000,-1.61164E-003,-6.52454E-002,1.00000E+000,29
1289,1327,3.52114E+001,1.07277E-001,-1.40839E-001,1.17461E+001,-1.48419E-001,-1.09620E-001,1.17476E+001,1.76802E-002,3.99118E-001,0,1.74945E+002,-3.77077E+000,9.96645E-001,1.48134E+002,-2.96025E+001,9.95751E-001,1.85121E-001,-7.19407E-002,3.59267E-003,1.85171E-001,-7.19909E-002,8.00552E-001,1.86692E-001,1.20336E+000,-7.11867E-003,0.00000E+000,1.22005E-002,9.32157E-001,0.00000E+000,9.98796E-004,-5.93525E-002,1.00000E+000,29
1289,1337,3.52482E+001,7.21916E-001,-1.13642E-001,1.17481E+001,-1.95677E-001,-1.42824E-001,1.17506E+001,1.68938E-002,4.12311E-001,0,1.75085E+002,-4.48311E+000,9.97795E-001,1.48765E+002,-3.00904E+001,9.96986E-001,1.86676E-001,-7.18486E-002,4.37633E-003,1.86750E-001,-7.19226E-002,9.69540E-001,1.88385E-001,1.20525E+000,-7.01903E-003,0.00000E+000,1.34406E-002,9.32223E-001,0.00000E+000,3.75724E-003,-5.92069E-002,1.00000E+000,29
569,1317,-2.11245E+001,-1.21329E+000,2.43431E-001,2.38271E+000,-4.30969E-001,1.78508E-001,2.42794E+000,1.89307E-002,6.44604E-001,0,3.69930E+001,-7.43346E+000,9.97839E-001,-2.94460E+000,-4.81053E+001,9.96006E-001,1.60528E-001,-6.58149E-002,-2.73377E-005,1.60528E-001,-6.58149E-002,-6.92017E-003,1.61393E-001,1.17369E+000,3.22085E-002,0.00000E+000,-2.57291E-002,9.37941E-001,0.00000E+000,7.78524E-004,-6.52313E-002,1.00000E+000,29
1289,1317,3.51871E+001,-5.04797E-001,-1.22816E-001,1.17448E+001,-1.06989E-001,-7.44752E-002,1.17455E+001,1.80528E-002,4.42726E-001,0,1.74791E+002,-3.15058E+000,9.98270E-001,1.47747E+002,-2.91480E+001,9.95695E-001,1.83569E-001,-7.20052E-002,2.82814E-003,1.83600E-001,-7.20365E-002,6.33922E-001,1.85013E-001,1.20149E+000,-7.18441E-003,0.00000E+000,1.09708E-002,9.32114E-001,0.00000E+000,-1.73651E-003,-5.94485E-002,1.00000E+000,29
1289,1287,3.51699E+001,-2.29450E+000,8.06566E-002,1.17567E+001,4.75474E-002,3.35803E-002,1.17568E+001,2.28220E-002,3.88509E-001,0,1.74478E+002,-8.24585E-001,9.97591E-001,1.47625E+002,-2.74780E+001,9.94764E-001,1.78861E-001,-7.21041E-002,5.85295E-004,1.78863E-001,-7.21054E-002,1.33623E-001,1.79978E-001,1.19589E+000,-7.26776E-003,0.00000E+000,7.29417E-003,9.32059E-001,0.00000E+000,-9.91508E-003,-5.95703E-002,1.00000E+000,29
1289,1297,3.51675E+001,-1.69834E+000,-7.65022E-003,1.17476E+001,-4.75791E-004,-1.19830E-002,1.17476E+001,2.52421E-002,3.05001E-001,0,1.74551E+002,-1.51192E+000,9.97773E-001,1.47517E+002,-2.80486E+001,9.95601E-001,1.80433E-001,-7.20789E-002,1.32613E-003,1.80440E-001,-7.20859E-002,3.00892E-001,1.81651E-001,1.19774E+000,-7.24871E-003,0.00000E+000,8.51374E-003,9.32072E-001,0.00000E+000,-7.20220E-003,-5.95425E-002,1.00000E+000,29
1289,1307,3.51754E+001,-1.10574E+000,-7.97575E-002,1.17492E+001,-5.68915E-002,-3.98444E-002,1.17494E+001,1.54832E-002,4.28032E-001,0,1.74709E+002,-2.38976E+000,9.98990E-001,1.47586E+002,-2.86045E+001,9.97214E-001,1.82007E-001,-7.20534E-002,2.07190E-003,1.82024E-001,-7.20703E-002,4.67215E-001,1.83333E-001,1.19962E+000,-7.23036E-003,0.00000E+000,9.74263E-003,9.32084E-001,0.00000E+000,-4.46860E-003,-5.95157E-002,1.00000E+000,29
559,1327,-2.18315E+001,-6.30481E-001,1.36015E-001,2.31269E+000,-4.72548E-001,1.30613E-001,2.36408E+000,2.98224E-002,7.82002E-001,0,3.60546E+001,-8.02533E+000,9.99250E-001,-3.88136E+000,-4.89657E+001,9.98295E-001,1.57175E-001,-6.56597E-002,1.02448E-003,1.57180E-001,-6.56644E-002,2.63410E-001,1.57887E-001,1.16966E+000,3.58313E-002,0.00000E+000,-2.66756E-002,9.37993E-001,0.00000E+000,-9.43709E-005,-6.41242E-002,1.00000E+000,29
559,1337,-2.18094E+001,-3.10891E-002,8.78700E-002,2.32715E+000,-5.05318E-001,9.51173E-002,2.38328E+000,9.38261E-003,6.43834E-001,0,3.63762E+001,-8.43820E+000,9.99223E-001,-3.53268E+000,-4.97332E+001,9.99047E-001,1.54482E-001,-6.56704E-002,1.34298E-003,1.54490E-001,-6.56786E-002,3.49500E-001,1.55067E-001,1.16651E+000,3.57950E-002,0.00000E+000,-2.60452E-002,9.38000E-001,0.00000E+000,-1.38866E-003,-6.41391E-002,1.00000E+000,29
559,1347,-2.17817E+001,5.68634E-001,5.50629E-002,2.34530E+000,-5.40463E-001,6.34307E-002,2.40761E+000,1.35955E-002,6.22142E-001,0,3.67450E+001,-8.94232E+000,9.98059E-001,-3.05399E+000,-5.04710E+001,9.97700E-001,1.51773E-001,-6.56794E-002,1.65889E-003,1.51785E-001,-6.56920E-002,4.37061E-001,1.52242E-001,1.16336E+000,3.57499E-002,0.00000E+000,-2.54132E-002,9.38009E-001,0.00000E+000,-2.68628E-003,-6.41577E-002,1.00000E+000,29
559,1357,-2.17405E+001,1.16806E+000,5.00944E-002,2.37282E+000,-5.80625E-001,3.36469E-002,2.44306E+000,1.18256E-002,6.12074E-001,0,3.72543E+001,-9.52487E+000,9.98104E-001,-2.28555E+000,-5.12681E+001,9.98134E-001,1.49043E-001,-6.56845E-002,1.96780E-003,1.49061E-001,-6.57026E-002,5.25008E-001,1.49410E-001,1.16020E+000,3.56849E-002,0.00000E+000,-2.47789E-002,9.38022E-001,0.00000E+000,-3.98860E-003,-6.41844E-002,1.00000E+000,29
559,1317,-2.18653E+001,-1.19400E+000,2.50311E-001,2.27818E+000,-4.08550E-001,1.80419E-001,2.32154E+000,2.86362E-002,6.72163E-001,0,3.53703E+001,-7.06810E+000,9.98807E-001,-4.19935E+000,-4.79137E+001,9.97652E-001,1.59859E-001,-6.56414E-002,6.89624E-004,1.59862E-001,-6.56435E-002,1.75219E-001,1.60711E-001,1.17280E+000,3.58280E-002,0.00000E+000,-2.73062E-002,9.37994E-001,0.00000E+000,1.20028E-003,-6.41255E-002,1.00000E+000,29
1299,1327,3.60135E+001,1.21967E-001,-1.38314E-001,1.18778E+001,-1.41158E-001,-1.10546E-001,1.18792E+001,2.21332E-002,4.10252E-001,0,1.76752E+002,-3.67952E+000,9.96955E-001,1.50715E+002,-2.92773E+001,9.95828E-001,1.84889E-001,-7.04517E-002,4.06751E-003,1.84953E-001,-7.05165E-002,9.12400E-001,1.86684E-001,1.20309E+000,-4.99993E-003,0.00000E+000,1.14550E-002,9.33401E-001,0.00000E+000,1.45118E-003,-5.64079E-002,1.00000E+000,29
1299,1337,3.60623E+001,7.33427E-001,-1.12285E-001,1.18904E+001,-1.93255E-001,-1.49468E-001,1.18929E+001,2.06095E-002,4.37986E-001,0,1.77073E+002,-4.45107E+000,9.96713E-001,1.51531E+002,-2.98020E+001,9.95371E-001,1.86704E-001,-7.03503E-002,4.92413E-003,1.86798E-001,-7.04446E-002,1.09702E+000,1.88669E-001,1.20530E+000,-4.87876E-003,0.00000E+000,1.28214E-002,9.33476E-001,0.00000E+000,4.31807E-003,-5.62504E-002,1.00000E+000,29
1299,1287,3.59752E+001,-2.28486E+000,8.98309E-002,1.18902E+001,4.83567E-002,3.30543E-002,1.18903E+001,1.64017E-002,4.51513E-001,0,1.76306E+002,-8.32339E-001,9.98071E-001,1.50264E+002,-2.72251E+001,9.96308E-001,1.77597E-001,-7.06164E-002,8.04537E-004,1.77599E-001,-7.06190E-002,1.85711E-001,1.78836E-001,1.19439E+000,-5.16917E-003,0.00000E+000,6.06128E-003,9.33296E-001,0.00000E+000,-9.86527E-003,-5.66279E-002,1.00000E+000,29
1299,1297,3.59788E+001,-1.69358E+000,1.03793E-002,1.18885E+001,-4.28660E-003,1.72418E-003,1.18885E+001,1.67513E-002,4.28531E-001,0,1.76433E+002,-1.64743E+000,9.98902E-001,1.50259E+002,-2.78584E+001,9.96893E-001,1.79429E-001,-7.05950E-002,1.60674E-003,1.79439E-001,-7.06053E-002,3.68183E-001,1.80792E-001,1.19655E+000,-5.15164E-003,0.00000E+000,7.40277E-003,9.33307E-001,0.00000E+000,-7.05071E-003,-5.66052E-002,1.00000E+000,29
1299,1307,3.59978E+001,-1.08688E+000,-4.03601E-002,1.18970E+001,-4.71447E-002,-2.01563E-002,1.18971E+001,3.23975E-002,4.79103E-001,0,1.76654E+002,-2.32668E+000,9.98492E-001,1.50527E+002,-2.82750E+001,9.96880E-001,1.81261E-001,-7.05593E-002,2.42125E-003,1.81284E-001,-7.05826E-002,5.50830E-001,1.82758E-001,1.19873E+000,-5.11622E-003,0.00000E+000,8.75326E-003,9.33329E-001,0.00000E+000,-4.21728E-003,-5.65591E-002,1.00000E+000,29
1299,1317,3.60055E+001,-4.84879E-001,-1.03699E-001,1.18892E+001,-9.60824E-002,-7.25259E-002,1.18899E+001,2.78570E-002,4.60212E-001,0,1.76765E+002,-3.01619E+000,9.97177E-001,1.50603E+002,-2.87742E+001,9.95644E-001,1.83081E-001,-7.05108E-002,3.24206E-003,1.83122E-001,-7.05522E-002,7.32341E-001,1.84722E-001,1.20091E+000,-5.06458E-003,0.00000E+000,1.01041E-002,9.33361E-001,0.00000E+000,-1.38309E-003,-5.64920E-002,1.00000E+000,29
559,1307,-2.18944E+001,-1.77563E+000,3.68366E-001,2.24662E+000,-3.63820E-001,2.22937E-001,2.28678E+000,1.41446E-002,6.54617E-001,0,3.47546E+001,-6.44991E+000,9.97643E-001,-4.43942E+000,-4.70990E+001,9.96593E-001,1.62534E-001,-6.56214E-002,3.51768E-004,1.62534E-001,-6.56220E-002,8.83379E-002,1.63535E-001,1.17594E+000,3.58163E-002,0.00000E+000,-2.79366E-002,9.37996E-001,0.00000E+000,2.49469E-003,-6.41303E-002,1.00000E+000,29
549,1347,-2.25153E+001,5.85488E-001,5.51062E-002,2.24848E+000,-5.19241E-001,6.22715E-002,2.30850E+000,1.20524E-002,6.50960E-001,0,3.52476E+001,-8.59125E+000,9.97888E-001,-4.21422E+000,-5.03069E+001,9.97612E-001,1.51384E-001,-6.53925E-002,2.15199E-003,1.51405E-001,-6.54138E-002,5.68714E-001,1.51871E-001,1.16280E+000,3.91567E-002,0.00000E+000,-2.72520E-002,9.38154E-001,0.00000E+000,-2.55636E-003,-6.28946E-002,1.00000E+000,29
549,1357,-2.24745E+001,1.19257E+000,5.32570E-002,2.27489E+000,-5.52552E-001,3.03241E-002,2.34123E+000,1.29775E-002,6.29003E-001,0,3.57430E+001,-9.05124E+000,9.97958E-001,-3.43916E+000,-5.10014E+001,9.97939E-001,1.48773E-001,-6.53984E-002,2.45549E-003,1.48801E-001,-6.54266E-002,6.56788E-001,1.49161E-001,1.15978E+000,3.90916E-002,0.00000E+000,-2.66308E-002,9.38167E-001,0.00000E+000,-3.89868E-003,-6.29234E-002,1.00000E+000,29
549,1327,-2.25980E+001,-6.03174E-001,1.67840E-001,2.18089E+000,-4.40858E-001,1.50219E-001,2.23007E+000,2.34284E-002,7.50711E-001,0,3.39533E+001,-7.55286E+000,9.98263E-001,-5.44648E+000,-4.87398E+001,9.96463E-001,1.56555E-001,-6.53685E-002,1.52272E-003,1.56566E-001,-6.53789E-002,3.93107E-001,1.57273E-001,1.16882E+000,3.92253E-002,0.00000E+000,-2.84888E-002,9.38140E-001,0.00000E+000,1.16196E-004,-6.28641E-002,1.00000E+000,29
549,1337,-2.25485E+001,-1.06524E-002,9.13831E-002,2.22436E+000,-4.78599E-001,9.53935E-002,2.27727E+000,9.67566E-003,6.52366E-001,0,3.47804E+001,-8.03102E+000,9.98727E-001,-4.76696E+000,-4.95306E+001,9.98829E-001,1.53984E-001,-6.53818E-002,1.83885E-003,1.53999E-001,-6.53972E-002,4.80240E-001,1.54581E-001,1.16582E+000,3.91978E-002,0.00000E+000,-2.78727E-002,9.38146E-001,0.00000E+000,-1.21505E-003,-6.28763E-002,1.00000E+000,29
1309,1317,3.67930E+001,-4.83642E-001,-1.31012E-001,1.20102E+001,-9.86451E-002,-8.80279E-002,1.20110E+001,2.24525E-002,4.28499E-001,0,1.78485E+002,-3.03864E+000,9.96965E-001,1.52929E+002,-2.86177E+001,9.95572E-001,1.82997E-001,-6.92515E-002,3.78726E-003,1.83054E-001,-6.93083E-002,8.59981E-001,1.84843E-001,1.20082E+000,-2.23335E-003,0.00000E+000,8.92340E-003,9.34394E-001,0.00000E+000,-9.56781E-004,-5.33761E-002,1.00000E+000,29
1309,1327,3.68200E+001,1.29564E-001,-1.48902E-001,1.20150E+001,-1.39334E-001,-1.19061E-001,1.20164E+001,2.64214E-002,4.02740E-001,0,1.78674E+002,-3.65976E+000,9.96346E-001,1.53355E+002,-2.90425E+001,9.94557E-001,1.85097E-001,-6.91927E-002,4.56944E-003,1.85179E-001,-6.92748E-002,1.02913E+000,1.87126E-001,1.20336E+000,-2.14739E-003,0.00000E+000,1.01845E-002,9.34437E-001,0.00000E+000,1.98206E-003,-5.32764E-002,1.00000E+000,29
1309,1337,3.68664E+001,7.47332E-001,-1.15448E-001,1.20262E+001,-1.84457E-001,-1.45686E-001,1.20285E+001,2.62653E-002,4.39247E-001,0,1.78921E+002,-4.35959E+000,9.97441E-001,1.54138E+002,-2.94800E+001,9.96679E-001,1.87202E-001,-6.91035E-002,5.37769E-003,1.87315E-001,-6.92163E-002,1.20145E+000,1.89429E-001,1.20591E+000,-2.01110E-003,0.00000E+000,1.14568E-002,9.34505E-001,0.00000E+000,4.94702E-003,-5.31183E-002,1.00000E+000,29
549,1317,-2.26108E+001,-1.17892E+000,2.69540E-001,2.16859E+000,-3.89734E-001,1.94790E-001,2.21192E+000,2.07939E-002,7.44623E-001,0,3.36350E+001,-6.81861E+000,9.98493E-001,-5.48438E+000,-4.77915E+001,9.97442E-001,1.59118E-001,-6.53502E-002,1.19625E-003,1.59124E-001,-6.53566E-002,3.05334E-001,1.59967E-001,1.17182E+000,3.92273E-002,0.00000E+000,-2.91048E-002,9.38139E-001,0.00000E+000,1.44734E-003,-6.28632E-002,1.00000E+000,29
549,1307,-2.26354E+001,-1.76035E+000,3.61029E-001,2.14236E+000,-3.44162E-001,2.16377E-001,2.18059E+000,1.42733E-002,6.77310E-001,0,3.31578E+001,-6.11723E+000,9.97883E-001,-5.73533E+000,-4.69398E+001,9.97336E-001,1.61676E-001,-6.53301E-002,8.65756E-004,1.61680E-001,-6.53334E-002,2.18510E-001,1.62668E-001,1.17483E+000,3.92203E-002,0.00000E+000,-2.97221E-002,9.38141E-001,0.00000E+000,2.78127E-003,-6.28663E-002,1.00000E+000,29
1309,1287,3.67777E+001,-2.28306E+000,8.51666E-002,1.20196E+001,4.43434E-002,1.53689E-002,1.20197E+001,1.44646E-002,4.59921E-001,0,1.78148E+002,-9.03695E-001,9.98281E-001,1.52848E+002,-2.70926E+001,9.96301E-001,1.76641E-001,-6.93268E-002,1.51378E-003,1.76650E-001,-6.93361E-002,3.52603E-001,1.78006E-001,1.19326E+000,-2.32924E-003,0.00000E+000,5.15733E-003,9.34346E-001,0.00000E+000,-9.73308E-003,-5.34873E-002,1.00000E+000,29
1309,1297,3.67796E+001,-1.69508E+000,-2.00931E-003,1.20180E+001,-1.32997E-002,-1.69535E-002,1.20181E+001,1.93459E-002,4.64697E-001,0,1.78285E+002,-1.77039E+000,9.98160E-001,1.52809E+002,-2.77454E+001,9.95861E-001,1.78771E-001,-6.93134E-002,2.26371E-003,1.78792E-001,-6.93341E-002,5.22751E-001,1.80287E-001,1.19578E+000,-2.31561E-003,0.00000E+000,6.41139E-003,9.34353E-001,0.00000E+000,-6.81067E-003,-5.34715E-002,1.00000E+000,29
1309,1307,3.67806E+001,-1.08536E+000,-8.52146E-002,1.20141E+001,-4.75949E-002,-5.05613E-002,1.20143E+001,2.12383E-002,3.76877E-001,0,1.78380E+002,-2.26866E+000,9.98038E-001,1.52760E+002,-2.81139E+001,9.97152E-001,1.80882E-001,-6.92960E-002,3.01322E-003,1.80918E-001,-6.93323E-002,6.89955E-001,1.82555E-001,1.19829E+000,-2.29665E-003,0.00000E+000,7.66166E-003,9.34362E-001,0.00000E+000,-3.89709E-003,-5.34495E-002,1.00000E+000,29
539,1347,-2.32544E+001,6.05979E-001,5.67637E-002,2.14557E+000,-4.93017E-001,6.16385E-002,2.20234E+000,1.06650E-002,6.39657E-001,0,3.36501E+001,-8.16538E+000,9.98265E-001,-5.44782E+000,-5.01116E+001,9.98339E-001,1.51060E-001,-6.49558E-002,2.34398E-003,1.51085E-001,-6.49813E-002,6.21619E-001,1.51576E-001,1.16232E+000,4.21502E-002,0.00000E+000,-2.93327E-002,9.38426E-001,0.00000E+000,-2.42816E-003,-6.15806E-002,1.00000E+000,29
539,1357,-2.32125E+001,1.21587E+000,4.89090E-002,2.17414E+000,-5.22831E-001,2.96702E-002,2.23632E+000,1.00205E-002,6.29580E-001,0,3.41789E+001,-8.57022E+000,9.98805E-001,-4.67278E+000,-5.07460E+001,9.98623E-001,1.48644E-001,-6.49630E-002,2.60972E-003,1.48676E-001,-6.49949E-002,6.99868E-001,1.49066E-001,1.15952E+000,4.20948E-002,0.00000E+000,-2.87886E-002,9.38436E-001,0.00000E+000,-3.82327E-003,-6.16083E-002,1.00000E+000,29
539,1327,-2.33231E+001,-5.80147E-001,1.49021E-001,2.09233E+000,-4.10321E-001,1.31861E-001,2.13626E+000,1.26498E-002,6.41902E-001,0,3.26264E+001,-7.00031E+000,9.96314E-001,-6.52712E+000,-4.85044E+001,9.96614E-001,1.55852E-001,-6.49331E-002,1.79539E-003,1.55866E-001,-6.49477E-002,4.65880E-001,1.56586E-001,1.16790E+000,4.22148E-002,0.00000E+000,-3.04176E-002,9.38413E-001,0.00000E+000,3.53504E-004,-6.15484E-002,1.00000E+000,29
539,1337,-2.32886E+001,1.36191E-002,9.38916E-002,2.12023E+000,-4.48871E-001,9.52444E-002,2.16931E+000,1.14723E-002,6.45920E-001,0,3.31620E+001,-7.55339E+000,9.97695E-001,-6.01360E+000,-4.92749E+001,9.97902E-001,1.53465E-001,-6.49453E-002,2.07103E-003,1.53485E-001,-6.49650E-002,5.43232E-001,1.54086E-001,1.16511E+000,4.21875E-002,0.00000E+000,-2.98763E-002,9.38418E-001,0.00000E+000,-1.03430E-003,-6.15620E-002,1.00000E+000,29
1319,1297,3.75600E+001,-1.68785E+000,-3.11800E-002,1.21315E+001,-8.21877E-003,-3.47145E-002,1.21316E+001,1.69714E-002,3.50156E-001,0,1.79896E+002,-1.64893E+000,9.98386E-001,1.55028E+002,-2.75382E+001,9.96620E-001,1.78266E-001,-6.80283E-002,3.16483E-003,1.78307E-001,-6.80690E-002,7.36077E-001,1.79961E-001,1.19518E+000,1.30289E-003,0.00000E+000,5.28474E-003,9.35410E-001,0.00000E+000,-7.00739E-003,-5.02327E-002,1.00000E+000,29
1319,1307,3.75717E+001,-1.08741E+000,-1.02915E-001,1.21350E+001,-5.45998E-002,-6.84934E-002,1.21354E+001,2.06265E-002,3.31827E-001,0,1.80104E+002,-2.35210E+000,9.98083E-001,1.55159E+002,-2.80381E+001,9.97424E-001,1.80707E-001,-6.80075E-002,3.89511E-003,1.80768E-001,-6.80685E-002,8.97015E-001,1.82595E-001,1.19809E+000,1.33947E-003,0.00000E+000,6.49540E-003,9.35425E-001,0.00000E+000,-3.95531E-003,-5.01943E-002,1.00000E+000,29
539,1307,-2.33777E+001,-1.74836E+000,3.46974E-001,2.03608E+000,-3.26182E-001,1.99890E-001,2.07171E+000,9.98689E-003,6.50652E-001,0,3.15522E+001,-5.79614E+000,9.98305E-001,-7.06498E+000,-4.68421E+001,9.98046E-001,1.60588E-001,-6.48975E-002,1.22091E-003,1.60594E-001,-6.49041E-002,3.10222E-001,1.61575E-001,1.17344E+000,4.22080E-002,0.00000E+000,-3.14971E-002,9.38414E-001,0.00000E+000,3.12157E-003,-6.15518E-002,1.00000E+000,29
539,1317,-2.33517E+001,-1.17182E+000,2.39432E-001,2.06441E+000,-3.74430E-001,1.67102E-001,2.10474E+000,1.18422E-002,6.59706E-001,0,3.20917E+001,-6.50521E+000,9.97433E-001,-6.84466E+000,-4.77653E+001,9.96837E-001,1.58225E-001,-6.49165E-002,1.51046E-003,1.58236E-001,-6.49267E-002,3.87815E-001,1.59082E-001,1.17067E+000,4.22178E-002,0.00000E+000,-3.09577E-002,9.38412E-001,0.00000E+000,1.73853E-003,-6.15469E-002,1.00000E+000,29
1319,1287,3.75678E+001,-2.28945E+000,6.44764E-002,1.21403E+001,3.31449E-002,-2.54683E-003,1.21404E+001,1.80572E-002,4.21657E-001,0,1.79869E+002,-1.04214E+000,9.97965E-001,1.55225E+002,-2.70786E+001,9.96962E-001,1.75817E-001,-6.80326E-002,2.44959E-003,1.75842E-001,-6.80572E-002,5.75486E-001,1.77331E-001,1.19229E+000,1.29790E-003,0.00000E+000,4.07795E-003,9.35408E-001,0.00000E+000,-1.00497E-002,-5.02380E-002,1.00000E+000,29
529,1327,-2.40594E+001,-5.62834E-001,1.52505E-001,1.99118E+000,-3.87688E-001,1.30314E-001,2.03275E+000,1.14240E-002,6.33330E-001,0,3.10583E+001,-6.63690E+000,9.96158E-001,-7.70913E+000,-4.83563E+001,9.96300E-001,1.55297E-001,-6.39729E-002,2.15899E-003,1.55318E-001,-6.39942E-002,5.64076E-001,1.56118E-001,1.16717E+000,4.42980E-002,0.00000E+000,-3.14922E-002,9.39200E-001,0.00000E+000,1.07789E-003,-6.00958E-002,1.00000E+000,29
529,1307,-2.41150E+001,-1.72889E+000,3.50493E-001,1.93336E+000,-3.02090E-001,1.94905E-001,1.96650E+000,1.33646E-002,6.09291E-001,0,2.99688E+001,-5.38879E+000,9.98599E-001,-8.25941E+000,-4.66732E+001,9.98011E-001,1.59418E-001,-6.39639E-002,1.96370E-003,1.59436E-001,-6.39811E-002,5.03622E-001,1.60468E-001,1.17200E+000,4.42899E-002,0.00000E+000,-3.18842E-002,9.39201E-001,0.00000E+000,4.20742E-003,-6.01010E-002,1.00000E+000,29
529,1317,-2.40892E+001,-1.15133E+000,2.37143E-001,1.96302E+000,-3.48296E-001,1.65506E-001,2.00054E+000,1.12384E-002,5.99153E-001,0,3.05203E+001,-6.05589E+000,9.98359E-001,-8.05933E+000,-4.75803E+001,9.97807E-001,1.57363E-001,-6.39689E-002,2.06529E-003,1.57382E-001,-6.39881E-002,5.34578E-001,1.58295E-001,1.16959E+000,4.43038E-002,0.00000E+000,-3.16883E-002,9.39200E-001,0.00000E+000,2.64363E-003,-6.00920E-002,1.00000E+000,29
