Coordinates.Image X [Pixel],Coordinates.Image Y [Pixel],coor.X [mm],coor.Y [mm],coor.Z [mm],disp.Horizontal Displacement U [mm],disp.Vertical Displacement V [mm],disp.Out-Of-Plane: W [mm],disp.Displacement Magnitude [mm],stats.Sigma [mm],stats.Epipolar Distance [Pixel],stats.Shape Index [-],SameCamera.Horizontal: u [Pixel],SameCamera.Vertical: v [Pixel],SameCamera.Correlation Value 2D [-],CrossCamera.Horizontal: q [Pixel],CrossCamera.Vertical: r [Pixel],CrossCamera.Correlation Value Persp [-],strain.Strain-global frame: Exx [ ],strain.Strain-global frame: Eyy [ ],strain.Strain-global frame: Exy [ ],strain.Maximum Principal Strain: EI [ ],strain.Minimum Principal Strain: EII [ ],strain.Shear Angle Gamma [deg],strain.Von Mises Equivalent Strain [ ],defgradient.F[0,0] [-],defgradient.F[0,1] [-],defgradient.F[0,2] [-],defgradient.F[1,0] [-],defgradient.F[1,1] [-],defgradient.F[1,2] [-],defgradient.F[2,0] [-],defgradient.F[2,1] [-],defgradient.F[2,2] [-],ext.Current Image [#]
929,1317,1.11614E+000,-8.47208E-001,8.88324E-003,1.45221E+000,-2.30849E-001,9.56039E-002,1.47355E+000,6.43750E-003,5.16821E-001,0,2.20230E+001,-3.98838E+000,9.99804E-001,-2.23960E+001,-3.89984E+001,9.98974E-001,4.06791E-002,-1.69877E-002,4.13528E-004,4.06821E-002,-1.69907E-002,4.10839E-001,4.08656E-002,1.04152E+000,-1.03094E-002,0.00000E+000,1.11385E-002,9.84751E-001,0.00000E+000,-1.07015E-002,-5.79809E-002,1.00000E+000,6
919,1307,4.29183E-001,-1.49138E+000,4.34142E-002,1.43180E+000,-2.25742E-001,1.34932E-001,1.45576E+000,8.93684E-003,5.29533E-001,0,2.15986E+001,-3.98395E+000,9.99707E-001,-2.30335E+001,-3.91047E+001,9.96949E-001,4.17382E-002,-1.68334E-002,2.05071E-004,4.17389E-002,-1.68341E-002,2.00601E-001,4.19982E-002,1.04263E+000,-9.30617E-003,0.00000E+000,9.73643E-003,9.84971E-001,0.00000E+000,-9.86808E-003,-5.89441E-002,1.00000E+000,6
919,1317,4.24468E-001,-8.68816E-001,-4.10605E-002,1.42428E+000,-2.38179E-001,1.01368E-001,1.44761E+000,9.04759E-003,5.13511E-001,0,2.15973E+001,-4.12123E+000,9.99682E-001,-2.31878E+001,-3.93184E+001,9.96991E-001,4.07905E-002,-1.68371E-002,6.11410E-005,4.07906E-002,-1.68372E-002,6.07888E-002,4.09970E-002,1.04163E+000,-9.31059E-003,0.00000E+000,9.39705E-003,9.84970E-001,0.00000E+000,-8.68471E-003,-5.89389E-002,1.00000E+000,6
919,1327,4.35332E-001,-2.35196E-001,-6.90145E-002,1.41802E+000,-2.51627E-001,5.82831E-002,1.44135E+000,8.25142E-003,5.49722E-001,0,2.16440E+001,-4.23984E+000,9.99772E-001,-2.29719E+001,-3.94554E+001,9.97689E-001,3.98275E-002,-1.68470E-002,-9.53949E-005,3.98277E-002,-1.68472E-002,-9.64402E-002,3.99848E-002,1.04061E+000,-9.33740E-003,0.00000E+000,9.05299E-003,9.84961E-001,0.00000E+000,-7.48500E-003,-5.89071E-002,1.00000E+000,6
929,1307,1.11697E+000,-1.47237E+000,7.65328E-002,1.46023E+000,-2.17732E-001,1.32233E-001,1.48228E+000,6.14856E-003,5.38453E-001,0,2.20215E+001,-3.85257E+000,9.99856E-001,-2.23402E+001,-3.87874E+001,9.99138E-001,4.16538E-002,-1.69846E-002,4.95905E-004,4.16580E-002,-1.69888E-002,4.84505E-001,4.18933E-002,1.04255E+000,-1.02978E-002,0.00000E+000,1.13579E-002,9.84753E-001,0.00000E+000,-1.20601E-002,-5.79962E-002,1.00000E+000,6
929,1327,1.12172E+000,-2.16486E-001,-3.54824E-002,1.44435E+000,-2.42470E-001,5.34177E-002,1.46553E+000,5.37232E-003,4.80427E-001,0,2.20433E+001,-4.08332E+000,9.99850E-001,-2.22995E+001,-3.91809E+001,9.99349E-001,3.96979E-002,-1.69922E-002,3.25972E-004,3.96997E-002,-1.69941E-002,3.29440E-001,3.98365E-002,1.04048E+000,-1.03312E-002,0.00000E+000,1.09182E-002,9.84746E-001,0.00000E+000,-9.33737E-003,-5.79523E-002,1.00000E+000,6
939,1307,1.79802E+000,-1.45694E+000,7.19879E-002,1.48693E+000,-2.09208E-001,1.17295E-001,1.50615E+000,7.04264E-003,5.24464E-001,0,2.24598E+001,-3.68311E+000,9.99854E-001,-2.18327E+001,-3.84577E+001,9.99102E-001,4.15402E-002,-1.67418E-002,7.86653E-004,4.15508E-002,-1.67524E-002,7.73154E-001,4.18097E-002,1.04244E+000,-1.12989E-002,0.00000E+000,1.29589E-002,9.84913E-001,0.00000E+000,-1.37463E-002,-5.68994E-002,1.00000E+000,6
939,1317,1.79801E+000,-8.32429E-001,7.98690E-003,1.47894E+000,-2.22917E-001,8.08918E-002,1.49784E+000,7.28468E-003,4.74008E-001,0,2.24618E+001,-3.82625E+000,9.99797E-001,-2.18677E+001,-3.86991E+001,9.98685E-001,4.06327E-002,-1.67453E-002,7.02360E-004,4.06413E-002,-1.67539E-002,7.01214E-001,4.08494E-002,1.04148E+000,-1.13109E-002,0.00000E+000,1.27302E-002,9.84910E-001,0.00000E+000,-1.22544E-002,-5.68807E-002,1.00000E+000,6
939,1327,1.80504E+000,-1.97574E-001,-2.81256E-002,1.47088E+000,-2.33674E-001,4.01611E-002,1.48987E+000,4.61889E-003,5.03127E-001,0,2.24744E+001,-3.91201E+000,9.99835E-001,-2.17308E+001,-3.88012E+001,9.99277E-001,3.97140E-002,-1.67505E-002,6.12163E-004,3.97206E-002,-1.67571E-002,6.21078E-001,3.98819E-002,1.04051E+000,-1.13339E-002,0.00000E+000,1.24995E-002,9.84905E-001,0.00000E+000,-1.07492E-002,-5.68452E-002,1.00000E+000,6
919,1337,4.53038E-001,4.03143E-001,-7.21651E-002,1.41368E+000,-2.61881E-001,1.69302E-002,1.43783E+000,5.69767E-003,5.10547E-001,0,2.17121E+001,-4.30588E+000,9.99750E-001,-2.25928E+001,-3.96128E+001,9.98929E-001,3.88616E-002,-1.68590E-002,-2.55765E-004,3.88628E-002,-1.68602E-002,-2.62988E-001,3.89760E-002,1.03960E+000,-9.37189E-003,0.00000E+000,8.70872E-003,9.84949E-001,0.00000E+000,-6.28459E-003,-5.88662E-002,1.00000E+000,6
929,1337,1.13514E+000,4.19726E-001,-5.37160E-002,1.43816E+000,-2.54209E-001,9.07703E-003,1.46048E+000,5.17836E-003,4.88308E-001,0,2.20950E+001,-4.17624E+000,9.99888E-001,-2.20225E+001,-3.93143E+001,9.99477E-001,3.87075E-002,-1.69981E-002,2.33065E-004,3.87085E-002,-1.69991E-002,2.39712E-001,3.88039E-002,1.03944E+000,-1.03630E-002,0.00000E+000,1.06966E-002,9.84739E-001,0.00000E+000,-7.96448E-003,-5.79104E-002,1.00000E+000,6
939,1337,1.81755E+000,4.38613E-001,-4.40901E-002,1.46464E+000,-2.44417E-001,2.67064E-003,1.48490E+000,4.55011E-003,4.97863E-001,0,2.25032E+001,-4.00748E+000,9.99879E-001,-2.14639E+001,-3.89451E+001,9.99450E-001,3.87916E-002,-1.67565E-002,5.19153E-004,3.87965E-002,-1.67614E-002,5.35424E-001,3.89158E-002,1.03953E+000,-1.13625E-002,0.00000E+000,1.22686E-002,9.84898E-001,0.00000E+000,-9.24288E-003,-5.68011E-002,1.00000E+000,6
949,1317,2.48226E+000,-8.13103E-001,1.32201E-002,1.50624E+000,-2.13155E-001,6.64891E-002,1.52270E+000,7.65008E-003,4.96228E-001,0,2.29071E+001,-3.64025E+000,9.99778E-001,-2.12852E+001,-3.83100E+001,9.98809E-001,4.05725E-002,-1.65830E-002,9.23989E-004,4.05874E-002,-1.65980E-002,9.25933E-001,4.08112E-002,1.04142E+000,-1.22308E-002,0.00000E+000,1.40888E-002,9.84981E-001,0.00000E+000,-1.34791E-002,-5.55730E-002,1.00000E+000,6
949,1327,2.48831E+000,-1.80695E-001,-2.55251E-002,1.49828E+000,-2.24453E-001,2.84365E-002,1.51527E+000,6.91618E-003,4.92185E-001,0,2.29137E+001,-3.74520E+000,9.99754E-001,-2.11701E+001,-3.84594E+001,9.99271E-001,3.97713E-002,-1.65869E-002,8.53849E-004,3.97843E-002,-1.65999E-002,8.67788E-001,3.99655E-002,1.04057E+000,-1.22497E-002,0.00000E+000,1.38828E-002,9.84977E-001,0.00000E+000,-1.17539E-002,-5.55351E-002,1.00000E+000,6
949,1337,2.49904E+000,4.55618E-001,-4.51547E-002,1.49076E+000,-2.35123E-001,-9.75500E-003,1.50922E+000,6.24373E-003,5.11600E-001,0,2.29261E+001,-3.84647E+000,9.99764E-001,-2.09401E+001,-3.85797E+001,9.99097E-001,3.89637E-002,-1.65916E-002,7.80663E-004,3.89747E-002,-1.66026E-002,8.04908E-001,3.91168E-002,1.03971E+000,-1.22742E-002,0.00000E+000,1.36761E-002,9.84971E-001,0.00000E+000,-1.00227E-002,-5.54856E-002,1.00000E+000,6
949,1307,2.48329E+000,-1.43954E+000,7.74976E-002,1.51496E+000,-2.00580E-001,1.01390E-001,1.53154E+000,6.46105E-003,5.39709E-001,0,2.29208E+001,-3.52050E+000,9.99839E-001,-2.12338E+001,-3.81039E+001,9.99027E-001,4.13662E-002,-1.65803E-002,9.89725E-004,4.13831E-002,-1.65972E-002,9.78231E-001,4.16522E-002,1.04227E+000,-1.22206E-002,0.00000E+000,1.42937E-002,9.84984E-001,0.00000E+000,-1.51955E-002,-5.55937E-002,1.00000E+000,6
909,1317,-2.52559E-001,-8.83574E-001,-4.72175E-002,1.39896E+000,-2.45131E-001,9.75188E-002,1.42362E+000,8.36514E-003,4.63347E-001,0,2.12402E+001,-4.22219E+000,9.99626E-001,-2.36503E+001,-3.96482E+001,9.97013E-001,4.09593E-002,-1.69109E-002,-3.00192E-004,4.09609E-002,-1.69124E-002,-2.97201E-001,4.11676E-002,1.04180E+000,-8.20625E-003,0.00000E+000,7.51764E-003,9.84925E-001,0.00000E+000,-6.48845E-003,-5.91675E-002,1.00000E+000,6
909,1327,-2.40051E-001,-2.47121E-001,-7.25097E-002,1.39484E+000,-2.56292E-001,5.88648E-002,1.41941E+000,6.53610E-003,5.10464E-001,0,2.13035E+001,-4.30461E+000,9.99703E-001,-2.34016E+001,-3.97431E+001,9.98203E-001,4.00327E-002,-1.69197E-002,-4.48528E-004,4.00362E-002,-1.69232E-002,-4.51195E-001,4.01954E-002,1.04083E+000,-8.23104E-003,0.00000E+000,7.20558E-003,9.84917E-001,0.00000E+000,-5.61812E-003,-5.91453E-002,1.00000E+000,6
909,1337,-2.22889E-001,3.94533E-001,-7.28274E-002,1.38985E+000,-2.66138E-001,1.93680E-002,1.41523E+000,6.62425E-003,5.51041E-001,0,2.13545E+001,-4.36184E+000,9.99753E-001,-2.30229E+001,-3.98174E+001,9.98986E-001,3.91006E-002,-1.69307E-002,-6.01395E-004,3.91071E-002,-1.69371E-002,-6.14872E-001,3.92236E-002,1.03985E+000,-8.26400E-003,0.00000E+000,6.89223E-003,9.84906E-001,0.00000E+000,-4.74419E-003,-5.91157E-002,1.00000E+000,6
909,1307,-2.48856E-001,-1.50492E+000,4.55966E-002,1.40445E+000,-2.31673E-001,1.34727E-001,1.42979E+000,8.63333E-003,4.51008E-001,0,2.11985E+001,-4.07336E+000,9.99601E-001,-2.34919E+001,-3.94463E+001,9.96411E-001,4.18708E-002,-1.69081E-002,-1.64371E-004,4.18713E-002,-1.69086E-002,-1.60221E-001,4.21287E-002,1.04275E+000,-8.20347E-003,0.00000E+000,7.82508E-003,9.84926E-001,0.00000E+000,-7.34591E-003,-5.91700E-002,1.00000E+000,6
919,1347,4.74278E-001,1.04827E+000,-6.34205E-002,1.40962E+000,-2.69300E-001,-2.74369E-002,1.43538E+000,8.58865E-003,5.20864E-001,0,2.17929E+001,-4.32244E+000,9.99860E-001,-2.21313E+001,-3.96696E+001,9.99440E-001,3.78885E-002,-1.68723E-002,-4.19387E-004,3.78917E-002,-1.68756E-002,-4.38767E-001,3.79671E-002,1.03858E+000,-9.41147E-003,0.00000E+000,8.36274E-003,9.84936E-001,0.00000E+000,-5.07820E-003,-5.88193E-002,1.00000E+000,6
929,1347,1.15548E+000,1.06291E+000,-4.28646E-002,1.43372E+000,-2.62572E-001,-3.00007E-002,1.45788E+000,5.04495E-003,4.84802E-001,0,2.21536E+001,-4.22463E+000,9.99870E-001,-2.15722E+001,-3.94116E+001,9.99488E-001,3.77106E-002,-1.70052E-002,1.35756E-004,3.77110E-002,-1.70056E-002,1.42156E-001,3.77714E-002,1.03840E+000,-1.04031E-002,0.00000E+000,1.04741E-002,9.84731E-001,0.00000E+000,-6.58658E-003,-5.78574E-002,1.00000E+000,6
939,1347,1.83622E+000,1.08207E+000,-3.14412E-002,1.45884E+000,-2.52611E-001,-3.22999E-002,1.48090E+000,8.24025E-003,5.08232E-001,0,2.25279E+001,-4.06629E+000,9.99815E-001,-2.10374E+001,-3.90342E+001,9.98932E-001,3.78613E-002,-1.67639E-002,4.21444E-004,3.78646E-002,-1.67672E-002,4.42012E-001,3.79470E-002,1.03855E+000,-1.13998E-002,0.00000E+000,1.20366E-002,9.84889E-001,0.00000E+000,-7.72874E-003,-5.67434E-002,1.00000E+000,6
949,1347,2.52044E+000,1.10045E+000,-2.01587E-002,1.48563E+000,-2.44323E-001,-4.07008E-002,1.50613E+000,6.84794E-003,5.09371E-001,0,2.29482E+001,-3.90960E+000,9.99648E-001,-2.04459E+001,-3.86793E+001,9.98604E-001,3.81461E-002,-1.65977E-002,7.01546E-004,3.81551E-002,-1.66067E-002,7.34089E-001,3.82616E-002,1.03884E+000,-1.23100E-002,0.00000E+000,1.34678E-002,9.84962E-001,0.00000E+000,-8.27773E-003,-5.54135E-002,1.00000E+000,6
959,1317,3.16414E+000,-7.96654E-001,9.49170E-003,1.53263E+000,-2.03775E-001,5.17625E-002,1.54698E+000,6.70957E-003,4.94492E-001,0,2.33401E+001,-3.46721E+000,9.99785E-001,-2.07553E+001,-3.79586E+001,9.99249E-001,4.05632E-002,-1.64112E-002,1.01026E-003,4.05811E-002,-1.64291E-002,1.01554E+000,4.08254E-002,1.04141E+000,-1.31556E-002,0.00000E+000,1.51525E-002,9.85060E-001,0.00000E+000,-1.41666E-002,-5.41645E-002,1.00000E+000,6
959,1327,3.16769E+000,-1.64557E-001,-3.69131E-002,1.52383E+000,-2.14626E-001,1.41245E-002,1.53894E+000,1.10069E-002,5.14510E-001,0,2.33336E+001,-3.57540E+000,9.99887E-001,-2.06965E+001,-3.80827E+001,9.99242E-001,3.98335E-002,-1.64134E-002,9.64729E-004,3.98501E-002,-1.64300E-002,9.82333E-001,4.00539E-002,1.04063E+000,-1.31708E-002,0.00000E+000,1.49888E-002,9.85057E-001,0.00000E+000,-1.23498E-002,-5.41293E-002,1.00000E+000,6
959,1337,3.18145E+000,4.73273E-001,-4.53666E-002,1.51696E+000,-2.26310E-001,-2.28127E-002,1.53392E+000,9.05017E-003,5.31138E-001,0,2.33524E+001,-3.68059E+000,9.99725E-001,-2.03964E+001,-3.82032E+001,9.98941E-001,3.90948E-002,-1.64165E-002,9.13956E-004,3.91098E-002,-1.64316E-002,9.42995E-001,3.92758E-002,1.03984E+000,-1.31963E-002,0.00000E+000,1.48239E-002,9.85052E-001,0.00000E+000,-1.05199E-002,-5.40701E-002,1.00000E+000,6
959,1307,3.16389E+000,-1.42342E+000,7.23693E-002,1.54094E+000,-1.89899E-001,8.87999E-002,1.55514E+000,5.32083E-003,5.06126E-001,0,2.33393E+001,-3.32976E+000,9.99792E-001,-2.07266E+001,-3.77723E+001,9.99312E-001,4.12875E-002,-1.64094E-002,1.05342E-003,4.13068E-002,-1.64287E-002,1.04563E+000,4.15938E-002,1.04219E+000,-1.31451E-002,0.00000E+000,1.53158E-002,9.85062E-001,0.00000E+000,-1.59794E-002,-5.41888E-002,1.00000E+000,6
959,1347,3.20111E+000,1.11497E+000,-3.03752E-002,1.51200E+000,-2.36406E-001,-5.43948E-002,1.53134E+000,5.55705E-003,5.17119E-001,0,2.33807E+001,-3.76738E+000,9.99729E-001,-1.99534E+001,-3.83336E+001,9.99383E-001,3.83506E-002,-1.64201E-002,8.60582E-004,3.83642E-002,-1.64336E-002,8.99960E-001,3.84952E-002,1.03905E+000,-1.32268E-002,0.00000E+000,1.46587E-002,9.85045E-001,0.00000E+000,-8.68613E-003,-5.39994E-002,1.00000E+000,6
909,1347,-1.99337E-001,1.03897E+000,-4.89509E-002,1.38620E+000,-2.73747E-001,-1.98631E-002,1.41311E+000,8.06954E-003,5.21073E-001,0,2.14233E+001,-4.39947E+000,9.99864E-001,-2.24893E+001,-3.99398E+001,9.98882E-001,3.81677E-002,-1.69437E-002,-7.57783E-004,3.81781E-002,-1.69542E-002,-7.87619E-001,3.82576E-002,1.03888E+000,-8.30443E-003,0.00000E+000,6.57916E-003,9.84893E-001,0.00000E+000,-3.87103E-003,-5.90794E-002,1.00000E+000,6
899,1327,-9.09649E-001,-2.49169E-001,-3.68536E-002,1.36891E+000,-2.58285E-001,6.08469E-002,1.39439E+000,3.82432E-003,5.30405E-001,0,2.09130E+001,-4.33329E+000,9.99693E-001,-2.36467E+001,-3.99332E+001,9.99515E-001,4.02405E-002,-1.69879E-002,-7.79376E-004,4.02511E-002,-1.69985E-002,-7.80100E-001,4.04128E-002,1.04104E+000,-7.17826E-003,0.00000E+000,5.45162E-003,9.84894E-001,0.00000E+000,-3.71852E-003,-5.97221E-002,1.00000E+000,6
899,1337,-8.94507E-001,3.87814E-001,-5.84366E-002,1.36578E+000,-2.68408E-001,1.72784E-002,1.39201E+000,6.35739E-003,5.29612E-001,0,2.10060E+001,-4.39173E+000,9.99869E-001,-2.33473E+001,-4.00563E+001,9.99653E-001,3.93695E-002,-1.69946E-002,-8.91918E-004,3.93836E-002,-1.70087E-002,-9.06359E-001,3.95053E-002,1.04013E+000,-7.20362E-003,0.00000E+000,5.23421E-003,9.84888E-001,0.00000E+000,-3.27887E-003,-5.97098E-002,1.00000E+000,6
899,1347,-8.69975E-001,1.03199E+000,-3.35605E-002,1.36329E+000,-2.76459E-001,-2.10980E-002,1.39120E+000,5.33108E-003,5.06478E-001,0,2.10890E+001,-4.43603E+000,9.99861E-001,-2.27944E+001,-4.01834E+001,9.99550E-001,3.84931E-002,-1.70038E-002,-1.01077E-003,3.85115E-002,-1.70222E-002,-1.04307E+000,3.85978E-002,1.03922E+000,-7.24100E-003,0.00000E+000,5.01570E-003,9.84879E-001,0.00000E+000,-2.83699E-003,-5.96917E-002,1.00000E+000,6
899,1317,-9.17798E-001,-8.80561E-001,8.45236E-003,1.37342E+000,-2.46382E-001,1.01705E-001,1.39905E+000,4.98290E-003,5.18096E-001,0,2.08482E+001,-4.23685E+000,9.99722E-001,-2.37823E+001,-3.97828E+001,9.99135E-001,4.11071E-002,-1.69829E-002,-6.70963E-004,4.11148E-002,-1.69907E-002,-6.61672E-001,4.13206E-002,1.04195E+000,-7.16062E-003,0.00000E+000,5.66814E-003,9.84898E-001,0.00000E+000,-4.15638E-003,-5.97307E-002,1.00000E+000,6
899,1307,-9.20030E-001,-1.50584E+000,7.92611E-002,1.37819E+000,-2.32727E-001,1.41479E-001,1.40485E+000,5.94692E-003,4.76350E-001,0,2.07891E+001,-4.08833E+000,9.99692E-001,-2.37663E+001,-3.96074E+001,9.98274E-001,4.19684E-002,-1.69796E-002,-5.66780E-004,4.19739E-002,-1.69850E-002,-5.50826E-001,4.22275E-002,1.04285E+000,-7.15075E-003,0.00000E+000,5.88359E-003,9.84901E-001,0.00000E+000,-4.59207E-003,-5.97354E-002,1.00000E+000,6
889,1327,-1.58334E+000,-2.55687E-001,-2.55436E-002,1.34325E+000,-2.61106E-001,6.05905E-002,1.36973E+000,3.31594E-003,5.34192E-001,0,2.05347E+001,-4.36908E+000,9.99754E-001,-2.40071E+001,-4.01482E+001,9.99683E-001,4.05102E-002,-1.66190E-002,-1.12140E-003,4.05322E-002,-1.66410E-002,-1.12409E+000,4.07478E-002,1.04133E+000,-6.18810E-003,0.00000E+000,3.73693E-003,9.85310E-001,0.00000E+000,-1.85447E-003,-6.04792E-002,1.00000E+000,6
889,1337,-1.57099E+000,3.80569E-001,-5.05769E-002,1.33860E+000,-2.70329E-001,1.88097E-002,1.36575E+000,5.31716E-003,5.29983E-001,0,2.05975E+001,-4.42569E+000,9.99882E-001,-2.37578E+001,-4.02789E+001,9.99663E-001,3.96477E-002,-1.66190E-002,-1.13432E-003,3.96706E-002,-1.66418E-002,-1.15444E+000,3.98416E-002,1.04043E+000,-6.21138E-003,0.00000E+000,3.75154E-003,9.85310E-001,0.00000E+000,-2.07324E-003,-6.04849E-002,1.00000E+000,6
889,1347,-1.54658E+000,1.02325E+000,-2.96597E-002,1.33676E+000,-2.79143E-001,-2.08729E-002,1.36576E+000,4.39878E-003,5.01598E-001,0,2.06945E+001,-4.47825E+000,9.99824E-001,-2.32141E+001,-4.04247E+001,9.99636E-001,3.87789E-002,-1.66189E-002,-1.15326E-003,3.88029E-002,-1.66429E-002,-1.19209E+000,3.89335E-002,1.03953E+000,-6.24712E-003,0.00000E+000,3.76624E-003,9.85311E-001,0.00000E+000,-2.29343E-003,-6.04936E-002,1.00000E+000,6
969,1297,3.85741E+000,-2.02829E+000,1.60217E-001,1.57979E+000,-1.64978E-001,1.06493E-001,1.59195E+000,9.51770E-003,4.98978E-001,0,2.38463E+001,-2.98313E+000,9.99780E-001,-1.99173E+001,-3.72219E+001,9.98791E-001,4.18547E-002,-1.63447E-002,1.07432E-003,4.18745E-002,-1.63645E-002,1.05716E+000,4.22061E-002,1.04281E+000,-1.39620E-002,0.00000E+000,1.62016E-002,9.85035E-001,0.00000E+000,-1.79738E-002,-5.26749E-002,1.00000E+000,6
969,1307,3.84781E+000,-1.40606E+000,7.32043E-002,1.56819E+000,-1.80192E-001,7.52255E-002,1.58030E+000,1.38882E-002,5.03902E-001,0,2.37803E+001,-3.14938E+000,9.99727E-001,-2.01513E+001,-3.74183E+001,9.98285E-001,4.12051E-002,-1.63453E-002,1.05189E-003,4.12244E-002,-1.63645E-002,1.04677E+000,4.15151E-002,1.04210E+000,-1.39641E-002,0.00000E+000,1.60736E-002,9.85034E-001,0.00000E+000,-1.61613E-002,-5.26695E-002,1.00000E+000,6
969,1317,3.84875E+000,-7.79941E-001,1.35361E-002,1.55951E+000,-1.94932E-001,3.69395E-002,1.57208E+000,6.00026E-003,4.74896E-001,0,2.37807E+001,-3.29886E+000,9.99866E-001,-2.01627E+001,-3.76284E+001,9.99345E-001,4.05503E-002,-1.63463E-002,1.02536E-003,4.05688E-002,-1.63647E-002,1.03211E+000,4.08204E-002,1.04139E+000,-1.39748E-002,0.00000E+000,1.59453E-002,9.85032E-001,0.00000E+000,-1.43440E-002,-5.26420E-002,1.00000E+000,6
889,1317,-1.59203E+000,-8.85960E-001,2.23183E-002,1.34665E+000,-2.48710E-001,1.01854E-001,1.37320E+000,4.69352E-003,5.40937E-001,0,2.04521E+001,-4.27377E+000,9.99764E-001,-2.41456E+001,-3.99746E+001,9.99535E-001,4.13695E-002,-1.66190E-002,-1.11168E-003,4.13908E-002,-1.66403E-002,-1.09786E+000,4.16548E-002,1.04222E+000,-6.17144E-003,0.00000E+000,3.72237E-003,9.85310E-001,0.00000E+000,-1.63633E-003,-6.04752E-002,1.00000E+000,6
969,1327,3.85303E+000,-1.45711E-001,-2.71801E-002,1.55074E+000,-2.04161E-001,2.32020E-003,1.56412E+000,6.30387E-003,5.11269E-001,0,2.37644E+001,-3.39864E+000,9.99893E-001,-2.00808E+001,-3.77221E+001,9.99418E-001,3.98899E-002,-1.63475E-002,9.96868E-004,3.99075E-002,-1.63651E-002,1.01521E+000,4.01221E-002,1.04068E+000,-1.39894E-002,0.00000E+000,1.58166E-002,9.85030E-001,0.00000E+000,-1.25217E-002,-5.26047E-002,1.00000E+000,6
889,1307,-1.59562E+000,-1.51150E+000,9.42579E-002,1.34936E+000,-2.36113E-001,1.39759E-001,1.37697E+000,6.44943E-003,5.03064E-001,0,2.03685E+001,-4.13672E+000,9.99649E-001,-2.41478E+001,-3.98018E+001,9.98933E-001,4.22235E-002,-1.66190E-002,-1.10573E-003,4.22443E-002,-1.66398E-002,-1.07616E+000,4.25602E-002,1.04311E+000,-6.16261E-003,0.00000E+000,3.70788E-003,9.85310E-001,0.00000E+000,-1.41933E-003,-6.04730E-002,1.00000E+000,6
969,1337,3.86455E+000,4.88283E-001,-4.10410E-002,1.54369E+000,-2.16729E-001,-3.03330E-002,1.55912E+000,6.60223E-003,4.71740E-001,0,2.37675E+001,-3.52667E+000,9.99809E-001,-1.98285E+001,-3.79170E+001,9.99371E-001,3.92239E-002,-1.63489E-002,9.65255E-004,3.92406E-002,-1.63657E-002,9.94781E-001,3.94202E-002,1.03996E+000,-1.40103E-002,0.00000E+000,1.56876E-002,9.85026E-001,0.00000E+000,-1.06943E-002,-5.25513E-002,1.00000E+000,6
969,1347,3.88069E+000,1.13419E+000,-3.31210E-002,1.53646E+000,-2.23519E-001,-6.23382E-002,1.55388E+000,5.56642E-003,4.84792E-001,0,2.37624E+001,-3.54924E+000,9.99784E-001,-1.94565E+001,-3.79521E+001,9.99334E-001,3.85489E-002,-1.63507E-002,9.30757E-004,3.85647E-002,-1.63665E-002,9.71008E-001,3.87114E-002,1.03924E+000,-1.40366E-002,0.00000E+000,1.55575E-002,9.85021E-001,0.00000E+000,-8.85262E-003,-5.24840E-002,1.00000E+000,6
879,1327,-2.25618E+000,-2.60069E-001,-1.24158E-002,1.31790E+000,-2.61602E-001,6.14685E-002,1.34501E+000,4.10725E-003,5.37205E-001,0,2.01561E+001,-4.37571E+000,9.99843E-001,-2.43454E+001,-4.03346E+001,9.99726E-001,4.08495E-002,-1.67301E-002,-1.31960E-003,4.08798E-002,-1.67603E-002,-1.31218E+000,4.11000E-002,1.04168E+000,-5.33545E-003,0.00000E+000,2.45484E-003,9.85181E-001,0.00000E+000,-4.03839E-004,-6.00708E-002,1.00000E+000,6
879,1337,-2.24379E+000,3.73863E-001,-4.21142E-002,1.31395E+000,-2.72259E-001,1.74692E-002,1.34198E+000,3.85972E-003,5.26842E-001,0,2.02367E+001,-4.45158E+000,9.99812E-001,-2.41058E+001,-4.04960E+001,9.99660E-001,4.00148E-002,-1.67291E-002,-1.31498E-003,4.00453E-002,-1.67596E-002,-1.32682E+000,4.02221E-002,1.04081E+000,-5.35710E-003,0.00000E+000,2.52176E-003,9.85182E-001,0.00000E+000,-9.66294E-004,-6.00848E-002,1.00000E+000,6
879,1347,-2.22163E+000,1.01760E+000,-2.50277E-002,1.31137E+000,-2.80271E-001,-1.97236E-002,1.34114E+000,5.07144E-003,5.39228E-001,0,2.03135E+001,-4.49580E+000,9.99773E-001,-2.36038E+001,-4.05988E+001,9.99591E-001,3.91720E-002,-1.67278E-002,-1.31553E-003,3.92029E-002,-1.67587E-002,-1.34739E+000,3.93401E-002,1.03994E+000,-5.38972E-003,0.00000E+000,2.58926E-003,9.85185E-001,0.00000E+000,-1.53355E-003,-6.01059E-002,1.00000E+000,6
879,1307,-2.27036E+000,-1.51367E+000,1.12702E-001,1.32041E+000,-2.36155E-001,1.38730E-001,1.34852E+000,6.44450E-003,5.17377E-001,0,1.99421E+001,-4.13236E+000,9.99643E-001,-2.45030E+001,-3.99560E+001,9.99080E-001,4.25070E-002,-1.67312E-002,-1.33871E-003,4.25373E-002,-1.67614E-002,-1.29393E+000,4.28545E-002,1.04341E+000,-5.31296E-003,0.00000E+000,2.32170E-003,9.85179E-001,0.00000E+000,7.15001E-004,-6.00563E-002,1.00000E+000,6
879,1317,-2.26504E+000,-8.90568E-001,3.78597E-002,1.32085E+000,-2.49075E-001,1.04206E-001,1.34816E+000,4.49623E-003,4.85689E-001,0,2.00627E+001,-4.26310E+000,9.99826E-001,-2.44808E+001,-4.01968E+001,9.99524E-001,4.16824E-002,-1.67308E-002,-1.32705E-003,4.17125E-002,-1.67609E-002,-1.30077E+000,4.19797E-002,1.04255E+000,-5.31970E-003,0.00000E+000,2.38798E-003,9.85179E-001,0.00000E+000,1.58046E-004,-6.00606E-002,1.00000E+000,6
979,1307,4.54044E+000,-1.38836E+000,8.33052E-002,1.60047E+000,-1.72187E-001,5.67645E-002,1.61071E+000,1.00180E-002,5.17703E-001,0,2.43146E+001,-2.99310E+000,9.99926E-001,-1.94181E+001,-3.70697E+001,9.99441E-001,4.11212E-002,-1.62730E-002,1.02054E-003,4.11393E-002,-1.62911E-002,1.01836E+000,4.14349E-002,1.04199E+000,-1.46594E-002,0.00000E+000,1.66132E-002,9.85006E-001,0.00000E+000,-1.55645E-002,-5.09044E-002,1.00000E+000,6
979,1317,4.53702E+000,-7.60071E-001,2.16618E-002,1.58895E+000,-1.84364E-001,2.36970E-002,1.59979E+000,4.25507E-003,4.86531E-001,0,2.42542E+001,-3.10700E+000,9.99890E-001,-1.95009E+001,-3.72423E+001,9.99539E-001,4.05879E-002,-1.62729E-002,1.01478E-003,4.06060E-002,-1.62910E-002,1.02211E+000,4.08694E-002,1.04141E+000,-1.46668E-002,0.00000E+000,1.65282E-002,9.85005E-001,0.00000E+000,-1.38200E-002,-5.08822E-002,1.00000E+000,6
979,1327,4.53919E+000,-1.27765E-001,-2.00451E-002,1.57887E+000,-1.94741E-001,-7.92232E-003,1.59086E+000,4.55539E-003,4.75446E-001,0,2.42090E+001,-3.21425E+000,9.99770E-001,-1.94545E+001,-3.73861E+001,9.99292E-001,4.00502E-002,-1.62728E-002,1.00716E-003,4.00682E-002,-1.62908E-002,1.02412E+000,4.03007E-002,1.04083E+000,-1.46780E-002,0.00000E+000,1.64431E-002,9.85003E-001,0.00000E+000,-1.20722E-002,-5.08486E-002,1.00000E+000,6
979,1337,4.54711E+000,5.08375E-001,-4.05467E-002,1.57039E+000,-2.04328E-001,-3.68669E-002,1.58405E+000,6.53280E-003,4.67257E-001,0,2.41777E+001,-3.31330E+000,9.99622E-001,-1.92732E+001,-3.75167E+001,9.98941E-001,3.95075E-002,-1.62727E-002,9.97624E-004,3.95254E-002,-1.62905E-002,1.02429E+000,3.97282E-002,1.04024E+000,-1.46931E-002,0.00000E+000,1.63578E-002,9.85001E-001,0.00000E+000,-1.03187E-002,-5.08034E-002,1.00000E+000,6
979,1347,4.56274E+000,1.15277E+000,-2.94349E-002,1.56114E+000,-2.12375E-001,-7.17818E-002,1.57715E+000,6.75500E-003,4.71110E-001,0,2.41525E+001,-3.36552E+000,9.99461E-001,-1.89042E+001,-3.75854E+001,9.98697E-001,3.89575E-002,-1.62725E-002,9.84247E-004,3.89751E-002,-1.62900E-002,1.02063E+000,3.91495E-002,1.03965E+000,-1.47160E-002,0.00000E+000,1.62717E-002,9.84998E-001,0.00000E+000,-8.55232E-003,-5.07346E-002,1.00000E+000,6
979,1297,4.54173E+000,-2.01081E+000,1.55514E-001,1.60828E+000,-1.54721E-001,9.32181E-002,1.61839E+000,8.57956E-003,4.97401E-001,0,2.43045E+001,-2.78596E+000,9.99838E-001,-1.93442E+001,-3.68558E+001,9.99012E-001,4.16510E-002,-1.62731E-002,1.02553E-003,4.16692E-002,-1.62912E-002,1.01398E+000,4.19981E-002,1.04257E+000,-1.46535E-002,0.00000E+000,1.66981E-002,9.85007E-001,0.00000E+000,-1.73085E-002,-5.09221E-002,1.00000E+000,6
869,1317,-2.94391E+000,-8.94578E-001,3.83257E-002,1.29037E+000,-2.49067E-001,9.91982E-002,1.31793E+000,4.09533E-003,5.00905E-001,0,1.96248E+001,-4.24501E+000,9.99860E-001,-2.49380E+001,-4.03431E+001,9.99294E-001,4.19012E-002,-1.68574E-002,-1.40331E-003,4.19347E-002,-1.68909E-002,-1.36733E+000,4.21981E-002,1.04279E+000,-4.43372E-003,0.00000E+000,1.32653E-003,9.85034E-001,0.00000E+000,1.45941E-003,-5.96719E-002,1.00000E+000,6
869,1327,-2.93418E+000,-2.64359E-001,-1.03321E-002,1.28876E+000,-2.60435E-001,5.97184E-002,1.31617E+000,4.70376E-003,5.39673E-001,0,1.97271E+001,-4.35566E+000,9.99806E-001,-2.47848E+001,-4.04967E+001,9.99478E-001,4.11394E-002,-1.68570E-002,-1.40223E-003,4.11733E-002,-1.68909E-002,-1.38421E+000,4.13938E-002,1.04199E+000,-4.44760E-003,0.00000E+000,1.39695E-003,9.85035E-001,0.00000E+000,5.71386E-004,-5.96874E-002,1.00000E+000,6
869,1337,-2.91932E+000,3.68860E-001,-3.41028E-002,1.28682E+000,-2.72566E-001,1.88014E-002,1.31551E+000,4.76193E-003,5.43895E-001,0,1.98281E+001,-4.46003E+000,9.99727E-001,-2.44924E+001,-4.06763E+001,9.99451E-001,4.03730E-002,-1.68565E-002,-1.40427E-003,4.04074E-002,-1.68909E-002,-1.40477E+000,4.05881E-002,1.04119E+000,-4.46800E-003,0.00000E+000,1.46766E-003,9.85037E-001,0.00000E+000,-3.20323E-004,-5.97102E-002,1.00000E+000,6
869,1347,-2.89885E+000,1.01024E+000,-2.95648E-002,1.28528E+000,-2.79605E-001,-1.89325E-002,1.31548E+000,6.74934E-003,5.26132E-001,0,1.99221E+001,-4.49379E+000,9.99783E-001,-2.40447E+001,-4.08049E+001,9.99469E-001,3.96029E-002,-1.68559E-002,-1.40930E-003,3.96380E-002,-1.68910E-002,-1.42901E+000,3.97819E-002,1.04039E+000,-4.49460E-003,0.00000E+000,1.53859E-003,9.85039E-001,0.00000E+000,-1.21483E-003,-5.97399E-002,1.00000E+000,6
869,1307,-2.94686E+000,-1.51629E+000,1.21486E-001,1.29176E+000,-2.34733E-001,1.39632E-001,1.32032E+000,5.39306E-003,5.36394E-001,0,1.95134E+001,-4.11653E+000,9.99710E-001,-2.49036E+001,-4.00947E+001,9.99178E-001,4.26568E-002,-1.68575E-002,-1.40834E-003,4.26901E-002,-1.68909E-002,-1.35483E+000,4.29989E-002,1.04358E+000,-4.42818E-003,0.00000E+000,1.25656E-003,9.85033E-001,0.00000E+000,2.34169E-003,-5.96658E-002,1.00000E+000,6
989,1307,5.22395E+000,-1.36756E+000,8.11494E-002,1.62718E+000,-1.58358E-001,4.40004E-002,1.63546E+000,7.18726E-003,5.08891E-001,0,2.47431E+001,-2.75018E+000,9.99731E-001,-1.88477E+001,-3.66597E+001,9.99121E-001,4.10164E-002,-1.62718E-002,9.15716E-004,4.10310E-002,-1.62864E-002,9.15525E-001,4.13206E-002,1.04186E+000,-1.51775E-002,0.00000E+000,1.68196E-002,9.84923E-001,0.00000E+000,-1.44583E-002,-4.92926E-002,1.00000E+000,6
989,1317,5.21784E+000,-7.37431E-001,1.54612E-002,1.61409E+000,-1.69844E-001,1.24083E-002,1.62304E+000,6.48610E-003,5.39543E-001,0,2.46545E+001,-2.86100E+000,9.99877E-001,-1.89812E+001,-3.67629E+001,9.99285E-001,4.06002E-002,-1.62704E-002,9.36412E-004,4.06156E-002,-1.62858E-002,9.43071E-001,4.08803E-002,1.04140E+000,-1.51824E-002,0.00000E+000,1.67878E-002,9.84923E-001,0.00000E+000,-1.27524E-002,-4.92741E-002,1.00000E+000,6
989,1327,5.22398E+000,-1.05084E-001,-2.13146E-002,1.60592E+000,-1.82482E-001,-2.28671E-002,1.61641E+000,8.42738E-003,5.48801E-001,0,2.46522E+001,-2.99286E+000,9.99743E-001,-1.88636E+001,-3.69045E+001,9.98900E-001,4.01800E-002,-1.62684E-002,9.54645E-004,4.01961E-002,-1.62846E-002,9.68606E-001,4.04366E-002,1.04094E+000,-1.51927E-002,0.00000E+000,1.67559E-002,9.84922E-001,0.00000E+000,-1.10421E-002,-4.92358E-002,1.00000E+000,6
989,1297,5.22982E+000,-1.99377E+000,1.52279E-001,1.63876E+000,-1.44396E-001,7.54659E-002,1.64684E+000,6.81274E-003,4.92988E-001,0,2.48080E+001,-2.59819E+000,9.99735E-001,-1.87059E+001,-3.65005E+001,9.98790E-001,4.14287E-002,-1.62731E-002,8.94569E-004,4.14426E-002,-1.62869E-002,8.87990E-001,4.17577E-002,1.04231E+000,-1.51734E-002,0.00000E+000,1.68514E-002,9.84923E-001,0.00000E+000,-1.61612E-002,-4.93077E-002,1.00000E+000,6
989,1337,5.23286E+000,5.28641E-001,-3.40308E-002,1.59553E+000,-1.94376E-001,-5.63560E-002,1.60831E+000,5.75984E-003,4.73061E-001,0,2.46082E+001,-3.11667E+000,9.99575E-001,-1.86522E+001,-3.71215E+001,9.99129E-001,3.97571E-002,-1.62660E-002,9.71078E-004,3.97739E-002,-1.62829E-002,9.92740E-001,3.99910E-002,1.04049E+000,-1.52065E-002,0.00000E+000,1.67240E-002,9.84921E-001,0.00000E+000,-9.33327E-003,-4.91841E-002,1.00000E+000,6
989,1347,5.24742E+000,1.17136E+000,-2.64661E-002,1.58730E+000,-2.01938E-001,-8.48283E-002,1.60234E+000,6.03218E-003,4.64478E-001,0,2.45775E+001,-3.18446E+000,9.99814E-001,-1.83093E+001,-3.72131E+001,9.99539E-001,3.93285E-002,-1.62634E-002,9.86321E-004,3.93460E-002,-1.62809E-002,1.01613E+000,3.95405E-002,1.04003E+000,-1.52229E-002,0.00000E+000,1.66919E-002,9.84920E-001,0.00000E+000,-7.61425E-003,-4.91229E-002,1.00000E+000,6
859,1327,-3.60987E+000,-2.67801E-001,-9.71197E-003,1.26131E+000,-2.59192E-001,5.56037E-002,1.28887E+000,4.63768E-003,5.49148E-001,0,1.93309E+001,-4.32327E+000,9.99703E-001,-2.51882E+001,-4.06390E+001,9.99357E-001,4.13544E-002,-1.69648E-002,-1.43755E-003,4.13898E-002,-1.70002E-002,-1.41118E+000,4.16091E-002,1.04222E+000,-3.63728E-003,0.00000E+000,5.43357E-004,9.84905E-001,0.00000E+000,9.20399E-004,-5.92611E-002,1.00000E+000,6
859,1337,-3.59423E+000,3.65012E-001,-3.37257E-002,1.26045E+000,-2.70672E-001,1.51006E-002,1.28927E+000,5.16873E-003,5.38122E-001,0,1.94460E+001,-4.42227E+000,9.99691E-001,-2.48834E+001,-4.08335E+001,9.99361E-001,4.06920E-002,-1.69650E-002,-1.44987E-003,4.07284E-002,-1.70014E-002,-1.43958E+000,4.09131E-002,1.04153E+000,-3.65462E-003,0.00000E+000,6.00382E-004,9.84907E-001,0.00000E+000,-1.56438E-004,-5.92881E-002,1.00000E+000,6
859,1347,-3.57338E+000,1.00383E+000,-2.64260E-002,1.25883E+000,-2.80548E-001,-2.29664E-002,1.28991E+000,7.28926E-003,5.17655E-001,0,1.95398E+001,-4.49727E+000,9.99847E-001,-2.44221E+001,-4.10106E+001,9.99518E-001,4.00247E-002,-1.69652E-002,-1.46521E-003,4.00623E-002,-1.70029E-002,-1.47178E+000,4.02146E-002,1.04083E+000,-3.67811E-003,0.00000E+000,6.57690E-004,9.84908E-001,0.00000E+000,-1.23863E-003,-5.93247E-002,1.00000E+000,6
859,1307,-3.62264E+000,-1.51507E+000,1.26782E-001,1.26381E+000,-2.31080E-001,1.39122E-001,1.29227E+000,7.89183E-003,6.24551E-001,0,1.90988E+001,-4.06846E+000,9.99666E-001,-2.52969E+001,-4.01322E+001,9.99122E-001,4.26647E-002,-1.69646E-002,-1.42178E-003,4.26985E-002,-1.69985E-002,-1.36511E+000,4.29931E-002,1.04359E+000,-3.62089E-003,0.00000E+000,4.30160E-004,9.84904E-001,0.00000E+000,3.05797E-003,-5.92355E-002,1.00000E+000,6
859,1317,-3.61910E+000,-8.96667E-001,4.11564E-002,1.26300E+000,-2.48132E-001,9.59217E-002,1.29071E+000,5.63458E-003,5.59890E-001,0,1.92280E+001,-4.22489E+000,9.99689E-001,-2.53289E+001,-4.04428E+001,9.99001E-001,4.20119E-002,-1.69647E-002,-1.42803E-003,4.20465E-002,-1.69992E-002,-1.38625E+000,4.23024E-002,1.04291E+000,-3.62570E-003,0.00000E+000,4.86619E-004,9.84904E-001,0.00000E+000,1.99181E-003,-5.92430E-002,1.00000E+000,6
999,1337,5.91494E+000,5.45445E-001,-3.55727E-002,1.62261E+000,-1.82007E-001,-5.71514E-002,1.63378E+000,5.83336E-003,4.49247E-001,0,2.50041E+001,-2.94060E+000,9.99875E-001,-1.81019E+001,-3.67775E+001,9.99400E-001,3.98948E-002,-1.62927E-002,8.54847E-004,3.99078E-002,-1.63057E-002,8.71440E-001,4.01295E-002,1.04061E+000,-1.55638E-002,0.00000E+000,1.67579E-002,9.84811E-001,0.00000E+000,-8.09996E-003,-4.74695E-002,1.00000E+000,6
999,1347,5.93196E+000,1.19028E+000,-1.94781E-002,1.61440E+000,-1.90596E-001,-8.68757E-002,1.62793E+000,5.03189E-003,4.33359E-001,0,2.49785E+001,-2.99518E+000,9.99910E-001,-1.77045E+001,-3.68570E+001,9.99479E-001,3.95716E-002,-1.62895E-002,8.75406E-004,3.95853E-002,-1.63032E-002,8.97595E-001,3.97899E-002,1.04027E+000,-1.55773E-002,0.00000E+000,1.67443E-002,9.84811E-001,0.00000E+000,-6.57371E-003,-4.74100E-002,1.00000E+000,6
999,1307,5.90810E+000,-1.34905E+000,7.88266E-002,1.65409E+000,-1.46885E-001,3.12932E-002,1.66089E+000,4.39581E-003,4.97871E-001,0,2.51753E+001,-2.54176E+000,9.99819E-001,-1.82644E+001,-3.62858E+001,9.99479E-001,4.08393E-002,-1.62990E-002,7.84164E-004,4.08501E-002,-1.63097E-002,7.86129E-001,4.11255E-002,1.04164E+000,-1.55432E-002,0.00000E+000,1.67985E-002,9.84812E-001,0.00000E+000,-1.26272E-002,-4.75598E-002,1.00000E+000,6
999,1317,5.90285E+000,-7.20152E-001,1.21149E-002,1.64147E+000,-1.59228E-001,-2.81015E-003,1.64918E+000,8.35858E-003,5.24234E-001,0,2.51035E+001,-2.67103E+000,9.99624E-001,-1.83871E+001,-3.64062E+001,9.97527E-001,4.05271E-002,-1.62974E-002,8.09111E-004,4.05387E-002,-1.63089E-002,8.15601E-001,4.07958E-002,1.04130E+000,-1.55472E-002,0.00000E+000,1.67850E-002,9.84812E-001,0.00000E+000,-1.11197E-002,-4.75425E-002,1.00000E+000,6
999,1327,5.90725E+000,-9.05813E-002,-2.76926E-002,1.63301E+000,-1.73333E-001,-3.42962E-002,1.64254E+000,9.02223E-003,5.25659E-001,0,2.50853E+001,-2.83860E+000,9.99765E-001,-1.83039E+001,-3.65866E+001,9.98541E-001,4.02121E-002,-1.62953E-002,8.32679E-004,4.02243E-002,-1.63075E-002,8.44053E-001,4.04635E-002,1.04096E+000,-1.55541E-002,0.00000E+000,1.67714E-002,9.84812E-001,0.00000E+000,-9.60960E-003,-4.75122E-002,1.00000E+000,6
999,1297,5.91522E+000,-1.97705E+000,1.52502E-001,1.66654E+000,-1.34923E-001,6.34024E-002,1.67319E+000,4.90617E-003,4.95255E-001,0,2.52508E+001,-2.42611E+000,9.99685E-001,-1.80983E+001,-3.61545E+001,9.98654E-001,4.11487E-002,-1.63003E-002,7.58696E-004,4.11588E-002,-1.63104E-002,7.56495E-001,4.14529E-002,1.04199E+000,-1.55404E-002,0.00000E+000,1.68119E-002,9.84812E-001,0.00000E+000,-1.41328E-002,-4.75723E-002,1.00000E+000,6
849,1337,-4.26891E+000,3.61512E-001,-2.95038E-002,1.23305E+000,-2.70878E-001,1.13707E-002,1.26250E+000,6.60562E-003,5.70773E-001,0,1.90480E+001,-4.40725E+000,9.99756E-001,-2.52577E+001,-4.09747E+001,9.99547E-001,4.09279E-002,-1.69795E-002,-1.39055E-003,4.09613E-002,-1.70128E-002,-1.37481E+000,4.11565E-002,1.04177E+000,-2.91421E-003,0.00000E+000,2.50411E-005,9.84849E-001,0.00000E+000,-2.66277E-004,-5.85442E-002,1.00000E+000,6
849,1347,-4.25202E+000,9.97509E-001,-2.84347E-002,1.23029E+000,-2.80363E-001,-2.02532E-002,1.26199E+000,5.61090E-003,5.16589E-001,0,1.91037E+001,-4.49096E+000,9.99805E-001,-2.48710E+001,-4.12008E+001,9.99697E-001,4.03760E-002,-1.69799E-002,-1.40595E-003,4.04104E-002,-1.70143E-002,-1.40335E+000,4.05780E-002,1.04120E+000,-2.93130E-003,0.00000E+000,7.41747E-005,9.84851E-001,0.00000E+000,-1.34069E-003,-5.85761E-002,1.00000E+000,6
849,1357,-4.22257E+000,1.64501E+000,1.98754E-002,1.22965E+000,-2.87937E-001,-5.53074E-002,1.26412E+000,5.14355E-003,5.03868E-001,0,1.91998E+001,-4.53005E+000,9.99813E-001,-2.41748E+001,-4.13357E+001,9.99648E-001,3.98162E-002,-1.69805E-002,-1.42578E-003,3.98519E-002,-1.70163E-002,-1.43710E+000,3.99933E-002,1.04062E+000,-2.95732E-003,0.00000E+000,1.23880E-004,9.84853E-001,0.00000E+000,-2.42760E-003,-5.86248E-002,1.00000E+000,6
849,1327,-4.28180E+000,-2.69481E-001,-1.98399E-003,1.23539E+000,-2.57993E-001,4.97930E-002,1.26302E+000,6.59746E-003,5.61425E-001,0,1.89623E+001,-4.28125E+000,9.99816E-001,-2.55123E+001,-4.07677E+001,9.99492E-001,4.14778E-002,-1.69791E-002,-1.37702E-003,4.15102E-002,-1.70115E-002,-1.34867E+000,4.17347E-002,1.04235E+000,-2.90091E-003,0.00000E+000,-2.40389E-005,9.84848E-001,0.00000E+000,8.06965E-004,-5.85193E-002,1.00000E+000,6
1009,1337,6.59879E+000,5.66810E-001,-4.34492E-002,1.65268E+000,-1.67433E-001,-5.66264E-002,1.66210E+000,7.28615E-003,4.80589E-001,0,2.54399E+001,-2.70820E+000,9.99900E-001,-1.75331E+001,-3.63213E+001,9.99544E-001,3.99677E-002,-1.63314E-002,7.09513E-004,3.99766E-002,-1.63403E-002,7.21921E-001,4.01979E-002,1.04068E+000,-1.58055E-002,0.00000E+000,1.66268E-002,9.84707E-001,0.00000E+000,-6.75287E-003,-4.60178E-002,1.00000E+000,6
1009,1347,6.61528E+000,1.20553E+000,-2.33617E-002,1.64171E+000,-1.81747E-001,-9.14674E-002,1.65427E+000,5.37661E-003,4.49241E-001,0,2.53923E+001,-2.86210E+000,9.99940E-001,-1.71385E+001,-3.65103E+001,9.99690E-001,3.97375E-002,-1.63284E-002,7.28000E-004,3.97469E-002,-1.63379E-002,7.43803E-001,3.99560E-002,1.04043E+000,-1.58160E-002,0.00000E+000,1.66199E-002,9.84707E-001,0.00000E+000,-5.50975E-003,-4.59651E-002,1.00000E+000,6
1009,1297,6.59765E+000,-1.96145E+000,1.47918E-001,1.69246E+000,-1.24564E-001,5.33806E-002,1.69788E+000,6.27750E-003,4.64933E-001,0,2.56582E+001,-2.24457E+000,9.99481E-001,-1.75429E+001,-3.58324E+001,9.98468E-001,4.08643E-002,-1.63377E-002,6.23654E-004,4.08711E-002,-1.63445E-002,6.24577E-001,4.11432E-002,1.04165E+000,-1.57899E-002,0.00000E+000,1.66539E-002,9.84708E-001,0.00000E+000,-1.16775E-002,-4.60962E-002,1.00000E+000,6
1009,1307,6.59186E+000,-1.33285E+000,7.75195E-002,1.68131E+000,-1.35404E-001,2.45967E-002,1.68693E+000,6.21656E-003,4.47726E-001,0,2.55911E+001,-2.35195E+000,9.99688E-001,-1.76815E+001,-3.59695E+001,9.99335E-001,4.06432E-002,-1.63365E-002,6.45958E-004,4.06505E-002,-1.63438E-002,6.49430E-001,4.09097E-002,1.04141E+000,-1.57920E-002,0.00000E+000,1.66471E-002,9.84708E-001,0.00000E+000,-1.04505E-002,-4.60859E-002,1.00000E+000,6
1009,1317,6.58979E+000,-7.03352E-001,1.50629E-002,1.67154E+000,-1.47243E-001,-6.47744E-003,1.67803E+000,6.05259E-003,4.73587E-001,0,2.55528E+001,-2.48507E+000,9.99845E-001,-1.77461E+001,-3.60880E+001,9.99339E-001,4.04201E-002,-1.63351E-002,6.67865E-004,4.04280E-002,-1.63430E-002,6.74101E-001,4.06743E-002,1.04117E+000,-1.57949E-002,0.00000E+000,1.66404E-002,9.84708E-001,0.00000E+000,-9.22104E-003,-4.60711E-002,1.00000E+000,6
849,1317,-4.29425E+000,-8.94785E-001,4.81534E-002,1.23512E+000,-2.42325E-001,9.59657E-002,1.26232E+000,7.05698E-003,6.37822E-001,0,1.88103E+001,-4.16190E+000,9.99775E-001,-2.57045E+001,-4.04808E+001,9.99229E-001,4.20243E-002,-1.69788E-002,-1.36479E-003,4.20558E-002,-1.70104E-002,-1.32435E+000,4.23109E-002,1.04292E+000,-2.89021E-003,0.00000E+000,-7.29442E-005,9.84847E-001,0.00000E+000,1.87638E-003,-5.84993E-002,1.00000E+000,6
1009,1327,6.59316E+000,-6.98034E-002,-1.82066E-002,1.66027E+000,-1.59321E-001,-3.86072E-002,1.66834E+000,6.52391E-003,4.90411E-001,0,2.54936E+001,-2.61683E+000,9.99878E-001,-1.76658E+001,-3.62121E+001,9.99498E-001,4.01946E-002,-1.63332E-002,6.88604E-004,4.02030E-002,-1.63416E-002,6.97822E-001,4.04367E-002,1.04092E+000,-1.58005E-002,0.00000E+000,1.66336E-002,9.84707E-001,0.00000E+000,-7.98640E-003,-4.60431E-002,1.00000E+000,6
849,1307,-4.29993E+000,-1.51768E+000,1.29240E-001,1.23378E+000,-2.29007E-001,1.34778E-001,1.26207E+000,8.70459E-003,5.91728E-001,0,1.86643E+001,-4.01268E+000,9.99703E-001,-2.57161E+001,-4.02836E+001,9.98952E-001,4.25666E-002,-1.69787E-002,-1.35580E-003,4.25975E-002,-1.70096E-002,-1.30368E+000,4.28844E-002,1.04349E+000,-2.88622E-003,0.00000E+000,-1.21607E-004,9.84847E-001,0.00000E+000,2.94050E-003,-5.84918E-002,1.00000E+000,6
839,1337,-4.94345E+000,3.57102E-001,-8.98614E-003,1.20513E+000,-2.70254E-001,2.24207E-002,1.23526E+000,1.31922E-002,5.58762E-001,0,1.85945E+001,-4.42054E+000,9.99791E-001,-2.55858E+001,-4.11880E+001,9.99421E-001,4.10633E-002,-1.69658E-002,-1.28344E-003,4.10917E-002,-1.69942E-002,-1.26639E+000,4.12959E-002,1.04192E+000,-2.35300E-003,0.00000E+000,-2.79462E-004,9.84811E-001,0.00000E+000,-5.12288E-004,-5.76406E-002,1.00000E+000,6
839,1347,-4.92819E+000,9.91151E-001,-2.51821E-002,1.20283E+000,-2.80438E-001,-1.69649E-002,1.23521E+000,4.65900E-003,5.10595E-001,0,1.86817E+001,-4.49526E+000,9.99841E-001,-2.52652E+001,-4.14054E+001,9.99646E-001,4.05665E-002,-1.69670E-002,-1.31203E-003,4.05964E-002,-1.69969E-002,-1.30571E+000,4.07750E-002,1.04140E+000,-2.36685E-003,0.00000E+000,-2.58796E-004,9.84811E-001,0.00000E+000,-1.62066E-003,-5.76703E-002,1.00000E+000,6
839,1357,-4.89904E+000,1.63888E+000,1.92702E-002,1.20301E+000,-2.86805E-001,-5.15593E-002,1.23780E+000,4.07301E-003,4.95897E-001,0,1.87882E+001,-4.51741E+000,9.99866E-001,-2.45806E+001,-4.15310E+001,9.99656E-001,4.00623E-002,-1.69690E-002,-1.34521E-003,4.00940E-002,-1.70007E-002,-1.35045E+000,4.02480E-002,1.04088E+000,-2.38957E-003,0.00000E+000,-2.37887E-004,9.84812E-001,0.00000E+000,-2.74211E-003,-5.77190E-002,1.00000E+000,6
1019,1337,7.28693E+000,5.88322E-001,-3.20397E-002,1.68047E+000,-1.56187E-001,-6.34142E-002,1.68891E+000,6.57392E-003,5.29717E-001,0,2.58657E+001,-2.52628E+000,9.99839E-001,-1.68548E+001,-3.58960E+001,9.99567E-001,3.99879E-002,-1.63525E-002,5.49549E-004,3.99933E-002,-1.63579E-002,5.58797E-001,4.02134E-002,1.04069E+000,-1.59963E-002,0.00000E+000,1.64250E-002,9.84647E-001,0.00000E+000,-5.38207E-003,-4.50912E-002,1.00000E+000,6
1019,1347,7.29731E+000,1.22564E+000,-2.85076E-002,1.66899E+000,-1.69060E-001,-8.96258E-002,1.67992E+000,5.98898E-003,4.97856E-001,0,2.57817E+001,-2.66754E+000,9.99857E-001,-1.65909E+001,-3.60697E+001,9.99698E-001,3.98328E-002,-1.63492E-002,5.78897E-004,3.98387E-002,-1.63552E-002,5.90289E-001,4.00508E-002,1.04052E+000,-1.60019E-002,0.00000E+000,1.64432E-002,9.84648E-001,0.00000E+000,-4.31970E-003,-4.50554E-002,1.00000E+000,6
839,1327,-4.96257E+000,-2.72508E-001,-2.80226E-003,1.20560E+000,-2.53625E-001,6.15952E-002,1.23353E+000,1.21351E-002,5.71019E-001,0,1.84783E+001,-4.23880E+000,9.99873E-001,-2.59891E+001,-4.09016E+001,9.99351E-001,4.15600E-002,-1.69645E-002,-1.25407E-003,4.15868E-002,-1.69913E-002,-1.22699E+000,4.18179E-002,1.04243E+000,-2.33758E-003,0.00000E+000,-3.00178E-004,9.84810E-001,0.00000E+000,5.98859E-004,-5.76075E-002,1.00000E+000,6
1019,1327,7.27657E+000,-5.23905E-002,-2.33846E-002,1.68838E+000,-1.48166E-001,-4.07029E-002,1.69536E+000,6.63579E-003,4.90915E-001,0,2.59086E+001,-2.43283E+000,9.99830E-001,-1.70937E+001,-3.58402E+001,9.99376E-001,4.01418E-002,-1.63554E-002,5.19750E-004,4.01466E-002,-1.63602E-002,5.27036E-001,4.03749E-002,1.04085E+000,-1.59916E-002,0.00000E+000,1.64069E-002,9.84647E-001,0.00000E+000,-6.44343E-003,-4.51211E-002,1.00000E+000,6
1019,1317,7.27527E+000,-6.86214E-001,2.10082E-002,1.69814E+000,-1.37370E-001,-1.35521E-002,1.70374E+000,7.96467E-003,4.70627E-001,0,2.59611E+001,-2.32448E+000,9.99842E-001,-1.71185E+001,-3.57476E+001,9.99078E-001,4.02940E-002,-1.63576E-002,4.89171E-004,4.02983E-002,-1.63618E-002,4.94683E-001,4.05349E-002,1.04102E+000,-1.59888E-002,0.00000E+000,1.63888E-002,9.84646E-001,0.00000E+000,-7.50077E-003,-4.51392E-002,1.00000E+000,6
839,1317,-4.97173E+000,-9.00067E-001,5.06995E-002,1.20440E+000,-2.41841E-001,9.08389E-002,1.23180E+000,6.09892E-003,5.56089E-001,0,1.83665E+001,-4.11997E+000,9.99763E-001,-2.61228E+001,-4.06999E+001,9.98917E-001,4.20516E-002,-1.69639E-002,-1.22921E-003,4.20772E-002,-1.69895E-002,-1.19270E+000,4.23362E-002,1.04295E+000,-2.33118E-003,0.00000E+000,-3.20749E-004,9.84810E-001,0.00000E+000,1.70215E-003,-5.75937E-002,1.00000E+000,6
1019,1297,7.27921E+000,-1.94523E+000,1.33487E-001,1.71843E+000,-1.13284E-001,3.95809E-002,1.72261E+000,7.70463E-003,4.46837E-001,0,2.60793E+001,-2.03890E+000,9.99782E-001,-1.70173E+001,-3.54742E+001,9.98922E-001,4.05939E-002,-1.63614E-002,4.27469E-004,4.05971E-002,-1.63646E-002,4.29992E-001,4.08505E-002,1.04135E+000,-1.59846E-002,0.00000E+000,1.63528E-002,9.84646E-001,0.00000E+000,-9.60759E-003,-4.51660E-002,1.00000E+000,6
1019,1307,7.27386E+000,-1.31538E+000,6.70505E-002,1.70690E+000,-1.25146E-001,1.16688E-002,1.71153E+000,1.06424E-002,5.06895E-001,0,2.60044E+001,-2.17747E+000,9.99806E-001,-1.71413E+001,-3.55597E+001,9.98891E-001,4.04444E-002,-1.63597E-002,4.58601E-004,4.04481E-002,-1.63634E-002,4.62531E-001,4.06930E-002,1.04118E+000,-1.59862E-002,0.00000E+000,1.63708E-002,9.84646E-001,0.00000E+000,-8.55314E-003,-4.51559E-002,1.00000E+000,6
839,1307,-4.97538E+000,-1.52140E+000,1.31279E-001,1.20458E+000,-2.27131E-001,1.26822E-001,1.23235E+000,5.07904E-003,5.19146E-001,0,1.82530E+001,-3.95363E+000,9.99741E-001,-2.61040E+001,-4.04709E+001,9.98911E-001,4.25399E-002,-1.69636E-002,-1.20599E-003,4.25644E-002,-1.69880E-002,-1.16061E+000,4.28522E-002,1.04346E+000,-2.32801E-003,0.00000E+000,-3.41240E-004,9.84810E-001,0.00000E+000,2.80117E-003,-5.75869E-002,1.00000E+000,6
829,1337,-5.62234E+000,3.50811E-001,-2.15273E-002,1.17567E+000,-2.68675E-001,1.62037E-002,1.20609E+000,8.56196E-003,5.40907E-001,0,1.81714E+001,-4.38579E+000,9.99742E-001,-2.60579E+001,-4.13617E+001,9.99308E-001,4.10381E-002,-1.69300E-002,-1.14282E-003,4.10606E-002,-1.69525E-002,-1.12899E+000,4.12679E-002,1.04189E+000,-1.87643E-003,0.00000E+000,-4.35598E-004,9.84797E-001,0.00000E+000,-8.08073E-004,-5.67806E-002,1.00000E+000,6
829,1347,-5.60192E+000,9.87924E-001,-1.90977E-002,1.17610E+000,-2.78930E-001,-1.70904E-002,1.20885E+000,3.76819E-003,5.19168E-001,0,1.82804E+001,-4.46517E+000,9.99762E-001,-2.56105E+001,-4.15605E+001,9.99582E-001,4.05612E-002,-1.69339E-002,-1.21300E-003,4.05868E-002,-1.69594E-002,-1.20808E+000,4.07689E-002,1.04140E+000,-1.89155E-003,0.00000E+000,-4.88974E-004,9.84796E-001,0.00000E+000,-2.05519E-003,-5.68187E-002,1.00000E+000,6
829,1357,-5.57454E+000,1.63348E+000,1.81089E-002,1.17617E+000,-2.86354E-001,-5.19040E-002,1.21164E+000,4.09787E-003,5.18175E-001,0,1.83859E+001,-4.50780E+000,9.99847E-001,-2.49689E+001,-4.16987E+001,9.99692E-001,4.00794E-002,-1.69392E-002,-1.28630E-003,4.01084E-002,-1.69682E-002,-1.29168E+000,4.02664E-002,1.04090E+000,-1.91217E-003,0.00000E+000,-5.42692E-004,9.84794E-001,0.00000E+000,-3.31032E-003,-5.68707E-002,1.00000E+000,6
1029,1337,7.96381E+000,6.01664E-001,-4.18389E-002,1.70244E+000,-1.47332E-001,-6.61070E-002,1.71008E+000,6.30070E-003,4.92044E-001,0,2.61904E+001,-2.37882E+000,9.99743E-001,-1.63911E+001,-3.55953E+001,9.99197E-001,4.00376E-002,-1.62861E-002,3.94239E-004,4.00404E-002,-1.62888E-002,4.01017E-001,4.02716E-002,1.04073E+000,-1.60958E-002,0.00000E+000,1.61485E-002,9.84685E-001,0.00000E+000,-3.96655E-003,-4.43865E-002,1.00000E+000,6
1029,1347,7.97608E+000,1.24385E+000,-3.83035E-002,1.69176E+000,-1.57143E-001,-9.61321E-002,1.70176E+000,5.65488E-003,5.20388E-001,0,2.61313E+001,-2.47875E+000,9.99815E-001,-1.60993E+001,-3.56617E+001,9.99276E-001,3.99586E-002,-1.62813E-002,4.38844E-004,3.99621E-002,-1.62847E-002,4.47047E-001,4.01893E-002,1.04065E+000,-1.60988E-002,0.00000E+000,1.61975E-002,9.84687E-001,0.00000E+000,-2.98559E-003,-4.43520E-002,1.00000E+000,6
1029,1327,7.95962E+000,-3.69818E-002,-2.20052E-002,1.71399E+000,-1.38096E-001,-4.37936E-002,1.72010E+000,6.80175E-003,4.62152E-001,0,2.62883E+001,-2.27987E+000,9.99753E-001,-1.65102E+001,-3.55284E+001,9.99227E-001,4.01154E-002,-1.62898E-002,3.49324E-004,4.01176E-002,-1.62920E-002,3.54822E-001,4.03527E-002,1.04082E+000,-1.60938E-002,0.00000E+000,1.60997E-002,9.84684E-001,0.00000E+000,-4.94379E-003,-4.44102E-002,1.00000E+000,6
829,1327,-5.63846E+000,-2.77798E-001,-3.18621E-003,1.17514E+000,-2.53786E-001,4.85800E-002,1.20321E+000,8.06206E-003,5.50131E-001,0,1.80614E+001,-4.21809E+000,9.99856E-001,-2.63862E+001,-4.10858E+001,9.99526E-001,4.15110E-002,-1.69269E-002,-1.07457E-003,4.15308E-002,-1.69466E-002,-1.05309E+000,4.17642E-002,1.04238E+000,-1.86460E-003,0.00000E+000,-3.82470E-004,9.84799E-001,0.00000E+000,4.33260E-004,-5.67508E-002,1.00000E+000,6
829,1307,-5.64738E+000,-1.52695E+000,1.42842E-001,1.17851E+000,-2.27805E-001,1.28891E-001,1.20723E+000,6.79216E-003,4.65176E-001,0,1.78586E+001,-3.95391E+000,9.99701E-001,-2.64117E+001,-4.06972E+001,9.98697E-001,4.24457E-002,-1.69243E-002,-9.45707E-004,4.24608E-002,-1.69393E-002,-9.12358E-001,4.27489E-002,1.04336E+000,-1.85513E-003,0.00000E+000,-2.76881E-004,9.84800E-001,0.00000E+000,2.90033E-003,-5.67269E-002,1.00000E+000,6
829,1317,-5.64637E+000,-9.04709E-001,5.36553E-002,1.17647E+000,-2.41206E-001,8.78895E-002,1.20415E+000,6.84854E-003,5.11839E-001,0,1.79579E+001,-4.08839E+000,9.99773E-001,-2.64924E+001,-4.08912E+001,9.99326E-001,4.19802E-002,-1.69250E-002,-1.00890E-003,4.19975E-002,-1.69423E-002,-9.80949E-001,4.22579E-002,1.04287E+000,-1.85755E-003,0.00000E+000,-3.29568E-004,9.84799E-001,0.00000E+000,1.66931E-003,-5.67330E-002,1.00000E+000,6
1029,1317,7.95812E+000,-6.71282E-001,1.67847E-002,1.72387E+000,-1.29227E-001,-2.10442E-002,1.72884E+000,7.75981E-003,4.93216E-001,0,2.63583E+001,-2.18854E+000,9.99854E-001,-1.65492E+001,-3.54070E+001,9.99103E-001,4.01918E-002,-1.62929E-002,3.04376E-004,4.01934E-002,-1.62945E-002,3.08735E-001,4.04325E-002,1.04090E+000,-1.60923E-002,0.00000E+000,1.60512E-002,9.84683E-001,0.00000E+000,-5.91541E-003,-4.44273E-002,1.00000E+000,6
1029,1307,7.96011E+000,-1.30034E+000,7.36950E-002,1.73466E+000,-1.16981E-001,8.69688E-003,1.73863E+000,7.81861E-003,5.03135E-001,0,2.64155E+001,-2.04700E+000,9.99863E-001,-1.64967E+001,-3.52550E+001,9.98052E-001,4.02671E-002,-1.62956E-002,2.59336E-004,4.02682E-002,-1.62968E-002,2.62689E-001,4.05113E-002,1.04098E+000,-1.60911E-002,0.00000E+000,1.60028E-002,9.84682E-001,0.00000E+000,-6.88510E-003,-4.44406E-002,1.00000E+000,6
1029,1297,7.96521E+000,-1.92766E+000,1.39283E-001,1.74638E+000,-1.02564E-001,3.75057E-002,1.74979E+000,7.16461E-003,4.81141E-001,0,2.64887E+001,-1.88248E+000,9.99844E-001,-1.63780E+001,-3.51110E+001,9.98158E-001,4.03415E-002,-1.62980E-002,2.14074E-004,4.03423E-002,-1.62988E-002,2.16551E-001,4.05893E-002,1.04107E+000,-1.60903E-002,0.00000E+000,1.59543E-002,9.84682E-001,0.00000E+000,-7.85622E-003,-4.44506E-002,1.00000E+000,6
819,1317,-6.31928E+000,-9.10955E-001,6.46605E-002,1.14911E+000,-2.42964E-001,8.93467E-002,1.17791E+000,7.12925E-003,5.03633E-001,0,1.75444E+001,-4.11806E+000,9.99725E-001,-2.68121E+001,-4.11063E+001,9.98872E-001,4.17252E-002,-1.68176E-002,-7.94558E-004,4.17360E-002,-1.68284E-002,-7.77442E-001,4.19959E-002,1.04261E+000,-1.44303E-003,0.00000E+000,-2.82975E-004,9.84842E-001,0.00000E+000,1.43522E-003,-5.55986E-002,1.00000E+000,6
819,1327,-6.31347E+000,-2.86642E-001,1.15893E-003,1.14797E+000,-2.56076E-001,5.43020E-002,1.17744E+000,7.84788E-003,5.19447E-001,0,1.76375E+001,-4.25862E+000,9.99805E-001,-2.67548E+001,-4.13400E+001,9.98825E-001,4.12869E-002,-1.68198E-002,-8.91309E-004,4.13006E-002,-1.68334E-002,-8.78595E-001,4.15351E-002,1.04215E+000,-1.44802E-003,0.00000E+000,-4.01110E-004,9.84841E-001,0.00000E+000,2.08912E-004,-5.56120E-002,1.00000E+000,6
819,1337,-6.29739E+000,3.46885E-001,-2.22830E-002,1.14927E+000,-2.66309E-001,2.02306E-002,1.17989E+000,5.15178E-003,5.35581E-001,0,1.77625E+001,-4.34762E+000,9.99708E-001,-2.64378E+001,-4.15182E+001,9.99485E-001,4.08436E-002,-1.68242E-002,-9.91457E-004,4.08607E-002,-1.68412E-002,-9.84673E-001,4.10703E-002,1.04169E+000,-1.45856E-003,0.00000E+000,-5.20133E-004,9.84838E-001,0.00000E+000,-1.02660E-003,-5.56402E-002,1.00000E+000,6
819,1307,-6.32376E+000,-1.53061E+000,1.40839E-001,1.14852E+000,-2.28576E-001,1.21913E-001,1.17737E+000,7.55345E-003,5.32112E-001,0,1.74313E+001,-3.95579E+000,9.99717E-001,-2.68165E+001,-4.08059E+001,9.98739E-001,4.21599E-002,-1.68163E-002,-6.99266E-004,4.21682E-002,-1.68246E-002,-6.79214E-001,4.24541E-002,1.04306E+000,-1.44020E-003,0.00000E+000,-1.65354E-004,9.84843E-001,0.00000E+000,2.65618E-003,-5.55911E-002,1.00000E+000,6
819,1347,-6.27620E+000,9.84853E-001,-2.05345E-002,1.15026E+000,-2.76046E-001,-1.56199E-002,1.18302E+000,4.63247E-003,5.13744E-001,0,1.78872E+001,-4.40865E+000,9.99834E-001,-2.59785E+001,-4.17039E+001,9.99696E-001,4.03966E-002,-1.68302E-002,-1.09392E-003,4.04175E-002,-1.68511E-002,-1.09470E+000,4.06030E-002,1.04123E+000,-1.47292E-003,0.00000E+000,-6.39689E-004,9.84835E-001,0.00000E+000,-2.26765E-003,-5.56787E-002,1.00000E+000,6
819,1357,-6.24897E+000,1.62812E+000,2.43043E-002,1.14984E+000,-2.85734E-001,-4.56044E-002,1.18569E+000,5.20458E-003,5.34284E-001,0,1.79702E+001,-4.51163E+000,9.99848E-001,-2.53185E+001,-4.18853E+001,9.99640E-001,3.99452E-002,-1.68383E-002,-1.19954E-003,3.99705E-002,-1.68637E-002,-1.20964E+000,4.01327E-002,1.04076E+000,-1.49255E-003,0.00000E+000,-7.59944E-004,9.84830E-001,0.00000E+000,-3.51596E-003,-5.57313E-002,1.00000E+000,6
1039,1337,8.64720E+000,6.17997E-001,-5.12738E-002,1.72884E+000,-1.37845E-001,-7.52857E-002,1.73596E+000,6.09854E-003,4.99818E-001,0,2.66044E+001,-2.20997E+000,9.99758E-001,-1.58218E+001,-3.52256E+001,9.98970E-001,4.00444E-002,-1.61741E-002,1.95309E-004,4.00450E-002,-1.61747E-002,1.99048E-001,4.02908E-002,1.04073E+000,-1.61444E-002,0.00000E+000,1.57453E-002,9.84778E-001,0.00000E+000,-2.63216E-003,-4.38744E-002,1.00000E+000,6
1039,1347,8.65813E+000,1.25614E+000,-4.22302E-002,1.71713E+000,-1.49620E-001,-9.80281E-002,1.72642E+000,5.90868E-003,4.40811E-001,0,2.65053E+001,-2.34444E+000,9.99882E-001,-1.55414E+001,-3.54089E+001,9.99418E-001,4.00304E-002,-1.61702E-002,2.33574E-004,4.00314E-002,-1.61711E-002,2.38120E-001,4.02768E-002,1.04072E+000,-1.61450E-002,0.00000E+000,1.57839E-002,9.84780E-001,0.00000E+000,-1.76350E-003,-4.38443E-002,1.00000E+000,6
1039,1317,8.64051E+000,-6.54330E-001,1.31642E-002,1.75040E+000,-1.17052E-001,-2.06512E-002,1.75444E+000,5.17702E-003,4.65167E-001,0,2.67384E+001,-1.99768E+000,9.99846E-001,-1.59815E+001,-3.50619E+001,9.99358E-001,4.00700E-002,-1.61798E-002,1.18663E-004,4.00702E-002,-1.61801E-002,1.20869E-001,4.03167E-002,1.04077E+000,-1.61438E-002,0.00000E+000,1.56682E-002,9.84777E-001,0.00000E+000,-4.36565E-003,-4.39121E-002,1.00000E+000,6
1039,1327,8.64291E+000,-2.19173E-002,-2.43282E-002,1.74062E+000,-1.28173E-001,-4.51631E-002,1.74592E+000,5.79559E-003,4.30451E-001,0,2.66773E+001,-2.12301E+000,9.99786E-001,-1.59269E+001,-3.52154E+001,9.99073E-001,4.00576E-002,-1.61772E-002,1.56866E-004,4.00580E-002,-1.61776E-002,1.59824E-001,4.03041E-002,1.04075E+000,-1.61441E-002,0.00000E+000,1.57066E-002,9.84777E-001,0.00000E+000,-3.50239E-003,-4.38958E-002,1.00000E+000,6
1039,1307,8.64179E+000,-1.28591E+000,6.15185E-002,1.76101E+000,-1.06534E-001,2.41825E-003,1.76423E+000,5.71683E-003,4.87649E-001,0,2.68165E+001,-1.87919E+000,9.99870E-001,-1.59571E+001,-3.49262E+001,9.99063E-001,4.00816E-002,-1.61821E-002,8.04552E-005,4.00817E-002,-1.61822E-002,8.19308E-002,4.03286E-002,1.04078E+000,-1.61435E-002,0.00000E+000,1.56299E-002,9.84776E-001,0.00000E+000,-5.22785E-003,-4.39245E-002,1.00000E+000,6
1039,1297,8.64772E+000,-1.91398E+000,1.31951E-001,1.77304E+000,-9.33767E-002,3.36025E-002,1.77582E+000,5.91039E-003,4.73066E-001,0,2.68855E+001,-1.73700E+000,9.99787E-001,-1.58158E+001,-3.48021E+001,9.98842E-001,4.00924E-002,-1.61841E-002,4.22042E-005,4.00925E-002,-1.61841E-002,4.29686E-002,4.03397E-002,1.04080E+000,-1.61434E-002,0.00000E+000,1.55916E-002,9.84776E-001,0.00000E+000,-6.08986E-003,-4.39327E-002,1.00000E+000,6
1049,1337,9.33491E+000,6.33872E-001,-4.57906E-002,1.75848E+000,-1.26786E-001,-7.25262E-002,1.76453E+000,8.66918E-003,4.58698E-001,0,2.70236E+001,-2.05791E+000,9.99894E-001,-1.51518E+001,-3.49200E+001,9.99367E-001,3.99804E-002,-1.61488E-002,-4.29771E-005,3.99805E-002,-1.61488E-002,-4.38703E-002,4.02258E-002,1.04066E+000,-1.61868E-002,0.00000E+000,1.52680E-002,9.84779E-001,0.00000E+000,-1.49945E-003,-4.31520E-002,1.00000E+000,6
1049,1347,9.34915E+000,1.27678E+000,-2.88296E-002,1.74759E+000,-1.37726E-001,-9.68829E-002,1.75569E+000,7.60834E-003,4.73503E-001,0,2.69424E+001,-2.17776E+000,9.99849E-001,-1.48063E+001,-3.50085E+001,9.99073E-001,4.00444E-002,-1.61457E-002,-1.27104E-005,4.00444E-002,-1.61457E-002,-1.29605E-002,4.02938E-002,1.04073E+000,-1.61843E-002,0.00000E+000,1.52985E-002,9.84780E-001,0.00000E+000,-8.90264E-004,-4.31288E-002,1.00000E+000,6
1049,1307,9.32937E+000,-1.26811E+000,7.24215E-002,1.78897E+000,-9.43365E-002,2.76976E-003,1.79146E+000,7.88476E-003,4.48105E-001,0,2.72161E+001,-1.69813E+000,9.99861E-001,-1.52758E+001,-3.46059E+001,9.99151E-001,3.97881E-002,-1.61545E-002,-1.31157E-004,3.97884E-002,-1.61548E-002,-1.34329E-001,4.00221E-002,1.04047E+000,-1.61904E-002,0.00000E+000,1.51777E-002,9.84777E-001,0.00000E+000,-3.30959E-003,-4.31855E-002,1.00000E+000,6
1049,1317,9.32730E+000,-6.35914E-001,2.54721E-002,1.77717E+000,-1.05087E-001,-2.01781E-002,1.78039E+000,7.75456E-003,4.45273E-001,0,2.71200E+001,-1.82396E+000,9.99758E-001,-1.53104E+001,-3.47241E+001,9.98184E-001,3.98525E-002,-1.61528E-002,-1.01923E-004,3.98527E-002,-1.61530E-002,-1.04271E-001,4.00901E-002,1.04053E+000,-1.61894E-002,0.00000E+000,1.52077E-002,9.84778E-001,0.00000E+000,-2.70749E-003,-4.31764E-002,1.00000E+000,6
1049,1327,9.32692E+000,-4.93371E-003,-2.36389E-002,1.76766E+000,-1.17291E-001,-4.27527E-002,1.77207E+000,4.87819E-003,4.46524E-001,0,2.70580E+001,-1.96735E+000,9.99840E-001,-1.53230E+001,-3.48555E+001,9.98696E-001,3.99165E-002,-1.61511E-002,-7.27117E-005,3.99166E-002,-1.61512E-002,-7.43043E-002,4.01579E-002,1.04060E+000,-1.61885E-002,0.00000E+000,1.52378E-002,9.84778E-001,0.00000E+000,-2.10505E-003,-4.31679E-002,1.00000E+000,6
809,1347,-6.95397E+000,9.75840E-001,-2.18629E-002,1.12082E+000,-2.77561E-001,-1.25451E-002,1.15475E+000,4.86998E-003,5.12166E-001,0,1.74345E+001,-4.44654E+000,9.99866E-001,-2.63972E+001,-4.19378E+001,9.99658E-001,4.01983E-002,-1.67319E-002,-9.43388E-004,4.02139E-002,-1.67476E-002,-9.49098E-001,4.04006E-002,1.04102E+000,-1.11355E-003,0.00000E+000,-6.80372E-004,9.84870E-001,0.00000E+000,-2.34709E-003,-5.45583E-002,1.00000E+000,6
809,1357,-6.92723E+000,1.62098E+000,2.59027E-002,1.11943E+000,-2.86237E-001,-4.31148E-002,1.15625E+000,5.84256E-003,5.34589E-001,0,1.75033E+001,-4.52433E+000,9.99871E-001,-2.57345E+001,-4.20976E+001,9.99320E-001,3.97965E-002,-1.67431E-002,-1.08175E-003,3.98172E-002,-1.67638E-002,-1.09568E+000,3.99825E-002,1.04061E+000,-1.13136E-003,0.00000E+000,-8.71019E-004,9.84862E-001,0.00000E+000,-3.54541E-003,-5.46098E-002,1.00000E+000,6
809,1327,-6.98986E+000,-2.93905E-001,-4.84412E-003,1.11900E+000,-2.59357E-001,4.99522E-002,1.14975E+000,6.24430E-003,5.63628E-001,0,1.72165E+001,-4.28938E+000,9.99839E-001,-2.71665E+001,-4.15104E+001,9.98508E-001,4.09875E-002,-1.67183E-002,-6.76674E-004,4.09955E-002,-1.67262E-002,-6.71743E-001,4.12261E-002,1.04184E+000,-1.09195E-003,0.00000E+000,-3.03592E-004,9.84880E-001,0.00000E+000,2.11692E-005,-5.44958E-002,1.00000E+000,6
809,1337,-6.97248E+000,3.39204E-001,-2.28950E-002,1.12129E+000,-2.68634E-001,1.89205E-002,1.15317E+000,3.90381E-003,5.30593E-001,0,1.73466E+001,-4.36866E+000,9.99840E-001,-2.68148E+001,-4.17327E+001,9.99689E-001,4.05944E-002,-1.67244E-002,-8.09178E-004,4.06059E-002,-1.67358E-002,-8.08638E-001,4.08142E-002,1.04143E+000,-1.10152E-003,0.00000E+000,-4.91626E-004,9.84876E-001,0.00000E+000,-1.16073E-003,-5.45235E-002,1.00000E+000,6
809,1307,-7.00144E+000,-1.53540E+000,1.37136E-001,1.11822E+000,-2.28448E-001,1.20148E-001,1.14763E+000,8.18258E-003,5.91316E-001,0,1.69824E+001,-3.96771E+000,9.99376E-001,-2.72419E+001,-4.09326E+001,9.98220E-001,4.17637E-002,-1.67137E-002,-4.19321E-004,4.17667E-002,-1.67167E-002,-4.10819E-001,4.20429E-002,1.04265E+000,-1.08504E-003,0.00000E+000,6.99534E-005,9.84883E-001,0.00000E+000,2.36909E-003,-5.44759E-002,1.00000E+000,6
809,1317,-6.99561E+000,-9.15954E-001,5.86462E-002,1.12036E+000,-2.43993E-001,8.62047E-002,1.14986E+000,8.31493E-003,5.81157E-001,0,1.71233E+001,-4.13403E+000,9.99787E-001,-2.72229E+001,-4.12236E+001,9.98785E-001,4.13769E-002,-1.67153E-002,-5.47297E-004,4.13821E-002,-1.67205E-002,-5.39730E-001,4.16353E-002,1.04225E+000,-1.08741E-003,0.00000E+000,-1.16562E-004,9.84882E-001,0.00000E+000,1.19675E-003,-5.44827E-002,1.00000E+000,6
1049,1297,9.33053E+000,-1.90036E+000,1.30627E-001,1.79868E+000,-8.45394E-002,3.19661E-002,1.80095E+000,6.52834E-003,4.35754E-001,0,2.72581E+001,-1.59100E+000,9.99746E-001,-1.52331E+001,-3.45214E+001,9.98445E-001,3.97235E-002,-1.61562E-002,-1.60317E-004,3.97240E-002,-1.61566E-002,-1.64378E-001,3.99537E-002,1.04040E+000,-1.61913E-002,0.00000E+000,1.51476E-002,9.84777E-001,0.00000E+000,-3.91109E-003,-4.31935E-002,1.00000E+000,6
799,1337,-7.64809E+000,3.32563E-001,-2.39847E-002,1.09330E+000,-2.68697E-001,2.17677E-002,1.12605E+000,3.88844E-003,5.37478E-001,0,1.69166E+001,-4.37847E+000,9.99902E-001,-2.71969E+001,-4.19246E+001,9.99693E-001,4.02149E-002,-1.66117E-002,-6.24030E-004,4.02218E-002,-1.66186E-002,-6.29080E-001,4.04234E-002,1.04104E+000,-7.74939E-004,0.00000E+000,-4.28012E-004,9.84933E-001,0.00000E+000,-1.31429E-003,-5.35045E-002,1.00000E+000,6
799,1347,-7.63014E+000,9.68962E-001,-2.29192E-002,1.09279E+000,-2.77743E-001,-7.86395E-003,1.12756E+000,4.76822E-003,5.39398E-001,0,1.69976E+001,-4.46677E+000,9.99834E-001,-2.67865E+001,-4.21250E+001,9.99545E-001,3.98631E-002,-1.66204E-002,-7.81013E-004,3.98738E-002,-1.66312E-002,-7.92042E-001,4.00561E-002,1.04067E+000,-7.85347E-004,0.00000E+000,-6.71329E-004,9.84926E-001,0.00000E+000,-2.37010E-003,-5.35347E-002,1.00000E+000,6
799,1357,-7.60118E+000,1.61508E+000,2.34875E-002,1.09368E+000,-2.85109E-001,-4.07004E-002,1.13096E+000,4.97946E-003,5.34399E-001,0,1.71076E+001,-4.50902E+000,9.99832E-001,-2.60902E+001,-4.22817E+001,9.99288E-001,3.95065E-002,-1.66336E-002,-9.42129E-004,3.95223E-002,-1.66494E-002,-9.61163E-001,3.96853E-002,1.04030E+000,-8.01163E-004,0.00000E+000,-9.17003E-004,9.84915E-001,0.00000E+000,-3.43613E-003,-5.35805E-002,1.00000E+000,6
799,1327,-7.66300E+000,-3.01080E-001,-1.04265E-003,1.09294E+000,-2.59392E-001,5.54474E-002,1.12467E+000,1.04406E-002,5.52382E-001,0,1.68087E+001,-4.31312E+000,9.99868E-001,-2.74993E+001,-4.17281E+001,9.98654E-001,4.05645E-002,-1.66048E-002,-4.68558E-004,4.05684E-002,-1.66087E-002,-4.69552E-001,4.07898E-002,1.04140E+000,-7.66735E-004,0.00000E+000,-1.85359E-004,9.84938E-001,0.00000E+000,-2.61371E-004,-5.34807E-002,1.00000E+000,6
1059,1327,1.00109E+001,1.09070E-002,-2.26346E-002,1.79336E+000,-1.07951E-001,-4.35932E-002,1.79713E+000,7.31269E-003,4.42394E-001,0,2.74296E+001,-1.82038E+000,9.99877E-001,-1.47158E+001,-3.45242E+001,9.98985E-001,3.98071E-002,-1.61713E-002,-2.40373E-004,3.98081E-002,-1.61723E-002,-2.46024E-001,4.00406E-002,1.04049E+000,-1.60700E-002,0.00000E+000,1.47457E-002,9.84743E-001,0.00000E+000,-8.95634E-004,-4.26383E-002,1.00000E+000,6
1059,1337,1.00204E+001,6.51425E-001,-3.79658E-002,1.78514E+000,-1.16145E-001,-6.81691E-002,1.79021E+000,5.81930E-003,4.67945E-001,0,2.73911E+001,-1.91029E+000,9.99909E-001,-1.45094E+001,-3.45688E+001,9.99486E-001,3.99334E-002,-1.61689E-002,-2.08895E-004,3.99342E-002,-1.61697E-002,-2.13335E-001,4.01742E-002,1.04062E+000,-1.60665E-002,0.00000E+000,1.47872E-002,9.84744E-001,0.00000E+000,-5.33469E-004,-4.26285E-002,1.00000E+000,6
1059,1347,1.00357E+001,1.29376E+000,-2.16486E-002,1.77496E+000,-1.27052E-001,-9.41953E-002,1.78200E+000,8.11523E-003,4.53088E-001,0,2.73272E+001,-2.02695E+000,9.99906E-001,-1.41499E+001,-3.46782E+001,9.99170E-001,4.00601E-002,-1.61658E-002,-1.76548E-004,4.00607E-002,-1.61663E-002,-1.79906E-001,4.03084E-002,1.04075E+000,-1.60614E-002,0.00000E+000,1.48290E-002,9.84746E-001,0.00000E+000,-1.69685E-004,-4.26145E-002,1.00000E+000,6
1059,1297,1.00128E+001,-1.88650E+000,1.22795E-001,1.82532E+000,-7.37970E-002,3.24001E-002,1.82710E+000,5.51555E-003,4.06185E-001,0,2.76378E+001,-1.43157E+000,9.99830E-001,-1.46684E+001,-3.42197E+001,9.98822E-001,3.94290E-002,-1.61766E-002,-3.32205E-004,3.94310E-002,-1.61786E-002,-3.42287E-001,3.96419E-002,1.04009E+000,-1.60761E-002,0.00000E+000,1.46217E-002,9.84741E-001,0.00000E+000,-1.97665E-003,-4.26551E-002,1.00000E+000,6
1059,1307,1.00114E+001,-1.25553E+000,6.37503E-002,1.81538E+000,-8.41813E-002,2.32835E-003,1.81733E+000,7.93574E-003,3.90109E-001,0,2.75962E+001,-1.54605E+000,9.99858E-001,-1.47159E+001,-3.43346E+001,9.98995E-001,3.95548E-002,-1.61750E-002,-3.01826E-004,3.95564E-002,-1.61766E-002,-3.10296E-001,3.97744E-002,1.04022E+000,-1.60744E-002,0.00000E+000,1.46629E-002,9.84741E-001,0.00000E+000,-1.61755E-003,-4.26503E-002,1.00000E+000,6
1059,1317,1.00088E+001,-6.23830E-001,1.45284E-002,1.80350E+000,-9.62539E-002,-2.05499E-002,1.80618E+000,8.96985E-003,4.08622E-001,0,2.74999E+001,-1.68856E+000,9.99802E-001,-1.47638E+001,-3.44432E+001,9.98080E-001,3.96808E-002,-1.61733E-002,-2.71283E-004,3.96821E-002,-1.61746E-002,-2.78277E-001,3.99073E-002,1.04035E+000,-1.60725E-002,0.00000E+000,1.47042E-002,9.84742E-001,0.00000E+000,-1.25717E-003,-4.26451E-002,1.00000E+000,6
799,1307,-7.67286E+000,-1.54328E+000,1.43583E-001,1.09258E+000,-2.30683E-001,1.22399E-001,1.12335E+000,1.01352E-002,5.56853E-001,0,1.65929E+001,-4.00347E+000,9.99595E-001,-2.75416E+001,-4.11744E+001,9.99065E-001,4.12539E-002,-1.66001E-002,-1.65619E-004,4.12543E-002,-1.66006E-002,-1.64020E-001,4.15155E-002,1.04212E+000,-7.61345E-004,0.00000E+000,2.95677E-004,9.84942E-001,0.00000E+000,1.82595E-003,-5.34651E-002,1.00000E+000,6
799,1317,-7.67222E+000,-9.23606E-001,4.90620E-002,1.09224E+000,-2.44190E-001,8.59042E-002,1.12250E+000,1.02279E-002,5.79479E-001,0,1.67025E+001,-4.14362E+000,9.99745E-001,-2.76432E+001,-4.14138E+001,9.98458E-001,4.09107E-002,-1.66007E-002,-3.15699E-004,4.09124E-002,-1.66024E-002,-3.14502E-001,4.11537E-002,1.04176E+000,-7.61916E-004,0.00000E+000,5.57492E-005,9.84941E-001,0.00000E+000,7.84849E-004,-5.34667E-002,1.00000E+000,6
789,1327,-8.33619E+000,-3.06450E-001,-1.91175E-003,1.06707E+000,-2.57967E-001,5.98150E-002,1.09943E+000,7.99735E-003,5.77200E-001,0,1.64065E+001,-4.31680E+000,9.99847E-001,-2.78407E+001,-4.18900E+001,9.99070E-001,4.01476E-002,-1.64710E-002,-3.19189E-004,4.01494E-002,-1.64728E-002,-3.22993E-001,4.03642E-002,1.04096E+000,-4.92660E-004,0.00000E+000,-1.37729E-004,9.85020E-001,0.00000E+000,-4.97146E-004,-5.25352E-002,1.00000E+000,6
789,1337,-8.32124E+000,3.27726E-001,-2.35388E-002,1.06695E+000,-2.66998E-001,2.41163E-002,1.10012E+000,4.08313E-003,5.40903E-001,0,1.65123E+001,-4.36243E+000,9.99865E-001,-2.75330E+001,-4.20936E+001,9.99707E-001,3.98375E-002,-1.64790E-002,-4.92542E-004,3.98418E-002,-1.64833E-002,-5.01055E-001,4.00391E-002,1.04064E+000,-5.00199E-004,0.00000E+000,-4.24617E-004,9.85014E-001,0.00000E+000,-1.40864E-003,-5.25566E-002,1.00000E+000,6
789,1347,-8.30180E+000,9.64990E-001,-1.88473E-002,1.06763E+000,-2.76210E-001,-4.10595E-003,1.10279E+000,4.84009E-003,5.60396E-001,0,1.66070E+001,-4.45107E+000,9.99804E-001,-2.70888E+001,-4.22813E+001,9.99476E-001,3.95252E-002,-1.64889E-002,-6.67496E-004,3.95332E-002,-1.64968E-002,-6.82640E-001,3.97131E-002,1.04032E+000,-5.09584E-004,0.00000E+000,-7.12661E-004,9.85005E-001,0.00000E+000,-2.32380E-003,-5.25831E-002,1.00000E+000,6
789,1357,-8.27534E+000,1.60892E+000,2.14557E-002,1.06754E+000,-2.84574E-001,-3.65123E-002,1.10542E+000,4.46017E-003,5.59438E-001,0,1.67005E+001,-4.51173E+000,9.99789E-001,-2.64444E+001,-4.24583E+001,9.99381E-001,3.92098E-002,-1.65028E-002,-8.45531E-004,3.92226E-002,-1.65156E-002,-8.69291E-001,3.93852E-002,1.03999E+000,-5.22867E-004,0.00000E+000,-1.00266E-003,9.84994E-001,0.00000E+000,-3.24519E-003,-5.26208E-002,1.00000E+000,6
1069,1327,1.06967E+001,2.47212E-002,-2.69692E-002,1.82158E+000,-1.00819E-001,-4.50823E-002,1.82492E+000,8.28918E-003,4.54427E-001,0,2.78423E+001,-1.70154E+000,9.99848E-001,-1.40863E+001,-3.42044E+001,9.98532E-001,3.97168E-002,-1.61193E-002,-3.97631E-004,3.97196E-002,-1.61222E-002,-4.07998E-001,3.99534E-002,1.04039E+000,-1.59136E-002,0.00000E+000,1.42575E-002,9.84787E-001,0.00000E+000,-1.04146E-004,-4.22971E-002,1.00000E+000,6
1069,1337,1.07020E+001,6.64160E-001,-4.51039E-002,1.80994E+000,-1.08256E-001,-6.88019E-002,1.81448E+000,5.31842E-003,4.17454E-001,0,2.77495E+001,-1.77378E+000,9.99860E-001,-1.39514E+001,-3.42897E+001,9.99069E-001,3.98644E-002,-1.61173E-002,-3.70468E-004,3.98668E-002,-1.61198E-002,-3.79142E-001,4.01093E-002,1.04055E+000,-1.59097E-002,0.00000E+000,1.43041E-002,9.84788E-001,0.00000E+000,-8.32700E-005,-4.22966E-002,1.00000E+000,6
1069,1347,1.07156E+001,1.30540E+000,-3.87960E-002,1.79961E+000,-1.20173E-001,-9.70745E-002,1.80623E+000,4.98506E-003,4.45054E-001,0,2.76927E+001,-1.90941E+000,9.99903E-001,-1.36415E+001,-3.43709E+001,9.99360E-001,4.00130E-002,-1.61149E-002,-3.42340E-004,4.00151E-002,-1.61169E-002,-3.49446E-001,4.02665E-002,1.04070E+000,-1.59041E-002,0.00000E+000,1.43511E-002,9.84789E-001,0.00000E+000,-6.22355E-005,-4.22958E-002,1.00000E+000,6
789,1307,-8.34504E+000,-1.54780E+000,1.43131E-001,1.06792E+000,-2.29041E-001,1.28805E-001,1.09978E+000,9.09042E-003,5.56102E-001,0,1.62048E+001,-3.98908E+000,9.99681E-001,-2.78658E+001,-4.13333E+001,9.97676E-001,4.07589E-002,-1.64657E-002,1.92943E-005,4.07589E-002,-1.64657E-002,1.93183E-002,4.10086E-002,1.04160E+000,-4.87796E-004,0.00000E+000,4.30515E-004,9.85025E-001,0.00000E+000,1.30826E-003,-5.25214E-002,1.00000E+000,6
789,1317,-8.34088E+000,-9.29287E-001,6.75374E-002,1.06833E+000,-2.44727E-001,9.68236E-002,1.10027E+000,1.02843E-002,5.54310E-001,0,1.63115E+001,-4.17346E+000,9.99675E-001,-2.78656E+001,-4.16446E+001,9.97076E-001,4.04541E-002,-1.64678E-002,-1.49487E-004,4.04545E-002,-1.64682E-002,-1.50467E-001,4.06867E-002,1.04128E+000,-4.89683E-004,0.00000E+000,1.46722E-004,9.85023E-001,0.00000E+000,4.06604E-004,-5.25268E-002,1.00000E+000,6
1069,1297,1.06908E+001,-1.87348E+000,1.07146E-001,1.84913E+000,-6.40873E-002,3.25734E-002,1.85052E+000,6.55969E-003,4.14583E-001,0,2.79754E+001,-1.28705E+000,9.99756E-001,-1.41800E+001,-3.38959E+001,9.98718E-001,3.92745E-002,-1.61240E-002,-4.77120E-004,3.92786E-002,-1.61281E-002,-4.93412E-001,3.94873E-002,1.03993E+000,-1.59216E-002,0.00000E+000,1.41176E-002,9.84784E-001,0.00000E+000,-1.66702E-004,-4.22982E-002,1.00000E+000,6
1069,1307,1.06896E+001,-1.24450E+000,4.24501E-002,1.84042E+000,-7.57998E-002,1.79885E-003,1.84198E+000,6.26798E-003,3.74977E-001,0,2.79569E+001,-1.41163E+000,9.99865E-001,-1.42366E+001,-3.40393E+001,9.98731E-001,3.94211E-002,-1.61227E-002,-4.51168E-004,3.94248E-002,-1.61264E-002,-4.65358E-001,3.96416E-002,1.04009E+000,-1.59198E-002,0.00000E+000,1.41640E-002,9.84785E-001,0.00000E+000,-1.45965E-004,-4.22979E-002,1.00000E+000,6
1069,1317,1.06932E+001,-6.08627E-001,6.60451E-003,1.83116E+000,-8.68997E-002,-2.23011E-002,1.83335E+000,7.67968E-003,4.31815E-001,0,2.79039E+001,-1.54222E+000,9.99889E-001,-1.41629E+001,-3.40904E+001,9.98349E-001,3.95690E-002,-1.61210E-002,-4.24416E-004,3.95722E-002,-1.61242E-002,-4.36620E-001,3.97974E-002,1.04024E+000,-1.59167E-002,0.00000E+000,1.42107E-002,9.84786E-001,0.00000E+000,-1.25060E-004,-4.22975E-002,1.00000E+000,6
779,1327,-9.00565E+000,-3.08370E-001,5.16983E-003,1.04351E+000,-2.55710E-001,6.72686E-002,1.07648E+000,1.19809E-002,6.04491E-001,0,1.60301E+001,-4.28629E+000,9.99837E-001,-2.80996E+001,-4.20144E+001,9.98810E-001,3.96765E-002,-1.62657E-002,-2.80778E-004,3.96779E-002,-1.62671E-002,-2.87562E-001,3.98917E-002,1.04047E+000,-2.85492E-004,0.00000E+000,-2.50905E-004,9.85173E-001,0.00000E+000,-6.36997E-004,-5.15713E-002,1.00000E+000,6
779,1337,-8.99192E+000,3.20676E-001,-2.17939E-002,1.04266E+000,-2.68545E-001,2.78907E-002,1.07704E+000,3.90480E-003,5.71877E-001,0,1.61360E+001,-4.39829E+000,9.99836E-001,-2.78244E+001,-4.22855E+001,9.99622E-001,3.94423E-002,-1.62734E-002,-4.53554E-004,3.94460E-002,-1.62771E-002,-4.66376E-001,3.96462E-002,1.04023E+000,-2.91015E-004,0.00000E+000,-5.47000E-004,9.85167E-001,0.00000E+000,-1.40168E-003,-5.15887E-002,1.00000E+000,6
779,1347,-8.97356E+000,9.58429E-001,-1.79094E-002,1.04187E+000,-2.76325E-001,-4.07676E-003,1.07790E+000,4.73479E-003,5.49197E-001,0,1.62183E+001,-4.45251E+000,9.99775E-001,-2.73969E+001,-4.24869E+001,9.99484E-001,3.92063E-002,-1.62834E-002,-6.27931E-004,3.92134E-002,-1.62905E-002,-6.48257E-001,3.93999E-002,1.03999E+000,-2.98261E-004,0.00000E+000,-8.44399E-004,9.85158E-001,0.00000E+000,-2.16973E-003,-5.16116E-002,1.00000E+000,6
779,1357,-8.94828E+000,1.60208E+000,1.88803E-002,1.04155E+000,-2.84544E-001,-3.62284E-002,1.08033E+000,3.64710E-003,5.50877E-001,0,1.63070E+001,-4.50727E+000,9.99772E-001,-2.67773E+001,-4.26609E+001,9.99646E-001,3.89677E-002,-1.62969E-002,-8.04889E-004,3.89795E-002,-1.63086E-002,-8.34235E-001,3.91522E-002,1.03974E+000,-3.07955E-004,0.00000E+000,-1.14418E-003,9.85146E-001,0.00000E+000,-2.94395E-003,-5.16421E-002,1.00000E+000,6
779,1317,-9.01209E+000,-9.32634E-001,7.13699E-002,1.04282E+000,-2.42242E-001,1.00188E-001,1.07527E+000,1.35847E-002,5.14323E-001,0,1.59181E+001,-4.12708E+000,9.99840E-001,-2.81597E+001,-4.18158E+001,9.98482E-001,3.99092E-002,-1.62626E-002,-1.10296E-004,3.99094E-002,-1.62628E-002,-1.12502E-001,4.01364E-002,1.04072E+000,-2.83311E-004,0.00000E+000,4.40176E-005,9.85176E-001,0.00000E+000,1.24661E-004,-5.15645E-002,1.00000E+000,6
1079,1337,1.13874E+001,6.78760E-001,-5.45732E-002,1.83726E+000,-1.00072E-001,-7.45979E-002,1.84150E+000,5.42068E-003,4.16876E-001,0,2.81639E+001,-1.62914E+000,9.99875E-001,-1.33371E+001,-3.39512E+001,9.99579E-001,3.98302E-002,-1.61211E-002,-5.18488E-004,3.98350E-002,-1.61259E-002,-5.30887E-001,4.00749E-002,1.04052E+000,-1.57196E-002,0.00000E+000,1.38195E-002,9.84789E-001,0.00000E+000,2.58334E-004,-4.22568E-002,1.00000E+000,6
1079,1347,1.14013E+001,1.32175E+000,-4.25488E-002,1.82703E+000,-1.10415E-001,-9.75500E-002,1.83296E+000,3.71575E-003,4.59358E-001,0,2.80892E+001,-1.76147E+000,9.99923E-001,-1.30123E+001,-3.40089E+001,9.99755E-001,3.99998E-002,-1.61193E-002,-4.96015E-004,4.00042E-002,-1.61236E-002,-5.06363E-001,4.02541E-002,1.04069E+000,-1.57132E-002,0.00000E+000,1.38650E-002,9.84791E-001,0.00000E+000,1.97673E-005,-4.22655E-002,1.00000E+000,6
1079,1297,1.13760E+001,-1.85688E+000,1.10389E-001,1.87575E+000,-5.34011E-002,3.56863E-002,1.87685E+000,7.14565E-003,4.32749E-001,0,2.83432E+001,-1.13373E+000,9.99786E-001,-1.35413E+001,-3.35512E+001,9.98777E-001,3.91562E-002,-1.61260E-002,-6.01828E-004,3.91628E-002,-1.61325E-002,-6.23650E-001,3.93648E-002,1.03982E+000,-1.57331E-002,0.00000E+000,1.36388E-002,9.84786E-001,0.00000E+000,1.20447E-003,-4.22386E-002,1.00000E+000,6
1079,1307,1.13721E+001,-1.22994E+000,3.75482E-002,1.86576E+000,-6.71736E-002,2.76907E-003,1.86697E+000,7.19973E-003,3.98110E-001,0,2.83147E+001,-1.27818E+000,9.99864E-001,-1.36549E+001,-3.37051E+001,9.98685E-001,3.93239E-002,-1.61251E-002,-5.81901E-004,3.93300E-002,-1.61312E-002,-6.01193E-001,3.95411E-002,1.03999E+000,-1.57314E-002,0.00000E+000,1.36837E-002,9.84786E-001,0.00000E+000,9.69281E-004,-4.22409E-002,1.00000E+000,6
1079,1327,1.13812E+001,3.94645E-002,-3.28784E-002,1.84767E+000,-9.22541E-002,-4.94045E-002,1.85064E+000,7.03678E-003,4.72666E-001,0,2.82319E+001,-1.56817E+000,9.99889E-001,-1.34775E+001,-3.38639E+001,9.99418E-001,3.96616E-002,-1.61225E-002,-5.39859E-004,3.96669E-002,-1.61278E-002,-5.54418E-001,3.98970E-002,1.04034E+000,-1.57241E-002,0.00000E+000,1.37742E-002,9.84788E-001,0.00000E+000,4.95145E-004,-4.22508E-002,1.00000E+000,6
1079,1317,1.13756E+001,-5.93240E-001,-1.81904E-003,1.85643E+000,-7.78098E-002,-2.41246E-002,1.85821E+000,6.67746E-003,4.63465E-001,0,2.82714E+001,-1.39614E+000,9.99891E-001,-1.35907E+001,-3.37298E+001,9.98991E-001,3.94929E-002,-1.61239E-002,-5.60970E-004,3.94985E-002,-1.61295E-002,-5.77827E-001,3.97191E-002,1.04017E+000,-1.57279E-002,0.00000E+000,1.37290E-002,9.84787E-001,0.00000E+000,7.32123E-004,-4.22456E-002,1.00000E+000,6
779,1307,-9.01751E+000,-1.55468E+000,1.45502E-001,1.04090E+000,-2.31533E-001,1.29688E-001,1.07419E+000,8.28356E-003,5.60255E-001,0,1.57975E+001,-4.02023E+000,9.99777E-001,-2.81838E+001,-4.15323E+001,9.98535E-001,4.01394E-002,-1.62606E-002,5.85552E-005,4.01395E-002,-1.62607E-002,5.94850E-002,4.03798E-002,1.04096E+000,-2.81990E-004,0.00000E+000,3.36829E-004,9.85178E-001,0.00000E+000,8.80867E-004,-5.15603E-002,1.00000E+000,6
1089,1337,1.20714E+001,6.94226E-001,-6.14581E-002,1.86283E+000,-9.16536E-002,-7.75769E-002,1.86669E+000,4.31793E-003,4.72644E-001,0,2.85408E+001,-1.50505E+000,9.99832E-001,-1.27351E+001,-3.35772E+001,9.99670E-001,3.99670E-002,-1.61418E-002,-6.14851E-004,3.99737E-002,-1.61486E-002,-6.27757E-001,4.02187E-002,1.04066E+000,-1.54427E-002,0.00000E+000,1.33545E-002,9.84776E-001,0.00000E+000,5.32354E-004,-4.22674E-002,1.00000E+000,6
1089,1347,1.20859E+001,1.33742E+000,-4.99761E-002,1.85319E+000,-1.00969E-001,-1.00633E-001,1.85867E+000,4.72786E-003,4.57110E-001,0,2.84758E+001,-1.60797E+000,9.99847E-001,-1.24028E+001,-3.36578E+001,9.99375E-001,4.02093E-002,-1.61403E-002,-5.93619E-004,4.02155E-002,-1.61465E-002,-6.03498E-001,4.04748E-002,1.04091E+000,-1.54335E-002,0.00000E+000,1.34011E-002,9.84777E-001,0.00000E+000,1.22072E-004,-4.22824E-002,1.00000E+000,6
769,1347,-9.64493E+000,9.52458E-001,-1.86000E-002,1.01685E+000,-2.75989E-001,-1.64910E-003,1.05364E+000,3.99533E-003,5.55084E-001,0,1.58333E+001,-4.44998E+000,9.99797E-001,-2.76992E+001,-4.26714E+001,9.99460E-001,3.87876E-002,-1.61773E-002,-5.84217E-004,3.87938E-002,-1.61835E-002,-6.08901E-001,3.89708E-002,1.03955E+000,-1.59758E-005,0.00000E+000,-1.03983E-003,9.85220E-001,0.00000E+000,-1.91056E-003,-5.07781E-002,1.00000E+000,6
769,1357,-9.61936E+000,1.59624E+000,1.56590E-002,1.01737E+000,-2.83673E-001,-3.45603E-002,1.05675E+000,3.87085E-003,5.59032E-001,0,1.59367E+001,-4.49449E+000,9.99803E-001,-2.70795E+001,-4.28383E+001,9.99662E-001,3.85667E-002,-1.61880E-002,-7.30389E-004,3.85765E-002,-1.61978E-002,-7.64104E-001,3.87412E-002,1.03932E+000,-2.47576E-005,0.00000E+000,-1.28714E-003,9.85211E-001,0.00000E+000,-2.55394E-003,-5.08029E-002,1.00000E+000,6
769,1327,-9.67610E+000,-3.14463E-001,1.15185E-002,1.01624E+000,-2.56825E-001,6.17335E-002,1.05000E+000,9.22151E-003,5.62405E-001,0,1.56355E+001,-4.28412E+000,9.99814E-001,-2.83716E+001,-4.22363E+001,9.98134E-001,3.92233E-002,-1.61642E-002,-2.98125E-004,3.92249E-002,-1.61658E-002,-3.08384E-001,3.94263E-002,1.04000E+000,-5.25755E-006,0.00000E+000,-5.50257E-004,9.85232E-001,0.00000E+000,-6.36946E-004,-5.07478E-002,1.00000E+000,6
769,1337,-9.66345E+000,3.14235E-001,-2.21169E-002,1.01685E+000,-2.69258E-001,2.83480E-002,1.05228E+000,4.10399E-003,5.72659E-001,0,1.57457E+001,-4.40483E+000,9.99820E-001,-2.81299E+001,-4.24789E+001,9.99401E-001,3.90061E-002,-1.61693E-002,-4.40330E-004,3.90096E-002,-1.61728E-002,-4.57213E-001,3.91989E-002,1.03978E+000,-9.48087E-006,0.00000E+000,-7.94544E-004,9.85227E-001,0.00000E+000,-1.27246E-003,-5.07597E-002,1.00000E+000,6
1089,1327,1.20637E+001,5.38457E-002,-5.03829E-002,1.87352E+000,-8.13359E-002,-5.64777E-002,1.87613E+000,6.28161E-003,4.53696E-001,0,2.86270E+001,-1.39628E+000,9.99843E-001,-1.29171E+001,-3.35227E+001,9.99094E-001,3.97248E-002,-1.61431E-002,-6.35010E-004,3.97320E-002,-1.61503E-002,-6.51128E-001,3.99630E-002,1.04041E+000,-1.54498E-002,0.00000E+000,1.33079E-002,9.84774E-001,0.00000E+000,9.42160E-004,-4.22559E-002,1.00000E+000,6
1089,1317,1.20604E+001,-5.81567E-001,-1.07299E-002,1.88320E+000,-7.10245E-002,-2.88182E-002,1.88476E+000,6.24811E-003,4.85114E-001,0,2.86723E+001,-1.30203E+000,9.99888E-001,-1.29775E+001,-3.34304E+001,9.99299E-001,3.94838E-002,-1.61441E-002,-6.54101E-004,3.94915E-002,-1.61518E-002,-6.73588E-001,3.97090E-002,1.04016E+000,-1.54547E-002,0.00000E+000,1.32617E-002,9.84773E-001,0.00000E+000,1.34943E-003,-4.22478E-002,1.00000E+000,6
1089,1297,1.20612E+001,-1.84131E+000,1.08180E-001,1.90219E+000,-4.44295E-002,3.41634E-002,1.90302E+000,5.73069E-003,4.76973E-001,0,2.87249E+001,-9.97822E-001,9.99859E-001,-1.29082E+001,-3.31978E+001,9.99357E-001,3.90026E-002,-1.61458E-002,-6.90806E-004,3.90112E-002,-1.61545E-002,-7.17556E-001,3.92026E-002,1.03966E+000,-1.54618E-002,0.00000E+000,1.31694E-002,9.84772E-001,0.00000E+000,2.16160E-003,-4.22363E-002,1.00000E+000,6
1089,1307,1.20584E+001,-1.21545E+000,3.45414E-002,1.89286E+000,-5.98318E-002,-8.88862E-004,1.89381E+000,6.19222E-003,4.76876E-001,0,2.87157E+001,-1.17847E+000,9.99883E-001,-1.30073E+001,-3.33479E+001,9.99302E-001,3.92428E-002,-1.61451E-002,-6.72956E-004,3.92509E-002,-1.61533E-002,-6.96000E-001,3.94552E-002,1.03991E+000,-1.54592E-002,0.00000E+000,1.32154E-002,9.84773E-001,0.00000E+000,1.75643E-003,-4.22405E-002,1.00000E+000,6
769,1317,-9.68361E+000,-9.36876E-001,7.11370E-002,1.01674E+000,-2.43417E-001,1.00549E-001,1.05030E+000,1.05396E-002,5.39918E-001,0,1.55256E+001,-4.11905E+000,9.99856E-001,-2.84654E+001,-4.19597E+001,9.99112E-001,3.94384E-002,-1.61607E-002,-1.57604E-004,3.94389E-002,-1.61612E-002,-1.62412E-001,3.96523E-002,1.04023E+000,-2.43878E-006,0.00000E+000,-3.07713E-004,9.85235E-001,0.00000E+000,-5.97032E-006,-5.07398E-002,1.00000E+000,6
1099,1327,1.27469E+001,6.72732E-002,-5.79611E-002,1.89950E+000,-7.32079E-002,-5.39736E-002,1.90168E+000,6.17408E-003,4.71816E-001,0,2.89895E+001,-1.27992E+000,9.99701E-001,-1.23233E+001,-3.31995E+001,9.98726E-001,3.97789E-002,-1.61636E-002,-7.30001E-004,3.97884E-002,-1.61731E-002,-7.47491E-001,4.00197E-002,1.04047E+000,-1.51862E-002,0.00000E+000,1.28648E-002,9.84774E-001,0.00000E+000,1.07576E-003,-4.25881E-002,1.00000E+000,6
1099,1337,1.27581E+001,7.09936E-001,-6.21228E-002,1.89050E+000,-8.16825E-002,-7.50975E-002,1.89375E+000,5.68780E-003,4.72557E-001,0,2.89283E+001,-1.36383E+000,9.99684E-001,-1.20754E+001,-3.32409E+001,9.99280E-001,4.01081E-002,-1.61615E-002,-6.99716E-004,4.01168E-002,-1.61702E-002,-7.12329E-001,4.03672E-002,1.04081E+000,-1.51758E-002,0.00000E+000,1.29292E-002,9.84776E-001,0.00000E+000,6.12885E-004,-4.26022E-002,1.00000E+000,6
1099,1347,1.27751E+001,1.35526E+000,-4.44449E-002,1.88117E+000,-9.06901E-002,-1.00325E-001,1.88602E+000,5.26808E-003,4.70286E-001,0,2.88757E+001,-1.45850E+000,9.99770E-001,-1.16942E+001,-3.32938E+001,9.99258E-001,4.04379E-002,-1.61591E-002,-6.67818E-004,4.04458E-002,-1.61669E-002,-6.75938E-001,4.07161E-002,1.04116E+000,-1.51621E-002,0.00000E+000,1.29938E-002,9.84779E-001,0.00000E+000,1.48480E-004,-4.26207E-002,1.00000E+000,6
759,1347,-1.03149E+001,9.48182E-001,-2.09825E-002,9.92918E-001,-2.74230E-001,-3.03854E-004,1.03009E+000,3.72906E-003,5.57868E-001,0,1.54676E+001,-4.41598E+000,9.99796E-001,-2.79800E+001,-4.28275E+001,9.99416E-001,3.83552E-002,-1.61036E-002,-5.29885E-004,3.83603E-002,-1.61088E-002,-5.57419E-001,3.85239E-002,1.03910E+000,3.34441E-004,0.00000E+000,-1.27430E-003,9.85255E-001,0.00000E+000,-1.73652E-003,-5.00241E-002,1.00000E+000,6
759,1357,-1.02906E+001,1.59058E+000,1.26711E-002,9.92631E-001,-2.82722E-001,-3.22698E-002,1.03261E+000,4.25472E-003,5.67464E-001,0,1.55553E+001,-4.47984E+000,9.99768E-001,-2.73804E+001,-4.30135E+001,9.99477E-001,3.80925E-002,-1.61108E-002,-6.32675E-004,3.80999E-002,-1.61182E-002,-6.68650E-001,3.82500E-002,1.03883E+000,3.24200E-004,0.00000E+000,-1.43698E-003,9.85249E-001,0.00000E+000,-2.34777E-003,-5.00471E-002,1.00000E+000,6
1099,1297,1.27444E+001,-1.83013E+000,9.55341E-002,1.92788E+000,-3.83491E-002,2.95196E-002,1.92848E+000,5.48624E-003,5.08130E-001,0,2.91077E+001,-9.00959E-001,9.99744E-001,-1.23236E+001,-3.28973E+001,9.98940E-001,3.87975E-002,-1.61677E-002,-8.13042E-004,3.88095E-002,-1.61797E-002,-8.47269E-001,3.89878E-002,1.03945E+000,-1.52025E-002,0.00000E+000,1.26731E-002,9.84771E-001,0.00000E+000,2.45281E-003,-4.25661E-002,1.00000E+000,6
1099,1307,1.27431E+001,-1.20039E+000,2.88662E-002,1.91998E+000,-5.04987E-002,1.54771E-003,1.92065E+000,6.32088E-003,4.88502E-001,0,2.90938E+001,-1.03074E+000,9.99845E-001,-1.23862E+001,-3.30100E+001,9.99180E-001,3.91242E-002,-1.61666E-002,-7.86332E-004,3.91353E-002,-1.61777E-002,-8.14628E-001,3.93306E-002,1.03979E+000,-1.51990E-002,0.00000E+000,1.27369E-002,9.84772E-001,0.00000E+000,1.99492E-003,-4.25708E-002,1.00000E+000,6
1099,1317,1.27437E+001,-5.67679E-001,-2.27305E-002,1.91007E+000,-6.18686E-002,-2.74611E-002,1.91127E+000,6.89544E-003,4.88217E-001,0,2.90516E+001,-1.15777E+000,9.99831E-001,-1.23912E+001,-3.30997E+001,9.99018E-001,3.94513E-002,-1.61652E-002,-7.58609E-004,3.94616E-002,-1.61755E-002,-7.81321E-001,3.96746E-002,1.04013E+000,-1.51935E-002,0.00000E+000,1.28007E-002,9.84773E-001,0.00000E+000,1.53593E-003,-4.25783E-002,1.00000E+000,6
759,1327,-1.03480E+001,-3.21267E-001,1.05868E-002,9.89276E-001,-2.57691E-001,6.02781E-002,1.02406E+000,5.21177E-003,5.58354E-001,0,1.52331E+001,-4.29615E+000,9.99799E-001,-2.86814E+001,-4.24349E+001,9.99569E-001,3.88743E-002,-1.60950E-002,-3.30115E-004,3.88762E-002,-1.60970E-002,-3.44070E-001,3.90672E-002,1.03964E+000,3.46761E-004,0.00000E+000,-9.52002E-004,9.85263E-001,0.00000E+000,-5.25441E-004,-4.99964E-002,1.00000E+000,6
759,1337,-1.03336E+001,3.11506E-001,-1.73812E-002,9.91507E-001,-2.66313E-001,3.10632E-002,1.02712E+000,3.94355E-003,5.80463E-001,0,1.53541E+001,-4.36877E+000,9.99772E-001,-2.83958E+001,-4.26225E+001,9.99427E-001,3.86154E-002,-1.60986E-002,-4.29317E-004,3.86188E-002,-1.61019E-002,-4.49539E-001,3.87960E-002,1.03937E+000,3.41654E-004,0.00000E+000,-1.11287E-003,9.85259E-001,0.00000E+000,-1.12992E-003,-5.00079E-002,1.00000E+000,6
759,1317,-1.03552E+001,-9.43777E-001,6.79679E-002,9.89149E-001,-2.44765E-001,9.20513E-002,1.02313E+000,8.28326E-003,5.72153E-001,0,1.51349E+001,-4.14964E+000,9.99794E-001,-2.87761E+001,-4.21350E+001,9.99301E-001,3.91307E-002,-1.60930E-002,-2.32712E-004,3.91316E-002,-1.60940E-002,-2.41438E-001,3.93365E-002,1.03991E+000,3.49707E-004,0.00000E+000,-7.92385E-004,9.85264E-001,0.00000E+000,7.43330E-005,-4.99897E-002,1.00000E+000,6
749,1317,-1.10214E+001,-9.46614E-001,8.13162E-002,9.65265E-001,-2.44340E-001,9.38121E-002,1.00012E+000,6.21312E-003,5.89279E-001,0,1.47700E+001,-4.14626E+000,9.99764E-001,-2.89565E+001,-4.22901E+001,9.99181E-001,3.88990E-002,-1.60470E-002,-2.84882E-004,3.89005E-002,-1.60485E-002,-2.97054E-001,3.90983E-002,1.03967E+000,7.86474E-004,0.00000E+000,-1.32452E-003,9.85262E-001,0.00000E+000,4.15251E-004,-4.90258E-002,1.00000E+000,6
749,1327,-1.10154E+001,-3.23913E-001,1.30061E-002,9.65837E-001,-2.56311E-001,5.92247E-002,1.00102E+000,4.31774E-003,5.90738E-001,0,1.48827E+001,-4.26998E+000,9.99756E-001,-2.89083E+001,-4.25580E+001,9.99361E-001,3.85915E-002,-1.60479E-002,-3.43823E-004,3.85937E-002,-1.60501E-002,-3.60519E-001,3.87754E-002,1.03935E+000,7.83739E-004,0.00000E+000,-1.40944E-003,9.85261E-001,0.00000E+000,-1.81961E-004,-4.90309E-002,1.00000E+000,6
749,1337,-1.10031E+001,3.07747E-001,-1.59686E-002,9.66280E-001,-2.65008E-001,3.00533E-002,1.00241E+000,3.58096E-003,5.99330E-001,0,1.49753E+001,-4.34710E+000,9.99804E-001,-2.86571E+001,-4.27695E+001,9.99621E-001,3.82814E-002,-1.60499E-002,-4.04727E-004,3.82844E-002,-1.60529E-002,-4.26778E-001,3.84503E-002,1.03902E+000,7.77776E-004,0.00000E+000,-1.49496E-003,9.85260E-001,0.00000E+000,-7.83370E-004,-4.90420E-002,1.00000E+000,6
749,1347,-1.09858E+001,9.42505E-001,-2.32952E-002,9.67160E-001,-2.73638E-001,-1.35517E-003,1.00513E+000,3.68957E-003,5.55330E-001,0,1.50805E+001,-4.40135E+000,9.99843E-001,-2.82715E+001,-4.30084E+001,9.99650E-001,3.79698E-002,-1.60528E-002,-4.66926E-004,3.79738E-002,-1.60568E-002,-4.95167E-001,3.81243E-002,1.03870E+000,7.69555E-004,0.00000E+000,-1.58077E-003,9.85258E-001,0.00000E+000,-1.38682E-003,-4.90574E-002,1.00000E+000,6
1109,1297,1.34274E+001,-1.81879E+000,8.46204E-002,1.95465E+000,-2.99408E-002,3.34823E-002,1.95516E+000,5.34880E-003,4.77424E-001,0,2.94742E+001,-7.74920E-001,9.99713E-001,-1.17343E+001,-3.26290E+001,9.98610E-001,3.86768E-002,-1.62396E-002,-8.83988E-004,3.86911E-002,-1.62538E-002,-9.21971E-001,3.88554E-002,1.03934E+000,-1.47419E-002,0.00000E+000,1.20855E-002,9.84727E-001,0.00000E+000,2.73251E-003,-4.30372E-002,1.00000E+000,6
1109,1307,1.34252E+001,-1.18822E+000,1.96090E-002,1.94592E+000,-4.11724E-002,7.36915E-003,1.94637E+000,5.78115E-003,4.50366E-001,0,2.94411E+001,-8.95069E-001,9.99833E-001,-1.18066E+001,-3.27343E+001,9.99123E-001,3.90502E-002,-1.62378E-002,-8.41932E-004,3.90630E-002,-1.62506E-002,-8.72236E-001,3.92463E-002,1.03972E+000,-1.47379E-002,0.00000E+000,1.21842E-002,9.84728E-001,0.00000E+000,2.14274E-003,-4.30433E-002,1.00000E+000,6
1109,1317,1.34258E+001,-5.54984E-001,-3.07378E-002,1.93604E+000,-5.23543E-002,-1.96573E-002,1.93685E+000,5.94614E-003,4.62478E-001,0,2.93928E+001,-1.02651E+000,9.99786E-001,-1.18107E+001,-3.28107E+001,9.99058E-001,3.94243E-002,-1.62356E-002,-7.98689E-004,3.94358E-002,-1.62470E-002,-8.21938E-001,3.96389E-002,1.04011E+000,-1.47316E-002,0.00000E+000,1.22832E-002,9.84730E-001,0.00000E+000,1.55109E-003,-4.30528E-002,1.00000E+000,6
749,1357,-1.09607E+001,1.58410E+000,1.33416E-002,9.68215E-001,-2.82137E-001,-2.88328E-002,1.00890E+000,4.81563E-003,5.61298E-001,0,1.51752E+001,-4.47936E+000,9.99808E-001,-2.76491E+001,-4.32167E+001,9.99613E-001,3.76551E-002,-1.60570E-002,-5.31455E-004,3.76604E-002,-1.60622E-002,-5.66839E-001,3.77958E-002,1.03838E+000,7.57523E-004,0.00000E+000,-1.66728E-003,9.85254E-001,0.00000E+000,-1.99522E-003,-4.90799E-002,1.00000E+000,6
1109,1327,1.34309E+001,8.00894E-002,-6.35579E-002,1.92596E+000,-6.46747E-002,-4.89124E-002,1.92767E+000,4.90211E-003,4.66698E-001,0,2.93488E+001,-1.16619E+000,9.99682E-001,-1.17105E+001,-3.29017E+001,9.99093E-001,3.97991E-002,-1.62328E-002,-7.53968E-004,3.98093E-002,-1.62429E-002,-7.70788E-001,4.00332E-002,1.04050E+000,-1.47225E-002,0.00000E+000,1.23826E-002,9.84732E-001,0.00000E+000,9.57394E-004,-4.30667E-002,1.00000E+000,6
1109,1337,1.34422E+001,7.23067E-001,-6.98020E-002,1.91664E+000,-7.34522E-002,-7.33767E-002,1.91945E+000,5.74285E-003,4.78847E-001,0,2.92957E+001,-1.24997E+000,9.99774E-001,-1.14657E+001,-3.29263E+001,9.99345E-001,4.01755E-002,-1.62294E-002,-7.07544E-004,4.01844E-002,-1.62383E-002,-7.18568E-001,4.04300E-002,1.04089E+000,-1.47103E-002,0.00000E+000,1.24825E-002,9.84735E-001,0.00000E+000,3.60438E-004,-4.30853E-002,1.00000E+000,6
1109,1347,1.34631E+001,1.37089E+000,-3.88111E-002,1.90752E+000,-8.25075E-002,-9.92031E-002,1.91188E+000,6.07517E-003,4.78543E-001,0,2.92482E+001,-1.34134E+000,9.99776E-001,-1.10027E+001,-3.29672E+001,9.99141E-001,4.05534E-002,-1.62249E-002,-6.58279E-004,4.05610E-002,-1.62325E-002,-6.64160E-001,4.08295E-002,1.04128E+000,-1.46926E-002,0.00000E+000,1.25830E-002,9.84740E-001,0.00000E+000,-2.39896E-004,-4.31123E-002,1.00000E+000,6
739,1337,-1.16716E+001,3.01513E-001,-1.61095E-002,9.41747E-001,-2.65482E-001,2.82405E-002,9.78860E-001,3.88586E-003,5.81594E-001,0,1.46097E+001,-4.34238E+000,9.99828E-001,-2.89043E+001,-4.29694E+001,9.99570E-001,3.79334E-002,-1.59816E-002,-4.33200E-004,3.79369E-002,-1.59851E-002,-4.60324E-001,3.80930E-002,1.03866E+000,1.17970E-003,0.00000E+000,-1.93968E-003,9.85291E-001,0.00000E+000,-6.29279E-004,-4.83010E-002,1.00000E+000,6
739,1347,-1.16558E+001,9.36513E-001,-2.21425E-002,9.41601E-001,-2.73547E-001,-2.91790E-004,9.80530E-001,3.36521E-003,5.63513E-001,0,1.46898E+001,-4.40525E+000,9.99892E-001,-2.85367E+001,-4.31964E+001,9.99700E-001,3.75484E-002,-1.59837E-002,-4.82322E-004,3.75528E-002,-1.59881E-002,-5.16176E-001,3.76905E-002,1.03826E+000,1.16983E-003,0.00000E+000,-1.99676E-003,9.85290E-001,0.00000E+000,-1.27585E-003,-4.83170E-002,1.00000E+000,6
739,1357,-1.16315E+001,1.57777E+000,1.09660E-002,9.42493E-001,-2.81734E-001,-2.93383E-002,9.84138E-001,3.23921E-003,5.67581E-001,0,1.47861E+001,-4.47591E+000,9.99874E-001,-2.79329E+001,-4.34048E+001,9.99749E-001,3.71599E-002,-1.59868E-002,-5.34028E-004,3.71653E-002,-1.59922E-002,-5.75641E-001,3.72854E-002,1.03786E+000,1.15534E-003,0.00000E+000,-2.05429E-003,9.85287E-001,0.00000E+000,-1.92741E-003,-4.83405E-002,1.00000E+000,6
739,1327,-1.16844E+001,-3.28586E-001,1.42692E-002,9.40698E-001,-2.55200E-001,5.86327E-002,9.76462E-001,5.29535E-003,5.44407E-001,0,1.45042E+001,-4.23293E+000,9.99842E-001,-2.91593E+001,-4.27494E+001,9.99442E-001,3.83167E-002,-1.59802E-002,-3.85470E-004,3.83194E-002,-1.59829E-002,-4.06733E-001,3.84946E-002,1.03906E+000,1.18698E-003,0.00000E+000,-1.88276E-003,9.85292E-001,0.00000E+000,1.54084E-005,-4.82892E-002,1.00000E+000,6
1119,1297,1.41084E+001,-1.80715E+000,7.28911E-002,1.97906E+000,-2.14269E-002,3.69103E-002,1.97952E+000,5.49179E-003,4.43230E-001,0,2.98062E+001,-6.40708E-001,9.99851E-001,-1.11734E+001,-3.23565E+001,9.99321E-001,3.86016E-002,-1.61498E-002,-9.55361E-004,3.86183E-002,-1.61664E-002,-9.99353E-001,3.87884E-002,1.03926E+000,-1.42538E-002,0.00000E+000,1.14904E-002,9.84841E-001,0.00000E+000,2.58317E-003,-4.34614E-002,1.00000E+000,6
1119,1307,1.41079E+001,-1.17674E+000,1.01609E-002,1.97053E+000,-3.39343E-002,7.43307E-003,1.97084E+000,4.29448E-003,4.56895E-001,0,2.97893E+001,-7.92201E-001,9.99849E-001,-1.12165E+001,-3.24468E+001,9.99668E-001,3.89917E-002,-1.61471E-002,-8.98421E-004,3.90063E-002,-1.61618E-002,-9.33235E-001,3.91967E-002,1.03967E+000,-1.42487E-002,0.00000E+000,1.16210E-002,9.84843E-001,0.00000E+000,1.91542E-003,-4.34698E-002,1.00000E+000,6
1119,1317,1.41104E+001,-5.43117E-001,-3.64798E-002,1.96181E+000,-4.49777E-002,-1.90243E-002,1.96242E+000,4.18108E-003,4.56966E-001,0,2.97568E+001,-9.23556E-001,9.99789E-001,-1.11831E+001,-3.25293E+001,9.99665E-001,3.93820E-002,-1.61440E-002,-8.40453E-004,3.93947E-002,-1.61567E-002,-8.66977E-001,3.96063E-002,1.04007E+000,-1.42417E-002,0.00000E+000,1.17518E-002,9.84845E-001,0.00000E+000,1.24633E-003,-4.34814E-002,1.00000E+000,6
1119,1327,1.41165E+001,9.39837E-002,-6.38656E-002,1.95181E+000,-5.57111E-002,-4.59126E-002,1.95315E+000,4.08386E-003,4.38165E-001,0,2.97051E+001,-1.03630E+000,9.99767E-001,-1.10589E+001,-3.26104E+001,9.99526E-001,3.97731E-002,-1.61401E-002,-7.80884E-004,3.97840E-002,-1.61510E-002,-7.99986E-001,4.00178E-002,1.04048E+000,-1.42317E-002,0.00000E+000,1.18831E-002,9.84848E-001,0.00000E+000,5.74686E-004,-4.34980E-002,1.00000E+000,6
1119,1337,1.41283E+001,7.35408E-001,-7.13307E-002,1.94223E+000,-6.69719E-002,-7.41678E-002,1.94480E+000,4.50477E-003,4.69930E-001,0,2.96636E+001,-1.15498E+000,9.99886E-001,-1.08098E+001,-3.26450E+001,9.99299E-001,4.01660E-002,-1.61353E-002,-7.19456E-004,4.01752E-002,-1.61445E-002,-7.32004E-001,4.04324E-002,1.04089E+000,-1.42185E-002,0.00000E+000,1.20152E-002,9.84853E-001,0.00000E+000,-1.01201E-004,-4.35198E-002,1.00000E+000,6
1119,1347,1.41483E+001,1.38309E+000,-4.23542E-002,1.93278E+000,-7.54907E-002,-9.90978E-002,1.93679E+000,6.76221E-003,4.58943E-001,0,2.96082E+001,-1.24215E+000,9.99844E-001,-1.03660E+001,-3.26875E+001,9.99279E-001,4.05597E-002,-1.61293E-002,-6.55505E-004,4.05673E-002,-1.61369E-002,-6.62404E-001,4.08489E-002,1.04130E+000,-1.42004E-002,0.00000E+000,1.21478E-002,9.84859E-001,0.00000E+000,-7.79513E-004,-4.35498E-002,1.00000E+000,6
739,1317,-1.16906E+001,-9.49777E-001,8.35161E-002,9.39624E-001,-2.42461E-001,9.26528E-002,9.74815E-001,6.19992E-003,5.70160E-001,0,1.43858E+001,-4.10483E+000,9.99821E-001,-2.92071E+001,-4.24450E+001,9.99357E-001,3.86963E-002,-1.59796E-002,-3.40082E-004,3.86984E-002,-1.59817E-002,-3.56360E-001,3.88933E-002,1.03945E+000,1.19014E-003,0.00000E+000,-1.82630E-003,9.85292E-001,0.00000E+000,6.54879E-004,-4.82841E-002,1.00000E+000,6
1129,1297,1.47912E+001,-1.79439E+000,6.39541E-002,2.00366E+000,-1.23507E-002,3.83233E-002,2.00407E+000,7.36172E-003,4.32117E-001,0,3.01472E+001,-5.07172E-001,9.99900E-001,-1.05757E+001,-3.20608E+001,9.98917E-001,3.84571E-002,-1.60876E-002,-1.03924E-003,3.84769E-002,-1.61074E-002,-1.09113E+000,3.86463E-002,1.03912E+000,-1.37649E-002,0.00000E+000,1.08971E-002,9.84921E-001,0.00000E+000,1.82744E-003,-4.37217E-002,1.00000E+000,6
1129,1307,1.47907E+001,-1.16580E+000,1.39840E-003,1.99495E+000,-2.68226E-002,8.31149E-003,1.99515E+000,1.07399E-002,4.42495E-001,0,3.01311E+001,-6.89117E-001,9.99857E-001,-1.06179E+001,-3.21796E+001,9.97942E-001,3.89126E-002,-1.60841E-002,-9.62930E-004,3.89295E-002,-1.61009E-002,-1.00277E+000,3.91228E-002,1.03959E+000,-1.37588E-002,0.00000E+000,1.10617E-002,9.84923E-001,0.00000E+000,1.22037E-003,-4.37296E-002,1.00000E+000,6
1129,1317,1.47953E+001,-5.32190E-001,-4.34466E-002,1.98783E+000,-3.82955E-002,-1.79255E-002,1.98828E+000,6.24817E-003,4.29448E-001,0,3.01225E+001,-8.21919E-001,9.99865E-001,-1.05496E+001,-3.22708E+001,9.98219E-001,3.93687E-002,-1.60798E-002,-8.85286E-004,3.93828E-002,-1.60939E-002,-9.14470E-001,3.96013E-002,1.04006E+000,-1.37502E-002,0.00000E+000,1.12267E-002,9.84926E-001,0.00000E+000,6.11844E-004,-4.37406E-002,1.00000E+000,6
729,1347,-1.23218E+001,9.31367E-001,-1.62845E-002,9.18540E-001,-2.74030E-001,-6.50492E-004,9.58545E-001,3.51080E-003,5.67054E-001,0,1.43415E+001,-4.40499E+000,9.99917E-001,-2.87225E+001,-4.33836E+001,9.99743E-001,3.71371E-002,-1.58516E-002,-4.26175E-004,3.71405E-002,-1.58550E-002,-4.60776E-001,3.72726E-002,1.03783E+000,1.70173E-003,0.00000E+000,-2.39496E-003,9.85377E-001,0.00000E+000,-1.21080E-003,-4.74389E-002,1.00000E+000,6
729,1357,-1.22998E+001,1.57343E+000,1.07830E-002,9.18474E-001,-2.80463E-001,-2.96350E-002,9.60798E-001,3.11725E-003,5.76070E-001,0,1.44219E+001,-4.44797E+000,9.99885E-001,-2.81680E+001,-4.35659E+001,9.99830E-001,3.66436E-002,-1.58536E-002,-4.65867E-004,3.66478E-002,-1.58577E-002,-5.08397E-001,3.67582E-002,1.03732E+000,1.68439E-003,0.00000E+000,-2.41926E-003,9.85377E-001,0.00000E+000,-2.02907E-003,-4.74667E-002,1.00000E+000,6
1129,1327,1.48020E+001,1.06330E-001,-6.96873E-002,1.97886E+000,-4.69657E-002,-4.14577E-002,1.97985E+000,6.91565E-003,4.15852E-001,0,3.00738E+001,-9.21613E-001,9.99848E-001,-1.04150E+001,-3.23281E+001,9.98914E-001,3.98252E-002,-1.60746E-002,-8.06150E-004,3.98368E-002,-1.60862E-002,-8.26053E-001,4.00818E-002,1.04054E+000,-1.37388E-002,0.00000E+000,1.13921E-002,9.84930E-001,0.00000E+000,1.84031E-006,-4.37553E-002,1.00000E+000,6
729,1337,-1.23397E+001,2.97614E-001,-1.04797E-002,9.17659E-001,-2.63429E-001,3.39042E-002,9.55324E-001,3.56397E-003,5.66550E-001,0,1.42280E+001,-4.31580E+000,9.99890E-001,-2.91234E+001,-4.31446E+001,9.99639E-001,3.76272E-002,-1.58500E-002,-3.88586E-004,3.76300E-002,-1.58529E-002,-4.16304E-001,3.77851E-002,1.03834E+000,1.71508E-003,0.00000E+000,-2.37078E-003,9.85378E-001,0.00000E+000,-3.96533E-004,-4.74175E-002,1.00000E+000,6
729,1327,-1.23518E+001,-3.30813E-001,2.22337E-002,9.16281E-001,-2.53425E-001,6.20316E-002,9.52703E-001,4.54175E-003,5.56024E-001,0,1.41246E+001,-4.20228E+000,9.99840E-001,-2.93624E+001,-4.28887E+001,9.99396E-001,3.81128E-002,-1.58491E-002,-3.53600E-004,3.81151E-002,-1.58514E-002,-3.75424E-001,3.82945E-002,1.03885E+000,1.72354E-003,0.00000E+000,-2.34677E-003,9.85378E-001,0.00000E+000,4.11753E-004,-4.74040E-002,1.00000E+000,6
1129,1337,1.48211E+001,7.52367E-001,-5.75611E-002,1.97055E+000,-5.85568E-002,-7.36555E-002,1.97279E+000,6.47219E-003,5.03724E-001,0,3.00652E+001,-1.04540E+000,9.99882E-001,-1.00191E+001,-3.23040E+001,9.99161E-001,4.02873E-002,-1.60669E-002,-7.22041E-004,4.02965E-002,-1.60762E-002,-7.33945E-001,4.05699E-002,1.04102E+000,-1.37191E-002,0.00000E+000,1.15598E-002,9.84937E-001,0.00000E+000,-6.16487E-004,-4.37806E-002,1.00000E+000,6
729,1317,-1.23604E+001,-9.53511E-001,8.15791E-002,9.14102E-001,-2.40668E-001,9.37406E-002,9.49890E-001,6.19205E-003,5.60730E-001,0,1.39967E+001,-4.06824E+000,9.99826E-001,-2.94751E+001,-4.25953E+001,9.98892E-001,3.85959E-002,-1.58486E-002,-3.20341E-004,3.85978E-002,-1.58505E-002,-3.37101E-001,3.88026E-002,1.03935E+000,1.72864E-003,0.00000E+000,-2.32285E-003,9.85379E-001,0.00000E+000,1.21732E-003,-4.73958E-002,1.00000E+000,6
1129,1347,1.48371E+001,1.39906E+000,-4.26205E-002,1.95966E+000,-6.67753E-002,-1.01020E-001,1.96340E+000,7.61353E-003,4.89413E-001,0,2.99986E+001,-1.11837E+000,9.99825E-001,-9.66639E+000,-3.23316E+001,9.99034E-001,4.07469E-002,-1.60594E-002,-6.38467E-004,4.07540E-002,-1.60666E-002,-6.43860E-001,4.10568E-002,1.04150E+000,-1.36998E-002,0.00000E+000,1.17268E-002,9.84944E-001,0.00000E+000,-1.23232E-003,-4.38054E-002,1.00000E+000,6
719,1347,-1.29909E+001,9.28494E-001,-1.75718E-002,8.93439E-001,-2.70765E-001,-4.42639E-004,9.33566E-001,5.12848E-003,5.68625E-001,0,1.39585E+001,-4.35177E+000,9.99863E-001,-2.89703E+001,-4.35218E+001,9.99592E-001,3.68792E-002,-1.57892E-002,-4.28577E-004,3.68827E-002,-1.57927E-002,-4.66191E-001,3.70093E-002,1.03757E+000,2.23930E-003,0.00000E+000,-2.91697E-003,9.85409E-001,0.00000E+000,-1.06963E-003,-4.68181E-002,1.00000E+000,6
719,1357,-1.29685E+001,1.56863E+000,9.57751E-003,8.94034E-001,-2.79420E-001,-2.85084E-002,9.37116E-001,3.77898E-003,5.80913E-001,0,1.40467E+001,-4.42343E+000,9.99871E-001,-2.84090E+001,-4.37339E+001,9.99743E-001,3.63019E-002,-1.57903E-002,-4.55445E-004,3.63059E-002,-1.57943E-002,-5.00889E-001,3.64079E-002,1.03697E+000,2.21936E-003,0.00000E+000,-2.90916E-003,9.85409E-001,0.00000E+000,-2.00300E-003,-4.68493E-002,1.00000E+000,6
719,1337,-1.30075E+001,2.95347E-001,-8.39771E-003,8.92805E-001,-2.60769E-001,3.32240E-002,9.30701E-001,4.87295E-003,5.79443E-001,0,1.38522E+001,-4.27006E+000,9.99753E-001,-2.93449E+001,-4.32732E+001,9.99437E-001,3.74513E-002,-1.57884E-002,-4.04380E-004,3.74543E-002,-1.57915E-002,-4.35155E-001,3.76074E-002,1.03816E+000,2.25402E-003,0.00000E+000,-2.92471E-003,9.85409E-001,0.00000E+000,-1.42797E-004,-4.67951E-002,1.00000E+000,6
719,1327,-1.30193E+001,-3.32738E-001,2.70977E-002,8.91394E-001,-2.50965E-001,6.24783E-002,9.28155E-001,3.54750E-003,5.87515E-001,0,1.37455E+001,-4.17026E+000,9.99756E-001,-2.95713E+001,-4.30070E+001,9.99444E-001,3.80184E-002,-1.57879E-002,-3.82824E-004,3.80212E-002,-1.57906E-002,-4.07624E-001,3.82025E-002,1.03875E+000,2.26352E-003,0.00000E+000,-2.93241E-003,9.85408E-001,0.00000E+000,7.78059E-004,-4.67803E-002,1.00000E+000,6
719,1317,-1.30271E+001,-9.55677E-001,9.02902E-002,8.88863E-001,-2.38993E-001,9.22609E-002,9.25044E-001,5.20842E-003,5.72717E-001,0,1.36184E+001,-4.04198E+000,9.99755E-001,-2.96617E+001,-4.27331E+001,9.99098E-001,3.85826E-002,-1.57877E-002,-3.63529E-004,3.85851E-002,-1.57901E-002,-3.83067E-001,3.87964E-002,1.03934E+000,2.26845E-003,0.00000E+000,-2.94009E-003,9.85408E-001,0.00000E+000,1.69604E-003,-4.67726E-002,1.00000E+000,6
1139,1297,1.54802E+001,-1.78392E+000,6.86017E-002,2.03263E+000,-5.24251E-003,4.74813E-002,2.03319E+000,5.87715E-003,3.71389E-001,0,3.05246E+001,-4.14475E-001,9.99930E-001,-9.85333E+000,-3.18538E+001,9.98889E-001,3.83806E-002,-1.60913E-002,-1.07019E-003,3.84017E-002,-1.61124E-002,-1.12509E+000,3.85669E-002,1.03904E+000,-1.32560E-002,0.00000E+000,1.03930E-002,9.84940E-001,0.00000E+000,9.44928E-004,-4.41182E-002,1.00000E+000,6
1139,1307,1.54785E+001,-1.15671E+000,-2.90533E-003,2.02379E+000,-2.11390E-002,1.32578E-002,2.02394E+000,6.90656E-003,3.81956E-001,0,3.05240E+001,-6.02103E-001,9.99909E-001,-9.93077E+000,-3.19733E+001,9.98791E-001,3.88985E-002,-1.60878E-002,-9.88024E-004,3.89162E-002,-1.61056E-002,-1.02908E+000,3.91083E-002,1.03958E+000,-1.32499E-002,0.00000E+000,1.05650E-002,9.84942E-001,0.00000E+000,4.26583E-004,-4.41241E-002,1.00000E+000,6
1139,1337,1.55082E+001,7.67579E-001,-6.11830E-002,1.99641E+000,-4.92740E-002,-7.52689E-002,1.99843E+000,7.41244E-003,5.16290E-001,0,3.04378E+001,-9.12957E-001,9.99847E-001,-9.34568E+000,-3.19632E+001,9.98340E-001,4.04631E-002,-1.60690E-002,-7.25630E-004,4.04724E-002,-1.60783E-002,-7.35271E-001,4.07562E-002,1.04121E+000,-1.32029E-002,0.00000E+000,1.10860E-002,9.84957E-001,0.00000E+000,-1.14329E-003,-4.41694E-002,1.00000E+000,6
1139,1347,1.55315E+001,1.41501E+000,-2.83675E-002,1.98855E+000,-5.99120E-002,-1.01237E-001,1.99203E+000,7.48295E-003,5.01258E-001,0,3.04120E+001,-1.01919E+000,9.99810E-001,-8.84937E+000,-3.20170E+001,9.98139E-001,4.09879E-002,-1.60599E-002,-6.32832E-004,4.09949E-002,-1.60670E-002,-6.35478E-001,4.13129E-002,1.04176E+000,-1.31774E-002,0.00000E+000,1.12611E-002,9.84966E-001,0.00000E+000,-1.67113E-003,-4.41940E-002,1.00000E+000,6
1139,1327,1.54902E+001,1.19704E-001,-7.39346E-002,2.00581E+000,-4.10559E-002,-4.45402E-002,2.00673E+000,7.24740E-003,4.66934E-001,0,3.04690E+001,-8.31681E-001,9.99858E-001,-9.72322E+000,-3.19965E+001,9.98319E-001,3.99388E-002,-1.60772E-002,-8.16811E-004,3.99507E-002,-1.60891E-002,-8.35235E-001,4.02020E-002,1.04066E+000,-1.32254E-002,0.00000E+000,1.09112E-002,9.84950E-001,0.00000E+000,-6.16630E-004,-4.41478E-002,1.00000E+000,6
1139,1317,1.54787E+001,-5.22363E-001,-5.70961E-002,2.01321E+000,-3.21918E-002,-1.78715E-002,2.01355E+000,7.97897E-003,4.26980E-001,0,3.04825E+001,-7.35169E-001,9.99877E-001,-9.94895E+000,-3.20026E+001,9.98574E-001,3.94172E-002,-1.60835E-002,-9.04273E-004,3.94319E-002,-1.60982E-002,-9.33191E-001,3.96526E-002,1.04012E+000,-1.32410E-002,0.00000E+000,1.07375E-002,9.84945E-001,0.00000E+000,-9.32334E-005,-4.41327E-002,1.00000E+000,6
709,1347,-1.36605E+001,9.26373E-001,-1.63567E-002,8.67460E-001,-2.66661E-001,2.62760E-003,9.07525E-001,4.66543E-003,5.66049E-001,0,1.35530E+001,-4.29052E+000,9.99840E-001,-2.92152E+001,-4.36561E+001,9.99583E-001,3.66148E-002,-1.55612E-002,-4.38747E-004,3.66185E-002,-1.55649E-002,-4.81754E-001,3.67554E-002,1.03729E+000,2.88612E-003,0.00000E+000,-3.55481E-003,9.85599E-001,0.00000E+000,-1.01457E-003,-4.61115E-002,1.00000E+000,6
709,1357,-1.36377E+001,1.56518E+000,8.90613E-003,8.69225E-001,-2.75081E-001,-2.42869E-002,9.12037E-001,3.98850E-003,5.60743E-001,0,1.36556E+001,-4.36607E+000,9.99855E-001,-2.86511E+001,-4.38950E+001,9.99774E-001,3.59773E-002,-1.55613E-002,-4.49926E-004,3.59812E-002,-1.55652E-002,-5.00135E-001,3.60901E-002,1.03663E+000,2.86488E-003,0.00000E+000,-3.51584E-003,9.85600E-001,0.00000E+000,-1.95211E-003,-4.61417E-002,1.00000E+000,6
709,1337,-1.36747E+001,2.92260E-001,-5.46581E-003,8.67597E-001,-2.58959E-001,3.00067E-002,9.05917E-001,4.60934E-003,5.57048E-001,0,1.34777E+001,-4.22139E+000,9.99739E-001,-2.95498E+001,-4.34339E+001,9.99398E-001,3.72470E-002,-1.55611E-002,-4.30795E-004,3.72505E-002,-1.55646E-002,-4.67363E-001,3.74178E-002,1.03795E+000,2.90075E-003,0.00000E+000,-3.59353E-003,9.85598E-001,0.00000E+000,-8.30073E-005,-4.60907E-002,1.00000E+000,6
709,1317,-1.36908E+001,-9.54894E-001,1.05583E-001,8.65426E-001,-2.35317E-001,9.28515E-002,9.01642E-001,6.07608E-003,6.09369E-001,0,1.32609E+001,-3.99724E+000,9.99833E-001,-2.97792E+001,-4.28271E+001,9.99270E-001,3.84978E-002,-1.55611E-002,-4.22189E-004,3.85010E-002,-1.55644E-002,-4.47432E-001,3.87356E-002,1.03925E+000,2.91494E-003,0.00000E+000,-3.67038E-003,9.85597E-001,0.00000E+000,1.76577E-003,-4.60705E-002,1.00000E+000,6
709,1327,-1.36828E+001,-3.32207E-001,4.61571E-002,8.67666E-001,-2.47148E-001,6.40927E-002,9.04452E-001,6.31911E-003,6.08921E-001,0,1.33798E+001,-4.12704E+000,9.99802E-001,-2.96763E+001,-4.31226E+001,9.99414E-001,3.78736E-002,-1.55611E-002,-4.25907E-004,3.78770E-002,-1.55645E-002,-4.56643E-001,3.80769E-002,1.03860E+000,2.90905E-003,0.00000E+000,-3.63199E-003,9.85598E-001,0.00000E+000,8.42315E-004,-4.60789E-002,1.00000E+000,6
1149,1297,1.61635E+001,-1.77335E+000,5.34621E-002,2.05732E+000,5.86264E-004,4.48004E-002,2.05780E+000,1.14647E-002,3.87180E-001,0,3.08823E+001,-3.15459E-001,9.99829E-001,-9.25188E+000,-3.15657E+001,9.97645E-001,3.83970E-002,-1.61004E-002,-1.06758E-003,3.84179E-002,-1.61213E-002,-1.12182E+000,3.85830E-002,1.03907E+000,-1.27444E-002,0.00000E+000,9.95492E-003,9.84953E-001,0.00000E+000,-9.02828E-006,-4.45019E-002,1.00000E+000,6
1149,1307,1.61660E+001,-1.14177E+000,-5.33055E-003,2.05135E+000,-1.09332E-002,1.82799E-002,2.05146E+000,7.33410E-003,3.84173E-001,0,3.08946E+001,-4.60412E-001,9.99876E-001,-9.24172E+000,-3.16492E+001,9.98640E-001,3.89615E-002,-1.60974E-002,-9.99882E-004,3.89796E-002,-1.61156E-002,-1.04005E+000,3.91739E-002,1.03965E+000,-1.27366E-002,0.00000E+000,1.00929E-002,9.84955E-001,0.00000E+000,-4.41237E-004,-4.45076E-002,1.00000E+000,6
1149,1317,1.61692E+001,-5.07024E-001,-5.08398E-002,2.04158E+000,-2.33215E-002,-1.28101E-002,2.04175E+000,5.99372E-003,4.24734E-001,0,3.08657E+001,-6.08239E-001,9.99897E-001,-9.19751E+000,-3.16915E+001,9.98752E-001,3.95284E-002,-1.60936E-002,-9.29943E-004,3.95440E-002,-1.61091E-002,-9.57571E-001,3.97695E-002,1.04024E+000,-1.27248E-002,0.00000E+000,1.02317E-002,9.84958E-001,0.00000E+000,-8.75772E-004,-4.45163E-002,1.00000E+000,6
1149,1327,1.61778E+001,1.31632E-001,-8.05225E-002,2.03276E+000,-3.27045E-002,-4.58433E-002,2.03354E+000,5.85709E-003,3.95764E-001,0,3.08562E+001,-6.98366E-001,9.99885E-001,-9.04154E+000,-3.17434E+001,9.98597E-001,4.00951E-002,-1.60889E-002,-8.58123E-004,4.01082E-002,-1.61020E-002,-8.74831E-001,4.03670E-002,1.04083E+000,-1.27091E-002,0.00000E+000,1.03706E-002,9.84962E-001,0.00000E+000,-1.31054E-003,-4.45279E-002,1.00000E+000,6
1149,1337,1.61931E+001,7.77899E-001,-7.58350E-002,2.02214E+000,-4.38773E-002,-7.79317E-002,2.02412E+000,9.95194E-003,4.94896E-001,0,3.08142E+001,-8.14564E-001,9.99893E-001,-8.72154E+000,-3.16909E+001,9.98581E-001,4.06684E-002,-1.60827E-002,-7.81891E-004,4.06792E-002,-1.60935E-002,-7.89194E-001,4.09736E-002,1.04143E+000,-1.26858E-002,0.00000E+000,1.05112E-002,9.84967E-001,0.00000E+000,-1.75090E-003,-4.45450E-002,1.00000E+000,6
1149,1347,1.62227E+001,1.43025E+000,-2.44395E-002,2.01657E+000,-5.27341E-002,-1.00423E-001,2.01976E+000,9.67108E-003,4.94343E-001,0,3.08084E+001,-8.98373E-001,9.99872E-001,-8.09686E+000,-3.17004E+001,9.98513E-001,4.12434E-002,-1.60748E-002,-7.01516E-004,4.12520E-002,-1.60834E-002,-7.01101E-001,4.15842E-002,1.04203E+000,-1.26544E-002,0.00000E+000,1.06524E-002,9.84974E-001,0.00000E+000,-2.19301E-003,-4.45682E-002,1.00000E+000,6
699,1347,-1.43236E+001,9.24792E-001,-8.94552E-003,8.46075E-001,-2.64477E-001,4.15454E-003,8.86459E-001,4.63101E-003,6.04670E-001,0,1.32233E+001,-4.25678E+000,9.99873E-001,-2.93403E+001,-4.37745E+001,9.99714E-001,3.63121E-002,-1.52311E-002,-4.04784E-004,3.63152E-002,-1.52343E-002,-4.49923E-001,3.64718E-002,1.03697E+000,3.60548E-003,0.00000E+000,-4.17670E-003,9.85885E-001,0.00000E+000,-9.38508E-004,-4.52942E-002,1.00000E+000,6
699,1357,-1.43029E+001,1.56036E+000,1.20801E-002,8.46353E-001,-2.75661E-001,-2.52608E-002,8.90472E-001,4.10243E-003,5.88732E-001,0,1.33102E+001,-4.36451E+000,9.99859E-001,-2.88171E+001,-4.40614E+001,9.99751E-001,3.56163E-002,-1.52280E-002,-3.58492E-004,3.56188E-002,-1.52306E-002,-4.03952E-001,3.57431E-002,1.03625E+000,3.58288E-003,0.00000E+000,-4.03022E-003,9.85890E-001,0.00000E+000,-1.74941E-003,-4.53197E-002,1.00000E+000,6
699,1337,-1.43411E+001,2.89588E-001,2.00487E-003,8.43027E-001,-2.56707E-001,3.26157E-002,8.81848E-001,4.28990E-003,5.74501E-001,0,1.30959E+001,-4.19692E+000,9.99804E-001,-2.97260E+001,-4.35783E+001,9.99521E-001,3.70039E-002,-1.52332E-002,-4.54035E-004,3.70078E-002,-1.52371E-002,-4.97955E-001,3.71996E-002,1.03769E+000,3.62152E-003,0.00000E+000,-4.32259E-003,9.85882E-001,0.00000E+000,-1.30845E-004,-4.52762E-002,1.00000E+000,6
699,1317,-1.43562E+001,-9.52493E-001,1.22391E-001,8.39494E-001,-2.31082E-001,9.27490E-002,8.75643E-001,7.80460E-003,6.45644E-001,0,1.28660E+001,-3.93019E+000,9.99846E-001,-2.99137E+001,-4.29000E+001,9.98846E-001,3.83682E-002,-1.52343E-002,-5.60482E-004,3.83741E-002,-1.52402E-002,-5.99013E-001,3.86438E-002,1.03911E+000,3.63441E-003,0.00000E+000,-4.61103E-003,9.85879E-001,0.00000E+000,1.46591E-003,-4.52616E-002,1.00000E+000,6
699,1327,-1.43500E+001,-3.30345E-001,5.27068E-002,8.41659E-001,-2.43452E-001,6.28570E-002,8.78413E-001,6.66055E-003,6.87192E-001,0,1.29868E+001,-4.06367E+000,9.99798E-001,-2.98664E+001,-4.31631E+001,9.98265E-001,3.76855E-002,-1.52340E-002,-5.06265E-004,3.76904E-002,-1.52389E-002,-5.48064E-001,3.79197E-002,1.03840E+000,3.62984E-003,0.00000E+000,-4.46658E-003,9.85880E-001,0.00000E+000,6.66254E-004,-4.52668E-002,1.00000E+000,6
1159,1307,1.68499E+001,-1.13258E+000,-2.17679E-002,2.07610E+000,-5.83684E-003,1.41708E-002,2.07616E+000,6.05296E-003,3.92370E-001,0,3.12590E+001,-3.79915E-001,9.99696E-001,-8.62985E+000,-3.13816E+001,9.98885E-001,3.91012E-002,-1.61705E-002,-9.62444E-004,3.91179E-002,-1.61873E-002,-9.97286E-001,3.93112E-002,1.03981E+000,-1.22296E-002,0.00000E+000,9.72414E-003,9.84900E-001,0.00000E+000,-1.33051E-003,-4.47938E-002,1.00000E+000,6
1159,1317,1.68555E+001,-4.94766E-001,-6.59277E-002,2.06856E+000,-1.59926E-002,-1.56664E-002,2.06868E+000,5.68627E-003,4.48984E-001,0,3.12589E+001,-4.95140E-001,9.99805E-001,-8.54666E+000,-3.13691E+001,9.99376E-001,3.97102E-002,-1.61687E-002,-9.23767E-004,3.97255E-002,-1.61840E-002,-9.46844E-001,3.99520E-002,1.04044E+000,-1.22168E-002,0.00000E+000,9.79788E-003,9.84901E-001,0.00000E+000,-1.71052E-003,-4.48014E-002,1.00000E+000,6
1159,1327,1.68672E+001,1.45595E-001,-8.22298E-002,2.06038E+000,-2.63869E-002,-4.46738E-002,2.06103E+000,4.31518E-003,4.32008E-001,0,3.12441E+001,-5.98406E-001,9.99909E-001,-8.31949E+000,-3.14158E+001,9.99406E-001,4.03206E-002,-1.61663E-002,-8.81911E-004,4.03343E-002,-1.61800E-002,-8.94250E-001,4.05962E-002,1.04108E+000,-1.21975E-002,0.00000E+000,9.87185E-003,9.84903E-001,0.00000E+000,-2.09168E-003,-4.48130E-002,1.00000E+000,6
1159,1297,1.68466E+001,-1.76349E+000,3.49666E-002,2.08207E+000,6.29080E-003,4.16528E-002,2.08250E+000,7.97813E-003,4.49882E-001,0,3.12425E+001,-2.43875E-001,9.99728E-001,-8.65606E+000,-3.12581E+001,9.97241E-001,3.84958E-002,-1.61720E-002,-9.99154E-004,3.85140E-002,-1.61902E-002,-1.04672E+000,3.86765E-002,1.03918E+000,-1.22388E-002,0.00000E+000,9.65090E-003,9.84899E-001,0.00000E+000,-9.53132E-004,-4.47883E-002,1.00000E+000,6
1159,1337,1.68906E+001,7.91690E-001,-6.39680E-002,2.05428E+000,-3.82201E-002,-7.70797E-002,2.05608E+000,7.04590E-003,4.69959E-001,0,3.12714E+001,-7.22009E-001,9.99939E-001,-7.85080E+000,-3.14240E+001,9.99592E-001,4.09359E-002,-1.61630E-002,-8.35383E-004,4.09481E-002,-1.61752E-002,-8.38024E-001,4.12479E-002,1.04172E+000,-1.21690E-002,0.00000E+000,9.94651E-003,9.84907E-001,0.00000E+000,-2.47638E-003,-4.48301E-002,1.00000E+000,6
1159,1347,1.69147E+001,1.44240E+000,-2.60190E-002,2.04574E+000,-4.58677E-002,-1.02208E-001,2.04881E+000,6.80211E-003,4.51637E-001,0,3.12316E+001,-7.95301E-001,9.99886E-001,-7.33764E+000,-3.14371E+001,9.99386E-001,4.15508E-002,-1.61595E-002,-7.87479E-004,4.15615E-002,-1.61702E-002,-7.81629E-001,4.19011E-002,1.04236E+000,-1.21376E-002,0.00000E+000,1.00212E-002,9.84910E-001,0.00000E+000,-2.86110E-003,-4.48489E-002,1.00000E+000,6
689,1347,-1.49877E+001,9.21890E-001,-3.05321E-003,8.22909E-001,-2.63727E-001,1.66264E-003,8.64138E-001,5.52908E-003,6.39607E-001,0,1.28771E+001,-4.23840E+000,9.99879E-001,-2.94800E+001,-4.39121E+001,9.99371E-001,3.60113E-002,-1.51178E-002,-4.13680E-004,3.60147E-002,-1.51211E-002,-4.63534E-001,3.61685E-002,1.03666E+000,4.30199E-003,0.00000E+000,-4.85897E-003,9.85961E-001,0.00000E+000,-9.08336E-004,-4.45589E-002,1.00000E+000,6
689,1357,-1.49693E+001,1.55593E+000,7.71853E-003,8.23194E-001,-2.73946E-001,-2.62469E-002,8.67977E-001,4.73875E-003,5.96150E-001,0,1.29594E+001,-4.32898E+000,9.99843E-001,-2.90190E+001,-4.42155E+001,9.99705E-001,3.52733E-002,-1.51155E-002,-3.74079E-004,3.52761E-002,-1.51183E-002,-4.25324E-001,3.53959E-002,1.03590E+000,4.28065E-003,0.00000E+000,-4.73235E-003,9.85965E-001,0.00000E+000,-1.62207E-003,-4.45789E-002,1.00000E+000,6
689,1337,-1.50053E+001,2.88725E-001,5.08041E-003,8.20579E-001,-2.52500E-001,3.26127E-002,8.59168E-001,5.35044E-003,5.91513E-001,0,1.27535E+001,-4.13452E+000,9.99865E-001,-2.98760E+001,-4.36854E+001,9.99654E-001,3.67491E-002,-1.51196E-002,-4.54939E-004,3.67531E-002,-1.51236E-002,-5.02488E-001,3.69445E-002,1.03742E+000,4.32005E-003,0.00000E+000,-4.98575E-003,9.85958E-001,0.00000E+000,-1.93768E-004,-4.45421E-002,1.00000E+000,6
1169,1327,1.75547E+001,1.57501E-001,-9.19122E-002,2.08621E+000,-2.01138E-002,-4.93394E-002,2.08689E+000,4.64025E-003,4.53018E-001,0,3.16268E+001,-5.04980E-001,9.99941E-001,-7.63734E+000,-3.11105E+001,9.99446E-001,4.05378E-002,-1.62595E-002,-8.37889E-004,4.05501E-002,-1.62719E-002,-8.44998E-001,4.08128E-002,1.04131E+000,-1.16164E-002,0.00000E+000,9.44271E-003,9.84822E-001,0.00000E+000,-2.90347E-003,-4.49496E-002,1.00000E+000,6
1169,1337,1.75805E+001,8.05687E-001,-6.42160E-002,2.08043E+000,-3.01792E-002,-7.97413E-002,2.08218E+000,6.37424E-003,4.43495E-001,0,3.16507E+001,-5.97808E-001,9.99938E-001,-7.11717E+000,-3.11290E+001,9.99498E-001,4.11768E-002,-1.62583E-002,-8.08919E-004,4.11882E-002,-1.62697E-002,-8.06743E-001,4.14898E-002,1.04198E+000,-1.15847E-002,0.00000E+000,9.47529E-003,9.84824E-001,0.00000E+000,-3.18400E-003,-4.49629E-002,1.00000E+000,6
1169,1347,1.76078E+001,1.45615E+000,-2.11786E-002,2.07295E+000,-3.97341E-002,-1.07269E-001,2.07610E+000,5.44092E-003,4.30014E-001,0,3.16367E+001,-6.93145E-001,9.99885E-001,-6.54848E+000,-3.11531E+001,9.99442E-001,4.18168E-002,-1.62570E-002,-7.78449E-004,4.18272E-002,-1.62674E-002,-7.67837E-001,4.21699E-002,1.04264E+000,-1.15499E-002,0.00000E+000,9.50795E-003,9.84825E-001,0.00000E+000,-3.46513E-003,-4.49776E-002,1.00000E+000,6
689,1327,-1.50205E+001,-3.36209E-001,3.88449E-002,8.15099E-001,-2.41359E-001,5.81789E-002,8.52071E-001,6.08691E-003,6.50188E-001,0,1.25952E+001,-4.01679E+000,9.99808E-001,-3.01607E+001,-4.33367E+001,9.99119E-001,3.74777E-002,-1.51206E-002,-4.98865E-004,3.74824E-002,-1.51253E-002,-5.43353E-001,3.77142E-002,1.03818E+000,4.33145E-003,0.00000E+000,-5.11111E-003,9.85956E-001,0.00000E+000,5.12891E-004,-4.45314E-002,1.00000E+000,6
1169,1317,1.75416E+001,-4.86431E-001,-7.30513E-002,2.09278E+000,-1.09023E-002,-1.95708E-002,2.09290E+000,7.33138E-003,3.59512E-001,0,3.16141E+001,-4.03695E-001,9.99861E-001,-7.87989E+000,-3.11818E+001,9.99499E-001,3.99018E-002,-1.62604E-002,-8.61132E-004,3.99150E-002,-1.62736E-002,-8.78238E-001,4.01410E-002,1.04065E+000,-1.16362E-002,0.00000E+000,9.41031E-003,9.84821E-001,0.00000E+000,-2.62455E-003,-4.49413E-002,1.00000E+000,6
1169,1307,1.75346E+001,-1.12194E+000,-3.56353E-002,2.10043E+000,-1.00688E-003,9.38421E-003,2.10045E+000,6.20597E-003,4.23154E-001,0,3.16191E+001,-2.94289E-001,9.99855E-001,-7.99575E+000,-3.10860E+001,9.99353E-001,3.92723E-002,-1.62611E-002,-8.81831E-004,3.92863E-002,-1.62751E-002,-9.09512E-001,3.94783E-002,1.03999E+000,-1.16510E-002,0.00000E+000,9.37827E-003,9.84820E-001,0.00000E+000,-2.34871E-003,-4.49350E-002,1.00000E+000,6
1169,1297,1.75340E+001,-1.75277E+000,2.79712E-002,2.10828E+000,1.22638E-002,3.99898E-002,2.10870E+000,6.86049E-003,4.69757E-001,0,3.16177E+001,-1.62953E-001,9.99836E-001,-7.96753E+000,-3.09827E+001,9.98033E-001,3.86429E-002,-1.62615E-002,-8.99598E-004,3.86576E-002,-1.62763E-002,-9.38444E-001,3.88179E-002,1.03934E+000,-1.16597E-002,0.00000E+000,9.34627E-003,9.84820E-001,0.00000E+000,-2.07313E-003,-4.49314E-002,1.00000E+000,6
689,1317,-1.50270E+001,-9.57050E-001,1.08627E-001,8.12373E-001,-2.29488E-001,8.74691E-002,8.48684E-001,6.76146E-003,6.42569E-001,0,1.24682E+001,-3.88404E+000,9.99761E-001,-3.02130E+001,-4.30352E+001,9.98862E-001,3.82027E-002,-1.51207E-002,-5.45895E-004,3.82083E-002,-1.51263E-002,-5.86480E-001,3.84834E-002,1.03893E+000,4.33605E-003,0.00000E+000,-5.23607E-003,9.85956E-001,0.00000E+000,1.21720E-003,-4.45271E-002,1.00000E+000,6
679,1347,-1.56564E+001,9.15194E-001,-7.04645E-003,7.96555E-001,-2.61992E-001,-8.03319E-004,8.38535E-001,9.81598E-003,5.95268E-001,0,1.24805E+001,-4.21622E+000,9.99719E-001,-2.97147E+001,-4.41265E+001,9.98903E-001,3.57005E-002,-1.50117E-002,-4.72541E-004,3.57049E-002,-1.50161E-002,-5.33826E-001,3.58548E-002,1.03633E+000,4.97282E-003,0.00000E+000,-5.61428E-003,9.86038E-001,0.00000E+000,-9.10952E-004,-4.40192E-002,1.00000E+000,6
679,1357,-1.56346E+001,1.55211E+000,4.72848E-003,8.01865E-001,-2.70438E-001,-1.95110E-002,8.46466E-001,3.84953E-003,6.25737E-001,0,1.26146E+001,-4.29857E+000,9.99823E-001,-2.91966E+001,-4.43523E+001,9.99680E-001,3.48876E-002,-1.50112E-002,-4.70298E-004,3.48920E-002,-1.50157E-002,-5.39950E-001,3.50047E-002,1.03549E+000,4.95139E-003,0.00000E+000,-5.56251E-003,9.86040E-001,0.00000E+000,-1.62171E-003,-4.40374E-002,1.00000E+000,6
1179,1297,1.82163E+001,-1.74554E+000,5.26580E-003,2.13341E+000,1.71008E-002,4.07401E-002,2.13386E+000,1.23968E-002,5.06752E-001,0,3.19683E+001,-1.10354E-001,9.99912E-001,-7.38373E+000,-3.07201E+001,9.97988E-001,3.87781E-002,-1.63406E-002,-8.11982E-004,3.87901E-002,-1.63526E-002,-8.43809E-001,3.89488E-002,1.03949E+000,-1.10798E-002,0.00000E+000,9.02170E-003,9.84752E-001,0.00000E+000,-3.27306E-003,-4.50912E-002,1.00000E+000,6
1179,1307,1.82204E+001,-1.11542E+000,-4.91930E-002,2.12656E+000,3.81057E-003,9.39525E-003,2.12658E+000,4.97129E-003,3.81427E-001,0,3.19878E+001,-2.37030E-001,9.99921E-001,-7.34135E+000,-3.08909E+001,9.99094E-001,3.94238E-002,-1.63399E-002,-7.89080E-004,3.94350E-002,-1.63510E-002,-8.10543E-001,3.96261E-002,1.04016E+000,-1.10683E-002,0.00000E+000,9.05396E-003,9.84753E-001,0.00000E+000,-3.38153E-003,-4.50930E-002,1.00000E+000,6
1179,1317,1.82255E+001,-4.79376E-001,-1.02320E-001,2.12168E+000,-4.62456E-003,-1.65860E-002,2.12175E+000,1.26148E-002,3.57125E-001,0,3.20144E+001,-3.26905E-001,9.99923E-001,-7.28152E+000,-3.09231E+001,9.99052E-001,4.00702E-002,-1.63391E-002,-7.66642E-004,4.00807E-002,-1.63496E-002,-7.78497E-001,4.03066E-002,1.04083E+000,-1.10578E-002,0.00000E+000,9.08629E-003,9.84753E-001,0.00000E+000,-3.49019E-003,-4.50947E-002,1.00000E+000,6
1179,1337,1.82710E+001,8.15802E-001,-7.16513E-002,2.10729E+000,-2.53811E-002,-8.72012E-002,2.10924E+000,5.57386E-003,4.36059E-001,0,3.20599E+001,-5.27227E-001,9.99922E-001,-6.38367E+000,-3.08687E+001,9.98986E-001,4.13843E-002,-1.63360E-002,-7.01678E-004,4.13928E-002,-1.63445E-002,-6.96381E-001,4.16967E-002,1.04220E+000,-1.09961E-002,0.00000E+000,9.15208E-003,9.84756E-001,0.00000E+000,-3.71136E-003,-4.51047E-002,1.00000E+000,6
1179,1347,1.83035E+001,1.47032E+000,-2.11824E-002,2.10238E+000,-3.37363E-002,-1.16641E-001,2.10589E+000,5.43401E-003,4.46840E-001,0,3.20915E+001,-5.93313E-001,9.99913E-001,-5.72350E+000,-3.08322E+001,9.99362E-001,4.20447E-002,-1.63340E-002,-6.65462E-004,4.20522E-002,-1.63416E-002,-6.53004E-001,4.23987E-002,1.04289E+000,-1.09576E-002,0.00000E+000,9.18518E-003,9.84758E-001,0.00000E+000,-3.82264E-003,-4.51109E-002,1.00000E+000,6
679,1327,-1.56864E+001,-3.39706E-001,4.05682E-002,7.90634E-001,-2.39105E-001,5.79256E-002,8.28027E-001,6.62170E-003,6.17274E-001,0,1.22229E+001,-3.97046E+000,9.99804E-001,-3.03379E+001,-4.35048E+001,9.99024E-001,3.73090E-002,-1.50122E-002,-4.82480E-004,3.73134E-002,-1.50167E-002,-5.28293E-001,3.75494E-002,1.03800E+000,5.00404E-003,0.00000E+000,-5.71695E-003,9.86036E-001,0.00000E+000,4.98532E-004,-4.39929E-002,1.00000E+000,6
679,1337,-1.56735E+001,2.85884E-001,7.26992E-004,7.94832E-001,-2.49580E-001,3.11438E-002,8.33677E-001,5.94950E-003,6.05782E-001,0,1.23640E+001,-4.08452E+000,9.99868E-001,-3.01038E+001,-4.38089E+001,9.99660E-001,3.65079E-002,-1.50120E-002,-4.75469E-004,3.65123E-002,-1.50164E-002,-5.28713E-001,3.67035E-002,1.03717E+000,4.99274E-003,0.00000E+000,-5.66578E-003,9.86037E-001,0.00000E+000,-2.03924E-004,-4.40024E-002,1.00000E+000,6
1179,1327,1.82441E+001,1.66797E-001,-9.95513E-002,2.11446E+000,-1.35175E-002,-4.84910E-002,2.11506E+000,8.89891E-003,4.15422E-001,0,3.20242E+001,-4.27742E-001,9.99916E-001,-6.91784E+000,-3.08793E+001,9.98331E-001,4.07250E-002,-1.63377E-002,-7.36219E-004,4.07345E-002,-1.63472E-002,-7.39062E-001,4.09982E-002,1.04151E+000,-1.10311E-002,0.00000E+000,9.11906E-003,9.84755E-001,0.00000E+000,-3.60036E-003,-4.50990E-002,1.00000E+000,6
679,1317,-1.56943E+001,-9.60037E-001,1.06902E-001,7.86657E-001,-2.27011E-001,8.44291E-002,8.23099E-001,6.85859E-003,6.34989E-001,0,1.20846E+001,-3.83812E+000,9.99796E-001,-3.04199E+001,-4.31740E+001,9.98519E-001,3.81057E-002,-1.50122E-002,-4.92414E-004,3.81102E-002,-1.50168E-002,-5.31083E-001,3.83945E-002,1.03883E+000,5.00917E-003,0.00000E+000,-5.76791E-003,9.86036E-001,0.00000E+000,1.19817E-003,-4.39885E-002,1.00000E+000,6
669,1327,-1.63517E+001,-3.44656E-001,4.13853E-002,7.67122E-001,-2.37245E-001,6.07335E-002,8.05264E-001,7.31616E-003,5.86221E-001,0,1.18565E+001,-3.94599E+000,9.99876E-001,-3.05042E+001,-4.36925E+001,9.98927E-001,3.70837E-002,-1.49151E-002,-4.14175E-004,3.70870E-002,-1.49184E-002,-4.56327E-001,3.73225E-002,1.03776E+000,5.89203E-003,0.00000E+000,-6.42496E-003,9.86098E-001,0.00000E+000,4.75899E-004,-4.32883E-002,1.00000E+000,6
669,1337,-1.63396E+001,2.83365E-001,2.58728E-003,7.70197E-001,-2.47253E-001,3.26744E-002,8.09571E-001,4.41434E-003,6.31435E-001,0,1.19831E+001,-4.04976E+000,9.99860E-001,-3.02780E+001,-4.39350E+001,9.99618E-001,3.61956E-002,-1.49155E-002,-4.42779E-004,3.61995E-002,-1.49194E-002,-4.96307E-001,3.63853E-002,1.03684E+000,5.87903E-003,0.00000E+000,-6.44196E-003,9.86097E-001,0.00000E+000,-2.74914E-004,-4.32989E-002,1.00000E+000,6
669,1347,-1.63236E+001,9.12044E-001,-1.60653E-002,7.74237E-001,-2.57514E-001,8.25268E-003,8.15980E-001,3.97367E-003,6.09143E-001,0,1.21141E+001,-4.15702E+000,9.99834E-001,-2.99353E+001,-4.42464E+001,9.99565E-001,3.53059E-002,-1.49162E-002,-4.73391E-004,3.53104E-002,-1.49206E-002,-5.40003E-001,3.54513E-002,1.03592E+000,5.86191E-003,0.00000E+000,-6.45896E-003,9.86097E-001,0.00000E+000,-1.02597E-003,-4.33128E-002,1.00000E+000,6
669,1357,-1.62998E+001,1.54958E+000,5.41066E-003,7.78654E-001,-2.65384E-001,-1.79955E-002,8.22833E-001,4.21760E-003,5.99955E-001,0,1.22542E+001,-4.22847E+000,9.99782E-001,-2.93576E+001,-4.45051E+001,9.99604E-001,3.44082E-002,-1.49174E-002,-5.09335E-004,3.44134E-002,-1.49226E-002,-5.91552E-001,3.45144E-002,1.03499E+000,5.83413E-003,0.00000E+000,-6.47609E-003,9.86096E-001,0.00000E+000,-1.78255E-003,-4.33355E-002,1.00000E+000,6
1189,1337,1.89636E+001,8.27645E-001,-7.53309E-002,2.13532E+000,-2.11067E-002,-9.25900E-002,2.13743E+000,7.81538E-003,4.49838E-001,0,3.24786E+001,-4.49537E-001,9.99894E-001,-5.60676E+000,-3.05793E+001,9.99137E-001,4.14959E-002,-1.64303E-002,-6.11686E-004,4.15024E-002,-1.64368E-002,-6.04939E-001,4.18003E-002,1.04232E+000,-1.04377E-002,0.00000E+000,8.81600E-003,9.84667E-001,0.00000E+000,-4.05357E-003,-4.51132E-002,1.00000E+000,6
669,1317,-1.63583E+001,-9.62956E-001,1.16848E-001,7.63218E-001,-2.23586E-001,8.95455E-002,8.00319E-001,1.03372E-002,5.68297E-001,0,1.17130E+001,-3.78745E+000,9.99859E-001,-3.05395E+001,-4.33656E+001,9.98343E-001,3.79641E-002,-1.49152E-002,-3.90131E-004,3.79669E-002,-1.49181E-002,-4.22684E-001,3.82560E-002,1.03868E+000,5.89590E-003,0.00000E+000,-6.40809E-003,9.86098E-001,0.00000E+000,1.22136E-003,-4.32851E-002,1.00000E+000,6
1189,1297,1.89109E+001,-1.73371E+000,2.15783E-002,2.16028E+000,2.27631E-002,4.04894E-002,2.16078E+000,9.61935E-003,4.58233E-001,0,3.23452E+001,-2.96516E-002,9.99878E-001,-6.53735E+000,-3.05108E+001,9.97321E-001,3.89442E-002,-1.64284E-002,-6.36829E-004,3.89515E-002,-1.64357E-002,-6.58831E-001,3.91094E-002,1.03967E+000,-1.05165E-002,0.00000E+000,8.87668E-003,9.84669E-001,0.00000E+000,-4.28960E-003,-4.51202E-002,1.00000E+000,6
1189,1307,1.89089E+001,-1.10322E+000,-5.59304E-002,2.15179E+000,9.17318E-003,4.09668E-003,2.15182E+000,5.52476E-003,4.52426E-001,0,3.23618E+001,-1.63732E-001,9.99857E-001,-6.62890E+000,-3.05661E+001,9.98987E-001,3.95771E-002,-1.64286E-002,-6.36696E-004,3.95844E-002,-1.64359E-002,-6.51249E-001,3.97736E-002,1.04033E+000,-1.05097E-002,0.00000E+000,8.86165E-003,9.84669E-001,0.00000E+000,-4.23112E-003,-4.51196E-002,1.00000E+000,6
1189,1317,1.89239E+001,-4.58621E-001,-8.11500E-002,2.14718E+000,1.04112E-003,-3.04870E-002,2.14740E+000,5.82369E-003,4.79589E-001,0,3.24236E+001,-2.13193E-001,9.99919E-001,-6.37021E+000,-3.04978E+001,9.99645E-001,4.02167E-002,-1.64291E-002,-6.30344E-004,4.02237E-002,-1.64361E-002,-6.37471E-001,4.04470E-002,1.04099E+000,-1.04899E-002,0.00000E+000,8.84644E-003,9.84668E-001,0.00000E+000,-4.17198E-003,-4.51179E-002,1.00000E+000,6
1189,1327,1.89410E+001,1.82691E-001,-8.42603E-002,2.14069E+000,-1.05641E-002,-5.90510E-002,2.14153E+000,8.81078E-003,4.57021E-001,0,3.24338E+001,-3.40010E-001,9.99893E-001,-6.04127E+000,-3.05560E+001,9.99414E-001,4.08555E-002,-1.64297E-002,-6.22051E-004,4.08622E-002,-1.64364E-002,-6.22068E-001,4.11218E-002,1.04166E+000,-1.04660E-002,0.00000E+000,8.83125E-003,9.84668E-001,0.00000E+000,-4.11287E-003,-4.51157E-002,1.00000E+000,6
659,1327,-1.70151E+001,-3.43190E-001,4.44705E-002,7.43919E-001,-2.31242E-001,5.90828E-002,7.81267E-001,1.18703E-002,5.98833E-001,0,1.15057E+001,-3.84871E+000,9.99828E-001,-3.06291E+001,-4.37645E+001,9.97621E-001,3.67804E-002,-1.48366E-002,-4.10945E-004,3.67837E-002,-1.48399E-002,-4.56117E-001,3.70116E-002,1.03744E+000,6.77246E-003,0.00000E+000,-7.25191E-003,9.86145E-001,0.00000E+000,3.77726E-004,-4.27187E-002,1.00000E+000,6
659,1337,-1.69982E+001,2.80618E-001,1.08609E-002,7.51847E-001,-2.45399E-001,3.60063E-002,7.91701E-001,1.09633E-002,7.18121E-001,0,1.16945E+001,-4.06521E+000,9.99798E-001,-3.03158E+001,-4.40473E+001,9.99388E-001,3.58606E-002,-1.48372E-002,-4.52973E-004,3.58646E-002,-1.48412E-002,-5.11870E-001,3.60418E-002,1.03649E+000,6.75908E-003,0.00000E+000,-7.29724E-003,9.86144E-001,0.00000E+000,-3.52519E-004,-4.27289E-002,1.00000E+000,6
659,1347,-1.69832E+001,9.11127E-001,-5.44675E-003,7.54899E-001,-2.53530E-001,1.29827E-002,7.96441E-001,5.77373E-003,6.36847E-001,0,1.18054E+001,-4.11582E+000,9.99895E-001,-2.99790E+001,-4.43672E+001,9.99735E-001,3.49395E-002,-1.48381E-002,-4.97139E-004,3.49444E-002,-1.48431E-002,-5.72149E-001,3.50761E-002,1.03554E+000,6.74129E-003,0.00000E+000,-7.34256E-003,9.86144E-001,0.00000E+000,-1.08266E-003,-4.27426E-002,1.00000E+000,6
659,1357,-1.69620E+001,1.54890E+000,1.05542E-002,7.57428E-001,-2.60353E-001,-1.55406E-002,8.01076E-001,3.55308E-003,5.97588E-001,0,1.19217E+001,-4.15211E+000,9.99857E-001,-2.94551E+001,-4.46276E+001,9.99816E-001,3.40107E-002,-1.48398E-002,-5.46334E-004,3.40168E-002,-1.48459E-002,-6.40677E-001,3.41084E-002,1.03458E+000,6.71364E-003,0.00000E+000,-7.38819E-003,9.86142E-001,0.00000E+000,-1.81771E-003,-4.27637E-002,1.00000E+000,6
1199,1307,1.96012E+001,-1.09047E+000,-5.64892E-002,2.17717E+000,1.38638E-002,-6.94039E-003,2.17723E+000,8.44514E-003,4.61102E-001,0,3.27593E+001,-6.50531E-002,9.99823E-001,-5.84484E+000,-3.02768E+001,9.98583E-001,3.96808E-002,-1.64423E-002,-4.73656E-004,3.96848E-002,-1.64463E-002,-4.83508E-001,3.98781E-002,1.04044E+000,-9.90848E-003,0.00000E+000,8.63923E-003,9.84656E-001,0.00000E+000,-4.81128E-003,-4.51071E-002,1.00000E+000,6
1199,1317,1.96135E+001,-4.51671E-001,-8.78175E-002,2.17228E+000,2.82501E-003,-3.83251E-002,2.17262E+000,6.72273E-003,4.58530E-001,0,3.28070E+001,-1.79215E-001,9.99662E-001,-5.63799E+000,-3.02988E+001,9.98728E-001,4.03010E-002,-1.64438E-002,-4.84468E-004,4.03051E-002,-1.64480E-002,-4.89124E-001,4.05315E-002,1.04109E+000,-9.89145E-003,0.00000E+000,8.58711E-003,9.84655E-001,0.00000E+000,-4.61034E-003,-4.51018E-002,1.00000E+000,6
1199,1327,1.96293E+001,1.90355E-001,-1.05658E-001,2.16809E+000,-6.07560E-003,-6.69927E-002,2.16913E+000,7.41301E-003,4.25476E-001,0,3.28528E+001,-2.61055E-001,9.99758E-001,-5.35497E+000,-3.03173E+001,9.98962E-001,4.09215E-002,-1.64456E-002,-4.94017E-004,4.09257E-002,-1.64498E-002,-4.93354E-001,4.11872E-002,1.04173E+000,-9.87172E-003,0.00000E+000,8.53493E-003,9.84654E-001,0.00000E+000,-4.40916E-003,-4.50956E-002,1.00000E+000,6
659,1317,-1.70265E+001,-9.66119E-001,1.00608E-001,7.37553E-001,-2.21277E-001,8.25730E-002,7.74446E-001,9.98548E-003,6.07055E-001,0,1.13403E+001,-3.73604E+000,9.99603E-001,-3.07949E+001,-4.34534E+001,9.95554E-001,3.76929E-002,-1.48366E-002,-3.71949E-004,3.76956E-002,-1.48392E-002,-4.05670E-001,3.79787E-002,1.03839E+000,6.78003E-003,0.00000E+000,-7.20687E-003,9.86145E-001,0.00000E+000,1.10329E-003,-4.27129E-002,1.00000E+000,6
1199,1337,1.96601E+001,8.41830E-001,-6.57349E-002,2.16413E+000,-1.53791E-002,-9.49863E-002,2.16627E+000,7.40363E-003,4.52767E-001,0,3.28954E+001,-3.60737E-001,9.99837E-001,-4.74364E+000,-3.02883E+001,9.98520E-001,4.15492E-002,-1.64483E-002,-4.96870E-004,4.15535E-002,-1.64525E-002,-4.90810E-001,4.18524E-002,1.04239E+000,-9.83749E-003,0.00000E+000,8.48210E-003,9.84651E-001,0.00000E+000,-4.20544E-003,-4.50850E-002,1.00000E+000,6
1199,1297,1.96009E+001,-1.72173E+000,1.29210E-002,2.18415E+000,2.73276E-002,2.39907E-002,2.18445E+000,6.04869E-003,4.33876E-001,0,3.27408E+001,9.49158E-002,9.99828E-001,-5.80147E+000,-3.02344E+001,9.98467E-001,3.90639E-002,-1.64414E-002,-4.58293E-004,3.90677E-002,-1.64452E-002,-4.73033E-001,3.92302E-002,1.03980E+000,-9.91577E-003,0.00000E+000,8.69103E-003,9.84657E-001,0.00000E+000,-5.01099E-003,-4.51094E-002,1.00000E+000,6
649,1347,-1.76490E+001,9.12634E-001,-7.01125E-003,7.29149E-001,-2.47319E-001,7.13155E-003,7.69984E-001,5.71604E-003,6.57848E-001,0,1.14249E+001,-4.00481E+000,9.99902E-001,-3.01486E+001,-4.44284E+001,9.99249E-001,3.45543E-002,-1.47628E-002,-4.77617E-004,3.45590E-002,-1.47674E-002,-5.54818E-001,3.46805E-002,1.03513E+000,7.69255E-003,0.00000E+000,-8.21481E-003,9.86183E-001,0.00000E+000,-1.03022E-003,-4.20860E-002,1.00000E+000,6
649,1357,-1.76265E+001,1.54807E+000,1.04324E-002,7.33655E-001,-2.55426E-001,-1.74228E-002,7.77043E-001,3.89012E-003,5.88387E-001,0,1.15612E+001,-4.06235E+000,9.99890E-001,-2.95985E+001,-4.47445E+001,9.99646E-001,3.35779E-002,-1.47644E-002,-5.28670E-004,3.35837E-002,-1.47702E-002,-6.26484E-001,3.36647E-002,1.03412E+000,7.66441E-003,0.00000E+000,-8.26844E-003,9.86182E-001,0.00000E+000,-1.68958E-003,-4.21044E-002,1.00000E+000,6
649,1337,-1.76670E+001,2.83524E-001,1.49620E-002,7.22858E-001,-2.36268E-001,3.47788E-002,7.61286E-001,6.22803E-003,6.01095E-001,0,1.12506E+001,-3.87777E+000,9.99894E-001,-3.05144E+001,-4.41669E+001,9.99407E-001,3.55267E-002,-1.47619E-002,-4.31431E-004,3.55304E-002,-1.47656E-002,-4.91498E-001,3.56988E-002,1.03614E+000,7.71087E-003,0.00000E+000,-8.16133E-003,9.86184E-001,0.00000E+000,-3.72627E-004,-4.20740E-002,1.00000E+000,6
649,1327,-1.76800E+001,-3.40874E-001,5.16944E-002,7.18350E-001,-2.25110E-001,5.88693E-002,7.55094E-001,5.47858E-003,6.17084E-001,0,1.11133E+001,-3.75013E+000,9.99901E-001,-3.07606E+001,-4.38300E+001,9.99649E-001,3.64919E-002,-1.47615E-002,-3.87905E-004,3.64948E-002,-1.47644E-002,-4.33603E-001,3.67158E-002,1.03714E+000,7.72416E-003,0.00000E+000,-8.10816E-003,9.86185E-001,0.00000E+000,2.81095E-004,-4.20654E-002,1.00000E+000,6
1209,1307,2.02957E+001,-1.07735E+000,-5.33692E-002,2.20501E+000,2.01862E-002,-1.16880E-002,2.20514E+000,6.35017E-003,4.72676E-001,0,3.31683E+001,2.93506E-002,9.99821E-001,-5.01602E+000,-2.99881E+001,9.98819E-001,3.96755E-002,-1.63583E-002,-2.80367E-004,3.96769E-002,-1.63597E-002,-2.86672E-001,3.98797E-002,1.04044E+000,-9.23061E-003,0.00000E+000,8.39200E-003,9.84726E-001,0.00000E+000,-5.11220E-003,-4.47696E-002,1.00000E+000,6
1209,1317,2.03058E+001,-4.41205E-001,-9.08113E-002,2.19965E+000,7.29146E-003,-4.21557E-002,2.20006E+000,7.13526E-003,4.54953E-001,0,3.32072E+001,-1.08518E-001,9.99786E-001,-4.85408E+000,-3.00445E+001,9.98597E-001,4.03208E-002,-1.63593E-002,-2.85417E-004,4.03223E-002,-1.63608E-002,-2.88508E-001,4.05603E-002,1.04111E+000,-9.21463E-003,0.00000E+000,8.34361E-003,9.84725E-001,0.00000E+000,-4.71053E-003,-4.47600E-002,1.00000E+000,6
1209,1327,2.03274E+001,2.03572E-001,-9.33400E-002,2.19646E+000,-1.13334E-003,-7.31672E-002,2.19768E+000,6.59886E-003,4.16062E-001,0,3.32764E+001,-1.83486E-001,9.99835E-001,-4.45828E+000,-3.00546E+001,9.99119E-001,4.09686E-002,-1.63608E-002,-2.86040E-004,4.09700E-002,-1.63622E-002,-2.85863E-001,4.12457E-002,1.04179E+000,-9.18927E-003,0.00000E+000,8.29498E-003,9.84723E-001,0.00000E+000,-4.30693E-003,-4.47448E-002,1.00000E+000,6
1209,1337,2.03594E+001,8.56296E-001,-5.11061E-002,2.19322E+000,-1.06720E-002,-9.98673E-002,2.19552E+000,7.65007E-003,4.61660E-001,0,3.33252E+001,-2.82461E-001,9.99852E-001,-3.82662E+000,-3.00009E+001,9.98173E-001,4.16235E-002,-1.63627E-002,-2.81642E-004,4.16249E-002,-1.63641E-002,-2.78280E-001,4.19406E-002,1.04247E+000,-9.15308E-003,0.00000E+000,8.24577E-003,9.84721E-001,0.00000E+000,-3.89846E-003,-4.47231E-002,1.00000E+000,6
1209,1297,2.02928E+001,-1.71027E+000,1.12974E-002,2.21130E+000,3.37025E-002,2.13752E-002,2.21166E+000,6.02055E-003,4.18376E-001,0,3.31309E+001,1.91502E-001,9.99806E-001,-5.02007E+000,-2.99768E+001,9.98482E-001,3.90314E-002,-1.63576E-002,-2.72238E-004,3.90327E-002,-1.63590E-002,-2.81600E-001,3.92026E-002,1.03978E+000,-9.24009E-003,0.00000E+000,8.44026E-003,9.84727E-001,0.00000E+000,-5.51271E-003,-4.47753E-002,1.00000E+000,6
649,1317,-1.76883E+001,-9.61804E-001,1.16997E-001,7.13679E-001,-2.14375E-001,8.40568E-002,7.49907E-001,4.44619E-003,6.21067E-001,0,1.09699E+001,-3.62775E+000,9.99857E-001,-3.08531E+001,-4.35074E+001,9.99557E-001,3.74517E-002,-1.47617E-002,-3.48131E-004,3.74540E-002,-1.47640E-002,-3.81996E-001,3.77325E-002,1.03813E+000,7.72999E-003,0.00000E+000,-8.05521E-003,9.86185E-001,0.00000E+000,9.32111E-004,-4.20615E-002,1.00000E+000,6
639,1347,-1.83128E+001,9.13408E-001,-1.04144E-002,7.06155E-001,-2.40312E-001,5.49126E-003,7.45946E-001,5.98191E-003,6.27548E-001,0,1.10752E+001,-3.87532E+000,9.99829E-001,-3.02875E+001,-4.45224E+001,9.99197E-001,3.41798E-002,-1.46638E-002,-4.72970E-004,3.41844E-002,-1.46684E-002,-5.54747E-001,3.42987E-002,1.03474E+000,8.69890E-003,0.00000E+000,-9.17184E-003,9.86244E-001,0.00000E+000,-9.28083E-004,-4.13813E-002,1.00000E+000,6
639,1357,-1.82889E+001,1.54967E+000,1.18047E-002,7.11985E-001,-2.48215E-001,-1.53471E-002,7.54167E-001,3.70917E-003,5.98877E-001,0,1.12216E+001,-3.94853E+000,9.99858E-001,-2.97014E+001,-4.48176E+001,9.99679E-001,3.31694E-002,-1.46656E-002,-5.30454E-004,3.31753E-002,-1.46715E-002,-6.35262E-001,3.32490E-002,1.03369E+000,8.66976E-003,0.00000E+000,-9.24105E-003,9.86242E-001,0.00000E+000,-1.53349E-003,-4.13982E-002,1.00000E+000,6
639,1317,-1.83506E+001,-9.58054E-001,1.31920E-001,6.89261E-001,-2.09254E-001,8.57810E-002,7.25415E-001,6.72399E-003,6.92780E-001,0,1.05904E+001,-3.55465E+000,9.99850E-001,-3.09181E+001,-4.35384E+001,9.98975E-001,3.71693E-002,-1.46632E-002,-3.27820E-004,3.71714E-002,-1.46653E-002,-3.62354E-001,3.74461E-002,1.03783E+000,8.73291E-003,0.00000E+000,-8.96644E-003,9.86246E-001,0.00000E+000,8.68389E-004,-4.13616E-002,1.00000E+000,6
639,1327,-1.83424E+001,-3.41810E-001,5.96534E-002,6.95194E-001,-2.21291E-001,6.13859E-002,7.32143E-001,5.11454E-003,6.13699E-001,0,1.07515E+001,-3.69357E+000,9.99875E-001,-3.08491E+001,-4.39575E+001,9.99187E-001,3.61815E-002,-1.46627E-002,-3.72201E-004,3.61842E-002,-1.46654E-002,-4.19400E-001,3.63999E-002,1.03681E+000,8.72922E-003,0.00000E+000,-9.03441E-003,9.86246E-001,0.00000E+000,2.73909E-004,-4.13637E-002,1.00000E+000,6
639,1337,-1.83307E+001,2.84400E-001,8.51951E-003,7.00324E-001,-2.30865E-001,3.33186E-002,7.38148E-001,4.68657E-003,6.72532E-001,0,1.09086E+001,-3.79511E+000,9.99902E-001,-3.06627E+001,-4.42002E+001,9.99447E-001,3.51823E-002,-1.46629E-002,-4.20406E-004,3.51858E-002,-1.46664E-002,-4.83201E-001,3.53477E-002,1.03577E+000,8.71848E-003,0.00000E+000,-9.10306E-003,9.86245E-001,0.00000E+000,-3.26539E-004,-4.13700E-002,1.00000E+000,6
1219,1317,2.10038E+001,-4.25650E-001,-8.17735E-002,2.22847E+000,1.25295E-002,-4.76965E-002,2.22901E+000,8.02813E-003,5.19437E-001,0,3.36342E+001,-2.04484E-002,9.99876E-001,-3.96020E+000,-2.97029E+001,9.98559E-001,4.02858E-002,-1.63490E-002,-7.29525E-005,4.02859E-002,-1.63491E-002,-7.38038E-002,4.05234E-002,1.04108E+000,-8.50107E-003,0.00000E+000,8.07811E-003,9.84708E-001,0.00000E+000,-4.53458E-003,-4.40782E-002,1.00000E+000,6
1219,1327,2.10229E+001,2.16971E-001,-8.99048E-002,2.22488E+000,3.99314E-003,-7.63339E-002,2.22620E+000,4.57548E-003,4.39970E-001,0,3.36893E+001,-9.99792E-002,9.99918E-001,-3.61142E+000,-2.97534E+001,9.99252E-001,4.09218E-002,-1.63501E-002,-7.27328E-005,4.09219E-002,-1.63502E-002,-7.27629E-002,4.11963E-002,1.04174E+000,-8.47806E-003,0.00000E+000,8.02795E-003,9.84706E-001,0.00000E+000,-3.98790E-003,-4.40591E-002,1.00000E+000,6
1219,1337,2.10570E+001,8.70162E-001,-4.47721E-002,2.22270E+000,-5.64869E-003,-1.02680E-001,2.22508E+000,5.60288E-003,4.71176E-001,0,3.37528E+001,-1.95400E-001,9.99894E-001,-2.94724E+000,-2.97045E+001,9.99066E-001,4.15669E-002,-1.63518E-002,-6.62017E-005,4.15670E-002,-1.63519E-002,-6.54895E-002,4.18808E-002,1.04241E+000,-8.44149E-003,0.00000E+000,7.97701E-003,9.84703E-001,0.00000E+000,-3.43273E-003,-4.40289E-002,1.00000E+000,6
1219,1297,2.09876E+001,-1.69812E+000,1.12840E-002,2.23963E+000,3.87746E-002,1.62297E-002,2.24002E+000,6.78021E-003,4.20555E-001,0,3.35483E+001,2.86058E-001,9.99801E-001,-4.18917E+000,-2.97027E+001,9.98394E-001,3.90129E-002,-1.63474E-002,-6.46960E-005,3.90129E-002,-1.63475E-002,-6.69578E-002,3.91831E-002,1.03976E+000,-8.52883E-003,0.00000E+000,8.17831E-003,9.84710E-001,0.00000E+000,-5.62671E-003,-4.41012E-002,1.00000E+000,6
1219,1307,2.09947E+001,-1.06294E+000,-3.97266E-002,2.23504E+000,2.58189E-002,-1.27274E-002,2.23522E+000,8.08436E-003,4.98350E-001,0,3.35947E+001,1.13086E-001,9.99852E-001,-4.09715E+000,-2.96947E+001,9.98159E-001,3.96487E-002,-1.63481E-002,-6.97495E-005,3.96488E-002,-1.63482E-002,-7.13673E-002,3.98515E-002,1.04042E+000,-8.51692E-003,0.00000E+000,8.12829E-003,9.84709E-001,0.00000E+000,-5.08148E-003,-4.40913E-002,1.00000E+000,6
629,1347,-1.89756E+001,9.12000E-001,-1.43500E-002,6.84086E-001,-2.35353E-001,5.98524E-003,7.23464E-001,5.10716E-003,6.21815E-001,0,1.07344E+001,-3.79150E+000,9.99772E-001,-3.04114E+001,-4.46366E+001,9.99365E-001,3.38480E-002,-1.48616E-002,-5.08502E-004,3.38533E-002,-1.48669E-002,-5.98051E-001,3.39367E-002,1.03438E+000,9.70682E-003,0.00000E+000,-1.02082E-002,9.86009E-001,0.00000E+000,-7.95821E-004,-4.06622E-002,1.00000E+000,6
629,1357,-1.89512E+001,1.54830E+000,8.14042E-003,6.90379E-001,-2.43309E-001,-1.64134E-002,7.32183E-001,4.17238E-003,6.01829E-001,0,1.08918E+001,-3.86581E+000,9.99764E-001,-2.98134E+001,-4.49290E+001,9.99613E-001,3.29095E-002,-1.48610E-002,-5.00178E-004,3.29147E-002,-1.48662E-002,-5.99826E-001,3.29659E-002,1.03341E+000,9.67963E-003,0.00000E+000,-1.01504E-002,9.86011E-001,0.00000E+000,-1.39950E-003,-4.06791E-002,1.00000E+000,6
629,1327,-1.90063E+001,-3.41686E-001,5.55230E-002,6.71597E-001,-2.15393E-001,5.95671E-002,7.07803E-001,4.81776E-003,6.05864E-001,0,1.03937E+001,-3.59103E+000,9.99821E-001,-3.09892E+001,-4.40455E+001,9.99204E-001,3.57073E-002,-1.48619E-002,-5.37970E-004,3.57130E-002,-1.48676E-002,-6.09437E-001,3.58794E-002,1.03631E+000,9.73408E-003,0.00000E+000,-1.03230E-002,9.86008E-001,0.00000E+000,4.02669E-004,-4.06452E-002,1.00000E+000,6
629,1337,-1.89920E+001,2.83492E-001,5.99659E-003,6.79242E-001,-2.25696E-001,3.26430E-002,7.16501E-001,4.51457E-003,6.56745E-001,0,1.05867E+001,-3.70521E+000,9.99832E-001,-3.07597E+001,-4.43128E+001,9.99498E-001,3.47792E-002,-1.48618E-002,-5.21482E-004,3.47847E-002,-1.48673E-002,-6.01808E-001,3.49066E-002,1.03535E+000,9.72413E-003,0.00000E+000,-1.02657E-002,9.86008E-001,0.00000E+000,-1.96011E-004,-4.06514E-002,1.00000E+000,6
1229,1317,2.16999E+001,-4.12556E-001,-8.21591E-002,2.25806E+000,1.92416E-002,-5.09752E-002,2.25872E+000,7.12357E-003,4.97652E-001,0,3.40635E+001,9.28502E-002,9.99863E-001,-3.10622E+000,-2.94224E+001,9.99273E-001,4.02491E-002,-1.62788E-002,1.55634E-004,4.02496E-002,-1.62792E-002,1.57746E-001,4.04938E-002,1.04105E+000,-7.79322E-003,0.00000E+000,7.84135E-003,9.84747E-001,0.00000E+000,-4.15299E-003,-4.33353E-002,1.00000E+000,6
1229,1327,2.17188E+001,2.31028E-001,-8.76444E-002,2.25363E+000,8.38099E-003,-7.82864E-002,2.25500E+000,5.68355E-003,5.14703E-001,0,3.41020E+001,-2.93024E-002,9.99878E-001,-2.75955E+000,-2.94142E+001,9.98942E-001,4.08612E-002,-1.62796E-002,1.59079E-004,4.08617E-002,-1.62801E-002,1.59509E-001,4.11418E-002,1.04168E+000,-7.77059E-003,0.00000E+000,7.79345E-003,9.84745E-001,0.00000E+000,-3.47846E-003,-4.33113E-002,1.00000E+000,6
1229,1337,2.17503E+001,8.81090E-001,-5.53194E-002,2.25170E+000,6.19396E-004,-1.06303E-001,2.25421E+000,6.05507E-003,4.54987E-001,0,3.41766E+001,-1.03043E-001,9.99847E-001,-2.15724E+000,-2.94296E+001,9.98650E-001,4.14744E-002,-1.62808E-002,1.67140E-004,4.14749E-002,-1.62813E-002,1.65809E-001,4.17929E-002,1.04232E+000,-7.73822E-003,0.00000E+000,7.74539E-003,9.84742E-001,0.00000E+000,-2.80172E-003,-4.32769E-002,1.00000E+000,6
629,1317,-1.90152E+001,-9.57787E-001,1.33674E-001,6.64685E-001,-2.03024E-001,8.87400E-002,7.00642E-001,5.59013E-003,6.96510E-001,0,1.02048E+001,-3.47214E+000,9.99839E-001,-3.10527E+001,-4.36292E+001,9.99160E-001,3.66259E-002,-1.48616E-002,-5.57561E-004,3.66320E-002,-1.48677E-002,-6.20361E-001,3.68477E-002,1.03726E+000,9.73719E-003,0.00000E+000,-1.03799E-002,9.86008E-001,0.00000E+000,9.96028E-004,-4.06433E-002,1.00000E+000,6
1229,1297,2.16823E+001,-1.68485E+000,1.05833E-002,2.26739E+000,4.46459E-002,1.05272E-002,2.26785E+000,6.43100E-003,4.89247E-001,0,3.39585E+001,3.65884E-001,9.99822E-001,-3.35770E+000,-2.93769E+001,9.98169E-001,3.90306E-002,-1.62777E-002,1.57742E-004,3.90311E-002,-1.62781E-002,1.63409E-001,3.92097E-002,1.03979E+000,-7.81942E-003,0.00000E+000,7.93652E-003,9.84749E-001,0.00000E+000,-5.49298E-003,-4.33631E-002,1.00000E+000,6
1229,1307,2.16908E+001,-1.04904E+000,-4.28978E-002,2.26550E+000,3.33979E-002,-1.56020E-002,2.26580E+000,9.00677E-003,5.20988E-001,0,3.40345E+001,2.26731E-001,9.99814E-001,-3.24809E+000,-2.93751E+001,9.98417E-001,3.96390E-002,-1.62781E-002,1.55275E-004,3.96394E-002,-1.62786E-002,1.59101E-001,3.98498E-002,1.04042E+000,-7.80931E-003,0.00000E+000,7.88904E-003,9.84748E-001,0.00000E+000,-4.82444E-003,-4.33524E-002,1.00000E+000,6
619,1327,-1.96699E+001,-3.42459E-001,5.24851E-002,6.47561E-001,-2.10632E-001,5.75200E-002,6.83382E-001,3.94393E-003,6.06531E-001,0,1.00294E+001,-3.50944E+000,9.99777E-001,-3.11195E+001,-4.41454E+001,9.99478E-001,3.53299E-002,-1.47295E-002,-6.38419E-004,3.53380E-002,-1.47377E-002,-7.30547E-001,3.54997E-002,1.03591E+000,1.07955E-002,0.00000E+000,-1.15374E-002,9.86094E-001,0.00000E+000,4.74386E-004,-3.98647E-002,1.00000E+000,6
619,1337,-1.96551E+001,2.83576E-001,8.06237E-003,6.55036E-001,-2.20471E-001,3.10937E-002,6.91843E-001,3.69137E-003,6.48165E-001,0,1.02177E+001,-3.61361E+000,9.99719E-001,-3.08662E+001,-4.44170E+001,9.99576E-001,3.44169E-002,-1.47295E-002,-5.87692E-004,3.44239E-002,-1.47365E-002,-6.85012E-001,3.45424E-002,1.03496E+000,1.07847E-002,0.00000E+000,-1.14140E-002,9.86096E-001,0.00000E+000,-9.89985E-005,-3.98713E-002,1.00000E+000,6
619,1347,-1.96380E+001,9.12768E-001,-1.49281E-002,6.62005E-001,-2.28247E-001,9.00815E-003,7.00306E-001,4.45983E-003,6.30476E-001,0,1.03856E+001,-3.68882E+000,9.99748E-001,-3.05128E+001,-4.47175E+001,9.99503E-001,3.35024E-002,-1.47290E-002,-5.38965E-004,3.35084E-002,-1.47350E-002,-6.40149E-001,3.35894E-002,1.03401E+000,1.07697E-002,0.00000E+000,-1.12905E-002,9.86097E-001,0.00000E+000,-6.72532E-004,-3.98803E-002,1.00000E+000,6
619,1357,-1.96140E+001,1.54816E+000,-1.81223E-004,6.68923E-001,-2.35953E-001,-1.54284E-002,7.09485E-001,4.04392E-003,6.14091E-001,0,1.05579E+001,-3.75788E+000,9.99848E-001,-2.99440E+001,-4.50068E+001,9.99668E-001,3.25810E-002,-1.47274E-002,-4.94709E-004,3.25862E-002,-1.47326E-002,-5.99060E-001,3.26359E-002,1.03306E+000,1.07448E-002,0.00000E+000,-1.11663E-002,9.86101E-001,0.00000E+000,-1.24963E-003,-3.98955E-002,1.00000E+000,6
619,1317,-1.96769E+001,-9.57344E-001,1.32375E-001,6.42724E-001,-1.95606E-001,8.89365E-002,6.77692E-001,5.91635E-003,6.43330E-001,0,9.86683E+000,-3.35153E+000,9.99794E-001,-3.11466E+001,-4.37390E+001,9.99378E-001,3.62355E-002,-1.47288E-002,-6.92423E-004,3.62449E-002,-1.47382E-002,-7.78254E-001,3.64549E-002,1.03684E+000,1.07987E-002,0.00000E+000,-1.16600E-002,9.86094E-001,0.00000E+000,1.04389E-003,-3.98628E-002,1.00000E+000,6
1239,1307,2.23812E+001,-1.04110E+000,-5.36092E-002,2.29068E+000,3.66223E-002,-2.30784E-002,2.29109E+000,9.05152E-003,4.68207E-001,0,3.44151E+001,3.02837E-001,9.99768E-001,-2.49446E+000,-2.91701E+001,9.98844E-001,3.95497E-002,-1.61690E-002,2.77884E-004,3.95511E-002,-1.61704E-002,2.85740E-001,3.97696E-002,1.04033E+000,-7.20768E-003,0.00000E+000,7.55271E-003,9.84831E-001,0.00000E+000,-4.63532E-003,-4.27183E-002,1.00000E+000,6
1239,1317,2.23945E+001,-4.00359E-001,-8.50508E-002,2.28768E+000,2.75398E-002,-4.93304E-002,2.28838E+000,7.80111E-003,4.59778E-001,0,3.44729E+001,2.05713E-001,9.99810E-001,-2.27591E+000,-2.91587E+001,9.99221E-001,4.01673E-002,-1.61685E-002,2.95259E-004,4.01689E-002,-1.61700E-002,3.00280E-001,4.04224E-002,1.04097E+000,-7.19163E-003,0.00000E+000,7.53085E-003,9.84830E-001,0.00000E+000,-3.76348E-003,-4.26964E-002,1.00000E+000,6
1239,1327,2.24179E+001,2.46088E-001,-7.24632E-002,2.28290E+000,1.46061E-002,-7.58950E-002,2.28421E+000,6.58883E-003,5.31964E-001,0,3.45032E+001,5.61429E-002,9.99842E-001,-1.83363E+000,-2.91163E+001,9.99101E-001,4.07913E-002,-1.61678E-002,3.18299E-004,4.07931E-002,-1.61695E-002,3.20167E-001,4.10841E-002,1.04161E+000,-7.16398E-003,0.00000E+000,7.50873E-003,9.84829E-001,0.00000E+000,-2.88086E-003,-4.26587E-002,1.00000E+000,6
1239,1337,2.24441E+001,8.93875E-001,-5.50864E-002,2.27915E+000,7.31185E-003,-1.04965E-001,2.28158E+000,5.91532E-003,4.34284E-001,0,3.45561E+001,-4.22420E-003,9.99796E-001,-1.33938E+000,-2.91523E+001,9.98426E-001,4.14098E-002,-1.61670E-002,3.42043E-004,4.14119E-002,-1.61690E-002,3.40357E-001,4.17419E-002,1.04226E+000,-7.13459E-003,0.00000E+000,7.48676E-003,9.84828E-001,0.00000E+000,-2.00436E-003,-4.26187E-002,1.00000E+000,6
1239,1297,2.23758E+001,-1.67474E+000,8.65877E-003,2.29464E+000,4.96756E-002,7.80821E-003,2.29519E+000,5.63994E-003,4.73653E-001,0,3.43494E+001,4.41510E-001,9.99818E-001,-2.54265E+000,-2.91398E+001,9.98834E-001,3.89330E-002,-1.61693E-002,2.63784E-004,3.89343E-002,-1.61706E-002,2.74276E-001,3.91199E-002,1.03969E+000,-7.21695E-003,0.00000E+000,7.57448E-003,9.84831E-001,0.00000E+000,-5.50419E-003,-4.27310E-002,1.00000E+000,6
609,1347,-2.02987E+001,9.13959E-001,-1.31311E-002,6.40216E-001,-2.21951E-001,8.99314E-003,6.77658E-001,5.61567E-003,6.35901E-001,0,1.00492E+001,-3.58357E+000,9.99750E-001,-3.05782E+001,-4.47987E+001,9.99404E-001,3.31724E-002,-1.44257E-002,-6.46661E-004,3.31812E-002,-1.44345E-002,-7.78220E-001,3.32745E-002,1.03366E+000,1.17190E-002,0.00000E+000,-1.24219E-002,9.86351E-001,0.00000E+000,-4.95842E-004,-3.90492E-002,1.00000E+000,6
609,1357,-2.02757E+001,1.55029E+000,-3.24412E-003,6.47284E-001,-2.27612E-001,-1.49491E-002,6.86299E-001,4.54419E-003,6.22203E-001,0,1.02217E+001,-3.62467E+000,9.99829E-001,-3.00359E+001,-4.50636E+001,9.99587E-001,3.22667E-002,-1.44242E-002,-5.91600E-004,3.22742E-002,-1.44317E-002,-7.25814E-001,3.23342E-002,1.03273E+000,1.16961E-002,0.00000E+000,-1.22777E-002,9.86354E-001,0.00000E+000,-1.11626E-003,-3.90644E-002,1.00000E+000,6
609,1317,-2.03403E+001,-9.57416E-001,1.32030E-001,6.18046E-001,-1.90113E-001,8.67845E-002,6.52423E-001,8.10483E-003,6.33041E-001,0,9.49256E+000,-3.26290E+000,9.99796E-001,-3.12605E+001,-4.38377E+001,9.98626E-001,3.58634E-002,-1.44250E-002,-8.30114E-004,3.58771E-002,-1.44387E-002,-9.45442E-001,3.61040E-002,1.03645E+000,1.17472E-002,0.00000E+000,-1.28515E-002,9.86347E-001,0.00000E+000,1.35270E-003,-3.90305E-002,1.00000E+000,6
609,1327,-2.03318E+001,-3.41716E-001,5.11380E-002,6.24929E-001,-2.05373E-001,5.72606E-002,6.60298E-001,5.18125E-003,6.30636E-001,0,9.68161E+000,-3.42019E+000,9.99768E-001,-3.12130E+001,-4.42139E+001,9.99131E-001,3.49702E-002,-1.44262E-002,-7.65807E-004,3.49821E-002,-1.44380E-002,-8.87990E-001,3.51592E-002,1.03552E+000,1.17447E-002,0.00000E+000,-1.27087E-002,9.86347E-001,0.00000E+000,7.38259E-004,-3.90321E-002,1.00000E+000,6
609,1337,-2.03168E+001,2.83951E-001,8.30709E-003,6.32602E-001,-2.13882E-001,3.19538E-002,6.68544E-001,4.93534E-003,6.16269E-001,0,9.86926E+000,-3.50180E+000,9.99718E-001,-3.09518E+001,-4.45242E+001,9.99370E-001,3.40739E-002,-1.44263E-002,-7.05267E-004,3.40842E-002,-1.44365E-002,-8.32934E-001,3.42167E-002,1.03460E+000,1.17342E-002,0.00000E+000,-1.25656E-002,9.86349E-001,0.00000E+000,1.22573E-004,-3.90391E-002,1.00000E+000,6
1249,1297,2.30709E+001,-1.66179E+000,1.08303E-002,2.32144E+000,5.55438E-002,3.51143E-003,2.32210E+000,7.09921E-003,4.89555E-001,0,3.47383E+001,5.35824E-001,9.99822E-001,-1.69332E+000,-2.88517E+001,9.98805E-001,3.86935E-002,-1.58986E-002,3.82972E-004,3.86962E-002,-1.59013E-002,4.01912E-001,3.89003E-002,1.03945E+000,-6.42914E-003,0.00000E+000,7.07328E-003,9.85078E-001,0.00000E+000,-5.71205E-003,-4.21565E-002,1.00000E+000,6
1249,1307,2.30730E+001,-1.03044E+000,-5.98554E-002,2.31659E+000,4.18625E-002,-2.63479E-002,2.31712E+000,9.39763E-003,4.77185E-001,0,3.47884E+001,3.79971E-001,9.99797E-001,-1.71026E+000,-2.89017E+001,9.98537E-001,3.93610E-002,-1.58959E-002,4.65310E-004,3.93649E-002,-1.58998E-002,4.82433E-001,3.96065E-002,1.04014E+000,-6.42172E-003,0.00000E+000,7.17888E-003,9.85079E-001,0.00000E+000,-4.61629E-003,-4.21447E-002,1.00000E+000,6
1249,1317,2.30849E+001,-3.92541E-001,-9.49755E-002,2.31316E+000,3.06268E-002,-5.24420E-002,2.31396E+000,7.89841E-003,4.38855E-001,0,3.48408E+001,2.58486E-001,9.99706E-001,-1.51928E+000,-2.89398E+001,9.98536E-001,4.00299E-002,-1.58913E-002,5.52306E-004,4.00353E-002,-1.58967E-002,5.65809E-001,4.03171E-002,1.04083E+000,-6.40530E-003,0.00000E+000,7.28497E-003,9.85081E-001,0.00000E+000,-3.51557E-003,-4.21186E-002,1.00000E+000,6
1249,1327,2.31077E+001,2.55387E-001,-9.23982E-002,2.31035E+000,2.23070E-002,-7.87986E-002,2.31180E+000,6.80481E-003,4.68647E-001,0,3.48992E+001,1.70964E-001,9.99734E-001,-1.10324E+000,-2.88720E+001,9.98975E-001,4.07028E-002,-1.58842E-002,6.45135E-004,4.07102E-002,-1.58915E-002,6.53102E-001,4.10352E-002,1.04153E+000,-6.37808E-003,0.00000E+000,7.39198E-003,9.85086E-001,0.00000E+000,-2.40520E-003,-4.20752E-002,1.00000E+000,6
1249,1337,2.31359E+001,9.06337E-001,-6.40807E-002,2.30570E+000,1.41935E-002,-1.07100E-001,2.30823E+000,4.86465E-003,4.33279E-001,0,3.49356E+001,1.00296E-001,9.99888E-001,-5.62441E-001,-2.88500E+001,9.99432E-001,4.13759E-002,-1.58753E-002,7.41841E-004,4.13855E-002,-1.58850E-002,7.42252E-001,4.17562E-002,1.04223E+000,-6.34305E-003,0.00000E+000,7.49928E-003,9.85091E-001,0.00000E+000,-1.29179E-003,-4.20195E-002,1.00000E+000,6
1259,1327,2.38002E+001,2.64141E-001,-1.02270E-001,2.33640E+000,2.64345E-002,-8.51942E-002,2.33810E+000,6.40745E-003,4.41318E-001,0,3.52881E+001,2.36968E-001,9.99860E-001,-3.11911E-001,-2.86402E+001,9.99118E-001,4.06597E-002,-1.57941E-002,9.90672E-004,4.06771E-002,-1.58115E-002,1.00503E+000,4.10116E-002,1.04148E+000,-5.68870E-003,0.00000E+000,7.38832E-003,9.85139E-001,0.00000E+000,-1.60697E-003,-4.12138E-002,1.00000E+000,6
1259,1337,2.38301E+001,9.14773E-001,-7.13191E-002,2.33278E+000,1.72222E-002,-1.12500E-001,2.33555E+000,5.75341E-003,4.07326E-001,0,3.53368E+001,1.50957E-001,9.99937E-001,2.56846E-001,-2.86265E+001,9.99429E-001,4.13317E-002,-1.57809E-002,1.12483E-003,4.13538E-002,-1.58031E-002,1.12786E+000,4.17350E-002,1.04218E+000,-5.65299E-003,0.00000E+000,7.56194E-003,9.85148E-001,0.00000E+000,-2.88431E-004,-4.11465E-002,1.00000E+000,6
599,1347,-2.09563E+001,9.19011E-001,-6.54125E-003,6.20715E-001,-2.11770E-001,1.07873E-002,6.55934E-001,5.40985E-003,6.51881E-001,0,9.74238E+000,-3.43459E+000,9.99836E-001,-3.05760E+001,-4.48257E+001,9.99643E-001,3.30063E-002,-1.45363E-002,-5.33325E-004,3.30123E-002,-1.45423E-002,-6.42628E-001,3.30901E-002,1.03348E+000,1.25366E-002,0.00000E+000,-1.29846E-002,9.86209E-001,0.00000E+000,-3.35267E-004,-3.83804E-002,1.00000E+000,6
599,1357,-2.09326E+001,1.55238E+000,4.13004E-003,6.29021E-001,-2.20073E-001,-9.57562E-003,6.66477E-001,3.90711E-003,6.40472E-001,0,9.92528E+000,-3.52213E+000,9.99863E-001,-3.00212E+001,-4.51384E+001,9.99653E-001,3.21585E-002,-1.45331E-002,-3.91656E-004,3.21618E-002,-1.45364E-002,-4.80561E-001,3.22112E-002,1.03261E+000,1.25160E-002,0.00000E+000,-1.26692E-002,9.86216E-001,0.00000E+000,-1.03979E-003,-3.83969E-002,1.00000E+000,6
1259,1287,2.37633E+001,-2.28334E+000,8.79580E-002,2.35067E+000,7.41825E-002,2.77986E-002,2.35200E+000,8.99151E-003,4.15574E-001,0,3.50452E+001,7.82542E-001,9.99773E-001,-8.25710E-001,-2.86243E+001,9.96246E-001,3.79823E-002,-1.58177E-002,5.01321E-004,3.79870E-002,-1.58224E-002,5.33833E-001,3.81630E-002,1.03872E+000,-5.74316E-003,0.00000E+000,6.70223E-003,9.85126E-001,0.00000E+000,-6.81745E-003,-4.13165E-002,1.00000E+000,6
1259,1297,2.37607E+001,-1.65394E+000,-3.62703E-003,2.34666E+000,5.97113E-002,-1.77625E-003,2.34742E+000,6.54380E-003,4.61032E-001,0,3.51092E+001,6.09773E-001,9.99770E-001,-9.47959E-001,-2.86300E+001,9.98091E-001,3.86516E-002,-1.58158E-002,6.17298E-004,3.86586E-002,-1.58228E-002,6.49240E-001,3.88701E-002,1.03941E+000,-5.74168E-003,0.00000E+000,6.87290E-003,9.85126E-001,0.00000E+000,-5.52129E-003,-4.13137E-002,1.00000E+000,6
1259,1307,2.37658E+001,-1.01898E+000,-6.60019E-002,2.34346E+000,4.79503E-002,-2.79345E-002,2.34412E+000,6.60365E-003,4.79102E-001,0,3.51684E+001,4.72340E-001,9.99808E-001,-9.06281E-001,-2.86247E+001,9.98548E-001,3.93207E-002,-1.58115E-002,7.37112E-004,3.93305E-002,-1.58214E-002,7.65856E-001,3.95802E-002,1.04010E+000,-5.73287E-003,0.00000E+000,7.04405E-003,9.85128E-001,0.00000E+000,-4.22152E-003,-4.12971E-002,1.00000E+000,6
599,1327,-2.09912E+001,-3.34415E-001,6.17102E-002,6.02954E-001,-1.93993E-001,6.06621E-002,6.36292E-001,5.25655E-003,6.18498E-001,0,9.33244E+000,-3.23654E+000,9.99814E-001,-3.12281E+001,-4.42252E+001,9.99229E-001,3.46883E-002,-1.45366E-002,-8.23575E-004,3.47020E-002,-1.45504E-002,-9.58252E-001,3.48524E-002,1.03522E+000,1.25598E-002,0.00000E+000,-1.36119E-002,9.86201E-001,0.00000E+000,1.06570E-003,-3.83617E-002,1.00000E+000,6
599,1337,-2.09774E+001,2.87930E-001,8.91733E-003,6.11055E-001,-2.04279E-001,3.40226E-002,6.45194E-001,4.41460E-003,6.24885E-001,0,9.53042E+000,-3.35513E+000,9.99788E-001,-3.10139E+001,-4.45568E+001,9.99538E-001,3.38505E-002,-1.45377E-002,-6.77087E-004,3.38600E-002,-1.45472E-002,-8.01519E-001,3.39716E-002,1.03435E+000,1.25520E-002,0.00000E+000,-1.32992E-002,9.86203E-001,0.00000E+000,3.67370E-004,-3.83680E-002,1.00000E+000,6
1259,1317,2.37785E+001,-3.80152E-001,-9.97449E-002,2.34034E+000,3.66625E-002,-5.37922E-002,2.34124E+000,6.68495E-003,4.71250E-001,0,3.52250E+001,3.43269E-001,9.99871E-001,-7.02607E-001,-2.86345E+001,9.98793E-001,3.99898E-002,-1.58046E-002,8.61161E-004,4.00031E-002,-1.58178E-002,8.84054E-001,4.02938E-002,1.04079E+000,-5.71601E-003,0.00000E+000,7.21580E-003,9.85133E-001,0.00000E+000,-2.91718E-003,-4.12653E-002,1.00000E+000,6
599,1317,-2.10026E+001,-9.53526E-001,1.35831E-001,5.92996E-001,-1.83117E-001,8.23867E-002,6.26070E-001,7.03666E-003,6.29680E-001,0,9.11739E+000,-3.12498E+000,9.99802E-001,-3.13399E+001,-4.38810E+001,9.99208E-001,3.55233E-002,-1.45335E-002,-9.72589E-004,3.55422E-002,-1.45524E-002,-1.11268E+000,3.57359E-002,1.03609E+000,1.25618E-002,0.00000E+000,-1.39240E-002,9.86200E-001,0.00000E+000,1.76283E-003,-3.83601E-002,1.00000E+000,6
589,1347,-2.16164E+001,9.22380E-001,-6.18663E-003,5.98971E-001,-2.02781E-001,1.08704E-002,6.32459E-001,4.11778E-003,6.43849E-001,0,9.40509E+000,-3.28524E+000,9.99861E-001,-3.06280E+001,-4.48773E+001,9.99641E-001,3.28621E-002,-1.45067E-002,-3.22565E-004,3.28643E-002,-1.45089E-002,-3.90140E-001,3.29393E-002,1.03332E+000,1.35212E-002,0.00000E+000,-1.35113E-002,9.86207E-001,0.00000E+000,-3.02868E-004,-3.77324E-002,1.00000E+000,6
589,1357,-2.15920E+001,1.55694E+000,7.69554E-003,6.07635E-001,-2.10895E-001,-9.60029E-003,6.43264E-001,3.44789E-003,6.46339E-001,0,9.59349E+000,-3.36535E+000,9.99842E-001,-3.00501E+001,-4.51736E+001,9.99722E-001,3.20197E-002,-1.45035E-002,-1.77924E-004,3.20204E-002,-1.45042E-002,-2.19118E-001,3.20676E-002,1.03245E+000,1.35003E-002,0.00000E+000,-1.31904E-002,9.86214E-001,0.00000E+000,-1.01790E-003,-3.77496E-002,1.00000E+000,6
589,1337,-2.16359E+001,2.92533E-001,1.56906E-002,5.89896E-001,-1.94770E-001,3.47926E-002,6.22193E-001,4.03145E-003,6.33473E-001,0,9.20056E+000,-3.21299E+000,9.99864E-001,-3.10224E+001,-4.45931E+001,9.99624E-001,3.36994E-002,-1.45075E-002,-4.69934E-004,3.37039E-002,-1.45121E-002,-5.58465E-001,3.38121E-002,1.03419E+000,1.35351E-002,0.00000E+000,-1.38307E-002,9.86202E-001,0.00000E+000,4.08973E-004,-3.77210E-002,1.00000E+000,6
589,1327,-2.16489E+001,-3.25837E-001,7.03762E-002,5.82733E-001,-1.81318E-001,6.46635E-002,6.13706E-001,8.00148E-003,7.05927E-001,0,9.00846E+000,-3.07975E+000,9.99863E-001,-3.12185E+001,-4.41631E+001,9.99118E-001,3.45295E-002,-1.45062E-002,-6.19091E-004,3.45373E-002,-1.45140E-002,-7.23223E-001,3.46835E-002,1.03504E+000,1.35430E-002,0.00000E+000,-1.41480E-002,9.86199E-001,0.00000E+000,1.11589E-003,-3.77145E-002,1.00000E+000,6
1269,1327,2.44956E+001,2.75248E-001,-1.02897E-001,2.36439E+000,3.08084E-002,-8.38842E-002,2.36608E+000,5.84799E-003,4.38344E-001,0,3.56743E+001,3.05978E-001,9.99911E-001,5.41939E-001,-2.83799E+001,9.98999E-001,4.05503E-002,-1.56363E-002,1.27964E-003,4.05794E-002,-1.56655E-002,1.30400E+000,4.09292E-002,1.04137E+000,-4.99853E-003,0.00000E+000,7.28646E-003,9.85238E-001,0.00000E+000,-1.12253E-003,-3.97618E-002,1.00000E+000,6
1269,1337,2.45280E+001,9.24744E-001,-6.90062E-002,2.36214E+000,2.04048E-002,-1.11564E-001,2.36487E+000,5.53348E-003,4.08905E-001,0,3.57457E+001,1.89602E-001,9.99901E-001,1.15088E+000,-2.83864E+001,9.98880E-001,4.12151E-002,-1.56208E-002,1.43180E-003,4.12511E-002,-1.56568E-002,1.44217E+000,4.16482E-002,1.04207E+000,-4.96203E-003,0.00000E+000,7.49662E-003,9.85249E-001,0.00000E+000,2.11332E-004,-3.96915E-002,1.00000E+000,6
589,1317,-2.16612E+001,-9.47315E-001,1.44992E-001,5.71570E-001,-1.72804E-001,8.51519E-002,6.03162E-001,5.83413E-003,6.24763E-001,0,8.77890E+000,-2.96224E+000,9.99708E-001,-3.13422E+001,-4.39005E+001,9.98760E-001,3.53583E-002,-1.45027E-002,-7.71272E-004,3.53702E-002,-1.45146E-002,-8.85995E-001,3.55592E-002,1.03590E+000,1.35446E-002,0.00000E+000,-1.44652E-002,9.86198E-001,0.00000E+000,1.82275E-003,-3.77132E-002,1.00000E+000,6
1269,1317,2.44755E+001,-3.68559E-001,-9.68356E-002,2.36786E+000,4.16156E-002,-5.72357E-002,2.36892E+000,6.06703E-003,4.35151E-001,0,3.56219E+001,4.32155E-001,9.99892E-001,1.82674E-001,-2.83921E+001,9.98846E-001,3.98869E-002,-1.56475E-002,1.13367E-003,3.99100E-002,-1.56706E-002,1.16897E+000,4.02155E-002,1.04068E+000,-5.02343E-003,0.00000E+000,7.07746E-003,9.85231E-001,0.00000E+000,-2.44901E-003,-3.98097E-002,1.00000E+000,6
1269,1307,2.44621E+001,-1.00762E+000,-6.32563E-002,2.37050E+000,5.24545E-002,-3.15185E-002,2.37129E+000,5.82861E-003,4.58878E-001,0,3.55583E+001,5.54355E-001,9.99828E-001,-2.96529E-002,-2.83791E+001,9.98793E-001,3.92248E-002,-1.56554E-002,9.92228E-004,3.92428E-002,-1.56734E-002,1.03545E+000,3.95067E-002,1.04000E+000,-5.04024E-003,0.00000E+000,6.86961E-003,9.85226E-001,0.00000E+000,-3.76826E-003,-3.98421E-002,1.00000E+000,6
1269,1297,2.44544E+001,-1.64485E+000,-8.81489E-003,2.37363E+000,6.31920E-002,-3.98494E-003,2.37447E+000,7.06519E-003,4.44851E-001,0,3.54932E+001,6.76045E-001,9.99783E-001,-1.23990E-001,-2.84025E+001,9.98334E-001,3.85617E-002,-1.56613E-002,8.53561E-004,3.85751E-002,-1.56748E-002,9.01633E-001,3.88001E-002,1.03932E+000,-5.05167E-003,0.00000E+000,6.66213E-003,9.85222E-001,0.00000E+000,-5.08515E-003,-3.98641E-002,1.00000E+000,6
1269,1287,2.44593E+001,-2.27375E+000,8.94522E-002,2.37768E+000,7.69265E-002,2.39526E-002,2.37904E+000,1.17522E-002,4.17689E-001,0,3.54352E+001,8.37124E-001,9.99847E-001,4.26160E-002,-2.83954E+001,9.96471E-001,3.79000E-002,-1.56625E-002,7.21548E-004,3.79097E-002,-1.56722E-002,7.71652E-001,3.80988E-002,1.03864E+000,-5.05081E-003,0.00000E+000,6.45579E-003,9.85222E-001,0.00000E+000,-6.39474E-003,-3.98624E-002,1.00000E+000,6
579,1347,-2.22753E+001,9.25945E-001,-4.42607E-003,5.77445E-001,-1.94464E-001,8.12582E-003,6.09365E-001,3.56323E-003,6.46163E-001,0,9.07821E+000,-3.14157E+000,9.99842E-001,-3.06516E+001,-4.49239E+001,9.99725E-001,3.25522E-002,-1.44961E-002,-1.06069E-004,3.25524E-002,-1.44964E-002,-1.29170E-001,3.26172E-002,1.03299E+000,1.44858E-002,0.00000E+000,-1.40037E-002,9.86192E-001,0.00000E+000,-4.34745E-004,-3.72499E-002,1.00000E+000,6
579,1357,-2.22487E+001,1.56151E+000,1.14639E-002,5.88117E-001,-2.01904E-001,-1.22042E-002,6.21929E-001,4.08452E-003,6.62890E-001,0,9.29717E+000,-3.21489E+000,9.99869E-001,-3.00329E+001,-4.52036E+001,9.99792E-001,3.16749E-002,-1.44930E-002,3.99143E-005,3.16750E-002,-1.44931E-002,4.95347E-002,3.17130E-002,1.03208E+000,1.44638E-002,0.00000E+000,-1.36759E-002,9.86200E-001,0.00000E+000,-1.28251E-003,-3.72705E-002,1.00000E+000,6
579,1337,-2.22955E+001,2.96668E-001,2.04812E-002,5.67434E-001,-1.86121E-001,3.50473E-002,5.98206E-001,3.36463E-003,6.18597E-001,0,8.85161E+000,-3.06153E+000,9.99827E-001,-3.10500E+001,-4.46443E+001,9.99722E-001,3.34234E-002,-1.44966E-002,-2.54991E-004,3.34247E-002,-1.44980E-002,-3.04870E-001,3.35224E-002,1.03389E+000,1.45000E-002,0.00000E+000,-1.43298E-002,9.86187E-001,0.00000E+000,4.08706E-004,-3.72365E-002,1.00000E+000,6
579,1327,-2.23121E+001,-3.22739E-001,6.38762E-002,5.57310E-001,-1.73916E-001,5.73357E-002,5.86625E-001,5.67332E-003,6.90622E-001,0,8.63365E+000,-2.92185E+000,9.99863E-001,-3.13337E+001,-4.42048E+001,9.99013E-001,3.42867E-002,-1.44953E-002,-4.05333E-004,3.42901E-002,-1.44987E-002,-4.76031E-001,3.44260E-002,1.03478E+000,1.45090E-002,0.00000E+000,-1.46535E-002,9.86184E-001,0.00000E+000,1.24611E-003,-3.72281E-002,1.00000E+000,6
579,1317,-2.23222E+001,-9.39357E-001,1.43124E-001,5.48429E-001,-1.62071E-001,8.40754E-002,5.78022E-001,7.27369E-003,6.90995E-001,0,8.42319E+000,-2.78373E+000,9.99740E-001,-3.14110E+001,-4.38347E+001,9.98566E-001,3.51468E-002,-1.44917E-002,-5.58752E-004,3.51531E-002,-1.44979E-002,-6.44837E-001,3.53324E-002,1.03567E+000,1.45109E-002,0.00000E+000,-1.49767E-002,9.86183E-001,0.00000E+000,2.08192E-003,-3.72264E-002,1.00000E+000,6
1279,1317,2.51678E+001,-3.61149E-001,-1.02392E-001,2.39365E+000,4.47459E-002,-5.66630E-002,2.39474E+000,5.40109E-003,4.04924E-001,0,3.59777E+001,4.72751E-001,9.99840E-001,9.86451E-001,-2.81941E+001,9.98501E-001,3.96684E-002,-1.54486E-002,1.33668E-003,3.97008E-002,-1.54810E-002,1.38843E+000,4.00201E-002,1.04046E+000,-4.37710E-003,0.00000E+000,6.85484E-003,9.85377E-001,0.00000E+000,-2.16232E-003,-3.84716E-002,1.00000E+000,6
1279,1327,2.51928E+001,2.86648E-001,-9.88584E-002,2.39330E+000,3.54450E-002,-7.91541E-002,2.39487E+000,7.64694E-003,4.37219E-001,0,3.60593E+001,3.67906E-001,9.99864E-001,1.43298E+000,-2.81244E+001,9.98953E-001,4.03593E-002,-1.54347E-002,1.51042E-003,4.04001E-002,-1.54755E-002,1.54956E+000,4.07668E-002,1.04118E+000,-4.34945E-003,0.00000E+000,7.11267E-003,9.85387E-001,0.00000E+000,-6.93717E-004,-3.84150E-002,1.00000E+000,6
1279,1337,2.52260E+001,9.38259E-001,-6.31586E-002,2.39177E+000,2.56018E-002,-1.04537E-001,2.39419E+000,5.23842E-003,4.40763E-001,0,3.61323E+001,2.59433E-001,9.99891E-001,2.05521E+000,-2.80842E+001,9.99383E-001,4.10505E-002,-1.54161E-002,1.68968E-003,4.11010E-002,-1.54666E-002,1.71245E+000,4.15181E-002,1.04190E+000,-4.31145E-003,0.00000E+000,7.37165E-003,9.85401E-001,0.00000E+000,7.81429E-004,-3.83373E-002,1.00000E+000,6
1279,1307,2.51523E+001,-9.99075E-001,-7.30772E-002,2.39541E+000,5.67397E-002,-3.06965E-002,2.39627E+000,6.28428E-003,4.65986E-001,0,3.58993E+001,6.07228E-001,9.99839E-001,7.34545E-001,-2.81375E+001,9.98173E-001,3.89811E-002,-1.54587E-002,1.16851E-003,3.90062E-002,-1.54838E-002,1.22906E+000,3.92813E-002,1.03975E+000,-4.39597E-003,0.00000E+000,6.59936E-003,9.85370E-001,0.00000E+000,-3.61754E-003,-3.85102E-002,1.00000E+000,6
1279,1297,2.51480E+001,-1.63556E+000,-8.46118E-003,2.39852E+000,6.77194E-002,-5.85387E-003,2.39948E+000,1.04421E-002,3.88582E-001,0,3.58431E+001,7.53186E-001,9.99849E-001,7.07982E-001,-2.82040E+001,9.98584E-001,3.82921E-002,-1.54640E-002,1.00567E-003,3.83109E-002,-1.54828E-002,1.07139E+000,3.85449E-002,1.03904E+000,-4.40416E-003,0.00000E+000,6.34426E-003,9.85367E-001,0.00000E+000,-5.07060E-003,-3.85269E-002,1.00000E+000,6
1279,1287,2.51484E+001,-2.27076E+000,7.06855E-002,2.40208E+000,7.69186E-002,1.75369E-002,2.40338E+000,9.93135E-003,3.61709E-001,0,3.57990E+001,8.62206E-001,9.99849E-001,7.77020E-001,-2.82560E+001,9.97969E-001,3.76031E-002,-1.54671E-002,8.45684E-004,3.76166E-002,-1.54806E-002,9.12710E-001,3.78123E-002,1.03833E+000,-4.40760E-003,0.00000E+000,6.09011E-003,9.85366E-001,0.00000E+000,-6.51825E-003,-3.85340E-002,1.00000E+000,6
569,1347,-2.29329E+001,9.32890E-001,-1.21600E-003,5.57011E-001,-1.82862E-001,8.50659E-003,5.86321E-001,3.77297E-003,6.70107E-001,0,8.75915E+000,-2.95946E+000,9.99829E-001,-3.06475E+001,-4.49109E+001,9.99621E-001,3.23973E-002,-1.44479E-002,8.17890E-005,3.23974E-002,-1.44480E-002,1.00035E-001,3.24604E-002,1.03281E+000,1.54883E-002,0.00000E+000,-1.45946E-002,9.86205E-001,0.00000E+000,-3.83148E-004,-3.65396E-002,1.00000E+000,6
569,1357,-2.29077E+001,1.56520E+000,7.35810E-003,5.67817E-001,-1.91215E-001,-1.14770E-002,5.99258E-001,3.79975E-003,6.52537E-001,0,8.97945E+000,-3.04614E+000,9.99865E-001,-3.00698E+001,-4.52437E+001,9.99646E-001,3.15257E-002,-1.44455E-002,2.39473E-004,3.15270E-002,-1.44468E-002,2.98454E-001,3.15636E-002,1.03191E+000,1.54684E-002,0.00000E+000,-1.42443E-002,9.86213E-001,0.00000E+000,-1.30790E-003,-3.65601E-002,1.00000E+000,6
569,1327,-2.29712E+001,-3.19418E-001,6.05875E-002,5.36277E-001,-1.65229E-001,5.74228E-002,5.64085E-001,7.51649E-003,6.75318E-001,0,8.30770E+000,-2.76823E+000,9.99912E-001,-3.13730E+001,-4.42495E+001,9.99522E-001,3.41257E-002,-1.44469E-002,-2.39255E-004,3.41269E-002,-1.44481E-002,-2.82214E-001,3.42603E-002,1.03460E+000,1.55125E-002,0.00000E+000,-1.52914E-002,9.86196E-001,0.00000E+000,1.45630E-003,-3.65147E-002,1.00000E+000,6
569,1337,-2.29530E+001,3.04006E-001,2.21720E-002,5.46416E-001,-1.75119E-001,3.01600E-002,5.74584E-001,3.09709E-003,6.51796E-001,0,8.53739E+000,-2.87772E+000,9.99880E-001,-3.10491E+001,-4.46155E+001,9.99747E-001,3.32642E-002,-1.44478E-002,-7.85822E-005,3.32643E-002,-1.44479E-002,-9.43666E-002,3.33598E-002,1.03371E+000,1.55015E-002,0.00000E+000,-1.49437E-002,9.86200E-001,0.00000E+000,5.38542E-004,-3.65261E-002,1.00000E+000,6
1289,1327,2.58831E+001,2.94230E-001,-1.09377E-001,2.41788E+000,3.85340E-002,-7.81576E-002,2.41945E+000,6.52849E-003,4.41563E-001,0,3.63955E+001,4.01253E-001,9.99811E-001,2.20005E+000,-2.78944E+001,9.98780E-001,4.01143E-002,-1.51397E-002,1.71167E-003,4.01673E-002,-1.51927E-002,1.77266E+000,4.05624E-002,1.04093E+000,-3.66587E-003,0.00000E+000,6.85362E-003,9.85623E-001,0.00000E+000,-3.74443E-004,-3.68694E-002,1.00000E+000,6
1289,1337,2.59168E+001,9.46431E-001,-7.62248E-002,2.41668E+000,2.88380E-002,-1.05407E-001,2.41915E+000,6.29982E-003,4.37533E-001,0,3.64816E+001,3.07371E-001,9.99889E-001,2.82222E+000,-2.78414E+001,9.99006E-001,4.08389E-002,-1.51195E-002,1.90716E-003,4.09038E-002,-1.51844E-002,1.94973E+000,4.13536E-002,1.04168E+000,-3.62604E-003,0.00000E+000,7.14201E-003,9.85638E-001,0.00000E+000,1.19788E-003,-3.67866E-002,1.00000E+000,6
569,1317,-2.29821E+001,-9.33548E-001,1.45382E-001,5.25052E-001,-1.51232E-001,8.04588E-002,5.52290E-001,7.73081E-003,6.62752E-001,0,8.06967E+000,-2.59991E+000,9.99803E-001,-3.14451E+001,-4.38579E+001,9.98932E-001,3.49828E-002,-1.44420E-002,-4.04772E-004,3.49861E-002,-1.44453E-002,-4.69191E-001,3.51627E-002,1.03549E+000,1.55123E-002,0.00000E+000,-1.56379E-002,9.86196E-001,0.00000E+000,2.37119E-003,-3.65149E-002,1.00000E+000,6
1289,1317,2.58615E+001,-3.49748E-001,-1.02453E-001,2.41917E+000,4.80599E-002,-5.41123E-002,2.42025E+000,8.74020E-003,4.98977E-001,0,3.63202E+001,5.00946E-001,9.99858E-001,1.82079E+000,-2.78841E+001,9.98012E-001,3.93938E-002,-1.51536E-002,1.52427E-003,3.94364E-002,-1.51962E-002,1.59941E+000,3.97806E-002,1.04018E+000,-3.69216E-003,0.00000E+000,6.56811E-003,9.85613E-001,0.00000E+000,-1.93108E-003,-3.69241E-002,1.00000E+000,6
1289,1287,2.58389E+001,-2.25924E+000,5.84707E-002,2.42564E+000,8.28022E-002,1.13944E-002,2.42708E+000,9.21433E-003,4.25552E-001,0,3.61454E+001,9.44735E-001,9.99863E-001,1.54606E+000,-2.79382E+001,9.98328E-001,3.72256E-002,-1.51740E-002,9.86170E-004,3.72441E-002,-1.51926E-002,1.07781E+000,3.74541E-002,1.03794E+000,-3.72552E-003,0.00000E+000,5.71600E-003,9.85600E-001,0.00000E+000,-6.57686E-003,-3.69934E-002,1.00000E+000,6
1289,1297,2.58440E+001,-1.62661E+000,-2.87412E-003,2.42411E+000,7.12597E-002,-7.20694E-003,2.42517E+000,1.03422E-002,3.48143E-001,0,3.62009E+001,8.05715E-001,9.99890E-001,1.58946E+000,-2.80139E+001,9.98503E-001,3.79475E-002,-1.51689E-002,1.16299E-003,3.79729E-002,-1.51943E-002,1.25369E+000,3.82246E-002,1.03868E+000,-3.71788E-003,0.00000E+000,5.99853E-003,9.85603E-001,0.00000E+000,-5.03648E-003,-3.69775E-002,1.00000E+000,6
1289,1307,2.58478E+001,-9.89716E-001,-7.37306E-002,2.42159E+000,5.91311E-002,-3.38175E-002,2.42254E+000,8.73190E-003,4.84035E-001,0,3.62744E+001,6.46531E-001,9.99923E-001,1.59871E+000,-2.78970E+001,9.98094E-001,3.86719E-002,-1.51638E-002,1.34093E-003,3.87053E-002,-1.51972E-002,1.42594E+000,3.90016E-002,1.03943E+000,-3.71054E-003,0.00000E+000,6.28321E-003,9.85606E-001,0.00000E+000,-3.48439E-003,-3.69623E-002,1.00000E+000,6
559,1327,-2.36249E+001,-3.10687E-001,5.26898E-002,5.19203E-001,-1.52754E-001,4.72874E-002,5.43269E-001,1.40700E-002,8.04559E-001,0,8.06803E+000,-2.59399E+000,9.99912E-001,-3.13415E+001,-4.41287E+001,9.99433E-001,3.39587E-002,-1.44376E-002,-8.60334E-005,3.39589E-002,-1.44377E-002,-1.01853E-001,3.40854E-002,1.03441E+000,1.65119E-002,0.00000E+000,-1.59500E-002,9.86164E-001,0.00000E+000,1.66646E-003,-3.56511E-002,1.00000E+000,6
559,1337,-2.36104E+001,3.10939E-001,2.10113E-002,5.26151E-001,-1.63289E-001,2.82586E-002,5.51631E-001,4.00702E-003,6.72121E-001,0,8.22675E+000,-2.68730E+000,9.99890E-001,-3.10500E+001,-4.45934E+001,9.99729E-001,3.31098E-002,-1.44388E-002,6.41917E-005,3.31099E-002,-1.44389E-002,7.73504E-002,3.31999E-002,1.03353E+000,1.65015E-002,0.00000E+000,-1.56228E-002,9.86168E-001,0.00000E+000,6.86400E-004,-3.56627E-002,1.00000E+000,6
559,1347,-2.35914E+001,9.37537E-001,-1.25849E-003,5.35626E-001,-1.71560E-001,7.10929E-003,5.62475E-001,4.59540E-003,6.49217E-001,0,8.42942E+000,-2.78293E+000,9.99833E-001,-3.06623E+001,-4.49488E+001,9.99590E-001,3.22565E-002,-1.44392E-002,2.13707E-004,3.22575E-002,-1.44402E-002,2.62212E-001,3.23163E-002,1.03265E+000,1.64886E-002,0.00000E+000,-1.52946E-002,9.86173E-001,0.00000E+000,-2.96700E-004,-3.56770E-002,1.00000E+000,6
559,1357,-2.35659E+001,1.56888E+000,4.00022E-003,5.47448E-001,-1.79798E-001,-1.24473E-002,5.76352E-001,3.50474E-003,6.27494E-001,0,8.66435E+000,-2.87166E+000,9.99867E-001,-3.00895E+001,-4.52928E+001,9.99763E-001,3.13972E-002,-1.44376E-002,3.61256E-004,3.14001E-002,-1.44405E-002,4.51550E-001,3.14337E-002,1.03177E+000,1.64701E-002,0.00000E+000,-1.49648E-002,9.86180E-001,0.00000E+000,-1.28452E-003,-3.56977E-002,1.00000E+000,6
559,1317,-2.36380E+001,-9.26127E-001,1.47502E-001,5.05455E-001,-1.40682E-001,7.76107E-002,5.30376E-001,1.38869E-002,7.18971E-001,0,7.77300E+000,-2.43428E+000,9.99874E-001,-3.14138E+001,-4.38135E+001,9.99183E-001,3.48039E-002,-1.44325E-002,-2.41271E-004,3.48051E-002,-1.44337E-002,-2.80754E-001,3.49735E-002,1.03529E+000,1.65111E-002,0.00000E+000,-1.62765E-002,9.86164E-001,0.00000E+000,2.64447E-003,-3.56520E-002,1.00000E+000,6
1299,1327,2.65802E+001,3.05145E-001,-1.09785E-001,2.44457E+000,4.20197E-002,-8.20180E-002,2.44631E+000,7.68801E-003,4.58680E-001,0,3.67810E+001,4.55891E-001,9.99810E-001,3.08965E+000,-2.76278E+001,9.99297E-001,3.98826E-002,-1.48097E-002,1.87954E-003,3.99471E-002,-1.48742E-002,1.96592E+000,4.03787E-002,1.04069E+000,-2.92831E-003,0.00000E+000,6.48054E-003,9.85891E-001,0.00000E+000,-1.20101E-004,-3.51703E-002,1.00000E+000,6
1299,1337,2.66169E+001,9.58763E-001,-6.80716E-002,2.44493E+000,3.20813E-002,-1.05255E-001,2.44740E+000,7.71888E-003,4.84453E-001,0,3.68738E+001,3.45750E-001,9.99840E-001,3.76855E+000,-2.75553E+001,9.98858E-001,4.06343E-002,-1.47878E-002,2.08588E-003,4.07127E-002,-1.48662E-002,2.15234E+000,4.12033E-002,1.04147E+000,-2.88529E-003,0.00000E+000,6.78755E-003,9.85908E-001,0.00000E+000,1.53717E-003,-3.50795E-002,1.00000E+000,6
1299,1287,2.65364E+001,-2.24726E+000,6.56007E-002,2.45136E+000,8.59629E-002,8.82420E-003,2.45288E+000,7.90546E-003,5.07256E-001,0,3.65089E+001,9.83871E-001,9.99866E-001,2.45489E+000,-2.76446E+001,9.98161E-001,3.68916E-002,-1.48442E-002,1.11878E-003,3.69157E-002,-1.48683E-002,1.23824E+000,3.71477E-002,1.03760E+000,-2.98845E-003,0.00000E+000,5.27249E-003,9.85867E-001,0.00000E+000,-6.64124E-003,-3.52973E-002,1.00000E+000,6
1299,1297,2.65404E+001,-1.61723E+000,-4.97174E-003,2.45014E+000,7.20627E-002,-1.36269E-002,2.45123E+000,8.36065E-003,4.53706E-001,0,3.65865E+001,8.08748E-001,9.99920E-001,2.46766E+000,-2.77279E+001,9.98419E-001,3.76397E-002,-1.48398E-002,1.30370E-003,3.76720E-002,-1.48721E-002,1.42218E+000,3.79491E-002,1.03837E+000,-2.98221E-003,0.00000E+000,5.57264E-003,9.85870E-001,0.00000E+000,-5.02098E-003,-3.52842E-002,1.00000E+000,6
1299,1307,2.65520E+001,-9.75559E-001,-4.78903E-002,2.45122E+000,6.41720E-002,-2.76865E-002,2.45222E+000,1.48353E-002,5.32867E-001,0,3.66598E+001,6.85847E-001,9.99910E-001,2.63855E+000,-2.76232E+001,9.98645E-001,3.83900E-002,-1.48323E-002,1.49300E-003,3.84319E-002,-1.48742E-002,1.60559E+000,3.87575E-002,1.03914E+000,-2.96962E-003,0.00000E+000,5.87503E-003,9.85875E-001,0.00000E+000,-3.38867E-003,-3.52576E-002,1.00000E+000,6
1299,1317,2.65632E+001,-3.36592E-001,-8.75502E-002,2.44689E+000,5.22048E-002,-5.63777E-002,2.44810E+000,1.10983E-002,5.09467E-001,0,3.67127E+001,5.63337E-001,9.99823E-001,2.80573E+000,-2.76204E+001,9.98799E-001,3.91377E-002,-1.48221E-002,1.68516E-003,3.91903E-002,-1.48747E-002,1.78702E+000,3.95676E-002,1.03991E+000,-2.95128E-003,0.00000E+000,6.17770E-003,9.85882E-001,0.00000E+000,-1.75484E-003,-3.52188E-002,1.00000E+000,6
559,1307,-2.36493E+001,-1.54058E+000,2.46084E-001,4.91650E-001,-1.28775E-001,1.00655E-001,5.18107E-001,6.29253E-003,6.85279E-001,0,7.49518E+000,-2.29350E+000,9.99677E-001,-3.14484E+001,-4.34640E+001,9.98938E-001,3.56468E-002,-1.44267E-002,-3.97490E-004,3.56500E-002,-1.44298E-002,-4.54783E-001,3.58649E-002,1.03616E+000,1.65080E-002,0.00000E+000,-1.66028E-002,9.86166E-001,0.00000E+000,3.62179E-003,-3.56555E-002,1.00000E+000,6
549,1347,-2.42476E+001,9.45287E-001,4.10502E-004,5.16188E-001,-1.59441E-001,7.57575E-003,5.40305E-001,3.68248E-003,6.78659E-001,0,8.12503E+000,-2.58777E+000,9.99831E-001,-3.06312E+001,-4.49176E+001,9.99670E-001,3.20933E-002,-1.44409E-002,3.61066E-004,3.20961E-002,-1.44437E-002,4.44531E-001,3.21496E-002,1.03247E+000,1.74665E-002,0.00000E+000,-1.59481E-002,9.86130E-001,0.00000E+000,-6.38972E-005,-3.47849E-002,1.00000E+000,6
549,1357,-2.42217E+001,1.57755E+000,1.02864E-002,5.27635E-001,-1.67568E-001,-1.26466E-002,5.53749E-001,3.46470E-003,6.66022E-001,0,8.35535E+000,-2.67425E+000,9.99861E-001,-3.00376E+001,-4.52551E+001,9.99786E-001,3.12412E-002,-1.44392E-002,5.14056E-004,3.12470E-002,-1.44450E-002,6.44658E-001,3.12766E-002,1.03159E+000,1.74472E-002,0.00000E+000,-1.56088E-002,9.86137E-001,0.00000E+000,-1.04200E-003,-3.48064E-002,1.00000E+000,6
549,1327,-2.42865E+001,-3.03484E-001,6.64727E-002,4.92415E-001,-1.41168E-001,4.88526E-002,5.14576E-001,1.08637E-002,7.73179E-001,0,7.64606E+000,-2.40910E+000,9.99742E-001,-3.13570E+001,-4.41593E+001,9.98432E-001,3.37813E-002,-1.44378E-002,4.85087E-005,3.37814E-002,-1.44379E-002,5.76397E-002,3.38999E-002,1.03421E+000,1.74869E-002,0.00000E+000,-1.66224E-002,9.86122E-001,0.00000E+000,1.87976E-003,-3.47622E-002,1.00000E+000,6
549,1337,-2.42674E+001,3.17761E-001,2.41021E-002,5.05413E-001,-1.50186E-001,2.81125E-002,5.28004E-001,3.68652E-003,6.75035E-001,0,7.90340E+000,-2.49948E+000,9.99866E-001,-3.10295E+001,-4.45909E+001,9.99736E-001,3.29417E-002,-1.44401E-002,2.05067E-004,3.29426E-002,-1.44410E-002,2.47968E-001,3.30260E-002,1.03334E+000,1.74787E-002,0.00000E+000,-1.62866E-002,9.86125E-001,0.00000E+000,9.12001E-004,-3.47713E-002,1.00000E+000,6
1309,1317,2.72543E+001,-3.31562E-001,-1.05741E-001,2.47150E+000,5.34352E-002,-6.27568E-002,2.47288E+000,8.12191E-003,4.71576E-001,0,3.70788E+001,5.98090E-001,9.99824E-001,3.58264E+000,-2.74363E+001,9.98987E-001,3.89873E-002,-1.45223E-002,1.85202E-003,3.90513E-002,-1.45863E-002,1.97990E+000,3.94656E-002,1.03976E+000,-2.15161E-003,0.00000E+000,5.74652E-003,9.86121E-001,0.00000E+000,-1.69318E-003,-3.34559E-002,1.00000E+000,6
1309,1327,2.72770E+001,3.13613E-001,-1.12064E-001,2.47202E+000,4.47150E-002,-8.22232E-002,2.47379E+000,9.23886E-003,4.44530E-001,0,3.71629E+001,4.92423E-001,9.99802E-001,3.97558E+000,-2.74110E+001,9.98868E-001,3.97531E-002,-1.45092E-002,2.03923E-003,3.98296E-002,-1.45858E-002,2.14919E+000,4.03021E-002,1.04056E+000,-2.12463E-003,0.00000E+000,6.03292E-003,9.86131E-001,0.00000E+000,1.08803E-006,-3.33985E-002,1.00000E+000,6
1309,1337,2.73120E+001,9.66497E-001,-7.70135E-002,2.47185E+000,3.47078E-002,-1.07252E-001,2.47442E+000,8.36134E-003,4.63943E-001,0,3.72562E+001,3.85163E-001,9.99894E-001,4.61713E+000,-2.73369E+001,9.99264E-001,4.05233E-002,-1.44893E-002,2.23567E-003,4.06140E-002,-1.45800E-002,2.32335E+000,4.11488E-002,1.04136E+000,-2.08187E-003,0.00000E+000,6.32236E-003,9.86146E-001,0.00000E+000,1.71329E-003,-3.33075E-002,1.00000E+000,6
549,1317,-2.42971E+001,-9.19123E-001,1.53106E-001,4.82221E-001,-1.29933E-001,7.83558E-002,5.05529E-001,8.71508E-003,7.42498E-001,0,7.40974E+000,-2.26583E+000,9.99842E-001,-3.14175E+001,-4.37998E+001,9.99052E-001,3.46176E-002,-1.44329E-002,-1.11337E-004,3.46179E-002,-1.44332E-002,-1.30051E-001,3.47768E-002,1.03508E+000,1.74876E-002,0.00000E+000,-1.69575E-002,9.86122E-001,0.00000E+000,2.84587E-003,-3.47614E-002,1.00000E+000,6
549,1307,-2.43075E+001,-1.53351E+000,2.39979E-001,4.70350E-001,-1.17326E-001,9.53265E-002,4.94046E-001,6.51184E-003,7.04866E-001,0,7.17785E+000,-2.09949E+000,9.99696E-001,-3.14718E+001,-4.34246E+001,9.99044E-001,3.54535E-002,-1.44270E-002,-2.72647E-004,3.54550E-002,-1.44285E-002,-3.13166E-001,3.56590E-002,1.03595E+000,1.74857E-002,0.00000E+000,-1.72932E-002,9.86123E-001,0.00000E+000,3.81344E-003,-3.47635E-002,1.00000E+000,6
1309,1287,2.72354E+001,-2.24038E+000,7.31514E-002,2.47731E+000,8.70254E-002,3.35369E-003,2.47884E+000,7.52314E-003,4.58882E-001,0,3.68879E+001,1.00751E+000,9.99894E-001,3.39218E+000,-2.74963E+001,9.97815E-001,3.66838E-002,-1.45391E-002,1.31766E-003,3.67176E-002,-1.45730E-002,1.47258E+000,3.69770E-002,1.03739E+000,-2.18176E-003,0.00000E+000,4.89281E-003,9.86110E-001,0.00000E+000,-6.74347E-003,-3.35201E-002,1.00000E+000,6
1309,1297,2.72375E+001,-1.60866E+000,-4.67600E-003,2.47587E+000,7.31151E-002,-1.96202E-002,2.47703E+000,9.27225E-003,4.95193E-001,0,3.69655E+001,8.25627E-001,9.99862E-001,3.36428E+000,-2.74918E+001,9.98247E-001,3.74538E-002,-1.45361E-002,1.49276E-003,3.74967E-002,-1.45789E-002,1.64330E+000,3.78045E-002,1.03818E+000,-2.17746E-003,0.00000E+000,5.17691E-003,9.86112E-001,0.00000E+000,-5.06284E-003,-3.35109E-002,1.00000E+000,6
1309,1307,2.72393E+001,-9.73070E-001,-7.37766E-002,2.47285E+000,6.46898E-002,-3.91233E-002,2.47400E+000,8.34366E-003,4.17859E-001,0,3.70023E+001,7.40247E-001,9.99856E-001,3.34579E+000,-2.75027E+001,9.99319E-001,3.82183E-002,-1.45322E-002,1.66814E-003,3.82710E-002,-1.45849E-002,1.80947E+000,3.86300E-002,1.03896E+000,-2.17149E-003,0.00000E+000,5.46020E-003,9.86114E-001,0.00000E+000,-3.38697E-003,-3.34982E-002,1.00000E+000,6
539,1347,-2.49045E+001,9.52612E-001,3.02680E-003,4.95385E-001,-1.46383E-001,7.90163E-003,5.16620E-001,3.75574E-003,6.53119E-001,0,7.79901E+000,-2.37313E+000,9.99847E-001,-3.06055E+001,-4.49227E+001,9.99640E-001,3.20160E-002,-1.44796E-002,4.55656E-004,3.20205E-002,-1.44841E-002,5.61426E-001,3.20689E-002,1.03237E+000,1.83241E-002,0.00000E+000,-1.65914E-002,9.86053E-001,0.00000E+000,2.47330E-004,-3.39470E-002,1.00000E+000,6
539,1357,-2.48794E+001,1.58569E+000,9.64293E-003,5.07222E-001,-1.53007E-001,-9.59589E-003,5.29884E-001,3.56265E-003,6.58601E-001,0,8.02815E+000,-2.44524E+000,9.99877E-001,-3.00310E+001,-4.52335E+001,9.99727E-001,3.12216E-002,-1.44787E-002,6.13472E-004,3.12299E-002,-1.44869E-002,7.68943E-001,3.12570E-002,1.03155E+000,1.83075E-002,0.00000E+000,-1.62461E-002,9.86060E-001,0.00000E+000,-7.17775E-004,-3.39666E-002,1.00000E+000,6
539,1327,-2.49432E+001,-2.98298E-001,6.57525E-002,4.72198E-001,-1.28472E-001,4.85926E-002,4.91769E-001,4.68920E-003,6.60769E-001,0,7.33153E+000,-2.18260E+000,9.99724E-001,-3.13385E+001,-4.42295E+001,9.99161E-001,3.35923E-002,-1.44761E-002,1.34994E-004,3.35927E-002,-1.44765E-002,1.60906E-001,3.36994E-002,1.03400E+000,1.83435E-002,0.00000E+000,-1.72789E-002,9.86045E-001,0.00000E+000,2.16857E-003,-3.39242E-002,1.00000E+000,6
539,1337,-2.49251E+001,3.25659E-001,2.37990E-002,4.83732E-001,-1.36831E-001,2.51517E-002,5.03341E-001,3.82317E-003,6.49617E-001,0,7.57201E+000,-2.27238E+000,9.99828E-001,-3.10244E+001,-4.45791E+001,9.99594E-001,3.28070E-002,-1.44784E-002,2.95614E-004,3.28088E-002,-1.44803E-002,3.58177E-001,3.28840E-002,1.03319E+000,1.83353E-002,0.00000E+000,-1.69360E-002,9.86048E-001,0.00000E+000,1.21037E-003,-3.39339E-002,1.00000E+000,6
1319,1297,2.79258E+001,-1.60483E+000,-2.23663E-002,2.49725E+000,7.48019E-002,-2.59009E-002,2.49851E+000,7.29933E-003,3.88280E-001,0,3.72817E+001,8.82147E-001,9.99861E-001,4.10273E+000,-2.73659E+001,9.98789E-001,3.73105E-002,-1.41464E-002,1.68324E-003,3.73655E-002,-1.42014E-002,1.87158E+000,3.77221E-002,1.03803E+000,-1.29165E-003,0.00000E+000,4.70646E-003,9.86426E-001,0.00000E+000,-5.18425E-003,-3.12153E-002,1.00000E+000,6
1319,1307,2.79329E+001,-9.69402E-001,-8.32903E-002,2.49617E+000,6.34095E-002,-4.88684E-002,2.49745E+000,8.11117E-003,3.60895E-001,0,3.73625E+001,7.47869E-001,9.99830E-001,4.17671E+000,-2.73697E+001,9.99318E-001,3.81132E-002,-1.41408E-002,1.86856E-003,3.81799E-002,-1.42075E-002,2.04537E+000,3.85939E-002,1.03886E+000,-1.28123E-003,0.00000E+000,5.00287E-003,9.86430E-001,0.00000E+000,-3.28979E-003,-3.11914E-002,1.00000E+000,6
539,1307,-2.49645E+001,-1.52782E+000,2.37937E-001,4.49269E-001,-1.05636E-001,9.08530E-002,4.70379E-001,4.66019E-003,6.78169E-001,0,6.86110E+000,-1.91251E+000,9.99776E-001,-3.14623E+001,-4.34378E+001,9.99209E-001,3.51505E-002,-1.44643E-002,-1.93253E-004,3.51512E-002,-1.44650E-002,-2.23166E-001,3.53342E-002,1.03562E+000,1.83418E-002,0.00000E+000,-1.79613E-002,9.86046E-001,0.00000E+000,4.07572E-003,-3.39262E-002,1.00000E+000,6
539,1317,-2.49555E+001,-9.15681E-001,1.43040E-001,4.60628E-001,-1.18295E-001,7.07091E-002,4.80803E-001,4.31509E-003,6.77883E-001,0,7.09265E+000,-2.07352E+000,9.99796E-001,-3.14537E+001,-4.38516E+001,9.99280E-001,3.43731E-002,-1.44709E-002,-2.84267E-005,3.43731E-002,-1.44710E-002,-3.33454E-002,3.45159E-002,1.03481E+000,1.83445E-002,0.00000E+000,-1.76205E-002,9.86044E-001,0.00000E+000,3.12326E-003,-3.39230E-002,1.00000E+000,6
1319,1287,2.79282E+001,-2.23735E+000,6.08519E-002,2.50073E+000,8.52508E-002,-6.17137E-003,2.50219E+000,8.47930E-003,4.64385E-001,0,3.72481E+001,9.88051E-001,9.99866E-001,4.20638E+000,-2.73396E+001,9.98567E-001,3.65067E-002,-1.41480E-002,1.50299E-003,3.65513E-002,-1.41926E-002,1.69805E+000,3.68541E-002,1.03721E+000,-1.29309E-003,0.00000E+000,4.41128E-003,9.86425E-001,0.00000E+000,-7.07090E-003,-3.12186E-002,1.00000E+000,6
529,1327,-2.55996E+001,-2.90886E-001,6.84153E-002,4.50987E-001,-1.15741E-001,4.62243E-002,4.67891E-001,4.22579E-003,6.58829E-001,0,7.00597E+000,-1.98538E+000,9.99735E-001,-3.13009E+001,-4.42179E+001,9.98997E-001,3.34506E-002,-1.44504E-002,2.07850E-004,3.34515E-002,-1.44513E-002,2.48610E-001,3.35544E-002,1.03385E+000,1.89195E-002,0.00000E+000,-1.77004E-002,9.86040E-001,0.00000E+000,2.61131E-003,-3.32368E-002,1.00000E+000,6
529,1307,-2.56201E+001,-1.52114E+000,2.41584E-001,4.28255E-001,-9.43459E-002,8.59953E-002,4.46877E-001,5.50673E-003,6.59883E-001,0,6.54582E+000,-1.72715E+000,9.99834E-001,-3.14093E+001,-4.34438E+001,9.99483E-001,3.47982E-002,-1.44403E-002,-6.00329E-005,3.47983E-002,-1.44404E-002,-6.98563E-002,3.49656E-002,1.03525E+000,1.89174E-002,0.00000E+000,-1.82626E-002,9.86041E-001,0.00000E+000,4.44501E-003,-3.32396E-002,1.00000E+000,6
529,1317,-2.56127E+001,-9.09056E-001,1.39613E-001,4.39519E-001,-1.06023E-001,6.79758E-002,4.57207E-001,4.60058E-003,6.48621E-001,0,6.77024E+000,-1.86423E+000,9.99864E-001,-3.14466E+001,-4.38509E+001,9.99306E-001,3.41261E-002,-1.44464E-002,7.50864E-005,3.41262E-002,-1.44465E-002,8.85712E-002,3.42597E-002,1.03455E+000,1.89214E-002,0.00000E+000,-1.79819E-002,9.86040E-001,0.00000E+000,3.52946E-003,-3.32344E-002,1.00000E+000,6
