Coordinates.Image X [Pixel],Coordinates.Image Y [Pixel],coor.X [mm],coor.Y [mm],coor.Z [mm],disp.Horizontal Displacement U [mm],disp.Vertical Displacement V [mm],disp.Out-Of-Plane: W [mm],disp.Displacement Magnitude [mm],stats.Sigma [mm],stats.Epipolar Distance [Pixel],stats.Shape Index [-],SameCamera.Horizontal: u [Pixel],SameCamera.Vertical: v [Pixel],SameCamera.Correlation Value 2D [-],CrossCamera.Horizontal: q [Pixel],CrossCamera.Vertical: r [Pixel],CrossCamera.Correlation Value Persp [-],strain.Strain-global frame: Exx [ ],strain.Strain-global frame: Eyy [ ],strain.Strain-global frame: Exy [ ],strain.Maximum Principal Strain: EI [ ],strain.Minimum Principal Strain: EII [ ],strain.Shear Angle Gamma [deg],strain.Von Mises Equivalent Strain [ ],defgradient.F[0,0] [-],defgradient.F[0,1] [-],defgradient.F[0,2] [-],defgradient.F[1,0] [-],defgradient.F[1,1] [-],defgradient.F[1,2] [-],defgradient.F[2,0] [-],defgradient.F[2,1] [-],defgradient.F[2,2] [-],ext.Current Image [#]
929,1317,-3.36070E-001,-6.16359E-001,-8.67207E-002,0.00000E+000,0.00000E+000,0.00000E+000,0.00000E+000,6.00131E-003,5.17768E-001,0,0.00000E+000,0.00000E+000,-1.00000E+000,-4.49815E+001,-3.54216E+001,9.99519E-001,0.00000E+000,0.00000E+000,0.00000E+000,0.00000E+000,0.00000E+000,0.00000E+000,0.00000E+000,1.00000E+000,0.00000E+000,0.00000E+000,0.00000E+000,1.00000E+000,0.00000E+000,0.00000E+000,0.00000E+000,1.00000E+000,0
919,1307,-1.00262E+000,-1.26564E+000,-9.15173E-002,0.00000E+000,0.00000E+000,0.00000E+000,0.00000E+000,1.18480E-002,5.31216E-001,0,0.00000E+000,0.00000E+000,-1.00000E+000,-4.53915E+001,-3.55183E+001,9.97626E-001,0.00000E+000,0.00000E+000,0.00000E+000,0.00000E+000,0.00000E+000,0.00000E+000,0.00000E+000,1.00000E+000,0.00000E+000,0.00000E+000,0.00000E+000,1.00000E+000,0.00000E+000,0.00000E+000,0.00000E+000,1.00000E+000,0
919,1317,-9.99810E-001,-6.30637E-001,-1.42429E-001,0.00000E+000,0.00000E+000,0.00000E+000,0.00000E+000,1.13365E-002,4.97489E-001,0,0.00000E+000,0.00000E+000,-1.00000E+000,-4.53502E+001,-3.56214E+001,9.97808E-001,0.00000E+000,0.00000E+000,0.00000E+000,0.00000E+000,0.00000E+000,0.00000E+000,0.00000E+000,1.00000E+000,0.00000E+000,0.00000E+000,0.00000E+000,1.00000E+000,0.00000E+000,0.00000E+000,0.00000E+000,1.00000E+000,0
919,1327,-9.82684E-001,1.64317E-002,-1.27298E-001,0.00000E+000,0.00000E+000,0.00000E+000,0.00000E+000,1.02826E-002,5.38449E-001,0,0.00000E+000,0.00000E+000,-1.00000E+000,-4.49336E+001,-3.56439E+001,9.98366E-001,0.00000E+000,0.00000E+000,0.00000E+000,0.00000E+000,0.00000E+000,0.00000E+000,0.00000E+000,1.00000E+000,0.00000E+000,0.00000E+000,0.00000E+000,1.00000E+000,0.00000E+000,0.00000E+000,0.00000E+000,1.00000E+000,0
929,1307,-3.43252E-001,-1.25464E+000,-5.56998E-002,0.00000E+000,0.00000E+000,0.00000E+000,0.00000E+000,6.06424E-003,5.46927E-001,0,0.00000E+000,0.00000E+000,-1.00000E+000,-4.51359E+001,-3.53300E+001,9.99566E-001,0.00000E+000,0.00000E+000,0.00000E+000,0.00000E+000,0.00000E+000,0.00000E+000,0.00000E+000,1.00000E+000,0.00000E+000,0.00000E+000,0.00000E+000,1.00000E+000,0.00000E+000,0.00000E+000,0.00000E+000,1.00000E+000,0
929,1327,-3.22633E-001,2.59840E-002,-8.89000E-002,0.00000E+000,0.00000E+000,0.00000E+000,0.00000E+000,4.74414E-003,4.80861E-001,0,0.00000E+000,0.00000E+000,-1.00000E+000,-4.46637E+001,-3.55184E+001,9.99712E-001,0.00000E+000,0.00000E+000,0.00000E+000,0.00000E+000,0.00000E+000,0.00000E+000,0.00000E+000,1.00000E+000,0.00000E+000,0.00000E+000,0.00000E+000,1.00000E+000,0.00000E+000,0.00000E+000,0.00000E+000,1.00000E+000,0
939,1307,3.11083E-001,-1.24773E+000,-4.53069E-002,0.00000E+000,0.00000E+000,0.00000E+000,0.00000E+000,7.21871E-003,5.47206E-001,0,0.00000E+000,0.00000E+000,-1.00000E+000,-4.50144E+001,-3.51591E+001,9.99520E-001,0.00000E+000,0.00000E+000,0.00000E+000,0.00000E+000,0.00000E+000,0.00000E+000,0.00000E+000,1.00000E+000,0.00000E+000,0.00000E+000,0.00000E+000,1.00000E+000,0.00000E+000,0.00000E+000,0.00000E+000,1.00000E+000,0
939,1317,3.19066E-001,-6.09512E-001,-7.29049E-002,0.00000E+000,0.00000E+000,0.00000E+000,0.00000E+000,7.85742E-003,4.93558E-001,0,0.00000E+000,0.00000E+000,-1.00000E+000,-4.48406E+001,-3.52698E+001,9.99233E-001,0.00000E+000,0.00000E+000,0.00000E+000,0.00000E+000,0.00000E+000,0.00000E+000,0.00000E+000,1.00000E+000,0.00000E+000,0.00000E+000,0.00000E+000,1.00000E+000,0.00000E+000,0.00000E+000,0.00000E+000,1.00000E+000,0
939,1327,3.34160E-001,3.60996E-002,-6.82867E-002,0.00000E+000,0.00000E+000,0.00000E+000,0.00000E+000,4.06881E-003,5.19537E-001,0,0.00000E+000,0.00000E+000,-1.00000E+000,-4.44831E+001,-3.52980E+001,9.99679E-001,0.00000E+000,0.00000E+000,0.00000E+000,0.00000E+000,0.00000E+000,0.00000E+000,0.00000E+000,1.00000E+000,0.00000E+000,0.00000E+000,0.00000E+000,1.00000E+000,0.00000E+000,0.00000E+000,0.00000E+000,1.00000E+000,0
919,1337,-9.60640E-001,6.65024E-001,-8.90953E-002,0.00000E+000,0.00000E+000,0.00000E+000,0.00000E+000,6.87760E-003,5.13539E-001,0,0.00000E+000,0.00000E+000,-1.00000E+000,-4.43870E+001,-3.57299E+001,9.99118E-001,0.00000E+000,0.00000E+000,0.00000E+000,0.00000E+000,0.00000E+000,0.00000E+000,0.00000E+000,1.00000E+000,0.00000E+000,0.00000E+000,0.00000E+000,1.00000E+000,0.00000E+000,0.00000E+000,0.00000E+000,1.00000E+000,0
929,1337,-3.03021E-001,6.73935E-001,-6.27931E-002,0.00000E+000,0.00000E+000,0.00000E+000,0.00000E+000,5.52611E-003,4.81906E-001,0,0.00000E+000,0.00000E+000,-1.00000E+000,-4.41851E+001,-3.55743E+001,9.99678E-001,0.00000E+000,0.00000E+000,0.00000E+000,0.00000E+000,0.00000E+000,0.00000E+000,0.00000E+000,1.00000E+000,0.00000E+000,0.00000E+000,0.00000E+000,1.00000E+000,0.00000E+000,0.00000E+000,0.00000E+000,1.00000E+000,0
939,1337,3.52911E-001,6.83031E-001,-4.67608E-002,0.00000E+000,0.00000E+000,0.00000E+000,0.00000E+000,4.75236E-003,5.01956E-001,0,0.00000E+000,0.00000E+000,-1.00000E+000,-4.40303E+001,-3.53678E+001,9.99667E-001,0.00000E+000,0.00000E+000,0.00000E+000,0.00000E+000,0.00000E+000,0.00000E+000,0.00000E+000,1.00000E+000,0.00000E+000,0.00000E+000,0.00000E+000,1.00000E+000,0.00000E+000,0.00000E+000,0.00000E+000,1.00000E+000,0
949,1317,9.76016E-001,-5.99948E-001,-5.32690E-002,0.00000E+000,0.00000E+000,0.00000E+000,0.00000E+000,8.64988E-003,5.27128E-001,0,0.00000E+000,0.00000E+000,-1.00000E+000,-4.46555E+001,-3.50597E+001,9.99209E-001,0.00000E+000,0.00000E+000,0.00000E+000,0.00000E+000,0.00000E+000,0.00000E+000,0.00000E+000,1.00000E+000,0.00000E+000,0.00000E+000,0.00000E+000,1.00000E+000,0.00000E+000,0.00000E+000,0.00000E+000,1.00000E+000,0
949,1327,9.90029E-001,4.37577E-002,-5.39616E-002,0.00000E+000,0.00000E+000,0.00000E+000,0.00000E+000,6.74208E-003,5.09963E-001,0,0.00000E+000,0.00000E+000,-1.00000E+000,-4.43284E+001,-3.51262E+001,9.99557E-001,0.00000E+000,0.00000E+000,0.00000E+000,0.00000E+000,0.00000E+000,0.00000E+000,0.00000E+000,1.00000E+000,0.00000E+000,0.00000E+000,0.00000E+000,1.00000E+000,0.00000E+000,0.00000E+000,0.00000E+000,1.00000E+000,0
949,1337,1.00828E+000,6.90742E-001,-3.53997E-002,0.00000E+000,0.00000E+000,0.00000E+000,0.00000E+000,6.32587E-003,4.99696E-001,0,0.00000E+000,0.00000E+000,-1.00000E+000,-4.38919E+001,-3.51838E+001,9.99449E-001,0.00000E+000,0.00000E+000,0.00000E+000,0.00000E+000,0.00000E+000,0.00000E+000,0.00000E+000,1.00000E+000,0.00000E+000,0.00000E+000,0.00000E+000,1.00000E+000,0.00000E+000,0.00000E+000,0.00000E+000,1.00000E+000,0
949,1307,9.68328E-001,-1.23896E+000,-2.38926E-002,0.00000E+000,0.00000E+000,0.00000E+000,0.00000E+000,6.52270E-003,5.56168E-001,0,0.00000E+000,0.00000E+000,-1.00000E+000,-4.48198E+001,-3.49786E+001,9.99487E-001,0.00000E+000,0.00000E+000,0.00000E+000,0.00000E+000,0.00000E+000,0.00000E+000,0.00000E+000,1.00000E+000,0.00000E+000,0.00000E+000,0.00000E+000,1.00000E+000,0.00000E+000,0.00000E+000,0.00000E+000,1.00000E+000,0
909,1317,-1.65152E+000,-6.38443E-001,-1.44736E-001,0.00000E+000,0.00000E+000,0.00000E+000,0.00000E+000,1.14477E-002,4.40154E-001,0,0.00000E+000,0.00000E+000,-1.00000E+000,-4.54061E+001,-3.58534E+001,9.97458E-001,0.00000E+000,0.00000E+000,0.00000E+000,0.00000E+000,0.00000E+000,0.00000E+000,0.00000E+000,1.00000E+000,0.00000E+000,0.00000E+000,0.00000E+000,1.00000E+000,0.00000E+000,0.00000E+000,0.00000E+000,1.00000E+000,0
909,1327,-1.63489E+000,9.17040E-003,-1.31374E-001,0.00000E+000,0.00000E+000,0.00000E+000,0.00000E+000,8.60955E-003,5.12856E-001,0,0.00000E+000,0.00000E+000,-1.00000E+000,-4.49995E+001,-3.58494E+001,9.98377E-001,0.00000E+000,0.00000E+000,0.00000E+000,0.00000E+000,0.00000E+000,0.00000E+000,0.00000E+000,1.00000E+000,0.00000E+000,0.00000E+000,0.00000E+000,1.00000E+000,0.00000E+000,0.00000E+000,0.00000E+000,1.00000E+000,0
909,1337,-1.61273E+000,6.60671E-001,-9.21954E-002,0.00000E+000,0.00000E+000,0.00000E+000,0.00000E+000,8.62963E-003,5.80480E-001,0,0.00000E+000,0.00000E+000,-1.00000E+000,-4.44467E+001,-3.58480E+001,9.99007E-001,0.00000E+000,0.00000E+000,0.00000E+000,0.00000E+000,0.00000E+000,0.00000E+000,0.00000E+000,1.00000E+000,0.00000E+000,0.00000E+000,0.00000E+000,1.00000E+000,0.00000E+000,0.00000E+000,0.00000E+000,1.00000E+000,0
909,1307,-1.65330E+000,-1.27325E+000,-8.91305E-002,0.00000E+000,0.00000E+000,0.00000E+000,0.00000E+000,1.12205E-002,4.52283E-001,0,0.00000E+000,0.00000E+000,-1.00000E+000,-4.54208E+001,-3.57664E+001,9.97336E-001,0.00000E+000,0.00000E+000,0.00000E+000,0.00000E+000,0.00000E+000,0.00000E+000,0.00000E+000,1.00000E+000,0.00000E+000,0.00000E+000,0.00000E+000,1.00000E+000,0.00000E+000,0.00000E+000,0.00000E+000,1.00000E+000,0
919,1347,-9.35346E-001,1.31757E+000,-3.59836E-002,0.00000E+000,0.00000E+000,0.00000E+000,0.00000E+000,1.03050E-002,5.31738E-001,0,0.00000E+000,0.00000E+000,-1.00000E+000,-4.37557E+001,-3.57711E+001,9.99557E-001,0.00000E+000,0.00000E+000,0.00000E+000,0.00000E+000,0.00000E+000,0.00000E+000,0.00000E+000,1.00000E+000,0.00000E+000,0.00000E+000,0.00000E+000,1.00000E+000,0.00000E+000,0.00000E+000,0.00000E+000,1.00000E+000,0
929,1347,-2.78241E-001,1.32549E+000,-1.28639E-002,0.00000E+000,0.00000E+000,0.00000E+000,0.00000E+000,5.97450E-003,4.75747E-001,0,0.00000E+000,0.00000E+000,-1.00000E+000,-4.35717E+001,-3.56349E+001,9.99593E-001,0.00000E+000,0.00000E+000,0.00000E+000,0.00000E+000,0.00000E+000,0.00000E+000,0.00000E+000,1.00000E+000,0.00000E+000,0.00000E+000,0.00000E+000,1.00000E+000,0.00000E+000,0.00000E+000,0.00000E+000,1.00000E+000,0
939,1347,3.77386E-001,1.33469E+000,8.58724E-004,0.00000E+000,0.00000E+000,0.00000E+000,0.00000E+000,1.03435E-002,5.01672E-001,0,0.00000E+000,0.00000E+000,-1.00000E+000,-4.34295E+001,-3.54176E+001,9.99116E-001,0.00000E+000,0.00000E+000,0.00000E+000,0.00000E+000,0.00000E+000,0.00000E+000,0.00000E+000,1.00000E+000,0.00000E+000,0.00000E+000,0.00000E+000,1.00000E+000,0.00000E+000,0.00000E+000,0.00000E+000,1.00000E+000,0
949,1347,1.03481E+000,1.34477E+000,2.05421E-002,0.00000E+000,0.00000E+000,0.00000E+000,0.00000E+000,7.75651E-003,5.27245E-001,0,0.00000E+000,0.00000E+000,-1.00000E+000,-4.32431E+001,-3.52000E+001,9.98957E-001,0.00000E+000,0.00000E+000,0.00000E+000,0.00000E+000,0.00000E+000,0.00000E+000,0.00000E+000,1.00000E+000,0.00000E+000,0.00000E+000,0.00000E+000,1.00000E+000,0.00000E+000,0.00000E+000,0.00000E+000,1.00000E+000,0
959,1317,1.63152E+000,-5.92879E-001,-4.22708E-002,0.00000E+000,0.00000E+000,0.00000E+000,0.00000E+000,7.00675E-003,5.21192E-001,0,0.00000E+000,0.00000E+000,-1.00000E+000,-4.45095E+001,-3.48895E+001,9.99494E-001,0.00000E+000,0.00000E+000,0.00000E+000,0.00000E+000,0.00000E+000,0.00000E+000,0.00000E+000,1.00000E+000,0.00000E+000,0.00000E+000,0.00000E+000,1.00000E+000,0.00000E+000,0.00000E+000,0.00000E+000,1.00000E+000,0
959,1327,1.64386E+000,5.00690E-002,-5.10376E-002,0.00000E+000,0.00000E+000,0.00000E+000,0.00000E+000,1.26649E-002,5.09400E-001,0,0.00000E+000,0.00000E+000,-1.00000E+000,-4.42278E+001,-3.49464E+001,9.99485E-001,0.00000E+000,0.00000E+000,0.00000E+000,0.00000E+000,0.00000E+000,0.00000E+000,0.00000E+000,1.00000E+000,0.00000E+000,0.00000E+000,0.00000E+000,1.00000E+000,0.00000E+000,0.00000E+000,0.00000E+000,1.00000E+000,0
959,1337,1.66449E+000,6.99583E-001,-2.25539E-002,0.00000E+000,0.00000E+000,0.00000E+000,0.00000E+000,9.57147E-003,5.25097E-001,0,0.00000E+000,0.00000E+000,-1.00000E+000,-4.37344E+001,-3.49719E+001,9.99317E-001,0.00000E+000,0.00000E+000,0.00000E+000,0.00000E+000,0.00000E+000,0.00000E+000,0.00000E+000,1.00000E+000,0.00000E+000,0.00000E+000,0.00000E+000,1.00000E+000,0.00000E+000,0.00000E+000,0.00000E+000,1.00000E+000,0
959,1307,1.62295E+000,-1.23352E+000,-1.64307E-002,0.00000E+000,0.00000E+000,0.00000E+000,0.00000E+000,5.26874E-003,5.23099E-001,0,0.00000E+000,0.00000E+000,-1.00000E+000,-4.46944E+001,-3.48410E+001,9.99584E-001,0.00000E+000,0.00000E+000,0.00000E+000,0.00000E+000,0.00000E+000,0.00000E+000,0.00000E+000,1.00000E+000,0.00000E+000,0.00000E+000,0.00000E+000,1.00000E+000,0.00000E+000,0.00000E+000,0.00000E+000,1.00000E+000,0
959,1347,1.68911E+000,1.35137E+000,2.40196E-002,0.00000E+000,0.00000E+000,0.00000E+000,0.00000E+000,6.15959E-003,5.18651E-001,0,0.00000E+000,0.00000E+000,-1.00000E+000,-4.31387E+001,-3.50177E+001,9.99463E-001,0.00000E+000,0.00000E+000,0.00000E+000,0.00000E+000,0.00000E+000,0.00000E+000,0.00000E+000,1.00000E+000,0.00000E+000,0.00000E+000,0.00000E+000,1.00000E+000,0.00000E+000,0.00000E+000,0.00000E+000,1.00000E+000,0
909,1347,-1.58554E+000,1.31272E+000,-2.90877E-002,0.00000E+000,0.00000E+000,0.00000E+000,0.00000E+000,9.91101E-003,5.44896E-001,0,0.00000E+000,0.00000E+000,-1.00000E+000,-4.37599E+001,-3.59472E+001,9.99190E-001,0.00000E+000,0.00000E+000,0.00000E+000,0.00000E+000,0.00000E+000,0.00000E+000,0.00000E+000,1.00000E+000,0.00000E+000,0.00000E+000,0.00000E+000,1.00000E+000,0.00000E+000,0.00000E+000,0.00000E+000,1.00000E+000,0
899,1327,-2.27856E+000,9.11594E-003,-9.77005E-002,0.00000E+000,0.00000E+000,0.00000E+000,0.00000E+000,4.16387E-003,5.40483E-001,0,0.00000E+000,0.00000E+000,-1.00000E+000,-4.48406E+001,-3.59984E+001,9.99518E-001,0.00000E+000,0.00000E+000,0.00000E+000,0.00000E+000,0.00000E+000,0.00000E+000,0.00000E+000,1.00000E+000,0.00000E+000,0.00000E+000,0.00000E+000,1.00000E+000,0.00000E+000,0.00000E+000,0.00000E+000,1.00000E+000,0
899,1337,-2.26029E+000,6.56221E-001,-7.57150E-002,0.00000E+000,0.00000E+000,0.00000E+000,0.00000E+000,6.63084E-003,5.55554E-001,0,0.00000E+000,0.00000E+000,-1.00000E+000,-4.43863E+001,-3.60561E+001,9.99741E-001,0.00000E+000,0.00000E+000,0.00000E+000,0.00000E+000,0.00000E+000,0.00000E+000,0.00000E+000,1.00000E+000,0.00000E+000,0.00000E+000,0.00000E+000,1.00000E+000,0.00000E+000,0.00000E+000,0.00000E+000,1.00000E+000,0
899,1347,-2.23327E+000,1.30845E+000,-1.24625E-002,0.00000E+000,0.00000E+000,0.00000E+000,0.00000E+000,6.26203E-003,5.30948E-001,0,0.00000E+000,0.00000E+000,-1.00000E+000,-4.36990E+001,-3.61493E+001,9.99608E-001,0.00000E+000,0.00000E+000,0.00000E+000,0.00000E+000,0.00000E+000,0.00000E+000,0.00000E+000,1.00000E+000,0.00000E+000,0.00000E+000,0.00000E+000,1.00000E+000,0.00000E+000,0.00000E+000,0.00000E+000,1.00000E+000,0
899,1317,-2.29122E+000,-6.34179E-001,-9.32531E-002,0.00000E+000,0.00000E+000,0.00000E+000,0.00000E+000,4.80220E-003,5.16912E-001,0,0.00000E+000,0.00000E+000,-1.00000E+000,-4.51453E+001,-3.59467E+001,9.99488E-001,0.00000E+000,0.00000E+000,0.00000E+000,0.00000E+000,0.00000E+000,0.00000E+000,0.00000E+000,1.00000E+000,0.00000E+000,0.00000E+000,0.00000E+000,1.00000E+000,0.00000E+000,0.00000E+000,0.00000E+000,1.00000E+000,0
899,1307,-2.29823E+000,-1.27312E+000,-6.22181E-002,0.00000E+000,0.00000E+000,0.00000E+000,0.00000E+000,5.78427E-003,5.04498E-001,0,0.00000E+000,0.00000E+000,-1.00000E+000,-4.52994E+001,-3.58812E+001,9.99153E-001,0.00000E+000,0.00000E+000,0.00000E+000,0.00000E+000,0.00000E+000,0.00000E+000,0.00000E+000,1.00000E+000,0.00000E+000,0.00000E+000,0.00000E+000,1.00000E+000,0.00000E+000,0.00000E+000,0.00000E+000,1.00000E+000,0
889,1327,-2.92659E+000,5.41882E-003,-8.61341E-002,0.00000E+000,0.00000E+000,0.00000E+000,0.00000E+000,3.33926E-003,5.54047E-001,0,0.00000E+000,0.00000E+000,-1.00000E+000,-4.47970E+001,-3.61632E+001,9.99702E-001,0.00000E+000,0.00000E+000,0.00000E+000,0.00000E+000,0.00000E+000,0.00000E+000,0.00000E+000,1.00000E+000,0.00000E+000,0.00000E+000,0.00000E+000,1.00000E+000,0.00000E+000,0.00000E+000,0.00000E+000,1.00000E+000,0
889,1337,-2.90959E+000,6.50898E-001,-6.93866E-002,0.00000E+000,0.00000E+000,0.00000E+000,0.00000E+000,5.23441E-003,5.49021E-001,0,0.00000E+000,0.00000E+000,-1.00000E+000,-4.43730E+001,-3.62466E+001,9.99782E-001,0.00000E+000,0.00000E+000,0.00000E+000,0.00000E+000,0.00000E+000,0.00000E+000,0.00000E+000,1.00000E+000,0.00000E+000,0.00000E+000,0.00000E+000,1.00000E+000,0.00000E+000,0.00000E+000,0.00000E+000,1.00000E+000,0
889,1347,-2.88335E+000,1.30239E+000,-8.78676E-003,0.00000E+000,0.00000E+000,0.00000E+000,0.00000E+000,4.68044E-003,5.20465E-001,0,0.00000E+000,0.00000E+000,-1.00000E+000,-4.37013E+001,-3.63489E+001,9.99692E-001,0.00000E+000,0.00000E+000,0.00000E+000,0.00000E+000,0.00000E+000,0.00000E+000,0.00000E+000,1.00000E+000,0.00000E+000,0.00000E+000,0.00000E+000,1.00000E+000,0.00000E+000,0.00000E+000,0.00000E+000,1.00000E+000,0
969,1297,2.27762E+000,-1.86331E+000,5.37239E-002,0.00000E+000,0.00000E+000,0.00000E+000,0.00000E+000,1.08962E-002,5.01136E-001,0,0.00000E+000,0.00000E+000,-1.00000E+000,-4.45345E+001,-3.46475E+001,9.99147E-001,0.00000E+000,0.00000E+000,0.00000E+000,0.00000E+000,0.00000E+000,0.00000E+000,0.00000E+000,1.00000E+000,0.00000E+000,0.00000E+000,0.00000E+000,1.00000E+000,0.00000E+000,0.00000E+000,0.00000E+000,1.00000E+000,0
969,1307,2.27962E+000,-1.22587E+000,-2.02112E-003,0.00000E+000,0.00000E+000,0.00000E+000,0.00000E+000,1.71943E-002,5.27243E-001,0,0.00000E+000,0.00000E+000,-1.00000E+000,-4.45188E+001,-3.46656E+001,9.98671E-001,0.00000E+000,0.00000E+000,0.00000E+000,0.00000E+000,0.00000E+000,0.00000E+000,0.00000E+000,1.00000E+000,0.00000E+000,0.00000E+000,0.00000E+000,1.00000E+000,0.00000E+000,0.00000E+000,0.00000E+000,1.00000E+000,0
969,1317,2.28925E+000,-5.85009E-001,-2.34035E-002,0.00000E+000,0.00000E+000,0.00000E+000,0.00000E+000,7.31751E-003,5.04848E-001,0,0.00000E+000,0.00000E+000,-1.00000E+000,-4.43086E+001,-3.47291E+001,9.99477E-001,0.00000E+000,0.00000E+000,0.00000E+000,0.00000E+000,0.00000E+000,0.00000E+000,0.00000E+000,1.00000E+000,0.00000E+000,0.00000E+000,0.00000E+000,1.00000E+000,0.00000E+000,0.00000E+000,0.00000E+000,1.00000E+000,0
889,1317,-2.93868E+000,-6.37250E-001,-7.95361E-002,0.00000E+000,0.00000E+000,0.00000E+000,0.00000E+000,4.02136E-003,5.33877E-001,0,0.00000E+000,0.00000E+000,-1.00000E+000,-4.50891E+001,-3.61027E+001,9.99739E-001,0.00000E+000,0.00000E+000,0.00000E+000,0.00000E+000,0.00000E+000,0.00000E+000,0.00000E+000,1.00000E+000,0.00000E+000,0.00000E+000,0.00000E+000,1.00000E+000,0.00000E+000,0.00000E+000,0.00000E+000,1.00000E+000,0
969,1327,2.30229E+000,5.84505E-002,-2.95003E-002,0.00000E+000,0.00000E+000,0.00000E+000,0.00000E+000,8.29913E-003,4.88781E-001,0,0.00000E+000,0.00000E+000,-1.00000E+000,-4.40115E+001,-3.47846E+001,9.99436E-001,0.00000E+000,0.00000E+000,0.00000E+000,0.00000E+000,0.00000E+000,0.00000E+000,0.00000E+000,1.00000E+000,0.00000E+000,0.00000E+000,0.00000E+000,1.00000E+000,0.00000E+000,0.00000E+000,0.00000E+000,1.00000E+000,0
889,1307,-2.94498E+000,-1.27539E+000,-4.55015E-002,0.00000E+000,0.00000E+000,0.00000E+000,0.00000E+000,4.52226E-003,5.26835E-001,0,0.00000E+000,0.00000E+000,-1.00000E+000,-4.52259E+001,-3.60266E+001,9.99663E-001,0.00000E+000,0.00000E+000,0.00000E+000,0.00000E+000,0.00000E+000,0.00000E+000,0.00000E+000,1.00000E+000,0.00000E+000,0.00000E+000,0.00000E+000,1.00000E+000,0.00000E+000,0.00000E+000,0.00000E+000,1.00000E+000,0
969,1337,2.32087E+000,7.05012E-001,-1.07079E-002,0.00000E+000,0.00000E+000,0.00000E+000,0.00000E+000,7.84011E-003,4.49252E-001,0,0.00000E+000,0.00000E+000,-1.00000E+000,-4.35733E+001,-3.48612E+001,9.99441E-001,0.00000E+000,0.00000E+000,0.00000E+000,0.00000E+000,0.00000E+000,0.00000E+000,0.00000E+000,1.00000E+000,0.00000E+000,0.00000E+000,0.00000E+000,1.00000E+000,0.00000E+000,0.00000E+000,0.00000E+000,1.00000E+000,0
969,1347,2.34423E+000,1.35771E+000,2.92172E-002,0.00000E+000,0.00000E+000,0.00000E+000,0.00000E+000,6.32599E-003,4.93391E-001,0,0.00000E+000,0.00000E+000,-1.00000E+000,-4.30143E+001,-3.48519E+001,9.99461E-001,0.00000E+000,0.00000E+000,0.00000E+000,0.00000E+000,0.00000E+000,0.00000E+000,0.00000E+000,1.00000E+000,0.00000E+000,0.00000E+000,0.00000E+000,1.00000E+000,0.00000E+000,0.00000E+000,0.00000E+000,1.00000E+000,0
879,1327,-3.57408E+000,1.53271E-003,-7.38843E-002,0.00000E+000,0.00000E+000,0.00000E+000,0.00000E+000,3.79248E-003,5.58208E-001,0,0.00000E+000,0.00000E+000,-1.00000E+000,-4.47394E+001,-3.63371E+001,9.99808E-001,0.00000E+000,0.00000E+000,0.00000E+000,0.00000E+000,0.00000E+000,0.00000E+000,0.00000E+000,1.00000E+000,0.00000E+000,0.00000E+000,0.00000E+000,1.00000E+000,0.00000E+000,0.00000E+000,0.00000E+000,1.00000E+000,0
879,1337,-3.55775E+000,6.46123E-001,-5.95834E-002,0.00000E+000,0.00000E+000,0.00000E+000,0.00000E+000,3.44999E-003,5.43140E-001,0,0.00000E+000,0.00000E+000,-1.00000E+000,-4.43298E+001,-3.64359E+001,9.99789E-001,0.00000E+000,0.00000E+000,0.00000E+000,0.00000E+000,0.00000E+000,0.00000E+000,0.00000E+000,1.00000E+000,0.00000E+000,0.00000E+000,0.00000E+000,1.00000E+000,0.00000E+000,0.00000E+000,0.00000E+000,1.00000E+000,0
879,1347,-3.53300E+000,1.29788E+000,-5.30405E-003,0.00000E+000,0.00000E+000,0.00000E+000,0.00000E+000,4.78580E-003,5.58003E-001,0,0.00000E+000,0.00000E+000,-1.00000E+000,-4.36938E+001,-3.65006E+001,9.99716E-001,0.00000E+000,0.00000E+000,0.00000E+000,0.00000E+000,0.00000E+000,0.00000E+000,0.00000E+000,1.00000E+000,0.00000E+000,0.00000E+000,0.00000E+000,1.00000E+000,0.00000E+000,0.00000E+000,0.00000E+000,1.00000E+000,0
879,1307,-3.59077E+000,-1.27751E+000,-2.60289E-002,0.00000E+000,0.00000E+000,0.00000E+000,0.00000E+000,4.49510E-003,5.41160E-001,0,0.00000E+000,0.00000E+000,-1.00000E+000,-4.51267E+001,-3.61797E+001,9.99695E-001,0.00000E+000,0.00000E+000,0.00000E+000,0.00000E+000,0.00000E+000,0.00000E+000,0.00000E+000,1.00000E+000,0.00000E+000,0.00000E+000,0.00000E+000,1.00000E+000,0.00000E+000,0.00000E+000,0.00000E+000,1.00000E+000,0
879,1317,-3.58589E+000,-6.41493E-001,-6.63466E-002,0.00000E+000,0.00000E+000,0.00000E+000,0.00000E+000,3.94597E-003,5.16524E-001,0,0.00000E+000,0.00000E+000,-1.00000E+000,-4.50262E+001,-3.62930E+001,9.99746E-001,0.00000E+000,0.00000E+000,0.00000E+000,0.00000E+000,0.00000E+000,0.00000E+000,0.00000E+000,1.00000E+000,0.00000E+000,0.00000E+000,0.00000E+000,1.00000E+000,0.00000E+000,0.00000E+000,0.00000E+000,1.00000E+000,0
979,1307,2.93996E+000,-1.21617E+000,2.65407E-002,0.00000E+000,0.00000E+000,0.00000E+000,0.00000E+000,1.41124E-002,5.32322E-001,0,0.00000E+000,0.00000E+000,-1.00000E+000,-4.42524E+001,-3.44879E+001,9.99456E-001,0.00000E+000,0.00000E+000,0.00000E+000,0.00000E+000,0.00000E+000,0.00000E+000,0.00000E+000,1.00000E+000,0.00000E+000,0.00000E+000,0.00000E+000,1.00000E+000,0.00000E+000,0.00000E+000,0.00000E+000,1.00000E+000,0
979,1317,2.94807E+000,-5.75706E-001,-2.03520E-003,0.00000E+000,0.00000E+000,0.00000E+000,0.00000E+000,4.97453E-003,5.21017E-001,0,0.00000E+000,0.00000E+000,-1.00000E+000,-4.40826E+001,-3.45357E+001,9.99633E-001,0.00000E+000,0.00000E+000,0.00000E+000,0.00000E+000,0.00000E+000,0.00000E+000,0.00000E+000,1.00000E+000,0.00000E+000,0.00000E+000,0.00000E+000,1.00000E+000,0.00000E+000,0.00000E+000,0.00000E+000,1.00000E+000,0
979,1327,2.96031E+000,6.69761E-002,-1.21228E-002,0.00000E+000,0.00000E+000,0.00000E+000,0.00000E+000,5.62405E-003,4.90804E-001,0,0.00000E+000,0.00000E+000,-1.00000E+000,-4.38080E+001,-3.46006E+001,9.99330E-001,0.00000E+000,0.00000E+000,0.00000E+000,0.00000E+000,0.00000E+000,0.00000E+000,0.00000E+000,1.00000E+000,0.00000E+000,0.00000E+000,0.00000E+000,1.00000E+000,0.00000E+000,0.00000E+000,0.00000E+000,1.00000E+000,0
979,1337,2.97672E+000,7.12703E-001,-3.67986E-003,0.00000E+000,0.00000E+000,0.00000E+000,0.00000E+000,8.10598E-003,4.64249E-001,0,0.00000E+000,0.00000E+000,-1.00000E+000,-4.34281E+001,-3.46598E+001,9.98927E-001,0.00000E+000,0.00000E+000,0.00000E+000,0.00000E+000,0.00000E+000,0.00000E+000,0.00000E+000,1.00000E+000,0.00000E+000,0.00000E+000,0.00000E+000,1.00000E+000,0.00000E+000,0.00000E+000,0.00000E+000,1.00000E+000,0
979,1347,3.00160E+000,1.36514E+000,4.23469E-002,0.00000E+000,0.00000E+000,0.00000E+000,0.00000E+000,7.61850E-003,4.65335E-001,0,0.00000E+000,0.00000E+000,-1.00000E+000,-4.28346E+001,-3.46879E+001,9.98877E-001,0.00000E+000,0.00000E+000,0.00000E+000,0.00000E+000,0.00000E+000,0.00000E+000,0.00000E+000,1.00000E+000,0.00000E+000,0.00000E+000,0.00000E+000,1.00000E+000,0.00000E+000,0.00000E+000,0.00000E+000,1.00000E+000,0
979,1297,2.93345E+000,-1.85609E+000,6.22959E-002,0.00000E+000,0.00000E+000,0.00000E+000,0.00000E+000,1.06113E-002,5.24558E-001,0,0.00000E+000,0.00000E+000,-1.00000E+000,-4.43816E+001,-3.44583E+001,9.99207E-001,0.00000E+000,0.00000E+000,0.00000E+000,0.00000E+000,0.00000E+000,0.00000E+000,0.00000E+000,1.00000E+000,0.00000E+000,0.00000E+000,0.00000E+000,1.00000E+000,0.00000E+000,0.00000E+000,0.00000E+000,1.00000E+000,0
869,1317,-4.23428E+000,-6.45512E-001,-6.08726E-002,0.00000E+000,0.00000E+000,0.00000E+000,0.00000E+000,3.95723E-003,5.39845E-001,0,0.00000E+000,0.00000E+000,-1.00000E+000,-4.49962E+001,-3.64432E+001,9.99635E-001,0.00000E+000,0.00000E+000,0.00000E+000,0.00000E+000,0.00000E+000,0.00000E+000,0.00000E+000,1.00000E+000,0.00000E+000,0.00000E+000,0.00000E+000,1.00000E+000,0.00000E+000,0.00000E+000,0.00000E+000,1.00000E+000,0
869,1327,-4.22294E+000,-3.92353E-003,-7.00505E-002,0.00000E+000,0.00000E+000,0.00000E+000,0.00000E+000,4.77350E-003,5.51119E-001,0,0.00000E+000,0.00000E+000,-1.00000E+000,-4.47194E+001,-3.65229E+001,9.99631E-001,0.00000E+000,0.00000E+000,0.00000E+000,0.00000E+000,0.00000E+000,0.00000E+000,0.00000E+000,1.00000E+000,0.00000E+000,0.00000E+000,0.00000E+000,1.00000E+000,0.00000E+000,0.00000E+000,0.00000E+000,1.00000E+000,0
869,1337,-4.20614E+000,6.41426E-001,-5.29043E-002,0.00000E+000,0.00000E+000,0.00000E+000,0.00000E+000,3.84636E-003,5.53231E-001,0,0.00000E+000,0.00000E+000,-1.00000E+000,-4.42938E+001,-3.66092E+001,9.99730E-001,0.00000E+000,0.00000E+000,0.00000E+000,0.00000E+000,0.00000E+000,0.00000E+000,0.00000E+000,1.00000E+000,0.00000E+000,0.00000E+000,0.00000E+000,1.00000E+000,0.00000E+000,0.00000E+000,0.00000E+000,1.00000E+000,0
869,1347,-4.18413E+000,1.28984E+000,-1.06323E-002,0.00000E+000,0.00000E+000,0.00000E+000,0.00000E+000,5.87159E-003,5.26534E-001,0,0.00000E+000,0.00000E+000,-1.00000E+000,-4.37267E+001,-3.67216E+001,9.99723E-001,0.00000E+000,0.00000E+000,0.00000E+000,0.00000E+000,0.00000E+000,0.00000E+000,0.00000E+000,1.00000E+000,0.00000E+000,0.00000E+000,0.00000E+000,1.00000E+000,0.00000E+000,0.00000E+000,0.00000E+000,1.00000E+000,0
869,1307,-4.23862E+000,-1.28156E+000,-1.81464E-002,0.00000E+000,0.00000E+000,0.00000E+000,0.00000E+000,4.40744E-003,5.46426E-001,0,0.00000E+000,0.00000E+000,-1.00000E+000,-4.50831E+001,-3.63426E+001,9.99637E-001,0.00000E+000,0.00000E+000,0.00000E+000,0.00000E+000,0.00000E+000,0.00000E+000,0.00000E+000,1.00000E+000,0.00000E+000,0.00000E+000,0.00000E+000,1.00000E+000,0.00000E+000,0.00000E+000,0.00000E+000,1.00000E+000,0
989,1307,3.59677E+000,-1.20920E+000,3.71490E-002,0.00000E+000,0.00000E+000,0.00000E+000,0.00000E+000,7.52783E-003,5.31101E-001,0,0.00000E+000,0.00000E+000,-1.00000E+000,-4.40775E+001,-3.43178E+001,9.99388E-001,0.00000E+000,0.00000E+000,0.00000E+000,0.00000E+000,0.00000E+000,0.00000E+000,0.00000E+000,1.00000E+000,0.00000E+000,0.00000E+000,0.00000E+000,1.00000E+000,0.00000E+000,0.00000E+000,0.00000E+000,1.00000E+000,0
989,1317,3.60375E+000,-5.67586E-001,3.05298E-003,0.00000E+000,0.00000E+000,0.00000E+000,0.00000E+000,7.88478E-003,5.72244E-001,0,0.00000E+000,0.00000E+000,-1.00000E+000,-4.39382E+001,-3.43084E+001,9.99446E-001,0.00000E+000,0.00000E+000,0.00000E+000,0.00000E+000,0.00000E+000,0.00000E+000,0.00000E+000,1.00000E+000,0.00000E+000,0.00000E+000,0.00000E+000,1.00000E+000,0.00000E+000,0.00000E+000,0.00000E+000,1.00000E+000,0
989,1327,3.61806E+000,7.73981E-002,1.55249E-003,0.00000E+000,0.00000E+000,0.00000E+000,0.00000E+000,1.02190E-002,5.67390E-001,0,0.00000E+000,0.00000E+000,-1.00000E+000,-4.36142E+001,-3.43421E+001,9.99117E-001,0.00000E+000,0.00000E+000,0.00000E+000,0.00000E+000,0.00000E+000,0.00000E+000,0.00000E+000,1.00000E+000,0.00000E+000,0.00000E+000,0.00000E+000,1.00000E+000,0.00000E+000,0.00000E+000,0.00000E+000,1.00000E+000,0
989,1297,3.59106E+000,-1.84938E+000,7.68132E-002,0.00000E+000,0.00000E+000,0.00000E+000,0.00000E+000,7.08932E-003,5.06034E-001,0,0.00000E+000,0.00000E+000,-1.00000E+000,-4.41850E+001,-3.43103E+001,9.99249E-001,0.00000E+000,0.00000E+000,0.00000E+000,0.00000E+000,0.00000E+000,0.00000E+000,0.00000E+000,1.00000E+000,0.00000E+000,0.00000E+000,0.00000E+000,1.00000E+000,0.00000E+000,0.00000E+000,0.00000E+000,1.00000E+000,0
989,1337,3.63734E+000,7.23017E-001,2.23252E-002,0.00000E+000,0.00000E+000,0.00000E+000,0.00000E+000,6.21441E-003,4.74141E-001,0,0.00000E+000,0.00000E+000,-1.00000E+000,-4.31647E+001,-3.44618E+001,9.99277E-001,0.00000E+000,0.00000E+000,0.00000E+000,0.00000E+000,0.00000E+000,0.00000E+000,0.00000E+000,1.00000E+000,0.00000E+000,0.00000E+000,0.00000E+000,1.00000E+000,0.00000E+000,0.00000E+000,0.00000E+000,1.00000E+000,0
989,1347,3.66012E+000,1.37329E+000,5.83623E-002,0.00000E+000,0.00000E+000,0.00000E+000,0.00000E+000,6.81807E-003,4.45606E-001,0,0.00000E+000,0.00000E+000,-1.00000E+000,-4.26279E+001,-3.45151E+001,9.99597E-001,0.00000E+000,0.00000E+000,0.00000E+000,0.00000E+000,0.00000E+000,0.00000E+000,0.00000E+000,1.00000E+000,0.00000E+000,0.00000E+000,0.00000E+000,1.00000E+000,0.00000E+000,0.00000E+000,0.00000E+000,1.00000E+000,0
859,1327,-4.87118E+000,-8.60897E-003,-6.53157E-002,0.00000E+000,0.00000E+000,0.00000E+000,0.00000E+000,4.46930E-003,5.63290E-001,0,0.00000E+000,0.00000E+000,-1.00000E+000,-4.46838E+001,-3.66893E+001,9.99575E-001,0.00000E+000,0.00000E+000,0.00000E+000,0.00000E+000,0.00000E+000,0.00000E+000,0.00000E+000,1.00000E+000,0.00000E+000,0.00000E+000,0.00000E+000,1.00000E+000,0.00000E+000,0.00000E+000,0.00000E+000,1.00000E+000,0
859,1337,-4.85468E+000,6.35684E-001,-4.88263E-002,0.00000E+000,0.00000E+000,0.00000E+000,0.00000E+000,4.57718E-003,5.42395E-001,0,0.00000E+000,0.00000E+000,-1.00000E+000,-4.42626E+001,-3.68037E+001,9.99634E-001,0.00000E+000,0.00000E+000,0.00000E+000,0.00000E+000,0.00000E+000,0.00000E+000,0.00000E+000,1.00000E+000,0.00000E+000,0.00000E+000,0.00000E+000,1.00000E+000,0.00000E+000,0.00000E+000,0.00000E+000,1.00000E+000,0
859,1347,-4.83221E+000,1.28438E+000,-3.45959E-003,0.00000E+000,0.00000E+000,0.00000E+000,0.00000E+000,6.47618E-003,5.16742E-001,0,0.00000E+000,0.00000E+000,-1.00000E+000,-4.36784E+001,-3.69198E+001,9.99758E-001,0.00000E+000,0.00000E+000,0.00000E+000,0.00000E+000,0.00000E+000,0.00000E+000,0.00000E+000,1.00000E+000,0.00000E+000,0.00000E+000,0.00000E+000,1.00000E+000,0.00000E+000,0.00000E+000,0.00000E+000,1.00000E+000,0
859,1307,-4.88644E+000,-1.28399E+000,-1.23399E-002,0.00000E+000,0.00000E+000,0.00000E+000,0.00000E+000,7.17373E-003,6.10129E-001,0,0.00000E+000,0.00000E+000,-1.00000E+000,-4.50403E+001,-3.64472E+001,9.99495E-001,0.00000E+000,0.00000E+000,0.00000E+000,0.00000E+000,0.00000E+000,0.00000E+000,0.00000E+000,1.00000E+000,0.00000E+000,0.00000E+000,0.00000E+000,1.00000E+000,0.00000E+000,0.00000E+000,0.00000E+000,1.00000E+000,0
859,1317,-4.88210E+000,-6.48535E-001,-5.47653E-002,0.00000E+000,0.00000E+000,0.00000E+000,0.00000E+000,5.13032E-003,5.90505E-001,0,0.00000E+000,0.00000E+000,-1.00000E+000,-4.49521E+001,-3.65659E+001,9.99482E-001,0.00000E+000,0.00000E+000,0.00000E+000,0.00000E+000,0.00000E+000,0.00000E+000,0.00000E+000,1.00000E+000,0.00000E+000,0.00000E+000,0.00000E+000,1.00000E+000,0.00000E+000,0.00000E+000,0.00000E+000,1.00000E+000,0
999,1337,4.29233E+000,7.27453E-001,2.15786E-002,0.00000E+000,0.00000E+000,0.00000E+000,0.00000E+000,6.79584E-003,4.22669E-001,0,0.00000E+000,0.00000E+000,-1.00000E+000,-4.30436E+001,-3.43272E+001,9.99554E-001,0.00000E+000,0.00000E+000,0.00000E+000,0.00000E+000,0.00000E+000,0.00000E+000,0.00000E+000,1.00000E+000,0.00000E+000,0.00000E+000,0.00000E+000,1.00000E+000,0.00000E+000,0.00000E+000,0.00000E+000,1.00000E+000,0
999,1347,4.31756E+000,1.38088E+000,6.73976E-002,0.00000E+000,0.00000E+000,0.00000E+000,0.00000E+000,5.95993E-003,4.39656E-001,0,0.00000E+000,0.00000E+000,-1.00000E+000,-4.24502E+001,-3.43291E+001,9.99597E-001,0.00000E+000,0.00000E+000,0.00000E+000,0.00000E+000,0.00000E+000,0.00000E+000,0.00000E+000,1.00000E+000,0.00000E+000,0.00000E+000,0.00000E+000,1.00000E+000,0.00000E+000,0.00000E+000,0.00000E+000,1.00000E+000,0
999,1307,4.25401E+000,-1.20217E+000,4.75334E-002,0.00000E+000,0.00000E+000,0.00000E+000,0.00000E+000,4.85683E-003,5.32457E-001,0,0.00000E+000,0.00000E+000,-1.00000E+000,-4.38934E+001,-3.41450E+001,9.99582E-001,0.00000E+000,0.00000E+000,0.00000E+000,0.00000E+000,0.00000E+000,0.00000E+000,0.00000E+000,1.00000E+000,0.00000E+000,0.00000E+000,0.00000E+000,1.00000E+000,0.00000E+000,0.00000E+000,0.00000E+000,1.00000E+000,0
999,1317,4.26138E+000,-5.60924E-001,1.49251E-002,0.00000E+000,0.00000E+000,0.00000E+000,0.00000E+000,9.12638E-003,5.47875E-001,0,0.00000E+000,0.00000E+000,-1.00000E+000,-4.37457E+001,-3.41560E+001,9.98434E-001,0.00000E+000,0.00000E+000,0.00000E+000,0.00000E+000,0.00000E+000,0.00000E+000,0.00000E+000,1.00000E+000,0.00000E+000,0.00000E+000,0.00000E+000,1.00000E+000,0.00000E+000,0.00000E+000,0.00000E+000,1.00000E+000,0
999,1327,4.27424E+000,8.27522E-002,6.60365E-003,0.00000E+000,0.00000E+000,0.00000E+000,0.00000E+000,1.13125E-002,5.25529E-001,0,0.00000E+000,0.00000E+000,-1.00000E+000,-4.34603E+001,-3.42026E+001,9.98850E-001,0.00000E+000,0.00000E+000,0.00000E+000,0.00000E+000,0.00000E+000,0.00000E+000,0.00000E+000,1.00000E+000,0.00000E+000,0.00000E+000,0.00000E+000,1.00000E+000,0.00000E+000,0.00000E+000,0.00000E+000,1.00000E+000,0
999,1297,4.24868E+000,-1.84213E+000,8.90995E-002,0.00000E+000,0.00000E+000,0.00000E+000,0.00000E+000,5.15202E-003,5.13214E-001,0,0.00000E+000,0.00000E+000,-1.00000E+000,-4.39903E+001,-3.41367E+001,9.99150E-001,0.00000E+000,0.00000E+000,0.00000E+000,0.00000E+000,0.00000E+000,0.00000E+000,0.00000E+000,1.00000E+000,0.00000E+000,0.00000E+000,0.00000E+000,1.00000E+000,0.00000E+000,0.00000E+000,0.00000E+000,1.00000E+000,0
849,1337,-5.50196E+000,6.32390E-001,-4.08744E-002,0.00000E+000,0.00000E+000,0.00000E+000,0.00000E+000,6.04204E-003,5.89128E-001,0,0.00000E+000,0.00000E+000,-1.00000E+000,-4.41987E+001,-3.69401E+001,9.99714E-001,0.00000E+000,0.00000E+000,0.00000E+000,0.00000E+000,0.00000E+000,0.00000E+000,0.00000E+000,1.00000E+000,0.00000E+000,0.00000E+000,0.00000E+000,1.00000E+000,0.00000E+000,0.00000E+000,0.00000E+000,1.00000E+000,0
849,1347,-5.48231E+000,1.27787E+000,-8.18147E-003,0.00000E+000,0.00000E+000,0.00000E+000,0.00000E+000,4.84137E-003,5.28756E-001,0,0.00000E+000,0.00000E+000,-1.00000E+000,-4.36869E+001,-3.70972E+001,9.99816E-001,0.00000E+000,0.00000E+000,0.00000E+000,0.00000E+000,0.00000E+000,0.00000E+000,0.00000E+000,1.00000E+000,0.00000E+000,0.00000E+000,0.00000E+000,1.00000E+000,0.00000E+000,0.00000E+000,0.00000E+000,1.00000E+000,0
849,1357,-5.45221E+000,1.93294E+000,7.51828E-002,0.00000E+000,0.00000E+000,0.00000E+000,0.00000E+000,4.88392E-003,5.20653E-001,0,0.00000E+000,0.00000E+000,-1.00000E+000,-4.28886E+001,-3.71971E+001,9.99757E-001,0.00000E+000,0.00000E+000,0.00000E+000,0.00000E+000,0.00000E+000,0.00000E+000,0.00000E+000,1.00000E+000,0.00000E+000,0.00000E+000,0.00000E+000,1.00000E+000,0.00000E+000,0.00000E+000,0.00000E+000,1.00000E+000,0
849,1327,-5.51719E+000,-1.14884E-002,-5.17770E-002,0.00000E+000,0.00000E+000,0.00000E+000,0.00000E+000,7.06331E-003,5.91341E-001,0,0.00000E+000,0.00000E+000,-1.00000E+000,-4.45881E+001,-3.68388E+001,9.99608E-001,0.00000E+000,0.00000E+000,0.00000E+000,0.00000E+000,0.00000E+000,0.00000E+000,0.00000E+000,1.00000E+000,0.00000E+000,0.00000E+000,0.00000E+000,1.00000E+000,0.00000E+000,0.00000E+000,0.00000E+000,1.00000E+000,0
1009,1337,4.94611E+000,7.34243E-001,1.31772E-002,0.00000E+000,0.00000E+000,0.00000E+000,0.00000E+000,8.19201E-003,4.78170E-001,0,0.00000E+000,0.00000E+000,-1.00000E+000,-4.29543E+001,-3.40863E+001,9.99686E-001,0.00000E+000,0.00000E+000,0.00000E+000,0.00000E+000,0.00000E+000,0.00000E+000,0.00000E+000,1.00000E+000,0.00000E+000,0.00000E+000,0.00000E+000,1.00000E+000,0.00000E+000,0.00000E+000,0.00000E+000,1.00000E+000,0
1009,1347,4.97357E+000,1.38728E+000,6.81057E-002,0.00000E+000,0.00000E+000,0.00000E+000,0.00000E+000,6.61244E-003,4.34741E-001,0,0.00000E+000,0.00000E+000,-1.00000E+000,-4.23093E+001,-3.41426E+001,9.99734E-001,0.00000E+000,0.00000E+000,0.00000E+000,0.00000E+000,0.00000E+000,0.00000E+000,0.00000E+000,1.00000E+000,0.00000E+000,0.00000E+000,0.00000E+000,1.00000E+000,0.00000E+000,0.00000E+000,0.00000E+000,1.00000E+000,0
1009,1297,4.90519E+000,-1.83689E+000,9.45375E-002,0.00000E+000,0.00000E+000,0.00000E+000,0.00000E+000,6.41273E-003,4.87743E-001,0,0.00000E+000,0.00000E+000,-1.00000E+000,-4.38245E+001,-3.39961E+001,9.98961E-001,0.00000E+000,0.00000E+000,0.00000E+000,0.00000E+000,0.00000E+000,0.00000E+000,0.00000E+000,1.00000E+000,0.00000E+000,0.00000E+000,0.00000E+000,1.00000E+000,0.00000E+000,0.00000E+000,0.00000E+000,1.00000E+000,0
1009,1307,4.91055E+000,-1.19745E+000,5.29227E-002,0.00000E+000,0.00000E+000,0.00000E+000,0.00000E+000,6.11986E-003,4.83539E-001,0,0.00000E+000,0.00000E+000,-1.00000E+000,-4.37279E+001,-3.40226E+001,9.99544E-001,0.00000E+000,0.00000E+000,0.00000E+000,0.00000E+000,0.00000E+000,0.00000E+000,0.00000E+000,1.00000E+000,0.00000E+000,0.00000E+000,0.00000E+000,1.00000E+000,0.00000E+000,0.00000E+000,0.00000E+000,1.00000E+000,0
1009,1317,4.91825E+000,-5.56108E-001,2.15403E-002,0.00000E+000,0.00000E+000,0.00000E+000,0.00000E+000,7.49024E-003,4.89319E-001,0,0.00000E+000,0.00000E+000,-1.00000E+000,-4.35731E+001,-3.40381E+001,9.99420E-001,0.00000E+000,0.00000E+000,0.00000E+000,0.00000E+000,0.00000E+000,0.00000E+000,0.00000E+000,1.00000E+000,0.00000E+000,0.00000E+000,0.00000E+000,1.00000E+000,0.00000E+000,0.00000E+000,0.00000E+000,1.00000E+000,0
849,1317,-5.52937E+000,-6.52460E-001,-4.78123E-002,0.00000E+000,0.00000E+000,0.00000E+000,0.00000E+000,7.28206E-003,6.09221E-001,0,0.00000E+000,0.00000E+000,-1.00000E+000,-4.48935E+001,-3.67203E+001,9.99519E-001,0.00000E+000,0.00000E+000,0.00000E+000,0.00000E+000,0.00000E+000,0.00000E+000,0.00000E+000,1.00000E+000,0.00000E+000,0.00000E+000,0.00000E+000,1.00000E+000,0.00000E+000,0.00000E+000,0.00000E+000,1.00000E+000,0
1009,1327,4.93289E+000,8.95181E-002,2.04006E-002,0.00000E+000,0.00000E+000,0.00000E+000,0.00000E+000,7.44340E-003,4.87634E-001,0,0.00000E+000,0.00000E+000,-1.00000E+000,-4.32463E+001,-3.40583E+001,9.99636E-001,0.00000E+000,0.00000E+000,0.00000E+000,0.00000E+000,0.00000E+000,0.00000E+000,0.00000E+000,1.00000E+000,0.00000E+000,0.00000E+000,0.00000E+000,1.00000E+000,0.00000E+000,0.00000E+000,0.00000E+000,1.00000E+000,0
849,1307,-5.53371E+000,-1.28867E+000,-5.53775E-003,0.00000E+000,0.00000E+000,0.00000E+000,0.00000E+000,7.41905E-003,5.99492E-001,0,0.00000E+000,0.00000E+000,-1.00000E+000,-4.49827E+001,-3.66257E+001,9.99516E-001,0.00000E+000,0.00000E+000,0.00000E+000,0.00000E+000,0.00000E+000,0.00000E+000,0.00000E+000,1.00000E+000,0.00000E+000,0.00000E+000,0.00000E+000,1.00000E+000,0.00000E+000,0.00000E+000,0.00000E+000,1.00000E+000,0
839,1337,-6.14858E+000,6.27357E-001,-3.14069E-002,0.00000E+000,0.00000E+000,0.00000E+000,0.00000E+000,1.23156E-002,5.74765E-001,0,0.00000E+000,0.00000E+000,-1.00000E+000,-4.41168E+001,-3.71372E+001,9.99664E-001,0.00000E+000,0.00000E+000,0.00000E+000,0.00000E+000,0.00000E+000,0.00000E+000,0.00000E+000,1.00000E+000,0.00000E+000,0.00000E+000,0.00000E+000,1.00000E+000,0.00000E+000,0.00000E+000,0.00000E+000,1.00000E+000,0
839,1347,-6.13102E+000,1.27159E+000,-8.21716E-003,0.00000E+000,0.00000E+000,0.00000E+000,0.00000E+000,4.41045E-003,5.25649E-001,0,0.00000E+000,0.00000E+000,-1.00000E+000,-4.36590E+001,-3.72890E+001,9.99774E-001,0.00000E+000,0.00000E+000,0.00000E+000,0.00000E+000,0.00000E+000,0.00000E+000,0.00000E+000,1.00000E+000,0.00000E+000,0.00000E+000,0.00000E+000,1.00000E+000,0.00000E+000,0.00000E+000,0.00000E+000,1.00000E+000,0
839,1357,-6.10205E+000,1.92568E+000,7.08295E-002,0.00000E+000,0.00000E+000,0.00000E+000,0.00000E+000,4.36162E-003,5.14184E-001,0,0.00000E+000,0.00000E+000,-1.00000E+000,-4.28856E+001,-3.73977E+001,9.99729E-001,0.00000E+000,0.00000E+000,0.00000E+000,0.00000E+000,0.00000E+000,0.00000E+000,0.00000E+000,1.00000E+000,0.00000E+000,0.00000E+000,0.00000E+000,1.00000E+000,0.00000E+000,0.00000E+000,0.00000E+000,1.00000E+000,0
1019,1337,5.60646E+000,7.44510E-001,3.13745E-002,0.00000E+000,0.00000E+000,0.00000E+000,0.00000E+000,6.71336E-003,5.20251E-001,0,0.00000E+000,0.00000E+000,-1.00000E+000,-4.27034E+001,-3.38564E+001,9.99705E-001,0.00000E+000,0.00000E+000,0.00000E+000,0.00000E+000,0.00000E+000,0.00000E+000,0.00000E+000,1.00000E+000,0.00000E+000,0.00000E+000,0.00000E+000,1.00000E+000,0.00000E+000,0.00000E+000,0.00000E+000,1.00000E+000,0
1019,1347,5.62832E+000,1.39470E+000,6.11182E-002,0.00000E+000,0.00000E+000,0.00000E+000,0.00000E+000,6.26772E-003,4.95974E-001,0,0.00000E+000,0.00000E+000,-1.00000E+000,-4.22010E+001,-3.38906E+001,9.99747E-001,0.00000E+000,0.00000E+000,0.00000E+000,0.00000E+000,0.00000E+000,0.00000E+000,0.00000E+000,1.00000E+000,0.00000E+000,0.00000E+000,0.00000E+000,1.00000E+000,0.00000E+000,0.00000E+000,0.00000E+000,1.00000E+000,0
839,1327,-6.16816E+000,-1.88829E-002,-6.43974E-002,0.00000E+000,0.00000E+000,0.00000E+000,0.00000E+000,1.36116E-002,5.96347E-001,0,0.00000E+000,0.00000E+000,-1.00000E+000,-4.46304E+001,-3.70134E+001,9.99554E-001,0.00000E+000,0.00000E+000,0.00000E+000,0.00000E+000,0.00000E+000,0.00000E+000,0.00000E+000,1.00000E+000,0.00000E+000,0.00000E+000,0.00000E+000,1.00000E+000,0.00000E+000,0.00000E+000,0.00000E+000,1.00000E+000,0
1019,1327,5.58818E+000,9.57755E-002,1.73184E-002,0.00000E+000,0.00000E+000,0.00000E+000,0.00000E+000,7.16787E-003,5.09026E-001,0,0.00000E+000,0.00000E+000,-1.00000E+000,-4.31171E+001,-3.38559E+001,9.99574E-001,0.00000E+000,0.00000E+000,0.00000E+000,0.00000E+000,0.00000E+000,0.00000E+000,0.00000E+000,1.00000E+000,0.00000E+000,0.00000E+000,0.00000E+000,1.00000E+000,0.00000E+000,0.00000E+000,0.00000E+000,1.00000E+000,0
1019,1317,5.57712E+000,-5.48843E-001,3.45603E-002,0.00000E+000,0.00000E+000,0.00000E+000,0.00000E+000,9.99684E-003,4.77479E-001,0,0.00000E+000,0.00000E+000,-1.00000E+000,-4.33529E+001,-3.38728E+001,9.99279E-001,0.00000E+000,0.00000E+000,0.00000E+000,0.00000E+000,0.00000E+000,0.00000E+000,0.00000E+000,1.00000E+000,0.00000E+000,0.00000E+000,0.00000E+000,1.00000E+000,0.00000E+000,0.00000E+000,0.00000E+000,1.00000E+000,0
839,1317,-6.17613E+000,-6.58226E-001,-4.01395E-002,0.00000E+000,0.00000E+000,0.00000E+000,0.00000E+000,4.70571E-003,5.67484E-001,0,0.00000E+000,0.00000E+000,-1.00000E+000,-4.48213E+001,-3.69348E+001,9.99639E-001,0.00000E+000,0.00000E+000,0.00000E+000,0.00000E+000,0.00000E+000,0.00000E+000,0.00000E+000,1.00000E+000,0.00000E+000,0.00000E+000,0.00000E+000,1.00000E+000,0.00000E+000,0.00000E+000,0.00000E+000,1.00000E+000,0
1019,1297,5.56078E+000,-1.83195E+000,9.39059E-002,0.00000E+000,0.00000E+000,0.00000E+000,0.00000E+000,8.62345E-003,4.78687E-001,0,0.00000E+000,0.00000E+000,-1.00000E+000,-4.36825E+001,-3.38396E+001,9.99248E-001,0.00000E+000,0.00000E+000,0.00000E+000,0.00000E+000,0.00000E+000,0.00000E+000,0.00000E+000,1.00000E+000,0.00000E+000,0.00000E+000,0.00000E+000,1.00000E+000,0.00000E+000,0.00000E+000,0.00000E+000,1.00000E+000,0
1019,1307,5.56695E+000,-1.19023E+000,5.53816E-002,0.00000E+000,0.00000E+000,0.00000E+000,0.00000E+000,1.32046E-002,5.24329E-001,0,0.00000E+000,0.00000E+000,-1.00000E+000,-4.35675E+001,-3.38108E+001,9.99120E-001,0.00000E+000,0.00000E+000,0.00000E+000,0.00000E+000,0.00000E+000,0.00000E+000,0.00000E+000,1.00000E+000,0.00000E+000,0.00000E+000,0.00000E+000,1.00000E+000,0.00000E+000,0.00000E+000,0.00000E+000,1.00000E+000,0
839,1307,-6.17996E+000,-1.29426E+000,4.45698E-003,0.00000E+000,0.00000E+000,0.00000E+000,0.00000E+000,4.21637E-003,5.46596E-001,0,0.00000E+000,0.00000E+000,-1.00000E+000,-4.48973E+001,-3.68462E+001,9.99569E-001,0.00000E+000,0.00000E+000,0.00000E+000,0.00000E+000,0.00000E+000,0.00000E+000,0.00000E+000,1.00000E+000,0.00000E+000,0.00000E+000,0.00000E+000,1.00000E+000,0.00000E+000,0.00000E+000,0.00000E+000,1.00000E+000,0
829,1337,-6.79801E+000,6.19486E-001,-3.77310E-002,0.00000E+000,0.00000E+000,0.00000E+000,0.00000E+000,7.45023E-003,5.43799E-001,0,0.00000E+000,0.00000E+000,-1.00000E+000,-4.41140E+001,-3.73523E+001,9.99657E-001,0.00000E+000,0.00000E+000,0.00000E+000,0.00000E+000,0.00000E+000,0.00000E+000,0.00000E+000,1.00000E+000,0.00000E+000,0.00000E+000,0.00000E+000,1.00000E+000,0.00000E+000,0.00000E+000,0.00000E+000,1.00000E+000,0
829,1347,-6.77803E+000,1.26685E+000,-2.00729E-003,0.00000E+000,0.00000E+000,0.00000E+000,0.00000E+000,3.78082E-003,5.41300E-001,0,0.00000E+000,0.00000E+000,-1.00000E+000,-4.35853E+001,-3.74614E+001,9.99660E-001,0.00000E+000,0.00000E+000,0.00000E+000,0.00000E+000,0.00000E+000,0.00000E+000,0.00000E+000,1.00000E+000,0.00000E+000,0.00000E+000,0.00000E+000,1.00000E+000,0.00000E+000,0.00000E+000,0.00000E+000,1.00000E+000,0
829,1357,-6.75071E+000,1.91983E+000,7.00129E-002,0.00000E+000,0.00000E+000,0.00000E+000,0.00000E+000,5.02239E-003,5.34342E-001,0,0.00000E+000,0.00000E+000,-1.00000E+000,-4.28521E+001,-3.75713E+001,9.99659E-001,0.00000E+000,0.00000E+000,0.00000E+000,0.00000E+000,0.00000E+000,0.00000E+000,0.00000E+000,1.00000E+000,0.00000E+000,0.00000E+000,0.00000E+000,1.00000E+000,0.00000E+000,0.00000E+000,0.00000E+000,1.00000E+000,0
1029,1337,6.26137E+000,7.48996E-001,2.42681E-002,0.00000E+000,0.00000E+000,0.00000E+000,0.00000E+000,6.51234E-003,4.97577E-001,0,0.00000E+000,0.00000E+000,-1.00000E+000,-4.25868E+001,-3.36931E+001,9.99456E-001,0.00000E+000,0.00000E+000,0.00000E+000,0.00000E+000,0.00000E+000,0.00000E+000,0.00000E+000,1.00000E+000,0.00000E+000,0.00000E+000,0.00000E+000,1.00000E+000,0.00000E+000,0.00000E+000,0.00000E+000,1.00000E+000,0
1029,1347,6.28431E+000,1.40099E+000,5.78286E-002,0.00000E+000,0.00000E+000,0.00000E+000,0.00000E+000,5.35454E-003,5.04810E-001,0,0.00000E+000,0.00000E+000,-1.00000E+000,-4.20619E+001,-3.36903E+001,9.99605E-001,0.00000E+000,0.00000E+000,0.00000E+000,0.00000E+000,0.00000E+000,0.00000E+000,0.00000E+000,1.00000E+000,0.00000E+000,0.00000E+000,0.00000E+000,1.00000E+000,0.00000E+000,0.00000E+000,0.00000E+000,1.00000E+000,0
1029,1327,6.24563E+000,1.01114E-001,2.17884E-002,0.00000E+000,0.00000E+000,0.00000E+000,0.00000E+000,7.18109E-003,4.67755E-001,0,0.00000E+000,0.00000E+000,-1.00000E+000,-4.29352E+001,-3.37155E+001,9.99461E-001,0.00000E+000,0.00000E+000,0.00000E+000,0.00000E+000,0.00000E+000,0.00000E+000,0.00000E+000,1.00000E+000,0.00000E+000,0.00000E+000,0.00000E+000,1.00000E+000,0.00000E+000,0.00000E+000,0.00000E+000,1.00000E+000,0
829,1327,-6.81360E+000,-2.40117E-002,-5.17662E-002,0.00000E+000,0.00000E+000,0.00000E+000,0.00000E+000,6.30189E-003,5.58273E-001,0,0.00000E+000,0.00000E+000,-1.00000E+000,-4.45203E+001,-3.72289E+001,9.99815E-001,0.00000E+000,0.00000E+000,0.00000E+000,0.00000E+000,0.00000E+000,0.00000E+000,0.00000E+000,1.00000E+000,0.00000E+000,0.00000E+000,0.00000E+000,1.00000E+000,0.00000E+000,0.00000E+000,0.00000E+000,1.00000E+000,0
829,1307,-6.82589E+000,-1.29915E+000,1.39505E-002,0.00000E+000,0.00000E+000,0.00000E+000,0.00000E+000,6.00489E-003,5.17150E-001,0,0.00000E+000,0.00000E+000,-1.00000E+000,-4.48044E+001,-3.70430E+001,9.99406E-001,0.00000E+000,0.00000E+000,0.00000E+000,0.00000E+000,0.00000E+000,0.00000E+000,0.00000E+000,1.00000E+000,0.00000E+000,0.00000E+000,0.00000E+000,1.00000E+000,0.00000E+000,0.00000E+000,0.00000E+000,1.00000E+000,0
829,1317,-6.82283E+000,-6.63503E-001,-3.42342E-002,0.00000E+000,0.00000E+000,0.00000E+000,0.00000E+000,4.57247E-003,5.48281E-001,0,0.00000E+000,0.00000E+000,-1.00000E+000,-4.47487E+001,-3.71269E+001,9.99800E-001,0.00000E+000,0.00000E+000,0.00000E+000,0.00000E+000,0.00000E+000,0.00000E+000,0.00000E+000,1.00000E+000,0.00000E+000,0.00000E+000,0.00000E+000,1.00000E+000,0.00000E+000,0.00000E+000,0.00000E+000,1.00000E+000,0
1029,1317,6.23425E+000,-5.42054E-001,3.78289E-002,0.00000E+000,0.00000E+000,0.00000E+000,0.00000E+000,8.88038E-003,4.93691E-001,0,0.00000E+000,0.00000E+000,-1.00000E+000,-4.31775E+001,-3.36802E+001,9.99424E-001,0.00000E+000,0.00000E+000,0.00000E+000,0.00000E+000,0.00000E+000,0.00000E+000,0.00000E+000,1.00000E+000,0.00000E+000,0.00000E+000,0.00000E+000,1.00000E+000,0.00000E+000,0.00000E+000,0.00000E+000,1.00000E+000,0
1029,1307,6.22545E+000,-1.18336E+000,6.49981E-002,0.00000E+000,0.00000E+000,0.00000E+000,0.00000E+000,1.05501E-002,5.22650E-001,0,0.00000E+000,0.00000E+000,-1.00000E+000,-4.33565E+001,-3.36407E+001,9.98480E-001,0.00000E+000,0.00000E+000,0.00000E+000,0.00000E+000,0.00000E+000,0.00000E+000,0.00000E+000,1.00000E+000,0.00000E+000,0.00000E+000,0.00000E+000,1.00000E+000,0.00000E+000,0.00000E+000,0.00000E+000,1.00000E+000,0
1029,1297,6.21882E+000,-1.82509E+000,1.01777E-001,0.00000E+000,0.00000E+000,0.00000E+000,0.00000E+000,9.56661E-003,4.91653E-001,0,0.00000E+000,0.00000E+000,-1.00000E+000,-4.34814E+001,-3.36601E+001,9.98518E-001,0.00000E+000,0.00000E+000,0.00000E+000,0.00000E+000,0.00000E+000,0.00000E+000,0.00000E+000,1.00000E+000,0.00000E+000,0.00000E+000,0.00000E+000,1.00000E+000,0.00000E+000,0.00000E+000,0.00000E+000,1.00000E+000,0
819,1317,-7.46839E+000,-6.67991E-001,-2.46863E-002,0.00000E+000,0.00000E+000,0.00000E+000,0.00000E+000,5.98121E-003,5.36692E-001,0,0.00000E+000,0.00000E+000,-1.00000E+000,-4.46454E+001,-3.73108E+001,9.99531E-001,0.00000E+000,0.00000E+000,0.00000E+000,0.00000E+000,0.00000E+000,0.00000E+000,0.00000E+000,1.00000E+000,0.00000E+000,0.00000E+000,0.00000E+000,1.00000E+000,0.00000E+000,0.00000E+000,0.00000E+000,1.00000E+000,0
819,1327,-7.46145E+000,-3.05665E-002,-5.31431E-002,0.00000E+000,0.00000E+000,0.00000E+000,0.00000E+000,8.12922E-003,5.38010E-001,0,0.00000E+000,0.00000E+000,-1.00000E+000,-4.44790E+001,-3.74274E+001,9.99351E-001,0.00000E+000,0.00000E+000,0.00000E+000,0.00000E+000,0.00000E+000,0.00000E+000,0.00000E+000,1.00000E+000,0.00000E+000,0.00000E+000,0.00000E+000,1.00000E+000,0.00000E+000,0.00000E+000,0.00000E+000,1.00000E+000,0
819,1337,-7.44665E+000,6.13195E-001,-4.25136E-002,0.00000E+000,0.00000E+000,0.00000E+000,0.00000E+000,5.34008E-003,5.54044E-001,0,0.00000E+000,0.00000E+000,-1.00000E+000,-4.40919E+001,-3.75259E+001,9.99565E-001,0.00000E+000,0.00000E+000,0.00000E+000,0.00000E+000,0.00000E+000,0.00000E+000,0.00000E+000,1.00000E+000,0.00000E+000,0.00000E+000,0.00000E+000,1.00000E+000,0.00000E+000,0.00000E+000,0.00000E+000,1.00000E+000,0
819,1307,-7.47228E+000,-1.30204E+000,1.89258E-002,0.00000E+000,0.00000E+000,0.00000E+000,0.00000E+000,7.89667E-003,5.68676E-001,0,0.00000E+000,0.00000E+000,-1.00000E+000,-4.47259E+001,-3.71593E+001,9.99230E-001,0.00000E+000,0.00000E+000,0.00000E+000,0.00000E+000,0.00000E+000,0.00000E+000,0.00000E+000,1.00000E+000,0.00000E+000,0.00000E+000,0.00000E+000,1.00000E+000,0.00000E+000,0.00000E+000,0.00000E+000,1.00000E+000,0
819,1347,-7.42646E+000,1.26090E+000,-4.91468E-003,0.00000E+000,0.00000E+000,0.00000E+000,0.00000E+000,6.40200E-003,5.60379E-001,0,0.00000E+000,0.00000E+000,-1.00000E+000,-4.35529E+001,-3.76310E+001,9.99555E-001,0.00000E+000,0.00000E+000,0.00000E+000,0.00000E+000,0.00000E+000,0.00000E+000,0.00000E+000,1.00000E+000,0.00000E+000,0.00000E+000,0.00000E+000,1.00000E+000,0.00000E+000,0.00000E+000,0.00000E+000,1.00000E+000,0
819,1357,-7.39881E+000,1.91385E+000,6.99087E-002,0.00000E+000,0.00000E+000,0.00000E+000,0.00000E+000,6.63787E-003,5.46590E-001,0,0.00000E+000,0.00000E+000,-1.00000E+000,-4.28045E+001,-3.77525E+001,9.99592E-001,0.00000E+000,0.00000E+000,0.00000E+000,0.00000E+000,0.00000E+000,0.00000E+000,0.00000E+000,1.00000E+000,0.00000E+000,0.00000E+000,0.00000E+000,1.00000E+000,0.00000E+000,0.00000E+000,0.00000E+000,1.00000E+000,0
1039,1337,6.91836E+000,7.55841E-001,2.40119E-002,0.00000E+000,0.00000E+000,0.00000E+000,0.00000E+000,6.85589E-003,5.16311E-001,0,0.00000E+000,0.00000E+000,-1.00000E+000,-4.24202E+001,-3.34878E+001,9.99230E-001,0.00000E+000,0.00000E+000,0.00000E+000,0.00000E+000,0.00000E+000,0.00000E+000,0.00000E+000,1.00000E+000,0.00000E+000,0.00000E+000,0.00000E+000,1.00000E+000,0.00000E+000,0.00000E+000,0.00000E+000,1.00000E+000,0
1039,1347,6.94100E+000,1.40576E+000,5.57979E-002,0.00000E+000,0.00000E+000,0.00000E+000,0.00000E+000,6.36928E-003,4.60089E-001,0,0.00000E+000,0.00000E+000,-1.00000E+000,-4.19058E+001,-3.35433E+001,9.99639E-001,0.00000E+000,0.00000E+000,0.00000E+000,0.00000E+000,0.00000E+000,0.00000E+000,0.00000E+000,1.00000E+000,0.00000E+000,0.00000E+000,0.00000E+000,1.00000E+000,0.00000E+000,0.00000E+000,0.00000E+000,1.00000E+000,0
1039,1317,6.89011E+000,-5.37278E-001,3.38153E-002,0.00000E+000,0.00000E+000,0.00000E+000,0.00000E+000,5.38866E-003,4.79466E-001,0,0.00000E+000,0.00000E+000,-1.00000E+000,-4.30334E+001,-3.35184E+001,9.99596E-001,0.00000E+000,0.00000E+000,0.00000E+000,0.00000E+000,0.00000E+000,0.00000E+000,0.00000E+000,1.00000E+000,0.00000E+000,0.00000E+000,0.00000E+000,1.00000E+000,0.00000E+000,0.00000E+000,0.00000E+000,1.00000E+000,0
1039,1327,6.90229E+000,1.06256E-001,2.08349E-002,0.00000E+000,0.00000E+000,0.00000E+000,0.00000E+000,6.34662E-003,4.43982E-001,0,0.00000E+000,0.00000E+000,-1.00000E+000,-4.27734E+001,-3.35577E+001,9.99359E-001,0.00000E+000,0.00000E+000,0.00000E+000,0.00000E+000,0.00000E+000,0.00000E+000,0.00000E+000,1.00000E+000,0.00000E+000,0.00000E+000,0.00000E+000,1.00000E+000,0.00000E+000,0.00000E+000,0.00000E+000,1.00000E+000,0
1039,1307,6.88078E+000,-1.17938E+000,5.91002E-002,0.00000E+000,0.00000E+000,0.00000E+000,0.00000E+000,6.76747E-003,4.99077E-001,0,0.00000E+000,0.00000E+000,-1.00000E+000,-4.32235E+001,-3.34936E+001,9.99358E-001,0.00000E+000,0.00000E+000,0.00000E+000,0.00000E+000,0.00000E+000,0.00000E+000,0.00000E+000,1.00000E+000,0.00000E+000,0.00000E+000,0.00000E+000,1.00000E+000,0.00000E+000,0.00000E+000,0.00000E+000,1.00000E+000,0
1039,1297,6.87468E+000,-1.82060E+000,9.83485E-002,0.00000E+000,0.00000E+000,0.00000E+000,0.00000E+000,7.97963E-003,4.79908E-001,0,0.00000E+000,0.00000E+000,-1.00000E+000,-4.33345E+001,-3.35061E+001,9.98873E-001,0.00000E+000,0.00000E+000,0.00000E+000,0.00000E+000,0.00000E+000,0.00000E+000,0.00000E+000,1.00000E+000,0.00000E+000,0.00000E+000,0.00000E+000,1.00000E+000,0.00000E+000,0.00000E+000,0.00000E+000,1.00000E+000,0
1049,1337,7.57644E+000,7.60658E-001,2.67356E-002,0.00000E+000,0.00000E+000,0.00000E+000,0.00000E+000,9.95393E-003,4.58184E-001,0,0.00000E+000,0.00000E+000,-1.00000E+000,-4.22271E+001,-3.33587E+001,9.99576E-001,0.00000E+000,0.00000E+000,0.00000E+000,0.00000E+000,0.00000E+000,0.00000E+000,0.00000E+000,1.00000E+000,0.00000E+000,0.00000E+000,0.00000E+000,1.00000E+000,0.00000E+000,0.00000E+000,0.00000E+000,1.00000E+000,0
1049,1347,7.60156E+000,1.41451E+000,6.80534E-002,0.00000E+000,0.00000E+000,0.00000E+000,0.00000E+000,9.20175E-003,4.72621E-001,0,0.00000E+000,0.00000E+000,-1.00000E+000,-4.16572E+001,-3.33377E+001,9.99335E-001,0.00000E+000,0.00000E+000,0.00000E+000,0.00000E+000,0.00000E+000,0.00000E+000,0.00000E+000,1.00000E+000,0.00000E+000,0.00000E+000,0.00000E+000,1.00000E+000,0.00000E+000,0.00000E+000,0.00000E+000,1.00000E+000,0
1049,1307,7.54041E+000,-1.17377E+000,6.96517E-002,0.00000E+000,0.00000E+000,0.00000E+000,0.00000E+000,9.50697E-003,4.53030E-001,0,0.00000E+000,0.00000E+000,-1.00000E+000,-4.29866E+001,-3.33674E+001,9.99382E-001,0.00000E+000,0.00000E+000,0.00000E+000,0.00000E+000,0.00000E+000,0.00000E+000,0.00000E+000,1.00000E+000,0.00000E+000,0.00000E+000,0.00000E+000,1.00000E+000,0.00000E+000,0.00000E+000,0.00000E+000,1.00000E+000,0
1049,1317,7.55013E+000,-5.30827E-001,4.56502E-002,0.00000E+000,0.00000E+000,0.00000E+000,0.00000E+000,9.51174E-003,4.46210E-001,0,0.00000E+000,0.00000E+000,-1.00000E+000,-4.27888E+001,-3.33742E+001,9.98685E-001,0.00000E+000,0.00000E+000,0.00000E+000,0.00000E+000,0.00000E+000,0.00000E+000,0.00000E+000,1.00000E+000,0.00000E+000,0.00000E+000,0.00000E+000,1.00000E+000,0.00000E+000,0.00000E+000,0.00000E+000,1.00000E+000,0
1049,1327,7.55926E+000,1.12358E-001,1.91138E-002,0.00000E+000,0.00000E+000,0.00000E+000,0.00000E+000,5.92198E-003,4.53011E-001,0,0.00000E+000,0.00000E+000,-1.00000E+000,-4.26052E+001,-3.33673E+001,9.99081E-001,0.00000E+000,0.00000E+000,0.00000E+000,0.00000E+000,0.00000E+000,0.00000E+000,0.00000E+000,1.00000E+000,0.00000E+000,0.00000E+000,0.00000E+000,1.00000E+000,0.00000E+000,0.00000E+000,0.00000E+000,1.00000E+000,0
809,1347,-8.07479E+000,1.25340E+000,-9.31786E-003,0.00000E+000,0.00000E+000,0.00000E+000,0.00000E+000,5.76319E-003,5.38259E-001,0,0.00000E+000,0.00000E+000,-1.00000E+000,-4.35193E+001,-3.78418E+001,9.99670E-001,0.00000E+000,0.00000E+000,0.00000E+000,0.00000E+000,0.00000E+000,0.00000E+000,0.00000E+000,1.00000E+000,0.00000E+000,0.00000E+000,0.00000E+000,1.00000E+000,0.00000E+000,0.00000E+000,0.00000E+000,1.00000E+000,0
809,1357,-8.04666E+000,1.90721E+000,6.90175E-002,0.00000E+000,0.00000E+000,0.00000E+000,0.00000E+000,7.65406E-003,5.41906E-001,0,0.00000E+000,0.00000E+000,-1.00000E+000,-4.27513E+001,-3.79506E+001,9.99387E-001,0.00000E+000,0.00000E+000,0.00000E+000,0.00000E+000,0.00000E+000,0.00000E+000,0.00000E+000,1.00000E+000,0.00000E+000,0.00000E+000,0.00000E+000,1.00000E+000,0.00000E+000,0.00000E+000,0.00000E+000,1.00000E+000,0
809,1327,-8.10886E+000,-3.45479E-002,-5.47963E-002,0.00000E+000,0.00000E+000,0.00000E+000,0.00000E+000,6.81016E-003,5.98042E-001,0,0.00000E+000,0.00000E+000,-1.00000E+000,-4.44281E+001,-3.75458E+001,9.99166E-001,0.00000E+000,0.00000E+000,0.00000E+000,0.00000E+000,0.00000E+000,0.00000E+000,0.00000E+000,1.00000E+000,0.00000E+000,0.00000E+000,0.00000E+000,1.00000E+000,0.00000E+000,0.00000E+000,0.00000E+000,1.00000E+000,0
809,1337,-8.09377E+000,6.07838E-001,-4.18155E-002,0.00000E+000,0.00000E+000,0.00000E+000,0.00000E+000,4.83139E-003,5.67864E-001,0,0.00000E+000,0.00000E+000,-1.00000E+000,-4.40287E+001,-3.76952E+001,9.99630E-001,0.00000E+000,0.00000E+000,0.00000E+000,0.00000E+000,0.00000E+000,0.00000E+000,0.00000E+000,1.00000E+000,0.00000E+000,0.00000E+000,0.00000E+000,1.00000E+000,0.00000E+000,0.00000E+000,0.00000E+000,1.00000E+000,0
809,1307,-8.11966E+000,-1.30695E+000,1.69877E-002,0.00000E+000,0.00000E+000,0.00000E+000,0.00000E+000,6.82952E-003,5.87457E-001,0,0.00000E+000,0.00000E+000,-1.00000E+000,-4.46766E+001,-3.73088E+001,9.99179E-001,0.00000E+000,0.00000E+000,0.00000E+000,0.00000E+000,0.00000E+000,0.00000E+000,0.00000E+000,1.00000E+000,0.00000E+000,0.00000E+000,0.00000E+000,1.00000E+000,0.00000E+000,0.00000E+000,0.00000E+000,1.00000E+000,0
809,1317,-8.11598E+000,-6.71962E-001,-2.75586E-002,0.00000E+000,0.00000E+000,0.00000E+000,0.00000E+000,8.59886E-003,5.95529E-001,0,0.00000E+000,0.00000E+000,-1.00000E+000,-4.46011E+001,-3.74253E+001,9.99322E-001,0.00000E+000,0.00000E+000,0.00000E+000,0.00000E+000,0.00000E+000,0.00000E+000,0.00000E+000,1.00000E+000,0.00000E+000,0.00000E+000,0.00000E+000,1.00000E+000,0.00000E+000,0.00000E+000,0.00000E+000,1.00000E+000,0
1049,1297,7.53186E+000,-1.81582E+000,9.86613E-002,0.00000E+000,0.00000E+000,0.00000E+000,0.00000E+000,8.27977E-003,4.60587E-001,0,0.00000E+000,0.00000E+000,-1.00000E+000,-4.31559E+001,-3.33592E+001,9.98707E-001,0.00000E+000,0.00000E+000,0.00000E+000,0.00000E+000,0.00000E+000,0.00000E+000,0.00000E+000,1.00000E+000,0.00000E+000,0.00000E+000,0.00000E+000,1.00000E+000,0.00000E+000,0.00000E+000,0.00000E+000,1.00000E+000,0
799,1337,-8.74139E+000,6.01260E-001,-4.57524E-002,0.00000E+000,0.00000E+000,0.00000E+000,0.00000E+000,4.11419E-003,5.64394E-001,0,0.00000E+000,0.00000E+000,-1.00000E+000,-4.39816E+001,-3.78820E+001,9.99781E-001,0.00000E+000,0.00000E+000,0.00000E+000,0.00000E+000,0.00000E+000,0.00000E+000,0.00000E+000,1.00000E+000,0.00000E+000,0.00000E+000,0.00000E+000,1.00000E+000,0.00000E+000,0.00000E+000,0.00000E+000,1.00000E+000,0
799,1347,-8.72293E+000,1.24671E+000,-1.50552E-002,0.00000E+000,0.00000E+000,0.00000E+000,0.00000E+000,5.13381E-003,5.46369E-001,0,0.00000E+000,0.00000E+000,-1.00000E+000,-4.34826E+001,-3.80223E+001,9.99643E-001,0.00000E+000,0.00000E+000,0.00000E+000,0.00000E+000,0.00000E+000,0.00000E+000,0.00000E+000,1.00000E+000,0.00000E+000,0.00000E+000,0.00000E+000,1.00000E+000,0.00000E+000,0.00000E+000,0.00000E+000,1.00000E+000,0
799,1357,-8.69485E+000,1.90019E+000,6.41879E-002,0.00000E+000,0.00000E+000,0.00000E+000,0.00000E+000,5.58446E-003,5.42858E-001,0,0.00000E+000,0.00000E+000,-1.00000E+000,-4.27102E+001,-3.81432E+001,9.99478E-001,0.00000E+000,0.00000E+000,0.00000E+000,0.00000E+000,0.00000E+000,0.00000E+000,0.00000E+000,1.00000E+000,0.00000E+000,0.00000E+000,0.00000E+000,1.00000E+000,0.00000E+000,0.00000E+000,0.00000E+000,1.00000E+000,0
799,1327,-8.75594E+000,-4.16875E-002,-5.64900E-002,0.00000E+000,0.00000E+000,0.00000E+000,0.00000E+000,1.10311E-002,5.60338E-001,0,0.00000E+000,0.00000E+000,-1.00000E+000,-4.43684E+001,-3.77616E+001,9.99325E-001,0.00000E+000,0.00000E+000,0.00000E+000,0.00000E+000,0.00000E+000,0.00000E+000,0.00000E+000,1.00000E+000,0.00000E+000,0.00000E+000,0.00000E+000,1.00000E+000,0.00000E+000,0.00000E+000,0.00000E+000,1.00000E+000,0
1059,1327,8.21753E+000,1.18858E-001,2.09586E-002,0.00000E+000,0.00000E+000,0.00000E+000,0.00000E+000,9.30790E-003,4.57674E-001,0,0.00000E+000,0.00000E+000,-1.00000E+000,-4.24062E+001,-3.31806E+001,9.99209E-001,0.00000E+000,0.00000E+000,0.00000E+000,0.00000E+000,0.00000E+000,0.00000E+000,0.00000E+000,1.00000E+000,0.00000E+000,0.00000E+000,0.00000E+000,1.00000E+000,0.00000E+000,0.00000E+000,0.00000E+000,1.00000E+000,0
1059,1337,8.23522E+000,7.67570E-001,3.02033E-002,0.00000E+000,0.00000E+000,0.00000E+000,0.00000E+000,7.48185E-003,4.60894E-001,0,0.00000E+000,0.00000E+000,-1.00000E+000,-4.20186E+001,-3.31686E+001,9.99552E-001,0.00000E+000,0.00000E+000,0.00000E+000,0.00000E+000,0.00000E+000,0.00000E+000,0.00000E+000,1.00000E+000,0.00000E+000,0.00000E+000,0.00000E+000,1.00000E+000,0.00000E+000,0.00000E+000,0.00000E+000,1.00000E+000,0
1059,1347,8.26074E+000,1.42081E+000,7.25467E-002,0.00000E+000,0.00000E+000,0.00000E+000,0.00000E+000,1.20901E-002,4.44351E-001,0,0.00000E+000,0.00000E+000,-1.00000E+000,-4.14427E+001,-3.31733E+001,9.99149E-001,0.00000E+000,0.00000E+000,0.00000E+000,0.00000E+000,0.00000E+000,0.00000E+000,0.00000E+000,1.00000E+000,0.00000E+000,0.00000E+000,0.00000E+000,1.00000E+000,0.00000E+000,0.00000E+000,0.00000E+000,1.00000E+000,0
1059,1297,8.18745E+000,-1.81271E+000,9.03950E-002,0.00000E+000,0.00000E+000,0.00000E+000,0.00000E+000,6.45641E-003,4.26347E-001,0,0.00000E+000,0.00000E+000,-1.00000E+000,-4.30158E+001,-3.32279E+001,9.99212E-001,0.00000E+000,0.00000E+000,0.00000E+000,0.00000E+000,0.00000E+000,0.00000E+000,0.00000E+000,1.00000E+000,0.00000E+000,0.00000E+000,0.00000E+000,1.00000E+000,0.00000E+000,0.00000E+000,0.00000E+000,1.00000E+000,0
1059,1307,8.19606E+000,-1.17135E+000,6.14220E-002,0.00000E+000,0.00000E+000,0.00000E+000,0.00000E+000,1.08268E-002,3.90334E-001,0,0.00000E+000,0.00000E+000,-1.00000E+000,-4.28464E+001,-3.32592E+001,9.99093E-001,0.00000E+000,0.00000E+000,0.00000E+000,0.00000E+000,0.00000E+000,0.00000E+000,0.00000E+000,1.00000E+000,0.00000E+000,0.00000E+000,0.00000E+000,1.00000E+000,0.00000E+000,0.00000E+000,0.00000E+000,1.00000E+000,0
1059,1317,8.20533E+000,-5.27576E-001,3.50782E-002,0.00000E+000,0.00000E+000,0.00000E+000,0.00000E+000,1.18705E-002,4.12803E-001,0,0.00000E+000,0.00000E+000,-1.00000E+000,-4.26613E+001,-3.32317E+001,9.98472E-001,0.00000E+000,0.00000E+000,0.00000E+000,0.00000E+000,0.00000E+000,0.00000E+000,0.00000E+000,1.00000E+000,0.00000E+000,0.00000E+000,0.00000E+000,1.00000E+000,0.00000E+000,0.00000E+000,0.00000E+000,1.00000E+000,0
799,1307,-8.76544E+000,-1.31259E+000,2.11847E-002,0.00000E+000,0.00000E+000,0.00000E+000,0.00000E+000,9.01671E-003,5.56583E-001,0,0.00000E+000,0.00000E+000,-1.00000E+000,-4.45832E+001,-3.75071E+001,9.99487E-001,0.00000E+000,0.00000E+000,0.00000E+000,0.00000E+000,0.00000E+000,0.00000E+000,0.00000E+000,1.00000E+000,0.00000E+000,0.00000E+000,0.00000E+000,1.00000E+000,0.00000E+000,0.00000E+000,0.00000E+000,1.00000E+000,0
799,1317,-8.76446E+000,-6.79416E-001,-3.68422E-002,0.00000E+000,0.00000E+000,0.00000E+000,0.00000E+000,1.12447E-002,5.74891E-001,0,0.00000E+000,0.00000E+000,-1.00000E+000,-4.45838E+001,-3.76197E+001,9.99039E-001,0.00000E+000,0.00000E+000,0.00000E+000,0.00000E+000,0.00000E+000,0.00000E+000,0.00000E+000,1.00000E+000,0.00000E+000,0.00000E+000,0.00000E+000,1.00000E+000,0.00000E+000,0.00000E+000,0.00000E+000,1.00000E+000,0
789,1327,-9.40326E+000,-4.84832E-002,-6.17267E-002,0.00000E+000,0.00000E+000,0.00000E+000,0.00000E+000,8.81727E-003,5.48698E-001,0,0.00000E+000,0.00000E+000,-1.00000E+000,-4.43183E+001,-3.79516E+001,9.99422E-001,0.00000E+000,0.00000E+000,0.00000E+000,0.00000E+000,0.00000E+000,0.00000E+000,0.00000E+000,1.00000E+000,0.00000E+000,0.00000E+000,0.00000E+000,1.00000E+000,0.00000E+000,0.00000E+000,0.00000E+000,1.00000E+000,0
789,1337,-9.38820E+000,5.94724E-001,-4.76551E-002,0.00000E+000,0.00000E+000,0.00000E+000,0.00000E+000,4.47187E-003,5.52624E-001,0,0.00000E+000,0.00000E+000,-1.00000E+000,-4.39130E+001,-3.80768E+001,9.99743E-001,0.00000E+000,0.00000E+000,0.00000E+000,0.00000E+000,0.00000E+000,0.00000E+000,0.00000E+000,1.00000E+000,0.00000E+000,0.00000E+000,0.00000E+000,1.00000E+000,0.00000E+000,0.00000E+000,0.00000E+000,1.00000E+000,0
789,1347,-9.36944E+000,1.24120E+000,-1.47414E-002,0.00000E+000,0.00000E+000,0.00000E+000,0.00000E+000,5.09095E-003,5.63160E-001,0,0.00000E+000,0.00000E+000,-1.00000E+000,-4.34016E+001,-3.81935E+001,9.99613E-001,0.00000E+000,0.00000E+000,0.00000E+000,0.00000E+000,0.00000E+000,0.00000E+000,0.00000E+000,1.00000E+000,0.00000E+000,0.00000E+000,0.00000E+000,1.00000E+000,0.00000E+000,0.00000E+000,0.00000E+000,1.00000E+000,0
789,1357,-9.34288E+000,1.89350E+000,5.79680E-002,0.00000E+000,0.00000E+000,0.00000E+000,0.00000E+000,5.26054E-003,5.59673E-001,0,0.00000E+000,0.00000E+000,-1.00000E+000,-4.26665E+001,-3.83200E+001,9.99446E-001,0.00000E+000,0.00000E+000,0.00000E+000,0.00000E+000,0.00000E+000,0.00000E+000,0.00000E+000,1.00000E+000,0.00000E+000,0.00000E+000,0.00000E+000,1.00000E+000,0.00000E+000,0.00000E+000,0.00000E+000,1.00000E+000,0
1069,1327,8.87516E+000,1.25540E-001,1.81131E-002,0.00000E+000,0.00000E+000,0.00000E+000,0.00000E+000,1.08545E-002,4.88488E-001,0,0.00000E+000,0.00000E+000,-1.00000E+000,-4.22231E+001,-3.29680E+001,9.98824E-001,0.00000E+000,0.00000E+000,0.00000E+000,0.00000E+000,0.00000E+000,0.00000E+000,0.00000E+000,1.00000E+000,0.00000E+000,0.00000E+000,0.00000E+000,1.00000E+000,0.00000E+000,0.00000E+000,0.00000E+000,1.00000E+000,0
1069,1337,8.89208E+000,7.72416E-001,2.36980E-002,0.00000E+000,0.00000E+000,0.00000E+000,0.00000E+000,6.73561E-003,4.44463E-001,0,0.00000E+000,0.00000E+000,-1.00000E+000,-4.18565E+001,-3.29984E+001,9.99223E-001,0.00000E+000,0.00000E+000,0.00000E+000,0.00000E+000,0.00000E+000,0.00000E+000,0.00000E+000,1.00000E+000,0.00000E+000,0.00000E+000,0.00000E+000,1.00000E+000,0.00000E+000,0.00000E+000,0.00000E+000,1.00000E+000,0
1069,1347,8.91596E+000,1.42557E+000,5.82785E-002,0.00000E+000,0.00000E+000,0.00000E+000,0.00000E+000,6.76004E-003,4.53818E-001,0,0.00000E+000,0.00000E+000,-1.00000E+000,-4.13241E+001,-3.29727E+001,9.99406E-001,0.00000E+000,0.00000E+000,0.00000E+000,0.00000E+000,0.00000E+000,0.00000E+000,0.00000E+000,1.00000E+000,0.00000E+000,0.00000E+000,0.00000E+000,1.00000E+000,0.00000E+000,0.00000E+000,0.00000E+000,1.00000E+000,0
789,1307,-9.41296E+000,-1.31876E+000,1.43266E-002,0.00000E+000,0.00000E+000,0.00000E+000,0.00000E+000,1.11702E-002,5.57375E-001,0,0.00000E+000,0.00000E+000,-1.00000E+000,-4.45416E+001,-3.76746E+001,9.98306E-001,0.00000E+000,0.00000E+000,0.00000E+000,0.00000E+000,0.00000E+000,0.00000E+000,0.00000E+000,1.00000E+000,0.00000E+000,0.00000E+000,0.00000E+000,1.00000E+000,0.00000E+000,0.00000E+000,0.00000E+000,1.00000E+000,0
789,1317,-9.40920E+000,-6.84560E-001,-2.92862E-002,0.00000E+000,0.00000E+000,0.00000E+000,0.00000E+000,1.26549E-002,5.50704E-001,0,0.00000E+000,0.00000E+000,-1.00000E+000,-4.44614E+001,-3.78161E+001,9.97999E-001,0.00000E+000,0.00000E+000,0.00000E+000,0.00000E+000,0.00000E+000,0.00000E+000,0.00000E+000,1.00000E+000,0.00000E+000,0.00000E+000,0.00000E+000,1.00000E+000,0.00000E+000,0.00000E+000,0.00000E+000,1.00000E+000,0
1069,1297,8.84171E+000,-1.80939E+000,7.45725E-002,0.00000E+000,0.00000E+000,0.00000E+000,0.00000E+000,6.36176E-003,4.30705E-001,0,0.00000E+000,0.00000E+000,-1.00000E+000,-4.29079E+001,-3.30584E+001,9.99359E-001,0.00000E+000,0.00000E+000,0.00000E+000,0.00000E+000,0.00000E+000,0.00000E+000,0.00000E+000,1.00000E+000,0.00000E+000,0.00000E+000,0.00000E+000,1.00000E+000,0.00000E+000,0.00000E+000,0.00000E+000,1.00000E+000,0
1069,1307,8.84921E+000,-1.16870E+000,4.06512E-002,0.00000E+000,0.00000E+000,0.00000E+000,0.00000E+000,7.86840E-003,3.89535E-001,0,0.00000E+000,0.00000E+000,-1.00000E+000,-4.27665E+001,-3.30901E+001,9.99095E-001,0.00000E+000,0.00000E+000,0.00000E+000,0.00000E+000,0.00000E+000,0.00000E+000,0.00000E+000,1.00000E+000,0.00000E+000,0.00000E+000,0.00000E+000,1.00000E+000,0.00000E+000,0.00000E+000,0.00000E+000,1.00000E+000,0
1069,1317,8.86207E+000,-5.21728E-001,2.89056E-002,0.00000E+000,0.00000E+000,0.00000E+000,0.00000E+000,1.00351E-002,4.39721E-001,0,0.00000E+000,0.00000E+000,-1.00000E+000,-4.24975E+001,-3.30285E+001,9.98832E-001,0.00000E+000,0.00000E+000,0.00000E+000,0.00000E+000,0.00000E+000,0.00000E+000,0.00000E+000,1.00000E+000,0.00000E+000,0.00000E+000,0.00000E+000,1.00000E+000,0.00000E+000,0.00000E+000,0.00000E+000,1.00000E+000,0
779,1327,-1.00492E+001,-5.26597E-002,-6.20988E-002,0.00000E+000,0.00000E+000,0.00000E+000,0.00000E+000,1.45650E-002,5.95611E-001,0,0.00000E+000,0.00000E+000,-1.00000E+000,-4.42299E+001,-3.80826E+001,9.99160E-001,0.00000E+000,0.00000E+000,0.00000E+000,0.00000E+000,0.00000E+000,0.00000E+000,0.00000E+000,1.00000E+000,0.00000E+000,0.00000E+000,0.00000E+000,1.00000E+000,0.00000E+000,0.00000E+000,0.00000E+000,1.00000E+000,0
779,1337,-1.00346E+001,5.89222E-001,-4.96846E-002,0.00000E+000,0.00000E+000,0.00000E+000,0.00000E+000,4.84900E-003,5.72894E-001,0,0.00000E+000,0.00000E+000,-1.00000E+000,-4.38347E+001,-3.82395E+001,9.99582E-001,0.00000E+000,0.00000E+000,0.00000E+000,0.00000E+000,0.00000E+000,0.00000E+000,0.00000E+000,1.00000E+000,0.00000E+000,0.00000E+000,0.00000E+000,1.00000E+000,0.00000E+000,0.00000E+000,0.00000E+000,1.00000E+000,0
779,1347,-1.00154E+001,1.23475E+000,-1.38327E-002,0.00000E+000,0.00000E+000,0.00000E+000,0.00000E+000,5.35107E-003,5.47737E-001,0,0.00000E+000,0.00000E+000,-1.00000E+000,-4.33076E+001,-3.83965E+001,9.99533E-001,0.00000E+000,0.00000E+000,0.00000E+000,0.00000E+000,0.00000E+000,0.00000E+000,0.00000E+000,1.00000E+000,0.00000E+000,0.00000E+000,0.00000E+000,1.00000E+000,0.00000E+000,0.00000E+000,0.00000E+000,1.00000E+000,0
779,1357,-9.98983E+000,1.88662E+000,5.51087E-002,0.00000E+000,0.00000E+000,0.00000E+000,0.00000E+000,3.97483E-003,5.55258E-001,0,0.00000E+000,0.00000E+000,-1.00000E+000,-4.25940E+001,-3.85176E+001,9.99648E-001,0.00000E+000,0.00000E+000,0.00000E+000,0.00000E+000,0.00000E+000,0.00000E+000,0.00000E+000,1.00000E+000,0.00000E+000,0.00000E+000,0.00000E+000,1.00000E+000,0.00000E+000,0.00000E+000,0.00000E+000,1.00000E+000,0
779,1317,-1.00549E+001,-6.90391E-001,-2.88177E-002,0.00000E+000,0.00000E+000,0.00000E+000,0.00000E+000,1.68963E-002,5.35979E-001,0,0.00000E+000,0.00000E+000,-1.00000E+000,-4.43688E+001,-3.80032E+001,9.98889E-001,0.00000E+000,0.00000E+000,0.00000E+000,0.00000E+000,0.00000E+000,0.00000E+000,0.00000E+000,1.00000E+000,0.00000E+000,0.00000E+000,0.00000E+000,1.00000E+000,0.00000E+000,0.00000E+000,0.00000E+000,1.00000E+000,0
1079,1337,9.55009E+000,7.78832E-001,2.00246E-002,0.00000E+000,0.00000E+000,0.00000E+000,0.00000E+000,7.01793E-003,4.63134E-001,0,0.00000E+000,0.00000E+000,-1.00000E+000,-4.16674E+001,-3.27927E+001,9.99553E-001,0.00000E+000,0.00000E+000,0.00000E+000,0.00000E+000,0.00000E+000,0.00000E+000,0.00000E+000,1.00000E+000,0.00000E+000,0.00000E+000,0.00000E+000,1.00000E+000,0.00000E+000,0.00000E+000,0.00000E+000,1.00000E+000,0
1079,1347,9.57424E+000,1.43217E+000,5.50012E-002,0.00000E+000,0.00000E+000,0.00000E+000,0.00000E+000,4.46766E-003,4.69176E-001,0,0.00000E+000,0.00000E+000,-1.00000E+000,-4.11324E+001,-3.27651E+001,9.99771E-001,0.00000E+000,0.00000E+000,0.00000E+000,0.00000E+000,0.00000E+000,0.00000E+000,0.00000E+000,1.00000E+000,0.00000E+000,0.00000E+000,0.00000E+000,1.00000E+000,0.00000E+000,0.00000E+000,0.00000E+000,1.00000E+000,0
1079,1297,9.50023E+000,-1.80348E+000,7.47030E-002,0.00000E+000,0.00000E+000,0.00000E+000,0.00000E+000,6.81034E-003,4.45599E-001,0,0.00000E+000,0.00000E+000,-1.00000E+000,-4.26984E+001,-3.28769E+001,9.99431E-001,0.00000E+000,0.00000E+000,0.00000E+000,0.00000E+000,0.00000E+000,0.00000E+000,0.00000E+000,1.00000E+000,0.00000E+000,0.00000E+000,0.00000E+000,1.00000E+000,0.00000E+000,0.00000E+000,0.00000E+000,1.00000E+000,0
1079,1307,9.50637E+000,-1.16276E+000,3.47792E-002,0.00000E+000,0.00000E+000,0.00000E+000,0.00000E+000,7.96059E-003,4.24161E-001,0,0.00000E+000,0.00000E+000,-1.00000E+000,-4.25907E+001,-3.28842E+001,9.99250E-001,0.00000E+000,0.00000E+000,0.00000E+000,0.00000E+000,0.00000E+000,0.00000E+000,0.00000E+000,1.00000E+000,0.00000E+000,0.00000E+000,0.00000E+000,1.00000E+000,0.00000E+000,0.00000E+000,0.00000E+000,1.00000E+000,0
1079,1327,9.53354E+000,1.31719E-001,1.65262E-002,0.00000E+000,0.00000E+000,0.00000E+000,0.00000E+000,8.75344E-003,4.97553E-001,0,0.00000E+000,0.00000E+000,-1.00000E+000,-4.20226E+001,-3.27768E+001,9.99524E-001,0.00000E+000,0.00000E+000,0.00000E+000,0.00000E+000,0.00000E+000,0.00000E+000,0.00000E+000,1.00000E+000,0.00000E+000,0.00000E+000,0.00000E+000,1.00000E+000,0.00000E+000,0.00000E+000,0.00000E+000,1.00000E+000,0
1079,1317,9.51917E+000,-5.15430E-001,2.23056E-002,0.00000E+000,0.00000E+000,0.00000E+000,0.00000E+000,8.40940E-003,4.81941E-001,0,0.00000E+000,0.00000E+000,-1.00000E+000,-4.23255E+001,-3.28099E+001,9.99268E-001,0.00000E+000,0.00000E+000,0.00000E+000,0.00000E+000,0.00000E+000,0.00000E+000,0.00000E+000,1.00000E+000,0.00000E+000,0.00000E+000,0.00000E+000,1.00000E+000,0.00000E+000,0.00000E+000,0.00000E+000,1.00000E+000,0
779,1307,-1.00584E+001,-1.32315E+000,1.58144E-002,0.00000E+000,0.00000E+000,0.00000E+000,0.00000E+000,8.58920E-003,5.76190E-001,0,0.00000E+000,0.00000E+000,-1.00000E+000,-4.44426E+001,-3.78234E+001,9.99210E-001,0.00000E+000,0.00000E+000,0.00000E+000,0.00000E+000,0.00000E+000,0.00000E+000,0.00000E+000,1.00000E+000,0.00000E+000,0.00000E+000,0.00000E+000,1.00000E+000,0.00000E+000,0.00000E+000,0.00000E+000,1.00000E+000,0
1089,1337,1.02085E+001,7.85879E-001,1.61188E-002,0.00000E+000,0.00000E+000,0.00000E+000,0.00000E+000,4.63931E-003,5.01796E-001,0,0.00000E+000,0.00000E+000,-1.00000E+000,-4.14689E+001,-3.25669E+001,9.99715E-001,0.00000E+000,0.00000E+000,0.00000E+000,0.00000E+000,0.00000E+000,0.00000E+000,0.00000E+000,1.00000E+000,0.00000E+000,0.00000E+000,0.00000E+000,1.00000E+000,0.00000E+000,0.00000E+000,0.00000E+000,1.00000E+000,0
1089,1347,1.02327E+001,1.43838E+000,5.06565E-002,0.00000E+000,0.00000E+000,0.00000E+000,0.00000E+000,5.42407E-003,4.77028E-001,0,0.00000E+000,0.00000E+000,-1.00000E+000,-4.09362E+001,-3.25649E+001,9.99522E-001,0.00000E+000,0.00000E+000,0.00000E+000,0.00000E+000,0.00000E+000,0.00000E+000,0.00000E+000,1.00000E+000,0.00000E+000,0.00000E+000,0.00000E+000,1.00000E+000,0.00000E+000,0.00000E+000,0.00000E+000,1.00000E+000,0
769,1347,-1.06618E+001,1.22845E+000,-1.69509E-002,0.00000E+000,0.00000E+000,0.00000E+000,0.00000E+000,5.07787E-003,5.54504E-001,0,0.00000E+000,0.00000E+000,-1.00000E+000,-4.32258E+001,-3.85778E+001,9.99410E-001,0.00000E+000,0.00000E+000,0.00000E+000,0.00000E+000,0.00000E+000,0.00000E+000,0.00000E+000,1.00000E+000,0.00000E+000,0.00000E+000,0.00000E+000,1.00000E+000,0.00000E+000,0.00000E+000,0.00000E+000,1.00000E+000,0
769,1357,-1.06367E+001,1.87991E+000,5.02193E-002,0.00000E+000,0.00000E+000,0.00000E+000,0.00000E+000,4.12369E-003,5.64566E-001,0,0.00000E+000,0.00000E+000,-1.00000E+000,-4.25226E+001,-3.87014E+001,9.99690E-001,0.00000E+000,0.00000E+000,0.00000E+000,0.00000E+000,0.00000E+000,0.00000E+000,0.00000E+000,1.00000E+000,0.00000E+000,0.00000E+000,0.00000E+000,1.00000E+000,0.00000E+000,0.00000E+000,0.00000E+000,1.00000E+000,0
769,1327,-1.06923E+001,-5.76380E-002,-5.02150E-002,0.00000E+000,0.00000E+000,0.00000E+000,0.00000E+000,1.17364E-002,5.62618E-001,0,0.00000E+000,0.00000E+000,-1.00000E+000,-4.40634E+001,-3.82920E+001,9.98642E-001,0.00000E+000,0.00000E+000,0.00000E+000,0.00000E+000,0.00000E+000,0.00000E+000,0.00000E+000,1.00000E+000,0.00000E+000,0.00000E+000,0.00000E+000,1.00000E+000,0.00000E+000,0.00000E+000,0.00000E+000,1.00000E+000,0
769,1337,-1.06803E+001,5.83493E-001,-5.04648E-002,0.00000E+000,0.00000E+000,0.00000E+000,0.00000E+000,5.10312E-003,5.79973E-001,0,0.00000E+000,0.00000E+000,-1.00000E+000,-4.37393E+001,-3.84151E+001,9.99418E-001,0.00000E+000,0.00000E+000,0.00000E+000,0.00000E+000,0.00000E+000,0.00000E+000,0.00000E+000,1.00000E+000,0.00000E+000,0.00000E+000,0.00000E+000,1.00000E+000,0.00000E+000,0.00000E+000,0.00000E+000,1.00000E+000,0
1089,1327,1.01902E+001,1.35182E-001,6.09479E-003,0.00000E+000,0.00000E+000,0.00000E+000,0.00000E+000,8.24189E-003,4.61796E-001,0,0.00000E+000,0.00000E+000,-1.00000E+000,-4.18625E+001,-3.26311E+001,9.99197E-001,0.00000E+000,0.00000E+000,0.00000E+000,0.00000E+000,0.00000E+000,0.00000E+000,0.00000E+000,1.00000E+000,0.00000E+000,0.00000E+000,0.00000E+000,1.00000E+000,0.00000E+000,0.00000E+000,0.00000E+000,1.00000E+000,0
1089,1317,1.01772E+001,-5.10543E-001,1.80884E-002,0.00000E+000,0.00000E+000,0.00000E+000,0.00000E+000,7.58991E-003,4.69377E-001,0,0.00000E+000,0.00000E+000,-1.00000E+000,-4.21300E+001,-3.26456E+001,9.99476E-001,0.00000E+000,0.00000E+000,0.00000E+000,0.00000E+000,0.00000E+000,0.00000E+000,0.00000E+000,1.00000E+000,0.00000E+000,0.00000E+000,0.00000E+000,1.00000E+000,0.00000E+000,0.00000E+000,0.00000E+000,1.00000E+000,0
1089,1297,1.01590E+001,-1.79688E+000,7.40166E-002,0.00000E+000,0.00000E+000,0.00000E+000,0.00000E+000,5.37222E-003,4.85057E-001,0,0.00000E+000,0.00000E+000,-1.00000E+000,-4.24828E+001,-3.26708E+001,9.99683E-001,0.00000E+000,0.00000E+000,0.00000E+000,0.00000E+000,0.00000E+000,0.00000E+000,0.00000E+000,1.00000E+000,0.00000E+000,0.00000E+000,0.00000E+000,1.00000E+000,0.00000E+000,0.00000E+000,0.00000E+000,1.00000E+000,0
1089,1307,1.01656E+001,-1.15562E+000,3.54302E-002,0.00000E+000,0.00000E+000,0.00000E+000,0.00000E+000,6.61309E-003,4.67132E-001,0,0.00000E+000,0.00000E+000,-1.00000E+000,-4.23671E+001,-3.26692E+001,9.99581E-001,0.00000E+000,0.00000E+000,0.00000E+000,0.00000E+000,0.00000E+000,0.00000E+000,0.00000E+000,1.00000E+000,0.00000E+000,0.00000E+000,0.00000E+000,1.00000E+000,0.00000E+000,0.00000E+000,0.00000E+000,1.00000E+000,0
769,1317,-1.07004E+001,-6.93459E-001,-2.94120E-002,0.00000E+000,0.00000E+000,0.00000E+000,0.00000E+000,1.49395E-002,6.10981E-001,0,0.00000E+000,0.00000E+000,-1.00000E+000,-4.42710E+001,-3.81011E+001,9.99089E-001,0.00000E+000,0.00000E+000,0.00000E+000,0.00000E+000,0.00000E+000,0.00000E+000,0.00000E+000,1.00000E+000,0.00000E+000,0.00000E+000,0.00000E+000,1.00000E+000,0.00000E+000,0.00000E+000,0.00000E+000,1.00000E+000,0
1099,1327,1.08474E+001,1.40481E-001,-3.98753E-003,0.00000E+000,0.00000E+000,0.00000E+000,0.00000E+000,6.37138E-003,4.80658E-001,0,0.00000E+000,0.00000E+000,-1.00000E+000,-4.16893E+001,-3.24306E+001,9.99237E-001,0.00000E+000,0.00000E+000,0.00000E+000,0.00000E+000,0.00000E+000,0.00000E+000,0.00000E+000,1.00000E+000,0.00000E+000,0.00000E+000,0.00000E+000,1.00000E+000,0.00000E+000,0.00000E+000,0.00000E+000,1.00000E+000,0
1099,1337,1.08676E+001,7.91619E-001,1.29747E-002,0.00000E+000,0.00000E+000,0.00000E+000,0.00000E+000,5.46063E-003,4.96045E-001,0,0.00000E+000,0.00000E+000,-1.00000E+000,-4.12559E+001,-3.23852E+001,9.99544E-001,0.00000E+000,0.00000E+000,0.00000E+000,0.00000E+000,0.00000E+000,0.00000E+000,0.00000E+000,1.00000E+000,0.00000E+000,0.00000E+000,0.00000E+000,1.00000E+000,0.00000E+000,0.00000E+000,0.00000E+000,1.00000E+000,0
1099,1347,1.08940E+001,1.44595E+000,5.58804E-002,0.00000E+000,0.00000E+000,0.00000E+000,0.00000E+000,6.00627E-003,4.82349E-001,0,0.00000E+000,0.00000E+000,-1.00000E+000,-4.06750E+001,-3.23662E+001,9.99410E-001,0.00000E+000,0.00000E+000,0.00000E+000,0.00000E+000,0.00000E+000,0.00000E+000,0.00000E+000,1.00000E+000,0.00000E+000,0.00000E+000,0.00000E+000,1.00000E+000,0.00000E+000,0.00000E+000,0.00000E+000,1.00000E+000,0
759,1347,-1.13078E+001,1.22241E+000,-2.06786E-002,0.00000E+000,0.00000E+000,0.00000E+000,0.00000E+000,3.96114E-003,5.71874E-001,0,0.00000E+000,0.00000E+000,-1.00000E+000,-4.31372E+001,-3.87482E+001,9.99566E-001,0.00000E+000,0.00000E+000,0.00000E+000,0.00000E+000,0.00000E+000,0.00000E+000,0.00000E+000,1.00000E+000,0.00000E+000,0.00000E+000,0.00000E+000,1.00000E+000,0.00000E+000,0.00000E+000,0.00000E+000,1.00000E+000,0
759,1357,-1.12833E+001,1.87330E+000,4.49409E-002,0.00000E+000,0.00000E+000,0.00000E+000,0.00000E+000,4.96561E-003,5.78230E-001,0,0.00000E+000,0.00000E+000,-1.00000E+000,-4.24433E+001,-3.88808E+001,9.99484E-001,0.00000E+000,0.00000E+000,0.00000E+000,0.00000E+000,0.00000E+000,0.00000E+000,0.00000E+000,1.00000E+000,0.00000E+000,0.00000E+000,0.00000E+000,1.00000E+000,0.00000E+000,0.00000E+000,0.00000E+000,1.00000E+000,0
1099,1297,1.08165E+001,-1.79178E+000,6.60145E-002,0.00000E+000,0.00000E+000,0.00000E+000,0.00000E+000,4.58718E-003,5.09322E-001,0,0.00000E+000,0.00000E+000,-1.00000E+000,-4.22985E+001,-3.24803E+001,9.99580E-001,0.00000E+000,0.00000E+000,0.00000E+000,0.00000E+000,0.00000E+000,0.00000E+000,0.00000E+000,1.00000E+000,0.00000E+000,0.00000E+000,0.00000E+000,1.00000E+000,0.00000E+000,0.00000E+000,0.00000E+000,1.00000E+000,0
1099,1307,1.08231E+001,-1.14989E+000,2.73184E-002,0.00000E+000,0.00000E+000,0.00000E+000,0.00000E+000,6.23954E-003,5.04309E-001,0,0.00000E+000,0.00000E+000,-1.00000E+000,-4.21831E+001,-3.24607E+001,9.99581E-001,0.00000E+000,0.00000E+000,0.00000E+000,0.00000E+000,0.00000E+000,0.00000E+000,0.00000E+000,1.00000E+000,0.00000E+000,0.00000E+000,0.00000E+000,1.00000E+000,0.00000E+000,0.00000E+000,0.00000E+000,1.00000E+000,0
1099,1317,1.08336E+001,-5.05810E-001,4.73067E-003,0.00000E+000,0.00000E+000,0.00000E+000,0.00000E+000,7.58133E-003,4.92184E-001,0,0.00000E+000,0.00000E+000,-1.00000E+000,-4.19758E+001,-3.24467E+001,9.99402E-001,0.00000E+000,0.00000E+000,0.00000E+000,0.00000E+000,0.00000E+000,0.00000E+000,0.00000E+000,1.00000E+000,0.00000E+000,0.00000E+000,0.00000E+000,1.00000E+000,0.00000E+000,0.00000E+000,0.00000E+000,1.00000E+000,0
759,1327,-1.13373E+001,-6.35751E-002,-4.96913E-002,0.00000E+000,0.00000E+000,0.00000E+000,0.00000E+000,5.60192E-003,5.50380E-001,0,0.00000E+000,0.00000E+000,-1.00000E+000,-4.39506E+001,-3.84816E+001,9.99640E-001,0.00000E+000,0.00000E+000,0.00000E+000,0.00000E+000,0.00000E+000,0.00000E+000,0.00000E+000,1.00000E+000,0.00000E+000,0.00000E+000,0.00000E+000,1.00000E+000,0.00000E+000,0.00000E+000,0.00000E+000,1.00000E+000,0
759,1337,-1.13251E+001,5.77819E-001,-4.84443E-002,0.00000E+000,0.00000E+000,0.00000E+000,0.00000E+000,3.80522E-003,5.75807E-001,0,0.00000E+000,0.00000E+000,-1.00000E+000,-4.36183E+001,-3.86016E+001,9.99627E-001,0.00000E+000,0.00000E+000,0.00000E+000,0.00000E+000,0.00000E+000,0.00000E+000,0.00000E+000,1.00000E+000,0.00000E+000,0.00000E+000,0.00000E+000,1.00000E+000,0.00000E+000,0.00000E+000,0.00000E+000,1.00000E+000,0
759,1317,-1.13443E+001,-6.99013E-001,-2.40834E-002,0.00000E+000,0.00000E+000,0.00000E+000,0.00000E+000,9.37832E-003,5.82640E-001,0,0.00000E+000,0.00000E+000,-1.00000E+000,-4.41310E+001,-3.83013E+001,9.99423E-001,0.00000E+000,0.00000E+000,0.00000E+000,0.00000E+000,0.00000E+000,0.00000E+000,0.00000E+000,1.00000E+000,0.00000E+000,0.00000E+000,0.00000E+000,1.00000E+000,0.00000E+000,0.00000E+000,0.00000E+000,1.00000E+000,0
749,1317,-1.19867E+001,-7.02274E-001,-1.24958E-002,0.00000E+000,0.00000E+000,0.00000E+000,0.00000E+000,6.59475E-003,5.96850E-001,0,0.00000E+000,0.00000E+000,-1.00000E+000,-4.39453E+001,-3.84583E+001,9.99430E-001,0.00000E+000,0.00000E+000,0.00000E+000,0.00000E+000,0.00000E+000,0.00000E+000,0.00000E+000,1.00000E+000,0.00000E+000,0.00000E+000,0.00000E+000,1.00000E+000,0.00000E+000,0.00000E+000,0.00000E+000,1.00000E+000,0
749,1327,-1.19812E+001,-6.76017E-002,-4.62185E-002,0.00000E+000,0.00000E+000,0.00000E+000,0.00000E+000,4.80881E-003,5.83323E-001,0,0.00000E+000,0.00000E+000,-1.00000E+000,-4.38105E+001,-3.86256E+001,9.99462E-001,0.00000E+000,0.00000E+000,0.00000E+000,0.00000E+000,0.00000E+000,0.00000E+000,0.00000E+000,1.00000E+000,0.00000E+000,0.00000E+000,0.00000E+000,1.00000E+000,0.00000E+000,0.00000E+000,0.00000E+000,1.00000E+000,0
749,1337,-1.19694E+001,5.72755E-001,-4.60218E-002,0.00000E+000,0.00000E+000,0.00000E+000,0.00000E+000,3.66004E-003,5.88020E-001,0,0.00000E+000,0.00000E+000,-1.00000E+000,-4.34847E+001,-3.87715E+001,9.99699E-001,0.00000E+000,0.00000E+000,0.00000E+000,0.00000E+000,0.00000E+000,0.00000E+000,0.00000E+000,1.00000E+000,0.00000E+000,0.00000E+000,0.00000E+000,1.00000E+000,0.00000E+000,0.00000E+000,0.00000E+000,1.00000E+000,0
749,1347,-1.19530E+001,1.21614E+000,-2.19401E-002,0.00000E+000,0.00000E+000,0.00000E+000,0.00000E+000,3.91653E-003,5.70419E-001,0,0.00000E+000,0.00000E+000,-1.00000E+000,-4.30249E+001,-3.89372E+001,9.99713E-001,0.00000E+000,0.00000E+000,0.00000E+000,0.00000E+000,0.00000E+000,0.00000E+000,0.00000E+000,1.00000E+000,0.00000E+000,0.00000E+000,0.00000E+000,1.00000E+000,0.00000E+000,0.00000E+000,0.00000E+000,1.00000E+000,0
1109,1297,1.14727E+001,-1.78885E+000,5.11381E-002,0.00000E+000,0.00000E+000,0.00000E+000,0.00000E+000,4.28591E-003,4.95660E-001,0,0.00000E+000,0.00000E+000,-1.00000E+000,-4.21434E+001,-3.23280E+001,9.99524E-001,0.00000E+000,0.00000E+000,0.00000E+000,0.00000E+000,0.00000E+000,0.00000E+000,0.00000E+000,1.00000E+000,0.00000E+000,0.00000E+000,0.00000E+000,1.00000E+000,0.00000E+000,0.00000E+000,0.00000E+000,1.00000E+000,0
1109,1307,1.14793E+001,-1.14705E+000,1.22399E-002,0.00000E+000,0.00000E+000,0.00000E+000,0.00000E+000,6.29605E-003,4.82529E-001,0,0.00000E+000,0.00000E+000,-1.00000E+000,-4.20289E+001,-3.23115E+001,9.99457E-001,0.00000E+000,0.00000E+000,0.00000E+000,0.00000E+000,0.00000E+000,0.00000E+000,0.00000E+000,1.00000E+000,0.00000E+000,0.00000E+000,0.00000E+000,1.00000E+000,0.00000E+000,0.00000E+000,0.00000E+000,1.00000E+000,0
1109,1317,1.14897E+001,-5.02629E-001,-1.10805E-002,0.00000E+000,0.00000E+000,0.00000E+000,0.00000E+000,6.10956E-003,4.77271E-001,0,0.00000E+000,0.00000E+000,-1.00000E+000,-4.18254E+001,-3.22854E+001,9.99450E-001,0.00000E+000,0.00000E+000,0.00000E+000,0.00000E+000,0.00000E+000,0.00000E+000,0.00000E+000,1.00000E+000,0.00000E+000,0.00000E+000,0.00000E+000,1.00000E+000,0.00000E+000,0.00000E+000,0.00000E+000,1.00000E+000,0
749,1357,-1.19289E+001,1.86623E+000,4.21744E-002,0.00000E+000,0.00000E+000,0.00000E+000,0.00000E+000,5.25756E-003,5.65895E-001,0,0.00000E+000,0.00000E+000,-1.00000E+000,-4.23401E+001,-3.90858E+001,9.99647E-001,0.00000E+000,0.00000E+000,0.00000E+000,0.00000E+000,0.00000E+000,0.00000E+000,0.00000E+000,1.00000E+000,0.00000E+000,0.00000E+000,0.00000E+000,1.00000E+000,0.00000E+000,0.00000E+000,0.00000E+000,1.00000E+000,0
1109,1327,1.15049E+001,1.44764E-001,-1.46455E-002,0.00000E+000,0.00000E+000,0.00000E+000,0.00000E+000,4.53875E-003,4.70165E-001,0,0.00000E+000,0.00000E+000,-1.00000E+000,-4.15091E+001,-3.22593E+001,9.99502E-001,0.00000E+000,0.00000E+000,0.00000E+000,0.00000E+000,0.00000E+000,0.00000E+000,0.00000E+000,1.00000E+000,0.00000E+000,0.00000E+000,0.00000E+000,1.00000E+000,0.00000E+000,0.00000E+000,0.00000E+000,1.00000E+000,0
1109,1337,1.15255E+001,7.96520E-001,3.57466E-003,0.00000E+000,0.00000E+000,0.00000E+000,0.00000E+000,6.35865E-003,4.92122E-001,0,0.00000E+000,0.00000E+000,-1.00000E+000,-4.10681E+001,-3.22020E+001,9.99469E-001,0.00000E+000,0.00000E+000,0.00000E+000,0.00000E+000,0.00000E+000,0.00000E+000,0.00000E+000,1.00000E+000,0.00000E+000,0.00000E+000,0.00000E+000,1.00000E+000,0.00000E+000,0.00000E+000,0.00000E+000,1.00000E+000,0
1109,1347,1.15555E+001,1.45339E+000,6.03920E-002,0.00000E+000,0.00000E+000,0.00000E+000,0.00000E+000,6.41820E-003,4.86340E-001,0,0.00000E+000,0.00000E+000,-1.00000E+000,-4.04072E+001,-3.21687E+001,9.99419E-001,0.00000E+000,0.00000E+000,0.00000E+000,0.00000E+000,0.00000E+000,0.00000E+000,0.00000E+000,1.00000E+000,0.00000E+000,0.00000E+000,0.00000E+000,1.00000E+000,0.00000E+000,0.00000E+000,0.00000E+000,1.00000E+000,0
739,1337,-1.26134E+001,5.66994E-001,-4.43500E-002,0.00000E+000,0.00000E+000,0.00000E+000,0.00000E+000,4.06663E-003,5.81757E-001,0,0.00000E+000,0.00000E+000,-1.00000E+000,-4.33455E+001,-3.89597E+001,9.99668E-001,0.00000E+000,0.00000E+000,0.00000E+000,0.00000E+000,0.00000E+000,0.00000E+000,0.00000E+000,1.00000E+000,0.00000E+000,0.00000E+000,0.00000E+000,1.00000E+000,0.00000E+000,0.00000E+000,0.00000E+000,1.00000E+000,0
739,1347,-1.25974E+001,1.21006E+000,-2.18507E-002,0.00000E+000,0.00000E+000,0.00000E+000,0.00000E+000,4.20102E-003,5.68036E-001,0,0.00000E+000,0.00000E+000,-1.00000E+000,-4.28949E+001,-3.91268E+001,9.99682E-001,0.00000E+000,0.00000E+000,0.00000E+000,0.00000E+000,0.00000E+000,0.00000E+000,0.00000E+000,1.00000E+000,0.00000E+000,0.00000E+000,0.00000E+000,1.00000E+000,0.00000E+000,0.00000E+000,0.00000E+000,1.00000E+000,0
739,1357,-1.25740E+001,1.85950E+000,4.03043E-002,0.00000E+000,0.00000E+000,0.00000E+000,0.00000E+000,3.78772E-003,5.59186E-001,0,0.00000E+000,0.00000E+000,-1.00000E+000,-4.22217E+001,-3.92849E+001,9.99738E-001,0.00000E+000,0.00000E+000,0.00000E+000,0.00000E+000,0.00000E+000,0.00000E+000,0.00000E+000,1.00000E+000,0.00000E+000,0.00000E+000,0.00000E+000,1.00000E+000,0.00000E+000,0.00000E+000,0.00000E+000,1.00000E+000,0
739,1327,-1.26251E+001,-7.33866E-002,-4.43635E-002,0.00000E+000,0.00000E+000,0.00000E+000,0.00000E+000,6.13209E-003,5.68940E-001,0,0.00000E+000,0.00000E+000,-1.00000E+000,-4.36700E+001,-3.88170E+001,9.99529E-001,0.00000E+000,0.00000E+000,0.00000E+000,0.00000E+000,0.00000E+000,0.00000E+000,0.00000E+000,1.00000E+000,0.00000E+000,0.00000E+000,0.00000E+000,1.00000E+000,0.00000E+000,0.00000E+000,0.00000E+000,1.00000E+000,0
1119,1297,1.21293E+001,-1.78572E+000,3.59807E-002,0.00000E+000,0.00000E+000,0.00000E+000,0.00000E+000,5.18046E-003,4.88944E-001,0,0.00000E+000,0.00000E+000,-1.00000E+000,-4.19792E+001,-3.21689E+001,9.99670E-001,0.00000E+000,0.00000E+000,0.00000E+000,0.00000E+000,0.00000E+000,0.00000E+000,0.00000E+000,1.00000E+000,0.00000E+000,0.00000E+000,0.00000E+000,1.00000E+000,0.00000E+000,0.00000E+000,0.00000E+000,1.00000E+000,0
1119,1307,1.21374E+001,-1.14281E+000,2.72781E-003,0.00000E+000,0.00000E+000,0.00000E+000,0.00000E+000,3.91863E-003,4.78862E-001,0,0.00000E+000,0.00000E+000,-1.00000E+000,-4.18322E+001,-3.21435E+001,9.99802E-001,0.00000E+000,0.00000E+000,0.00000E+000,0.00000E+000,0.00000E+000,0.00000E+000,0.00000E+000,1.00000E+000,0.00000E+000,0.00000E+000,0.00000E+000,1.00000E+000,0.00000E+000,0.00000E+000,0.00000E+000,1.00000E+000,0
1119,1317,1.21486E+001,-4.98139E-001,-1.74556E-002,0.00000E+000,0.00000E+000,0.00000E+000,0.00000E+000,4.27875E-003,4.60441E-001,0,0.00000E+000,0.00000E+000,-1.00000E+000,-4.16107E+001,-3.21251E+001,9.99711E-001,0.00000E+000,0.00000E+000,0.00000E+000,0.00000E+000,0.00000E+000,0.00000E+000,0.00000E+000,1.00000E+000,0.00000E+000,0.00000E+000,0.00000E+000,1.00000E+000,0.00000E+000,0.00000E+000,0.00000E+000,1.00000E+000,0
1119,1327,1.21647E+001,1.49695E-001,-1.79529E-002,0.00000E+000,0.00000E+000,0.00000E+000,0.00000E+000,4.22176E-003,4.46253E-001,0,0.00000E+000,0.00000E+000,-1.00000E+000,-4.12766E+001,-3.21007E+001,9.99624E-001,0.00000E+000,0.00000E+000,0.00000E+000,0.00000E+000,0.00000E+000,0.00000E+000,0.00000E+000,1.00000E+000,0.00000E+000,0.00000E+000,0.00000E+000,1.00000E+000,0.00000E+000,0.00000E+000,0.00000E+000,1.00000E+000,0
1119,1337,1.21861E+001,8.02380E-001,2.83708E-003,0.00000E+000,0.00000E+000,0.00000E+000,0.00000E+000,5.78822E-003,4.78017E-001,0,0.00000E+000,0.00000E+000,-1.00000E+000,-4.08204E+001,-3.20281E+001,9.99389E-001,0.00000E+000,0.00000E+000,0.00000E+000,0.00000E+000,0.00000E+000,0.00000E+000,0.00000E+000,1.00000E+000,0.00000E+000,0.00000E+000,0.00000E+000,1.00000E+000,0.00000E+000,0.00000E+000,0.00000E+000,1.00000E+000,0
1119,1347,1.22156E+001,1.45859E+000,5.67436E-002,0.00000E+000,0.00000E+000,0.00000E+000,0.00000E+000,7.42509E-003,4.57490E-001,0,0.00000E+000,0.00000E+000,-1.00000E+000,-4.01758E+001,-3.20045E+001,9.99500E-001,0.00000E+000,0.00000E+000,0.00000E+000,0.00000E+000,0.00000E+000,0.00000E+000,0.00000E+000,1.00000E+000,0.00000E+000,0.00000E+000,0.00000E+000,1.00000E+000,0.00000E+000,0.00000E+000,0.00000E+000,1.00000E+000,0
739,1317,-1.26302E+001,-7.07316E-001,-9.13669E-003,0.00000E+000,0.00000E+000,0.00000E+000,0.00000E+000,6.24377E-003,5.92147E-001,0,0.00000E+000,0.00000E+000,-1.00000E+000,-4.37960E+001,-3.86348E+001,9.99580E-001,0.00000E+000,0.00000E+000,0.00000E+000,0.00000E+000,0.00000E+000,0.00000E+000,0.00000E+000,1.00000E+000,0.00000E+000,0.00000E+000,0.00000E+000,1.00000E+000,0.00000E+000,0.00000E+000,0.00000E+000,1.00000E+000,0
1129,1297,1.27875E+001,-1.78204E+000,2.56308E-002,0.00000E+000,0.00000E+000,0.00000E+000,0.00000E+000,8.33613E-003,4.78028E-001,0,0.00000E+000,0.00000E+000,-1.00000E+000,-4.17771E+001,-3.20132E+001,9.99369E-001,0.00000E+000,0.00000E+000,0.00000E+000,0.00000E+000,0.00000E+000,0.00000E+000,0.00000E+000,1.00000E+000,0.00000E+000,0.00000E+000,0.00000E+000,1.00000E+000,0.00000E+000,0.00000E+000,0.00000E+000,1.00000E+000,0
1129,1307,1.27958E+001,-1.13898E+000,-6.91309E-003,0.00000E+000,0.00000E+000,0.00000E+000,0.00000E+000,1.27953E-002,4.62480E-001,0,0.00000E+000,0.00000E+000,-1.00000E+000,-4.16259E+001,-3.19882E+001,9.98745E-001,0.00000E+000,0.00000E+000,0.00000E+000,0.00000E+000,0.00000E+000,0.00000E+000,0.00000E+000,1.00000E+000,0.00000E+000,0.00000E+000,0.00000E+000,1.00000E+000,0.00000E+000,0.00000E+000,0.00000E+000,1.00000E+000,0
1129,1317,1.28075E+001,-4.93894E-001,-2.55210E-002,0.00000E+000,0.00000E+000,0.00000E+000,0.00000E+000,8.08006E-003,4.43152E-001,0,0.00000E+000,0.00000E+000,-1.00000E+000,-4.13950E+001,-3.19654E+001,9.98713E-001,0.00000E+000,0.00000E+000,0.00000E+000,0.00000E+000,0.00000E+000,0.00000E+000,0.00000E+000,1.00000E+000,0.00000E+000,0.00000E+000,0.00000E+000,1.00000E+000,0.00000E+000,0.00000E+000,0.00000E+000,1.00000E+000,0
729,1347,-1.32403E+001,1.20540E+000,-1.56340E-002,0.00000E+000,0.00000E+000,0.00000E+000,0.00000E+000,4.59085E-003,5.81144E-001,0,0.00000E+000,0.00000E+000,-1.00000E+000,-4.27203E+001,-3.93003E+001,9.99713E-001,0.00000E+000,0.00000E+000,0.00000E+000,0.00000E+000,0.00000E+000,0.00000E+000,0.00000E+000,1.00000E+000,0.00000E+000,0.00000E+000,0.00000E+000,1.00000E+000,0.00000E+000,0.00000E+000,0.00000E+000,1.00000E+000,0
729,1357,-1.32183E+001,1.85390E+000,4.04180E-002,0.00000E+000,0.00000E+000,0.00000E+000,0.00000E+000,4.22795E-003,5.77657E-001,0,0.00000E+000,0.00000E+000,-1.00000E+000,-4.20817E+001,-3.94585E+001,9.99734E-001,0.00000E+000,0.00000E+000,0.00000E+000,0.00000E+000,0.00000E+000,0.00000E+000,0.00000E+000,1.00000E+000,0.00000E+000,0.00000E+000,0.00000E+000,1.00000E+000,0.00000E+000,0.00000E+000,0.00000E+000,1.00000E+000,0
1129,1327,1.28232E+001,1.53295E-001,-2.82296E-002,0.00000E+000,0.00000E+000,0.00000E+000,0.00000E+000,1.04027E-002,4.11842E-001,0,0.00000E+000,0.00000E+000,-1.00000E+000,-4.10734E+001,-3.19530E+001,9.98797E-001,0.00000E+000,0.00000E+000,0.00000E+000,0.00000E+000,0.00000E+000,0.00000E+000,0.00000E+000,1.00000E+000,0.00000E+000,0.00000E+000,0.00000E+000,1.00000E+000,0.00000E+000,0.00000E+000,0.00000E+000,1.00000E+000,0
729,1337,-1.32573E+001,5.61043E-001,-4.43838E-002,0.00000E+000,0.00000E+000,0.00000E+000,0.00000E+000,4.02333E-003,5.76951E-001,0,0.00000E+000,0.00000E+000,-1.00000E+000,-4.32058E+001,-3.91466E+001,9.99712E-001,0.00000E+000,0.00000E+000,0.00000E+000,0.00000E+000,0.00000E+000,0.00000E+000,0.00000E+000,1.00000E+000,0.00000E+000,0.00000E+000,0.00000E+000,1.00000E+000,0.00000E+000,0.00000E+000,0.00000E+000,1.00000E+000,0
729,1327,-1.32681E+001,-7.73872E-002,-3.97979E-002,0.00000E+000,0.00000E+000,0.00000E+000,0.00000E+000,5.00631E-003,5.96988E-001,0,0.00000E+000,0.00000E+000,-1.00000E+000,-4.35038E+001,-3.89656E+001,9.99552E-001,0.00000E+000,0.00000E+000,0.00000E+000,0.00000E+000,0.00000E+000,0.00000E+000,0.00000E+000,1.00000E+000,0.00000E+000,0.00000E+000,0.00000E+000,1.00000E+000,0.00000E+000,0.00000E+000,0.00000E+000,1.00000E+000,0
1129,1337,1.28506E+001,8.10924E-001,1.60944E-002,0.00000E+000,0.00000E+000,0.00000E+000,0.00000E+000,9.99352E-003,4.82879E-001,0,0.00000E+000,0.00000E+000,-1.00000E+000,-4.04819E+001,-3.18338E+001,9.99025E-001,0.00000E+000,0.00000E+000,0.00000E+000,0.00000E+000,0.00000E+000,0.00000E+000,0.00000E+000,1.00000E+000,0.00000E+000,0.00000E+000,0.00000E+000,1.00000E+000,0.00000E+000,0.00000E+000,0.00000E+000,1.00000E+000,0
729,1317,-1.32745E+001,-7.12843E-001,-1.21615E-002,0.00000E+000,0.00000E+000,0.00000E+000,0.00000E+000,7.19219E-003,6.00268E-001,0,0.00000E+000,0.00000E+000,-1.00000E+000,-4.36725E+001,-3.87990E+001,9.99241E-001,0.00000E+000,0.00000E+000,0.00000E+000,0.00000E+000,0.00000E+000,0.00000E+000,0.00000E+000,1.00000E+000,0.00000E+000,0.00000E+000,0.00000E+000,1.00000E+000,0.00000E+000,0.00000E+000,0.00000E+000,1.00000E+000,0
1129,1347,1.28774E+001,1.46583E+000,5.83993E-002,0.00000E+000,0.00000E+000,0.00000E+000,0.00000E+000,9.92744E-003,4.67356E-001,0,0.00000E+000,0.00000E+000,-1.00000E+000,-3.99030E+001,-3.18011E+001,9.99148E-001,0.00000E+000,0.00000E+000,0.00000E+000,0.00000E+000,0.00000E+000,0.00000E+000,0.00000E+000,1.00000E+000,0.00000E+000,0.00000E+000,0.00000E+000,1.00000E+000,0.00000E+000,0.00000E+000,0.00000E+000,1.00000E+000,0
719,1347,-1.38843E+001,1.19926E+000,-1.71291E-002,0.00000E+000,0.00000E+000,0.00000E+000,0.00000E+000,6.00204E-003,5.83195E-001,0,0.00000E+000,0.00000E+000,-1.00000E+000,-4.25791E+001,-3.94851E+001,9.99646E-001,0.00000E+000,0.00000E+000,0.00000E+000,0.00000E+000,0.00000E+000,0.00000E+000,0.00000E+000,1.00000E+000,0.00000E+000,0.00000E+000,0.00000E+000,1.00000E+000,0.00000E+000,0.00000E+000,0.00000E+000,1.00000E+000,0
719,1357,-1.38626E+001,1.84805E+000,3.80859E-002,0.00000E+000,0.00000E+000,0.00000E+000,0.00000E+000,3.91231E-003,5.99234E-001,0,0.00000E+000,0.00000E+000,-1.00000E+000,-4.19455E+001,-3.96291E+001,9.99787E-001,0.00000E+000,0.00000E+000,0.00000E+000,0.00000E+000,0.00000E+000,0.00000E+000,0.00000E+000,1.00000E+000,0.00000E+000,0.00000E+000,0.00000E+000,1.00000E+000,0.00000E+000,0.00000E+000,0.00000E+000,1.00000E+000,0
719,1337,-1.39003E+001,5.56116E-001,-4.16217E-002,0.00000E+000,0.00000E+000,0.00000E+000,0.00000E+000,5.32580E-003,5.90558E-001,0,0.00000E+000,0.00000E+000,-1.00000E+000,-4.30402E+001,-3.93147E+001,9.99526E-001,0.00000E+000,0.00000E+000,0.00000E+000,0.00000E+000,0.00000E+000,0.00000E+000,0.00000E+000,1.00000E+000,0.00000E+000,0.00000E+000,0.00000E+000,1.00000E+000,0.00000E+000,0.00000E+000,0.00000E+000,1.00000E+000,0
719,1327,-1.39107E+001,-8.17733E-002,-3.53806E-002,0.00000E+000,0.00000E+000,0.00000E+000,0.00000E+000,3.42540E-003,6.13347E-001,0,0.00000E+000,0.00000E+000,-1.00000E+000,-4.33285E+001,-3.91257E+001,9.99622E-001,0.00000E+000,0.00000E+000,0.00000E+000,0.00000E+000,0.00000E+000,0.00000E+000,0.00000E+000,1.00000E+000,0.00000E+000,0.00000E+000,0.00000E+000,1.00000E+000,0.00000E+000,0.00000E+000,0.00000E+000,1.00000E+000,0
719,1317,-1.39160E+001,-7.16683E-001,-1.97073E-003,0.00000E+000,0.00000E+000,0.00000E+000,0.00000E+000,5.09108E-003,6.01598E-001,0,0.00000E+000,0.00000E+000,-1.00000E+000,-4.34647E+001,-3.89686E+001,9.99475E-001,0.00000E+000,0.00000E+000,0.00000E+000,0.00000E+000,0.00000E+000,0.00000E+000,0.00000E+000,1.00000E+000,0.00000E+000,0.00000E+000,0.00000E+000,1.00000E+000,0.00000E+000,0.00000E+000,0.00000E+000,1.00000E+000,0
1139,1297,1.34476E+001,-1.77868E+000,2.11204E-002,0.00000E+000,0.00000E+000,0.00000E+000,0.00000E+000,6.84734E-003,4.31168E-001,0,0.00000E+000,0.00000E+000,-1.00000E+000,-4.15314E+001,-3.18930E+001,9.99383E-001,0.00000E+000,0.00000E+000,0.00000E+000,0.00000E+000,0.00000E+000,0.00000E+000,0.00000E+000,1.00000E+000,0.00000E+000,0.00000E+000,0.00000E+000,1.00000E+000,0.00000E+000,0.00000E+000,0.00000E+000,1.00000E+000,0
1139,1307,1.34547E+001,-1.13557E+000,-1.61631E-002,0.00000E+000,0.00000E+000,0.00000E+000,0.00000E+000,9.01961E-003,4.30650E-001,0,0.00000E+000,0.00000E+000,-1.00000E+000,-4.14068E+001,-3.18479E+001,9.99128E-001,0.00000E+000,0.00000E+000,0.00000E+000,0.00000E+000,0.00000E+000,0.00000E+000,0.00000E+000,1.00000E+000,0.00000E+000,0.00000E+000,0.00000E+000,1.00000E+000,0.00000E+000,0.00000E+000,0.00000E+000,1.00000E+000,0
1139,1337,1.35118E+001,8.16853E-001,1.40859E-002,0.00000E+000,0.00000E+000,0.00000E+000,0.00000E+000,1.18056E-002,4.75496E-001,0,0.00000E+000,0.00000E+000,-1.00000E+000,-4.02200E+001,-3.16530E+001,9.98139E-001,0.00000E+000,0.00000E+000,0.00000E+000,0.00000E+000,0.00000E+000,0.00000E+000,0.00000E+000,1.00000E+000,0.00000E+000,0.00000E+000,0.00000E+000,1.00000E+000,0.00000E+000,0.00000E+000,0.00000E+000,1.00000E+000,0
1139,1347,1.35429E+001,1.47492E+000,7.28695E-002,0.00000E+000,0.00000E+000,0.00000E+000,0.00000E+000,1.07268E-002,4.74912E-001,0,0.00000E+000,0.00000E+000,-1.00000E+000,-3.95464E+001,-3.15987E+001,9.98238E-001,0.00000E+000,0.00000E+000,0.00000E+000,0.00000E+000,0.00000E+000,0.00000E+000,0.00000E+000,1.00000E+000,0.00000E+000,0.00000E+000,0.00000E+000,1.00000E+000,0.00000E+000,0.00000E+000,0.00000E+000,1.00000E+000,0
1139,1327,1.34844E+001,1.60760E-001,-2.93944E-002,0.00000E+000,0.00000E+000,0.00000E+000,0.00000E+000,1.15804E-002,4.55527E-001,0,0.00000E+000,0.00000E+000,-1.00000E+000,-4.08066E+001,-3.17262E+001,9.98138E-001,0.00000E+000,0.00000E+000,0.00000E+000,0.00000E+000,0.00000E+000,0.00000E+000,0.00000E+000,1.00000E+000,0.00000E+000,0.00000E+000,0.00000E+000,1.00000E+000,0.00000E+000,0.00000E+000,0.00000E+000,1.00000E+000,0
1139,1317,1.34655E+001,-4.90171E-001,-3.92246E-002,0.00000E+000,0.00000E+000,0.00000E+000,0.00000E+000,1.00144E-002,4.34112E-001,0,0.00000E+000,0.00000E+000,-1.00000E+000,-4.12009E+001,-3.17976E+001,9.99022E-001,0.00000E+000,0.00000E+000,0.00000E+000,0.00000E+000,0.00000E+000,0.00000E+000,0.00000E+000,1.00000E+000,0.00000E+000,0.00000E+000,0.00000E+000,1.00000E+000,0.00000E+000,0.00000E+000,0.00000E+000,1.00000E+000,0
709,1347,-1.45279E+001,1.19303E+000,-1.89843E-002,0.00000E+000,0.00000E+000,0.00000E+000,0.00000E+000,5.09395E-003,5.83996E-001,0,0.00000E+000,0.00000E+000,-1.00000E+000,-4.24300E+001,-3.96714E+001,9.99674E-001,0.00000E+000,0.00000E+000,0.00000E+000,0.00000E+000,0.00000E+000,0.00000E+000,0.00000E+000,1.00000E+000,0.00000E+000,0.00000E+000,0.00000E+000,1.00000E+000,0.00000E+000,0.00000E+000,0.00000E+000,1.00000E+000,0
709,1357,-1.45069E+001,1.84026E+000,3.31930E-002,0.00000E+000,0.00000E+000,0.00000E+000,0.00000E+000,3.71618E-003,5.72763E-001,0,0.00000E+000,0.00000E+000,-1.00000E+000,-4.18141E+001,-3.98478E+001,9.99834E-001,0.00000E+000,0.00000E+000,0.00000E+000,0.00000E+000,0.00000E+000,0.00000E+000,0.00000E+000,1.00000E+000,0.00000E+000,0.00000E+000,0.00000E+000,1.00000E+000,0.00000E+000,0.00000E+000,0.00000E+000,1.00000E+000,0
709,1337,-1.45423E+001,5.51219E-001,-3.54725E-002,0.00000E+000,0.00000E+000,0.00000E+000,0.00000E+000,4.73731E-003,5.89424E-001,0,0.00000E+000,0.00000E+000,-1.00000E+000,-4.28457E+001,-3.94970E+001,9.99548E-001,0.00000E+000,0.00000E+000,0.00000E+000,0.00000E+000,0.00000E+000,0.00000E+000,0.00000E+000,1.00000E+000,0.00000E+000,0.00000E+000,0.00000E+000,1.00000E+000,0.00000E+000,0.00000E+000,0.00000E+000,1.00000E+000,0
709,1317,-1.45562E+001,-7.19577E-001,1.27320E-002,0.00000E+000,0.00000E+000,0.00000E+000,0.00000E+000,7.01762E-003,6.11874E-001,0,0.00000E+000,0.00000E+000,-1.00000E+000,-4.32215E+001,-3.91288E+001,9.99438E-001,0.00000E+000,0.00000E+000,0.00000E+000,0.00000E+000,0.00000E+000,0.00000E+000,0.00000E+000,1.00000E+000,0.00000E+000,0.00000E+000,0.00000E+000,1.00000E+000,0.00000E+000,0.00000E+000,0.00000E+000,1.00000E+000,0
709,1327,-1.45505E+001,-8.50596E-002,-1.79355E-002,0.00000E+000,0.00000E+000,0.00000E+000,0.00000E+000,6.59712E-003,6.05148E-001,0,0.00000E+000,0.00000E+000,-1.00000E+000,-4.30704E+001,-3.93090E+001,9.99586E-001,0.00000E+000,0.00000E+000,0.00000E+000,0.00000E+000,0.00000E+000,0.00000E+000,0.00000E+000,1.00000E+000,0.00000E+000,0.00000E+000,0.00000E+000,1.00000E+000,0.00000E+000,0.00000E+000,0.00000E+000,1.00000E+000,0
1149,1297,1.41062E+001,-1.77394E+000,8.66171E-003,0.00000E+000,0.00000E+000,0.00000E+000,0.00000E+000,1.15961E-002,4.61234E-001,0,0.00000E+000,0.00000E+000,-1.00000E+000,-4.13197E+001,-3.16962E+001,9.98964E-001,0.00000E+000,0.00000E+000,0.00000E+000,0.00000E+000,0.00000E+000,0.00000E+000,0.00000E+000,1.00000E+000,0.00000E+000,0.00000E+000,0.00000E+000,1.00000E+000,0.00000E+000,0.00000E+000,0.00000E+000,1.00000E+000,0
1149,1307,1.41146E+001,-1.13084E+000,-2.36105E-002,0.00000E+000,0.00000E+000,0.00000E+000,0.00000E+000,8.33376E-003,4.31775E-001,0,0.00000E+000,0.00000E+000,-1.00000E+000,-4.11665E+001,-3.16745E+001,9.99226E-001,0.00000E+000,0.00000E+000,0.00000E+000,0.00000E+000,0.00000E+000,0.00000E+000,0.00000E+000,1.00000E+000,0.00000E+000,0.00000E+000,0.00000E+000,1.00000E+000,0.00000E+000,0.00000E+000,0.00000E+000,1.00000E+000,0
1149,1317,1.41276E+001,-4.83703E-001,-3.80297E-002,0.00000E+000,0.00000E+000,0.00000E+000,0.00000E+000,6.66873E-003,4.43190E-001,0,0.00000E+000,0.00000E+000,-1.00000E+000,-4.09107E+001,-3.16102E+001,9.99318E-001,0.00000E+000,0.00000E+000,0.00000E+000,0.00000E+000,0.00000E+000,0.00000E+000,0.00000E+000,1.00000E+000,0.00000E+000,0.00000E+000,0.00000E+000,1.00000E+000,0.00000E+000,0.00000E+000,0.00000E+000,1.00000E+000,0
1149,1327,1.41450E+001,1.64336E-001,-3.46792E-002,0.00000E+000,0.00000E+000,0.00000E+000,0.00000E+000,8.86750E-003,3.96744E-001,0,0.00000E+000,0.00000E+000,-1.00000E+000,-4.05539E+001,-3.16020E+001,9.98604E-001,0.00000E+000,0.00000E+000,0.00000E+000,0.00000E+000,0.00000E+000,0.00000E+000,0.00000E+000,1.00000E+000,0.00000E+000,0.00000E+000,0.00000E+000,1.00000E+000,0.00000E+000,0.00000E+000,0.00000E+000,1.00000E+000,0
1149,1337,1.41709E+001,8.21776E-001,2.09669E-003,0.00000E+000,0.00000E+000,0.00000E+000,0.00000E+000,1.73178E-002,4.81792E-001,0,0.00000E+000,0.00000E+000,-1.00000E+000,-4.00044E+001,-3.14592E+001,9.98236E-001,0.00000E+000,0.00000E+000,0.00000E+000,0.00000E+000,0.00000E+000,0.00000E+000,0.00000E+000,1.00000E+000,0.00000E+000,0.00000E+000,0.00000E+000,1.00000E+000,0.00000E+000,0.00000E+000,0.00000E+000,1.00000E+000,0
1149,1347,1.42061E+001,1.48298E+000,7.59834E-002,0.00000E+000,0.00000E+000,0.00000E+000,0.00000E+000,1.43616E-002,5.02064E-001,0,0.00000E+000,0.00000E+000,-1.00000E+000,-3.92437E+001,-3.13775E+001,9.98498E-001,0.00000E+000,0.00000E+000,0.00000E+000,0.00000E+000,0.00000E+000,0.00000E+000,0.00000E+000,1.00000E+000,0.00000E+000,0.00000E+000,0.00000E+000,1.00000E+000,0.00000E+000,0.00000E+000,0.00000E+000,1.00000E+000,0
699,1347,-1.51697E+001,1.18927E+000,-1.31001E-002,0.00000E+000,0.00000E+000,0.00000E+000,0.00000E+000,5.11520E-003,6.24663E-001,0,0.00000E+000,0.00000E+000,-1.00000E+000,-4.22268E+001,-3.98167E+001,9.99746E-001,0.00000E+000,0.00000E+000,0.00000E+000,0.00000E+000,0.00000E+000,0.00000E+000,0.00000E+000,1.00000E+000,0.00000E+000,0.00000E+000,0.00000E+000,1.00000E+000,0.00000E+000,0.00000E+000,0.00000E+000,1.00000E+000,0
699,1357,-1.51492E+001,1.83602E+000,3.73409E-002,0.00000E+000,0.00000E+000,0.00000E+000,0.00000E+000,3.69295E-003,6.12882E-001,0,0.00000E+000,0.00000E+000,-1.00000E+000,-4.16212E+001,-3.99989E+001,9.99836E-001,0.00000E+000,0.00000E+000,0.00000E+000,0.00000E+000,0.00000E+000,0.00000E+000,0.00000E+000,1.00000E+000,0.00000E+000,0.00000E+000,0.00000E+000,1.00000E+000,0.00000E+000,0.00000E+000,0.00000E+000,1.00000E+000,0
699,1337,-1.51842E+001,5.46294E-001,-3.06108E-002,0.00000E+000,0.00000E+000,0.00000E+000,0.00000E+000,4.66857E-003,5.92889E-001,0,0.00000E+000,0.00000E+000,-1.00000E+000,-4.26484E+001,-3.96748E+001,9.99602E-001,0.00000E+000,0.00000E+000,0.00000E+000,0.00000E+000,0.00000E+000,0.00000E+000,0.00000E+000,1.00000E+000,0.00000E+000,0.00000E+000,0.00000E+000,1.00000E+000,0.00000E+000,0.00000E+000,0.00000E+000,1.00000E+000,0
699,1317,-1.51957E+001,-7.21411E-001,2.96422E-002,0.00000E+000,0.00000E+000,0.00000E+000,0.00000E+000,1.05692E-002,6.44598E-001,0,0.00000E+000,0.00000E+000,-1.00000E+000,-4.29558E+001,-3.92662E+001,9.98992E-001,0.00000E+000,0.00000E+000,0.00000E+000,0.00000E+000,0.00000E+000,0.00000E+000,0.00000E+000,1.00000E+000,0.00000E+000,0.00000E+000,0.00000E+000,1.00000E+000,0.00000E+000,0.00000E+000,0.00000E+000,1.00000E+000,0
699,1327,-1.51916E+001,-8.68933E-002,-1.01502E-002,0.00000E+000,0.00000E+000,0.00000E+000,0.00000E+000,8.70553E-003,6.84280E-001,0,0.00000E+000,0.00000E+000,-1.00000E+000,-4.28555E+001,-3.94059E+001,9.98613E-001,0.00000E+000,0.00000E+000,0.00000E+000,0.00000E+000,0.00000E+000,0.00000E+000,0.00000E+000,1.00000E+000,0.00000E+000,0.00000E+000,0.00000E+000,1.00000E+000,0.00000E+000,0.00000E+000,0.00000E+000,1.00000E+000,0
1159,1307,1.47738E+001,-1.12674E+000,-3.59387E-002,0.00000E+000,0.00000E+000,0.00000E+000,0.00000E+000,5.96944E-003,4.33867E-001,0,0.00000E+000,0.00000E+000,-1.00000E+000,-4.09434E+001,-3.15004E+001,9.99336E-001,0.00000E+000,0.00000E+000,0.00000E+000,0.00000E+000,0.00000E+000,0.00000E+000,0.00000E+000,1.00000E+000,0.00000E+000,0.00000E+000,0.00000E+000,1.00000E+000,0.00000E+000,0.00000E+000,0.00000E+000,1.00000E+000,0
1159,1317,1.47869E+001,-4.78773E-001,-5.02612E-002,0.00000E+000,0.00000E+000,0.00000E+000,0.00000E+000,6.53805E-003,4.63896E-001,0,0.00000E+000,0.00000E+000,-1.00000E+000,-4.06865E+001,-3.14122E+001,9.99476E-001,0.00000E+000,0.00000E+000,0.00000E+000,0.00000E+000,0.00000E+000,0.00000E+000,0.00000E+000,1.00000E+000,0.00000E+000,0.00000E+000,0.00000E+000,1.00000E+000,0.00000E+000,0.00000E+000,0.00000E+000,1.00000E+000,0
1159,1327,1.48068E+001,1.71982E-001,-3.75560E-002,0.00000E+000,0.00000E+000,0.00000E+000,0.00000E+000,5.57912E-003,4.52680E-001,0,0.00000E+000,0.00000E+000,-1.00000E+000,-4.02754E+001,-3.13628E+001,9.99505E-001,0.00000E+000,0.00000E+000,0.00000E+000,0.00000E+000,0.00000E+000,0.00000E+000,0.00000E+000,1.00000E+000,0.00000E+000,0.00000E+000,0.00000E+000,1.00000E+000,0.00000E+000,0.00000E+000,0.00000E+000,1.00000E+000,0
1159,1297,1.47645E+001,-1.76979E+000,-6.68617E-003,0.00000E+000,0.00000E+000,0.00000E+000,0.00000E+000,7.79485E-003,4.85272E-001,0,0.00000E+000,0.00000E+000,-1.00000E+000,-4.11139E+001,-3.15057E+001,9.98824E-001,0.00000E+000,0.00000E+000,0.00000E+000,0.00000E+000,0.00000E+000,0.00000E+000,0.00000E+000,1.00000E+000,0.00000E+000,0.00000E+000,0.00000E+000,1.00000E+000,0.00000E+000,0.00000E+000,0.00000E+000,1.00000E+000,0
1159,1337,1.48364E+001,8.29910E-001,1.31117E-002,0.00000E+000,0.00000E+000,0.00000E+000,0.00000E+000,9.18782E-003,4.82352E-001,0,0.00000E+000,0.00000E+000,-1.00000E+000,-3.96467E+001,-3.12689E+001,9.99646E-001,0.00000E+000,0.00000E+000,0.00000E+000,0.00000E+000,0.00000E+000,0.00000E+000,0.00000E+000,1.00000E+000,0.00000E+000,0.00000E+000,0.00000E+000,1.00000E+000,0.00000E+000,0.00000E+000,0.00000E+000,1.00000E+000,0
1159,1347,1.48690E+001,1.48827E+000,7.61890E-002,0.00000E+000,0.00000E+000,0.00000E+000,0.00000E+000,8.06814E-003,4.56312E-001,0,0.00000E+000,0.00000E+000,-1.00000E+000,-3.89479E+001,-3.12292E+001,9.99549E-001,0.00000E+000,0.00000E+000,0.00000E+000,0.00000E+000,0.00000E+000,0.00000E+000,0.00000E+000,1.00000E+000,0.00000E+000,0.00000E+000,0.00000E+000,1.00000E+000,0.00000E+000,0.00000E+000,0.00000E+000,1.00000E+000,0
689,1347,-1.58106E+001,1.18562E+000,-4.71586E-003,0.00000E+000,0.00000E+000,0.00000E+000,0.00000E+000,6.84489E-003,6.57126E-001,0,0.00000E+000,0.00000E+000,-1.00000E+000,-4.19998E+001,-3.99700E+001,9.99494E-001,0.00000E+000,0.00000E+000,0.00000E+000,0.00000E+000,0.00000E+000,0.00000E+000,0.00000E+000,1.00000E+000,0.00000E+000,0.00000E+000,0.00000E+000,1.00000E+000,0.00000E+000,0.00000E+000,0.00000E+000,1.00000E+000,0
689,1357,-1.57925E+001,1.82987E+000,3.39655E-002,0.00000E+000,0.00000E+000,0.00000E+000,0.00000E+000,4.75018E-003,6.28933E-001,0,0.00000E+000,0.00000E+000,-1.00000E+000,-4.14608E+001,-4.01747E+001,9.99777E-001,0.00000E+000,0.00000E+000,0.00000E+000,0.00000E+000,0.00000E+000,0.00000E+000,0.00000E+000,1.00000E+000,0.00000E+000,0.00000E+000,0.00000E+000,1.00000E+000,0.00000E+000,0.00000E+000,0.00000E+000,1.00000E+000,0
689,1337,-1.58259E+001,5.41225E-001,-2.75323E-002,0.00000E+000,0.00000E+000,0.00000E+000,0.00000E+000,6.57478E-003,5.99287E-001,0,0.00000E+000,0.00000E+000,-1.00000E+000,-4.24511E+001,-3.98495E+001,9.99630E-001,0.00000E+000,0.00000E+000,0.00000E+000,0.00000E+000,0.00000E+000,0.00000E+000,0.00000E+000,1.00000E+000,0.00000E+000,0.00000E+000,0.00000E+000,1.00000E+000,0.00000E+000,0.00000E+000,0.00000E+000,1.00000E+000,0
1169,1327,1.54685E+001,1.77615E-001,-4.25728E-002,0.00000E+000,0.00000E+000,0.00000E+000,0.00000E+000,6.36637E-003,4.55297E-001,0,0.00000E+000,0.00000E+000,-1.00000E+000,-3.99991E+001,-3.11769E+001,9.99524E-001,0.00000E+000,0.00000E+000,0.00000E+000,0.00000E+000,0.00000E+000,0.00000E+000,0.00000E+000,1.00000E+000,0.00000E+000,0.00000E+000,0.00000E+000,1.00000E+000,0.00000E+000,0.00000E+000,0.00000E+000,1.00000E+000,0
1169,1337,1.55001E+001,8.35866E-001,1.55253E-002,0.00000E+000,0.00000E+000,0.00000E+000,0.00000E+000,8.56264E-003,4.54005E-001,0,0.00000E+000,0.00000E+000,-1.00000E+000,-3.93278E+001,-3.11081E+001,9.99569E-001,0.00000E+000,0.00000E+000,0.00000E+000,0.00000E+000,0.00000E+000,0.00000E+000,0.00000E+000,1.00000E+000,0.00000E+000,0.00000E+000,0.00000E+000,1.00000E+000,0.00000E+000,0.00000E+000,0.00000E+000,1.00000E+000,0
1169,1347,1.55349E+001,1.49588E+000,8.60902E-002,0.00000E+000,0.00000E+000,0.00000E+000,0.00000E+000,5.96212E-003,4.37246E-001,0,0.00000E+000,0.00000E+000,-1.00000E+000,-3.85856E+001,-3.10533E+001,9.99637E-001,0.00000E+000,0.00000E+000,0.00000E+000,0.00000E+000,0.00000E+000,0.00000E+000,0.00000E+000,1.00000E+000,0.00000E+000,0.00000E+000,0.00000E+000,1.00000E+000,0.00000E+000,0.00000E+000,0.00000E+000,1.00000E+000,0
689,1327,-1.58356E+001,-9.48497E-002,-1.93340E-002,0.00000E+000,0.00000E+000,0.00000E+000,0.00000E+000,7.02645E-003,6.50038E-001,0,0.00000E+000,0.00000E+000,-1.00000E+000,-4.27272E+001,-3.96174E+001,9.99351E-001,0.00000E+000,0.00000E+000,0.00000E+000,0.00000E+000,0.00000E+000,0.00000E+000,0.00000E+000,1.00000E+000,0.00000E+000,0.00000E+000,0.00000E+000,1.00000E+000,0.00000E+000,0.00000E+000,0.00000E+000,1.00000E+000,0
1169,1317,1.54488E+001,-4.75529E-001,-5.34805E-002,0.00000E+000,0.00000E+000,0.00000E+000,0.00000E+000,9.09210E-003,3.91863E-001,0,0.00000E+000,0.00000E+000,-1.00000E+000,-4.04012E+001,-3.13061E+001,9.99532E-001,0.00000E+000,0.00000E+000,0.00000E+000,0.00000E+000,0.00000E+000,0.00000E+000,0.00000E+000,1.00000E+000,0.00000E+000,0.00000E+000,0.00000E+000,1.00000E+000,0.00000E+000,0.00000E+000,0.00000E+000,1.00000E+000,0
1169,1307,1.54342E+001,-1.12094E+000,-4.50195E-002,0.00000E+000,0.00000E+000,0.00000E+000,0.00000E+000,6.01692E-003,4.74219E-001,0,0.00000E+000,0.00000E+000,-1.00000E+000,-4.06907E+001,-3.12876E+001,9.99645E-001,0.00000E+000,0.00000E+000,0.00000E+000,0.00000E+000,0.00000E+000,0.00000E+000,0.00000E+000,1.00000E+000,0.00000E+000,0.00000E+000,0.00000E+000,1.00000E+000,0.00000E+000,0.00000E+000,0.00000E+000,1.00000E+000,0
1169,1297,1.54258E+001,-1.76503E+000,-1.20186E-002,0.00000E+000,0.00000E+000,0.00000E+000,0.00000E+000,7.77297E-003,4.83643E-001,0,0.00000E+000,0.00000E+000,-1.00000E+000,-4.08405E+001,-3.13398E+001,9.98915E-001,0.00000E+000,0.00000E+000,0.00000E+000,0.00000E+000,0.00000E+000,0.00000E+000,0.00000E+000,1.00000E+000,0.00000E+000,0.00000E+000,0.00000E+000,1.00000E+000,0.00000E+000,0.00000E+000,0.00000E+000,1.00000E+000,0
689,1317,-1.58394E+001,-7.27562E-001,2.11574E-002,0.00000E+000,0.00000E+000,0.00000E+000,0.00000E+000,7.36447E-003,6.55896E-001,0,0.00000E+000,0.00000E+000,-1.00000E+000,-4.28228E+001,-3.94272E+001,9.99253E-001,0.00000E+000,0.00000E+000,0.00000E+000,0.00000E+000,0.00000E+000,0.00000E+000,0.00000E+000,1.00000E+000,0.00000E+000,0.00000E+000,0.00000E+000,1.00000E+000,0.00000E+000,0.00000E+000,0.00000E+000,1.00000E+000,0
679,1347,-1.64530E+001,1.17719E+000,-6.24313E-003,0.00000E+000,0.00000E+000,0.00000E+000,0.00000E+000,1.05644E-002,5.87161E-001,0,0.00000E+000,0.00000E+000,-1.00000E+000,-4.18197E+001,-4.02263E+001,9.99252E-001,0.00000E+000,0.00000E+000,0.00000E+000,0.00000E+000,0.00000E+000,0.00000E+000,0.00000E+000,1.00000E+000,0.00000E+000,0.00000E+000,0.00000E+000,1.00000E+000,0.00000E+000,0.00000E+000,0.00000E+000,1.00000E+000,0
679,1357,-1.64365E+001,1.82255E+000,2.42395E-002,0.00000E+000,0.00000E+000,0.00000E+000,0.00000E+000,3.57387E-003,6.37110E-001,0,0.00000E+000,0.00000E+000,-1.00000E+000,-4.13260E+001,-4.03587E+001,9.99784E-001,0.00000E+000,0.00000E+000,0.00000E+000,0.00000E+000,0.00000E+000,0.00000E+000,0.00000E+000,1.00000E+000,0.00000E+000,0.00000E+000,0.00000E+000,1.00000E+000,0.00000E+000,0.00000E+000,0.00000E+000,1.00000E+000,0
1179,1297,1.60829E+001,-1.76264E+000,-3.54743E-002,0.00000E+000,0.00000E+000,0.00000E+000,0.00000E+000,1.50829E-002,4.87391E-001,0,0.00000E+000,0.00000E+000,-1.00000E+000,-4.06601E+001,-3.11698E+001,9.98849E-001,0.00000E+000,0.00000E+000,0.00000E+000,0.00000E+000,0.00000E+000,0.00000E+000,0.00000E+000,1.00000E+000,0.00000E+000,0.00000E+000,0.00000E+000,1.00000E+000,0.00000E+000,0.00000E+000,0.00000E+000,1.00000E+000,0
1179,1307,1.60938E+001,-1.11923E+000,-5.85883E-002,0.00000E+000,0.00000E+000,0.00000E+000,0.00000E+000,6.04889E-003,4.06891E-001,0,0.00000E+000,0.00000E+000,-1.00000E+000,-4.04542E+001,-3.11827E+001,9.99398E-001,0.00000E+000,0.00000E+000,0.00000E+000,0.00000E+000,0.00000E+000,0.00000E+000,0.00000E+000,1.00000E+000,0.00000E+000,0.00000E+000,0.00000E+000,1.00000E+000,0.00000E+000,0.00000E+000,0.00000E+000,1.00000E+000,0
1179,1317,1.61038E+001,-4.74751E-001,-8.57339E-002,0.00000E+000,0.00000E+000,0.00000E+000,0.00000E+000,1.87195E-002,3.71908E-001,0,0.00000E+000,0.00000E+000,-1.00000E+000,-4.02709E+001,-3.11501E+001,9.99144E-001,0.00000E+000,0.00000E+000,0.00000E+000,0.00000E+000,0.00000E+000,0.00000E+000,0.00000E+000,1.00000E+000,0.00000E+000,0.00000E+000,0.00000E+000,1.00000E+000,0.00000E+000,0.00000E+000,0.00000E+000,1.00000E+000,0
1179,1337,1.61637E+001,8.41183E-001,1.55498E-002,0.00000E+000,0.00000E+000,0.00000E+000,0.00000E+000,7.36813E-003,4.16167E-001,0,0.00000E+000,0.00000E+000,-1.00000E+000,-3.90120E+001,-3.09568E+001,9.99229E-001,0.00000E+000,0.00000E+000,0.00000E+000,0.00000E+000,0.00000E+000,0.00000E+000,0.00000E+000,1.00000E+000,0.00000E+000,0.00000E+000,0.00000E+000,1.00000E+000,0.00000E+000,0.00000E+000,0.00000E+000,1.00000E+000,0
1179,1347,1.62011E+001,1.50406E+000,9.54586E-002,0.00000E+000,0.00000E+000,0.00000E+000,0.00000E+000,5.82482E-003,4.37516E-001,0,0.00000E+000,0.00000E+000,-1.00000E+000,-3.82153E+001,-3.08578E+001,9.99636E-001,0.00000E+000,0.00000E+000,0.00000E+000,0.00000E+000,0.00000E+000,0.00000E+000,0.00000E+000,1.00000E+000,0.00000E+000,0.00000E+000,0.00000E+000,1.00000E+000,0.00000E+000,0.00000E+000,0.00000E+000,1.00000E+000,0
679,1327,-1.64770E+001,-1.00602E-001,-1.73574E-002,0.00000E+000,0.00000E+000,0.00000E+000,0.00000E+000,6.22644E-003,6.33621E-001,0,0.00000E+000,0.00000E+000,-1.00000E+000,-4.25261E+001,-3.98099E+001,9.99529E-001,0.00000E+000,0.00000E+000,0.00000E+000,0.00000E+000,0.00000E+000,0.00000E+000,0.00000E+000,1.00000E+000,0.00000E+000,0.00000E+000,0.00000E+000,1.00000E+000,0.00000E+000,0.00000E+000,0.00000E+000,1.00000E+000,0
679,1337,-1.64684E+001,5.35464E-001,-3.04168E-002,0.00000E+000,0.00000E+000,0.00000E+000,0.00000E+000,5.08733E-003,6.10828E-001,0,0.00000E+000,0.00000E+000,-1.00000E+000,-4.22772E+001,-4.00195E+001,9.99828E-001,0.00000E+000,0.00000E+000,0.00000E+000,0.00000E+000,0.00000E+000,0.00000E+000,0.00000E+000,1.00000E+000,0.00000E+000,0.00000E+000,0.00000E+000,1.00000E+000,0.00000E+000,0.00000E+000,0.00000E+000,1.00000E+000,0
1179,1327,1.61297E+001,1.80314E-001,-5.10604E-002,0.00000E+000,0.00000E+000,0.00000E+000,0.00000E+000,1.42458E-002,3.82060E-001,0,0.00000E+000,0.00000E+000,-1.00000E+000,-3.97329E+001,-3.10669E+001,9.98322E-001,0.00000E+000,0.00000E+000,0.00000E+000,0.00000E+000,0.00000E+000,0.00000E+000,0.00000E+000,1.00000E+000,0.00000E+000,0.00000E+000,0.00000E+000,1.00000E+000,0.00000E+000,0.00000E+000,0.00000E+000,1.00000E+000,0
679,1317,-1.64809E+001,-7.33026E-001,2.24725E-002,0.00000E+000,0.00000E+000,0.00000E+000,0.00000E+000,7.35557E-003,6.44783E-001,0,0.00000E+000,0.00000E+000,-1.00000E+000,-4.26251E+001,-3.96095E+001,9.99171E-001,0.00000E+000,0.00000E+000,0.00000E+000,0.00000E+000,0.00000E+000,0.00000E+000,0.00000E+000,1.00000E+000,0.00000E+000,0.00000E+000,0.00000E+000,1.00000E+000,0.00000E+000,0.00000E+000,0.00000E+000,1.00000E+000,0
669,1327,-1.71188E+001,-1.07410E-001,-1.93483E-002,0.00000E+000,0.00000E+000,0.00000E+000,0.00000E+000,8.31213E-003,6.01922E-001,0,0.00000E+000,0.00000E+000,-1.00000E+000,-4.23375E+001,-4.00180E+001,9.99342E-001,0.00000E+000,0.00000E+000,0.00000E+000,0.00000E+000,0.00000E+000,0.00000E+000,0.00000E+000,1.00000E+000,0.00000E+000,0.00000E+000,0.00000E+000,1.00000E+000,0.00000E+000,0.00000E+000,0.00000E+000,1.00000E+000,0
669,1337,-1.71098E+001,5.30619E-001,-3.00871E-002,0.00000E+000,0.00000E+000,0.00000E+000,0.00000E+000,4.73810E-003,6.35836E-001,0,0.00000E+000,0.00000E+000,-1.00000E+000,-4.20752E+001,-4.01759E+001,9.99702E-001,0.00000E+000,0.00000E+000,0.00000E+000,0.00000E+000,0.00000E+000,0.00000E+000,0.00000E+000,1.00000E+000,0.00000E+000,0.00000E+000,0.00000E+000,1.00000E+000,0.00000E+000,0.00000E+000,0.00000E+000,1.00000E+000,0
669,1347,-1.70979E+001,1.16956E+000,-2.43180E-002,0.00000E+000,0.00000E+000,0.00000E+000,0.00000E+000,5.12168E-003,6.16472E-001,0,0.00000E+000,0.00000E+000,-1.00000E+000,-4.17211E+001,-4.03849E+001,9.99508E-001,0.00000E+000,0.00000E+000,0.00000E+000,0.00000E+000,0.00000E+000,0.00000E+000,0.00000E+000,1.00000E+000,0.00000E+000,0.00000E+000,0.00000E+000,1.00000E+000,0.00000E+000,0.00000E+000,0.00000E+000,1.00000E+000,0
669,1357,-1.70785E+001,1.81496E+000,2.34062E-002,0.00000E+000,0.00000E+000,0.00000E+000,0.00000E+000,4.46799E-003,5.96169E-001,0,0.00000E+000,0.00000E+000,-1.00000E+000,-4.11321E+001,-4.05908E+001,9.99649E-001,0.00000E+000,0.00000E+000,0.00000E+000,0.00000E+000,0.00000E+000,0.00000E+000,0.00000E+000,1.00000E+000,0.00000E+000,0.00000E+000,0.00000E+000,1.00000E+000,0.00000E+000,0.00000E+000,0.00000E+000,1.00000E+000,0
1189,1337,1.68283E+001,8.48751E-001,1.72590E-002,0.00000E+000,0.00000E+000,0.00000E+000,0.00000E+000,1.04132E-002,4.39758E-001,0,0.00000E+000,0.00000E+000,-1.00000E+000,-3.86750E+001,-3.07439E+001,9.99249E-001,0.00000E+000,0.00000E+000,0.00000E+000,0.00000E+000,0.00000E+000,0.00000E+000,0.00000E+000,1.00000E+000,0.00000E+000,0.00000E+000,0.00000E+000,1.00000E+000,0.00000E+000,0.00000E+000,0.00000E+000,1.00000E+000,0
669,1317,-1.71215E+001,-7.39370E-001,2.73022E-002,0.00000E+000,0.00000E+000,0.00000E+000,0.00000E+000,1.35499E-002,5.90657E-001,0,0.00000E+000,0.00000E+000,-1.00000E+000,-4.23983E+001,-3.98342E+001,9.98777E-001,0.00000E+000,0.00000E+000,0.00000E+000,0.00000E+000,0.00000E+000,0.00000E+000,0.00000E+000,1.00000E+000,0.00000E+000,0.00000E+000,0.00000E+000,1.00000E+000,0.00000E+000,0.00000E+000,0.00000E+000,1.00000E+000,0
1189,1297,1.67506E+001,-1.75647E+000,-1.89111E-002,0.00000E+000,0.00000E+000,0.00000E+000,0.00000E+000,1.26583E-002,4.33044E-001,0,0.00000E+000,0.00000E+000,-1.00000E+000,-4.02405E+001,-3.10545E+001,9.98247E-001,0.00000E+000,0.00000E+000,0.00000E+000,0.00000E+000,0.00000E+000,0.00000E+000,0.00000E+000,1.00000E+000,0.00000E+000,0.00000E+000,0.00000E+000,1.00000E+000,0.00000E+000,0.00000E+000,0.00000E+000,1.00000E+000,0
1189,1307,1.67571E+001,-1.11240E+000,-6.00271E-002,0.00000E+000,0.00000E+000,0.00000E+000,0.00000E+000,7.28999E-003,4.44342E-001,0,0.00000E+000,0.00000E+000,-1.00000E+000,-4.01364E+001,-3.09719E+001,9.99135E-001,0.00000E+000,0.00000E+000,0.00000E+000,0.00000E+000,0.00000E+000,0.00000E+000,0.00000E+000,1.00000E+000,0.00000E+000,0.00000E+000,0.00000E+000,1.00000E+000,0.00000E+000,0.00000E+000,0.00000E+000,1.00000E+000,0
1189,1317,1.67767E+001,-4.59662E-001,-5.06629E-002,0.00000E+000,0.00000E+000,0.00000E+000,0.00000E+000,8.20242E-003,4.95357E-001,0,0.00000E+000,0.00000E+000,-1.00000E+000,-3.97425E+001,-3.08451E+001,9.99602E-001,0.00000E+000,0.00000E+000,0.00000E+000,0.00000E+000,0.00000E+000,0.00000E+000,0.00000E+000,1.00000E+000,0.00000E+000,0.00000E+000,0.00000E+000,1.00000E+000,0.00000E+000,0.00000E+000,0.00000E+000,1.00000E+000,0
1189,1327,1.68003E+001,1.93256E-001,-2.52092E-002,0.00000E+000,0.00000E+000,0.00000E+000,0.00000E+000,1.27230E-002,4.71320E-001,0,0.00000E+000,0.00000E+000,-1.00000E+000,-3.92574E+001,-3.07917E+001,9.99331E-001,0.00000E+000,0.00000E+000,0.00000E+000,0.00000E+000,0.00000E+000,0.00000E+000,0.00000E+000,1.00000E+000,0.00000E+000,0.00000E+000,0.00000E+000,1.00000E+000,0.00000E+000,0.00000E+000,0.00000E+000,1.00000E+000,0
659,1327,-1.77590E+001,-1.11948E-001,-1.46123E-002,0.00000E+000,0.00000E+000,0.00000E+000,0.00000E+000,1.56853E-002,6.09801E-001,0,0.00000E+000,0.00000E+000,-1.00000E+000,-4.21007E+001,-4.01858E+001,9.98239E-001,0.00000E+000,0.00000E+000,0.00000E+000,0.00000E+000,0.00000E+000,0.00000E+000,0.00000E+000,1.00000E+000,0.00000E+000,0.00000E+000,0.00000E+000,1.00000E+000,0.00000E+000,0.00000E+000,0.00000E+000,1.00000E+000,0
659,1337,-1.77500E+001,5.26017E-001,-2.51454E-002,0.00000E+000,0.00000E+000,0.00000E+000,0.00000E+000,1.19764E-002,6.47013E-001,0,0.00000E+000,0.00000E+000,-1.00000E+000,-4.18375E+001,-4.03452E+001,9.99493E-001,0.00000E+000,0.00000E+000,0.00000E+000,0.00000E+000,0.00000E+000,0.00000E+000,0.00000E+000,1.00000E+000,0.00000E+000,0.00000E+000,0.00000E+000,1.00000E+000,0.00000E+000,0.00000E+000,0.00000E+000,1.00000E+000,0
659,1347,-1.77381E+001,1.16466E+000,-1.84295E-002,0.00000E+000,0.00000E+000,0.00000E+000,0.00000E+000,6.76543E-003,6.20513E-001,0,0.00000E+000,0.00000E+000,-1.00000E+000,-4.14785E+001,-4.05664E+001,9.99737E-001,0.00000E+000,0.00000E+000,0.00000E+000,0.00000E+000,0.00000E+000,0.00000E+000,0.00000E+000,1.00000E+000,0.00000E+000,0.00000E+000,0.00000E+000,1.00000E+000,0.00000E+000,0.00000E+000,0.00000E+000,1.00000E+000,0
659,1357,-1.77194E+001,1.80925E+000,2.60949E-002,0.00000E+000,0.00000E+000,0.00000E+000,0.00000E+000,4.10379E-003,5.96358E-001,0,0.00000E+000,0.00000E+000,-1.00000E+000,-4.09080E+001,-4.07814E+001,9.99773E-001,0.00000E+000,0.00000E+000,0.00000E+000,0.00000E+000,0.00000E+000,0.00000E+000,0.00000E+000,1.00000E+000,0.00000E+000,0.00000E+000,0.00000E+000,1.00000E+000,0.00000E+000,0.00000E+000,0.00000E+000,1.00000E+000,0
1199,1307,1.74240E+001,-1.10434E+000,-4.95488E-002,0.00000E+000,0.00000E+000,0.00000E+000,0.00000E+000,9.95909E-003,4.66747E-001,0,0.00000E+000,0.00000E+000,-1.00000E+000,-3.97396E+001,-3.07749E+001,9.99069E-001,0.00000E+000,0.00000E+000,0.00000E+000,0.00000E+000,0.00000E+000,0.00000E+000,0.00000E+000,1.00000E+000,0.00000E+000,0.00000E+000,0.00000E+000,1.00000E+000,0.00000E+000,0.00000E+000,0.00000E+000,1.00000E+000,0
1199,1317,1.74412E+001,-4.54496E-001,-4.94924E-002,0.00000E+000,0.00000E+000,0.00000E+000,0.00000E+000,6.91070E-003,4.61508E-001,0,0.00000E+000,0.00000E+000,-1.00000E+000,-3.93994E+001,-3.06998E+001,9.99212E-001,0.00000E+000,0.00000E+000,0.00000E+000,0.00000E+000,0.00000E+000,0.00000E+000,0.00000E+000,1.00000E+000,0.00000E+000,0.00000E+000,0.00000E+000,1.00000E+000,0.00000E+000,0.00000E+000,0.00000E+000,1.00000E+000,0
1199,1327,1.74612E+001,1.96431E-001,-3.86654E-002,0.00000E+000,0.00000E+000,0.00000E+000,0.00000E+000,8.72113E-003,4.33978E-001,0,0.00000E+000,0.00000E+000,-1.00000E+000,-3.89978E+001,-3.06459E+001,9.99201E-001,0.00000E+000,0.00000E+000,0.00000E+000,0.00000E+000,0.00000E+000,0.00000E+000,0.00000E+000,1.00000E+000,0.00000E+000,0.00000E+000,0.00000E+000,1.00000E+000,0.00000E+000,0.00000E+000,0.00000E+000,1.00000E+000,0
659,1317,-1.77641E+001,-7.44843E-001,1.80353E-002,0.00000E+000,0.00000E+000,0.00000E+000,0.00000E+000,1.34695E-002,6.25001E-001,0,0.00000E+000,0.00000E+000,-1.00000E+000,-4.22395E+001,-3.99717E+001,9.96572E-001,0.00000E+000,0.00000E+000,0.00000E+000,0.00000E+000,0.00000E+000,0.00000E+000,0.00000E+000,1.00000E+000,0.00000E+000,0.00000E+000,0.00000E+000,1.00000E+000,0.00000E+000,0.00000E+000,0.00000E+000,1.00000E+000,0
1199,1337,1.74960E+001,8.57209E-001,2.92514E-002,0.00000E+000,0.00000E+000,0.00000E+000,0.00000E+000,1.01704E-002,4.43627E-001,0,0.00000E+000,0.00000E+000,-1.00000E+000,-3.82686E+001,-3.05496E+001,9.98706E-001,0.00000E+000,0.00000E+000,0.00000E+000,0.00000E+000,0.00000E+000,0.00000E+000,0.00000E+000,1.00000E+000,0.00000E+000,0.00000E+000,0.00000E+000,1.00000E+000,0.00000E+000,0.00000E+000,0.00000E+000,1.00000E+000,0
1199,1297,1.74167E+001,-1.74905E+000,-1.10696E-002,0.00000E+000,0.00000E+000,0.00000E+000,0.00000E+000,7.14271E-003,4.55144E-001,0,0.00000E+000,0.00000E+000,-1.00000E+000,-3.98591E+001,-3.08633E+001,9.99005E-001,0.00000E+000,0.00000E+000,0.00000E+000,0.00000E+000,0.00000E+000,0.00000E+000,0.00000E+000,1.00000E+000,0.00000E+000,0.00000E+000,0.00000E+000,1.00000E+000,0.00000E+000,0.00000E+000,0.00000E+000,1.00000E+000,0
649,1347,-1.83781E+001,1.15995E+000,-1.41428E-002,0.00000E+000,0.00000E+000,0.00000E+000,0.00000E+000,6.43076E-003,6.37479E-001,0,0.00000E+000,0.00000E+000,-1.00000E+000,-4.12349E+001,-4.07350E+001,9.99527E-001,0.00000E+000,0.00000E+000,0.00000E+000,0.00000E+000,0.00000E+000,0.00000E+000,0.00000E+000,1.00000E+000,0.00000E+000,0.00000E+000,0.00000E+000,1.00000E+000,0.00000E+000,0.00000E+000,0.00000E+000,1.00000E+000,0
649,1357,-1.83601E+001,1.80350E+000,2.78553E-002,0.00000E+000,0.00000E+000,0.00000E+000,0.00000E+000,4.40473E-003,5.98824E-001,0,0.00000E+000,0.00000E+000,-1.00000E+000,-4.06791E+001,-4.09696E+001,9.99715E-001,0.00000E+000,0.00000E+000,0.00000E+000,0.00000E+000,0.00000E+000,0.00000E+000,0.00000E+000,1.00000E+000,0.00000E+000,0.00000E+000,0.00000E+000,1.00000E+000,0.00000E+000,0.00000E+000,0.00000E+000,1.00000E+000,0
649,1337,-1.83899E+001,5.19792E-001,-1.98168E-002,0.00000E+000,0.00000E+000,0.00000E+000,0.00000E+000,8.38300E-003,6.06150E-001,0,0.00000E+000,0.00000E+000,-1.00000E+000,-4.15884E+001,-4.05664E+001,9.99396E-001,0.00000E+000,0.00000E+000,0.00000E+000,0.00000E+000,0.00000E+000,0.00000E+000,0.00000E+000,1.00000E+000,0.00000E+000,0.00000E+000,0.00000E+000,1.00000E+000,0.00000E+000,0.00000E+000,0.00000E+000,1.00000E+000,0
649,1327,-1.83983E+001,-1.15764E-001,-7.17490E-003,0.00000E+000,0.00000E+000,0.00000E+000,0.00000E+000,7.06929E-003,6.27355E-001,0,0.00000E+000,0.00000E+000,-1.00000E+000,-4.18388E+001,-4.03435E+001,9.99615E-001,0.00000E+000,0.00000E+000,0.00000E+000,0.00000E+000,0.00000E+000,0.00000E+000,0.00000E+000,1.00000E+000,0.00000E+000,0.00000E+000,0.00000E+000,1.00000E+000,0.00000E+000,0.00000E+000,0.00000E+000,1.00000E+000,0
1209,1307,1.80907E+001,-1.09754E+000,-4.16812E-002,0.00000E+000,0.00000E+000,0.00000E+000,0.00000E+000,7.10279E-003,4.61252E-001,0,0.00000E+000,0.00000E+000,-1.00000E+000,-3.93474E+001,-3.06060E+001,9.99258E-001,0.00000E+000,0.00000E+000,0.00000E+000,0.00000E+000,0.00000E+000,0.00000E+000,0.00000E+000,1.00000E+000,0.00000E+000,0.00000E+000,0.00000E+000,1.00000E+000,0.00000E+000,0.00000E+000,0.00000E+000,1.00000E+000,0
1209,1317,1.81062E+001,-4.48497E-001,-4.86556E-002,0.00000E+000,0.00000E+000,0.00000E+000,0.00000E+000,8.02962E-003,4.54546E-001,0,0.00000E+000,0.00000E+000,-1.00000E+000,-3.90471E+001,-3.05277E+001,9.99105E-001,0.00000E+000,0.00000E+000,0.00000E+000,0.00000E+000,0.00000E+000,0.00000E+000,0.00000E+000,1.00000E+000,0.00000E+000,0.00000E+000,0.00000E+000,1.00000E+000,0.00000E+000,0.00000E+000,0.00000E+000,1.00000E+000,0
1209,1327,1.81309E+001,2.04706E-001,-2.01728E-002,0.00000E+000,0.00000E+000,0.00000E+000,0.00000E+000,7.44115E-003,4.10378E-001,0,0.00000E+000,0.00000E+000,-1.00000E+000,-3.85441E+001,-3.04835E+001,9.99415E-001,0.00000E+000,0.00000E+000,0.00000E+000,0.00000E+000,0.00000E+000,0.00000E+000,0.00000E+000,1.00000E+000,0.00000E+000,0.00000E+000,0.00000E+000,1.00000E+000,0.00000E+000,0.00000E+000,0.00000E+000,1.00000E+000,0
1209,1337,1.81662E+001,8.66968E-001,4.87612E-002,0.00000E+000,0.00000E+000,0.00000E+000,0.00000E+000,1.04667E-002,4.52965E-001,0,0.00000E+000,0.00000E+000,-1.00000E+000,-3.78083E+001,-3.03489E+001,9.98541E-001,0.00000E+000,0.00000E+000,0.00000E+000,0.00000E+000,0.00000E+000,0.00000E+000,0.00000E+000,1.00000E+000,0.00000E+000,0.00000E+000,0.00000E+000,1.00000E+000,0.00000E+000,0.00000E+000,0.00000E+000,1.00000E+000,0
1209,1297,1.80815E+001,-1.74398E+000,-1.00778E-002,0.00000E+000,0.00000E+000,0.00000E+000,0.00000E+000,6.03384E-003,4.34119E-001,0,0.00000E+000,0.00000E+000,-1.00000E+000,-3.95067E+001,-3.07158E+001,9.99263E-001,0.00000E+000,0.00000E+000,0.00000E+000,0.00000E+000,0.00000E+000,0.00000E+000,0.00000E+000,1.00000E+000,0.00000E+000,0.00000E+000,0.00000E+000,1.00000E+000,0.00000E+000,0.00000E+000,0.00000E+000,1.00000E+000,0
649,1317,-1.84020E+001,-7.47429E-001,3.29400E-002,0.00000E+000,0.00000E+000,0.00000E+000,0.00000E+000,4.74513E-003,6.41452E-001,0,0.00000E+000,0.00000E+000,-1.00000E+000,-4.19355E+001,-4.01250E+001,9.99672E-001,0.00000E+000,0.00000E+000,0.00000E+000,0.00000E+000,0.00000E+000,0.00000E+000,0.00000E+000,1.00000E+000,0.00000E+000,0.00000E+000,0.00000E+000,1.00000E+000,0.00000E+000,0.00000E+000,0.00000E+000,1.00000E+000,0
639,1347,-1.90189E+001,1.15372E+000,-1.59057E-002,0.00000E+000,0.00000E+000,0.00000E+000,0.00000E+000,6.51237E-003,6.34337E-001,0,0.00000E+000,0.00000E+000,-1.00000E+000,-4.10154E+001,-4.09239E+001,9.99461E-001,0.00000E+000,0.00000E+000,0.00000E+000,0.00000E+000,0.00000E+000,0.00000E+000,0.00000E+000,1.00000E+000,0.00000E+000,0.00000E+000,0.00000E+000,1.00000E+000,0.00000E+000,0.00000E+000,0.00000E+000,1.00000E+000,0
639,1357,-1.90009E+001,1.79788E+000,2.71518E-002,0.00000E+000,0.00000E+000,0.00000E+000,0.00000E+000,3.92972E-003,6.16547E-001,0,0.00000E+000,0.00000E+000,-1.00000E+000,-4.04538E+001,-4.11428E+001,9.99739E-001,0.00000E+000,0.00000E+000,0.00000E+000,0.00000E+000,0.00000E+000,0.00000E+000,0.00000E+000,1.00000E+000,0.00000E+000,0.00000E+000,0.00000E+000,1.00000E+000,0.00000E+000,0.00000E+000,0.00000E+000,1.00000E+000,0
639,1317,-1.90399E+001,-7.48799E-001,4.61388E-002,0.00000E+000,0.00000E+000,0.00000E+000,0.00000E+000,7.59670E-003,7.02508E-001,0,0.00000E+000,0.00000E+000,-1.00000E+000,-4.16307E+001,-4.02338E+001,9.99332E-001,0.00000E+000,0.00000E+000,0.00000E+000,0.00000E+000,0.00000E+000,0.00000E+000,0.00000E+000,1.00000E+000,0.00000E+000,0.00000E+000,0.00000E+000,1.00000E+000,0.00000E+000,0.00000E+000,0.00000E+000,1.00000E+000,0
639,1327,-1.90376E+001,-1.20518E-001,-1.73244E-003,0.00000E+000,0.00000E+000,0.00000E+000,0.00000E+000,6.04944E-003,6.24523E-001,0,0.00000E+000,0.00000E+000,-1.00000E+000,-4.15784E+001,-4.05215E+001,9.99405E-001,0.00000E+000,0.00000E+000,0.00000E+000,0.00000E+000,0.00000E+000,0.00000E+000,0.00000E+000,1.00000E+000,0.00000E+000,0.00000E+000,0.00000E+000,1.00000E+000,0.00000E+000,0.00000E+000,0.00000E+000,1.00000E+000,0
639,1337,-1.90310E+001,5.15264E-001,-2.47991E-002,0.00000E+000,0.00000E+000,0.00000E+000,0.00000E+000,5.85391E-003,6.63264E-001,0,0.00000E+000,0.00000E+000,-1.00000E+000,-4.13858E+001,-4.06905E+001,9.99529E-001,0.00000E+000,0.00000E+000,0.00000E+000,0.00000E+000,0.00000E+000,0.00000E+000,0.00000E+000,1.00000E+000,0.00000E+000,0.00000E+000,0.00000E+000,1.00000E+000,0.00000E+000,0.00000E+000,0.00000E+000,1.00000E+000,0
1219,1317,1.87753E+001,-4.38179E-001,-3.40770E-002,0.00000E+000,0.00000E+000,0.00000E+000,0.00000E+000,1.02018E-002,5.19564E-001,0,0.00000E+000,0.00000E+000,-1.00000E+000,-3.86044E+001,-3.02822E+001,9.98999E-001,0.00000E+000,0.00000E+000,0.00000E+000,0.00000E+000,0.00000E+000,0.00000E+000,0.00000E+000,1.00000E+000,0.00000E+000,0.00000E+000,0.00000E+000,1.00000E+000,0.00000E+000,0.00000E+000,0.00000E+000,1.00000E+000,0
1219,1327,1.87981E+001,2.12978E-001,-1.35709E-002,0.00000E+000,0.00000E+000,0.00000E+000,0.00000E+000,5.63261E-003,4.39649E-001,0,0.00000E+000,0.00000E+000,-1.00000E+000,-3.81471E+001,-3.02692E+001,9.99468E-001,0.00000E+000,0.00000E+000,0.00000E+000,0.00000E+000,0.00000E+000,0.00000E+000,0.00000E+000,1.00000E+000,0.00000E+000,0.00000E+000,0.00000E+000,1.00000E+000,0.00000E+000,0.00000E+000,0.00000E+000,1.00000E+000,0
1219,1337,1.88343E+001,8.75811E-001,5.79079E-002,0.00000E+000,0.00000E+000,0.00000E+000,0.00000E+000,7.57573E-003,4.80395E-001,0,0.00000E+000,0.00000E+000,-1.00000E+000,-3.73963E+001,-3.01309E+001,9.99195E-001,0.00000E+000,0.00000E+000,0.00000E+000,0.00000E+000,0.00000E+000,0.00000E+000,0.00000E+000,1.00000E+000,0.00000E+000,0.00000E+000,0.00000E+000,1.00000E+000,0.00000E+000,0.00000E+000,0.00000E+000,1.00000E+000,0
1219,1297,1.87480E+001,-1.73689E+000,-4.94569E-003,0.00000E+000,0.00000E+000,0.00000E+000,0.00000E+000,6.91397E-003,4.56661E-001,0,0.00000E+000,0.00000E+000,-1.00000E+000,-3.91193E+001,-3.05242E+001,9.99206E-001,0.00000E+000,0.00000E+000,0.00000E+000,0.00000E+000,0.00000E+000,0.00000E+000,0.00000E+000,1.00000E+000,0.00000E+000,0.00000E+000,0.00000E+000,1.00000E+000,0.00000E+000,0.00000E+000,0.00000E+000,1.00000E+000,0
1219,1307,1.87597E+001,-1.08875E+000,-2.69992E-002,0.00000E+000,0.00000E+000,0.00000E+000,0.00000E+000,8.54560E-003,4.86340E-001,0,0.00000E+000,0.00000E+000,-1.00000E+000,-3.89048E+001,-3.04057E+001,9.99101E-001,0.00000E+000,0.00000E+000,0.00000E+000,0.00000E+000,0.00000E+000,0.00000E+000,0.00000E+000,1.00000E+000,0.00000E+000,0.00000E+000,0.00000E+000,1.00000E+000,0.00000E+000,0.00000E+000,0.00000E+000,1.00000E+000,0
629,1347,-1.96597E+001,1.14735E+000,-2.03352E-002,0.00000E+000,0.00000E+000,0.00000E+000,0.00000E+000,5.26685E-003,6.38780E-001,0,0.00000E+000,0.00000E+000,-1.00000E+000,-4.08008E+001,-4.11055E+001,9.99551E-001,0.00000E+000,0.00000E+000,0.00000E+000,0.00000E+000,0.00000E+000,0.00000E+000,0.00000E+000,1.00000E+000,0.00000E+000,0.00000E+000,0.00000E+000,1.00000E+000,0.00000E+000,0.00000E+000,0.00000E+000,1.00000E+000,0
629,1357,-1.96415E+001,1.79161E+000,2.45538E-002,0.00000E+000,0.00000E+000,0.00000E+000,0.00000E+000,4.68857E-003,6.22109E-001,0,0.00000E+000,0.00000E+000,-1.00000E+000,-4.02294E+001,-4.13280E+001,9.99608E-001,0.00000E+000,0.00000E+000,0.00000E+000,0.00000E+000,0.00000E+000,0.00000E+000,0.00000E+000,1.00000E+000,0.00000E+000,0.00000E+000,0.00000E+000,1.00000E+000,0.00000E+000,0.00000E+000,0.00000E+000,1.00000E+000,0
629,1327,-1.96779E+001,-1.26293E-001,-4.04405E-003,0.00000E+000,0.00000E+000,0.00000E+000,0.00000E+000,4.59636E-003,6.24475E-001,0,0.00000E+000,0.00000E+000,-1.00000E+000,-4.13514E+001,-4.06975E+001,9.99582E-001,0.00000E+000,0.00000E+000,0.00000E+000,0.00000E+000,0.00000E+000,0.00000E+000,0.00000E+000,1.00000E+000,0.00000E+000,0.00000E+000,0.00000E+000,1.00000E+000,0.00000E+000,0.00000E+000,0.00000E+000,1.00000E+000,0
629,1337,-1.96713E+001,5.09187E-001,-2.66464E-002,0.00000E+000,0.00000E+000,0.00000E+000,0.00000E+000,4.77248E-003,6.58346E-001,0,0.00000E+000,0.00000E+000,-1.00000E+000,-4.11566E+001,-4.08762E+001,9.99621E-001,0.00000E+000,0.00000E+000,0.00000E+000,0.00000E+000,0.00000E+000,0.00000E+000,0.00000E+000,1.00000E+000,0.00000E+000,0.00000E+000,0.00000E+000,1.00000E+000,0.00000E+000,0.00000E+000,0.00000E+000,1.00000E+000,0
1229,1317,1.94418E+001,-4.31798E-001,-3.11839E-002,0.00000E+000,0.00000E+000,0.00000E+000,0.00000E+000,8.51571E-003,5.14108E-001,0,0.00000E+000,0.00000E+000,-1.00000E+000,-3.82187E+001,-3.01080E+001,9.99444E-001,0.00000E+000,0.00000E+000,0.00000E+000,0.00000E+000,0.00000E+000,0.00000E+000,0.00000E+000,1.00000E+000,0.00000E+000,0.00000E+000,0.00000E+000,1.00000E+000,0.00000E+000,0.00000E+000,0.00000E+000,1.00000E+000,0
1229,1327,1.94652E+001,2.22647E-001,-9.35798E-003,0.00000E+000,0.00000E+000,0.00000E+000,0.00000E+000,6.72027E-003,5.22460E-001,0,0.00000E+000,0.00000E+000,-1.00000E+000,-3.77524E+001,-3.00014E+001,9.99298E-001,0.00000E+000,0.00000E+000,0.00000E+000,0.00000E+000,0.00000E+000,0.00000E+000,0.00000E+000,1.00000E+000,0.00000E+000,0.00000E+000,0.00000E+000,1.00000E+000,0.00000E+000,0.00000E+000,0.00000E+000,1.00000E+000,0
1229,1337,1.94986E+001,8.80470E-001,5.09835E-002,0.00000E+000,0.00000E+000,0.00000E+000,0.00000E+000,7.44669E-003,4.50805E-001,0,0.00000E+000,0.00000E+000,-1.00000E+000,-3.70662E+001,-2.99711E+001,9.99051E-001,0.00000E+000,0.00000E+000,0.00000E+000,0.00000E+000,0.00000E+000,0.00000E+000,0.00000E+000,1.00000E+000,0.00000E+000,0.00000E+000,0.00000E+000,1.00000E+000,0.00000E+000,0.00000E+000,0.00000E+000,1.00000E+000,0
629,1317,-1.96799E+001,-7.54762E-001,4.49338E-002,0.00000E+000,0.00000E+000,0.00000E+000,0.00000E+000,6.01352E-003,6.85146E-001,0,0.00000E+000,0.00000E+000,-1.00000E+000,-4.13975E+001,-4.04218E+001,9.99468E-001,0.00000E+000,0.00000E+000,0.00000E+000,0.00000E+000,0.00000E+000,0.00000E+000,0.00000E+000,1.00000E+000,0.00000E+000,0.00000E+000,0.00000E+000,1.00000E+000,0.00000E+000,0.00000E+000,0.00000E+000,1.00000E+000,0
1229,1297,1.94149E+001,-1.72950E+000,5.61537E-005,0.00000E+000,0.00000E+000,0.00000E+000,0.00000E+000,6.67785E-003,4.88751E-001,0,0.00000E+000,0.00000E+000,-1.00000E+000,-3.87216E+001,-3.03228E+001,9.99118E-001,0.00000E+000,0.00000E+000,0.00000E+000,0.00000E+000,0.00000E+000,0.00000E+000,0.00000E+000,1.00000E+000,0.00000E+000,0.00000E+000,0.00000E+000,1.00000E+000,0.00000E+000,0.00000E+000,0.00000E+000,1.00000E+000,0
1229,1307,1.94253E+001,-1.08243E+000,-2.72958E-002,0.00000E+000,0.00000E+000,0.00000E+000,0.00000E+000,1.05946E-002,5.00825E-001,0,0.00000E+000,0.00000E+000,-1.00000E+000,-3.85375E+001,-3.02171E+001,9.98975E-001,0.00000E+000,0.00000E+000,0.00000E+000,0.00000E+000,0.00000E+000,0.00000E+000,0.00000E+000,1.00000E+000,0.00000E+000,0.00000E+000,0.00000E+000,1.00000E+000,0.00000E+000,0.00000E+000,0.00000E+000,1.00000E+000,0
619,1327,-2.03175E+001,-1.31826E-001,-5.03491E-003,0.00000E+000,0.00000E+000,0.00000E+000,0.00000E+000,3.97626E-003,6.25551E-001,0,0.00000E+000,0.00000E+000,-1.00000E+000,-4.11071E+001,-4.08720E+001,9.99614E-001,0.00000E+000,0.00000E+000,0.00000E+000,0.00000E+000,0.00000E+000,0.00000E+000,0.00000E+000,1.00000E+000,0.00000E+000,0.00000E+000,0.00000E+000,1.00000E+000,0.00000E+000,0.00000E+000,0.00000E+000,1.00000E+000,0
619,1337,-2.03102E+001,5.04047E-001,-2.30313E-002,0.00000E+000,0.00000E+000,0.00000E+000,0.00000E+000,3.90481E-003,6.57438E-001,0,0.00000E+000,0.00000E+000,-1.00000E+000,-4.08868E+001,-4.10574E+001,9.99595E-001,0.00000E+000,0.00000E+000,0.00000E+000,0.00000E+000,0.00000E+000,0.00000E+000,0.00000E+000,1.00000E+000,0.00000E+000,0.00000E+000,0.00000E+000,1.00000E+000,0.00000E+000,0.00000E+000,0.00000E+000,1.00000E+000,0
619,1347,-2.03000E+001,1.14101E+000,-2.39363E-002,0.00000E+000,0.00000E+000,0.00000E+000,0.00000E+000,4.65454E-003,6.39987E-001,0,0.00000E+000,0.00000E+000,-1.00000E+000,-4.05717E+001,-4.12901E+001,9.99605E-001,0.00000E+000,0.00000E+000,0.00000E+000,0.00000E+000,0.00000E+000,0.00000E+000,0.00000E+000,1.00000E+000,0.00000E+000,0.00000E+000,0.00000E+000,1.00000E+000,0.00000E+000,0.00000E+000,0.00000E+000,1.00000E+000,0
619,1357,-2.02830E+001,1.78412E+000,1.52472E-002,0.00000E+000,0.00000E+000,0.00000E+000,0.00000E+000,4.93610E-003,6.20682E-001,0,0.00000E+000,0.00000E+000,-1.00000E+000,-4.00326E+001,-4.15208E+001,9.99649E-001,0.00000E+000,0.00000E+000,0.00000E+000,0.00000E+000,0.00000E+000,0.00000E+000,0.00000E+000,1.00000E+000,0.00000E+000,0.00000E+000,0.00000E+000,1.00000E+000,0.00000E+000,0.00000E+000,0.00000E+000,1.00000E+000,0
619,1317,-2.03196E+001,-7.61738E-001,4.34388E-002,0.00000E+000,0.00000E+000,0.00000E+000,0.00000E+000,6.28875E-003,6.37463E-001,0,0.00000E+000,0.00000E+000,-1.00000E+000,-4.11565E+001,-4.06400E+001,9.99543E-001,0.00000E+000,0.00000E+000,0.00000E+000,0.00000E+000,0.00000E+000,0.00000E+000,0.00000E+000,1.00000E+000,0.00000E+000,0.00000E+000,0.00000E+000,1.00000E+000,0.00000E+000,0.00000E+000,0.00000E+000,1.00000E+000,0
1239,1307,2.00905E+001,-1.07772E+000,-3.05308E-002,0.00000E+000,0.00000E+000,0.00000E+000,0.00000E+000,1.06778E-002,4.77976E-001,0,0.00000E+000,0.00000E+000,-1.00000E+000,-3.81767E+001,-3.00660E+001,9.99165E-001,0.00000E+000,0.00000E+000,0.00000E+000,0.00000E+000,0.00000E+000,0.00000E+000,0.00000E+000,1.00000E+000,0.00000E+000,0.00000E+000,0.00000E+000,1.00000E+000,0.00000E+000,0.00000E+000,0.00000E+000,1.00000E+000,0
1239,1317,2.01069E+001,-4.27898E-001,-3.57204E-002,0.00000E+000,0.00000E+000,0.00000E+000,0.00000E+000,1.07682E-002,4.64305E-001,0,0.00000E+000,0.00000E+000,-1.00000E+000,-3.78653E+001,-2.99786E+001,9.99136E-001,0.00000E+000,0.00000E+000,0.00000E+000,0.00000E+000,0.00000E+000,0.00000E+000,0.00000E+000,1.00000E+000,0.00000E+000,0.00000E+000,0.00000E+000,1.00000E+000,0.00000E+000,0.00000E+000,0.00000E+000,1.00000E+000,0
1239,1327,2.01350E+001,2.31482E-001,3.43173E-003,0.00000E+000,0.00000E+000,0.00000E+000,0.00000E+000,8.46625E-003,5.40246E-001,0,0.00000E+000,0.00000E+000,-1.00000E+000,-3.72984E+001,-2.97977E+001,9.99229E-001,0.00000E+000,0.00000E+000,0.00000E+000,0.00000E+000,0.00000E+000,0.00000E+000,0.00000E+000,1.00000E+000,0.00000E+000,0.00000E+000,0.00000E+000,1.00000E+000,0.00000E+000,0.00000E+000,0.00000E+000,1.00000E+000,0
1239,1337,2.01649E+001,8.86563E-001,4.98787E-002,0.00000E+000,0.00000E+000,0.00000E+000,0.00000E+000,6.22576E-003,4.38478E-001,0,0.00000E+000,0.00000E+000,-1.00000E+000,-3.66919E+001,-2.97934E+001,9.99163E-001,0.00000E+000,0.00000E+000,0.00000E+000,0.00000E+000,0.00000E+000,0.00000E+000,0.00000E+000,1.00000E+000,0.00000E+000,0.00000E+000,0.00000E+000,1.00000E+000,0.00000E+000,0.00000E+000,0.00000E+000,1.00000E+000,0
1239,1297,2.00811E+001,-1.72442E+000,8.50555E-004,0.00000E+000,0.00000E+000,0.00000E+000,0.00000E+000,5.39591E-003,4.67072E-001,0,0.00000E+000,0.00000E+000,-1.00000E+000,-3.83379E+001,-3.01754E+001,9.99475E-001,0.00000E+000,0.00000E+000,0.00000E+000,0.00000E+000,0.00000E+000,0.00000E+000,0.00000E+000,1.00000E+000,0.00000E+000,0.00000E+000,0.00000E+000,1.00000E+000,0.00000E+000,0.00000E+000,0.00000E+000,1.00000E+000,0
609,1347,-2.09389E+001,1.13591E+000,-2.21242E-002,0.00000E+000,0.00000E+000,0.00000E+000,0.00000E+000,6.47195E-003,6.54137E-001,0,0.00000E+000,0.00000E+000,-1.00000E+000,-4.03022E+001,-4.14612E+001,9.99456E-001,0.00000E+000,0.00000E+000,0.00000E+000,0.00000E+000,0.00000E+000,0.00000E+000,0.00000E+000,1.00000E+000,0.00000E+000,0.00000E+000,0.00000E+000,1.00000E+000,0.00000E+000,0.00000E+000,0.00000E+000,1.00000E+000,0
609,1357,-2.09230E+001,1.77790E+000,1.17050E-002,0.00000E+000,0.00000E+000,0.00000E+000,0.00000E+000,5.35729E-003,6.31519E-001,0,0.00000E+000,0.00000E+000,-1.00000E+000,-3.97935E+001,-4.17005E+001,9.99603E-001,0.00000E+000,0.00000E+000,0.00000E+000,0.00000E+000,0.00000E+000,0.00000E+000,0.00000E+000,1.00000E+000,0.00000E+000,0.00000E+000,0.00000E+000,1.00000E+000,0.00000E+000,0.00000E+000,0.00000E+000,1.00000E+000,0
609,1317,-2.09583E+001,-7.67303E-001,4.52454E-002,0.00000E+000,0.00000E+000,0.00000E+000,0.00000E+000,1.08260E-002,6.18487E-001,0,0.00000E+000,0.00000E+000,-1.00000E+000,-4.08867E+001,-4.08292E+001,9.98778E-001,0.00000E+000,0.00000E+000,0.00000E+000,0.00000E+000,0.00000E+000,0.00000E+000,0.00000E+000,1.00000E+000,0.00000E+000,0.00000E+000,0.00000E+000,1.00000E+000,0.00000E+000,0.00000E+000,0.00000E+000,1.00000E+000,0
609,1327,-2.09567E+001,-1.36342E-001,-6.12256E-003,0.00000E+000,0.00000E+000,0.00000E+000,0.00000E+000,6.17876E-003,6.57953E-001,0,0.00000E+000,0.00000E+000,-1.00000E+000,-4.08530E+001,-4.10152E+001,9.99236E-001,0.00000E+000,0.00000E+000,0.00000E+000,0.00000E+000,0.00000E+000,0.00000E+000,0.00000E+000,1.00000E+000,0.00000E+000,0.00000E+000,0.00000E+000,1.00000E+000,0.00000E+000,0.00000E+000,0.00000E+000,1.00000E+000,0
609,1337,-2.09494E+001,4.97833E-001,-2.36467E-002,0.00000E+000,0.00000E+000,0.00000E+000,0.00000E+000,5.35463E-003,6.41910E-001,0,0.00000E+000,0.00000E+000,-1.00000E+000,-4.06310E+001,-4.12532E+001,9.99470E-001,0.00000E+000,0.00000E+000,0.00000E+000,0.00000E+000,0.00000E+000,0.00000E+000,0.00000E+000,1.00000E+000,0.00000E+000,0.00000E+000,0.00000E+000,1.00000E+000,0.00000E+000,0.00000E+000,0.00000E+000,1.00000E+000,0
1249,1297,2.07494E+001,-1.71734E+000,7.31888E-003,0.00000E+000,0.00000E+000,0.00000E+000,0.00000E+000,6.63367E-003,4.81995E-001,0,0.00000E+000,0.00000E+000,-1.00000E+000,-3.79104E+001,-2.99908E+001,9.99512E-001,0.00000E+000,0.00000E+000,0.00000E+000,0.00000E+000,0.00000E+000,0.00000E+000,0.00000E+000,1.00000E+000,0.00000E+000,0.00000E+000,0.00000E+000,1.00000E+000,0.00000E+000,0.00000E+000,0.00000E+000,1.00000E+000,0
1249,1307,2.07564E+001,-1.07230E+000,-3.35075E-002,0.00000E+000,0.00000E+000,0.00000E+000,0.00000E+000,9.93960E-003,4.75013E-001,0,0.00000E+000,0.00000E+000,-1.00000E+000,-3.78033E+001,-2.98947E+001,9.99252E-001,0.00000E+000,0.00000E+000,0.00000E+000,0.00000E+000,0.00000E+000,0.00000E+000,0.00000E+000,1.00000E+000,0.00000E+000,0.00000E+000,0.00000E+000,1.00000E+000,0.00000E+000,0.00000E+000,0.00000E+000,1.00000E+000,0
1249,1317,2.07718E+001,-4.23168E-001,-4.25335E-002,0.00000E+000,0.00000E+000,0.00000E+000,0.00000E+000,1.07435E-002,4.49789E-001,0,0.00000E+000,0.00000E+000,-1.00000E+000,-3.75138E+001,-2.98139E+001,9.98559E-001,0.00000E+000,0.00000E+000,0.00000E+000,0.00000E+000,0.00000E+000,0.00000E+000,0.00000E+000,1.00000E+000,0.00000E+000,0.00000E+000,0.00000E+000,1.00000E+000,0.00000E+000,0.00000E+000,0.00000E+000,1.00000E+000,0
1249,1327,2.07973E+001,2.33080E-001,-1.35996E-002,0.00000E+000,0.00000E+000,0.00000E+000,0.00000E+000,9.24290E-003,4.67371E-001,0,0.00000E+000,0.00000E+000,-1.00000E+000,-3.70058E+001,-2.96869E+001,9.98856E-001,0.00000E+000,0.00000E+000,0.00000E+000,0.00000E+000,0.00000E+000,0.00000E+000,0.00000E+000,1.00000E+000,0.00000E+000,0.00000E+000,0.00000E+000,1.00000E+000,0.00000E+000,0.00000E+000,0.00000E+000,1.00000E+000,0
1249,1337,2.08302E+001,8.92143E-001,4.30195E-002,0.00000E+000,0.00000E+000,0.00000E+000,0.00000E+000,5.27093E-003,4.35863E-001,0,0.00000E+000,0.00000E+000,-1.00000E+000,-3.63395E+001,-2.96063E+001,9.99629E-001,0.00000E+000,0.00000E+000,0.00000E+000,0.00000E+000,0.00000E+000,0.00000E+000,0.00000E+000,1.00000E+000,0.00000E+000,0.00000E+000,0.00000E+000,1.00000E+000,0.00000E+000,0.00000E+000,0.00000E+000,1.00000E+000,0
1259,1327,2.14638E+001,2.37707E-001,-1.70755E-002,0.00000E+000,0.00000E+000,0.00000E+000,0.00000E+000,7.91226E-003,4.26677E-001,0,0.00000E+000,0.00000E+000,-1.00000E+000,-3.66241E+001,-2.95427E+001,9.99302E-001,0.00000E+000,0.00000E+000,0.00000E+000,0.00000E+000,0.00000E+000,0.00000E+000,0.00000E+000,1.00000E+000,0.00000E+000,0.00000E+000,0.00000E+000,1.00000E+000,0.00000E+000,0.00000E+000,0.00000E+000,1.00000E+000,0
1259,1337,2.14974E+001,8.97551E-001,4.11813E-002,0.00000E+000,0.00000E+000,0.00000E+000,0.00000E+000,7.99389E-003,4.04448E-001,0,0.00000E+000,0.00000E+000,-1.00000E+000,-3.59479E+001,-2.94473E+001,9.99479E-001,0.00000E+000,0.00000E+000,0.00000E+000,0.00000E+000,0.00000E+000,0.00000E+000,0.00000E+000,1.00000E+000,0.00000E+000,0.00000E+000,0.00000E+000,1.00000E+000,0.00000E+000,0.00000E+000,0.00000E+000,1.00000E+000,0
599,1347,-2.15770E+001,1.13078E+000,-1.73286E-002,0.00000E+000,0.00000E+000,0.00000E+000,0.00000E+000,6.78967E-003,6.53612E-001,0,0.00000E+000,0.00000E+000,-1.00000E+000,-4.00064E+001,-4.16464E+001,9.99583E-001,0.00000E+000,0.00000E+000,0.00000E+000,0.00000E+000,0.00000E+000,0.00000E+000,0.00000E+000,1.00000E+000,0.00000E+000,0.00000E+000,0.00000E+000,1.00000E+000,0.00000E+000,0.00000E+000,0.00000E+000,1.00000E+000,0
599,1357,-2.15616E+001,1.77245E+000,1.37057E-002,0.00000E+000,0.00000E+000,0.00000E+000,0.00000E+000,4.82984E-003,6.39996E-001,0,0.00000E+000,0.00000E+000,-1.00000E+000,-3.95136E+001,-4.18819E+001,9.99642E-001,0.00000E+000,0.00000E+000,0.00000E+000,0.00000E+000,0.00000E+000,0.00000E+000,0.00000E+000,1.00000E+000,0.00000E+000,0.00000E+000,0.00000E+000,1.00000E+000,0.00000E+000,0.00000E+000,0.00000E+000,1.00000E+000,0
1259,1287,2.14126E+001,-2.35753E+000,6.01595E-002,0.00000E+000,0.00000E+000,0.00000E+000,0.00000E+000,9.92098E-003,4.14391E-001,0,0.00000E+000,0.00000E+000,-1.00000E+000,-3.75485E+001,-2.99964E+001,9.98176E-001,0.00000E+000,0.00000E+000,0.00000E+000,0.00000E+000,0.00000E+000,0.00000E+000,0.00000E+000,1.00000E+000,0.00000E+000,0.00000E+000,0.00000E+000,1.00000E+000,0.00000E+000,0.00000E+000,0.00000E+000,1.00000E+000,0
1259,1297,2.14140E+001,-1.71365E+000,-1.85078E-003,0.00000E+000,0.00000E+000,0.00000E+000,0.00000E+000,6.74850E-003,4.59506E-001,0,0.00000E+000,0.00000E+000,-1.00000E+000,-3.75623E+001,-2.98447E+001,9.99047E-001,0.00000E+000,0.00000E+000,0.00000E+000,0.00000E+000,0.00000E+000,0.00000E+000,0.00000E+000,1.00000E+000,0.00000E+000,0.00000E+000,0.00000E+000,1.00000E+000,0.00000E+000,0.00000E+000,0.00000E+000,1.00000E+000,0
1259,1307,2.14223E+001,-1.06693E+000,-3.80674E-002,0.00000E+000,0.00000E+000,0.00000E+000,0.00000E+000,7.42019E-003,4.77198E-001,0,0.00000E+000,0.00000E+000,-1.00000E+000,-3.74281E+001,-2.97182E+001,9.99115E-001,0.00000E+000,0.00000E+000,0.00000E+000,0.00000E+000,0.00000E+000,0.00000E+000,0.00000E+000,1.00000E+000,0.00000E+000,0.00000E+000,0.00000E+000,1.00000E+000,0.00000E+000,0.00000E+000,0.00000E+000,1.00000E+000,0
599,1327,-2.15942E+001,-1.40421E-001,1.04814E-003,0.00000E+000,0.00000E+000,0.00000E+000,0.00000E+000,5.73036E-003,6.66598E-001,0,0.00000E+000,0.00000E+000,-1.00000E+000,-4.05433E+001,-4.11810E+001,9.99469E-001,0.00000E+000,0.00000E+000,0.00000E+000,0.00000E+000,0.00000E+000,0.00000E+000,0.00000E+000,1.00000E+000,0.00000E+000,0.00000E+000,0.00000E+000,1.00000E+000,0.00000E+000,0.00000E+000,0.00000E+000,1.00000E+000,0
599,1337,-2.15884E+001,4.92209E-001,-2.51053E-002,0.00000E+000,0.00000E+000,0.00000E+000,0.00000E+000,5.38176E-003,6.47976E-001,0,0.00000E+000,0.00000E+000,-1.00000E+000,-4.03697E+001,-4.14275E+001,9.99500E-001,0.00000E+000,0.00000E+000,0.00000E+000,0.00000E+000,0.00000E+000,0.00000E+000,0.00000E+000,1.00000E+000,0.00000E+000,0.00000E+000,0.00000E+000,1.00000E+000,0.00000E+000,0.00000E+000,0.00000E+000,1.00000E+000,0
1259,1317,2.14381E+001,-4.16814E-001,-4.59526E-002,0.00000E+000,0.00000E+000,0.00000E+000,0.00000E+000,8.44579E-003,4.69965E-001,0,0.00000E+000,0.00000E+000,-1.00000E+000,-3.71315E+001,-2.96141E+001,9.99116E-001,0.00000E+000,0.00000E+000,0.00000E+000,0.00000E+000,0.00000E+000,0.00000E+000,0.00000E+000,1.00000E+000,0.00000E+000,0.00000E+000,0.00000E+000,1.00000E+000,0.00000E+000,0.00000E+000,0.00000E+000,1.00000E+000,0
599,1317,-2.15955E+001,-7.70409E-001,5.34446E-002,0.00000E+000,0.00000E+000,0.00000E+000,0.00000E+000,7.87627E-003,6.46455E-001,0,0.00000E+000,0.00000E+000,-1.00000E+000,-4.05708E+001,-4.09708E+001,9.99413E-001,0.00000E+000,0.00000E+000,0.00000E+000,0.00000E+000,0.00000E+000,0.00000E+000,0.00000E+000,1.00000E+000,0.00000E+000,0.00000E+000,0.00000E+000,1.00000E+000,0.00000E+000,0.00000E+000,0.00000E+000,1.00000E+000,0
589,1347,-2.22154E+001,1.12516E+000,-1.70570E-002,0.00000E+000,0.00000E+000,0.00000E+000,0.00000E+000,5.11748E-003,6.57962E-001,0,0.00000E+000,0.00000E+000,-1.00000E+000,-3.97260E+001,-4.18270E+001,9.99611E-001,0.00000E+000,0.00000E+000,0.00000E+000,0.00000E+000,0.00000E+000,0.00000E+000,0.00000E+000,1.00000E+000,0.00000E+000,0.00000E+000,0.00000E+000,1.00000E+000,0.00000E+000,0.00000E+000,0.00000E+000,1.00000E+000,0
589,1357,-2.21997E+001,1.76784E+000,1.72958E-002,0.00000E+000,0.00000E+000,0.00000E+000,0.00000E+000,4.31068E-003,6.66673E-001,0,0.00000E+000,0.00000E+000,-1.00000E+000,-3.92148E+001,-4.20450E+001,9.99645E-001,0.00000E+000,0.00000E+000,0.00000E+000,0.00000E+000,0.00000E+000,0.00000E+000,0.00000E+000,1.00000E+000,0.00000E+000,0.00000E+000,0.00000E+000,1.00000E+000,0.00000E+000,0.00000E+000,0.00000E+000,1.00000E+000,0
589,1337,-2.22258E+001,4.87303E-001,-1.91020E-002,0.00000E+000,0.00000E+000,0.00000E+000,0.00000E+000,5.36874E-003,6.42203E-001,0,0.00000E+000,0.00000E+000,-1.00000E+000,-4.00571E+001,-4.16127E+001,9.99571E-001,0.00000E+000,0.00000E+000,0.00000E+000,0.00000E+000,0.00000E+000,0.00000E+000,0.00000E+000,1.00000E+000,0.00000E+000,0.00000E+000,0.00000E+000,1.00000E+000,0.00000E+000,0.00000E+000,0.00000E+000,1.00000E+000,0
589,1327,-2.22317E+001,-1.44519E-001,5.71274E-003,0.00000E+000,0.00000E+000,0.00000E+000,0.00000E+000,8.94120E-003,6.85467E-001,0,0.00000E+000,0.00000E+000,-1.00000E+000,-4.02376E+001,-4.13369E+001,9.99416E-001,0.00000E+000,0.00000E+000,0.00000E+000,0.00000E+000,0.00000E+000,0.00000E+000,0.00000E+000,1.00000E+000,0.00000E+000,0.00000E+000,0.00000E+000,1.00000E+000,0.00000E+000,0.00000E+000,0.00000E+000,1.00000E+000,0
1269,1327,2.21312E+001,2.44439E-001,-1.90124E-002,0.00000E+000,0.00000E+000,0.00000E+000,0.00000E+000,7.16084E-003,4.43767E-001,0,0.00000E+000,0.00000E+000,-1.00000E+000,-3.62221E+001,-2.93403E+001,9.99332E-001,0.00000E+000,0.00000E+000,0.00000E+000,0.00000E+000,0.00000E+000,0.00000E+000,0.00000E+000,1.00000E+000,0.00000E+000,0.00000E+000,0.00000E+000,1.00000E+000,0.00000E+000,0.00000E+000,0.00000E+000,1.00000E+000,0
1269,1337,2.21659E+001,9.04339E-001,4.25583E-002,0.00000E+000,0.00000E+000,0.00000E+000,0.00000E+000,6.76839E-003,4.00645E-001,0,0.00000E+000,0.00000E+000,-1.00000E+000,-3.55266E+001,-2.92603E+001,9.99250E-001,0.00000E+000,0.00000E+000,0.00000E+000,0.00000E+000,0.00000E+000,0.00000E+000,0.00000E+000,1.00000E+000,0.00000E+000,0.00000E+000,0.00000E+000,1.00000E+000,0.00000E+000,0.00000E+000,0.00000E+000,1.00000E+000,0
589,1317,-2.22327E+001,-7.74511E-001,5.98397E-002,0.00000E+000,0.00000E+000,0.00000E+000,0.00000E+000,6.32314E-003,6.51491E-001,0,0.00000E+000,0.00000E+000,-1.00000E+000,-4.02554E+001,-4.11354E+001,9.99149E-001,0.00000E+000,0.00000E+000,0.00000E+000,0.00000E+000,0.00000E+000,0.00000E+000,0.00000E+000,1.00000E+000,0.00000E+000,0.00000E+000,0.00000E+000,1.00000E+000,0.00000E+000,0.00000E+000,0.00000E+000,1.00000E+000,0
1269,1317,2.21076E+001,-4.10174E-001,-3.95999E-002,0.00000E+000,0.00000E+000,0.00000E+000,0.00000E+000,7.82062E-003,4.54806E-001,0,0.00000E+000,0.00000E+000,-1.00000E+000,-3.66826E+001,-2.94486E+001,9.99143E-001,0.00000E+000,0.00000E+000,0.00000E+000,0.00000E+000,0.00000E+000,0.00000E+000,0.00000E+000,1.00000E+000,0.00000E+000,0.00000E+000,0.00000E+000,1.00000E+000,0.00000E+000,0.00000E+000,0.00000E+000,1.00000E+000,0
1269,1307,2.20916E+001,-1.06007E+000,-3.17378E-002,0.00000E+000,0.00000E+000,0.00000E+000,0.00000E+000,7.07562E-003,4.76982E-001,0,0.00000E+000,0.00000E+000,-1.00000E+000,-3.69795E+001,-2.95431E+001,9.99115E-001,0.00000E+000,0.00000E+000,0.00000E+000,0.00000E+000,0.00000E+000,0.00000E+000,0.00000E+000,1.00000E+000,0.00000E+000,0.00000E+000,0.00000E+000,1.00000E+000,0.00000E+000,0.00000E+000,0.00000E+000,1.00000E+000,0
1269,1297,2.20808E+001,-1.70804E+000,-4.82996E-003,0.00000E+000,0.00000E+000,0.00000E+000,0.00000E+000,8.13125E-003,4.69000E-001,0,0.00000E+000,0.00000E+000,-1.00000E+000,-3.71673E+001,-2.96660E+001,9.98940E-001,0.00000E+000,0.00000E+000,0.00000E+000,0.00000E+000,0.00000E+000,0.00000E+000,0.00000E+000,1.00000E+000,0.00000E+000,0.00000E+000,0.00000E+000,1.00000E+000,0.00000E+000,0.00000E+000,0.00000E+000,1.00000E+000,0
1269,1287,2.20816E+001,-2.35067E+000,6.54996E-002,0.00000E+000,0.00000E+000,0.00000E+000,0.00000E+000,1.51450E-002,4.34188E-001,0,0.00000E+000,0.00000E+000,-1.00000E+000,-3.71058E+001,-2.98120E+001,9.97743E-001,0.00000E+000,0.00000E+000,0.00000E+000,0.00000E+000,0.00000E+000,0.00000E+000,0.00000E+000,1.00000E+000,0.00000E+000,0.00000E+000,0.00000E+000,1.00000E+000,0.00000E+000,0.00000E+000,0.00000E+000,1.00000E+000,0
579,1347,-2.28527E+001,1.12041E+000,-1.25519E-002,0.00000E+000,0.00000E+000,0.00000E+000,0.00000E+000,4.65177E-003,6.69499E-001,0,0.00000E+000,0.00000E+000,-1.00000E+000,-3.94120E+001,-4.20000E+001,9.99622E-001,0.00000E+000,0.00000E+000,0.00000E+000,0.00000E+000,0.00000E+000,0.00000E+000,0.00000E+000,1.00000E+000,0.00000E+000,0.00000E+000,0.00000E+000,1.00000E+000,0.00000E+000,0.00000E+000,0.00000E+000,1.00000E+000,0
579,1357,-2.28368E+001,1.76342E+000,2.36681E-002,0.00000E+000,0.00000E+000,0.00000E+000,0.00000E+000,5.43158E-003,6.85955E-001,0,0.00000E+000,0.00000E+000,-1.00000E+000,-3.88907E+001,-4.22149E+001,9.99694E-001,0.00000E+000,0.00000E+000,0.00000E+000,0.00000E+000,0.00000E+000,0.00000E+000,0.00000E+000,1.00000E+000,0.00000E+000,0.00000E+000,0.00000E+000,1.00000E+000,0.00000E+000,0.00000E+000,0.00000E+000,1.00000E+000,0
579,1337,-2.28630E+001,4.82788E-001,-1.45661E-002,0.00000E+000,0.00000E+000,0.00000E+000,0.00000E+000,4.26762E-003,6.54811E-001,0,0.00000E+000,0.00000E+000,-1.00000E+000,-3.97426E+001,-4.17798E+001,9.99628E-001,0.00000E+000,0.00000E+000,0.00000E+000,0.00000E+000,0.00000E+000,0.00000E+000,0.00000E+000,1.00000E+000,0.00000E+000,0.00000E+000,0.00000E+000,1.00000E+000,0.00000E+000,0.00000E+000,0.00000E+000,1.00000E+000,0
579,1327,-2.28694E+001,-1.48822E-001,6.54050E-003,0.00000E+000,0.00000E+000,0.00000E+000,0.00000E+000,7.24254E-003,7.14736E-001,0,0.00000E+000,0.00000E+000,-1.00000E+000,-3.99433E+001,-4.14826E+001,9.99189E-001,0.00000E+000,0.00000E+000,0.00000E+000,0.00000E+000,0.00000E+000,0.00000E+000,0.00000E+000,1.00000E+000,0.00000E+000,0.00000E+000,0.00000E+000,1.00000E+000,0.00000E+000,0.00000E+000,0.00000E+000,1.00000E+000,0
579,1317,-2.28707E+001,-7.77286E-001,5.90484E-002,0.00000E+000,0.00000E+000,0.00000E+000,0.00000E+000,9.26206E-003,7.28365E-001,0,0.00000E+000,0.00000E+000,-1.00000E+000,-3.99694E+001,-4.12287E+001,9.98726E-001,0.00000E+000,0.00000E+000,0.00000E+000,0.00000E+000,0.00000E+000,0.00000E+000,0.00000E+000,1.00000E+000,0.00000E+000,0.00000E+000,0.00000E+000,1.00000E+000,0.00000E+000,0.00000E+000,0.00000E+000,1.00000E+000,0
1279,1317,2.27742E+001,-4.05895E-001,-4.57295E-002,0.00000E+000,0.00000E+000,0.00000E+000,0.00000E+000,6.92366E-003,4.21590E-001,0,0.00000E+000,0.00000E+000,-1.00000E+000,-3.62948E+001,-2.93021E+001,9.98865E-001,0.00000E+000,0.00000E+000,0.00000E+000,0.00000E+000,0.00000E+000,0.00000E+000,0.00000E+000,1.00000E+000,0.00000E+000,0.00000E+000,0.00000E+000,1.00000E+000,0.00000E+000,0.00000E+000,0.00000E+000,1.00000E+000,0
1279,1327,2.27995E+001,2.51203E-001,-1.97043E-002,0.00000E+000,0.00000E+000,0.00000E+000,0.00000E+000,1.00775E-002,4.55752E-001,0,0.00000E+000,0.00000E+000,-1.00000E+000,-3.58021E+001,-2.91429E+001,9.99130E-001,0.00000E+000,0.00000E+000,0.00000E+000,0.00000E+000,0.00000E+000,0.00000E+000,0.00000E+000,1.00000E+000,0.00000E+000,0.00000E+000,0.00000E+000,1.00000E+000,0.00000E+000,0.00000E+000,0.00000E+000,1.00000E+000,0
1279,1337,2.28342E+001,9.12657E-001,4.13782E-002,0.00000E+000,0.00000E+000,0.00000E+000,0.00000E+000,6.64235E-003,4.55331E-001,0,0.00000E+000,0.00000E+000,-1.00000E+000,-3.51084E+001,-2.90150E+001,9.99475E-001,0.00000E+000,0.00000E+000,0.00000E+000,0.00000E+000,0.00000E+000,0.00000E+000,0.00000E+000,1.00000E+000,0.00000E+000,0.00000E+000,0.00000E+000,1.00000E+000,0.00000E+000,0.00000E+000,0.00000E+000,1.00000E+000,0
1279,1307,2.27569E+001,-1.05581E+000,-4.23807E-002,0.00000E+000,0.00000E+000,0.00000E+000,0.00000E+000,8.28906E-003,4.70537E-001,0,0.00000E+000,0.00000E+000,-1.00000E+000,-3.66177E+001,-2.93755E+001,9.98617E-001,0.00000E+000,0.00000E+000,0.00000E+000,0.00000E+000,0.00000E+000,0.00000E+000,0.00000E+000,1.00000E+000,0.00000E+000,0.00000E+000,0.00000E+000,1.00000E+000,0.00000E+000,0.00000E+000,0.00000E+000,1.00000E+000,0
1279,1297,2.27494E+001,-1.70328E+000,-2.60731E-003,0.00000E+000,0.00000E+000,0.00000E+000,0.00000E+000,1.34274E-002,4.29092E-001,0,0.00000E+000,0.00000E+000,-1.00000E+000,-3.67322E+001,-2.95361E+001,9.98983E-001,0.00000E+000,0.00000E+000,0.00000E+000,0.00000E+000,0.00000E+000,0.00000E+000,0.00000E+000,1.00000E+000,0.00000E+000,0.00000E+000,0.00000E+000,1.00000E+000,0.00000E+000,0.00000E+000,0.00000E+000,1.00000E+000,0
1279,1287,2.27463E+001,-2.34767E+000,5.31485E-002,0.00000E+000,0.00000E+000,0.00000E+000,0.00000E+000,1.24497E-002,4.10128E-001,0,0.00000E+000,0.00000E+000,-1.00000E+000,-3.67545E+001,-2.96726E+001,9.98650E-001,0.00000E+000,0.00000E+000,0.00000E+000,0.00000E+000,0.00000E+000,0.00000E+000,0.00000E+000,1.00000E+000,0.00000E+000,0.00000E+000,0.00000E+000,1.00000E+000,0.00000E+000,0.00000E+000,0.00000E+000,1.00000E+000,0
569,1347,-2.34899E+001,1.11575E+000,-9.72259E-003,0.00000E+000,0.00000E+000,0.00000E+000,0.00000E+000,4.03481E-003,6.91014E-001,0,0.00000E+000,0.00000E+000,-1.00000E+000,-3.90974E+001,-4.21628E+001,9.99687E-001,0.00000E+000,0.00000E+000,0.00000E+000,0.00000E+000,0.00000E+000,0.00000E+000,0.00000E+000,1.00000E+000,0.00000E+000,0.00000E+000,0.00000E+000,1.00000E+000,0.00000E+000,0.00000E+000,0.00000E+000,1.00000E+000,0
569,1357,-2.34755E+001,1.75641E+000,1.88351E-002,0.00000E+000,0.00000E+000,0.00000E+000,0.00000E+000,5.07446E-003,6.76909E-001,0,0.00000E+000,0.00000E+000,-1.00000E+000,-3.86196E+001,-4.24142E+001,9.99567E-001,0.00000E+000,0.00000E+000,0.00000E+000,0.00000E+000,0.00000E+000,0.00000E+000,0.00000E+000,1.00000E+000,0.00000E+000,0.00000E+000,0.00000E+000,1.00000E+000,0.00000E+000,0.00000E+000,0.00000E+000,1.00000E+000,0
569,1327,-2.35074E+001,-1.54189E-001,3.16468E-003,0.00000E+000,0.00000E+000,0.00000E+000,0.00000E+000,1.03596E-002,7.29472E-001,0,0.00000E+000,0.00000E+000,-1.00000E+000,-3.96628E+001,-4.16429E+001,9.99526E-001,0.00000E+000,0.00000E+000,0.00000E+000,0.00000E+000,0.00000E+000,0.00000E+000,0.00000E+000,1.00000E+000,0.00000E+000,0.00000E+000,0.00000E+000,1.00000E+000,0.00000E+000,0.00000E+000,0.00000E+000,1.00000E+000,0
569,1337,-2.34995E+001,4.79126E-001,-7.98801E-003,0.00000E+000,0.00000E+000,0.00000E+000,0.00000E+000,3.58373E-003,6.83829E-001,0,0.00000E+000,0.00000E+000,-1.00000E+000,-3.94067E+001,-4.19299E+001,9.99745E-001,0.00000E+000,0.00000E+000,0.00000E+000,0.00000E+000,0.00000E+000,0.00000E+000,0.00000E+000,1.00000E+000,0.00000E+000,0.00000E+000,0.00000E+000,1.00000E+000,0.00000E+000,0.00000E+000,0.00000E+000,1.00000E+000,0
1289,1327,2.34652E+001,2.55696E-001,-3.12194E-002,0.00000E+000,0.00000E+000,0.00000E+000,0.00000E+000,7.66339E-003,4.45529E-001,0,0.00000E+000,0.00000E+000,-1.00000E+000,-3.54337E+001,-2.89684E+001,9.99156E-001,0.00000E+000,0.00000E+000,0.00000E+000,0.00000E+000,0.00000E+000,0.00000E+000,0.00000E+000,1.00000E+000,0.00000E+000,0.00000E+000,0.00000E+000,1.00000E+000,0.00000E+000,0.00000E+000,0.00000E+000,1.00000E+000,0
1289,1337,2.35001E+001,9.17593E-001,2.91819E-002,0.00000E+000,0.00000E+000,0.00000E+000,0.00000E+000,8.01843E-003,4.54702E-001,0,0.00000E+000,0.00000E+000,-1.00000E+000,-3.47433E+001,-2.88257E+001,9.99244E-001,0.00000E+000,0.00000E+000,0.00000E+000,0.00000E+000,0.00000E+000,0.00000E+000,0.00000E+000,1.00000E+000,0.00000E+000,0.00000E+000,0.00000E+000,1.00000E+000,0.00000E+000,0.00000E+000,0.00000E+000,1.00000E+000,0
569,1317,-2.35072E+001,-7.82316E-001,6.49234E-002,0.00000E+000,0.00000E+000,0.00000E+000,0.00000E+000,1.04701E-002,7.06475E-001,0,0.00000E+000,0.00000E+000,-1.00000E+000,-3.96376E+001,-4.14200E+001,9.98995E-001,0.00000E+000,0.00000E+000,0.00000E+000,0.00000E+000,0.00000E+000,0.00000E+000,0.00000E+000,1.00000E+000,0.00000E+000,0.00000E+000,0.00000E+000,1.00000E+000,0.00000E+000,0.00000E+000,0.00000E+000,1.00000E+000,0
1289,1317,2.34423E+001,-3.97808E-001,-4.83409E-002,0.00000E+000,0.00000E+000,0.00000E+000,0.00000E+000,1.11667E-002,4.90360E-001,0,0.00000E+000,0.00000E+000,-1.00000E+000,-3.58747E+001,-2.90532E+001,9.98653E-001,0.00000E+000,0.00000E+000,0.00000E+000,0.00000E+000,0.00000E+000,0.00000E+000,0.00000E+000,1.00000E+000,0.00000E+000,0.00000E+000,0.00000E+000,1.00000E+000,0.00000E+000,0.00000E+000,0.00000E+000,1.00000E+000,0
1289,1287,2.34132E+001,-2.34204E+000,4.70764E-002,0.00000E+000,0.00000E+000,0.00000E+000,0.00000E+000,9.82370E-003,4.40386E-001,0,0.00000E+000,0.00000E+000,-1.00000E+000,-3.63556E+001,-2.94785E+001,9.99172E-001,0.00000E+000,0.00000E+000,0.00000E+000,0.00000E+000,0.00000E+000,0.00000E+000,0.00000E+000,1.00000E+000,0.00000E+000,0.00000E+000,0.00000E+000,1.00000E+000,0.00000E+000,0.00000E+000,0.00000E+000,1.00000E+000,0
1289,1297,2.34199E+001,-1.69787E+000,4.33282E-003,0.00000E+000,0.00000E+000,0.00000E+000,0.00000E+000,1.17343E-002,3.88213E-001,0,0.00000E+000,0.00000E+000,-1.00000E+000,-3.62590E+001,-2.94066E+001,9.99192E-001,0.00000E+000,0.00000E+000,0.00000E+000,0.00000E+000,0.00000E+000,0.00000E+000,0.00000E+000,1.00000E+000,0.00000E+000,0.00000E+000,0.00000E+000,1.00000E+000,0.00000E+000,0.00000E+000,0.00000E+000,1.00000E+000,0
1289,1307,2.34262E+001,-1.04885E+000,-3.99131E-002,0.00000E+000,0.00000E+000,0.00000E+000,0.00000E+000,1.20347E-002,4.89698E-001,0,0.00000E+000,0.00000E+000,-1.00000E+000,-3.61693E+001,-2.91811E+001,9.98633E-001,0.00000E+000,0.00000E+000,0.00000E+000,0.00000E+000,0.00000E+000,0.00000E+000,0.00000E+000,1.00000E+000,0.00000E+000,0.00000E+000,0.00000E+000,1.00000E+000,0.00000E+000,0.00000E+000,0.00000E+000,1.00000E+000,0
559,1327,-2.41442E+001,-1.57934E-001,5.40235E-003,0.00000E+000,0.00000E+000,0.00000E+000,0.00000E+000,1.72954E-002,7.68969E-001,0,0.00000E+000,0.00000E+000,-1.00000E+000,-3.93408E+001,-4.17782E+001,9.99588E-001,0.00000E+000,0.00000E+000,0.00000E+000,0.00000E+000,0.00000E+000,0.00000E+000,0.00000E+000,1.00000E+000,0.00000E+000,0.00000E+000,0.00000E+000,1.00000E+000,0.00000E+000,0.00000E+000,0.00000E+000,1.00000E+000,0
559,1337,-2.41365E+001,4.74228E-001,-7.24727E-003,0.00000E+000,0.00000E+000,0.00000E+000,0.00000E+000,5.13114E-003,7.00771E-001,0,0.00000E+000,0.00000E+000,-1.00000E+000,-3.90936E+001,-4.20926E+001,9.99687E-001,0.00000E+000,0.00000E+000,0.00000E+000,0.00000E+000,0.00000E+000,0.00000E+000,0.00000E+000,1.00000E+000,0.00000E+000,0.00000E+000,0.00000E+000,1.00000E+000,0.00000E+000,0.00000E+000,0.00000E+000,1.00000E+000,0
559,1347,-2.41270E+001,1.10910E+000,-8.36778E-003,0.00000E+000,0.00000E+000,0.00000E+000,0.00000E+000,5.29103E-003,6.57595E-001,0,0.00000E+000,0.00000E+000,-1.00000E+000,-3.87819E+001,-4.23807E+001,9.99618E-001,0.00000E+000,0.00000E+000,0.00000E+000,0.00000E+000,0.00000E+000,0.00000E+000,0.00000E+000,1.00000E+000,0.00000E+000,0.00000E+000,0.00000E+000,1.00000E+000,0.00000E+000,0.00000E+000,0.00000E+000,1.00000E+000,0
559,1357,-2.41134E+001,1.74868E+000,1.64475E-002,0.00000E+000,0.00000E+000,0.00000E+000,0.00000E+000,4.42985E-003,6.33921E-001,0,0.00000E+000,0.00000E+000,-1.00000E+000,-3.83255E+001,-4.26468E+001,9.99697E-001,0.00000E+000,0.00000E+000,0.00000E+000,0.00000E+000,0.00000E+000,0.00000E+000,0.00000E+000,1.00000E+000,0.00000E+000,0.00000E+000,0.00000E+000,1.00000E+000,0.00000E+000,0.00000E+000,0.00000E+000,1.00000E+000,0
559,1317,-2.41434E+001,-7.85445E-001,6.98917E-002,0.00000E+000,0.00000E+000,0.00000E+000,0.00000E+000,1.64509E-002,7.46493E-001,0,0.00000E+000,0.00000E+000,-1.00000E+000,-3.93003E+001,-4.15493E+001,9.99448E-001,0.00000E+000,0.00000E+000,0.00000E+000,0.00000E+000,0.00000E+000,0.00000E+000,0.00000E+000,1.00000E+000,0.00000E+000,0.00000E+000,0.00000E+000,1.00000E+000,0.00000E+000,0.00000E+000,0.00000E+000,1.00000E+000,0
1299,1327,2.41356E+001,2.63125E-001,-2.77673E-002,0.00000E+000,0.00000E+000,0.00000E+000,0.00000E+000,7.71378E-003,4.58211E-001,0,0.00000E+000,0.00000E+000,-1.00000E+000,-3.49680E+001,-2.87695E+001,9.99598E-001,0.00000E+000,0.00000E+000,0.00000E+000,0.00000E+000,0.00000E+000,0.00000E+000,0.00000E+000,1.00000E+000,0.00000E+000,0.00000E+000,0.00000E+000,1.00000E+000,0.00000E+000,0.00000E+000,0.00000E+000,1.00000E+000,0
1299,1337,2.41719E+001,9.26682E-001,3.71835E-002,0.00000E+000,0.00000E+000,0.00000E+000,0.00000E+000,9.61052E-003,4.90237E-001,0,0.00000E+000,0.00000E+000,-1.00000E+000,-3.42508E+001,-2.85983E+001,9.99158E-001,0.00000E+000,0.00000E+000,0.00000E+000,0.00000E+000,0.00000E+000,0.00000E+000,0.00000E+000,1.00000E+000,0.00000E+000,0.00000E+000,0.00000E+000,1.00000E+000,0.00000E+000,0.00000E+000,0.00000E+000,1.00000E+000,0
1299,1287,2.40850E+001,-2.33322E+000,5.67765E-002,0.00000E+000,0.00000E+000,0.00000E+000,0.00000E+000,9.22197E-003,5.01087E-001,0,0.00000E+000,0.00000E+000,-1.00000E+000,-3.58546E+001,-2.92525E+001,9.98950E-001,0.00000E+000,0.00000E+000,0.00000E+000,0.00000E+000,0.00000E+000,0.00000E+000,0.00000E+000,1.00000E+000,0.00000E+000,0.00000E+000,0.00000E+000,1.00000E+000,0.00000E+000,0.00000E+000,0.00000E+000,1.00000E+000,0
1299,1297,2.40902E+001,-1.68929E+000,8.65516E-003,0.00000E+000,0.00000E+000,0.00000E+000,0.00000E+000,9.75155E-003,4.56476E-001,0,0.00000E+000,0.00000E+000,-1.00000E+000,-3.57886E+001,-2.91681E+001,9.99155E-001,0.00000E+000,0.00000E+000,0.00000E+000,0.00000E+000,0.00000E+000,0.00000E+000,0.00000E+000,1.00000E+000,0.00000E+000,0.00000E+000,0.00000E+000,1.00000E+000,0.00000E+000,0.00000E+000,0.00000E+000,1.00000E+000,0
1299,1307,2.41008E+001,-1.03973E+000,-2.02038E-002,0.00000E+000,0.00000E+000,0.00000E+000,0.00000E+000,1.89211E-002,4.98737E-001,0,0.00000E+000,0.00000E+000,-1.00000E+000,-3.56108E+001,-2.89952E+001,9.99087E-001,0.00000E+000,0.00000E+000,0.00000E+000,0.00000E+000,0.00000E+000,0.00000E+000,0.00000E+000,1.00000E+000,0.00000E+000,0.00000E+000,0.00000E+000,1.00000E+000,0.00000E+000,0.00000E+000,0.00000E+000,1.00000E+000,0
1299,1317,2.41163E+001,-3.88796E-001,-3.11726E-002,0.00000E+000,0.00000E+000,0.00000E+000,0.00000E+000,1.37976E-002,4.98914E-001,0,0.00000E+000,0.00000E+000,-1.00000E+000,-3.53305E+001,-2.88627E+001,9.99117E-001,0.00000E+000,0.00000E+000,0.00000E+000,0.00000E+000,0.00000E+000,0.00000E+000,0.00000E+000,1.00000E+000,0.00000E+000,0.00000E+000,0.00000E+000,1.00000E+000,0.00000E+000,0.00000E+000,0.00000E+000,1.00000E+000,0
559,1307,-2.41410E+001,-1.41181E+000,1.45429E-001,0.00000E+000,0.00000E+000,0.00000E+000,0.00000E+000,6.32391E-003,7.10237E-001,0,0.00000E+000,0.00000E+000,-1.00000E+000,-3.91984E+001,-4.13332E+001,9.99329E-001,0.00000E+000,0.00000E+000,0.00000E+000,0.00000E+000,0.00000E+000,0.00000E+000,0.00000E+000,1.00000E+000,0.00000E+000,0.00000E+000,0.00000E+000,1.00000E+000,0.00000E+000,0.00000E+000,0.00000E+000,1.00000E+000,0
549,1347,-2.47637E+001,1.10473E+000,-7.16525E-003,0.00000E+000,0.00000E+000,0.00000E+000,0.00000E+000,4.70985E-003,6.94608E-001,0,0.00000E+000,0.00000E+000,-1.00000E+000,-3.84565E+001,-4.25281E+001,9.99580E-001,0.00000E+000,0.00000E+000,0.00000E+000,0.00000E+000,0.00000E+000,0.00000E+000,0.00000E+000,1.00000E+000,0.00000E+000,0.00000E+000,0.00000E+000,1.00000E+000,0.00000E+000,0.00000E+000,0.00000E+000,1.00000E+000,0
549,1357,-2.47494E+001,1.74512E+000,2.29329E-002,0.00000E+000,0.00000E+000,0.00000E+000,0.00000E+000,4.07753E-003,6.77800E-001,0,0.00000E+000,0.00000E+000,-1.00000E+000,-3.79710E+001,-4.27918E+001,9.99741E-001,0.00000E+000,0.00000E+000,0.00000E+000,0.00000E+000,0.00000E+000,0.00000E+000,0.00000E+000,1.00000E+000,0.00000E+000,0.00000E+000,0.00000E+000,1.00000E+000,0.00000E+000,0.00000E+000,0.00000E+000,1.00000E+000,0
549,1327,-2.47789E+001,-1.62316E-001,1.76201E-002,0.00000E+000,0.00000E+000,0.00000E+000,0.00000E+000,1.20135E-002,7.44055E-001,0,0.00000E+000,0.00000E+000,-1.00000E+000,-3.89543E+001,-4.19764E+001,9.98892E-001,0.00000E+000,0.00000E+000,0.00000E+000,0.00000E+000,0.00000E+000,0.00000E+000,0.00000E+000,1.00000E+000,0.00000E+000,0.00000E+000,0.00000E+000,1.00000E+000,0.00000E+000,0.00000E+000,0.00000E+000,1.00000E+000,0
549,1337,-2.47728E+001,4.67947E-001,-4.01039E-003,0.00000E+000,0.00000E+000,0.00000E+000,0.00000E+000,5.04046E-003,6.63644E-001,0,0.00000E+000,0.00000E+000,-1.00000E+000,-3.87576E+001,-4.23088E+001,9.99637E-001,0.00000E+000,0.00000E+000,0.00000E+000,0.00000E+000,0.00000E+000,0.00000E+000,0.00000E+000,1.00000E+000,0.00000E+000,0.00000E+000,0.00000E+000,1.00000E+000,0.00000E+000,0.00000E+000,0.00000E+000,1.00000E+000,0
1309,1317,2.47828E+001,-3.84997E-001,-4.29842E-002,0.00000E+000,0.00000E+000,0.00000E+000,0.00000E+000,8.99664E-003,4.74492E-001,0,0.00000E+000,0.00000E+000,-1.00000E+000,-3.49425E+001,-2.87074E+001,9.99370E-001,0.00000E+000,0.00000E+000,0.00000E+000,0.00000E+000,0.00000E+000,0.00000E+000,0.00000E+000,1.00000E+000,0.00000E+000,0.00000E+000,0.00000E+000,1.00000E+000,0.00000E+000,0.00000E+000,0.00000E+000,1.00000E+000,0
1309,1327,2.48050E+001,2.68898E-001,-2.98411E-002,0.00000E+000,0.00000E+000,0.00000E+000,0.00000E+000,9.92216E-003,4.43902E-001,0,0.00000E+000,0.00000E+000,-1.00000E+000,-3.45235E+001,-2.85980E+001,9.99328E-001,0.00000E+000,0.00000E+000,0.00000E+000,0.00000E+000,0.00000E+000,0.00000E+000,0.00000E+000,1.00000E+000,0.00000E+000,0.00000E+000,0.00000E+000,1.00000E+000,0.00000E+000,0.00000E+000,0.00000E+000,1.00000E+000,0
1309,1337,2.48402E+001,9.31789E-001,3.02381E-002,0.00000E+000,0.00000E+000,0.00000E+000,0.00000E+000,9.58888E-003,4.69691E-001,0,0.00000E+000,0.00000E+000,-1.00000E+000,-3.38339E+001,-2.84279E+001,9.99516E-001,0.00000E+000,0.00000E+000,0.00000E+000,0.00000E+000,0.00000E+000,0.00000E+000,0.00000E+000,1.00000E+000,0.00000E+000,0.00000E+000,0.00000E+000,1.00000E+000,0.00000E+000,0.00000E+000,0.00000E+000,1.00000E+000,0
549,1317,-2.47794E+001,-7.89190E-001,7.47502E-002,0.00000E+000,0.00000E+000,0.00000E+000,0.00000E+000,1.04792E-002,7.67715E-001,0,0.00000E+000,0.00000E+000,-1.00000E+000,-3.89540E+001,-4.16973E+001,9.99262E-001,0.00000E+000,0.00000E+000,0.00000E+000,0.00000E+000,0.00000E+000,0.00000E+000,0.00000E+000,1.00000E+000,0.00000E+000,0.00000E+000,0.00000E+000,1.00000E+000,0.00000E+000,0.00000E+000,0.00000E+000,1.00000E+000,0
549,1307,-2.47778E+001,-1.41619E+000,1.44653E-001,0.00000E+000,0.00000E+000,0.00000E+000,0.00000E+000,6.63547E-003,7.30334E-001,0,0.00000E+000,0.00000E+000,-1.00000E+000,-3.88834E+001,-4.14779E+001,9.99356E-001,0.00000E+000,0.00000E+000,0.00000E+000,0.00000E+000,0.00000E+000,0.00000E+000,0.00000E+000,1.00000E+000,0.00000E+000,0.00000E+000,0.00000E+000,1.00000E+000,0.00000E+000,0.00000E+000,0.00000E+000,1.00000E+000,0
1309,1287,2.47581E+001,-2.32740E+000,6.97977E-002,0.00000E+000,0.00000E+000,0.00000E+000,0.00000E+000,9.00021E-003,4.53292E-001,0,0.00000E+000,0.00000E+000,-1.00000E+000,-3.53248E+001,-2.91345E+001,9.98797E-001,0.00000E+000,0.00000E+000,0.00000E+000,0.00000E+000,0.00000E+000,0.00000E+000,0.00000E+000,1.00000E+000,0.00000E+000,0.00000E+000,0.00000E+000,1.00000E+000,0.00000E+000,0.00000E+000,0.00000E+000,1.00000E+000,0
1309,1297,2.47616E+001,-1.68178E+000,1.49442E-002,0.00000E+000,0.00000E+000,0.00000E+000,0.00000E+000,1.09073E-002,4.82617E-001,0,0.00000E+000,0.00000E+000,-1.00000E+000,-3.52965E+001,-2.89715E+001,9.98968E-001,0.00000E+000,0.00000E+000,0.00000E+000,0.00000E+000,0.00000E+000,0.00000E+000,0.00000E+000,1.00000E+000,0.00000E+000,0.00000E+000,0.00000E+000,1.00000E+000,0.00000E+000,0.00000E+000,0.00000E+000,1.00000E+000,0
1309,1307,2.47665E+001,-1.03776E+000,-3.46533E-002,0.00000E+000,0.00000E+000,0.00000E+000,0.00000E+000,9.57102E-003,4.36380E-001,0,0.00000E+000,0.00000E+000,-1.00000E+000,-3.52388E+001,-2.88833E+001,9.99532E-001,0.00000E+000,0.00000E+000,0.00000E+000,0.00000E+000,0.00000E+000,0.00000E+000,0.00000E+000,1.00000E+000,0.00000E+000,0.00000E+000,0.00000E+000,1.00000E+000,0.00000E+000,0.00000E+000,0.00000E+000,1.00000E+000,0
539,1347,-2.53999E+001,1.09900E+000,-4.87483E-003,0.00000E+000,0.00000E+000,0.00000E+000,0.00000E+000,5.15147E-003,6.84476E-001,0,0.00000E+000,0.00000E+000,-1.00000E+000,-3.81159E+001,-4.27223E+001,9.99514E-001,0.00000E+000,0.00000E+000,0.00000E+000,0.00000E+000,0.00000E+000,0.00000E+000,0.00000E+000,1.00000E+000,0.00000E+000,0.00000E+000,0.00000E+000,1.00000E+000,0.00000E+000,0.00000E+000,0.00000E+000,1.00000E+000,0
539,1357,-2.53866E+001,1.73870E+000,1.92388E-002,0.00000E+000,0.00000E+000,0.00000E+000,0.00000E+000,4.48158E-003,6.80152E-001,0,0.00000E+000,0.00000E+000,-1.00000E+000,-3.76639E+001,-4.29790E+001,9.99683E-001,0.00000E+000,0.00000E+000,0.00000E+000,0.00000E+000,0.00000E+000,0.00000E+000,0.00000E+000,1.00000E+000,0.00000E+000,0.00000E+000,0.00000E+000,1.00000E+000,0.00000E+000,0.00000E+000,0.00000E+000,1.00000E+000,0
539,1327,-2.54154E+001,-1.69826E-001,1.71599E-002,0.00000E+000,0.00000E+000,0.00000E+000,0.00000E+000,6.02225E-003,6.79036E-001,0,0.00000E+000,0.00000E+000,-1.00000E+000,-3.86291E+001,-4.22158E+001,9.99139E-001,0.00000E+000,0.00000E+000,0.00000E+000,0.00000E+000,0.00000E+000,0.00000E+000,0.00000E+000,1.00000E+000,0.00000E+000,0.00000E+000,0.00000E+000,1.00000E+000,0.00000E+000,0.00000E+000,0.00000E+000,1.00000E+000,0
539,1337,-2.54089E+001,4.62490E-001,-1.35276E-003,0.00000E+000,0.00000E+000,0.00000E+000,0.00000E+000,4.57573E-003,6.54007E-001,0,0.00000E+000,0.00000E+000,-1.00000E+000,-3.84146E+001,-4.24975E+001,9.99593E-001,0.00000E+000,0.00000E+000,0.00000E+000,0.00000E+000,0.00000E+000,0.00000E+000,0.00000E+000,1.00000E+000,0.00000E+000,0.00000E+000,0.00000E+000,1.00000E+000,0.00000E+000,0.00000E+000,0.00000E+000,1.00000E+000,0
1319,1297,2.54285E+001,-1.67963E+000,3.53453E-003,0.00000E+000,0.00000E+000,0.00000E+000,0.00000E+000,8.57656E-003,4.18966E-001,0,0.00000E+000,0.00000E+000,-1.00000E+000,-3.48963E+001,-2.88657E+001,9.99208E-001,0.00000E+000,0.00000E+000,0.00000E+000,0.00000E+000,0.00000E+000,0.00000E+000,0.00000E+000,1.00000E+000,0.00000E+000,0.00000E+000,0.00000E+000,1.00000E+000,0.00000E+000,0.00000E+000,0.00000E+000,1.00000E+000,0
1319,1307,2.54367E+001,-1.03281E+000,-3.44219E-002,0.00000E+000,0.00000E+000,0.00000E+000,0.00000E+000,9.18965E-003,4.01081E-001,0,0.00000E+000,0.00000E+000,-1.00000E+000,-3.47710E+001,-2.87430E+001,9.99493E-001,0.00000E+000,0.00000E+000,0.00000E+000,0.00000E+000,0.00000E+000,0.00000E+000,0.00000E+000,1.00000E+000,0.00000E+000,0.00000E+000,0.00000E+000,1.00000E+000,0.00000E+000,0.00000E+000,0.00000E+000,1.00000E+000,0
539,1307,-2.54138E+001,-1.42218E+000,1.47084E-001,0.00000E+000,0.00000E+000,0.00000E+000,0.00000E+000,5.81435E-003,6.86587E-001,0,0.00000E+000,0.00000E+000,-1.00000E+000,-3.85416E+001,-4.16858E+001,9.99248E-001,0.00000E+000,0.00000E+000,0.00000E+000,0.00000E+000,0.00000E+000,0.00000E+000,0.00000E+000,1.00000E+000,0.00000E+000,0.00000E+000,0.00000E+000,1.00000E+000,0.00000E+000,0.00000E+000,0.00000E+000,1.00000E+000,0
539,1317,-2.54161E+001,-7.97386E-001,7.23305E-002,0.00000E+000,0.00000E+000,0.00000E+000,0.00000E+000,5.62265E-003,6.83828E-001,0,0.00000E+000,0.00000E+000,-1.00000E+000,-3.86399E+001,-4.19507E+001,9.99268E-001,0.00000E+000,0.00000E+000,0.00000E+000,0.00000E+000,0.00000E+000,0.00000E+000,0.00000E+000,1.00000E+000,0.00000E+000,0.00000E+000,0.00000E+000,1.00000E+000,0.00000E+000,0.00000E+000,0.00000E+000,1.00000E+000,0
1319,1287,2.54274E+001,-2.32260E+000,6.70232E-002,0.00000E+000,0.00000E+000,0.00000E+000,0.00000E+000,1.03184E-002,4.42094E-001,0,0.00000E+000,0.00000E+000,-1.00000E+000,-3.48745E+001,-2.89810E+001,9.99051E-001,0.00000E+000,0.00000E+000,0.00000E+000,0.00000E+000,0.00000E+000,0.00000E+000,0.00000E+000,1.00000E+000,0.00000E+000,0.00000E+000,0.00000E+000,1.00000E+000,0.00000E+000,0.00000E+000,0.00000E+000,1.00000E+000,0
529,1327,-2.60506E+001,-1.75146E-001,2.21911E-002,0.00000E+000,0.00000E+000,0.00000E+000,0.00000E+000,5.67841E-003,6.56513E-001,0,0.00000E+000,0.00000E+000,-1.00000E+000,-3.82631E+001,-4.24120E+001,9.98911E-001,0.00000E+000,0.00000E+000,0.00000E+000,0.00000E+000,0.00000E+000,0.00000E+000,0.00000E+000,1.00000E+000,0.00000E+000,0.00000E+000,0.00000E+000,1.00000E+000,0.00000E+000,0.00000E+000,0.00000E+000,1.00000E+000,0
529,1307,-2.60484E+001,-1.42680E+000,1.55588E-001,0.00000E+000,0.00000E+000,0.00000E+000,0.00000E+000,5.28038E-003,6.58584E-001,0,0.00000E+000,0.00000E+000,-1.00000E+000,-3.81560E+001,-4.18775E+001,9.99699E-001,0.00000E+000,0.00000E+000,0.00000E+000,0.00000E+000,0.00000E+000,0.00000E+000,0.00000E+000,1.00000E+000,0.00000E+000,0.00000E+000,0.00000E+000,1.00000E+000,0.00000E+000,0.00000E+000,0.00000E+000,1.00000E+000,0
529,1317,-2.60522E+001,-8.03033E-001,7.16373E-002,0.00000E+000,0.00000E+000,0.00000E+000,0.00000E+000,6.09334E-003,6.70327E-001,0,0.00000E+000,0.00000E+000,-1.00000E+000,-3.83054E+001,-4.21335E+001,9.99330E-001,0.00000E+000,0.00000E+000,0.00000E+000,0.00000E+000,0.00000E+000,0.00000E+000,0.00000E+000,1.00000E+000,0.00000E+000,0.00000E+000,0.00000E+000,1.00000E+000,0.00000E+000,0.00000E+000,0.00000E+000,1.00000E+000,0
