Coordinates.Image X [Pixel],Coordinates.Image Y [Pixel],coor.X [mm],coor.Y [mm],coor.Z [mm],disp.Horizontal Displacement U [mm],disp.Vertical Displacement V [mm],disp.Out-Of-Plane: W [mm],disp.Displacement Magnitude [mm],stats.Sigma [mm],stats.Epipolar Distance [Pixel],stats.Shape Index [-],SameCamera.Horizontal: u [Pixel],SameCamera.Vertical: v [Pixel],SameCamera.Correlation Value 2D [-],CrossCamera.Horizontal: q [Pixel],CrossCamera.Vertical: r [Pixel],CrossCamera.Correlation Value Persp [-],strain.Strain-global frame: Exx [ ],strain.Strain-global frame: Eyy [ ],strain.Strain-global frame: Exy [ ],strain.Maximum Principal Strain: EI [ ],strain.Minimum Principal Strain: EII [ ],strain.Shear Angle Gamma [deg],strain.Von Mises Equivalent Strain [ ],defgradient.F[0,0] [-],defgradient.F[0,1] [-],defgradient.F[0,2] [-],defgradient.F[1,0] [-],defgradient.F[1,1] [-],defgradient.F[1,2] [-],defgradient.F[2,0] [-],defgradient.F[2,1] [-],defgradient.F[2,2] [-],ext.Current Image [#]
929,1317,3.26549E+000,-1.05614E+000,6.08442E-002,3.60156E+000,-4.39779E-001,1.47565E-001,3.63131E+000,9.26874E-003,5.00910E-001,0,5.48042E+001,-7.61952E+000,9.99402E-001,1.08792E+001,-4.20617E+001,9.98407E-001,1.00695E-001,-4.16400E-002,2.01467E-004,1.00695E-001,-4.16403E-002,8.10988E-002,1.01196E-001,1.10591E+000,-1.62757E-002,0.00000E+000,1.55222E-002,9.62193E-001,0.00000E+000,-1.38324E-002,-8.03002E-002,1.00000E+000,15
919,1307,2.54120E+000,-1.68261E+000,1.21866E-001,3.54382E+000,-4.16974E-001,2.13383E-001,3.57464E+000,1.11575E-002,5.05777E-001,0,5.37402E+001,-7.37798E+000,9.99128E-001,9.71747E+000,-4.19634E+001,9.96510E-001,1.02912E-001,-4.13992E-002,-2.09004E-004,1.02912E-001,-4.13995E-002,-8.29805E-002,1.03565E-001,1.10837E+000,-1.45874E-002,0.00000E+000,1.31857E-002,9.62547E-001,0.00000E+000,-1.28586E-002,-8.14681E-002,1.00000E+000,15
919,1317,2.53135E+000,-1.07934E+000,1.61264E-002,3.53116E+000,-4.48699E-001,1.58555E-001,3.56308E+000,1.24301E-002,4.81044E-001,0,5.37395E+001,-7.77553E+000,9.98694E-001,9.43483E+000,-4.24304E+001,9.96284E-001,1.01255E-001,-4.14056E-002,-4.08835E-004,1.01256E-001,-4.14068E-002,-1.64195E-001,1.01815E-001,1.10652E+000,-1.45956E-002,0.00000E+000,1.27067E-002,9.62545E-001,0.00000E+000,-1.12941E-002,-8.14612E-002,1.00000E+000,15
919,1327,2.53797E+000,-4.63743E-001,-2.69662E-002,3.52066E+000,-4.80174E-001,1.00331E-001,3.55467E+000,1.03092E-002,5.13827E-001,0,5.37751E+001,-8.14949E+000,9.99317E-001,9.54604E+000,-4.28105E+001,9.97426E-001,9.95748E-002,-4.14203E-002,-6.29322E-004,9.95776E-002,-4.14231E-002,-2.55729E-001,1.00045E-001,1.10465E+000,-1.46450E-002,0.00000E+000,1.22222E-002,9.62532E-001,0.00000E+000,-9.71162E-003,-8.14195E-002,1.00000E+000,15
929,1307,3.27132E+000,-1.66146E+000,1.47497E-001,3.61457E+000,-4.06825E-001,2.03197E-001,3.64307E+000,9.38089E-003,5.21442E-001,0,5.48081E+001,-7.20526E+000,9.99432E-001,1.10571E+001,-4.15892E+001,9.98628E-001,1.02389E-001,-4.16367E-002,2.85528E-004,1.02389E-001,-4.16373E-002,1.13587E-001,1.02982E-001,1.10781E+000,-1.62544E-002,0.00000E+000,1.57816E-002,9.62196E-001,0.00000E+000,-1.56444E-002,-8.03205E-002,1.00000E+000,15
929,1327,3.26580E+000,-4.40665E-001,2.52336E-003,3.58843E+000,-4.66649E-001,9.14234E-002,3.61980E+000,8.28151E-003,4.63274E-001,0,5.47943E+001,-7.93055E+000,9.99503E-001,1.08595E+001,-4.24458E+001,9.98841E-001,9.89896E-002,-4.16445E-002,1.08777E-004,9.89897E-002,-4.16445E-002,4.43169E-002,9.94039E-002,1.10400E+000,-1.63156E-002,0.00000E+000,1.52620E-002,9.62188E-001,0.00000E+000,-1.20150E-002,-8.02623E-002,1.00000E+000,15
939,1307,3.99438E+000,-1.64369E+000,1.33005E-001,3.68329E+000,-3.95964E-001,1.78312E-001,3.70880E+000,1.04414E-002,5.20799E-001,0,5.58970E+001,-6.98978E+000,9.99426E-001,1.22040E+001,-4.11911E+001,9.98703E-001,1.01773E-001,-4.12914E-002,6.96715E-004,1.01777E-001,-4.12948E-002,2.79018E-001,1.02378E-001,1.10713E+000,-1.81254E-002,0.00000E+000,1.83442E-002,9.62376E-001,0.00000E+000,-1.77652E-002,-7.88315E-002,1.00000E+000,15
939,1317,3.98885E+000,-1.03731E+000,5.61090E-002,3.66978E+000,-4.27796E-001,1.29014E-001,3.69689E+000,1.04407E-002,4.62539E-001,0,5.58643E+001,-7.39347E+000,9.99265E-001,1.20526E+001,-4.16849E+001,9.98103E-001,1.00220E-001,-4.12941E-002,6.27712E-004,1.00222E-001,-4.12969E-002,2.54140E-001,1.00738E-001,1.10538E+000,-1.81473E-002,0.00000E+000,1.81021E-002,9.62373E-001,0.00000E+000,-1.57568E-002,-7.88064E-002,1.00000E+000,15
939,1327,3.99061E+000,-4.16981E-001,4.40193E-003,3.65645E+000,-4.53081E-001,7.26887E-002,3.68513E+000,7.67465E-003,4.74274E-001,0,5.58520E+001,-7.67241E+000,9.99304E-001,1.20698E+001,-4.19819E+001,9.98657E-001,9.86476E-002,-4.12979E-002,5.49409E-004,9.86497E-002,-4.13000E-002,2.24932E-001,9.90840E-002,1.10361E+000,-1.81887E-002,0.00000E+000,1.78582E-002,9.62367E-001,0.00000E+000,-1.37325E-002,-7.87590E-002,1.00000E+000,15
919,1337,2.55179E+000,1.60119E-001,-4.30025E-002,3.51243E+000,-5.04905E-001,4.60928E-002,3.54883E+000,8.42069E-003,4.91074E-001,0,5.38267E+001,-8.42991E+000,9.99188E-001,9.82957E+000,-4.31501E+001,9.98366E-001,9.78895E-002,-4.14378E-002,-8.56324E-004,9.78947E-002,-4.14431E-002,-3.52130E-001,9.82775E-002,1.10277E+000,-1.47084E-002,0.00000E+000,1.17378E-002,9.62516E-001,0.00000E+000,-8.12945E-003,-8.13660E-002,1.00000E+000,15
929,1337,3.27543E+000,1.78391E-001,-2.86371E-002,3.57845E+000,-4.95544E-001,3.41559E-002,3.61276E+000,8.09734E-003,4.69976E-001,0,5.48335E+001,-8.27061E+000,9.99580E-001,1.10433E+001,-4.28115E+001,9.99115E-001,9.72691E-002,-4.16501E-002,7.28207E-006,9.72691E-002,-4.16501E-002,3.00341E-003,9.76029E-002,1.10208E+000,-1.63737E-002,0.00000E+000,1.50003E-002,9.62180E-001,0.00000E+000,-1.01877E-002,-8.02069E-002,1.00000E+000,15
939,1337,3.99850E+000,2.01980E-001,-2.60175E-002,3.64559E+000,-4.81051E-001,2.07433E-002,3.67725E+000,7.02013E-003,4.80119E-001,0,5.58609E+001,-8.01886E+000,9.99574E-001,1.22272E+001,-4.23496E+001,9.99077E-001,9.70688E-002,-4.13022E-002,4.66361E-004,9.70704E-002,-4.13038E-002,1.93105E-001,9.74288E-002,1.10184E+000,-1.82401E-002,0.00000E+000,1.76142E-002,9.62360E-001,0.00000E+000,-1.17080E-002,-7.87001E-002,1.00000E+000,15
949,1317,4.71664E+000,-1.01157E+000,5.71517E-002,3.74063E+000,-4.11627E-001,1.10421E-001,3.76483E+000,1.34474E-002,4.86127E-001,0,5.69614E+001,-7.10496E+000,9.98761E-001,1.33118E+001,-4.11825E+001,9.97437E-001,9.97308E-002,-4.09480E-002,9.67835E-004,9.97375E-002,-4.09546E-002,3.94156E-001,1.00267E-001,1.10483E+000,-1.98540E-002,0.00000E+000,2.03332E-002,9.62538E-001,0.00000E+000,-1.72043E-002,-7.70916E-002,1.00000E+000,15
949,1327,4.71579E+000,-3.93867E-001,2.52100E-003,3.72576E+000,-4.37625E-001,5.64826E-002,3.75180E+000,1.19311E-002,4.67710E-001,0,5.69197E+001,-7.40658E+000,9.98985E-001,1.32817E+001,-4.15273E+001,9.98240E-001,9.83837E-002,-4.09498E-002,9.17795E-004,9.83897E-002,-4.09558E-002,3.77387E-001,9.88486E-002,1.10331E+000,-1.98874E-002,0.00000E+000,2.01186E-002,9.62534E-001,0.00000E+000,-1.49143E-002,-7.70415E-002,1.00000E+000,15
949,1337,4.72234E+000,2.25228E-001,-2.45707E-002,3.71405E+000,-4.65514E-001,1.08290E-002,3.74313E+000,9.39461E-003,4.79948E-001,0,5.68955E+001,-7.76514E+000,9.99311E-001,1.34245E+001,-4.18956E+001,9.98322E-001,9.70256E-002,-4.09520E-002,8.62886E-004,9.70310E-002,-4.09574E-002,3.58298E-001,9.74227E-002,1.10178E+000,-1.99308E-002,0.00000E+000,1.99033E-002,9.62528E-001,0.00000E+000,-1.26175E-002,-7.69763E-002,1.00000E+000,15
949,1307,4.72401E+000,-1.62191E+000,1.37947E-001,3.75568E+000,-3.82952E-001,1.61839E-001,3.77862E+000,1.08377E-002,5.24659E-001,0,5.70099E+001,-6.75748E+000,9.99167E-001,1.34992E+001,-4.07694E+001,9.98216E-001,1.01066E-001,-4.09466E-002,1.01088E-003,1.01073E-001,-4.09538E-002,4.07820E-001,1.01677E-001,1.10635E+000,-1.98358E-002,0.00000E+000,2.05470E-002,9.62541E-001,0.00000E+000,-1.94850E-002,-7.71191E-002,1.00000E+000,15
909,1317,1.81284E+000,-1.09576E+000,9.50723E-003,3.46436E+000,-4.57316E-001,1.54244E-001,3.49781E+000,1.24034E-002,4.48046E-001,0,5.27733E+001,-7.90518E+000,9.97942E-001,8.31970E+000,-4.27809E+001,9.95870E-001,1.01849E-001,-4.16875E-002,-1.05793E-003,1.01857E-001,-4.16953E-002,-4.22263E-001,1.02414E-001,1.10717E+000,-1.28299E-002,0.00000E+000,9.69317E-003,9.62331E-001,0.00000E+000,-8.33612E-003,-8.17864E-002,1.00000E+000,15
909,1327,1.82347E+000,-4.75836E-001,-3.03604E-002,3.45836E+000,-4.85007E-001,1.01014E-001,3.49366E+000,9.37844E-003,4.86401E-001,0,5.28587E+001,-8.21848E+000,9.98570E-001,8.50126E+000,-4.30993E+001,9.97944E-001,1.00220E-001,-4.17007E-002,-1.27098E-003,1.00231E-001,-4.17121E-002,-5.13060E-001,1.00700E-001,1.10536E+000,-1.28759E-002,0.00000E+000,9.25754E-003,9.62319E-001,0.00000E+000,-7.27230E-003,-8.17594E-002,1.00000E+000,15
909,1337,1.83651E+000,1.52075E-001,-4.24546E-002,3.44924E+000,-5.08596E-001,4.97408E-002,3.48689E+000,1.00936E-002,5.48449E-001,0,5.28851E+001,-8.48345E+000,9.99118E-001,8.78294E+000,-4.33444E+001,9.98433E-001,9.85815E-002,-4.17170E-002,-1.49163E-003,9.85974E-002,-4.17329E-002,-6.09066E-001,9.89837E-002,1.10355E+000,-1.29370E-002,0.00000E+000,8.82051E-003,9.62305E-001,0.00000E+000,-6.20505E-003,-8.17235E-002,1.00000E+000,15
909,1307,1.81954E+000,-1.69855E+000,1.19884E-001,3.47284E+000,-4.25306E-001,2.09014E-001,3.50502E+000,1.25257E-002,4.24381E-001,0,5.27110E+001,-7.48936E+000,9.98227E-001,8.56524E+000,-4.23392E+001,9.94625E-001,1.03455E-001,-4.16826E-002,-8.65572E-004,1.03460E-001,-4.16877E-002,-3.41684E-001,1.04108E-001,1.10896E+000,-1.28248E-002,0.00000E+000,1.01234E-002,9.62332E-001,0.00000E+000,-9.38674E-003,-8.17894E-002,1.00000E+000,15
919,1347,2.57379E+000,7.92502E-001,-4.48354E-002,3.50914E+000,-5.25069E-001,-8.85182E-003,3.54821E+000,1.30264E-002,5.13087E-001,0,5.39526E+001,-8.63658E+000,9.99549E-001,1.02718E+001,-4.33685E+001,9.98971E-001,9.61912E-002,-4.14572E-002,-1.08869E-003,9.61998E-002,-4.14658E-002,-4.53126E-001,9.65043E-002,1.10089E+000,-1.47811E-002,0.00000E+000,1.12513E-002,9.62497E-001,0.00000E+000,-6.54021E-003,-8.13046E-002,1.00000E+000,15
929,1347,3.29292E+000,8.05756E-001,-3.14072E-002,3.57116E+000,-5.19731E-001,-1.85433E-002,3.60883E+000,7.26746E-003,4.64102E-001,0,5.48936E+001,-8.54250E+000,9.99580E-001,1.14117E+001,-4.31184E+001,9.99260E-001,9.55375E-002,-4.16568E-002,-1.01583E-004,9.55376E-002,-4.16569E-002,-4.24235E-002,9.57979E-002,1.10016E+000,-1.64471E-002,0.00000E+000,1.47379E-002,9.62170E-001,0.00000E+000,-8.35513E-003,-8.01370E-002,1.00000E+000,15
939,1347,4.01590E+000,8.30641E-001,-2.18812E-002,3.63851E+000,-5.04045E-001,-2.27399E-002,3.67333E+000,1.14965E-002,5.11743E-001,0,5.58935E+001,-8.30881E+000,9.99391E-001,1.26073E+001,-4.26316E+001,9.98524E-001,9.54767E-002,-4.13074E-002,3.75727E-004,9.54777E-002,-4.13084E-002,1.57382E-001,9.57660E-002,1.10007E+000,-1.83072E-002,0.00000E+000,1.73692E-002,9.62351E-001,0.00000E+000,-9.67462E-003,-7.86232E-002,1.00000E+000,15
949,1347,4.74285E+000,8.52695E-001,-1.35329E-002,3.70804E+000,-4.92076E-001,-3.40750E-002,3.74070E+000,9.20626E-003,5.16479E-001,0,5.69503E+001,-8.09587E+000,9.99174E-001,1.38653E+001,-4.22068E+001,9.98010E-001,9.56515E-002,-4.09548E-002,7.98632E-004,9.56562E-002,-4.09594E-002,3.34949E-001,9.59844E-002,1.10024E+000,-1.99940E-002,0.00000E+000,1.96865E-002,9.62519E-001,0.00000E+000,-1.03053E-002,-7.68815E-002,1.00000E+000,15
959,1317,5.43828E+000,-9.90834E-001,4.84436E-002,3.80676E+000,-3.97955E-001,9.07144E-002,3.82858E+000,1.20300E-002,4.78103E-001,0,5.79916E+001,-6.85643E+000,9.98961E-001,1.44588E+001,-4.07530E+001,9.98238E-001,9.93015E-002,-4.05515E-002,1.06128E-003,9.93095E-002,-4.05596E-002,4.34757E-001,9.98633E-002,1.10434E+000,-2.16169E-002,0.00000E+000,2.20840E-002,9.62755E-001,0.00000E+000,-1.79412E-002,-7.53226E-002,1.00000E+000,15
959,1327,5.43814E+000,-3.72871E-001,-9.35878E-003,3.79428E+000,-4.22940E-001,4.16789E-002,3.81800E+000,1.66322E-002,4.78022E-001,0,5.79711E+001,-7.16007E+000,9.99532E-001,1.44325E+001,-4.10759E+001,9.98809E-001,9.81305E-002,-4.05496E-002,1.06225E-003,9.81386E-002,-4.05577E-002,4.38834E-001,9.86295E-002,1.10300E+000,-2.16426E-002,0.00000E+000,2.19557E-002,9.62753E-001,0.00000E+000,-1.55433E-002,-7.52763E-002,1.00000E+000,15
959,1337,5.44755E+000,2.45734E-001,-2.67598E-002,3.78306E+000,-4.53849E-001,-4.20591E-003,3.81019E+000,1.35524E-002,4.87461E-001,0,5.79562E+001,-7.55033E+000,9.99041E-001,1.46390E+001,-4.14721E+001,9.98312E-001,9.69456E-002,-4.05470E-002,1.05537E-003,9.69537E-002,-4.05551E-002,4.39757E-001,9.73842E-002,1.10166E+000,-2.16857E-002,0.00000E+000,2.18267E-002,9.62749E-001,0.00000E+000,-1.31310E-002,-7.51989E-002,1.00000E+000,15
959,1307,5.44393E+000,-1.60060E+000,1.29031E-001,3.82098E+000,-3.67078E-001,1.45462E-001,3.84133E+000,9.32873E-003,4.98367E-001,0,5.80143E+001,-6.48658E+000,9.99111E-001,1.46193E+001,-4.03418E+001,9.98419E-001,1.00463E-001,-4.05532E-002,1.05663E-003,1.00471E-001,-4.05611E-002,4.29283E-001,1.01091E-001,1.10567E+000,-2.15990E-002,0.00000E+000,2.22120E-002,9.62757E-001,0.00000E+000,-2.03351E-002,-7.53548E-002,1.00000E+000,15
959,1347,5.46439E+000,8.70050E-001,-2.41878E-002,3.77528E+000,-4.81324E-001,-4.82075E-002,3.80614E+000,9.19428E-003,4.92349E-001,0,5.79832E+001,-7.89835E+000,9.98995E-001,1.50030E+001,-4.18279E+001,9.98774E-001,9.57517E-002,-4.05442E-002,1.04442E-003,9.57597E-002,-4.05522E-002,4.39018E-001,9.61328E-002,1.10032E+000,-2.17372E-002,0.00000E+000,2.16975E-002,9.62744E-001,0.00000E+000,-1.07150E-002,-7.51064E-002,1.00000E+000,15
909,1347,1.85857E+000,7.81611E-001,-3.30970E-002,3.44411E+000,-5.31111E-001,-4.00928E-003,3.48482E+000,1.21642E-002,5.19701E-001,0,5.29774E+001,-8.73009E+000,9.99500E-001,9.25236E+000,-4.36585E+001,9.98157E-001,9.69421E-002,-4.17361E-002,-1.71837E-003,9.69634E-002,-4.17574E-002,-7.09811E-001,9.72737E-002,1.10173E+000,-1.30120E-002,0.00000E+000,8.38422E-003,9.62287E-001,0.00000E+000,-5.13962E-003,-8.16794E-002,1.00000E+000,15
899,1327,1.11075E+000,-4.77760E-001,3.81028E-003,3.38932E+000,-4.86876E-001,1.01511E-001,3.42561E+000,6.82708E-003,5.09707E-001,0,5.18326E+001,-8.23822E+000,9.98792E-001,7.57373E+000,-4.32869E+001,9.98862E-001,1.00698E-001,-4.19323E-002,-1.83048E-003,1.00722E-001,-4.19558E-002,-7.35157E-001,1.01188E-001,1.10590E+000,-1.11706E-002,0.00000E+000,6.51271E-003,9.62162E-001,0.00000E+000,-4.85478E-003,-8.23221E-002,1.00000E+000,15
899,1337,1.12545E+000,1.45454E-001,-2.80424E-002,3.38574E+000,-5.10768E-001,4.76726E-002,3.42438E+000,1.04271E-002,5.21116E-001,0,5.19535E+001,-8.50407E+000,9.99511E-001,7.83747E+000,-4.35888E+001,9.99340E-001,9.92107E-002,-4.19431E-002,-2.00655E-003,9.92392E-002,-4.19716E-002,-8.14259E-001,9.96313E-002,1.10425E+000,-1.12163E-002,0.00000E+000,6.18606E-003,9.62153E-001,0.00000E+000,-4.32237E-003,-8.23073E-002,1.00000E+000,15
899,1347,1.15156E+000,7.74031E-001,-1.76484E-002,3.38483E+000,-5.34417E-001,-5.18591E-003,3.42676E+000,8.86322E-003,5.11289E-001,0,5.21069E+001,-8.77449E+000,9.99518E-001,8.37327E+000,-4.39120E+001,9.99045E-001,9.77154E-002,-4.19579E-002,-2.19307E-003,9.77498E-002,-4.19923E-002,-8.99329E-001,9.80724E-002,1.10260E+000,-1.12837E-002,0.00000E+000,5.85823E-003,9.62140E-001,0.00000E+000,-3.78801E-003,-8.22855E-002,1.00000E+000,15
899,1317,1.10522E+000,-1.09191E+000,6.47157E-002,3.39644E+000,-4.57734E-001,1.57969E-001,3.43078E+000,9.20482E-003,5.04554E-001,0,5.17522E+001,-7.90148E+000,9.98682E-001,7.51808E+000,-4.29048E+001,9.97758E-001,1.02178E-001,-4.19240E-002,-1.66125E-003,1.02198E-001,-4.19432E-002,-6.60404E-001,1.02743E-001,1.10754E+000,-1.11389E-002,0.00000E+000,6.83832E-003,9.62169E-001,0.00000E+000,-5.38552E-003,-8.23324E-002,1.00000E+000,15
899,1307,1.10460E+000,-1.69785E+000,1.55619E-001,3.40283E+000,-4.24736E-001,2.17837E-001,3.43615E+000,9.95796E-003,4.46026E-001,0,5.16449E+001,-7.47657E+000,9.98595E-001,7.60765E+000,-4.24858E+001,9.96495E-001,1.03650E-001,-4.19182E-002,-1.49901E-003,1.03666E-001,-4.19337E-002,-5.89927E-001,1.04294E-001,1.10917E+000,-1.11211E-002,0.00000E+000,7.16263E-003,9.62172E-001,0.00000E+000,-5.91413E-003,-8.23381E-002,1.00000E+000,15
889,1327,3.94996E-001,-4.84753E-001,1.52148E-002,3.32158E+000,-4.90172E-001,1.01349E-001,3.35909E+000,5.79857E-003,5.19695E-001,0,5.08304E+001,-8.27972E+000,9.99181E-001,6.55265E+000,-4.35108E+001,9.99217E-001,1.01249E-001,-4.14062E-002,-2.40276E-003,1.01290E-001,-4.14467E-002,-9.64676E-001,1.01845E-001,1.10652E+000,-9.66450E-003,0.00000E+000,3.90926E-003,9.62760E-001,0.00000E+000,-2.31945E-003,-8.32860E-002,1.00000E+000,15
889,1337,4.05923E-001,1.37944E-001,-2.14182E-002,3.31551E+000,-5.12955E-001,4.79684E-002,3.35530E+000,9.02503E-003,5.21687E-001,0,5.09107E+001,-8.53419E+000,9.99551E-001,6.74827E+000,-4.38174E+001,9.99282E-001,9.98104E-002,-4.14069E-002,-2.43698E-003,9.98524E-002,-4.14490E-002,-9.88358E-001,1.00331E-001,1.10493E+000,-9.70551E-003,0.00000E+000,3.92195E-003,9.62760E-001,0.00000E+000,-2.70526E-003,-8.32960E-002,1.00000E+000,15
889,1347,4.32193E-001,7.64504E-001,-1.24207E-002,3.31554E+000,-5.37888E-001,-3.63394E-003,3.35889E+000,7.81712E-003,5.09883E-001,0,5.10740E+001,-8.82820E+000,9.99402E-001,7.28477E+000,-4.41714E+001,9.99025E-001,9.83624E-002,-4.14080E-002,-2.48130E-003,9.84064E-002,-4.14520E-002,-1.01673E+000,9.88126E-002,1.10333E+000,-9.76860E-003,0.00000E+000,3.93471E-003,9.62761E-001,0.00000E+000,-3.09298E-003,-8.33113E-002,1.00000E+000,15
969,1297,6.18617E+000,-2.18515E+000,2.16339E-001,3.90855E+000,-3.21837E-001,1.62615E-001,3.92515E+000,1.35983E-002,4.70403E-001,0,5.92312E+001,-5.80648E+000,9.99408E-001,1.61952E+001,-3.94860E+001,9.98172E-001,1.00805E-001,-4.03368E-002,1.00906E-003,1.00812E-001,-4.03440E-002,4.09596E-001,1.01480E-001,1.10607E+000,-2.31305E-002,0.00000E+000,2.35961E-002,9.62791E-001,0.00000E+000,-2.29945E-002,-7.32948E-002,1.00000E+000,15
969,1307,6.16886E+000,-1.58367E+000,1.19956E-001,3.88924E+000,-3.57794E-001,1.21977E-001,3.90757E+000,2.04612E-002,4.82111E-001,0,5.90890E+001,-6.28937E+000,9.99168E-001,1.58202E+001,-3.99760E+001,9.97504E-001,9.98335E-002,-4.03344E-002,1.04580E-003,9.98413E-002,-4.03422E-002,4.27457E-001,1.00452E-001,1.10494E+000,-2.31340E-002,0.00000E+000,2.35166E-002,9.62791E-001,0.00000E+000,-2.05507E-002,-7.32873E-002,1.00000E+000,15
969,1317,6.16363E+000,-9.73610E-001,4.74760E-002,3.87439E+000,-3.88601E-001,7.08794E-002,3.89447E+000,8.76285E-003,4.62307E-001,0,5.90446E+001,-6.67625E+000,9.99572E-001,1.56833E+001,-4.03979E+001,9.98985E-001,9.88538E-002,-4.03307E-002,1.07656E-003,9.88621E-002,-4.03391E-002,4.43133E-001,9.94180E-002,1.10381E+000,-2.31511E-002,0.00000E+000,2.34369E-002,9.62790E-001,0.00000E+000,-1.81033E-002,-7.32503E-002,1.00000E+000,15
889,1317,3.86910E-001,-1.09775E+000,7.66133E-002,3.32559E+000,-4.60496E-001,1.56149E-001,3.36095E+000,8.23421E-003,5.36650E-001,0,5.07086E+001,-7.94036E+000,9.99246E-001,6.45869E+000,-4.30991E+001,9.98769E-001,1.02683E-001,-4.14056E-002,-2.37391E-003,1.02722E-001,-4.14447E-002,-9.43627E-001,1.03358E-001,1.10810E+000,-9.63521E-003,0.00000E+000,3.89660E-003,9.62760E-001,0.00000E+000,-1.93442E-003,-8.32789E-002,1.00000E+000,15
969,1327,6.16270E+000,-3.53248E-001,-3.20166E-003,3.86041E+000,-4.11699E-001,2.62987E-002,3.88239E+000,9.91960E-003,4.89498E-001,0,5.89860E+001,-6.97575E+000,9.99401E-001,1.56595E+001,-4.06840E+001,9.99210E-001,9.78648E-002,-4.03266E-002,1.10450E-003,9.78737E-002,-4.03354E-002,4.57900E-001,9.83763E-002,1.10268E+000,-2.31742E-002,0.00000E+000,2.33570E-002,9.62788E-001,0.00000E+000,-1.56502E-002,-7.32003E-002,1.00000E+000,15
889,1307,3.83272E-001,-1.70470E+000,1.67904E-001,3.32825E+000,-4.29313E-001,2.13406E-001,3.36260E+000,1.10896E-002,4.87690E-001,0,5.05543E+001,-7.53988E+000,9.98923E-001,6.50274E+000,-4.26903E+001,9.97185E-001,1.04108E-001,-4.14053E-002,-2.35138E-003,1.04146E-001,-4.14433E-002,-9.25531E-001,1.04867E-001,1.10968E+000,-9.61977E-003,0.00000E+000,3.88399E-003,9.62760E-001,0.00000E+000,-1.55104E-003,-8.32752E-002,1.00000E+000,15
969,1337,6.17033E+000,2.62176E-001,-3.26953E-002,3.84947E+000,-4.42836E-001,-2.19874E-002,3.87492E+000,1.08460E-002,4.24040E-001,0,5.89859E+001,-7.35467E+000,9.99270E-001,1.58120E+001,-4.11390E+001,9.98797E-001,9.68670E-002,-4.03216E-002,1.12790E-003,9.68763E-002,-4.03309E-002,4.71018E-001,9.73275E-002,1.10155E+000,-2.32072E-002,0.00000E+000,2.32770E-002,9.62786E-001,0.00000E+000,-1.31921E-002,-7.31289E-002,1.00000E+000,15
969,1347,6.18129E+000,8.96014E-001,-3.50646E-002,3.83705E+000,-4.61694E-001,-6.42817E-002,3.86527E+000,9.33883E-003,4.77358E-001,0,5.89352E+001,-7.57139E+000,9.99190E-001,1.60743E+001,-4.13117E+001,9.98577E-001,9.58551E-002,-4.03159E-002,1.14745E-003,9.58647E-002,-4.03255E-002,4.82760E-001,9.62663E-002,1.10040E+000,-2.32487E-002,0.00000E+000,2.31964E-002,9.62783E-001,0.00000E+000,-1.07165E-002,-7.30391E-002,1.00000E+000,15
879,1327,-3.17929E-001,-4.88040E-001,3.19730E-002,3.25615E+000,-4.89572E-001,1.05857E-001,3.29445E+000,8.11581E-003,5.13519E-001,0,4.98453E+001,-8.26799E+000,9.99295E-001,5.59307E+000,-4.36968E+001,9.99155E-001,1.01793E-001,-4.15786E-002,-2.75700E-003,1.01846E-001,-4.16316E-002,-1.10124E+000,1.02409E-001,1.10713E+000,-8.37303E-003,0.00000E+000,1.95802E-003,9.62558E-001,0.00000E+000,-4.49736E-004,-8.27394E-002,1.00000E+000,15
879,1337,-3.07350E-001,1.31107E-001,-1.04769E-002,3.25040E+000,-5.15016E-001,4.91065E-002,3.29131E+000,7.71526E-003,5.08557E-001,0,4.99416E+001,-8.55775E+000,9.99143E-001,5.77017E+000,-4.40512E+001,9.98901E-001,1.00464E-001,-4.15769E-002,-2.74893E-003,1.00517E-001,-4.16301E-002,-1.10830E+000,1.01009E-001,1.10566E+000,-8.40948E-003,0.00000E+000,2.08403E-003,9.62561E-001,0.00000E+000,-1.32201E-003,-8.27610E-002,1.00000E+000,15
879,1347,-2.84325E-001,7.59884E-001,-7.63545E-003,3.24868E+000,-5.37992E-001,-2.33140E-003,3.29292E+000,9.65016E-003,5.36975E-001,0,5.00767E+001,-8.81977E+000,9.99071E-001,6.24443E+000,-4.43397E+001,9.98759E-001,9.91225E-002,-4.15746E-002,-2.74913E-003,9.91762E-002,-4.16283E-002,-1.11895E+000,9.96012E-002,1.10418E+000,-8.46449E-003,0.00000E+000,2.21094E-003,9.62566E-001,0.00000E+000,-2.20052E-003,-8.27936E-002,1.00000E+000,15
879,1307,-3.36268E-001,-1.70641E+000,1.85011E-001,3.25450E+000,-4.28900E-001,2.11039E-001,3.28942E+000,1.20403E-002,4.93654E-001,0,4.94661E+001,-7.51630E+000,9.98572E-001,5.44251E+000,-4.28434E+001,9.97285E-001,1.04433E-001,-4.15805E-002,-2.78892E-003,1.04486E-001,-4.16338E-002,-1.09384E+000,1.05202E-001,1.11006E+000,-8.33540E-003,0.00000E+000,1.70702E-003,9.62555E-001,0.00000E+000,1.28770E-003,-8.27171E-002,1.00000E+000,15
879,1317,-3.28178E-001,-1.10139E+000,9.48423E-002,3.25771E+000,-4.59894E-001,1.61189E-001,3.29396E+000,8.23222E-003,4.49661E-001,0,4.96854E+001,-7.89974E+000,9.99322E-001,5.46943E+000,-4.33323E+001,9.98773E-001,1.03119E-001,-4.15798E-002,-2.76961E-003,1.03172E-001,-4.16328E-002,-1.09614E+000,1.03810E-001,1.10860E+000,-8.34658E-003,0.00000E+000,1.83204E-003,9.62556E-001,0.00000E+000,4.22309E-004,-8.27237E-002,1.00000E+000,15
979,1307,6.90963E+000,-1.56361E+000,1.29649E-001,3.96967E+000,-3.47441E-001,1.03108E-001,3.98618E+000,1.26271E-002,4.67770E-001,0,6.03297E+001,-6.08755E+000,9.99682E-001,1.73098E+001,-3.95990E+001,9.99482E-001,9.92700E-002,-4.01050E-002,1.00221E-003,9.92773E-002,-4.01122E-002,4.11971E-001,9.98848E-002,1.10428E+000,-2.43821E-002,0.00000E+000,2.44327E-002,9.62825E-001,0.00000E+000,-1.97221E-002,-7.09242E-002,1.00000E+000,15
979,1317,6.89494E+000,-9.49349E-001,5.22741E-002,3.94687E+000,-3.73643E-001,5.43093E-002,3.96489E+000,7.16220E-003,4.58566E-001,0,6.01570E+001,-6.40687E+000,9.99461E-001,1.70170E+001,-3.99399E+001,9.99171E-001,9.85459E-002,-4.00995E-002,1.06583E-003,9.85541E-002,-4.01077E-002,4.40423E-001,9.91212E-002,1.10343E+000,-2.43928E-002,0.00000E+000,2.44204E-002,9.62825E-001,0.00000E+000,-1.73944E-002,-7.08947E-002,1.00000E+000,15
979,1327,6.88902E+000,-3.32714E-001,-3.83388E-003,3.92871E+000,-3.99690E-001,8.28888E-003,3.94899E+000,8.16150E-003,4.62179E-001,0,6.00423E+001,-6.74364E+000,9.98891E-001,1.69038E+001,-4.02826E+001,9.98422E-001,9.78149E-002,-4.00930E-002,1.12695E-003,9.78241E-002,-4.01022E-002,4.68167E-001,9.83516E-002,1.10259E+000,-2.44090E-002,0.00000E+000,2.44081E-002,9.62824E-001,0.00000E+000,-1.50635E-002,-7.08500E-002,1.00000E+000,15
979,1337,6.89241E+000,2.89425E-001,-3.60187E-002,3.91569E+000,-4.23278E-001,-3.23388E-002,3.93863E+000,1.13158E-002,4.49644E-001,0,5.99835E+001,-7.04242E+000,9.98348E-001,1.69849E+001,-4.06005E+001,9.97796E-001,9.70760E-002,-4.00855E-002,1.18560E-003,9.70862E-002,-4.00958E-002,4.95204E-001,9.75750E-002,1.10174E+000,-2.44307E-002,0.00000E+000,2.43958E-002,9.62824E-001,0.00000E+000,-1.27264E-002,-7.07900E-002,1.00000E+000,15
979,1347,6.90254E+000,9.21124E-001,-3.38821E-002,3.90094E+000,-4.44018E-001,-7.62289E-002,3.92687E+000,1.17903E-002,4.58791E-001,0,5.99035E+001,-7.28404E+000,9.97897E-001,1.72421E+001,-4.08367E+001,9.96927E-001,9.63267E-002,-4.00759E-002,1.23941E-003,9.63379E-002,-4.00872E-002,5.20555E-001,9.67889E-002,1.10089E+000,-2.44637E-002,0.00000E+000,2.43833E-002,9.62824E-001,0.00000E+000,-1.03748E-002,-7.06990E-002,1.00000E+000,15
979,1297,6.91249E+000,-2.16425E+000,2.11204E-001,3.97904E+000,-3.08162E-001,1.48908E-001,3.99374E+000,1.11130E-002,4.79315E-001,0,6.03029E+001,-5.56581E+000,9.99525E-001,1.74301E+001,-3.90565E+001,9.98888E-001,9.99882E-002,-4.01101E-002,9.37501E-004,9.99945E-002,-4.01163E-002,3.83385E-001,1.00643E-001,1.10512E+000,-2.43735E-002,0.00000E+000,2.44450E-002,9.62825E-001,0.00000E+000,-2.20497E-002,-7.09480E-002,1.00000E+000,15
869,1317,-1.05144E+000,-1.10222E+000,9.61676E-002,3.18284E+000,-4.56708E-001,1.57040E-001,3.21927E+000,6.85005E-003,4.68352E-001,0,4.85835E+001,-7.83085E+000,9.99427E-001,4.32003E+000,-4.34345E+001,9.98532E-001,1.03327E-001,-4.18073E-002,-2.86961E-003,1.03384E-001,-4.18640E-002,-1.13227E+000,1.04005E-001,1.10884E+000,-6.94773E-003,0.00000E+000,2.96442E-004,9.62294E-001,0.00000E+000,2.15215E-003,-8.21461E-002,1.00000E+000,15
869,1327,-1.04017E+000,-4.89711E-001,3.24985E-002,3.18278E+000,-4.85788E-001,1.02549E-001,3.22127E+000,8.55580E-003,5.25599E-001,0,4.87624E+001,-8.20350E+000,9.99137E-001,4.45757E+000,-4.38153E+001,9.98744E-001,1.02197E-001,-4.18061E-002,-2.85197E-003,1.02254E-001,-4.18625E-002,-1.13414E+000,1.02812E-001,1.10759E+000,-6.96944E-003,0.00000E+000,4.55687E-004,9.62296E-001,0.00000E+000,8.84777E-004,-8.21680E-002,1.00000E+000,15
869,1337,-1.02515E+000,1.26288E-001,-4.38370E-003,3.18099E+000,-5.15138E-001,4.85206E-002,3.22280E+000,9.00604E-003,5.30547E-001,0,4.89105E+001,-8.55641E+000,9.98793E-001,4.71593E+000,-4.42265E+001,9.98482E-001,1.01061E-001,-4.18044E-002,-2.83892E-003,1.01118E-001,-4.18608E-002,-1.13794E+000,1.01615E-001,1.10633E+000,-7.00145E-003,0.00000E+000,6.15448E-004,9.62300E-001,0.00000E+000,-3.86716E-004,-8.22003E-002,1.00000E+000,15
869,1347,-1.00440E+000,7.55254E-001,-1.11038E-002,3.17973E+000,-5.34590E-001,-4.71480E-004,3.22435E+000,1.20352E-002,5.20690E-001,0,4.90439E+001,-8.77089E+000,9.99074E-001,5.13491E+000,-4.45124E+001,9.98695E-001,9.99198E-002,-4.18022E-002,-2.83031E-003,9.99763E-002,-4.18587E-002,-1.14364E+000,1.00416E-001,1.10507E+000,-7.04327E-003,0.00000E+000,7.75574E-004,9.62306E-001,0.00000E+000,-1.66111E-003,-8.22426E-002,1.00000E+000,15
869,1307,-1.05564E+000,-1.70637E+000,1.94691E-001,3.18298E+000,-4.24814E-001,2.12837E-001,3.21825E+000,9.94118E-003,5.17168E-001,0,4.83967E+001,-7.45861E+000,9.98722E-001,4.37311E+000,-4.29450E+001,9.97911E-001,1.04448E-001,-4.18079E-002,-2.89303E-003,1.04505E-001,-4.18651E-002,-1.13276E+000,1.05191E-001,1.11009E+000,-6.93920E-003,0.00000E+000,1.38043E-004,9.62293E-001,0.00000E+000,3.41280E-003,-8.21374E-002,1.00000E+000,15
989,1307,7.62740E+000,-1.53355E+000,1.15406E-001,4.03062E+000,-3.24349E-001,7.82565E-002,4.04441E+000,1.00639E-002,4.69012E-001,0,6.12920E+001,-5.68460E+000,9.99202E-001,1.83997E+001,-3.90115E+001,9.98811E-001,9.87608E-002,-4.00542E-002,8.82347E-004,9.87664E-002,-4.00598E-002,3.64168E-001,9.93514E-002,1.10367E+000,-2.51413E-002,0.00000E+000,2.47348E-002,9.62716E-001,0.00000E+000,-1.82097E-002,-6.87346E-002,1.00000E+000,15
989,1317,7.61127E+000,-9.17813E-001,3.62035E-002,4.00752E+000,-3.50226E-001,3.31505E-002,4.02293E+000,1.02471E-002,5.09151E-001,0,6.11035E+001,-6.00513E+000,9.99453E-001,1.80809E+001,-3.92993E+001,9.98813E-001,9.82672E-002,-4.00463E-002,9.89324E-004,9.82743E-002,-4.00533E-002,4.09795E-001,9.88324E-002,1.10309E+000,-2.51476E-002,0.00000E+000,2.48076E-002,9.62717E-001,0.00000E+000,-1.59539E-002,-6.87100E-002,1.00000E+000,15
989,1327,7.61410E+000,-3.02208E-001,-5.39657E-003,3.99604E+000,-3.79606E-001,-6.94906E-003,4.01404E+000,1.32500E-002,5.10249E-001,0,6.10707E+001,-6.39318E+000,9.99005E-001,1.81323E+001,-3.96877E+001,9.97918E-001,9.77675E-002,-4.00356E-002,1.09341E-003,9.77762E-002,-4.00443E-002,4.54580E-001,9.83080E-002,1.10250E+000,-2.51607E-002,0.00000E+000,2.48805E-002,9.62718E-001,0.00000E+000,-1.36945E-002,-6.86596E-002,1.00000E+000,15
989,1297,7.64183E+000,-2.14232E+000,2.06445E-001,4.05077E+000,-2.92947E-001,1.29631E-001,4.06341E+000,9.52224E-003,4.74062E-001,0,6.14104E+001,-5.30368E+000,9.99180E-001,1.87170E+001,-3.86186E+001,9.98361E-001,9.92484E-002,-4.00617E-002,7.74894E-004,9.92527E-002,-4.00660E-002,3.18687E-001,9.98647E-002,1.10425E+000,-2.51361E-002,0.00000E+000,2.46621E-002,9.62715E-001,0.00000E+000,-2.04618E-002,-6.87546E-002,1.00000E+000,15
989,1337,7.61726E+000,3.16538E-001,-2.64957E-002,3.97992E+000,-4.06479E-001,-4.88209E-002,4.00092E+000,1.00586E-002,4.43669E-001,0,6.09695E+001,-6.74585E+000,9.98146E-001,1.82311E+001,-4.01077E+001,9.98090E-001,9.72634E-002,-4.00231E-002,1.19512E-003,9.72738E-002,-4.00335E-002,4.98726E-001,9.77797E-002,1.10192E+000,-2.51782E-002,0.00000E+000,2.49533E-002,9.62721E-001,0.00000E+000,-1.14385E-002,-6.85917E-002,1.00000E+000,15
989,1347,7.62677E+000,9.46416E-001,-2.73514E-002,3.96664E+000,-4.26878E-001,-8.57137E-002,3.99047E+000,1.04460E-002,4.45932E-001,0,6.08894E+001,-7.00956E+000,9.99113E-001,1.84705E+001,-4.03676E+001,9.99073E-001,9.67511E-002,-4.00093E-002,1.29574E-003,9.67633E-002,-4.00216E-002,5.42785E-001,9.72437E-002,1.10133E+000,-2.51990E-002,0.00000E+000,2.50266E-002,9.62723E-001,0.00000E+000,-9.17004E-003,-6.85115E-002,1.00000E+000,15
859,1327,-1.75915E+000,-4.89317E-001,3.09308E-002,3.11204E+000,-4.80708E-001,9.62464E-002,3.15041E+000,8.03923E-003,5.31414E-001,0,4.77274E+001,-8.09984E+000,9.98869E-001,3.37221E+000,-4.39001E+001,9.98503E-001,1.02454E-001,-4.19259E-002,-2.79609E-003,1.02508E-001,-4.19800E-002,-1.10905E+000,1.03066E-001,1.10788E+000,-5.70783E-003,0.00000E+000,-5.71593E-004,9.62135E-001,0.00000E+000,1.46836E-003,-8.15813E-002,1.00000E+000,15
859,1337,-1.74198E+000,1.27653E-001,-5.94234E-003,3.11270E+000,-5.08031E-001,4.28840E-002,3.15417E+000,9.25671E-003,5.44353E-001,0,4.79092E+001,-8.43824E+000,9.98815E-001,3.66456E+000,-4.42939E+001,9.98357E-001,1.01551E-001,-4.19255E-002,-2.80188E-003,1.01606E-001,-4.19802E-002,-1.11833E+000,1.02115E-001,1.10688E+000,-5.73288E-003,0.00000E+000,-4.40065E-004,9.62138E-001,0.00000E+000,-2.41544E-005,-8.16187E-002,1.00000E+000,15
859,1347,-1.72089E+000,7.50113E-001,-1.19878E-002,3.11132E+000,-5.34264E-001,-8.52821E-003,3.15687E+000,1.31341E-002,5.14533E-001,0,4.80498E+001,-8.74155E+000,9.99277E-001,4.09086E+000,-4.46933E+001,9.98819E-001,1.00642E-001,-4.19250E-002,-2.81175E-003,1.00697E-001,-4.19805E-002,-1.12942E+000,1.01160E-001,1.10587E+000,-5.76686E-003,0.00000E+000,-3.08012E-004,9.62143E-001,0.00000E+000,-1.52262E-003,-8.16693E-002,1.00000E+000,15
859,1307,-1.77633E+000,-1.70417E+000,1.97307E-001,3.11012E+000,-4.20177E-001,2.09647E-001,3.14537E+000,1.22730E-002,5.95046E-001,0,4.73214E+001,-7.37931E+000,9.98938E-001,3.27171E+000,-4.29717E+001,9.98419E-001,1.04239E-001,-4.19262E-002,-2.79652E-003,1.04293E-001,-4.19797E-002,-1.09568E+000,1.04952E-001,1.10987E+000,-5.68437E-003,0.00000E+000,-8.33063E-004,9.62132E-001,0.00000E+000,4.43539E-003,-8.15464E-002,1.00000E+000,15
859,1317,-1.76861E+000,-1.10397E+000,9.59488E-002,3.11349E+000,-4.55433E-001,1.50714E-001,3.15023E+000,9.57476E-003,5.25762E-001,0,4.75722E+001,-7.79334E+000,9.98916E-001,3.26482E+000,-4.35276E+001,9.97609E-001,1.03350E-001,-4.19261E-002,-2.79410E-003,1.03404E-001,-4.19798E-002,-1.10143E+000,1.04011E-001,1.10888E+000,-5.69117E-003,0.00000E+000,-7.02578E-004,9.62133E-001,0.00000E+000,2.95471E-003,-8.15565E-002,1.00000E+000,15
999,1337,8.33738E+000,3.39009E-001,-2.93247E-002,4.04505E+000,-3.88444E-001,-5.09033E-002,4.06397E+000,9.07561E-003,4.14424E-001,0,6.19203E+001,-6.48187E+000,9.99513E-001,1.93822E+001,-3.96719E+001,9.98993E-001,9.73041E-002,-4.00159E-002,1.05442E-003,9.73122E-002,-4.00240E-002,4.39914E-001,9.78214E-002,1.10193E+000,-2.56224E-002,0.00000E+000,2.49303E-002,9.62566E-001,0.00000E+000,-9.64071E-003,-6.61467E-002,1.00000E+000,15
999,1347,8.35162E+000,9.70525E-001,-2.44817E-002,4.03405E+000,-4.10351E-001,-9.18794E-002,4.05591E+000,7.67978E-003,4.09885E-001,0,6.18894E+001,-6.73418E+000,9.99667E-001,1.97049E+001,-3.99203E+001,9.99190E-001,9.70135E-002,-4.00010E-002,1.16327E-003,9.70234E-002,-4.00108E-002,4.86401E-001,9.75186E-002,1.10160E+000,-2.56354E-002,0.00000E+000,2.50255E-002,9.62570E-001,0.00000E+000,-7.56220E-003,-6.60660E-002,1.00000E+000,15
999,1307,8.35100E+000,-1.50805E+000,1.11054E-001,4.09699E+000,-3.05880E-001,6.35203E-002,4.10888E+000,7.01408E-003,4.68447E-001,0,6.23017E+001,-5.37386E+000,9.99379E-001,1.96038E+001,-3.85159E+001,9.99068E-001,9.81419E-002,-4.00468E-002,7.21575E-004,9.81457E-002,-4.00505E-002,2.99169E-001,9.86970E-002,1.10293E+000,-2.56025E-002,0.00000E+000,2.46472E-002,9.62561E-001,0.00000E+000,-1.58156E-002,-6.62693E-002,1.00000E+000,15
999,1317,8.33903E+000,-8.94293E-001,3.71731E-002,4.07766E+000,-3.33369E-001,2.22480E-002,4.09132E+000,1.15049E-002,5.18400E-001,0,6.21585E+001,-5.74586E+000,9.98891E-001,1.93599E+001,-3.88385E+001,9.96705E-001,9.78670E-002,-4.00385E-002,8.33842E-004,9.78720E-002,-4.00435E-002,3.46421E-001,9.84092E-002,1.10260E+000,-2.56063E-002,0.00000E+000,2.47415E-002,9.62562E-001,0.00000E+000,-1.37581E-002,-6.62457E-002,1.00000E+000,15
999,1327,8.33753E+000,-2.83609E-001,-1.36047E-002,4.06329E+000,-3.66361E-001,-2.02084E-002,4.07983E+000,1.36454E-002,5.15311E-001,0,6.20935E+001,-6.19105E+000,9.99116E-001,1.93243E+001,-3.92842E+001,9.97611E-001,9.75876E-002,-4.00281E-002,9.44868E-004,9.75940E-002,-4.00346E-002,3.93368E-001,9.81171E-002,1.10227E+000,-2.56130E-002,0.00000E+000,2.48359E-002,9.62564E-001,0.00000E+000,-1.16984E-002,-6.62046E-002,1.00000E+000,15
999,1297,8.36714E+000,-2.12183E+000,2.04416E-001,4.11846E+000,-2.79699E-001,1.15316E-001,4.12956E+000,7.61844E-003,4.75363E-001,0,6.24391E+001,-5.07275E+000,9.98963E-001,1.99510E+001,-3.82060E+001,9.97559E-001,9.84122E-002,-4.00543E-002,6.08850E-004,9.84149E-002,-4.00570E-002,2.51928E-001,9.89805E-002,1.10327E+000,-2.55997E-002,0.00000E+000,2.45530E-002,9.62560E-001,0.00000E+000,-1.78710E-002,-6.62864E-002,1.00000E+000,15
849,1337,-2.46047E+000,1.26329E-001,1.46497E-004,3.04149E+000,-5.06061E-001,4.10209E-002,3.08357E+000,1.16073E-002,5.70120E-001,0,4.68505E+001,-8.38479E+000,9.99169E-001,2.60936E+000,-4.44140E+001,9.98745E-001,1.01856E-001,-4.18172E-002,-2.56508E-003,1.01902E-001,-4.18630E-002,-1.02250E+000,1.02441E-001,1.10722E+000,-4.61311E-003,0.00000E+000,-9.44813E-004,9.62156E-001,0.00000E+000,-1.21245E-004,-8.05305E-002,1.00000E+000,15
849,1347,-2.44329E+000,7.44349E-001,-1.40573E-002,3.03902E+000,-5.33523E-001,-5.87585E-003,3.08550E+000,1.02002E-002,5.03217E-001,0,4.69605E+001,-8.71597E+000,9.99320E-001,2.95701E+000,-4.48847E+001,9.99081E-001,1.01220E-001,-4.18171E-002,-2.57247E-003,1.01266E-001,-4.18633E-002,-1.03000E+000,1.01771E-001,1.10652E+000,-4.63399E-003,0.00000E+000,-8.24033E-004,9.62160E-001,0.00000E+000,-1.60517E-003,-8.05745E-002,1.00000E+000,15
849,1357,-2.41300E+000,1.37671E+000,2.60114E-002,3.03921E+000,-5.56239E-001,-4.91713E-002,3.09008E+000,8.24743E-003,5.01652E-001,0,4.70927E+001,-8.98519E+000,9.99428E-001,3.63675E+000,-4.52231E+001,9.99280E-001,1.00575E-001,-4.18168E-002,-2.58491E-003,1.00622E-001,-4.18637E-002,-1.03966E+000,1.01094E-001,1.10581E+000,-4.66588E-003,0.00000E+000,-7.02050E-004,9.62165E-001,0.00000E+000,-3.10387E-003,-8.06418E-002,1.00000E+000,15
849,1327,-2.47209E+000,-4.87291E-001,3.88273E-002,3.04510E+000,-4.75802E-001,9.06044E-002,3.08338E+000,1.12304E-002,5.44412E-001,0,4.67461E+001,-7.99610E+000,9.99286E-001,2.40673E+000,-4.39762E+001,9.98921E-001,1.02490E-001,-4.18173E-002,-2.55983E-003,1.02535E-001,-4.18627E-002,-1.01593E+000,1.03109E-001,1.10792E+000,-4.59687E-003,0.00000E+000,-1.06555E-003,9.62154E-001,0.00000E+000,1.36214E-003,-8.04962E-002,1.00000E+000,15
1009,1337,9.06371E+000,3.69716E-001,-3.74476E-002,4.11759E+000,-3.64527E-001,-5.06248E-002,4.13401E+000,1.15412E-002,4.51057E-001,0,6.29727E+001,-6.11319E+000,9.99557E-001,2.06239E+001,-3.90636E+001,9.99327E-001,9.72520E-002,-3.99639E-002,8.34654E-004,9.72571E-002,-3.99690E-002,3.48500E-001,9.77698E-002,1.10186E+000,-2.58105E-002,0.00000E+000,2.45496E-002,9.62490E-001,0.00000E+000,-7.90647E-003,-6.40313E-002,1.00000E+000,15
1009,1347,9.07394E+000,9.87120E-001,-2.56689E-002,4.10036E+000,-4.00158E-001,-9.37746E-002,4.12091E+000,7.91873E-003,4.11598E-001,0,6.28595E+001,-6.58474E+000,9.99811E-001,2.08945E+001,-3.95617E+001,9.99525E-001,9.71352E-002,-3.99514E-002,9.24866E-004,9.71414E-002,-3.99577E-002,3.86527E-001,9.76492E-002,1.10172E+000,-2.58164E-002,0.00000E+000,2.46231E-002,9.62494E-001,0.00000E+000,-6.14993E-003,-6.39572E-002,1.00000E+000,15
1009,1297,9.08834E+000,-2.10093E+000,1.97214E-001,4.18315E+000,-2.64048E-001,1.02676E-001,4.19274E+000,9.82607E-003,4.16367E-001,0,6.34152E+001,-4.79430E+000,9.98228E-001,2.11156E+001,-3.78069E+001,9.97304E-001,9.76857E-002,-3.99938E-002,4.68958E-004,9.76873E-002,-3.99954E-002,1.95155E-001,9.82201E-002,1.10241E+000,-2.58017E-002,0.00000E+000,2.42581E-002,9.62486E-001,0.00000E+000,-1.48793E-002,-6.41420E-002,1.00000E+000,15
1009,1307,9.07558E+000,-1.48565E+000,1.08442E-001,4.16503E+000,-2.88204E-001,5.55196E-002,4.17536E+000,9.69070E-003,4.39518E-001,0,6.33127E+001,-5.10127E+000,9.98988E-001,2.08303E+001,-3.80862E+001,9.98853E-001,9.75821E-002,-3.99878E-002,5.60705E-004,9.75844E-002,-3.99901E-002,2.33520E-001,9.81123E-002,1.10227E+000,-2.58029E-002,0.00000E+000,2.43308E-002,9.62486E-001,0.00000E+000,-1.31411E-002,-6.41274E-002,1.00000E+000,15
1009,1317,9.06789E+000,-8.71651E-001,4.05735E-002,4.14964E+000,-3.15543E-001,1.90332E-002,4.16166E+000,9.75878E-003,4.64505E-001,0,6.32131E+001,-5.47444E+000,9.99350E-001,2.06648E+001,-3.84282E+001,9.98829E-001,9.74753E-002,-3.99811E-002,6.52325E-004,9.74784E-002,-3.99842E-002,2.71900E-001,9.80013E-002,1.10214E+000,-2.58045E-002,0.00000E+000,2.44036E-002,9.62487E-001,0.00000E+000,-1.13997E-002,-6.41066E-002,1.00000E+000,15
849,1317,-2.48752E+000,-1.09657E+000,1.03042E-001,3.04185E+000,-4.44105E-001,1.50854E-001,3.07779E+000,1.24721E-002,5.91767E-001,0,4.64996E+001,-7.63372E+000,9.99011E-001,2.20616E+000,-4.34913E+001,9.98065E-001,1.03119E-001,-4.18175E-002,-2.55608E-003,1.03164E-001,-4.18625E-002,-1.01005E+000,1.03772E-001,1.10863E+000,-4.58384E-003,0.00000E+000,-1.18591E-003,9.62151E-001,0.00000E+000,2.84098E-003,-8.04687E-002,1.00000E+000,15
1009,1327,9.06392E+000,-2.54185E-001,-4.01614E-003,4.13103E+000,-3.43703E-001,-2.44168E-002,4.14538E+000,9.66689E-003,4.64138E-001,0,6.30854E+001,-5.83338E+000,9.99571E-001,2.06036E+001,-3.87798E+001,9.99227E-001,9.73652E-002,-3.99723E-002,7.43528E-004,9.73692E-002,-3.99763E-002,3.10180E-001,9.78870E-002,1.10200E+000,-2.58077E-002,0.00000E+000,2.44766E-002,9.62489E-001,0.00000E+000,-9.65243E-003,-6.40671E-002,1.00000E+000,15
849,1307,-2.49892E+000,-1.70361E+000,2.00328E-001,3.03479E+000,-4.14938E-001,2.05866E-001,3.06994E+000,1.40432E-002,5.82875E-001,0,4.62082E+001,-7.28102E+000,9.98898E-001,2.14669E+000,-4.30699E+001,9.98083E-001,1.03743E-001,-4.18175E-002,-2.55602E-003,1.03787E-001,-4.18624E-002,-1.00570E+000,1.04432E-001,1.10932E+000,-4.57906E-003,0.00000E+000,-1.30584E-003,9.62150E-001,0.00000E+000,4.31439E-003,-8.04587E-002,1.00000E+000,15
839,1337,-3.17821E+000,1.19425E-001,2.44826E-002,2.97037E+000,-5.07932E-001,5.58894E-002,3.01400E+000,2.27661E-002,5.64470E-001,0,4.57391E+001,-8.44328E+000,9.99237E-001,1.61307E+000,-4.46755E+001,9.98627E-001,1.01962E-001,-4.18444E-002,-2.22962E-003,1.01996E-001,-4.18790E-002,-8.88050E-001,1.02538E-001,1.10734E+000,-3.73340E-003,0.00000E+000,-1.01871E-003,9.62020E-001,0.00000E+000,-6.51629E-004,-7.91149E-002,1.00000E+000,15
839,1347,-3.16277E+000,7.38437E-001,-7.56740E-003,2.96825E+000,-5.33151E-001,6.49761E-004,3.01575E+000,8.79627E-003,5.08059E-001,0,4.58806E+001,-8.72074E+000,9.99331E-001,1.89272E+000,-4.50890E+001,9.98993E-001,1.01474E-001,-4.18445E-002,-2.23775E-003,1.01509E-001,-4.18794E-002,-8.94313E-001,1.02025E-001,1.10680E+000,-3.74778E-003,0.00000E+000,-9.02272E-004,9.62023E-001,0.00000E+000,-2.21045E-003,-7.91565E-002,1.00000E+000,15
839,1357,-3.13173E+000,1.37295E+000,2.65114E-002,2.97032E+000,-5.52731E-001,-4.43181E-002,3.02164E+000,7.01061E-003,4.86780E-001,0,4.60459E+001,-8.92934E+000,9.99493E-001,2.57283E+000,-4.53925E+001,9.99256E-001,1.00979E-001,-4.18446E-002,-2.25017E-003,1.01014E-001,-4.18801E-002,-9.02389E-001,1.01504E-001,1.10626E+000,-3.77142E-003,0.00000E+000,-7.84675E-004,9.62029E-001,0.00000E+000,-3.78481E-003,-7.92251E-002,1.00000E+000,15
1019,1337,9.79348E+000,3.96203E-001,-3.16386E-002,4.18702E+000,-3.48307E-001,-6.30131E-002,4.20196E+000,1.01588E-002,5.05219E-001,0,6.40204E+001,-5.85032E+000,9.99444E-001,2.19497E+001,-3.85420E+001,9.99284E-001,9.71544E-002,-3.99275E-002,6.10123E-004,9.71572E-002,-3.99302E-002,2.55005E-001,9.76690E-002,1.10174E+000,-2.59204E-002,0.00000E+000,2.41057E-002,9.62448E-001,0.00000E+000,-6.22508E-003,-6.26144E-002,1.00000E+000,15
1019,1347,9.79661E+000,1.01376E+000,-3.13665E-002,4.16829E+000,-3.80939E-001,-9.24847E-002,4.18669E+000,9.08129E-003,4.56742E-001,0,6.38388E+001,-6.29225E+000,9.99599E-001,2.20860E+001,-3.90163E+001,9.99463E-001,9.71618E-002,-3.99168E-002,7.03070E-004,9.71654E-002,-3.99204E-002,2.93857E-001,9.76789E-002,1.10174E+000,-2.59203E-002,0.00000E+000,2.41917E-002,9.62450E-001,0.00000E+000,-4.67818E-003,-6.25625E-002,1.00000E+000,15
839,1327,-3.20016E+000,-4.89963E-001,3.37383E-002,2.96801E+000,-4.71080E-001,9.81357E-002,3.00676E+000,1.99665E-002,5.51760E-001,0,4.55675E+001,-7.93219E+000,9.99467E-001,1.18129E+000,-4.41017E+001,9.98772E-001,1.02448E-001,-4.18443E-002,-2.22083E-003,1.02482E-001,-4.18785E-002,-8.81574E-001,1.03051E-001,1.10788E+000,-3.71737E-003,0.00000E+000,-1.13540E-003,9.62017E-001,0.00000E+000,9.10588E-004,-7.90684E-002,1.00000E+000,15
1019,1327,9.78953E+000,-2.32215E-001,-1.13840E-002,4.20134E+000,-3.27990E-001,-2.87023E-002,4.21422E+000,9.63104E-003,4.53638E-001,0,6.41202E+001,-5.57443E+000,9.99380E-001,2.18400E+001,-3.83336E+001,9.99167E-001,9.71447E-002,-3.99372E-002,5.17108E-004,9.71467E-002,-3.99391E-002,2.16130E-001,9.76569E-002,1.10174E+000,-2.59204E-002,0.00000E+000,2.40198E-002,9.62445E-001,0.00000E+000,-7.77114E-003,-6.26578E-002,1.00000E+000,15
1019,1317,9.79394E+000,-8.51842E-001,4.02493E-002,4.21681E+000,-3.02998E-001,5.68900E-003,4.22769E+000,1.09975E-002,4.44320E-001,0,6.42305E+001,-5.25571E+000,9.99435E-001,2.19221E+001,-3.80372E+001,9.98845E-001,9.71326E-002,-3.99448E-002,4.24292E-004,9.71339E-002,-3.99461E-002,1.77344E-001,9.76427E-002,1.10174E+000,-2.59204E-002,0.00000E+000,2.39341E-002,9.62444E-001,0.00000E+000,-9.31267E-003,-6.26841E-002,1.00000E+000,15
839,1317,-3.20905E+000,-1.09862E+000,1.03121E-001,2.96708E+000,-4.40396E-001,1.43261E-001,3.00300E+000,1.03603E-002,5.42287E-001,0,4.54046E+001,-7.54755E+000,9.99074E-001,1.09411E+000,-4.36442E+001,9.97569E-001,1.02929E-001,-4.18443E-002,-2.21632E-003,1.02962E-001,-4.18782E-002,-8.76865E-001,1.03558E-001,1.10842E+000,-3.71077E-003,0.00000E+000,-1.25148E-003,9.62015E-001,0.00000E+000,2.46467E-003,-7.90493E-002,1.00000E+000,15
1019,1297,9.80882E+000,-2.07777E+000,1.80619E-001,4.24804E+000,-2.45817E-001,8.67133E-002,4.25603E+000,1.09021E-002,4.28030E-001,0,6.44050E+001,-4.49642E+000,9.99305E-001,2.22548E+001,-3.73176E+001,9.98574E-001,9.71014E-002,-3.99583E-002,2.39065E-004,9.71018E-002,-3.99587E-002,9.99371E-002,9.76074E-002,1.10173E+000,-2.59205E-002,0.00000E+000,2.37634E-002,9.62441E-001,0.00000E+000,-1.23853E-002,-6.27230E-002,1.00000E+000,15
1019,1307,9.79599E+000,-1.46376E+000,9.73513E-002,4.22904E+000,-2.73529E-001,4.19697E-002,4.23809E+000,1.40978E-002,4.81437E-001,0,6.42827E+001,-4.85358E+000,9.99435E-001,2.19792E+001,-3.76113E+001,9.98650E-001,9.71182E-002,-3.99521E-002,3.31816E-004,9.71190E-002,-3.99529E-002,1.38699E-001,9.76261E-002,1.10173E+000,-2.59204E-002,0.00000E+000,2.38489E-002,9.62442E-001,0.00000E+000,-1.08471E-002,-6.27083E-002,1.00000E+000,15
839,1307,-3.21458E+000,-1.70272E+000,1.99180E-001,2.96538E+000,-4.08454E-001,1.94723E-001,2.99970E+000,9.04060E-003,5.13436E-001,0,4.52070E+001,-7.14067E+000,9.98853E-001,1.12360E+000,-4.31821E+001,9.97326E-001,1.03405E-001,-4.18443E-002,-2.21334E-003,1.03439E-001,-4.18780E-002,-8.72813E-001,1.04061E-001,1.10895E+000,-3.70753E-003,0.00000E+000,-1.36719E-003,9.62015E-001,0.00000E+000,4.01378E-003,-7.90399E-002,1.00000E+000,15
829,1337,-3.90034E+000,1.17869E-001,1.16453E-002,2.89766E+000,-5.01617E-001,4.93763E-002,2.94117E+000,1.59117E-002,5.49716E-001,0,4.46693E+001,-8.33074E+000,9.98807E-001,4.66249E-001,-4.47791E+001,9.98146E-001,1.01763E-001,-4.18122E-002,-1.85470E-003,1.01787E-001,-4.18362E-002,-7.39979E-001,1.02323E-001,1.10712E+000,-3.06545E-003,0.00000E+000,-8.34107E-004,9.61958E-001,0.00000E+000,-1.18399E-003,-7.78867E-002,1.00000E+000,15
829,1347,-3.87874E+000,7.37715E-001,1.35364E-003,2.89929E+000,-5.29139E-001,3.36093E-003,2.94718E+000,7.51605E-003,5.22190E-001,0,4.48375E+001,-8.65565E+000,9.98888E-001,8.93949E-001,-4.52138E+001,9.98705E-001,1.01383E-001,-4.18158E-002,-1.91680E-003,1.01409E-001,-4.18414E-002,-7.66752E-001,1.01924E-001,1.10670E+000,-3.07816E-003,0.00000E+000,-8.16312E-004,9.61958E-001,0.00000E+000,-2.86438E-003,-7.79380E-002,1.00000E+000,15
829,1357,-3.85069E+000,1.36969E+000,2.78122E-002,2.90002E+000,-5.50140E-001,-4.22007E-002,2.95204E+000,7.43499E-003,5.17794E-001,0,4.49845E+001,-8.89097E+000,9.99324E-001,1.51138E+000,-4.55334E+001,9.99288E-001,1.00999E-001,-4.18206E-002,-1.98142E-003,1.01026E-001,-4.18481E-002,-7.94693E-001,1.01521E-001,1.10629E+000,-3.09551E-003,0.00000E+000,-7.98423E-004,9.61959E-001,0.00000E+000,-4.55361E-003,-7.80080E-002,1.00000E+000,15
1029,1337,1.05082E+001,4.13158E-001,-4.20875E-002,4.24684E+000,-3.35838E-001,-6.63557E-002,4.26062E+000,9.22114E-003,4.74705E-001,0,6.48937E+001,-5.65461E+000,9.99165E-001,2.30139E+001,-3.81764E+001,9.98737E-001,9.71738E-002,-3.97578E-002,4.22072E-004,9.71751E-002,-3.97591E-002,1.76604E-001,9.77083E-002,1.10175E+000,-2.58902E-002,0.00000E+000,2.36110E-002,9.62555E-001,0.00000E+000,-4.45414E-003,-6.15193E-002,1.00000E+000,15
1029,1347,1.05126E+001,1.04148E+000,-4.22503E-002,4.22832E+000,-3.59514E-001,-1.00079E-001,4.24476E+000,8.81676E-003,4.95540E-001,0,6.47273E+001,-5.96784E+000,9.99341E-001,2.31686E+001,-3.84468E+001,9.98811E-001,9.72945E-002,-3.97459E-002,5.25928E-004,9.72966E-002,-3.97480E-002,2.19883E-001,9.78378E-002,1.10188E+000,-2.58856E-002,0.00000E+000,2.37205E-002,9.62559E-001,0.00000E+000,-3.02904E-003,-6.14694E-002,1.00000E+000,15
1029,1327,1.05113E+001,-2.11005E-001,-1.19433E-002,4.26567E+000,-3.12119E-001,-3.37317E-002,4.27721E+000,9.80402E-003,4.51615E-001,0,6.50640E+001,-5.34628E+000,9.99194E-001,2.30341E+001,-3.79105E+001,9.98885E-001,9.70513E-002,-3.97674E-002,3.19049E-004,9.70520E-002,-3.97682E-002,1.33608E-001,9.75775E-002,1.10162E+000,-2.58933E-002,0.00000E+000,2.35018E-002,9.62552E-001,0.00000E+000,-5.87500E-003,-6.15536E-002,1.00000E+000,15
829,1327,-3.91835E+000,-4.91186E-001,3.76567E-002,2.89525E+000,-4.67174E-001,8.94229E-002,2.93406E+000,1.42914E-002,5.57007E-001,0,4.45034E+001,-7.86601E+000,9.99326E-001,1.34125E-001,-4.42242E+001,9.98971E-001,1.02138E-001,-4.18094E-002,-1.79415E-003,1.02160E-001,-4.18318E-002,-7.13983E-001,1.02717E-001,1.10754E+000,-3.05552E-003,0.00000E+000,-8.51832E-004,9.61957E-001,0.00000E+000,4.89773E-004,-7.78467E-002,1.00000E+000,15
829,1307,-3.92400E+000,-1.70899E+000,2.15998E-001,2.90189E+000,-4.09838E-001,2.02048E-001,2.93764E+000,1.09974E-002,4.68282E-001,0,4.42389E+001,-7.16374E+000,9.99014E-001,2.42498E-001,-4.34300E+001,9.97350E-001,1.02876E-001,-4.18070E-002,-1.67908E-003,1.02895E-001,-4.18265E-002,-6.64814E-001,1.03493E-001,1.10836E+000,-3.04760E-003,0.00000E+000,-8.87114E-004,9.61957E-001,0.00000E+000,3.82134E-003,-7.78147E-002,1.00000E+000,15
829,1317,-3.92585E+000,-1.10136E+000,1.11548E-001,2.89698E+000,-4.37857E-001,1.45782E-001,2.93351E+000,1.21766E-002,5.09582E-001,0,4.43479E+001,-7.49939E+000,9.99038E-001,7.92268E-002,-4.38166E+001,9.98474E-001,1.02509E-001,-4.18077E-002,-1.73565E-003,1.02530E-001,-4.18286E-002,-6.88945E-001,1.03107E-001,1.10795E+000,-3.04960E-003,0.00000E+000,-8.69500E-004,9.61957E-001,0.00000E+000,2.15813E-003,-7.78228E-002,1.00000E+000,15
1029,1317,1.05158E+001,-8.32379E-001,3.49348E-002,4.28158E+000,-2.90325E-001,-2.89415E-003,4.29142E+000,1.11230E-002,4.55670E-001,0,6.51945E+001,-5.04701E+000,9.99450E-001,2.31091E+001,-3.76257E+001,9.98764E-001,9.69274E-002,-3.97757E-002,2.16865E-004,9.69278E-002,-3.97760E-002,9.08932E-002,9.74455E-002,1.10149E+000,-2.58956E-002,0.00000E+000,2.33931E-002,9.62550E-001,0.00000E+000,-7.28837E-003,-6.15785E-002,1.00000E+000,15
1029,1307,1.05238E+001,-1.44510E+000,1.06049E-001,4.29833E+000,-2.61744E-001,4.10510E-002,4.30649E+000,1.02081E-002,4.90995E-001,0,6.52858E+001,-4.68354E+000,9.99553E-001,2.32848E+001,-3.72441E+001,9.97618E-001,9.68017E-002,-3.97831E-002,1.15009E-004,9.68018E-002,-3.97832E-002,4.82449E-002,9.73119E-002,1.10137E+000,-2.58973E-002,0.00000E+000,2.32847E-002,9.62549E-001,0.00000E+000,-8.69937E-003,-6.15977E-002,1.00000E+000,15
1029,1297,1.05346E+001,-2.05579E+000,1.86613E-001,4.31573E+000,-2.30701E-001,8.48364E-002,4.32273E+000,9.50816E-003,4.70635E-001,0,6.53852E+001,-4.28162E+000,9.99405E-001,2.35233E+001,-3.68786E+001,9.97905E-001,9.66738E-002,-3.97899E-002,1.31116E-005,9.66738E-002,-3.97899E-002,5.50506E-003,9.71763E-002,1.10124E+000,-2.58986E-002,0.00000E+000,2.31761E-002,9.62548E-001,0.00000E+000,-1.01128E-002,-6.16122E-002,1.00000E+000,15
819,1317,-4.64050E+000,-1.10958E+000,1.20489E-001,2.82789E+000,-4.41593E-001,1.45176E-001,2.86584E+000,1.19810E-002,4.95159E-001,0,4.33170E+001,-7.54753E+000,9.98843E-001,-8.97642E-001,-4.40654E+001,9.97727E-001,1.01781E-001,-4.16326E-002,-1.34963E-003,1.01793E-001,-4.16453E-002,-5.39133E-001,1.02352E-001,1.10714E+000,-2.68499E-003,0.00000E+000,-3.95428E-004,9.62015E-001,0.00000E+000,1.60084E-003,-7.63359E-002,1.00000E+000,15
819,1327,-4.63606E+000,-5.02044E-001,4.27933E-002,2.82538E+000,-4.71478E-001,9.59364E-002,2.86606E+000,1.18223E-002,5.03994E-001,0,4.34381E+001,-7.92338E+000,9.99232E-001,-8.99643E-001,-4.45271E+001,9.98153E-001,1.01494E-001,-4.16350E-002,-1.45159E-003,1.01508E-001,-4.16497E-002,-5.81006E-001,1.02051E-001,1.10682E+000,-2.68845E-003,0.00000E+000,-4.72383E-004,9.62014E-001,0.00000E+000,1.69168E-005,-7.63531E-002,1.00000E+000,15
819,1337,-4.61831E+000,1.15160E-001,7.21670E-003,2.82834E+000,-4.98035E-001,4.97303E-002,2.87229E+000,9.58604E-003,5.32950E-001,0,4.36289E+001,-8.25471E+000,9.98914E-001,-5.92331E-001,-4.49193E+001,9.98493E-001,1.01202E-001,-4.16398E-002,-1.55596E-003,1.01219E-001,-4.16567E-002,-6.24017E-001,1.01746E-001,1.10650E+000,-2.69576E-003,0.00000E+000,-5.49819E-004,9.62012E-001,0.00000E+000,-1.57690E-003,-7.63894E-002,1.00000E+000,15
819,1307,-4.64490E+000,-1.71363E+000,2.08353E-001,2.82738E+000,-4.11594E-001,1.89427E-001,2.86346E+000,1.17680E-002,5.40773E-001,0,4.31634E+001,-7.16675E+000,9.99001E-001,-8.69834E-001,-4.35441E+001,9.97722E-001,1.02064E-001,-4.16311E-002,-1.24875E-003,1.02074E-001,-4.16419E-002,-4.97865E-001,1.02649E-001,1.10746E+000,-2.68304E-003,0.00000E+000,-3.18771E-004,9.62015E-001,0.00000E+000,3.17864E-003,-7.63262E-002,1.00000E+000,15
819,1347,-4.59439E+000,7.39531E-001,8.38079E-004,2.83207E+000,-5.21368E-001,5.75276E-003,2.87967E+000,8.45730E-003,5.38164E-001,0,4.38207E+001,-8.53105E+000,9.99360E-001,-1.17471E-001,-4.52779E+001,9.99236E-001,1.00908E-001,-4.16463E-002,-1.66198E-003,1.00927E-001,-4.16656E-002,-6.67868E-001,1.01437E-001,1.10618E+000,-2.70573E-003,0.00000E+000,-6.27534E-004,9.62010E-001,0.00000E+000,-3.17648E-003,-7.64389E-002,1.00000E+000,15
819,1357,-4.56847E+000,1.36254E+000,3.55413E-002,2.83034E+000,-5.51307E-001,-3.43674E-002,2.88374E+000,9.96458E-003,5.32875E-001,0,4.39144E+001,-8.92011E+000,9.99247E-001,4.87645E-001,-4.57563E+001,9.99071E-001,1.00609E-001,-4.16550E-002,-1.77024E-003,1.00631E-001,-4.16771E-002,-7.12807E-001,1.01124E-001,1.10586E+000,-2.71937E-003,0.00000E+000,-7.05612E-004,9.62006E-001,0.00000E+000,-4.78353E-003,-7.65066E-002,1.00000E+000,15
1039,1337,1.12315E+001,4.34818E-001,-4.94183E-002,4.31319E+000,-3.21023E-001,-7.34303E-002,4.32575E+000,8.54669E-003,4.81785E-001,0,6.58762E+001,-5.41365E+000,9.99392E-001,2.42222E+001,-3.77252E+001,9.98391E-001,9.71779E-002,-3.95121E-002,1.01691E-004,9.71780E-002,-3.95122E-002,4.26253E-002,9.77416E-002,1.10175E+000,-2.58754E-002,0.00000E+000,2.28840E-002,9.62763E-001,0.00000E+000,-2.74258E-003,-6.07708E-002,1.00000E+000,15
1039,1347,1.12351E+001,1.05467E+000,-4.44861E-002,4.29415E+000,-3.51092E-001,-1.00284E-001,4.30965E+000,8.34079E-003,4.24328E-001,0,6.56803E+001,-5.83357E+000,9.99624E-001,2.43716E+001,-3.81754E+001,9.99172E-001,9.73910E-002,-3.95042E-002,1.75292E-004,9.73912E-002,-3.95045E-002,7.33662E-002,9.79677E-002,1.10199E+000,-2.58673E-002,0.00000E+000,2.29393E-002,9.62764E-001,0.00000E+000,-1.45836E-003,-6.07264E-002,1.00000E+000,15
1039,1317,1.12359E+001,-8.06941E-001,3.15480E-002,4.34578E+000,-2.69663E-001,-2.26730E-003,4.35414E+000,8.35047E-003,4.41367E-001,0,6.61130E+001,-4.73759E+000,9.99473E-001,2.42763E+001,-3.71391E+001,9.98679E-001,9.67472E-002,-3.95243E-002,-4.28696E-005,9.67472E-002,-3.95243E-002,-1.80247E-002,9.72853E-002,1.10129E+000,-2.58855E-002,0.00000E+000,2.27735E-002,9.62760E-001,0.00000E+000,-5.30780E-003,-6.08264E-002,1.00000E+000,15
1039,1327,1.12332E+001,-1.90848E-001,-1.65280E-002,4.33095E+000,-2.97104E-001,-3.73628E-002,4.34129E+000,8.13124E-003,4.30737E-001,0,6.60169E+001,-5.11660E+000,9.99488E-001,2.42270E+001,-3.75044E+001,9.98496E-001,9.69626E-002,-3.95186E-002,2.88704E-005,9.69626E-002,-3.95186E-002,1.21200E-002,9.75133E-002,1.10152E+000,-2.58811E-002,0.00000E+000,2.28286E-002,9.62761E-001,0.00000E+000,-4.03007E-003,-6.08024E-002,1.00000E+000,15
1039,1307,1.12449E+001,-1.42515E+000,9.10730E-002,4.36407E+000,-2.45772E-001,3.19727E-002,4.37110E+000,8.79011E-003,4.54818E-001,0,6.62641E+001,-4.41931E+000,9.99426E-001,2.44451E+001,-3.68301E+001,9.98485E-001,9.65302E-002,-3.95294E-002,-1.14150E-004,9.65303E-002,-3.95295E-002,-4.80695E-002,9.70559E-002,1.10105E+000,-2.58889E-002,0.00000E+000,2.27185E-002,9.62759E-001,0.00000E+000,-6.58436E-003,-6.08447E-002,1.00000E+000,15
1039,1297,1.12567E+001,-2.03907E+000,1.72659E-001,4.38207E+000,-2.18463E-001,7.43107E-002,4.38814E+000,8.68905E-003,4.46902E-001,0,6.63776E+001,-4.07216E+000,9.99092E-001,2.47022E+001,-3.65124E+001,9.98468E-001,9.63116E-002,-3.95338E-002,-1.84973E-004,9.63118E-002,-3.95341E-002,-7.80164E-002,9.68250E-002,1.10082E+000,-2.58911E-002,0.00000E+000,2.26635E-002,9.62759E-001,0.00000E+000,-7.86112E-003,-6.08568E-002,1.00000E+000,15
1049,1337,1.19609E+001,4.55767E-001,-4.89245E-002,4.38446E+000,-3.04891E-001,-7.56601E-002,4.39570E+000,1.21487E-002,4.37272E-001,0,6.69129E+001,-5.17656E+000,9.99737E-001,2.55430E+001,-3.73272E+001,9.98927E-001,9.71379E-002,-3.94531E-002,-3.28814E-004,9.71387E-002,-3.94539E-002,-1.37926E-001,9.77073E-002,1.10171E+000,-2.58219E-002,0.00000E+000,2.19342E-002,9.62778E-001,0.00000E+000,-1.44962E-003,-5.97078E-002,1.00000E+000,15
1049,1347,1.19692E+001,1.07988E+000,-3.62936E-002,4.36761E+000,-3.34630E-001,-1.04347E-001,4.38165E+000,1.01225E-002,4.50332E-001,0,6.67560E+001,-5.58774E+000,9.99596E-001,2.57775E+001,-3.76914E+001,9.98661E-001,9.74601E-002,-3.94489E-002,-2.84981E-004,9.74607E-002,-3.94495E-002,-1.19262E-001,9.80481E-002,1.10207E+000,-2.58083E-002,0.00000E+000,2.19454E-002,9.62779E-001,0.00000E+000,-5.00988E-004,-5.96717E-002,1.00000E+000,15
1049,1307,1.19729E+001,-1.40239E+000,1.00977E-001,4.43252E+000,-2.28623E-001,3.13248E-002,4.43852E+000,1.17618E-002,3.94508E-001,0,6.72481E+001,-4.15464E+000,9.99475E-001,2.57660E+001,-3.64372E+001,9.98597E-001,9.61727E-002,-3.94615E-002,-4.50178E-004,9.61742E-002,-3.94630E-002,-1.90165E-001,9.66884E-002,1.10065E+000,-2.58414E-002,0.00000E+000,2.19008E-002,9.62778E-001,0.00000E+000,-4.27241E-003,-5.97599E-002,1.00000E+000,15
1049,1317,1.19624E+001,-7.84268E-001,4.00678E-002,4.41225E+000,-2.53442E-001,-5.58234E-003,4.41952E+000,1.10129E-002,4.38584E-001,0,6.70778E+001,-4.50381E+000,9.99171E-001,2.55692E+001,-3.67146E+001,9.97302E-001,9.64948E-002,-3.94589E-002,-4.10307E-004,9.64961E-002,-3.94602E-002,-1.72916E-001,9.70281E-002,1.10100E+000,-2.58361E-002,0.00000E+000,2.19119E-002,9.62778E-001,0.00000E+000,-3.33324E-003,-5.97458E-002,1.00000E+000,15
1049,1327,1.19574E+001,-1.71090E-001,-1.64394E-002,4.39809E+000,-2.83448E-001,-3.55532E-002,4.40736E+000,6.92290E-003,4.23646E-001,0,6.69771E+001,-4.91089E+000,9.99515E-001,2.54662E+001,-3.71076E+001,9.97954E-001,9.68162E-002,-3.94564E-002,-3.70595E-004,9.68172E-002,-3.94574E-002,-1.55815E-001,9.73673E-002,1.10136E+000,-2.58312E-002,0.00000E+000,2.19230E-002,9.62778E-001,0.00000E+000,-2.39348E-003,-5.97326E-002,1.00000E+000,15
809,1347,-5.31822E+000,7.27843E-001,-2.25414E-003,2.75658E+000,-5.25558E-001,7.06372E-003,2.80624E+000,7.53172E-003,5.21391E-001,0,4.26821E+001,-8.59327E+000,9.99619E-001,-1.25910E+000,-4.55621E+001,9.99369E-001,1.00346E-001,-4.14534E-002,-1.41249E-003,1.00360E-001,-4.14674E-002,-5.70660E-001,1.00863E-001,1.10556E+000,-2.55069E-003,0.00000E+000,-2.72102E-004,9.62089E-001,0.00000E+000,-3.34556E-003,-7.49774E-002,1.00000E+000,15
809,1357,-5.29219E+000,1.35510E+000,3.76106E-002,2.75447E+000,-5.52110E-001,-3.14069E-002,2.80943E+000,8.79456E-003,5.34769E-001,0,4.27628E+001,-8.93358E+000,9.99496E-001,-6.36520E-001,-4.59789E+001,9.98949E-001,1.00154E-001,-4.14679E-002,-1.58214E-003,1.00172E-001,-4.14856E-002,-6.39979E-001,1.00663E-001,1.10535E+000,-2.55951E-003,0.00000E+000,-4.80584E-004,9.62080E-001,0.00000E+000,-4.87574E-003,-7.50432E-002,1.00000E+000,15
809,1327,-5.35522E+000,-5.13050E-001,2.97892E-002,2.75364E+000,-4.78502E-001,8.45855E-002,2.79618E+000,8.59587E-003,5.36160E-001,0,4.23992E+001,-7.98602E+000,9.99486E-001,-1.99613E+000,-4.47510E+001,9.98039E-001,1.00719E-001,-4.14353E-002,-1.07998E-003,1.00727E-001,-4.14435E-002,-4.35259E-001,1.01252E-001,1.10596E+000,-2.54000E-003,0.00000E+000,1.40641E-004,9.62100E-001,0.00000E+000,-3.16175E-004,-7.48976E-002,1.00000E+000,15
809,1337,-5.33601E+000,1.04846E-001,7.72134E-003,2.75775E+000,-5.02992E-001,4.95369E-002,2.80369E+000,6.42661E-003,5.21733E-001,0,4.25711E+001,-8.31099E+000,9.99501E-001,-1.63211E+000,-4.51849E+001,9.99353E-001,1.00534E-001,-4.14434E-002,-1.24567E-003,1.00545E-001,-4.14543E-002,-5.02646E-001,1.01059E-001,1.10576E+000,-2.54474E-003,0.00000E+000,-6.54042E-005,9.62095E-001,0.00000E+000,-1.82847E-003,-7.49330E-002,1.00000E+000,15
809,1307,-5.36573E+000,-1.71785E+000,2.05069E-001,2.75393E+000,-4.10898E-001,1.88082E-001,2.79076E+000,1.41773E-002,5.81794E-001,0,4.20666E+001,-7.15699E+000,9.97474E-001,-1.96618E+000,-4.36766E+001,9.96068E-001,1.01079E-001,-4.14289E-002,-7.53140E-004,1.01083E-001,-4.14329E-002,-3.02790E-001,1.01629E-001,1.10637E+000,-2.53659E-003,0.00000E+000,5.50605E-004,9.62103E-001,0.00000E+000,2.69280E-003,-7.48721E-002,1.00000E+000,15
809,1317,-5.35900E+000,-1.11568E+000,1.10065E-001,2.75698E+000,-4.43716E-001,1.37624E-001,2.79585E+000,1.29920E-002,5.56508E-001,0,4.22787E+001,-7.55806E+000,9.99253E-001,-1.97660E+000,-4.42030E+001,9.97794E-001,1.00900E-001,-4.14313E-002,-9.16132E-004,1.00906E-001,-4.14372E-002,-3.68770E-001,1.01442E-001,1.10617E+000,-2.53776E-003,0.00000E+000,3.45849E-004,9.62102E-001,0.00000E+000,1.18997E-003,-7.48809E-002,1.00000E+000,15
1049,1297,1.19782E+001,-2.02269E+000,1.70623E-001,4.44635E+000,-2.06877E-001,7.19621E-002,4.45174E+000,9.61258E-003,3.98244E-001,0,6.73074E+001,-3.88150E+000,9.99136E-001,2.58969E+001,-3.61894E+001,9.97586E-001,9.58498E-002,-3.94640E-002,-4.89767E-004,9.58516E-002,-3.94657E-002,-2.07378E-001,9.63481E-002,1.10030E+000,-2.58461E-002,0.00000E+000,2.18897E-002,9.62778E-001,0.00000E+000,-5.21076E-003,-5.97722E-002,1.00000E+000,15
799,1337,-6.05527E+000,9.65211E-002,3.31454E-003,2.68612E+000,-5.04739E-001,4.90669E-002,2.73357E+000,6.53009E-003,5.18246E-001,0,4.14960E+001,-8.32930E+000,9.99602E-001,-2.70319E+000,-4.54057E+001,9.99402E-001,9.96154E-002,-4.12492E-002,-8.94174E-004,9.96210E-002,-4.12548E-002,-3.63680E-001,1.00110E-001,1.10475E+000,-2.43515E-003,0.00000E+000,5.34224E-004,9.62184E-001,0.00000E+000,-2.08090E-003,-7.35618E-002,1.00000E+000,15
799,1347,-6.03671E+000,7.18097E-001,-4.90496E-003,2.68622E+000,-5.28608E-001,1.01503E-002,2.73776E+000,8.40572E-003,5.17079E-001,0,4.16155E+001,-8.63357E+000,9.99285E-001,-2.31294E+000,-4.58106E+001,9.99009E-001,9.94898E-002,-4.12622E-002,-1.11502E-003,9.94987E-002,-4.12711E-002,-4.53852E-001,9.99791E-002,1.10461E+000,-2.43899E-003,0.00000E+000,2.08024E-004,9.62174E-001,0.00000E+000,-3.43503E-003,-7.36005E-002,1.00000E+000,15
799,1357,-6.00711E+000,1.34985E+000,3.61588E-002,2.68774E+000,-5.50340E-001,-2.80291E-002,2.74365E+000,8.34059E-003,5.22155E-001,0,4.17490E+001,-8.89921E+000,9.99197E-001,-1.62915E+000,-4.61662E+001,9.98711E-001,9.93614E-002,-4.12818E-002,-1.33866E-003,9.93741E-002,-4.12945E-002,-5.45283E-001,9.98455E-002,1.10448E+000,-2.44482E-003,0.00000E+000,-1.20844E-004,9.62160E-001,0.00000E+000,-4.80024E-003,-7.36592E-002,1.00000E+000,15
799,1327,-6.06886E+000,-5.23555E-001,3.90187E-002,2.68707E+000,-4.81867E-001,9.55087E-002,2.73161E+000,1.42232E-002,5.47155E-001,0,4.13677E+001,-8.08030E+000,9.99587E-001,-2.94854E+000,-4.50250E+001,9.98111E-001,9.97387E-002,-4.12387E-002,-6.74216E-004,9.97419E-002,-4.12419E-002,-2.74006E-001,1.00238E-001,1.10488E+000,-2.43213E-003,0.00000E+000,8.59737E-004,9.62191E-001,0.00000E+000,-7.29618E-004,-7.35313E-002,1.00000E+000,15
1059,1327,1.26819E+001,-1.53724E-001,-1.41968E-002,4.46440E+000,-2.72582E-001,-3.51554E-002,4.47285E+000,1.05734E-002,4.23448E-001,0,6.79287E+001,-4.75076E+000,9.99575E-001,2.67201E+001,-3.67492E+001,9.98451E-001,9.67770E-002,-3.95912E-002,-6.46884E-004,9.67800E-002,-3.95943E-002,-2.71783E-001,9.73115E-002,1.10132E+000,-2.54060E-002,0.00000E+000,2.09382E-002,9.62621E-001,0.00000E+000,-9.96891E-004,-5.88952E-002,1.00000E+000,15
1059,1337,1.26875E+001,4.76635E-001,-4.03891E-002,4.45227E+000,-2.90935E-001,-7.05924E-002,4.46232E+000,8.33052E-003,4.44462E-001,0,6.78694E+001,-4.98424E+000,9.99730E-001,2.68393E+001,-3.69230E+001,9.99213E-001,9.71704E-002,-3.95896E-002,-6.20613E-004,9.71732E-002,-3.95924E-002,-2.59999E-001,9.77267E-002,1.10176E+000,-2.53943E-002,0.00000E+000,2.09396E-002,9.62621E-001,0.00000E+000,-4.58706E-004,-5.88807E-002,1.00000E+000,15
1059,1347,1.26982E+001,1.10061E+000,-2.90240E-002,4.43743E+000,-3.20198E-001,-1.01571E-001,4.45013E+000,1.16059E-002,4.39295E-001,0,6.77517E+001,-5.39012E+000,9.99669E-001,2.71070E+001,-3.72938E+001,9.98761E-001,9.75647E-002,-3.95875E-002,-5.91974E-004,9.75673E-002,-3.95901E-002,-2.47293E-001,9.81431E-002,1.10219E+000,-2.53775E-002,0.00000E+000,2.09409E-002,9.62621E-001,0.00000E+000,8.14398E-005,-5.88598E-002,1.00000E+000,15
1059,1297,1.26991E+001,-2.00389E+000,1.61404E-001,4.51166E+000,-1.91182E-001,7.10090E-002,4.51627E+000,9.34738E-003,3.52930E-001,0,6.82457E+001,-3.63997E+000,9.99190E-001,2.70737E+001,-3.58121E+001,9.97623E-001,9.55987E-002,-3.95950E-002,-7.18731E-004,9.56025E-002,-3.95988E-002,-3.04591E-001,9.60705E-002,1.10002E+000,-2.54260E-002,0.00000E+000,2.09341E-002,9.62621E-001,0.00000E+000,-2.60462E-003,-5.89200E-002,1.00000E+000,15
1059,1307,1.26938E+001,-1.38690E+000,9.25551E-002,4.49772E+000,-2.15552E-001,3.11332E-002,4.50299E+000,1.12250E-002,3.31290E-001,0,6.81840E+001,-3.96074E+000,9.99501E-001,2.69432E+001,-3.61200E+001,9.98514E-001,9.59906E-002,-3.95938E-002,-6.95254E-004,9.59942E-002,-3.95974E-002,-2.93793E-001,9.64829E-002,1.10046E+000,-2.54203E-002,0.00000E+000,2.09355E-002,9.62621E-001,0.00000E+000,-2.07047E-003,-5.89129E-002,1.00000E+000,15
1059,1317,1.26836E+001,-7.71930E-001,2.29779E-002,4.47827E+000,-2.44354E-001,-1.21003E-002,4.48495E+000,1.14925E-002,4.05421E-001,0,6.80524E+001,-4.35844E+000,9.99339E-001,2.67353E+001,-3.64107E+001,9.97761E-001,9.63835E-002,-3.95926E-002,-6.71522E-004,9.63868E-002,-3.95959E-002,-2.82948E-001,9.68967E-002,1.10089E+000,-2.54141E-002,0.00000E+000,2.09368E-002,9.62621E-001,0.00000E+000,-1.53445E-003,-5.89052E-002,1.00000E+000,15
799,1307,-6.07738E+000,-1.72575E+000,2.12943E-001,2.68805E+000,-4.13155E-001,1.91758E-001,2.72637E+000,1.81329E-002,5.66547E-001,0,4.10697E+001,-7.20151E+000,9.98209E-001,-2.88985E+000,-4.39166E+001,9.97812E-001,9.99779E-002,-4.12306E-002,-2.39392E-004,9.99783E-002,-4.12310E-002,-9.71336E-002,1.00488E-001,1.10515E+000,-2.43014E-003,0.00000E+000,1.50604E-003,9.62196E-001,0.00000E+000,1.95334E-003,-7.35113E-002,1.00000E+000,15
799,1317,-6.07689E+000,-1.12551E+000,1.02508E-001,2.68758E+000,-4.46091E-001,1.39350E-001,2.72791E+000,1.54938E-002,5.66448E-001,0,4.12336E+001,-7.60746E+000,9.99070E-001,-3.03560E+000,-4.44299E+001,9.97457E-001,9.98594E-002,-4.12321E-002,-4.56046E-004,9.98609E-002,-4.12336E-002,-1.85193E-001,1.00365E-001,1.10501E+000,-2.43035E-003,0.00000E+000,1.18349E-003,9.62195E-001,0.00000E+000,6.14340E-004,-7.35134E-002,1.00000E+000,15
789,1327,-6.78228E+000,-5.28380E-001,4.47564E-002,2.62099E+000,-4.79897E-001,1.06483E-001,2.66668E+000,1.19356E-002,5.50108E-001,0,4.03412E+001,-8.07457E+000,9.99431E-001,-3.90022E+000,-4.52082E+001,9.98505E-001,9.87751E-002,-4.10288E-002,-3.99949E-004,9.87763E-002,-4.10300E-002,-1.63909E-001,9.92467E-002,1.10382E+000,-2.42092E-003,0.00000E+000,1.40287E-003,9.62297E-001,0.00000E+000,-1.06418E-003,-7.21677E-002,1.00000E+000,15
789,1337,-6.76845E+000,9.31885E-002,8.71426E-003,2.61975E+000,-5.01536E-001,5.63693E-002,2.66792E+000,7.72023E-003,5.26319E-001,0,4.04748E+001,-8.29866E+000,9.99357E-001,-3.65100E+000,-4.55644E+001,9.99242E-001,9.87266E-002,-4.10421E-002,-6.64494E-004,9.87297E-002,-4.10453E-002,-2.72390E-001,9.91960E-002,1.10376E+000,-2.42212E-003,0.00000E+000,9.75867E-004,9.62287E-001,0.00000E+000,-2.24071E-003,-7.21952E-002,1.00000E+000,15
789,1347,-6.74768E+000,7.14862E-001,1.33008E-003,2.62175E+000,-5.26338E-001,1.60715E-002,2.67411E+000,8.90935E-003,5.41988E-001,0,4.06272E+001,-8.60858E+000,9.99086E-001,-3.22364E+000,-4.59629E+001,9.98688E-001,9.86764E-002,-4.10583E-002,-9.30133E-004,9.86825E-002,-4.10645E-002,-3.81363E-001,9.91443E-002,1.10371E+000,-2.42361E-003,0.00000E+000,5.47388E-004,9.62274E-001,0.00000E+000,-3.42131E-003,-7.22295E-002,1.00000E+000,15
789,1357,-6.72201E+000,1.34307E+000,3.26310E-002,2.62087E+000,-5.50421E-001,-2.53370E-002,2.67816E+000,8.29718E-003,5.44901E-001,0,4.07344E+001,-8.90204E+000,9.98900E-001,-2.62270E+000,-4.63549E+001,9.98471E-001,9.86243E-002,-4.10807E-002,-1.19761E-003,9.86346E-002,-4.10910E-002,-4.91116E-001,9.90909E-002,1.10366E+000,-2.42573E-003,0.00000E+000,1.16516E-004,9.62257E-001,0.00000E+000,-4.60850E-003,-7.22779E-002,1.00000E+000,15
1069,1327,1.34071E+001,-1.38527E-001,-2.16622E-002,4.53197E+000,-2.64067E-001,-3.97753E-002,4.53983E+000,1.16702E-002,4.48184E-001,0,6.89177E+001,-4.61562E+000,9.99471E-001,2.79693E+001,-3.63908E+001,9.97884E-001,9.67515E-002,-3.95746E-002,-9.18582E-004,9.67577E-002,-3.95808E-002,-3.86043E-001,9.72895E-002,1.10130E+000,-2.50266E-002,0.00000E+000,2.00305E-002,9.62626E-001,0.00000E+000,-2.53377E-005,-5.83758E-002,1.00000E+000,15
1069,1337,1.34078E+001,4.90363E-001,-4.47856E-002,4.51571E+000,-2.82053E-001,-6.84835E-002,4.52503E+000,7.59549E-003,4.07540E-001,0,6.87724E+001,-4.85097E+000,9.99535E-001,2.80171E+001,-3.66238E+001,9.98648E-001,9.71562E-002,-3.95738E-002,-9.00702E-004,9.71621E-002,-3.95797E-002,-3.77411E-001,9.77165E-002,1.10175E+000,-2.50151E-002,0.00000E+000,2.00370E-002,9.62627E-001,0.00000E+000,1.36807E-004,-5.83716E-002,1.00000E+000,15
1069,1347,1.34165E+001,1.11607E+000,-4.39807E-002,4.50058E+000,-3.09500E-001,-1.02259E-001,4.51236E+000,7.31996E-003,4.16945E-001,0,6.86619E+001,-5.21732E+000,9.99651E-001,2.82335E+001,-3.69356E+001,9.99038E-001,9.75634E-002,-3.95728E-002,-8.80618E-004,9.75691E-002,-3.95785E-002,-3.67904E-001,9.81465E-002,1.10220E+000,-2.49988E-002,0.00000E+000,2.00436E-002,9.62627E-001,0.00000E+000,3.00065E-004,-5.83657E-002,1.00000E+000,15
789,1307,-6.78787E+000,-1.73255E+000,2.14201E-001,2.62509E+000,-4.13789E-001,1.99874E-001,2.66501E+000,1.29740E-002,5.55806E-001,0,4.01035E+001,-7.21729E+000,9.98911E-001,-3.80707E+000,-4.41234E+001,9.96557E-001,9.88670E-002,-4.10187E-002,1.24085E-004,9.88671E-002,-4.10188E-002,5.08239E-002,9.93435E-002,1.10392E+000,-2.42014E-003,0.00000E+000,2.25001E-003,9.62303E-001,0.00000E+000,1.26996E-003,-7.21499E-002,1.00000E+000,15
789,1317,-6.78632E+000,-1.13476E+000,1.22828E-001,2.62288E+000,-4.50196E-001,1.52115E-001,2.66558E+000,1.43655E-002,5.53290E-001,0,4.02246E+001,-7.69845E+000,9.98907E-001,-3.89054E+000,-4.47180E+001,9.95792E-001,9.88219E-002,-4.10229E-002,-1.37628E-004,9.88220E-002,-4.10231E-002,-5.63875E-002,9.92955E-002,1.10387E+000,-2.42044E-003,0.00000E+000,1.82686E-003,9.62301E-001,0.00000E+000,1.04039E-004,-7.21568E-002,1.00000E+000,15
1069,1297,1.34125E+001,-1.98759E+000,1.39931E-001,4.57084E+000,-1.78197E-001,6.53583E-002,4.57478E+000,1.18952E-002,3.71615E-001,0,6.91095E+001,-3.44232E+000,9.98786E-001,2.81158E+001,-3.54167E+001,9.96741E-001,9.55366E-002,-3.95766E-002,-9.66980E-004,9.55435E-002,-3.95835E-002,-4.10027E-001,9.60102E-002,1.09997E+000,-2.50495E-002,0.00000E+000,2.00110E-002,9.62626E-001,0.00000E+000,-5.11505E-004,-5.83841E-002,1.00000E+000,15
1069,1307,1.34087E+001,-1.37252E+000,6.61798E-002,4.55951E+000,-2.03828E-001,2.55286E-002,4.56414E+000,9.14093E-003,3.25300E-001,0,6.90894E+001,-3.77354E+000,9.99455E-001,2.79995E+001,-3.57539E+001,9.98067E-001,9.59397E-002,-3.95760E-002,-9.52022E-004,9.59464E-002,-3.95827E-002,-4.02486E-001,9.64343E-002,1.10041E+000,-2.50443E-002,0.00000E+000,2.00175E-002,9.62626E-001,0.00000E+000,-3.50283E-004,-5.83822E-002,1.00000E+000,15
1069,1317,1.34088E+001,-7.51497E-001,2.10893E-002,4.54674E+000,-2.29769E-001,-7.81632E-003,4.55255E+000,1.02943E-002,4.19147E-001,0,6.90197E+001,-4.14546E+000,9.99555E-001,2.79963E+001,-3.59905E+001,9.97980E-001,9.63456E-002,-3.95753E-002,-9.35334E-004,9.63521E-002,-3.95817E-002,-3.94254E-001,9.68618E-002,1.10086E+000,-2.50355E-002,0.00000E+000,2.00240E-002,9.62626E-001,0.00000E+000,-1.87840E-004,-5.83790E-002,1.00000E+000,15
779,1327,-7.49019E+000,-5.29955E-001,5.32415E-002,2.55897E+000,-4.77296E-001,1.15340E-001,2.60566E+000,1.75817E-002,5.86807E-001,0,3.93825E+001,-8.04226E+000,9.99328E-001,-4.75526E+000,-4.53298E+001,9.98134E-001,9.77421E-002,-4.07051E-002,-3.30478E-004,9.77429E-002,-4.07059E-002,-1.36766E-001,9.81966E-002,1.10268E+000,-2.59829E-003,0.00000E+000,1.70231E-003,9.62526E-001,0.00000E+000,-1.21017E-003,-7.09717E-002,1.00000E+000,15
779,1337,-7.47762E+000,8.22273E-002,1.16504E-002,2.55696E+000,-5.06994E-001,6.13350E-002,2.60746E+000,7.46877E-003,5.48204E-001,0,3.95175E+001,-8.38911E+000,9.99187E-001,-4.54051E+000,-4.58281E+001,9.99013E-001,9.78247E-002,-4.07203E-002,-6.36453E-004,9.78277E-002,-4.07232E-002,-2.63200E-001,9.82838E-002,1.10277E+000,-2.59617E-003,0.00000E+000,1.17585E-003,9.62514E-001,0.00000E+000,-2.16589E-003,-7.09934E-002,1.00000E+000,15
779,1347,-7.46042E+000,7.07192E-001,3.68096E-003,2.55501E+000,-5.27563E-001,1.75136E-002,2.60897E+000,9.40637E-003,5.34604E-001,0,3.96174E+001,-8.62753E+000,9.98850E-001,-4.16723E+000,-4.61914E+001,9.98452E-001,9.79066E-002,-4.07396E-002,-9.43299E-004,9.79130E-002,-4.07460E-002,-3.89796E-001,9.83710E-002,1.10286E+000,-2.59340E-003,0.00000E+000,6.47444E-004,9.62498E-001,0.00000E+000,-3.12514E-003,-7.10219E-002,1.00000E+000,15
779,1357,-7.43676E+000,1.33700E+000,3.38310E-002,2.55307E+000,-5.49625E-001,-2.12777E-002,2.61165E+000,7.71626E-003,5.43606E-001,0,3.96994E+001,-8.89276E+000,9.98872E-001,-3.59744E+000,-4.65554E+001,9.98712E-001,9.79880E-002,-4.07649E-002,-1.25194E-003,9.79993E-002,-4.07762E-002,-5.16912E-001,9.84582E-002,1.10296E+000,-2.58969E-003,0.00000E+000,1.15326E-004,9.62477E-001,0.00000E+000,-4.09113E-003,-7.10600E-002,1.00000E+000,15
779,1317,-7.49412E+000,-1.13356E+000,1.29077E-001,2.56079E+000,-4.43167E-001,1.57894E-001,2.60365E+000,1.80759E-002,5.25794E-001,0,3.92740E+001,-7.58900E+000,9.99466E-001,-4.74828E+000,-4.48221E+001,9.98010E-001,9.76586E-002,-4.06983E-002,-2.47334E-005,9.76586E-002,-4.06983E-002,-1.02425E-002,9.81088E-002,1.10258E+000,-2.59912E-003,0.00000E+000,2.22742E-003,9.62531E-001,0.00000E+000,-2.56900E-004,-7.09631E-002,1.00000E+000,15
1079,1337,1.41327E+001,5.08225E-001,-5.72140E-002,4.58266E+000,-2.70607E-001,-7.72386E-002,4.59129E+000,9.40673E-003,3.99817E-001,0,6.97658E+001,-4.65179E+000,9.99415E-001,2.92571E+001,-3.62278E+001,9.99215E-001,9.72819E-002,-3.96622E-002,-1.13822E-003,9.72914E-002,-3.96717E-002,-4.76172E-001,9.78416E-002,1.10190E+000,-2.45630E-002,0.00000E+000,1.91564E-002,9.62544E-001,0.00000E+000,5.87219E-004,-5.81023E-002,1.00000E+000,15
1079,1347,1.41437E+001,1.13583E+000,-4.84404E-002,4.56943E+000,-2.96341E-001,-1.03442E-001,4.58020E+000,5.72865E-003,4.45669E-001,0,6.96558E+001,-5.02887E+000,9.99748E-001,2.95200E+001,-3.65078E+001,9.99581E-001,9.76965E-002,-3.96632E-002,-1.13497E-003,9.77059E-002,-3.96726E-002,-4.73377E-001,9.82792E-002,1.10236E+000,-2.45463E-002,0.00000E+000,1.91476E-002,9.62544E-001,0.00000E+000,4.36392E-004,-5.81078E-002,1.00000E+000,15
1079,1297,1.41389E+001,-1.96641E+000,1.43360E-001,4.63863E+000,-1.62930E-001,6.86572E-002,4.64200E+000,1.18387E-002,4.16444E-001,0,7.00651E+001,-3.23740E+000,9.99094E-001,2.94079E+001,-3.49839E+001,9.97442E-001,9.56332E-002,-3.96595E-002,-1.13689E-003,9.56428E-002,-3.96690E-002,-4.81423E-001,9.61049E-002,1.10009E+000,-2.45977E-002,0.00000E+000,1.91913E-002,9.62545E-001,0.00000E+000,1.18610E-003,-5.80909E-002,1.00000E+000,15
1079,1307,1.41304E+001,-1.35566E+000,6.02974E-002,4.62408E+000,-1.92899E-001,2.55182E-002,4.62817E+000,1.05230E-002,3.59301E-001,0,7.00123E+001,-3.61324E+000,9.99448E-001,2.92032E+001,-3.53726E+001,9.98142E-001,9.60437E-002,-3.96600E-002,-1.13916E-003,9.60532E-002,-3.96695E-002,-4.80922E-001,9.65368E-002,1.10054E+000,-2.45934E-002,0.00000E+000,1.91826E-002,9.62545E-001,0.00000E+000,1.03713E-003,-5.80923E-002,1.00000E+000,15
1079,1327,1.41317E+001,-1.20911E-001,-2.84631E-002,4.59819E+000,-2.52629E-001,-4.49893E-002,4.60534E+000,1.13625E-002,4.27994E-001,0,6.98860E+001,-4.42263E+000,9.99536E-001,2.92152E+001,-3.60190E+001,9.98930E-001,9.68698E-002,-3.96614E-002,-1.13914E-003,9.68793E-002,-3.96709E-002,-4.77999E-001,9.74069E-002,1.10145E+000,-2.45745E-002,0.00000E+000,1.91651E-002,9.62545E-001,0.00000E+000,7.37051E-004,-5.80985E-002,1.00000E+000,15
1079,1317,1.41292E+001,-7.32937E-001,1.29265E-002,4.61004E+000,-2.17507E-001,-9.37911E-003,4.61518E+000,9.95495E-003,3.98843E-001,0,6.99299E+001,-3.93060E+000,9.99420E-001,2.91753E+001,-3.56034E+001,9.98615E-001,9.64570E-002,-3.96607E-002,-1.13939E-003,9.64665E-002,-3.96702E-002,-4.79557E-001,9.69720E-002,1.10099E+000,-2.45845E-002,0.00000E+000,1.91739E-002,9.62545E-001,0.00000E+000,8.87023E-004,-5.80952E-002,1.00000E+000,15
779,1307,-7.50101E+000,-1.74465E+000,2.16538E-001,2.55739E+000,-4.21497E-001,2.00723E-001,2.59965E+000,1.24100E-002,5.48846E-001,0,3.90866E+001,-7.31981E+000,9.99265E-001,-4.75915E+000,-4.44126E+001,9.97484E-001,9.75745E-002,-4.06934E-002,2.79069E-004,9.75751E-002,-4.06940E-002,1.15641E-001,9.80216E-002,1.10249E+000,-2.59963E-003,0.00000E+000,2.74896E-003,9.62534E-001,0.00000E+000,6.89881E-004,-7.09579E-002,1.00000E+000,15
1089,1337,1.48562E+001,5.27494E-001,-6.44044E-002,4.64771E+000,-2.58385E-001,-8.05232E-002,4.65558E+000,8.30210E-003,4.61380E-001,0,7.07084E+001,-4.47718E+000,9.99348E-001,3.04877E+001,-3.57873E+001,9.98965E-001,9.77138E-002,-3.97584E-002,-1.26333E-003,9.77254E-002,-3.97700E-002,-5.26473E-001,9.82878E-002,1.10239E+000,-2.39135E-002,0.00000E+000,1.83109E-002,9.62457E-001,0.00000E+000,1.09615E-003,-5.79028E-002,1.00000E+000,15
1089,1347,1.48674E+001,1.15497E+000,-5.66565E-002,4.63467E+000,-2.83417E-001,-1.07313E-001,4.64457E+000,6.94750E-003,4.48770E-001,0,7.06038E+001,-4.82876E+000,9.99623E-001,3.07506E+001,-3.60945E+001,9.98895E-001,9.82206E-002,-3.97615E-002,-1.27642E-003,9.82324E-002,-3.97733E-002,-5.29960E-001,9.88230E-002,1.10295E+000,-2.38930E-002,0.00000E+000,1.82756E-002,9.62456E-001,0.00000E+000,7.64460E-004,-5.79149E-002,1.00000E+000,15
769,1347,-8.17261E+000,6.99297E-001,6.43434E-003,2.48917E+000,-5.29150E-001,2.33853E-002,2.54490E+000,7.68262E-003,5.42524E-001,0,3.86073E+001,-8.65898E+000,9.98947E-001,-5.09685E+000,-4.64168E+001,9.98642E-001,9.69010E-002,-4.04279E-002,-8.81615E-004,9.69067E-002,-4.04336E-002,-3.67804E-001,9.73481E-002,1.10175E+000,-2.59492E-003,0.00000E+000,7.43844E-004,9.62710E-001,0.00000E+000,-2.78576E-003,-6.97166E-002,1.00000E+000,15
769,1357,-8.14783E+000,1.33011E+000,3.40017E-002,2.48890E+000,-5.49803E-001,-1.62175E-002,2.54896E+000,7.66396E-003,5.53336E-001,0,3.87166E+001,-8.90007E+000,9.99083E-001,-4.51412E+000,-4.67603E+001,9.99022E-001,9.69466E-002,-4.04504E-002,-1.16179E-003,9.69564E-002,-4.04602E-002,-4.84430E-001,9.73975E-002,1.10181E+000,-2.59285E-003,0.00000E+000,2.58887E-004,9.62691E-001,0.00000E+000,-3.63448E-003,-6.97493E-002,1.00000E+000,15
769,1327,-8.20076E+000,-5.37581E-001,6.00946E-002,2.49157E+000,-4.79943E-001,1.10310E-001,2.53977E+000,1.34016E-002,5.92373E-001,0,3.83821E+001,-8.08480E+000,9.99188E-001,-5.65166E+000,-4.55571E+001,9.97219E-001,9.68080E-002,-4.03994E-002,-3.25558E-004,9.68088E-002,-4.04002E-002,-1.35947E-001,9.72490E-002,1.10165E+000,-2.59744E-003,0.00000E+000,1.70529E-003,9.62733E-001,0.00000E+000,-1.10314E-003,-6.96767E-002,1.00000E+000,15
769,1337,-8.19035E+000,7.20800E-002,1.23216E-002,2.48995E+000,-5.11413E-001,6.27865E-002,2.54270E+000,7.15853E-003,5.51694E-001,0,3.85042E+001,-8.45237E+000,9.99235E-001,-5.48566E+000,-4.60840E+001,9.98718E-001,9.68549E-002,-4.04109E-002,-6.03266E-004,9.68575E-002,-4.04136E-002,-2.51801E-001,9.72987E-002,1.10170E+000,-2.59645E-003,0.00000E+000,1.22531E-003,9.62724E-001,0.00000E+000,-1.94315E-003,-6.96925E-002,1.00000E+000,15
1089,1327,1.48528E+001,-9.88585E-002,-4.81817E-002,4.66256E+000,-2.34040E-001,-5.42765E-002,4.66875E+000,1.02449E-002,4.12170E-001,0,7.08388E+001,-4.13503E+000,9.99281E-001,3.03872E+001,-3.55487E+001,9.98308E-001,9.72068E-002,-3.97557E-002,-1.24804E-003,9.72182E-002,-3.97671E-002,-5.22037E-001,9.77529E-002,1.10183E+000,-2.39290E-002,0.00000E+000,1.83462E-002,9.62458E-001,0.00000E+000,1.42764E-003,-5.78935E-002,1.00000E+000,15
1089,1317,1.48550E+001,-7.20533E-001,1.53935E-003,4.67780E+000,-2.09991E-001,-1.65490E-002,4.68254E+000,9.68081E-003,4.46239E-001,0,7.09281E+001,-3.83835E+000,9.99489E-001,3.04358E+001,-3.52704E+001,9.98890E-001,9.67023E-002,-3.97535E-002,-1.23085E-003,9.67134E-002,-3.97646E-002,-5.16759E-001,9.72210E-002,1.10128E+000,-2.39400E-002,0.00000E+000,1.83813E-002,9.62459E-001,0.00000E+000,1.75726E-003,-5.78870E-002,1.00000E+000,15
1089,1297,1.48649E+001,-1.94623E+000,1.42611E-001,4.70586E+000,-1.49354E-001,6.85942E-002,4.70873E+000,8.68417E-003,4.56092E-001,0,7.10238E+001,-3.03681E+000,9.99568E-001,3.06918E+001,-3.45605E+001,9.98855E-001,9.56946E-002,-3.97497E-002,-1.19368E-003,9.57051E-002,-3.97602E-002,-5.04898E-001,9.61602E-002,1.10017E+000,-2.39556E-002,0.00000E+000,1.84513E-002,9.62460E-001,0.00000E+000,2.41484E-003,-5.78778E-002,1.00000E+000,15
1089,1307,1.48569E+001,-1.33768E+000,5.61948E-002,4.69129E+000,-1.82064E-001,2.07645E-002,4.69487E+000,8.53851E-003,4.39041E-001,0,7.09903E+001,-3.46321E+000,9.99684E-001,3.04867E+001,-3.49544E+001,9.99046E-001,9.61977E-002,-3.97514E-002,-1.21319E-003,9.62085E-002,-3.97622E-002,-5.11247E-001,9.66895E-002,1.10072E+000,-2.39500E-002,0.00000E+000,1.84164E-002,9.62459E-001,0.00000E+000,2.08671E-003,-5.78811E-002,1.00000E+000,15
769,1317,-8.20872E+000,-1.14157E+000,1.26924E-001,2.49164E+000,-4.48111E-001,1.56336E-001,2.53643E+000,1.49920E-002,5.29601E-001,0,3.82389E+001,-7.61983E+000,9.99528E-001,-5.72921E+000,-4.50357E+001,9.98641E-001,9.67606E-002,-4.03912E-002,-4.95312E-005,9.67607E-002,-4.03913E-002,-2.06919E-002,9.71994E-002,1.10159E+000,-2.59811E-003,0.00000E+000,2.18214E-003,9.62739E-001,0.00000E+000,-2.68604E-004,-6.96662E-002,1.00000E+000,15
1099,1327,1.55751E+001,-8.25388E-002,-5.64108E-002,4.72764E+000,-2.23020E-001,-5.24233E-002,4.73319E+000,1.07711E-002,4.54195E-001,0,7.17616E+001,-3.99029E+000,9.98681E-001,3.16028E+001,-3.51633E+001,9.97011E-001,9.75683E-002,-3.98081E-002,-1.37211E-003,9.75820E-002,-3.98218E-002,-5.72193E-001,9.81300E-002,1.10225E+000,-2.33333E-002,0.00000E+000,1.75585E-002,9.62430E-001,0.00000E+000,1.81024E-003,-5.80336E-002,1.00000E+000,15
1099,1337,1.55837E+001,5.47259E-001,-6.57578E-002,4.71614E+000,-2.44359E-001,-7.87325E-002,4.72312E+000,1.00726E-002,4.64329E-001,0,7.16804E+001,-4.27968E+000,9.98858E-001,3.17948E+001,-3.53810E+001,9.98178E-001,9.81913E-002,-3.98106E-002,-1.38181E-003,9.82052E-002,-3.98245E-002,-5.73626E-001,9.87878E-002,1.10293E+000,-2.33124E-002,0.00000E+000,1.75316E-002,9.62429E-001,0.00000E+000,1.39917E-003,-5.80461E-002,1.00000E+000,15
1099,1347,1.55974E+001,1.17811E+000,-5.09340E-002,4.70347E+000,-2.67847E-001,-1.06814E-001,4.71230E+000,8.33922E-003,4.68806E-001,0,7.15848E+001,-4.60790E+000,9.99275E-001,3.21088E+001,-3.56412E+001,9.98535E-001,9.88154E-002,-3.98137E-002,-1.38866E-003,9.88293E-002,-3.98276E-002,-5.73861E-001,9.94473E-002,1.10362E+000,-2.32849E-002,0.00000E+000,1.75047E-002,9.62428E-001,0.00000E+000,9.86997E-004,-5.80626E-002,1.00000E+000,15
759,1347,-8.88109E+000,6.94342E-001,4.16817E-003,2.42672E+000,-5.28071E-001,2.48468E-002,2.48364E+000,7.01985E-003,5.35715E-001,0,3.76609E+001,-8.62660E+000,9.98974E-001,-5.97728E+000,-4.65929E+001,9.98579E-001,9.58893E-002,-4.01742E-002,-7.81365E-004,9.58937E-002,-4.01787E-002,-3.29015E-001,9.63124E-002,1.10064E+000,-2.44757E-003,0.00000E+000,7.90473E-004,9.62886E-001,0.00000E+000,-2.50794E-003,-6.86962E-002,1.00000E+000,15
759,1357,-8.85923E+000,1.32191E+000,2.81763E-002,2.42405E+000,-5.51391E-001,-1.67645E-002,2.48602E+000,7.49006E-003,5.62405E-001,0,3.77394E+001,-8.91413E+000,9.99083E-001,-5.44714E+000,-4.69727E+001,9.98800E-001,9.58113E-002,-4.01902E-002,-9.86997E-004,9.58185E-002,-4.01974E-002,-4.15781E-001,9.62314E-002,1.10056E+000,-2.45070E-003,0.00000E+000,4.52692E-004,9.62874E-001,0.00000E+000,-3.35136E-003,-6.87281E-002,1.00000E+000,15
1099,1297,1.55874E+001,-1.93250E+000,1.30377E-001,4.77085E+000,-1.40728E-001,6.43621E-002,4.77336E+000,7.88124E-003,4.95555E-001,0,7.19659E+001,-2.91098E+000,9.99401E-001,3.19033E+001,-3.42134E+001,9.98157E-001,9.57091E-002,-3.98027E-002,-1.32977E-003,9.57222E-002,-3.98157E-002,-5.62170E-001,9.61719E-002,1.10020E+000,-2.33658E-002,0.00000E+000,1.76385E-002,9.62431E-001,0.00000E+000,3.03433E-003,-5.80141E-002,1.00000E+000,15
1099,1307,1.55824E+001,-1.31858E+000,5.28191E-002,4.75930E+000,-1.68688E-001,2.55006E-002,4.76235E+000,9.17246E-003,4.57868E-001,0,7.19434E+001,-3.26741E+000,9.99541E-001,3.17624E+001,-3.45511E+001,9.98708E-001,9.63282E-002,-3.98042E-002,-1.34557E-003,9.63415E-002,-3.98175E-002,-5.66256E-001,9.68231E-002,1.10088E+000,-2.33588E-002,0.00000E+000,1.76119E-002,9.62431E-001,0.00000E+000,2.62715E-003,-5.80183E-002,1.00000E+000,15
1099,1317,1.55778E+001,-7.01623E-001,-8.12127E-003,4.74420E+000,-1.95813E-001,-1.28519E-002,4.74826E+000,1.13011E-002,4.72208E-001,0,7.18624E+001,-3.63886E+000,9.99157E-001,3.16565E+001,-3.48516E+001,9.98216E-001,9.69478E-002,-3.98060E-002,-1.35960E-003,9.69614E-002,-3.98195E-002,-5.69557E-001,9.74758E-002,1.10156E+000,-2.33478E-002,0.00000E+000,1.75852E-002,9.62431E-001,0.00000E+000,2.21915E-003,-5.80249E-002,1.00000E+000,15
759,1327,-8.91443E+000,-5.47471E-001,5.72315E-002,2.42286E+000,-4.83896E-001,1.06923E-001,2.47302E+000,8.87152E-003,5.60217E-001,0,3.73564E+001,-8.12187E+000,9.99288E-001,-6.61591E+000,-4.58178E+001,9.99036E-001,9.60415E-002,-4.01543E-002,-3.74540E-004,9.60426E-002,-4.01553E-002,-1.57562E-001,9.64711E-002,1.10080E+000,-2.44381E-003,0.00000E+000,1.46072E-003,9.62902E-001,0.00000E+000,-8.34398E-004,-6.86579E-002,1.00000E+000,15
759,1337,-8.89946E+000,7.24769E-002,1.84463E-002,2.42561E+000,-5.05342E-001,6.68907E-002,2.47860E+000,7.14509E-003,5.58884E-001,0,3.75194E+001,-8.36594E+000,9.98993E-001,-6.35463E+000,-4.61873E+001,9.98660E-001,9.59659E-002,-4.01627E-002,-5.77519E-004,9.59683E-002,-4.01652E-002,-2.43069E-001,9.63921E-002,1.10072E+000,-2.44537E-003,0.00000E+000,1.12605E-003,9.62895E-001,0.00000E+000,-1.67003E-003,-6.86738E-002,1.00000E+000,15
759,1317,-8.91924E+000,-1.15341E+000,1.31504E-001,2.42508E+000,-4.54395E-001,1.55588E-001,2.47219E+000,1.27233E-002,5.63406E-001,0,3.72397E+001,-7.74110E+000,9.99359E-001,-6.62689E+000,-4.53071E+001,9.98719E-001,9.61159E-002,-4.01491E-002,-1.73289E-004,9.61161E-002,-4.01493E-002,-7.28632E-002,9.65490E-002,1.10088E+000,-2.44291E-003,0.00000E+000,1.79304E-003,9.62905E-001,0.00000E+000,-4.61064E-006,-6.86488E-002,1.00000E+000,15
749,1317,-9.62274E+000,-1.15628E+000,1.47450E-001,2.36393E+000,-4.54005E-001,1.59946E-001,2.41244E+000,9.54239E-003,5.73554E-001,0,3.63050E+001,-7.73649E+000,9.99366E-001,-7.38064E+000,-4.54757E+001,9.98349E-001,9.55275E-002,-3.99600E-002,-2.83191E-004,9.55281E-002,-3.99606E-002,-1.19757E-001,9.59521E-002,1.10024E+000,-2.07531E-003,0.00000E+000,1.25185E-003,9.63023E-001,0.00000E+000,1.62034E-004,-6.76399E-002,1.00000E+000,15
749,1327,-9.61835E+000,-5.50062E-001,6.10539E-002,2.36289E+000,-4.82461E-001,1.07272E-001,2.41403E+000,7.08993E-003,5.54051E-001,0,3.64514E+001,-8.07459E+000,9.99151E-001,-7.40753E+000,-4.59663E+001,9.98715E-001,9.53416E-002,-3.99628E-002,-4.22484E-004,9.53429E-002,-3.99641E-002,-1.78902E-001,9.57574E-002,1.10003E+000,-2.07705E-003,0.00000E+000,1.03193E-003,9.63021E-001,0.00000E+000,-5.58414E-004,-6.76461E-002,1.00000E+000,15
749,1337,-9.60767E+000,6.87039E-002,2.09596E-002,2.36169E+000,-5.04051E-001,6.69815E-002,2.41581E+000,6.86019E-003,5.81956E-001,0,3.65532E+001,-8.34481E+000,9.99099E-001,-7.21519E+000,-4.63391E+001,9.98944E-001,9.51540E-002,-3.99683E-002,-5.63552E-004,9.51564E-002,-3.99707E-002,-2.38957E-001,9.55610E-002,1.09983E+000,-2.08085E-003,0.00000E+000,8.10693E-004,9.63017E-001,0.00000E+000,-1.28320E-003,-6.76595E-002,1.00000E+000,15
749,1347,-9.59204E+000,6.88190E-001,2.26875E-003,2.36091E+000,-5.27952E-001,2.42088E-002,2.41935E+000,7.16242E-003,5.44579E-001,0,3.66676E+001,-8.62147E+000,9.99233E-001,-6.89073E+000,-4.67810E+001,9.99057E-001,9.49653E-002,-3.99758E-002,-7.05667E-004,9.49690E-002,-3.99795E-002,-2.99614E-001,9.53636E-002,1.09962E+000,-2.08609E-003,0.00000E+000,5.88857E-004,9.63011E-001,0.00000E+000,-2.00995E-003,-6.76780E-002,1.00000E+000,15
1109,1297,1.63104E+001,-1.91796E+000,1.19665E-001,4.83767E+000,-1.29118E-001,6.85269E-002,4.83988E+000,8.17735E-003,4.79856E-001,0,7.29023E+001,-2.74889E+000,9.99117E-001,3.31309E+001,-3.38845E+001,9.97422E-001,9.58548E-002,-4.00024E-002,-1.40178E-003,9.58693E-002,-4.00169E-002,-5.91095E-001,9.63042E-002,1.10039E+000,-2.24313E-002,0.00000E+000,1.66467E-002,9.62270E-001,0.00000E+000,3.59152E-003,-5.82477E-002,1.00000E+000,15
1109,1307,1.63044E+001,-1.30279E+000,4.27689E-002,4.82505E+000,-1.55737E-001,3.05290E-002,4.82766E+000,9.25188E-003,4.34428E-001,0,7.28608E+001,-3.08704E+000,9.99274E-001,3.29749E+001,-3.42063E+001,9.98454E-001,9.65320E-002,-4.00024E-002,-1.39115E-003,9.65462E-002,-4.00166E-002,-5.83706E-001,9.70158E-002,1.10113E+000,-2.24237E-002,0.00000E+000,1.66807E-002,9.62270E-001,0.00000E+000,2.99239E-003,-5.82539E-002,1.00000E+000,15
1109,1317,1.63001E+001,-6.85194E-001,-1.67807E-002,4.81042E+000,-1.82564E-001,-5.70023E-003,4.81388E+000,9.89447E-003,4.41772E-001,0,7.27797E+001,-3.45209E+000,9.99007E-001,3.28771E+001,-3.45017E+001,9.98213E-001,9.72102E-002,-4.00023E-002,-1.37858E-003,9.72240E-002,-4.00162E-002,-5.75574E-001,9.77294E-002,1.10187E+000,-2.24118E-002,0.00000E+000,1.67147E-002,9.62271E-001,0.00000E+000,2.39158E-003,-5.82635E-002,1.00000E+000,15
749,1357,-9.56793E+000,1.31485E+000,2.93595E-002,2.36100E+000,-5.51379E-001,-1.28149E-002,2.42456E+000,8.69771E-003,5.56555E-001,0,3.67745E+001,-8.91931E+000,9.99241E-001,-6.31602E+000,-4.71902E+001,9.99005E-001,9.47747E-002,-3.99865E-002,-8.49893E-004,9.47801E-002,-3.99919E-002,-3.61326E-001,9.51643E-002,1.09941E+000,-2.09376E-003,0.00000E+000,3.65459E-004,9.63003E-001,0.00000E+000,-2.74181E-003,-6.77050E-002,1.00000E+000,15
1109,1327,1.62993E+001,-6.60711E-002,-6.05097E-002,4.79438E+000,-2.10835E-001,-4.58642E-002,4.79924E+000,8.80297E-003,4.41615E-001,0,7.26897E+001,-3.82579E+000,9.98649E-001,3.28602E+001,-3.48119E+001,9.97747E-001,9.78895E-002,-4.00023E-002,-1.36355E-003,9.79030E-002,-4.00157E-002,-5.66499E-001,9.84452E-002,1.10262E+000,-2.23944E-002,0.00000E+000,1.67488E-002,9.62271E-001,0.00000E+000,1.78896E-003,-5.82775E-002,1.00000E+000,15
1109,1337,1.63056E+001,5.63752E-001,-7.53286E-002,4.78004E+000,-2.32768E-001,-7.89033E-002,4.78636E+000,9.54776E-003,4.74887E-001,0,7.25918E+001,-4.11777E+000,9.99200E-001,3.30041E+001,-3.50041E+001,9.98612E-001,9.85713E-002,-4.00022E-002,-1.34580E-003,9.85843E-002,-4.00153E-002,-5.56375E-001,9.91646E-002,1.10337E+000,-2.23709E-002,0.00000E+000,1.67831E-002,9.62272E-001,0.00000E+000,1.18335E-003,-5.82964E-002,1.00000E+000,15
1109,1347,1.63241E+001,1.19549E+000,-4.73685E-002,4.76854E+000,-2.57905E-001,-1.07761E-001,4.77673E+000,9.91319E-003,4.73264E-001,0,7.25157E+001,-4.46300E+000,9.99163E-001,3.34131E+001,-3.52808E+001,9.98284E-001,9.92553E-002,-4.00021E-002,-1.32326E-003,9.92678E-002,-4.00147E-002,-5.44374E-001,9.98873E-002,1.10413E+000,-2.23369E-002,0.00000E+000,1.68176E-002,9.62274E-001,0.00000E+000,5.74848E-004,-5.83239E-002,1.00000E+000,15
739,1337,-1.03149E+001,5.92379E-002,2.01956E-002,2.29849E+000,-5.07757E-001,6.45456E-002,2.35479E+000,7.60392E-003,5.67549E-001,0,3.56058E+001,-8.38656E+000,9.99101E-001,-8.06588E+000,-4.65901E+001,9.98842E-001,9.42858E-002,-3.96390E-002,-6.38493E-004,9.42888E-002,-3.96421E-002,-2.73152E-001,9.46859E-002,1.09887E+000,-1.78003E-003,0.00000E+000,3.93529E-004,9.63281E-001,0.00000E+000,-1.10945E-003,-6.68385E-002,1.00000E+000,15
739,1347,-1.03016E+001,6.80574E-001,3.80977E-003,2.29581E+000,-5.29487E-001,2.56605E-002,2.35622E+000,5.79717E-003,5.58205E-001,0,3.56779E+001,-8.64978E+000,9.99562E-001,-7.77000E+000,-4.69967E+001,9.99377E-001,9.39478E-002,-3.96459E-002,-7.76666E-004,9.39523E-002,-3.96504E-002,-3.33082E-001,9.43323E-002,1.09850E+000,-1.78917E-003,0.00000E+000,1.84712E-004,9.63276E-001,0.00000E+000,-1.87426E-003,-6.68574E-002,1.00000E+000,15
739,1357,-1.02782E+001,1.30845E+000,2.97296E-002,2.29582E+000,-5.51050E-001,-1.05747E-002,2.36105E+000,6.49453E-003,5.44698E-001,0,3.57804E+001,-8.90943E+000,9.99364E-001,-7.20596E+000,-4.73993E+001,9.99239E-001,9.36069E-002,-3.96559E-002,-9.17688E-004,9.36132E-002,-3.96622E-002,-3.94531E-001,9.39760E-002,1.09813E+000,-1.80259E-003,0.00000E+000,-2.54745E-005,9.63268E-001,0.00000E+000,-2.64409E-003,-6.68852E-002,1.00000E+000,15
739,1327,-1.03263E+001,-5.56319E-001,6.09928E-002,2.29886E+000,-4.82932E-001,1.05356E-001,2.35140E+000,7.74531E-003,5.12863E-001,0,3.54895E+001,-8.05776E+000,9.99504E-001,-8.26678E+000,-4.61811E+001,9.99193E-001,9.46222E-002,-3.96339E-002,-5.01737E-004,9.46241E-002,-3.96357E-002,-2.14120E-001,9.50383E-002,1.09924E+000,-1.77329E-003,0.00000E+000,6.01872E-004,9.63285E-001,0.00000E+000,-3.46367E-004,-6.68246E-002,1.00000E+000,15
1119,1297,1.70314E+001,-1.90387E+000,1.07354E-001,4.90206E+000,-1.18145E-001,7.13734E-002,4.90400E+000,8.67273E-003,4.40703E-001,0,7.38054E+001,-2.57866E+000,9.99485E-001,3.43278E+001,-3.35712E+001,9.98735E-001,9.61517E-002,-3.98591E-002,-1.53345E-003,9.61690E-002,-3.98764E-002,-6.45869E-001,9.66349E-002,1.10073E+000,-2.15580E-002,0.00000E+000,1.56230E-002,9.62454E-001,0.00000E+000,3.64805E-003,-5.87523E-002,1.00000E+000,15
1119,1307,1.70275E+001,-1.28890E+000,3.62305E-002,4.89015E+000,-1.46089E-001,3.35027E-002,4.89245E+000,7.52504E-003,4.46284E-001,0,7.37748E+001,-2.96165E+000,9.99412E-001,3.42152E+001,-3.38810E+001,9.99231E-001,9.68155E-002,-3.98569E-002,-1.48757E-003,9.68317E-002,-3.98731E-002,-6.23519E-001,9.73328E-002,1.10146E+000,-2.15489E-002,0.00000E+000,1.57316E-002,9.62455E-001,0.00000E+000,2.92782E-003,-5.87613E-002,1.00000E+000,15
1119,1317,1.70267E+001,-6.70414E-001,-2.02733E-002,4.87812E+000,-1.72275E-001,-2.81772E-003,4.88117E+000,7.75770E-003,4.25405E-001,0,7.37334E+001,-3.30990E+000,9.99134E-001,3.41763E+001,-3.41811E+001,9.99106E-001,9.74795E-002,-3.98544E-002,-1.44006E-003,9.74946E-002,-3.98695E-002,-6.00705E-001,9.80320E-002,1.10219E+000,-2.15363E-002,0.00000E+000,1.58403E-002,9.62457E-001,0.00000E+000,2.20638E-003,-5.87737E-002,1.00000E+000,15
1119,1327,1.70272E+001,-4.91520E-002,-5.96700E-002,4.86249E+000,-1.98847E-001,-4.17170E-002,4.86674E+000,7.48098E-003,4.13173E-001,0,7.36443E+001,-3.65819E+000,9.99041E-001,3.41862E+001,-3.44719E+001,9.98822E-001,9.81446E-002,-3.98513E-002,-1.39004E-003,9.81586E-002,-3.98653E-002,-5.77064E-001,9.87335E-002,1.10292E+000,-2.15184E-002,0.00000E+000,1.59493E-002,9.62460E-001,0.00000E+000,1.48251E-003,-5.87915E-002,1.00000E+000,15
1119,1337,1.70339E+001,5.77316E-001,-7.50628E-002,4.84785E+000,-2.25064E-001,-7.78999E-002,4.85370E+000,7.38372E-003,4.61366E-001,0,7.35560E+001,-4.01196E+000,9.99446E-001,3.43349E+001,-3.47058E+001,9.98835E-001,9.88125E-002,-3.98476E-002,-1.33719E-003,9.88254E-002,-3.98605E-002,-5.52474E-001,9.94390E-002,1.10365E+000,-2.14946E-002,0.00000E+000,1.60590E-002,9.62463E-001,0.00000E+000,7.54441E-004,-5.88150E-002,1.00000E+000,15
1119,1347,1.70501E+001,1.20893E+000,-5.13754E-002,4.83451E+000,-2.49654E-001,-1.08119E-001,4.84215E+000,1.07371E-002,4.44379E-001,0,7.34581E+001,-4.34560E+000,9.99385E-001,3.46975E+001,-3.49812E+001,9.98748E-001,9.94812E-002,-3.98431E-002,-1.28027E-003,9.94929E-002,-3.98549E-002,-5.26440E-001,1.00146E-001,1.10439E+000,-2.14619E-002,0.00000E+000,1.61690E-002,9.62468E-001,0.00000E+000,2.43190E-005,-5.88474E-002,1.00000E+000,15
739,1317,-1.03284E+001,-1.16027E+000,1.47564E-001,2.30185E+000,-4.52951E-001,1.56700E-001,2.35122E+000,9.80890E-003,5.47365E-001,0,3.53780E+001,-7.69604E+000,9.99403E-001,-8.20315E+000,-4.56464E+001,9.98829E-001,9.49556E-002,-3.96314E-002,-3.67664E-004,9.49566E-002,-3.96324E-002,-1.56519E-001,9.53878E-002,1.09961E+000,-1.77036E-003,0.00000E+000,8.08743E-004,9.63287E-001,0.00000E+000,4.11316E-004,-6.68185E-002,1.00000E+000,15
1129,1297,1.77526E+001,-1.88508E+000,1.04727E-001,4.96508E+000,-1.03044E-001,7.90961E-002,4.96678E+000,1.01232E-002,4.31977E-001,0,7.46651E+001,-2.37237E+000,9.99665E-001,3.55495E+001,-3.31906E+001,9.98506E-001,9.63133E-002,-3.98253E-002,-1.67036E-003,9.63338E-002,-3.98458E-002,-7.02852E-001,9.68118E-002,1.10092E+000,-2.06889E-002,0.00000E+000,1.46338E-002,9.62518E-001,0.00000E+000,3.01706E-003,-5.90216E-002,1.00000E+000,15
1129,1307,1.77484E+001,-1.27539E+000,2.94072E-002,4.95257E+000,-1.36409E-001,3.63202E-002,4.95458E+000,1.42429E-002,4.14657E-001,0,7.46472E+001,-2.82004E+000,9.99551E-001,3.54238E+001,-3.35831E+001,9.97241E-001,9.70411E-002,-3.98212E-002,-1.59047E-003,9.70596E-002,-3.98396E-002,-6.65713E-001,9.75769E-002,1.10172E+000,-2.06786E-002,0.00000E+000,1.48077E-002,9.62521E-001,0.00000E+000,2.27384E-003,-5.90312E-002,1.00000E+000,15
1129,1317,1.77512E+001,-6.58611E-001,-2.78877E-002,4.94374E+000,-1.64717E-001,-2.36670E-003,4.94648E+000,8.48673E-003,3.95566E-001,0,7.46644E+001,-3.19793E+000,9.99515E-001,3.54402E+001,-3.39049E+001,9.97689E-001,9.77692E-002,-3.98163E-002,-1.50860E-003,9.77858E-002,-3.98328E-002,-6.28135E-001,9.83438E-002,1.10252E+000,-2.06642E-002,0.00000E+000,1.49820E-002,9.62524E-001,0.00000E+000,1.52907E-003,-5.90446E-002,1.00000E+000,15
729,1347,-1.10029E+001,6.70203E-001,1.06400E-002,2.23747E+000,-5.35194E-001,2.62740E-002,2.30074E+000,5.08477E-003,5.68557E-001,0,3.47948E+001,-8.73275E+000,9.99753E-001,-8.50376E+000,-4.72670E+001,9.99614E-001,9.28934E-002,-3.93238E-002,-6.55412E-004,9.28967E-002,-3.93271E-002,-2.84011E-001,9.32599E-002,1.09735E+000,-1.09966E-003,0.00000E+000,-1.88632E-004,9.63525E-001,0.00000E+000,-1.80238E-003,-6.58940E-002,1.00000E+000,15
729,1357,-1.09836E+001,1.30154E+000,2.91001E-002,2.23467E+000,-5.52354E-001,-1.13179E-002,2.30195E+000,6.25474E-003,5.64980E-001,0,3.48564E+001,-8.92238E+000,9.99451E-001,-8.02026E+000,-4.75974E+001,9.99473E-001,9.23329E-002,-3.93310E-002,-7.69513E-004,9.23374E-002,-3.93355E-002,-3.34852E-001,9.26739E-002,1.09673E+000,-1.12046E-003,0.00000E+000,-3.27848E-004,9.63520E-001,0.00000E+000,-2.78264E-003,-6.59273E-002,1.00000E+000,15
1129,1327,1.77553E+001,-3.52076E-002,-6.40533E-002,4.93211E+000,-1.88503E-001,-3.58237E-002,4.93584E+000,9.42438E-003,3.87228E-001,0,7.46149E+001,-3.52653E+000,9.99484E-001,3.55103E+001,-3.41655E+001,9.98648E-001,9.84977E-002,-3.98105E-002,-1.42448E-003,9.85123E-002,-3.98252E-002,-5.90022E-001,9.91124E-002,1.10332E+000,-2.06450E-002,0.00000E+000,1.51566E-002,9.62528E-001,0.00000E+000,7.82784E-004,-5.90624E-002,1.00000E+000,15
729,1337,-1.10216E+001,5.34995E-002,2.60515E-002,2.23574E+000,-5.07544E-001,7.04353E-002,2.29371E+000,6.76776E-003,5.49339E-001,0,3.46386E+001,-8.38333E+000,9.99409E-001,-8.88553E+000,-4.68001E+001,9.99079E-001,9.34504E-002,-3.93183E-002,-5.43963E-004,9.34526E-002,-3.93205E-002,-2.34740E-001,9.38430E-002,1.09796E+000,-1.08365E-003,0.00000E+000,-4.99883E-005,9.63528E-001,0.00000E+000,-8.26157E-004,-6.58684E-002,1.00000E+000,15
729,1327,-1.10323E+001,-5.59671E-001,6.90723E-002,2.23579E+000,-4.82284E-001,1.08870E-001,2.28980E+000,7.72135E-003,5.33693E-001,0,3.45246E+001,-8.04543E+000,9.99290E-001,-9.07050E+000,-4.63377E+001,9.98827E-001,9.40025E-002,-3.93147E-002,-4.35878E-004,9.40039E-002,-3.93161E-002,-1.87325E-001,9.44219E-002,1.09856E+000,-1.07351E-003,0.00000E+000,8.77694E-005,9.63531E-001,0.00000E+000,1.43832E-004,-6.58521E-002,1.00000E+000,15
1129,1337,1.77701E+001,5.94614E-001,-6.20083E-002,4.91950E+000,-2.16311E-001,-7.81027E-002,4.92487E+000,8.97733E-003,4.68635E-001,0,7.45779E+001,-3.88882E+000,9.99404E-001,3.58125E+001,-3.43668E+001,9.99155E-001,9.92339E-002,-3.98023E-002,-1.33309E-003,9.92467E-002,-3.98151E-002,-5.49289E-001,9.98908E-002,1.10413E+000,-2.06117E-002,0.00000E+000,1.53334E-002,9.62535E-001,0.00000E+000,2.71385E-005,-5.90934E-002,1.00000E+000,15
729,1317,-1.10378E+001,-1.16657E+000,1.43090E-001,2.23677E+000,-4.53723E-001,1.55251E-001,2.28759E+000,9.13295E-003,5.52855E-001,0,3.43987E+001,-7.69744E+000,9.99316E-001,-9.09211E+000,-4.58277E+001,9.98408E-001,9.45519E-002,-3.93125E-002,-3.29917E-004,9.45527E-002,-3.93133E-002,-1.41208E-001,9.49987E-002,1.09917E+000,-1.06739E-003,0.00000E+000,2.25156E-004,9.63532E-001,0.00000E+000,1.11121E-003,-6.58423E-002,1.00000E+000,15
1129,1347,1.77802E+001,1.22792E+000,-5.15789E-002,4.90276E+000,-2.37907E-001,-1.09978E-001,4.90976E+000,1.08179E-002,4.75269E-001,0,7.44367E+001,-4.18198E+000,9.99313E-001,3.60562E+001,-3.45741E+001,9.98731E-001,9.99661E-002,-3.97943E-002,-1.24240E-003,9.99771E-002,-3.98053E-002,-5.09276E-001,1.00666E-001,1.10494E+000,-2.05790E-002,0.00000E+000,1.55095E-002,9.62542E-001,0.00000E+000,-7.25484E-004,-5.91238E-002,1.00000E+000,15
719,1347,-1.17115E+001,6.68465E-001,9.72985E-003,2.17284E+000,-5.30794E-001,2.68590E-002,2.23690E+000,8.72955E-003,5.83391E-001,0,3.38108E+001,-8.66504E+000,9.99380E-001,-9.36384E+000,-4.73865E+001,9.99194E-001,9.21357E-002,-3.91276E-002,-5.96018E-004,9.21384E-002,-3.91303E-002,-2.60152E-001,9.24861E-002,1.09652E+000,-3.33001E-004,0.00000E+000,-7.60659E-004,9.63644E-001,0.00000E+000,-1.56822E-003,-6.47920E-002,1.00000E+000,15
719,1357,-1.16925E+001,1.29405E+000,2.98604E-002,2.17006E+000,-5.53995E-001,-8.22558E-003,2.23967E+000,7.19392E-003,5.91198E-001,0,3.38664E+001,-8.95032E+000,9.99298E-001,-8.88027E+000,-4.78052E+001,9.99441E-001,9.13785E-002,-3.91320E-002,-6.74497E-004,9.13820E-002,-3.91354E-002,-2.96103E-001,9.16950E-002,1.09569E+000,-3.60630E-004,0.00000E+000,-8.12645E-004,9.63643E-001,0.00000E+000,-2.77153E-003,-6.48322E-002,1.00000E+000,15
719,1337,-1.17283E+001,5.10260E-002,2.70341E-002,2.17203E+000,-5.05090E-001,6.86558E-002,2.23104E+000,9.49252E-003,5.81112E-001,0,3.36767E+001,-8.34370E+000,9.98891E-001,-9.71337E+000,-4.69245E+001,9.98316E-001,9.28862E-002,-3.91244E-002,-5.21301E-004,9.28883E-002,-3.91264E-002,-2.26253E-001,9.32718E-002,1.09734E+000,-3.12615E-004,0.00000E+000,-7.08994E-004,9.63646E-001,0.00000E+000,-3.72324E-004,-6.47624E-002,1.00000E+000,15
719,1327,-1.17376E+001,-5.61339E-001,7.49948E-002,2.17307E+000,-4.79565E-001,1.10375E-001,2.22809E+000,6.77708E-003,5.76684E-001,0,3.35690E+001,-8.01359E+000,9.98888E-001,-9.86406E+000,-4.64527E+001,9.98432E-001,9.36306E-002,-3.91223E-002,-4.50277E-004,9.36322E-002,-3.91238E-002,-1.94335E-001,9.40525E-002,1.09815E+000,-2.99461E-004,0.00000E+000,-6.57617E-004,9.63646E-001,0.00000E+000,8.16894E-004,-6.47432E-002,1.00000E+000,15
719,1317,-1.17436E+001,-1.16938E+000,1.49700E-001,2.17241E+000,-4.52699E-001,1.51671E-001,2.22425E+000,9.04182E-003,5.64372E-001,0,3.34337E+001,-7.67246E+000,9.98950E-001,-9.89144E+000,-4.59757E+001,9.98018E-001,9.43713E-002,-3.91212E-002,-3.82304E-004,9.43724E-002,-3.91223E-002,-1.64085E-001,9.48306E-002,1.09897E+000,-2.92650E-004,0.00000E+000,-6.06361E-004,9.63647E-001,0.00000E+000,2.00331E-003,-6.47333E-002,1.00000E+000,15
1139,1297,1.84857E+001,-1.87417E+000,1.08414E-001,5.03818E+000,-9.54879E-002,8.72932E-002,5.03984E+000,7.38857E-003,3.75498E-001,0,7.56744E+001,-2.27882E+000,9.99768E-001,3.69708E+001,-3.29681E+001,9.98749E-001,9.64656E-002,-3.99172E-002,-1.74297E-003,9.64879E-002,-3.99395E-002,-7.32081E-001,9.69632E-002,1.10110E+000,-1.97890E-002,0.00000E+000,1.37660E-002,9.62467E-001,0.00000E+000,1.93403E-003,-5.94255E-002,1.00000E+000,15
1139,1307,1.84793E+001,-1.26609E+000,2.02957E-002,5.02456E+000,-1.30517E-001,3.64588E-002,5.02638E+000,8.61328E-003,3.56072E-001,0,7.56736E+001,-2.72659E+000,9.99697E-001,3.67895E+001,-3.33580E+001,9.98717E-001,9.72889E-002,-3.99130E-002,-1.65624E-003,9.73089E-002,-3.99330E-002,-6.91513E-001,9.78286E-002,1.10201E+000,-1.97789E-002,0.00000E+000,1.39497E-002,9.62469E-001,0.00000E+000,1.23974E-003,-5.94333E-002,1.00000E+000,15
1139,1337,1.84967E+001,6.14452E-001,-6.37085E-002,4.98493E+000,-2.02401E-001,-7.77944E-002,4.98964E+000,9.89651E-003,4.75476E-001,0,7.55030E+001,-3.69288E+000,9.99259E-001,3.71208E+001,-3.39573E+001,9.98254E-001,9.97719E-002,-3.98923E-002,-1.37243E-003,9.97853E-002,-3.99058E-002,-5.62954E-001,1.00449E-001,1.10475E+000,-1.97000E-002,0.00000E+000,1.45052E-002,9.62485E-001,0.00000E+000,-8.60644E-004,-5.94938E-002,1.00000E+000,15
1139,1347,1.85173E+001,1.24596E+000,-3.50633E-002,4.97436E+000,-2.28961E-001,-1.07933E-001,4.98079E+000,1.03347E-002,4.87660E-001,0,7.54476E+001,-4.06262E+000,9.99094E-001,3.75556E+001,-3.42276E+001,9.97902E-001,1.00603E-001,-3.98826E-002,-1.26990E-003,1.00615E-001,-3.98941E-002,-5.17859E-001,1.01331E-001,1.10566E+000,-1.96571E-002,0.00000E+000,1.46918E-002,9.62494E-001,0.00000E+000,-1.56607E-003,-5.95267E-002,1.00000E+000,15
1139,1327,1.84851E+001,-1.96091E-002,-6.86516E-002,5.00070E+000,-1.80369E-001,-3.92572E-002,5.00411E+000,1.03178E-002,4.32388E-001,0,7.56034E+001,-3.40487E+000,9.99395E-001,3.68653E+001,-3.37974E+001,9.97645E-001,9.89409E-002,-3.99011E-002,-1.47256E-003,9.89565E-002,-3.99168E-002,-6.07590E-001,9.95705E-002,1.10383E+000,-1.97377E-002,0.00000E+000,1.43190E-002,9.62477E-001,0.00000E+000,-1.56552E-004,-5.94649E-002,1.00000E+000,15
1139,1317,1.84748E+001,-6.47419E-001,-4.19704E-002,5.00936E+000,-1.57248E-001,-2.74580E-003,5.01183E+000,1.02719E-002,3.90914E-001,0,7.55982E+001,-3.09404E+000,9.99654E-001,3.66826E+001,-3.36118E+001,9.98185E-001,9.81131E-002,-3.99080E-002,-1.56715E-003,9.81309E-002,-3.99258E-002,-6.50450E-001,9.86967E-002,1.10291E+000,-1.97639E-002,0.00000E+000,1.41338E-002,9.62472E-001,0.00000E+000,5.43721E-004,-5.94448E-002,1.00000E+000,15
709,1347,-1.24219E+001,6.66698E-001,8.83708E-003,2.10602E+000,-5.26336E-001,2.78214E-002,2.17097E+000,8.25268E-003,5.75123E-001,0,3.27903E+001,-8.58591E+000,9.99260E-001,-1.02476E+001,-4.75186E+001,9.99078E-001,9.14057E-002,-3.85085E-002,-6.67750E-004,9.14092E-002,-3.85119E-002,-2.94486E-001,9.17857E-002,1.09571E+000,4.87204E-004,0.00000E+000,-1.63166E-003,9.64186E-001,0.00000E+000,-1.36840E-003,-6.39162E-002,1.00000E+000,15
709,1357,-1.24016E+001,1.29113E+000,2.58749E-002,2.10536E+000,-5.49133E-001,-7.31809E-003,2.17581E+000,7.30955E-003,5.61367E-001,0,3.28787E+001,-8.86785E+000,9.99399E-001,-9.74976E+000,-4.79605E+001,9.99446E-001,9.05177E-002,-3.85134E-002,-7.61032E-004,9.05222E-002,-3.85179E-002,-3.37918E-001,9.08565E-002,1.09474E+000,4.55954E-004,0.00000E+000,-1.71312E-003,9.64183E-001,0.00000E+000,-2.53133E-003,-6.39536E-002,1.00000E+000,15
709,1337,-1.24321E+001,4.57845E-002,3.44854E-002,2.11025E+000,-5.05435E-001,6.99579E-002,2.17106E+000,7.54910E-003,5.66747E-001,0,3.27351E+001,-8.33895E+000,9.99156E-001,-1.04745E+001,-4.71284E+001,9.98744E-001,9.22868E-002,-3.85051E-002,-5.79392E-004,9.22894E-002,-3.85077E-002,-2.53807E-001,9.27097E-002,1.09668E+000,5.08706E-004,0.00000E+000,-1.55063E-003,9.64188E-001,0.00000E+000,-2.11734E-004,-6.38904E-002,1.00000E+000,15
709,1317,-1.24442E+001,-1.16924E+000,1.68803E-001,2.11197E+000,-4.49664E-001,1.56071E-001,2.16494E+000,9.63858E-003,5.85459E-001,0,3.25041E+001,-7.63440E+000,9.99240E-001,-1.05731E+001,-4.60994E+001,9.98882E-001,9.40311E-002,-3.85020E-002,-4.13880E-004,9.40324E-002,-3.85033E-002,-1.78923E-001,9.45448E-002,1.09860E+000,5.29542E-004,0.00000E+000,-1.38965E-003,9.64190E-001,0.00000E+000,2.08639E-003,-6.38654E-002,1.00000E+000,15
709,1327,-1.24375E+001,-5.63106E-001,9.14418E-002,2.11300E+000,-4.78047E-001,1.09377E-001,2.16916E+000,1.02024E-002,5.94625E-001,0,3.26602E+001,-7.99480E+000,9.99331E-001,-1.05411E+001,-4.66038E+001,9.98829E-001,9.31607E-002,-3.85033E-002,-4.95753E-004,9.31626E-002,-3.85051E-002,-2.15731E-001,9.36282E-002,1.09764E+000,5.20902E-004,0.00000E+000,-1.47008E-003,9.64189E-001,0.00000E+000,9.38272E-004,-6.38758E-002,1.00000E+000,15
1149,1297,1.92099E+001,-1.86312E+000,9.03009E-002,5.10371E+000,-8.91825E-002,8.16392E-002,5.10514E+000,1.60933E-002,4.03032E-001,0,7.66236E+001,-2.17767E+000,9.99415E-001,3.82189E+001,-3.26565E+001,9.96717E-001,9.66545E-002,-4.00041E-002,-1.79746E-003,9.66781E-002,-4.00278E-002,-7.53432E-001,9.71533E-002,1.10132E+000,-1.89326E-002,0.00000E+000,1.29857E-002,9.62428E-001,0.00000E+000,6.01927E-004,-6.00020E-002,1.00000E+000,15
1149,1307,1.92119E+001,-1.24539E+000,2.01650E-002,5.09724E+000,-1.14553E-001,4.37755E-002,5.09872E+000,1.02578E-002,3.90134E-001,0,7.66762E+001,-2.52340E+000,9.99536E-001,3.82000E+001,-3.29290E+001,9.98125E-001,9.75622E-002,-4.00010E-002,-1.73002E-003,9.75839E-002,-4.00227E-002,-7.20410E-001,9.81079E-002,1.10232E+000,-1.89194E-002,0.00000E+000,1.31226E-002,9.62430E-001,0.00000E+000,2.09954E-005,-6.00096E-002,1.00000E+000,15
1149,1317,1.92106E+001,-6.27231E-001,-3.64568E-002,5.08292E+000,-1.43529E-001,1.57287E-003,5.08494E+000,8.92622E-003,4.19451E-001,0,7.66259E+001,-2.91273E+000,9.99558E-001,3.81508E+001,-3.32039E+001,9.98067E-001,9.84731E-002,-3.99971E-002,-1.65925E-003,9.84929E-002,-4.00170E-002,-6.86427E-001,9.90679E-002,1.10333E+000,-1.88994E-002,0.00000E+000,1.32602E-002,9.62433E-001,0.00000E+000,-5.62813E-004,-6.00212E-002,1.00000E+000,15
1149,1327,1.92138E+001,-1.75819E-003,-7.46936E-002,5.06873E+000,-1.66095E-001,-4.00144E-002,5.07161E+000,9.19809E-003,3.93067E-001,0,7.65695E+001,-3.20378E+000,9.99423E-001,3.82035E+001,-3.34337E+001,9.97745E-001,9.93828E-002,-3.99925E-002,-1.58552E-003,9.94008E-002,-4.00105E-002,-6.51681E-001,1.00029E-001,1.10433E+000,-1.88728E-002,0.00000E+000,1.33977E-002,9.62437E-001,0.00000E+000,-1.14669E-003,-6.00367E-002,1.00000E+000,15
1149,1337,1.92261E+001,6.26291E-001,-7.64208E-002,5.05511E+000,-1.95485E-001,-7.85175E-002,5.05950E+000,1.35695E-002,4.79140E-001,0,7.65064E+001,-3.59469E+000,9.99471E-001,3.84567E+001,-3.36488E+001,9.98444E-001,1.00302E-001,-3.99864E-002,-1.50533E-003,1.00318E-001,-4.00026E-002,-6.14705E-001,1.01002E-001,1.10535E+000,-1.88333E-002,0.00000E+000,1.35370E-002,9.62442E-001,0.00000E+000,-1.73762E-003,-6.00597E-002,1.00000E+000,15
1149,1347,1.92529E+001,1.26122E+000,-3.32760E-002,5.04674E+000,-2.21761E-001,-1.09259E-001,5.05279E+000,1.34285E-002,4.81234E-001,0,7.64842E+001,-3.94389E+000,9.99389E-001,3.90101E+001,-3.39010E+001,9.98246E-001,1.01223E-001,-3.99788E-002,-1.41875E-003,1.01237E-001,-3.99931E-002,-5.75613E-001,1.01978E-001,1.10637E+000,-1.87797E-002,0.00000E+000,1.36766E-002,9.62449E-001,0.00000E+000,-2.33037E-003,-6.00908E-002,1.00000E+000,15
699,1347,-1.31196E+001,6.63640E-001,2.08314E-002,2.05003E+000,-5.25629E-001,3.39315E-002,2.11661E+000,8.00875E-003,6.00054E-001,0,3.19225E+001,-8.57490E+000,9.99491E-001,-1.08982E+001,-4.76804E+001,9.99380E-001,9.05923E-002,-3.79001E-002,-6.09135E-004,9.05952E-002,-3.79030E-002,-2.71610E-001,9.09967E-002,1.09482E+000,1.59533E-003,0.00000E+000,-2.49829E-003,9.64707E-001,0.00000E+000,-1.29287E-003,-6.28733E-002,1.00000E+000,15
699,1357,-1.31022E+001,1.28332E+000,3.47001E-002,2.04706E+000,-5.52691E-001,-2.64087E-003,2.12036E+000,7.73051E-003,5.80859E-001,0,3.19797E+001,-8.91737E+000,9.99458E-001,-1.04513E+001,-4.81934E+001,9.99284E-001,8.95927E-002,-3.79014E-002,-6.45656E-004,8.95960E-002,-3.79047E-002,-2.90147E-001,8.99488E-002,1.09373E+000,1.56107E-003,0.00000E+000,-2.47794E-003,9.64708E-001,0.00000E+000,-2.31976E-003,-6.29056E-002,1.00000E+000,15
699,1337,-1.31374E+001,3.95558E-002,3.90506E-002,2.04675E+000,-5.06739E-001,6.96614E-002,2.10970E+000,6.73458E-003,5.56095E-001,0,3.17705E+001,-8.34506E+000,9.99335E-001,-1.12627E+001,-4.73396E+001,9.99170E-001,9.15868E-002,-3.78992E-002,-5.77270E-004,9.15893E-002,-3.79018E-002,-2.55427E-001,9.20417E-002,1.09591E+000,1.61963E-003,0.00000E+000,-2.51857E-003,9.64707E-001,0.00000E+000,-2.69156E-004,-6.28505E-002,1.00000E+000,15
699,1317,-1.31501E+001,-1.16888E+000,1.81890E-001,2.04561E+000,-4.47465E-001,1.52248E-001,2.09950E+000,1.00847E-002,6.23578E-001,0,3.15052E+001,-7.58772E+000,9.99423E-001,-1.13445E+001,-4.61992E+001,9.98869E-001,9.35494E-002,-3.78986E-002,-5.27269E-004,9.35515E-002,-3.79007E-002,-2.29822E-001,9.41111E-002,1.09807E+000,1.63911E-003,0.00000E+000,-2.55874E-003,9.64706E-001,0.00000E+000,1.75739E-003,-6.28322E-002,1.00000E+000,15
699,1327,-1.31449E+001,-5.63338E-001,9.49034E-002,2.04667E+000,-4.76444E-001,1.05054E-001,2.10402E+000,8.59812E-003,6.77985E-001,0,3.16630E+001,-7.95563E+000,9.99310E-001,-1.13648E+001,-4.66719E+001,9.98154E-001,9.25672E-002,-3.78988E-002,-5.51008E-004,9.25696E-002,-3.79011E-002,-2.41976E-001,9.30744E-002,1.09699E+000,1.63222E-003,0.00000E+000,-2.53862E-003,9.64706E-001,0.00000E+000,7.42221E-004,-6.28386E-002,1.00000E+000,15
1159,1307,1.99345E+001,-1.23547E+000,3.06202E-003,5.16073E+000,-1.08731E-001,3.90007E-002,5.16202E+000,1.03906E-002,3.80665E-001,0,7.75909E+001,-2.42723E+000,9.98693E-001,3.94307E+001,-3.26538E+001,9.97700E-001,9.79497E-002,-4.02320E-002,-1.72765E-003,9.79713E-002,-4.02536E-002,-7.16204E-001,9.84888E-002,1.10276E+000,-1.81192E-002,0.00000E+000,1.24912E-002,9.62250E-001,0.00000E+000,-1.17967E-003,-6.05687E-002,1.00000E+000,15
1159,1317,1.99379E+001,-6.11367E-001,-5.23859E-002,5.15103E+000,-1.32594E-001,-2.12469E-003,5.15273E+000,1.02639E-002,4.39136E-001,0,7.76047E+001,-2.74630E+000,9.98958E-001,3.94577E+001,-3.28220E+001,9.98730E-001,9.89173E-002,-4.02318E-002,-1.70866E-003,9.89383E-002,-4.02528E-002,-7.03413E-001,9.95090E-002,1.10383E+000,-1.80977E-002,0.00000E+000,1.25252E-002,9.62250E-001,0.00000E+000,-1.72224E-003,-6.05796E-002,1.00000E+000,15
1159,1327,1.99482E+001,1.28642E-002,-7.44143E-002,5.14139E+000,-1.59117E-001,-3.68583E-002,5.14398E+000,7.34469E-003,4.28278E-001,0,7.75907E+001,-3.10426E+000,9.99509E-001,3.96456E+001,-3.30961E+001,9.98906E-001,9.98858E-002,-4.02316E-002,-1.68479E-003,9.99061E-002,-4.02519E-002,-6.88800E-001,1.00532E-001,1.10490E+000,-1.80653E-002,0.00000E+000,1.25594E-002,9.62251E-001,0.00000E+000,-2.26611E-003,-6.05960E-002,1.00000E+000,15
1159,1297,1.99337E+001,-1.85079E+000,7.15585E-002,5.16923E+000,-8.10072E-002,7.82446E-002,5.17045E+000,1.16124E-002,4.36932E-001,0,7.75620E+001,-2.05890E+000,9.99054E-001,3.94659E+001,-3.23205E+001,9.95625E-001,9.69871E-002,-4.02321E-002,-1.74383E-003,9.70093E-002,-4.02542E-002,-7.27976E-001,9.74759E-002,1.10170E+000,-1.81345E-002,0.00000E+000,1.24573E-002,9.62249E-001,0.00000E+000,-6.40654E-004,-6.05609E-002,1.00000E+000,15
1159,1337,1.99700E+001,6.40930E-001,-6.20157E-002,5.13367E+000,-1.88980E-001,-7.51273E-002,5.13770E+000,1.02620E-002,4.63693E-001,0,7.76138E+001,-3.50643E+000,9.99765E-001,4.00687E+001,-3.33649E+001,9.99442E-001,1.00861E-001,-4.02313E-002,-1.65395E-003,1.00880E-001,-4.02507E-002,-6.71527E-001,1.01564E-001,1.10598E+000,-1.80174E-002,0.00000E+000,1.25938E-002,9.62253E-001,0.00000E+000,-2.81452E-003,-6.06204E-002,1.00000E+000,15
1159,1347,1.99898E+001,1.27588E+000,-3.40114E-002,5.12079E+000,-2.12386E-001,-1.10200E-001,5.12638E+000,1.11385E-002,4.39511E-001,0,7.75420E+001,-3.81183E+000,9.99506E-001,4.04853E+001,-3.35956E+001,9.98852E-001,1.01835E-001,-4.02311E-002,-1.62097E-003,1.01853E-001,-4.02495E-002,-6.53633E-001,1.02597E-001,1.10706E+000,-1.79646E-002,0.00000E+000,1.26282E-002,9.62255E-001,0.00000E+000,-3.36282E-003,-6.06472E-002,1.00000E+000,15
689,1347,-1.38216E+001,6.57549E-001,2.49016E-002,1.98897E+000,-5.28068E-001,2.96175E-002,2.05809E+000,7.89347E-003,6.03361E-001,0,3.10054E+001,-8.58203E+000,9.99601E-001,-1.16307E+001,-4.78831E+001,9.99079E-001,8.97377E-002,-3.75370E-002,-5.97583E-004,8.97405E-002,-3.75398E-002,-2.69009E-001,9.01389E-002,1.09389E+000,2.72963E-003,0.00000E+000,-3.46729E-003,9.65006E-001,0.00000E+000,-1.43701E-003,-6.20720E-002,1.00000E+000,15
689,1357,-1.38061E+001,1.27593E+000,2.83154E-002,1.98635E+000,-5.53942E-001,-5.65005E-003,2.06215E+000,7.87588E-003,5.64012E-001,0,3.10642E+001,-8.90699E+000,9.99481E-001,-1.12411E+001,-4.84053E+001,9.99385E-001,8.85949E-002,-3.75390E-002,-6.51634E-004,8.85983E-002,-3.75423E-002,-2.95992E-001,8.89411E-002,1.09264E+000,2.69482E-003,0.00000E+000,-3.48371E-003,9.65006E-001,0.00000E+000,-2.44208E-003,-6.21001E-002,1.00000E+000,15
689,1337,-1.38362E+001,4.14667E-002,4.26182E-002,1.98969E+000,-4.99758E-001,7.01504E-002,2.05269E+000,8.83052E-003,5.84911E-001,0,3.09001E+001,-8.24281E+000,9.99436E-001,-1.19478E+001,-4.74031E+001,9.99410E-001,9.08801E-002,-3.75353E-002,-5.45966E-004,9.08824E-002,-3.75376E-002,-2.43591E-001,9.13395E-002,1.09513E+000,2.75909E-003,0.00000E+000,-3.45085E-003,9.65007E-001,0.00000E+000,-4.30348E-004,-6.20483E-002,1.00000E+000,15
1169,1327,2.06756E+001,2.53655E-002,-8.46694E-002,5.20712E+000,-1.52249E-001,-4.20966E-002,5.20951E+000,6.84791E-003,4.39578E-001,0,7.85393E+001,-3.00176E+000,9.99704E-001,4.09647E+001,-3.27813E+001,9.99248E-001,1.00267E-001,-4.04438E-002,-1.63022E-003,1.00286E-001,-4.04627E-002,-6.63685E-001,1.00907E-001,1.10534E+000,-1.71568E-002,0.00000E+000,1.19398E-002,9.62072E-001,0.00000E+000,-3.49058E-003,-6.08835E-002,1.00000E+000,15
1169,1337,2.07009E+001,6.58688E-001,-6.02860E-002,5.20084E+000,-1.77178E-001,-7.58114E-002,5.20441E+000,9.29852E-003,4.35356E-001,0,7.85634E+001,-3.33436E+000,9.99775E-001,4.14600E+001,-3.30128E+001,9.99248E-001,1.01253E-001,-4.04467E-002,-1.62311E-003,1.01271E-001,-4.04652E-002,-6.56186E-001,1.01950E-001,1.10643E+000,-1.71050E-002,0.00000E+000,1.19183E-002,9.62071E-001,0.00000E+000,-3.91016E-003,-6.09034E-002,1.00000E+000,15
1169,1347,2.07267E+001,1.29139E+000,-2.59400E-002,5.19186E+000,-2.04489E-001,-1.12030E-001,5.19710E+000,8.67169E-003,4.19274E-001,0,7.85557E+001,-3.69739E+000,9.99485E-001,4.19781E+001,-3.32863E+001,9.99099E-001,1.02239E-001,-4.04497E-002,-1.61380E-003,1.02257E-001,-4.04679E-002,-6.47903E-001,1.02996E-001,1.10753E+000,-1.70480E-002,0.00000E+000,1.18968E-002,9.62070E-001,0.00000E+000,-4.33053E-003,-6.09253E-002,1.00000E+000,15
689,1327,-1.38546E+001,-5.70257E-001,8.28949E-002,1.98099E+000,-4.75408E-001,1.02229E-001,2.03980E+000,9.91292E-003,6.37018E-001,0,3.06715E+001,-7.92345E+000,9.99077E-001,-1.22594E+001,-4.68722E+001,9.98498E-001,9.20085E-002,-3.75344E-002,-4.99731E-004,9.20104E-002,-3.75363E-002,-2.21023E-001,9.25286E-002,1.09637E+000,2.77766E-003,0.00000E+000,-3.43457E-003,9.65007E-001,0.00000E+000,5.66019E-004,-6.20333E-002,1.00000E+000,15
1169,1317,2.06653E+001,-6.02559E-001,-5.46713E-002,5.21650E+000,-1.27031E-001,-1.19081E-003,5.21804E+000,1.20858E-002,3.62071E-001,0,7.85247E+001,-2.67025E+000,9.99347E-001,4.07907E+001,-3.26277E+001,9.99177E-001,9.92849E-002,-4.04418E-002,-1.62873E-003,9.93039E-002,-4.04608E-002,-6.67749E-001,9.98694E-002,1.10425E+000,-1.71892E-002,0.00000E+000,1.19611E-002,9.62073E-001,0.00000E+000,-3.07293E-003,-6.08711E-002,1.00000E+000,15
1169,1307,2.06604E+001,-1.22502E+000,-9.26911E-003,5.22622E+000,-1.04081E-001,3.57504E-002,5.22738E+000,1.05547E-002,4.21121E-001,0,7.85282E+001,-2.35838E+000,9.99322E-001,4.07248E+001,-3.23555E+001,9.98693E-001,9.83117E-002,-4.04402E-002,-1.62375E-003,9.83307E-002,-4.04592E-002,-6.70383E-001,9.88432E-002,1.10318E+000,-1.72133E-002,0.00000E+000,1.19823E-002,9.62073E-001,0.00000E+000,-2.65969E-003,-6.08618E-002,1.00000E+000,15
1169,1297,2.06628E+001,-1.83875E+000,6.87941E-002,5.23702E+000,-7.37199E-002,8.08127E-002,5.23816E+000,9.73826E-003,4.60287E-001,0,7.85081E+001,-1.97429E+000,9.99448E-001,4.08242E+001,-3.20280E+001,9.96990E-001,9.73375E-002,-4.04389E-002,-1.61429E-003,9.73564E-002,-4.04578E-002,-6.71195E-001,9.78181E-002,1.10210E+000,-1.72275E-002,0.00000E+000,1.20034E-002,9.62074E-001,0.00000E+000,-2.24660E-003,-6.08563E-002,1.00000E+000,15
689,1317,-1.38606E+001,-1.17469E+000,1.68647E-001,1.97877E+000,-4.47125E-001,1.47490E-001,2.03401E+000,1.05152E-002,6.05307E-001,0,3.05026E+001,-7.55068E+000,9.99153E-001,-1.22563E+001,-4.63671E+001,9.97991E-001,9.31318E-002,-3.75341E-002,-4.58649E-004,9.31334E-002,-3.75357E-002,-2.01110E-001,9.37154E-002,1.09760E+000,2.78513E-003,0.00000E+000,-3.41834E-003,9.65007E-001,0.00000E+000,1.55995E-003,-6.20273E-002,1.00000E+000,15
679,1347,-1.45312E+001,6.50603E-001,1.32971E-002,1.92175E+000,-5.26584E-001,1.95402E-002,1.99268E+000,1.21191E-002,6.42941E-001,0,3.00066E+001,-8.58463E+000,9.99230E-001,-1.25191E+001,-4.80479E+001,9.98963E-001,8.88655E-002,-3.72273E-002,-6.26370E-004,8.88687E-002,-3.72304E-002,-2.84609E-001,8.92571E-002,1.09293E+000,3.89897E-003,0.00000E+000,-4.55333E-003,9.65257E-001,0.00000E+000,-1.48260E-003,-6.13336E-002,1.00000E+000,15
679,1357,-1.45057E+001,1.27144E+000,2.51032E-002,1.93074E+000,-5.51110E-001,8.63714E-004,2.00786E+000,6.02955E-003,5.92910E-001,0,3.01989E+001,-8.88261E+000,9.99497E-001,-1.19507E+001,-4.85563E+001,9.99373E-001,8.75343E-002,-3.72319E-002,-7.47492E-004,8.75388E-002,-3.72364E-002,-3.43251E-001,8.78633E-002,1.09148E+000,3.86203E-003,0.00000E+000,-4.70219E-003,9.65253E-001,0.00000E+000,-2.44954E-003,-6.13582E-002,1.00000E+000,15
1179,1297,2.13846E+001,-1.83139E+000,4.43057E-002,5.30173E+000,-6.87529E-002,7.97800E-002,5.30277E+000,1.67400E-002,4.84967E-001,0,7.94247E+001,-1.91538E+000,9.99627E-001,4.20391E+001,-3.17620E+001,9.97396E-001,9.76477E-002,-4.05799E-002,-1.54178E-003,9.76649E-002,-4.05971E-002,-6.38968E-001,9.81267E-002,1.10246E+000,-1.64654E-002,0.00000E+000,1.15634E-002,9.61971E-001,0.00000E+000,-3.75362E-003,-6.13186E-002,1.00000E+000,15
1179,1307,2.13892E+001,-1.21734E+000,-2.27849E-002,5.29531E+000,-9.81126E-002,3.58034E-002,5.29634E+000,7.34515E-003,3.49429E-001,0,7.95051E+001,-2.27487E+000,9.99702E-001,4.20654E+001,-3.21535E+001,9.98601E-001,9.85836E-002,-4.05801E-002,-1.53153E-003,9.86004E-002,-4.05970E-002,-6.30452E-001,9.91112E-002,1.10349E+000,-1.64479E-002,0.00000E+000,1.15709E-002,9.61971E-001,0.00000E+000,-4.03330E-003,-6.13233E-002,1.00000E+000,15
1179,1317,2.13915E+001,-5.94501E-001,-9.60294E-002,5.28770E+000,-1.19750E-001,-1.02955E-002,5.28907E+000,1.68791E-002,3.54454E-001,0,7.95732E+001,-2.55569E+000,9.99725E-001,4.20478E+001,-3.23257E+001,9.98839E-001,9.95203E-002,-4.05804E-002,-1.52200E-003,9.95369E-002,-4.05969E-002,-6.22342E-001,1.00099E-001,1.10453E+000,-1.64318E-002,0.00000E+000,1.15783E-002,9.61972E-001,0.00000E+000,-4.31351E-003,-6.13277E-002,1.00000E+000,15
1179,1337,2.14331E+001,6.68842E-001,-7.33997E-002,5.26940E+000,-1.72342E-001,-8.89495E-002,5.27297E+000,8.34655E-003,4.23267E-001,0,7.95848E+001,-3.25486E+000,9.99619E-001,4.28508E+001,-3.27376E+001,9.98555E-001,1.01420E-001,-4.05813E-002,-1.47490E-003,1.01435E-001,-4.05966E-002,-5.95021E-001,1.02106E-001,1.10663E+000,-1.63372E-002,0.00000E+000,1.15934E-002,9.61972E-001,0.00000E+000,-4.88276E-003,-6.13533E-002,1.00000E+000,15
1179,1347,2.14678E+001,1.30687E+000,-2.76285E-002,5.26669E+000,-1.97188E-001,-1.23087E-001,5.27182E+000,8.12953E-003,4.24651E-001,0,7.96605E+001,-3.57550E+000,9.99619E-001,4.35235E+001,-3.29425E+001,9.99076E-001,1.02373E-001,-4.05818E-002,-1.44617E-003,1.02388E-001,-4.05965E-002,-5.79539E-001,1.03116E-001,1.10769E+000,-1.62782E-002,0.00000E+000,1.16010E-002,9.61973E-001,0.00000E+000,-5.16897E-003,-6.13693E-002,1.00000E+000,15
679,1327,-1.45579E+001,-5.75141E-001,8.87907E-002,1.91912E+000,-4.74540E-001,1.06148E-001,1.97977E+000,1.11456E-002,6.09883E-001,0,2.97180E+001,-7.90724E+000,9.98955E-001,-1.30044E+001,-4.70720E+001,9.98213E-001,9.14990E-002,-3.72211E-002,-3.95092E-004,9.15002E-002,-3.72223E-002,-1.75861E-001,9.20286E-002,1.09581E+000,3.95275E-003,0.00000E+000,-4.25795E-003,9.65262E-001,0.00000E+000,4.36181E-004,-6.12978E-002,1.00000E+000,15
679,1337,-1.45449E+001,3.63194E-002,3.62072E-002,1.92343E+000,-4.99145E-001,6.66240E-002,1.98825E+000,1.12984E-002,6.05375E-001,0,2.98991E+001,-8.22311E+000,9.99290E-001,-1.28083E+001,-4.75593E+001,9.99189E-001,9.01873E-002,-3.72231E-002,-5.07037E-004,9.01893E-002,-3.72252E-002,-2.28007E-001,9.06459E-002,1.09437E+000,3.93329E-003,0.00000E+000,-4.40523E-003,9.65260E-001,0.00000E+000,-5.20581E-004,-6.13108E-002,1.00000E+000,15
1179,1327,2.14079E+001,3.30528E-002,-9.53313E-002,5.27818E+000,-1.47261E-001,-4.42709E-002,5.28042E+000,1.22445E-002,4.02232E-001,0,7.95557E+001,-2.94926E+000,9.99611E-001,4.23627E+001,-3.25642E+001,9.97880E-001,1.00467E-001,-4.05808E-002,-1.50131E-003,1.00483E-001,-4.05968E-002,-6.09763E-001,1.01099E-001,1.10558E+000,-1.63909E-002,0.00000E+000,1.15858E-002,9.61972E-001,0.00000E+000,-4.59717E-003,-6.13387E-002,1.00000E+000,15
679,1317,-1.45649E+001,-1.17942E+000,1.72370E-001,1.91600E+000,-4.46390E-001,1.49898E-001,1.97301E+000,9.47314E-003,6.28294E-001,0,2.95402E+001,-7.55595E+000,9.99317E-001,-1.30219E+001,-4.65331E+001,9.97946E-001,9.28038E-002,-3.72207E-002,-2.88354E-004,9.28045E-002,-3.72213E-002,-1.27064E-001,9.34080E-002,1.09724E+000,3.96155E-003,0.00000E+000,-4.11114E-003,9.65263E-001,0.00000E+000,1.38980E-003,-6.12919E-002,1.00000E+000,15
669,1327,-1.52578E+001,-5.84530E-001,9.08000E-002,1.86107E+000,-4.77120E-001,1.10148E-001,1.92441E+000,9.03289E-003,5.83248E-001,0,2.88236E+001,-7.95369E+000,9.99627E-001,-1.37031E+001,-4.73322E+001,9.98912E-001,9.08882E-002,-3.69412E-002,-2.30006E-004,9.08886E-002,-3.69417E-002,-1.03093E-001,9.14173E-002,1.09513E+000,5.57642E-003,0.00000E+000,-5.35818E-003,9.65469E-001,0.00000E+000,2.63437E-004,-6.03172E-002,1.00000E+000,15
669,1337,-1.52469E+001,3.24101E-002,3.96677E-002,1.86287E+000,-4.98209E-001,6.97549E-002,1.92960E+000,6.73146E-003,6.11240E-001,0,2.89664E+001,-8.19980E+000,9.99502E-001,-1.35343E+001,-4.77244E+001,9.99423E-001,8.93680E-002,-3.69440E-002,-3.92229E-004,8.93692E-002,-3.69452E-002,-1.77915E-001,8.98150E-002,1.09347E+000,5.55302E-003,0.00000E+000,-5.60399E-003,9.65466E-001,0.00000E+000,-6.76074E-004,-6.03305E-002,1.00000E+000,15
669,1347,-1.52313E+001,6.45451E-001,1.25671E-002,1.86654E+000,-5.24107E-001,3.68851E-002,1.93908E+000,6.07534E-003,5.93300E-001,0,2.91173E+001,-8.53994E+000,9.99482E-001,-1.32263E+001,-4.82521E+001,9.99249E-001,8.78448E-002,-3.69480E-002,-5.57875E-004,8.78473E-002,-3.69505E-002,-2.56129E-001,8.82155E-002,1.09181E+000,5.52220E-003,0.00000E+000,-5.84977E-003,9.65461E-001,0.00000E+000,-1.61548E-003,-6.03479E-002,1.00000E+000,15
669,1357,-1.52070E+001,1.27100E+000,2.74876E-002,1.87147E+000,-5.43963E-001,4.08145E-003,1.94892E+000,6.42063E-003,5.86058E-001,0,2.92830E+001,-8.78934E+000,9.99360E-001,-1.26651E+001,-4.86756E+001,9.99320E-001,8.63087E-002,-3.69556E-002,-7.33326E-004,8.63131E-002,-3.69600E-002,-3.40849E-001,8.66091E-002,1.09013E+000,5.47218E-003,0.00000E+000,-6.09708E-003,9.65454E-001,0.00000E+000,-2.56074E-003,-6.03761E-002,1.00000E+000,15
1189,1337,2.21702E+001,6.80771E-001,-7.97414E-002,5.34189E+000,-1.67981E-001,-9.70004E-002,5.34541E+000,1.08599E-002,4.23006E-001,0,8.06433E+001,-3.16999E+000,9.99665E-001,4.43327E+001,-3.24435E+001,9.98830E-001,1.01335E-001,-4.07445E-002,-1.31396E-003,1.01347E-001,-4.07566E-002,-5.29814E-001,1.01992E-001,1.10655E+000,-1.56206E-002,0.00000E+000,1.13152E-002,9.61817E-001,0.00000E+000,-5.44650E-003,-6.13258E-002,1.00000E+000,15
669,1317,-1.52633E+001,-1.18555E+000,1.81542E-001,1.85822E+000,-4.46183E-001,1.54239E-001,1.91725E+000,1.17005E-002,5.89462E-001,0,2.86490E+001,-7.56470E+000,9.99617E-001,-1.36761E+001,-4.67625E+001,9.98576E-001,9.23956E-002,-3.69416E-002,-7.62419E-005,9.23957E-002,-3.69416E-002,-3.37748E-002,9.30118E-002,1.09678E+000,5.58335E-003,0.00000E+000,-5.11389E-003,9.65471E-001,0.00000E+000,1.19715E-003,-6.03133E-002,1.00000E+000,15
1189,1297,2.21238E+001,-1.81977E+000,5.99220E-002,5.37322E+000,-6.32978E-002,7.88331E-002,5.37417E+000,1.21638E-002,4.38112E-001,0,8.04335E+001,-1.84336E+000,9.99538E-001,4.35930E+001,-3.15493E+001,9.97020E-001,9.79590E-002,-4.07363E-002,-1.28873E-003,9.79710E-002,-4.07482E-002,-5.32318E-001,9.84316E-002,1.10282E+000,-1.57308E-002,0.00000E+000,1.14950E-002,9.61822E-001,0.00000E+000,-5.26273E-003,-6.13204E-002,1.00000E+000,15
1189,1307,2.21176E+001,-1.20703E+000,-3.11021E-002,5.36041E+000,-9.46297E-002,2.89250E-002,5.36132E+000,8.97091E-003,4.40852E-001,0,8.04466E+001,-2.24281E+000,9.99223E-001,4.34122E+001,-3.18406E+001,9.98391E-001,9.87977E-002,-4.07374E-002,-1.30300E-003,9.88099E-002,-4.07495E-002,-5.34974E-001,9.93141E-002,1.10374E+000,-1.57214E-002,0.00000E+000,1.14504E-002,9.61822E-001,0.00000E+000,-5.30832E-003,-6.13208E-002,1.00000E+000,15
1189,1317,2.21352E+001,-5.72159E-001,-6.54353E-002,5.35851E+000,-1.12497E-001,-1.47724E-002,5.35971E+000,9.39375E-003,4.63358E-001,0,8.05834E+001,-2.43794E+000,9.99666E-001,4.36933E+001,-3.18984E+001,9.99390E-001,9.96439E-002,-4.07394E-002,-1.30924E-003,9.96561E-002,-4.07517E-002,-5.34290E-001,1.00206E-001,1.10468E+000,-1.56936E-002,0.00000E+000,1.14054E-002,9.61820E-001,0.00000E+000,-5.35436E-003,-6.13222E-002,1.00000E+000,15
1189,1327,2.21503E+001,4.95937E-002,-8.58134E-002,5.34997E+000,-1.43662E-001,-6.06042E-002,5.35224E+000,1.18247E-002,4.27173E-001,0,8.06317E+001,-2.83752E+000,9.99720E-001,4.39548E+001,-3.22218E+001,9.99240E-001,1.00489E-001,-4.07418E-002,-1.31294E-003,1.00501E-001,-4.07540E-002,-5.32584E-001,1.01097E-001,1.10561E+000,-1.56602E-002,0.00000E+000,1.13603E-002,9.61819E-001,0.00000E+000,-5.40036E-003,-6.13238E-002,1.00000E+000,15
659,1327,-1.59572E+001,-5.77605E-001,9.78003E-002,1.80178E+000,-4.65657E-001,1.12413E-001,1.86437E+000,1.40600E-002,5.76499E-001,0,2.79095E+001,-7.76619E+000,9.99508E-001,-1.43735E+001,-4.73424E+001,9.97759E-001,9.00854E-002,-3.67400E-002,-2.14349E-004,9.00858E-002,-3.67404E-002,-9.68359E-002,9.05945E-002,1.09424E+000,7.21779E-003,0.00000E+000,-6.76029E-003,9.65613E-001,0.00000E+000,-1.46977E-005,-5.95919E-002,1.00000E+000,15
659,1337,-1.59333E+001,2.44982E-002,5.18955E-002,1.81672E+000,-5.01518E-001,7.70410E-002,1.88625E+000,1.77749E-002,6.60882E-001,0,2.82461E+001,-8.28347E+000,9.99261E-001,-1.39936E+001,-4.79459E+001,9.99033E-001,8.84870E-002,-3.67425E-002,-3.91225E-004,8.84883E-002,-3.67437E-002,-1.78993E-001,8.89111E-002,1.09250E+000,7.19337E-003,0.00000E+000,-7.03996E-003,9.65609E-001,0.00000E+000,-9.00561E-004,-5.96043E-002,1.00000E+000,15
659,1347,-1.59209E+001,6.43741E-001,2.59453E-002,1.81719E+000,-5.20916E-001,4.43748E-002,1.89090E+000,8.43954E-003,6.12984E-001,0,2.83442E+001,-8.51021E+000,9.99690E-001,-1.37282E+001,-4.83983E+001,9.99625E-001,8.68861E-002,-3.67465E-002,-5.71740E-004,8.68888E-002,-3.67491E-002,-2.64957E-001,8.72321E-002,1.09075E+000,7.16090E-003,0.00000E+000,-7.31947E-003,9.65604E-001,0.00000E+000,-1.78590E-003,-5.96208E-002,1.00000E+000,15
659,1357,-1.59026E+001,1.27065E+000,3.45995E-002,1.81684E+000,-5.38604E-001,8.50466E-003,1.89501E+000,6.00241E-003,6.02643E-001,0,2.84353E+001,-8.71842E+000,9.99511E-001,-1.32745E+001,-4.87916E+001,9.99605E-001,8.52726E-002,-3.67539E-002,-7.61534E-004,8.52773E-002,-3.67587E-002,-3.57549E-001,8.55472E-002,1.08900E+000,7.11040E-003,0.00000E+000,-7.60057E-003,9.65596E-001,0.00000E+000,-2.67630E-003,-5.96464E-002,1.00000E+000,15
1199,1307,2.28519E+001,-1.19307E+000,-3.35317E-002,5.42790E+000,-8.87318E-002,1.60171E-002,5.42865E+000,1.15339E-002,4.27733E-001,0,8.14435E+001,-2.11698E+000,9.99392E-001,4.48656E+001,-3.15353E+001,9.98155E-001,9.89323E-002,-4.07312E-002,-1.00342E-003,9.89395E-002,-4.07384E-002,-4.11618E-001,9.94518E-002,1.10391E+000,-1.48336E-002,0.00000E+000,1.13035E-002,9.61822E-001,0.00000E+000,-6.14341E-003,-6.11918E-002,1.00000E+000,15
1199,1317,2.28634E+001,-5.68486E-001,-7.42701E-002,5.42216E+000,-1.13991E-001,-2.47777E-002,5.42341E+000,9.79809E-003,4.31783E-001,0,8.15169E+001,-2.45010E+000,9.99119E-001,4.50393E+001,-3.17473E+001,9.97786E-001,9.97121E-002,-4.07339E-002,-1.02335E-003,9.97195E-002,-4.07413E-002,-4.17454E-001,1.00274E-001,1.10477E+000,-1.48109E-002,0.00000E+000,1.12254E-002,9.61820E-001,0.00000E+000,-5.97492E-003,-6.11874E-002,1.00000E+000,15
1199,1327,2.28796E+001,5.95551E-002,-1.03945E-001,5.41843E+000,-1.36876E-001,-6.52795E-002,5.42055E+000,1.02894E-002,4.18169E-001,0,8.16160E+001,-2.74802E+000,9.99392E-001,4.53044E+001,-3.19395E+001,9.98406E-001,1.00492E-001,-4.07369E-002,-1.04171E-003,1.00500E-001,-4.07446E-002,-4.22587E-001,1.01097E-001,1.10563E+000,-1.47847E-002,0.00000E+000,1.11473E-002,9.61817E-001,0.00000E+000,-5.80626E-003,-6.11823E-002,1.00000E+000,15
659,1317,-1.59707E+001,-1.18801E+000,1.63614E-001,1.79337E+000,-4.43168E-001,1.45578E-001,1.85305E+000,1.19816E-002,6.07910E-001,0,2.76830E+001,-7.48450E+000,9.98910E-001,-1.45400E+001,-4.68506E+001,9.95373E-001,9.16711E-002,-3.67396E-002,-4.33112E-005,9.16711E-002,-3.67396E-002,-1.93251E-002,9.22708E-002,1.09598E+000,7.23159E-003,0.00000E+000,-6.48224E-003,9.65615E-001,0.00000E+000,8.66006E-004,-5.95849E-002,1.00000E+000,15
1199,1337,2.29102E+001,6.94590E-001,-7.61007E-002,5.41415E+000,-1.62619E-001,-1.05352E-001,5.41762E+000,9.09372E-003,4.31974E-001,0,8.16957E+001,-3.08340E+000,9.99617E-001,4.58791E+001,-3.21376E+001,9.98305E-001,1.01280E-001,-4.07415E-002,-1.05177E-003,1.01288E-001,-4.07493E-002,-4.24285E-001,1.01930E-001,1.10650E+000,-1.47392E-002,0.00000E+000,1.10683E-002,9.61813E-001,0.00000E+000,-5.63572E-003,-6.11734E-002,1.00000E+000,15
1199,1297,2.28555E+001,-1.80432E+000,4.84019E-002,5.43873E+000,-5.52625E-002,5.94715E-002,5.43934E+000,8.82657E-003,4.43880E-001,0,8.14249E+001,-1.68020E+000,9.99218E-001,4.49898E+001,-3.11940E+001,9.97899E-001,9.81557E-002,-4.07295E-002,-9.77831E-004,9.81626E-002,-4.07364E-002,-4.03368E-001,9.86344E-002,1.10305E+000,-1.48433E-002,0.00000E+000,1.13812E-002,9.61822E-001,0.00000E+000,-6.31103E-003,-6.11937E-002,1.00000E+000,15
649,1347,-1.66254E+001,6.46810E-001,2.40991E-002,1.75273E+000,-5.13143E-001,3.82419E-002,1.82671E+000,9.20952E-003,6.41115E-001,0,2.73715E+001,-8.37361E+000,9.99461E-001,-1.44959E+001,-4.84360E+001,9.98834E-001,8.58449E-002,-3.64635E-002,-5.37672E-004,8.58472E-002,-3.64659E-002,-2.51868E-001,8.61705E-002,1.08960E+000,8.93968E-003,0.00000E+000,-8.82900E-003,9.65820E-001,0.00000E+000,-1.89375E-003,-5.88416E-002,1.00000E+000,15
649,1357,-1.66032E+001,1.26966E+000,3.74467E-002,1.75688E+000,-5.33842E-001,9.59149E-003,1.83623E+000,6.75946E-003,5.99766E-001,0,2.75132E+001,-8.63725E+000,9.99520E-001,-1.39690E+001,-4.89189E+001,9.99242E-001,8.40872E-002,-3.64700E-002,-7.24784E-004,8.40915E-002,-3.64744E-002,-3.44443E-001,8.43372E-002,1.08769E+000,8.88653E-003,0.00000E+000,-9.11234E-003,9.65812E-001,0.00000E+000,-2.68868E-003,-5.88637E-002,1.00000E+000,15
649,1337,-1.66446E+001,3.00187E-002,5.29906E-002,1.74523E+000,-4.89773E-001,7.28074E-002,1.81411E+000,1.00166E-002,6.12499E-001,0,2.71580E+001,-8.07876E+000,9.99574E-001,-1.48564E+001,-4.79896E+001,9.98952E-001,8.75956E-002,-3.64603E-002,-3.59423E-004,8.75966E-002,-3.64613E-002,-1.65999E-001,8.80054E-002,1.09151E+000,8.97429E-003,0.00000E+000,-8.54615E-003,9.65825E-001,0.00000E+000,-1.10021E-003,-5.88272E-002,1.00000E+000,15
649,1327,-1.66619E+001,-5.73650E-001,9.38790E-002,1.73640E+000,-4.57886E-001,1.01054E-001,1.79860E+000,8.26250E-003,5.97556E-001,0,2.69380E+001,-7.61451E+000,9.99718E-001,-1.51504E+001,-4.73620E+001,9.99403E-001,8.93331E-002,-3.64587E-002,-1.86451E-004,8.93334E-002,-3.64590E-002,-8.49245E-002,8.98347E-002,1.09341E+000,8.99939E-003,0.00000E+000,-8.26484E-003,9.65829E-001,0.00000E+000,-3.10949E-004,-5.88168E-002,1.00000E+000,15
1209,1307,2.35877E+001,-1.17767E+000,-3.59905E-002,5.49707E+000,-8.01369E-002,5.69077E-003,5.49765E+000,8.98278E-003,4.51861E-001,0,8.24531E+001,-1.98787E+000,9.99413E-001,4.63459E+001,-3.11892E+001,9.98320E-001,9.88238E-002,-4.05007E-002,-6.65614E-004,9.88270E-002,-4.05039E-002,-2.73719E-001,9.93610E-002,1.10380E+000,-1.38532E-002,0.00000E+000,1.11224E-002,9.62022E-001,0.00000E+000,-6.44052E-003,-6.07945E-002,1.00000E+000,15
1209,1317,2.35969E+001,-5.58108E-001,-8.21967E-002,5.49071E+000,-1.09611E-001,-3.35411E-002,5.49191E+000,1.00564E-002,4.46278E-001,0,8.25150E+001,-2.38508E+000,9.99465E-001,4.64742E+001,-3.14706E+001,9.97698E-001,9.96341E-002,-4.05027E-002,-6.79211E-004,9.96374E-002,-4.05060E-002,-2.77691E-001,1.00216E-001,1.10470E+000,-1.38320E-002,0.00000E+000,1.10489E-002,9.62020E-001,0.00000E+000,-6.11309E-003,-6.07867E-002,1.00000E+000,15
1209,1327,2.36207E+001,7.37208E-002,-9.51324E-002,5.48979E+000,-1.30985E-001,-7.49596E-002,5.49186E+000,9.56506E-003,4.07552E-001,0,8.26567E+001,-2.65411E+000,9.99545E-001,4.68811E+001,-3.16508E+001,9.98522E-001,1.00447E-001,-4.05055E-002,-6.87313E-004,1.00450E-001,-4.05088E-002,-2.79378E-001,1.01075E-001,1.10559E+000,-1.37983E-002,0.00000E+000,1.09750E-002,9.62017E-001,0.00000E+000,-5.78437E-003,-6.07743E-002,1.00000E+000,15
1209,1337,2.36526E+001,7.08241E-001,-6.60066E-002,5.48636E+000,-1.58727E-001,-1.14768E-001,5.48986E+000,1.00332E-002,4.39762E-001,0,8.27493E+001,-3.01381E+000,9.99528E-001,4.74766E+001,-3.18490E+001,9.97689E-001,1.01267E-001,-4.05091E-002,-6.89233E-004,1.01271E-001,-4.05125E-002,-2.78529E-001,1.01943E-001,1.10650E+000,-1.37503E-002,0.00000E+000,1.09003E-002,9.62013E-001,0.00000E+000,-5.45201E-003,-6.07567E-002,1.00000E+000,15
1209,1297,2.35890E+001,-1.79142E+000,3.92755E-002,5.50748E+000,-4.74427E-002,4.93532E-002,5.50791E+000,8.68015E-003,4.17429E-001,0,8.24281E+001,-1.54612E+000,9.99334E-001,4.64244E+001,-3.08995E+001,9.97755E-001,9.80145E-002,-4.04992E-002,-6.48191E-004,9.80175E-002,-4.05023E-002,-2.68114E-001,9.85084E-002,1.10291E+000,-1.38658E-002,0.00000E+000,1.11958E-002,9.62023E-001,0.00000E+000,-6.76721E-003,-6.07991E-002,1.00000E+000,15
649,1317,-1.66699E+001,-1.18276E+000,1.74246E-001,1.73216E+000,-4.35334E-001,1.41306E-001,1.79161E+000,7.09520E-003,6.02702E-001,0,2.67570E+001,-7.33547E+000,9.99535E-001,-1.51907E+001,-4.68917E+001,9.99128E-001,9.10609E-002,-3.64595E-002,-2.04908E-005,9.10609E-002,-3.64595E-002,-9.20663E-003,9.16613E-002,1.09530E+000,9.01038E-003,0.00000E+000,-7.98448E-003,9.65830E-001,0.00000E+000,4.75612E-004,-5.88122E-002,1.00000E+000,15
639,1347,-1.73266E+001,6.50427E-001,1.83368E-002,1.69229E+000,-5.03293E-001,3.42425E-002,1.76588E+000,9.82717E-003,6.00587E-001,0,2.64539E+001,-8.18512E+000,9.99163E-001,-1.52188E+001,-4.84908E+001,9.98664E-001,8.48654E-002,-3.60988E-002,-5.13693E-004,8.48676E-002,-3.61010E-002,-2.43309E-001,8.51820E-002,1.08852E+000,1.08818E-002,0.00000E+000,-1.05074E-002,9.66108E-001,0.00000E+000,-2.00032E-003,-5.80110E-002,1.00000E+000,15
639,1357,-1.73021E+001,1.27484E+000,3.43040E-002,1.69881E+000,-5.23044E-001,7.15220E-003,1.77752E+000,6.32237E-003,5.93069E-001,0,2.66275E+001,-8.44430E+000,9.99437E-001,-1.46460E+001,-4.89398E+001,9.99360E-001,8.30034E-002,-3.61046E-002,-6.95196E-004,8.30075E-002,-3.61086E-002,-3.34402E-001,8.32409E-002,1.08650E+000,1.08255E-002,0.00000E+000,-1.07831E-002,9.66101E-001,0.00000E+000,-2.77349E-003,-5.80325E-002,1.00000E+000,15
639,1317,-1.73664E+001,-1.18352E+000,1.94430E-001,1.67343E+000,-4.34720E-001,1.48291E-001,1.73533E+000,9.50517E-003,6.77844E-001,0,2.58395E+001,-7.34298E+000,9.99502E-001,-1.57719E+001,-4.70051E+001,9.98623E-001,9.03748E-002,-3.60982E-002,-2.10849E-005,9.03748E-002,-3.60982E-002,-9.55205E-003,9.09822E-002,1.09453E+000,1.09475E-002,0.00000E+000,-9.68812E-003,9.66117E-001,0.00000E+000,2.97793E-004,-5.79858E-002,1.00000E+000,15
639,1327,-1.73577E+001,-5.80740E-001,1.11081E-001,1.67990E+000,-4.60222E-001,1.12813E-001,1.74545E+000,7.03082E-003,6.06079E-001,0,2.60425E+001,-7.67768E+000,9.99635E-001,-1.57296E+001,-4.76017E+001,9.98910E-001,8.85545E-002,-3.60960E-002,-1.77508E-004,8.85547E-002,-3.60963E-002,-8.15915E-002,8.90572E-002,1.09254E+000,1.09404E-002,0.00000E+000,-9.95944E-003,9.66116E-001,0.00000E+000,-4.63233E-004,-5.79886E-002,1.00000E+000,15
639,1337,-1.73461E+001,3.44077E-002,4.70892E-002,1.68495E+000,-4.80857E-001,7.18883E-002,1.75369E+000,7.69656E-003,6.52116E-001,0,2.62355E+001,-7.92222E+000,9.99548E-001,-1.55844E+001,-4.79906E+001,9.98993E-001,8.67130E-002,-3.60961E-002,-3.41593E-004,8.67139E-002,-3.60970E-002,-1.59366E-001,8.71182E-002,1.09053E+000,1.09196E-002,0.00000E+000,-1.02333E-002,9.66113E-001,0.00000E+000,-1.23139E-003,-5.79965E-002,1.00000E+000,15
1219,1317,2.43383E+001,-5.42754E-001,-7.38857E-002,5.56300E+000,-1.04575E-001,-3.98087E-002,5.56412E+000,1.20621E-002,5.12545E-001,0,8.35544E+001,-2.30589E+000,9.99472E-001,4.80599E+001,-3.11254E+001,9.97700E-001,9.94246E-002,-4.04733E-002,-2.92789E-004,9.94252E-002,-4.04739E-002,-1.19912E-001,9.99959E-002,1.10448E+000,-1.27481E-002,0.00000E+000,1.08377E-002,9.62009E-001,0.00000E+000,-5.86470E-003,-6.00860E-002,1.00000E+000,15
1219,1327,2.43589E+001,8.74630E-002,-9.28634E-002,5.56083E+000,-1.25515E-001,-7.92925E-002,5.56281E+000,6.62137E-003,4.27575E-001,0,8.36718E+001,-2.56743E+000,9.99725E-001,4.84070E+001,-3.13395E+001,9.98844E-001,1.00202E-001,-4.04752E-002,-2.95654E-004,1.00202E-001,-4.04758E-002,-1.20415E-001,1.00817E-001,1.10533E+000,-1.27184E-002,0.00000E+000,1.07695E-002,9.62007E-001,0.00000E+000,-5.37739E-003,-6.00691E-002,1.00000E+000,15
1219,1337,2.43928E+001,7.24500E-001,-6.01562E-002,5.55851E+000,-1.51311E-001,-1.18064E-001,5.56182E+000,8.92211E-003,4.55929E-001,0,8.37760E+001,-2.89898E+000,9.99494E-001,4.90366E+001,-3.15069E+001,9.98418E-001,1.00989E-001,-4.04780E-002,-2.90894E-004,1.00989E-001,-4.04786E-002,-1.17815E-001,1.01649E-001,1.10620E+000,-1.26711E-002,0.00000E+000,1.07004E-002,9.62003E-001,0.00000E+000,-4.88311E-003,-6.00422E-002,1.00000E+000,15
1219,1297,2.43269E+001,-1.77844E+000,3.73335E-002,5.57897E+000,-4.15511E-002,4.22792E-002,5.57928E+000,9.66267E-003,3.92681E-001,0,8.34584E+001,-1.42779E+000,9.99354E-001,4.79414E+001,-3.06178E+001,9.97574E-001,9.78682E-002,-4.04706E-002,-2.76498E-004,9.78688E-002,-4.04712E-002,-1.14517E-001,9.83555E-002,1.10276E+000,-1.27840E-002,0.00000E+000,1.09739E-002,9.62012E-001,0.00000E+000,-6.83908E-003,-6.01065E-002,1.00000E+000,15
1219,1307,2.43314E+001,-1.16173E+000,-2.18717E-002,5.57170E+000,-7.29770E-002,5.12744E-003,5.57218E+000,1.17548E-002,4.50302E-001,0,8.35028E+001,-1.87471E+000,9.99408E-001,4.79759E+001,-3.08824E+001,9.97305E-001,9.86458E-002,-4.04718E-002,-2.85763E-004,9.86464E-002,-4.04724E-002,-1.17691E-001,9.91744E-002,1.10362E+000,-1.27686E-002,0.00000E+000,1.09059E-002,9.62011E-001,0.00000E+000,-6.35254E-003,-6.00977E-002,1.00000E+000,15
629,1347,-1.80242E+001,6.47891E-001,1.56086E-002,1.63556E+000,-4.99463E-001,3.59438E-002,1.71050E+000,8.78276E-003,5.90642E-001,0,2.55790E+001,-8.11601E+000,9.99044E-001,-1.58745E+001,-4.86311E+001,9.98651E-001,8.40318E-002,-3.63570E-002,-5.12243E-004,8.40340E-002,-3.63592E-002,-2.43782E-001,8.42876E-002,1.08759E+000,1.29131E-002,0.00000E+000,-1.23143E-002,9.65785E-001,0.00000E+000,-1.92488E-003,-5.70598E-002,1.00000E+000,15
629,1357,-1.79968E+001,1.27232E+000,3.40210E-002,1.64477E+000,-5.19284E-001,9.46720E-003,1.72482E+000,7.41773E-003,5.90514E-001,0,2.57925E+001,-8.38116E+000,9.99141E-001,-1.52497E+001,-4.90828E+001,9.98957E-001,8.22613E-002,-3.63582E-002,-5.63369E-004,8.22640E-002,-3.63608E-002,-2.72111E-001,8.24483E-002,1.08567E+000,1.28594E-002,0.00000E+000,-1.23449E-002,9.65784E-001,0.00000E+000,-2.66669E-003,-5.70805E-002,1.00000E+000,15
629,1327,-1.80563E+001,-5.78694E-001,1.07559E-001,1.62162E+000,-4.52401E-001,1.11603E-001,1.68724E+000,6.93386E-003,5.99184E-001,0,2.51518E+001,-7.54354E+000,9.99408E-001,-1.64023E+001,-4.76649E+001,9.98910E-001,8.75400E-002,-3.63567E-002,-4.34966E-004,8.75416E-002,-3.63582E-002,-2.01146E-001,8.79590E-002,1.09141E+000,1.29668E-002,0.00000E+000,-1.22535E-002,9.65786E-001,0.00000E+000,-4.50174E-004,-5.70390E-002,1.00000E+000,15
629,1337,-1.80412E+001,3.29914E-002,4.81565E-002,1.63011E+000,-4.76196E-001,7.48030E-002,1.69988E+000,7.66467E-003,6.31642E-001,0,2.53872E+001,-7.84268E+000,9.99350E-001,-1.61922E+001,-4.81249E+001,9.98988E-001,8.57888E-002,-3.63566E-002,-4.70265E-004,8.57906E-002,-3.63584E-002,-2.20587E-001,8.61221E-002,1.08950E+000,1.29472E-002,0.00000E+000,-1.22839E-002,9.65785E-001,0.00000E+000,-1.18711E-003,-5.70466E-002,1.00000E+000,15
1229,1317,2.50787E+001,-5.24555E-001,-7.44421E-002,5.63682E+000,-9.27572E-002,-4.32582E-002,5.63775E+000,1.10554E-002,4.80719E-001,0,8.46031E+001,-2.11575E+000,9.99459E-001,4.96205E+001,-3.07660E+001,9.98795E-001,9.92867E-002,-4.02604E-002,1.28727E-004,9.92869E-002,-4.02605E-002,5.28531E-002,9.98763E-002,1.10433E+000,-1.16595E-002,0.00000E+000,1.06786E-002,9.62167E-001,0.00000E+000,-5.40947E-003,-5.92336E-002,1.00000E+000,15
1229,1327,2.50957E+001,9.98634E-002,-9.38059E-002,5.63049E+000,-1.22783E-001,-8.44480E-002,5.63246E+000,8.30902E-003,5.02672E-001,0,8.46695E+001,-2.52159E+000,9.99528E-001,4.99087E+001,-3.10149E+001,9.98435E-001,1.00017E-001,-4.02606E-002,1.43255E-004,1.00017E-001,-4.02607E-002,5.85118E-002,1.00648E-001,1.10514E+000,-1.16309E-002,0.00000E+000,1.06362E-002,9.62165E-001,0.00000E+000,-4.73960E-003,-5.92098E-002,1.00000E+000,15
1229,1337,2.51291E+001,7.37611E-001,-7.17274E-002,5.63054E+000,-1.42860E-001,-1.22711E-001,5.63369E+000,8.58110E-003,4.36970E-001,0,8.48073E+001,-2.77653E+000,9.99397E-001,5.05144E+001,-3.11931E+001,9.98139E-001,1.00748E-001,-4.02609E-002,1.63276E-004,1.00748E-001,-4.02611E-002,6.63438E-002,1.01422E-001,1.10594E+000,-1.15901E-002,0.00000E+000,1.05938E-002,9.62163E-001,0.00000E+000,-4.06817E-003,-5.91758E-002,1.00000E+000,15
629,1317,-1.80681E+001,-1.18102E+000,1.95786E-001,1.61184E+000,-4.26261E-001,1.50852E-001,1.67406E+000,8.03187E-003,6.67462E-001,0,2.48873E+001,-7.21392E+000,9.99450E-001,-1.64773E+001,-4.70721E+001,9.98847E-001,8.92732E-002,-3.63574E-002,-4.06040E-004,8.92745E-002,-3.63587E-002,-1.85178E-001,8.97848E-002,1.09330E+000,1.29730E-002,0.00000E+000,-1.22233E-002,9.65786E-001,0.00000E+000,2.80710E-004,-5.70367E-002,1.00000E+000,15
1229,1297,2.50652E+001,-1.76335E+000,3.72978E-002,5.65035E+000,-3.38520E-002,3.72416E-002,5.65057E+000,9.88936E-003,4.49424E-001,0,8.44765E+001,-1.32164E+000,9.99260E-001,4.94704E+001,-3.02669E+001,9.96888E-001,9.78319E-002,-4.02601E-002,1.10456E-004,9.78320E-002,-4.02602E-002,4.58292E-002,9.83412E-002,1.10274E+000,-1.16926E-002,0.00000E+000,1.07628E-002,9.62169E-001,0.00000E+000,-6.74142E-003,-5.92612E-002,1.00000E+000,15
1229,1307,2.50741E+001,-1.14356E+000,-2.35282E-002,5.64885E+000,-6.11264E-002,3.76762E-003,5.64918E+000,1.34766E-002,4.56807E-001,0,8.45922E+001,-1.69780E+000,9.99278E-001,4.95724E+001,-3.05031E+001,9.97510E-001,9.85585E-002,-4.02602E-002,1.17897E-004,9.85586E-002,-4.02603E-002,4.86607E-002,9.91073E-002,1.10353E+000,-1.16798E-002,0.00000E+000,1.07207E-002,9.62168E-001,0.00000E+000,-6.07670E-003,-5.92505E-002,1.00000E+000,15
619,1327,-1.87556E+001,-5.78610E-001,1.04691E-001,1.56194E+000,-4.46784E-001,1.09726E-001,1.62828E+000,5.51452E-003,5.85572E-001,0,2.42402E+001,-7.43824E+000,9.99458E-001,-1.70809E+001,-4.77633E+001,9.99219E-001,8.67650E-002,-3.60405E-002,-6.13497E-004,8.67681E-002,-3.60436E-002,-2.86222E-001,8.71811E-002,1.09054E+000,1.50660E-002,0.00000E+000,-1.44632E-002,9.66027E-001,0.00000E+000,-4.96259E-004,-5.64276E-002,1.00000E+000,15
619,1337,-1.87379E+001,3.44737E-002,5.09984E-002,1.57224E+000,-4.69573E-001,7.40297E-002,1.64253E+000,6.61298E-003,6.19013E-001,0,2.44997E+001,-7.72554E+000,9.98981E-001,-1.68153E+001,-4.82152E+001,9.98861E-001,8.49749E-002,-3.60407E-002,-5.84825E-004,8.49777E-002,-3.60435E-002,-2.76881E-001,8.53030E-002,1.08859E+000,1.50439E-002,0.00000E+000,-1.43724E-002,9.66028E-001,0.00000E+000,-1.22404E-003,-5.64358E-002,1.00000E+000,15
619,1347,-1.87185E+001,6.50631E-001,1.73505E-002,1.58152E+000,-4.90383E-001,4.12868E-002,1.65632E+000,8.05788E-003,6.09607E-001,0,2.47339E+001,-7.98974E+000,9.98872E-001,-1.64622E+001,-4.86854E+001,9.98780E-001,8.31813E-002,-3.60406E-002,-5.60068E-004,8.31839E-002,-3.60432E-002,-2.69150E-001,8.34303E-002,1.08664E+000,1.50133E-002,0.00000E+000,-1.42817E-002,9.66030E-001,0.00000E+000,-1.95169E-003,-5.64472E-002,1.00000E+000,15
619,1357,-1.86916E+001,1.27413E+000,2.79437E-002,1.59139E+000,-5.09983E-001,1.26965E-002,1.67116E+000,7.19009E-003,5.95950E-001,0,2.49634E+001,-8.24113E+000,9.99326E-001,-1.58658E+001,-4.91429E+001,9.99242E-001,8.13743E-002,-3.60400E-002,-5.44493E-004,8.13768E-002,-3.60425E-002,-2.65694E-001,8.15535E-002,1.08468E+000,1.49623E-002,0.00000E+000,-1.41904E-002,9.66032E-001,0.00000E+000,-2.68310E-003,-5.64663E-002,1.00000E+000,15
619,1317,-1.87656E+001,-1.17841E+000,1.94820E-001,1.55405E+000,-4.16671E-001,1.51382E-001,1.61604E+000,9.67938E-003,6.30986E-001,0,2.39984E+001,-7.06517E+000,9.99207E-001,-1.71216E+001,-4.71450E+001,9.98778E-001,8.85406E-002,-3.60399E-002,-6.49025E-004,8.85439E-002,-3.60433E-002,-2.98482E-001,8.90523E-002,1.09248E+000,1.50725E-002,0.00000E+000,-1.45534E-002,9.66027E-001,0.00000E+000,2.27174E-004,-5.64251E-002,1.00000E+000,15
1239,1307,2.58040E+001,-1.13447E+000,-4.00952E-002,5.71343E+000,-5.67551E-002,-9.56442E-003,5.71372E+000,1.39623E-002,4.45520E-001,0,8.55449E+001,-1.61796E+000,9.99155E-001,5.09496E+001,-3.02434E+001,9.97801E-001,9.82697E-002,-3.99219E-002,3.13770E-004,9.82704E-002,-3.99226E-002,1.30092E-001,9.88445E-002,1.10322E+000,-1.08282E-002,0.00000E+000,1.03562E-002,9.62458E-001,0.00000E+000,-5.99530E-003,-5.85461E-002,1.00000E+000,15
1239,1317,2.58163E+001,-5.07156E-001,-8.27961E-002,5.70941E+000,-7.92574E-002,-4.70757E-002,5.71015E+000,1.27999E-002,4.14426E-001,0,8.56337E+001,-1.90397E+000,9.99220E-001,5.11308E+001,-3.04197E+001,9.98490E-001,9.90306E-002,-3.99183E-002,3.77616E-004,9.90317E-002,-3.99193E-002,1.55709E-001,9.96497E-002,1.10406E+000,-1.08073E-002,0.00000E+000,1.03972E-002,9.62459E-001,0.00000E+000,-4.98595E-003,-5.85208E-002,1.00000E+000,15
1239,1327,2.58376E+001,1.18799E-001,-8.21416E-002,5.70257E+000,-1.12683E-001,-8.55733E-002,5.70432E+000,1.02538E-002,5.06799E-001,0,8.56803E+001,-2.36921E+000,9.99359E-001,5.15128E+001,-3.06515E+001,9.98455E-001,9.97984E-002,-3.99129E-002,4.48830E-004,9.97999E-002,-3.99144E-002,1.84063E-001,1.00464E-001,1.10490E+000,-1.07713E-002,0.00000E+000,1.04386E-002,9.62460E-001,0.00000E+000,-3.96522E-003,-5.84773E-002,1.00000E+000,15
1239,1337,2.58627E+001,7.53912E-001,-7.02033E-002,5.69773E+000,-1.32651E-001,-1.20082E-001,5.70054E+000,9.06522E-003,4.19481E-001,0,8.57333E+001,-2.63468E+000,9.99099E-001,5.19712E+001,-3.08587E+001,9.97470E-001,1.00559E-001,-3.99073E-002,5.20577E-004,1.00561E-001,-3.99092E-002,2.12338E-001,1.01272E-001,1.10574E+000,-1.07330E-002,0.00000E+000,1.04798E-002,9.62462E-001,0.00000E+000,-2.95173E-003,-5.84310E-002,1.00000E+000,15
1239,1297,2.58003E+001,-1.75199E+000,3.20157E-002,5.71915E+000,-2.75700E-002,3.11651E-002,5.71930E+000,8.69205E-003,4.57809E-001,0,8.54600E+001,-1.23750E+000,9.99349E-001,5.09451E+001,-2.99873E+001,9.97854E-001,9.75091E-002,-3.99244E-002,2.54023E-004,9.75096E-002,-3.99248E-002,1.05901E-001,9.80412E-002,1.10239E+000,-1.08403E-002,0.00000E+000,1.03154E-002,9.62457E-001,0.00000E+000,-7.00185E-003,-5.85607E-002,1.00000E+000,15
609,1347,-1.94121E+001,6.51823E-001,1.79945E-002,1.52683E+000,-4.84087E-001,4.01187E-002,1.60224E+000,1.04626E-002,6.33887E-001,0,2.38955E+001,-7.88817E+000,9.98779E-001,-1.70385E+001,-4.87585E+001,9.98514E-001,8.23886E-002,-3.53202E-002,-7.66748E-004,8.23936E-002,-3.53252E-002,-3.73200E-001,8.26721E-002,1.08575E+000,1.69203E-002,0.00000E+000,-1.64089E-002,9.66641E-001,0.00000E+000,-1.73744E-003,-5.54912E-002,1.00000E+000,15
609,1357,-1.93868E+001,1.27803E+000,2.28883E-002,1.53622E+000,-4.99872E-001,1.11834E-002,1.61554E+000,8.45860E-003,6.05806E-001,0,2.41173E+001,-8.07310E+000,9.99222E-001,-1.64801E+001,-4.91713E+001,9.98915E-001,8.05759E-002,-3.53194E-002,-7.24510E-004,8.05805E-002,-3.53239E-002,-3.58161E-001,8.07843E-002,1.08379E+000,1.68724E-002,0.00000E+000,-1.62669E-002,9.66644E-001,0.00000E+000,-2.57574E-003,-5.55116E-002,1.00000E+000,15
609,1317,-1.94651E+001,-1.17803E+000,1.95477E-001,1.49321E+000,-4.10724E-001,1.50231E-001,1.55594E+000,1.16013E-002,6.43372E-001,0,2.30661E+001,-6.97975E+000,9.99206E-001,-1.77888E+001,-4.72317E+001,9.98019E-001,8.77724E-002,-3.53183E-002,-9.31326E-004,8.77795E-002,-3.53253E-002,-4.33477E-001,8.83348E-002,1.09161E+000,1.69789E-002,0.00000E+000,-1.68326E-002,9.66636E-001,0.00000E+000,7.63880E-004,-5.54661E-002,1.00000E+000,15
609,1327,-1.94525E+001,-5.78762E-001,1.02887E-001,1.50423E+000,-4.42419E-001,1.09009E-001,1.57173E+000,7.50127E-003,6.43689E-001,0,2.33553E+001,-7.37595E+000,9.99339E-001,-1.77162E+001,-4.78316E+001,9.98681E-001,8.59857E-002,-3.53197E-002,-8.69993E-004,8.59919E-002,-3.53259E-002,-4.10893E-001,8.64468E-002,1.08966E+000,1.69739E-002,0.00000E+000,-1.66917E-002,9.66637E-001,0.00000E+000,-6.81601E-005,-5.54683E-002,1.00000E+000,15
609,1337,-1.94332E+001,3.56157E-002,4.95676E-002,1.51627E+000,-4.62217E-001,7.32143E-002,1.58684E+000,8.54575E-003,6.10576E-001,0,2.36408E+001,-7.60662E+000,9.98928E-001,-1.74226E+001,-4.82992E+001,9.98545E-001,8.41927E-002,-3.53202E-002,-8.16296E-004,8.41983E-002,-3.53257E-002,-3.91317E-001,8.45608E-002,1.08771E+000,1.69519E-002,0.00000E+000,-1.65506E-002,9.66638E-001,0.00000E+000,-9.01158E-004,-5.54777E-002,1.00000E+000,15
1249,1297,2.65386E+001,-1.73578E+000,3.63670E-002,5.78920E+000,-1.84436E-002,2.90481E-002,5.78930E+000,1.05490E-002,4.89822E-001,0,8.64421E+001,-1.11210E+000,9.99339E-001,5.24885E+001,-2.96411E+001,9.98036E-001,9.69114E-002,-3.94408E-002,3.99428E-004,9.69126E-002,-3.94420E-002,1.67839E-001,9.74700E-002,1.10175E+000,-9.66359E-003,0.00000E+000,9.60154E-003,9.62900E-001,0.00000E+000,-7.42151E-003,-5.80317E-002,1.00000E+000,15
1249,1307,2.65374E+001,-1.12196E+000,-4.79552E-002,5.78105E+000,-4.96523E-002,-1.44476E-002,5.78128E+000,1.39713E-002,4.59277E-001,0,8.65056E+001,-1.51739E+000,9.99274E-001,5.23996E+001,-2.99363E+001,9.97481E-001,9.77925E-002,-3.94333E-002,5.96275E-004,9.77951E-002,-3.94359E-002,2.48956E-001,9.84034E-002,1.10271E+000,-9.65323E-003,0.00000E+000,9.88592E-003,9.62903E-001,0.00000E+000,-6.00701E-003,-5.80165E-002,1.00000E+000,15
1249,1317,2.65461E+001,-5.00242E-001,-9.37234E-002,5.77436E+000,-7.70746E-002,-5.11899E-002,5.77510E+000,1.22108E-002,4.10981E-001,0,8.65552E+001,-1.87747E+000,9.98841E-001,5.25197E+001,-3.02005E+001,9.97384E-001,9.86739E-002,-3.94208E-002,7.99420E-004,9.86785E-002,-3.94254E-002,3.31666E-001,9.93403E-002,1.10367E+000,-9.63036E-003,0.00000E+000,1.01714E-002,9.62910E-001,0.00000E+000,-4.58721E-003,-5.79829E-002,1.00000E+000,15
1249,1327,2.65658E+001,1.33893E-001,-1.04552E-001,5.76844E+000,-9.91872E-002,-9.09528E-002,5.77001E+000,1.07311E-002,4.48040E-001,0,8.66187E+001,-2.16880E+000,9.98941E-001,5.28589E+001,-3.03060E+001,9.98183E-001,9.95592E-002,-3.94023E-002,1.01074E-003,9.95665E-002,-3.94097E-002,4.16712E-001,1.00284E-001,1.10465E+000,-9.59247E-003,0.00000E+000,1.04590E-002,9.62921E-001,0.00000E+000,-3.15625E-003,-5.79271E-002,1.00000E+000,15
1249,1337,2.65935E+001,7.70552E-001,-8.42502E-002,5.76329E+000,-1.21592E-001,-1.27270E-001,5.76597E+000,8.26472E-003,4.26167E-001,0,8.66739E+001,-2.46527E+000,9.99385E-001,5.33681E+001,-3.04729E+001,9.99015E-001,1.00443E-001,-3.93796E-002,1.22717E-003,1.00454E-001,-3.93904E-002,5.02809E-001,1.01230E-001,1.10562E+000,-9.54372E-003,0.00000E+000,1.07473E-002,9.62936E-001,0.00000E+000,-1.72233E-003,-5.78554E-002,1.00000E+000,15
1259,1327,2.72999E+001,1.45670E-001,-1.09724E-001,5.83606E+000,-9.20369E-002,-9.26483E-002,5.83752E+000,9.19005E-003,4.09100E-001,0,8.75663E+001,-2.06774E+000,9.99487E-001,5.43241E+001,-3.00395E+001,9.98782E-001,9.94183E-002,-3.92001E-002,1.54721E-003,9.94356E-002,-3.92174E-002,6.39407E-001,1.00172E-001,1.10450E+000,-8.71870E-003,0.00000E+000,1.06662E-002,9.63072E-001,0.00000E+000,-1.88696E-003,-5.71607E-002,1.00000E+000,15
1259,1337,2.73291E+001,7.81383E-001,-8.71277E-002,5.83172E+000,-1.16168E-001,-1.28309E-001,5.83428E+000,8.32887E-003,3.95804E-001,0,8.76320E+001,-2.39221E+000,9.99656E-001,5.48570E+001,-3.02202E+001,9.99330E-001,1.00318E-001,-3.91663E-002,1.85378E-003,1.00343E-001,-3.91909E-002,7.61292E-001,1.01141E-001,1.10549E+000,-8.66794E-003,0.00000E+000,1.11055E-002,9.63095E-001,0.00000E+000,-3.28585E-005,-5.70661E-002,1.00000E+000,15
599,1347,-2.01015E+001,6.60904E-001,2.69199E-002,1.47552E+000,-4.69877E-001,4.42485E-002,1.54916E+000,9.61386E-003,6.43288E-001,0,2.30927E+001,-7.67473E+000,9.99309E-001,-1.75188E+001,-4.87356E+001,9.99245E-001,8.20115E-002,-3.54873E-002,-5.47508E-004,8.20141E-002,-3.54899E-002,-2.66973E-001,8.22611E-002,1.08531E+000,1.85613E-002,0.00000E+000,-1.74618E-002,9.66400E-001,0.00000E+000,-1.46182E-003,-5.43490E-002,1.00000E+000,15
599,1357,-2.00739E+001,1.28072E+000,2.88740E-002,1.48771E+000,-4.91731E-001,1.51684E-002,1.56695E+000,6.97834E-003,6.28659E-001,0,2.33600E+001,-7.95714E+000,9.99446E-001,-1.69361E+001,-4.92350E+001,9.99132E-001,8.03139E-002,-3.54846E-002,-3.22853E-004,8.03148E-002,-3.54855E-002,-1.59743E-001,8.04958E-002,1.08347E+000,1.85183E-002,0.00000E+000,-1.69694E-002,9.66412E-001,0.00000E+000,-2.36980E-003,-5.43702E-002,1.00000E+000,15
1259,1287,2.72735E+001,-2.33865E+000,1.19082E-001,5.86087E+000,1.88767E-002,5.89223E-002,5.86120E+000,1.21017E-002,4.14610E-001,0,8.73080E+001,-5.76679E-001,9.99001E-001,5.40430E+001,-2.91391E+001,9.95260E-001,9.58103E-002,-3.92635E-002,3.87098E-004,9.58114E-002,-3.92646E-002,1.64198E-001,9.63296E-002,1.10056E+000,-8.79623E-003,0.00000E+000,8.92681E-003,9.63038E-001,0.00000E+000,-9.22758E-003,-5.73051E-002,1.00000E+000,15
1259,1297,2.72692E+001,-1.72631E+000,1.61957E-002,5.85519E+000,-1.26649E-002,1.80465E-002,5.85523E+000,9.87088E-003,4.49367E-001,0,8.74031E+001,-1.00144E+000,9.99169E-001,5.38806E+001,-2.93844E+001,9.96803E-001,9.67153E-002,-3.92575E-002,6.68390E-004,9.67186E-002,-3.92608E-002,2.81635E-001,9.72875E-002,1.10154E+000,-8.79407E-003,0.00000E+000,9.35996E-003,9.63039E-001,0.00000E+000,-7.39962E-003,-5.73011E-002,1.00000E+000,15
1259,1307,2.72718E+001,-1.10756E+000,-5.76430E-002,5.84948E+000,-4.06291E-002,-1.95756E-002,5.84965E+000,9.78546E-003,4.56061E-001,0,8.74773E+001,-1.37625E+000,9.99283E-001,5.38651E+001,-2.96047E+001,9.97728E-001,9.76180E-002,-3.92456E-002,9.54938E-004,9.76246E-002,-3.92523E-002,3.99744E-001,9.82468E-002,1.10252E+000,-8.78152E-003,0.00000E+000,9.79404E-003,9.63045E-001,0.00000E+000,-5.56771E-003,-5.72777E-002,1.00000E+000,15
599,1327,-2.01464E+001,-5.66232E-001,1.11504E-001,1.44778E+000,-4.25811E-001,1.10456E-001,1.51314E+000,7.74503E-003,6.43150E-001,0,2.24796E+001,-7.10850E+000,9.99361E-001,-1.82666E+001,-4.77566E+001,9.98907E-001,8.53788E-002,-3.54831E-002,-1.01159E-003,8.53872E-002,-3.54916E-002,-4.79509E-001,8.57913E-002,1.08897E+000,1.86097E-002,0.00000E+000,-1.84420E-002,9.66387E-001,0.00000E+000,3.45527E-004,-5.43251E-002,1.00000E+000,15
599,1337,-2.01274E+001,4.23858E-002,4.87232E-002,1.46105E+000,-4.49823E-001,7.38285E-002,1.53051E+000,6.90169E-003,6.18396E-001,0,2.27876E+001,-7.40919E+000,9.99279E-001,-1.80067E+001,-4.82901E+001,9.99244E-001,8.37016E-002,-3.54872E-002,-7.76585E-004,8.37067E-002,-3.54923E-002,-3.73294E-001,8.40283E-002,1.08715E+000,1.85934E-002,0.00000E+000,-1.79532E-002,9.66391E-001,0.00000E+000,-5.55746E-004,-5.43331E-002,1.00000E+000,15
1259,1317,2.72822E+001,-4.83600E-001,-9.57825E-002,5.84401E+000,-6.67859E-002,-4.98298E-002,5.84461E+000,9.85589E-003,4.41359E-001,0,8.75184E+001,-1.73906E+000,9.99458E-001,5.40207E+001,-2.98319E+001,9.98244E-001,9.85187E-002,-3.92271E-002,1.24732E-003,9.85300E-002,-3.92384E-002,5.18769E-001,9.92079E-002,1.10351E+000,-8.75753E-003,0.00000E+000,1.02293E-002,9.63055E-001,0.00000E+000,-3.73065E-003,-5.72330E-002,1.00000E+000,15
599,1317,-2.01641E+001,-1.17266E+000,1.99383E-001,1.43148E+000,-4.02253E-001,1.45938E-001,1.49406E+000,1.00416E-002,6.30313E-001,0,2.21259E+001,-6.81054E+000,9.99319E-001,-1.84314E+001,-4.72616E+001,9.98938E-001,8.70503E-002,-3.54759E-002,-1.25181E-003,8.70631E-002,-3.54887E-002,-5.85289E-001,8.75570E-002,1.09079E+000,1.86137E-002,0.00000E+000,-1.89302E-002,9.66386E-001,0.00000E+000,1.24586E-003,-5.43231E-002,1.00000E+000,15
589,1347,-2.07963E+001,6.69927E-001,3.04951E-002,1.41910E+000,-4.55234E-001,4.75522E-002,1.49108E+000,6.85746E-003,6.49886E-001,0,2.22113E+001,-7.44792E+000,9.99416E-001,-1.80937E+001,-4.87044E+001,9.99343E-001,8.16641E-002,-3.53892E-002,-9.19343E-005,8.16642E-002,-3.53893E-002,-4.50004E-002,8.19057E-002,1.08490E+000,2.06525E-002,0.00000E+000,-1.84490E-002,9.66428E-001,0.00000E+000,-1.43411E-003,-5.34245E-002,1.00000E+000,15
589,1357,-2.07659E+001,1.28947E+000,3.37757E-002,1.43376E+000,-4.78363E-001,1.64799E-002,1.51154E+000,5.44678E-003,6.62207E-001,0,2.25222E+001,-7.74841E+000,9.99527E-001,-1.74619E+001,-4.91989E+001,9.99483E-001,7.99707E-002,-3.53869E-002,1.31782E-004,7.99709E-002,-3.53871E-002,6.54533E-002,8.01469E-002,1.08307E+000,2.06086E-002,0.00000E+000,-1.79624E-002,9.66440E-001,0.00000E+000,-2.32562E-003,-5.34459E-002,1.00000E+000,15
589,1337,-2.08196E+001,4.96964E-002,5.89967E-002,1.40614E+000,-4.37606E-001,7.80987E-002,1.47473E+000,5.46928E-003,6.26319E-001,0,2.19281E+001,-7.22868E+000,9.99568E-001,-1.85237E+001,-4.82966E+001,9.99579E-001,8.33473E-002,-3.53877E-002,-3.21540E-004,8.33482E-002,-3.53885E-002,-1.55158E-001,8.36636E-002,1.08672E+000,2.06815E-002,0.00000E+000,-1.89339E-002,9.66420E-001,0.00000E+000,-5.45881E-004,-5.34104E-002,1.00000E+000,15
589,1327,-2.08343E+001,-5.51326E-001,1.22045E-001,1.39732E+000,-4.06806E-001,1.16333E-001,1.45997E+000,1.06314E-002,6.84338E-001,0,2.16845E+001,-6.83010E+000,9.99608E-001,-1.87154E+001,-4.76278E+001,9.98904E-001,8.50161E-002,-3.53830E-002,-5.55269E-004,8.50186E-002,-3.53856E-002,-2.64235E-001,8.54156E-002,1.08854E+000,2.06980E-002,0.00000E+000,-1.94157E-002,9.66416E-001,0.00000E+000,3.36791E-004,-5.34023E-002,1.00000E+000,15
1269,1327,2.80396E+001,1.60090E-001,-1.07925E-001,5.90841E+000,-8.43498E-002,-8.89123E-002,5.90968E+000,8.00539E-003,4.10504E-001,0,8.85595E+001,-1.96244E+000,9.99618E-001,5.58911E+001,-2.97267E+001,9.98826E-001,9.92866E-002,-3.88112E-002,1.99298E-003,9.93154E-002,-3.88399E-002,8.26643E-001,1.00098E-001,1.10436E+000,-7.81456E-003,0.00000E+000,1.07014E-002,9.63339E-001,0.00000E+000,-1.11090E-003,-5.51523E-002,1.00000E+000,15
1269,1337,2.80728E+001,7.91841E-001,-8.05569E-002,5.90692E+000,-1.12499E-001,-1.23115E-001,5.90927E+000,8.56270E-003,3.82005E-001,0,8.86632E+001,-2.35523E+000,9.99476E-001,5.64895E+001,-2.99853E+001,9.98263E-001,1.00219E-001,-3.87687E-002,2.36498E-003,1.00259E-001,-3.88089E-002,9.74554E-001,1.01108E-001,1.10539E+000,-7.76016E-003,0.00000E+000,1.12646E-002,9.63369E-001,0.00000E+000,8.12342E-004,-5.50509E-002,1.00000E+000,15
589,1317,-2.08552E+001,-1.16005E+000,2.10257E-001,1.37750E+000,-3.85538E-001,1.50418E-001,1.43833E+000,8.54141E-003,6.23064E-001,0,2.12808E+001,-6.54689E+000,9.99044E-001,-1.89277E+001,-4.71912E+001,9.98104E-001,8.66820E-002,-3.53750E-002,-7.95150E-004,8.66872E-002,-3.53801E-002,-3.73237E-001,8.71735E-002,1.09035E+000,2.07012E-002,0.00000E+000,-1.98979E-002,9.66415E-001,0.00000E+000,1.22003E-003,-5.34008E-002,1.00000E+000,15
1269,1317,2.80231E+001,-4.68554E-001,-9.45629E-002,5.91554E+000,-5.83802E-002,-5.49630E-002,5.91608E+000,8.21453E-003,4.10785E-001,0,8.85333E+001,-1.60325E+000,9.99571E-001,5.56075E+001,-2.95253E+001,9.98619E-001,9.83538E-002,-3.88419E-002,1.63001E-003,9.83731E-002,-3.88613E-002,6.80600E-001,9.90930E-002,1.10333E+000,-7.85168E-003,0.00000E+000,1.01407E-002,9.63319E-001,0.00000E+000,-3.02537E-003,-5.52214E-002,1.00000E+000,15
1269,1307,2.80117E+001,-1.09329E+000,-5.22553E-002,5.92002E+000,-3.32191E-002,-2.05175E-002,5.92015E+000,8.60921E-003,4.45459E-001,0,8.84600E+001,-1.26668E+000,9.99316E-001,5.54411E+001,-2.93109E+001,9.98231E-001,9.74205E-002,-3.88644E-002,1.27391E-003,9.74325E-002,-3.88763E-002,5.35505E-001,9.80927E-002,1.10231E+000,-7.87674E-003,0.00000E+000,9.58276E-003,9.63306E-001,0.00000E+000,-4.93069E-003,-5.52681E-002,1.00000E+000,15
1269,1297,2.80038E+001,-1.71542E+000,9.42531E-003,5.92299E+000,-7.37448E-003,1.42553E-002,5.92301E+000,9.96904E-003,4.41704E-001,0,8.83587E+001,-9.14308E-001,9.99205E-001,5.53569E+001,-2.91175E+001,9.97676E-001,9.64838E-002,-3.88814E-002,9.21728E-004,9.64901E-002,-3.88876E-002,3.90114E-001,9.70932E-002,1.10129E+000,-7.89380E-003,0.00000E+000,9.02553E-003,9.63296E-001,0.00000E+000,-6.83349E-003,-5.52999E-002,1.00000E+000,15
1269,1287,2.80112E+001,-2.32911E+000,1.19224E-001,5.92959E+000,2.15613E-002,5.37247E-002,5.92987E+000,1.47733E-002,4.16990E-001,0,8.82816E+001,-5.26218E-001,9.99383E-001,5.55767E+001,-2.89043E+001,9.96077E-001,9.55465E-002,-3.88859E-002,5.79316E-004,9.55490E-002,-3.88884E-002,2.46902E-001,9.60983E-002,1.10027E+000,-7.89255E-003,0.00000E+000,8.47080E-003,9.63297E-001,0.00000E+000,-8.72774E-003,-5.52975E-002,1.00000E+000,15
579,1347,-2.14870E+001,6.76624E-001,3.38146E-002,1.36570E+000,-4.43785E-001,4.63665E-002,1.43674E+000,5.88968E-003,6.58398E-001,0,2.13887E+001,-7.25861E+000,9.99434E-001,-1.86022E+001,-4.87070E+001,9.99464E-001,8.09279E-002,-3.52169E-002,3.69618E-004,8.09291E-002,-3.52180E-002,1.82335E-001,8.11555E-002,1.08406E+000,2.26987E-002,0.00000E+000,-1.93801E-002,9.66539E-001,0.00000E+000,-1.70286E-003,-5.27023E-002,1.00000E+000,15
579,1357,-2.14524E+001,1.30115E+000,3.96549E-002,1.38444E+000,-4.62266E-001,1.59868E-002,1.45966E+000,5.88549E-003,6.65081E-001,0,2.17600E+001,-7.48133E+000,9.99687E-001,-1.78956E+001,-4.91349E+001,9.99655E-001,7.91346E-002,-3.52151E-002,6.11744E-004,7.91378E-002,-3.52183E-002,3.06507E-001,7.92971E-002,1.08212E+000,2.26519E-002,0.00000E+000,-1.88546E-002,9.66552E-001,0.00000E+000,-2.72060E-003,-5.27268E-002,1.00000E+000,15
579,1337,-2.15134E+001,5.86723E-002,6.62680E-002,1.34953E+000,-4.24116E-001,8.08341E-002,1.41692E+000,5.99906E-003,6.44745E-001,0,2.10449E+001,-7.02046E+000,9.99266E-001,-1.90678E+001,-4.82663E+001,9.99401E-001,8.27090E-002,-3.52144E-002,1.21092E-004,8.27091E-002,-3.52145E-002,5.88351E-002,8.30124E-002,1.08599E+000,2.27290E-002,0.00000E+000,-1.99034E-002,9.66531E-001,0.00000E+000,-6.89459E-004,-5.26864E-002,1.00000E+000,15
579,1327,-2.15351E+001,-5.44705E-001,1.18545E-001,1.33431E+000,-3.95882E-001,1.12005E-001,1.39630E+000,7.82157E-003,6.78950E-001,0,2.07212E+001,-6.62494E+000,9.99543E-001,-1.93976E+001,-4.76215E+001,9.98746E-001,8.44738E-002,-3.52091E-002,-1.30783E-004,8.44739E-002,-3.52092E-002,-6.26094E-002,8.48628E-002,1.08791E+000,2.27480E-002,0.00000E+000,-2.04233E-002,9.66526E-001,0.00000E+000,3.17240E-004,-5.26764E-002,1.00000E+000,15
579,1317,-2.15505E+001,-1.14694E+000,2.09376E-001,1.32018E+000,-3.69652E-001,1.50328E-001,1.37917E+000,1.09571E-002,6.84101E-001,0,2.03948E+001,-6.28383E+000,9.99003E-001,-1.95169E+001,-4.70550E+001,9.97803E-001,8.62321E-002,-3.51998E-002,-3.89116E-004,8.62334E-002,-3.52011E-002,-1.83596E-001,8.67164E-002,1.08982E+000,2.27519E-002,0.00000E+000,-2.09425E-002,9.66525E-001,0.00000E+000,1.32281E-003,-5.26743E-002,1.00000E+000,15
1279,1317,2.87565E+001,-4.60546E-001,-9.95058E-002,5.98233E+000,-5.46509E-002,-5.37763E-002,5.98282E+000,7.60852E-003,3.98585E-001,0,8.94543E+001,-1.57000E+000,9.99431E-001,5.70700E+001,-2.93067E+001,9.97921E-001,9.80241E-002,-3.82581E-002,1.94025E-003,9.80517E-002,-3.82858E-002,8.15501E-001,9.88329E-002,1.10297E+000,-6.93770E-003,0.00000E+000,9.91564E-003,9.63781E-001,0.00000E+000,-2.42505E-003,-5.32277E-002,1.00000E+000,15
1279,1327,2.87823E+001,1.73570E-001,-1.04271E-001,5.98281E+000,-7.76329E-002,-8.45666E-002,5.98391E+000,1.17773E-002,4.25432E-001,0,8.95787E+001,-1.88292E+000,9.99258E-001,5.75088E+001,-2.94258E+001,9.98476E-001,9.90432E-002,-3.82199E-002,2.37203E-003,9.90842E-002,-3.82609E-002,9.89727E-001,9.99368E-002,1.10410E+000,-6.89440E-003,0.00000E+000,1.05981E-002,9.63807E-001,0.00000E+000,-3.15009E-004,-5.31464E-002,1.00000E+000,15
1279,1337,2.88144E+001,8.05859E-001,-7.93540E-002,5.98015E+000,-1.06798E-001,-1.20732E-001,5.98233E+000,8.90431E-003,4.13312E-001,0,8.96743E+001,-2.27425E+000,9.99462E-001,5.80854E+001,-2.96611E+001,9.98828E-001,1.00060E-001,-3.81697E-002,2.81216E-003,1.00117E-001,-3.82269E-002,1.16499E+000,1.01045E-001,1.10523E+000,-6.83491E-003,0.00000E+000,1.12830E-002,9.63843E-001,0.00000E+000,1.80270E-003,-5.30348E-002,1.00000E+000,15
1279,1307,2.87397E+001,-1.08395E+000,-6.37985E-002,5.98283E+000,-2.81354E-002,-2.14178E-002,5.98293E+000,8.76727E-003,4.43940E-001,0,8.93302E+001,-1.19943E+000,9.99390E-001,5.68129E+001,-2.90540E+001,9.97494E-001,9.70078E-002,-3.82860E-002,1.51787E-003,9.70248E-002,-3.83031E-002,6.42695E-001,9.77383E-002,1.10186E+000,-6.96725E-003,0.00000E+000,9.23894E-003,9.63763E-001,0.00000E+000,-4.51731E-003,-5.32831E-002,1.00000E+000,15
1279,1297,2.87390E+001,-1.70217E+000,1.62969E-002,5.98957E+000,1.11409E-003,1.89043E-002,5.98960E+000,1.53006E-002,3.59691E-001,0,8.92570E+001,-7.83873E-001,9.99252E-001,5.68655E+001,-2.88804E+001,9.97941E-001,9.59862E-002,-3.83015E-002,1.10310E-003,9.59953E-002,-3.83106E-002,4.70610E-001,9.66448E-002,1.10074E+000,-6.98009E-003,0.00000E+000,8.56265E-003,9.63755E-001,0.00000E+000,-6.60828E-003,-5.33072E-002,1.00000E+000,15
1279,1287,2.87402E+001,-2.32837E+000,1.01396E-001,5.99391E+000,1.93015E-002,4.82478E-002,5.99414E+000,1.44695E-002,3.18319E-001,0,8.91954E+001,-5.22220E-001,9.99302E-001,5.69544E+001,-2.88198E+001,9.97049E-001,9.49624E-002,-3.83112E-002,6.92964E-004,9.49660E-002,-3.83148E-002,2.97902E-001,9.55543E-002,1.09963E+000,-6.98549E-003,0.00000E+000,7.88862E-003,9.63752E-001,0.00000E+000,-8.69225E-003,-5.33174E-002,1.00000E+000,15
569,1347,-2.21761E+001,6.89226E-001,3.86536E-002,1.31384E+000,-4.26526E-001,4.83762E-002,1.38218E+000,6.41492E-003,6.73826E-001,0,2.05795E+001,-6.98389E+000,9.99357E-001,-1.90750E+001,-4.86188E+001,9.99190E-001,8.05028E-002,-3.49747E-002,7.76085E-004,8.05080E-002,-3.49799E-002,3.85042E-001,8.07380E-002,1.08355E+000,2.48199E-002,0.00000E+000,-2.04943E-002,9.66715E-001,0.00000E+000,-1.73933E-003,-5.19822E-002,1.00000E+000,15
569,1357,-2.21434E+001,1.30814E+000,3.69499E-002,1.33211E+000,-4.48273E-001,1.81147E-002,1.40563E+000,6.32549E-003,6.60605E-001,0,2.09441E+001,-7.26363E+000,9.99501E-001,-1.84199E+001,-4.91284E+001,9.99285E-001,7.86615E-002,-3.49747E-002,1.06669E-003,7.86716E-002,-3.49848E-002,5.37767E-001,7.88318E-002,1.08156E+000,2.47762E-002,0.00000E+000,-1.98722E-002,9.66728E-001,0.00000E+000,-2.96984E-003,-5.20092E-002,1.00000E+000,15
569,1327,-2.22257E+001,-5.39798E-001,1.15787E-001,1.28173E+000,-3.85609E-001,1.12623E-001,1.34321E+000,1.10734E-002,6.75385E-001,0,1.99074E+001,-6.45073E+000,9.99700E-001,-1.99195E+001,-4.76408E+001,9.99207E-001,8.41528E-002,-3.49643E-002,1.82226E-004,8.41531E-002,-3.49645E-002,8.76511E-002,8.45529E-002,1.08751E+000,2.48730E-002,0.00000E+000,-2.17330E-002,9.66698E-001,0.00000E+000,7.10442E-004,-5.19493E-002,1.00000E+000,15
569,1337,-2.22030E+001,7.22872E-002,6.98680E-002,1.29651E+000,-4.06838E-001,7.78560E-002,1.36107E+000,5.80566E-003,6.55361E-001,0,2.02308E+001,-6.72774E+000,9.99462E-001,-1.95511E+001,-4.81604E+001,9.99344E-001,8.23341E-002,-3.49702E-002,4.79553E-004,8.23360E-002,-3.49722E-002,2.34227E-001,8.26463E-002,1.08554E+000,2.48488E-002,0.00000E+000,-2.11149E-002,9.66706E-001,0.00000E+000,-5.11967E-004,-5.19643E-002,1.00000E+000,15
1289,1327,2.95124E+001,1.81070E-001,-1.12360E-001,6.04715E+000,-7.46253E-002,-8.11401E-002,6.04815E+000,1.07548E-002,4.22187E-001,0,9.04540E+001,-1.85876E+000,9.99014E-001,5.89185E+001,-2.92026E+001,9.97801E-001,9.87447E-002,-3.74206E-002,2.71350E-003,9.87988E-002,-3.74746E-002,1.14118E+000,9.97537E-002,1.10378E+000,-5.80747E-003,0.00000E+000,1.02945E-002,9.64471E-001,0.00000E+000,2.21202E-004,-5.09160E-002,1.00000E+000,15
1289,1337,2.95460E+001,8.17738E-001,-8.74151E-002,6.04588E+000,-9.98554E-002,-1.16597E-001,6.04783E+000,1.00953E-002,4.27927E-001,0,9.05662E+001,-2.19619E+000,9.99367E-001,5.95153E+001,-2.93593E+001,9.98417E-001,9.98932E-002,-3.73662E-002,3.19560E-003,9.99675E-002,-3.74406E-002,1.33297E+000,1.01011E-001,1.10505E+000,-5.74024E-003,0.00000E+000,1.10504E-002,9.64511E-001,0.00000E+000,2.52004E-003,-5.07949E-002,1.00000E+000,15
569,1317,-2.22458E+001,-1.13681E+000,2.10191E-001,1.26143E+000,-3.54492E-001,1.45268E-001,1.31832E+000,1.21332E-002,6.61090E-001,0,1.94982E+001,-6.02830E+000,9.99217E-001,-2.00966E+001,-4.70104E+001,9.98084E-001,8.59628E-002,-3.49510E-002,-1.25646E-004,8.59629E-002,-3.49511E-002,-5.95380E-002,8.64616E-002,1.08948E+000,2.48724E-002,0.00000E+000,-2.23500E-002,9.66698E-001,0.00000E+000,1.93057E-003,-5.19497E-002,1.00000E+000,15
1289,1317,2.94896E+001,-4.49565E-001,-9.89850E-002,6.04727E+000,-5.17574E-002,-5.06442E-002,6.04770E+000,1.28145E-002,4.80094E-001,0,9.03375E+001,-1.54929E+000,9.99413E-001,5.85380E+001,-2.90072E+001,9.96877E-001,9.75995E-002,-3.74585E-002,2.24526E-003,9.76368E-002,-3.74958E-002,9.52156E-001,9.85083E-002,1.10251E+000,-5.85183E-003,0.00000E+000,9.54530E-003,9.64445E-001,0.00000E+000,-2.05698E-003,-5.09960E-002,1.00000E+000,15
1289,1287,2.94709E+001,-2.31028E+000,9.28890E-002,6.05761E+000,3.17604E-002,4.58126E-002,6.05787E+000,1.46275E-002,3.98531E-001,0,9.00776E+001,-3.60702E-001,9.99309E-001,5.83732E+001,-2.83959E+001,9.97017E-001,9.41362E-002,-3.75162E-002,8.79097E-004,9.41421E-002,-3.75221E-002,3.82565E-001,9.47856E-002,1.09873E+000,-5.90813E-003,0.00000E+000,7.30685E-003,9.64412E-001,0.00000E+000,-8.86401E-003,-5.10974E-002,1.00000E+000,15
1289,1297,2.94742E+001,-1.69349E+000,2.03387E-002,6.05430E+000,4.37288E-003,1.60059E-002,6.05432E+000,1.56090E-002,3.10182E-001,0,9.01586E+001,-7.33685E-001,9.99362E-001,5.83722E+001,-2.86924E+001,9.97808E-001,9.52917E-002,-3.75015E-002,1.32974E-003,9.53050E-002,-3.75148E-002,5.73661E-001,9.60212E-002,1.09999E+000,-5.89525E-003,0.00000E+000,8.04924E-003,9.64419E-001,0.00000E+000,-6.60644E-003,-5.10742E-002,1.00000E+000,15
1289,1307,2.94767E+001,-1.07423E+000,-6.44144E-002,6.05041E+000,-2.53877E-002,-2.45014E-002,6.05051E+000,1.13217E-002,4.63849E-001,0,9.02770E+001,-1.16192E+000,9.99705E-001,5.83409E+001,-2.88035E+001,9.97734E-001,9.64491E-002,-3.74867E-002,1.78340E-003,9.64728E-002,-3.75104E-002,7.62731E-001,9.72646E-002,1.10125E+000,-5.88285E-003,0.00000E+000,8.79729E-003,9.64427E-001,0.00000E+000,-4.33165E-003,-5.10519E-002,1.00000E+000,15
559,1327,-2.29099E+001,-5.30744E-001,1.04118E-001,1.23427E+000,-3.72810E-001,9.87159E-002,1.29312E+000,2.03175E-002,7.88909E-001,0,1.92090E+001,-6.25215E+000,9.99769E-001,-2.03653E+001,-4.75184E+001,9.98978E-001,8.38164E-002,-3.49046E-002,5.66049E-004,8.38191E-002,-3.49073E-002,2.73172E-001,8.42081E-002,1.08709E+000,2.70589E-002,0.00000E+000,-2.29514E-002,9.66671E-001,0.00000E+000,9.80301E-004,-5.08071E-002,1.00000E+000,15
559,1337,-2.28922E+001,8.24806E-002,6.50340E-002,1.24436E+000,-3.91748E-001,7.22813E-002,1.30657E+000,5.50789E-003,6.54030E-001,0,1.94367E+001,-6.46371E+000,9.99770E-001,-2.00517E+001,-4.80949E+001,9.99569E-001,8.20461E-002,-3.49105E-002,8.09852E-004,8.20517E-002,-3.49161E-002,3.96712E-001,8.23545E-002,1.08517E+000,2.70364E-002,0.00000E+000,-2.24399E-002,9.66677E-001,0.00000E+000,-2.87396E-004,-5.08219E-002,1.00000E+000,15
559,1347,-2.28681E+001,6.99656E-001,3.82367E-002,1.25893E+000,-4.09441E-001,4.66044E-002,1.32465E+000,7.46890E-003,6.43602E-001,0,1.97314E+001,-6.70752E+000,9.99450E-001,-1.96038E+001,-4.85759E+001,9.99146E-001,8.02659E-002,-3.49150E-002,1.05198E-003,8.02755E-002,-3.49246E-002,5.23239E-001,8.05009E-002,1.08324E+000,2.70085E-002,0.00000E+000,-2.19270E-002,9.66685E-001,0.00000E+000,-1.55867E-003,-5.08403E-002,1.00000E+000,15
559,1357,-2.28342E+001,1.31810E+000,3.66216E-002,1.27917E+000,-4.30585E-001,2.01741E-002,1.34984E+000,6.41154E-003,6.35278E-001,0,2.01166E+001,-6.99424E+000,9.99430E-001,-1.89291E+001,-4.90922E+001,9.99393E-001,7.84730E-002,-3.49164E-002,1.28961E-003,7.84877E-002,-3.49311E-002,6.51529E-001,7.86455E-002,1.08131E+000,2.69683E-002,0.00000E+000,-2.14120E-002,9.66696E-001,0.00000E+000,-2.83524E-003,-5.08668E-002,1.00000E+000,15
559,1317,-2.29352E+001,-1.12419E+000,2.12555E-001,1.20823E+000,-3.38746E-001,1.42663E-001,1.26290E+000,1.97383E-002,7.03207E-001,0,1.86808E+001,-5.77120E+000,9.99558E-001,-2.05782E+001,-4.68977E+001,9.98724E-001,8.55798E-002,-3.48928E-002,3.11503E-004,8.55806E-002,-3.48936E-002,1.48147E-001,8.60650E-002,1.08901E+000,2.70570E-002,0.00000E+000,-2.34624E-002,9.66672E-001,0.00000E+000,2.24697E-003,-5.08083E-002,1.00000E+000,15
1299,1327,3.02500E+001,1.94188E-001,-1.11826E-001,6.11440E+000,-6.89373E-002,-8.40586E-002,6.11537E+000,1.38554E-002,4.35586E-001,0,9.13932E+001,-1.77717E+000,9.99027E-001,6.04606E+001,-2.89021E+001,9.98191E-001,9.85197E-002,-3.65286E-002,3.05076E-003,9.85885E-002,-3.65974E-002,1.29344E+000,9.96727E-002,1.10354E+000,-4.43258E-003,0.00000E+000,9.73399E-003,9.65217E-001,0.00000E+000,7.42341E-004,-4.83427E-002,1.00000E+000,15
1299,1337,3.02905E+001,8.30813E-001,-7.91135E-002,6.11858E+000,-9.58687E-002,-1.16297E-001,6.12044E+000,1.26481E-002,4.62918E-001,0,9.15729E+001,-2.14809E+000,9.98988E-001,6.11731E+001,-2.90638E+001,9.97999E-001,9.98137E-002,-3.64691E-002,3.57048E-003,9.99072E-002,-3.65626E-002,1.49972E+000,1.01097E-001,1.10498E+000,-4.35365E-003,0.00000E+000,1.05507E-002,9.65262E-001,0.00000E+000,3.23723E-003,-4.82059E-002,1.00000E+000,15
1299,1287,3.02094E+001,-2.29930E+000,9.59800E-002,6.12435E+000,3.39223E-002,3.92035E-002,6.12457E+000,1.10664E-002,4.88845E-001,0,9.10222E+001,-3.38416E-001,9.99466E-001,5.99331E+001,-2.81013E+001,9.97439E-001,9.33349E-002,-3.66252E-002,1.08818E-003,9.33440E-002,-3.66343E-002,4.79704E-001,9.40608E-002,1.09786E+000,-4.54290E-003,0.00000E+000,6.51379E-003,9.65154E-001,0.00000E+000,-9.09420E-003,-4.85340E-002,1.00000E+000,15
1299,1297,3.02130E+001,-1.68615E+000,1.62918E-002,6.12279E+000,3.14030E-003,7.63667E-003,6.12280E+000,1.20564E-002,4.50708E-001,0,9.11399E+001,-7.80834E-001,9.99603E-001,5.99281E+001,-2.84127E+001,9.97676E-001,9.46361E-002,-3.66124E-002,1.56921E-003,9.46549E-002,-3.66312E-002,6.84900E-001,9.54573E-002,1.09927E+000,-4.53146E-003,0.00000E+000,7.31440E-003,9.65161E-001,0.00000E+000,-6.64863E-003,-4.85142E-002,1.00000E+000,15
1299,1307,3.02256E+001,-1.05895E+000,-3.75902E-002,6.12482E+000,-1.92140E-002,-1.73864E-002,6.12488E+000,2.22751E-002,4.99481E-001,0,9.12754E+001,-1.10744E+000,9.99503E-001,6.00957E+001,-2.85167E+001,9.97875E-001,9.59383E-002,-3.65915E-002,2.05869E-003,9.59703E-002,-3.66234E-002,8.89734E-001,9.68629E-002,1.10069E+000,-4.50836E-003,0.00000E+000,8.12060E-003,9.65174E-001,0.00000E+000,-4.18600E-003,-4.84741E-002,1.00000E+000,15
1299,1317,3.02354E+001,-4.34711E-001,-8.66274E-002,6.11913E+000,-4.59143E-002,-5.54548E-002,6.11956E+000,1.77505E-002,4.77747E-001,0,9.13495E+001,-1.45598E+000,9.99155E-001,6.02250E+001,-2.87139E+001,9.97783E-001,9.72329E-002,-3.65630E-002,2.55293E-003,9.72816E-002,-3.66117E-002,1.09272E+000,9.82682E-002,1.10212E+000,-4.47471E-003,0.00000E+000,8.92720E-003,9.65193E-001,0.00000E+000,-1.72211E-003,-4.84158E-002,1.00000E+000,15
559,1307,-2.29550E+001,-1.72365E+000,3.20880E-001,1.18597E+000,-3.11839E-001,1.75451E-001,1.23877E+000,9.11317E-003,6.83945E-001,0,1.82415E+001,-5.41791E+000,9.99088E-001,-2.07088E+001,-4.63334E+001,9.98306E-001,8.73376E-002,-3.48797E-002,5.49055E-005,8.73376E-002,-3.48797E-002,2.57398E-002,8.79253E-002,1.09093E+000,2.70500E-002,0.00000E+000,-2.39732E-002,9.66674E-001,0.00000E+000,3.51311E-003,-5.08129E-002,1.00000E+000,15
549,1347,-2.35538E+001,7.13143E-001,3.86949E-002,1.20996E+000,-3.91585E-001,4.58601E-002,1.27258E+000,6.31888E-003,6.73651E-001,0,1.89728E+001,-6.41687E+000,9.99462E-001,-2.00283E+001,-4.84573E+001,9.99186E-001,8.00342E-002,-3.47726E-002,1.33960E-003,8.00498E-002,-3.47882E-002,6.68421E-001,8.02779E-002,1.08294E+000,2.90835E-002,0.00000E+000,-2.32399E-002,9.66735E-001,0.00000E+000,-1.35399E-003,-4.96389E-002,1.00000E+000,15
549,1357,-2.35202E+001,1.33557E+000,4.15611E-002,1.22917E+000,-4.09545E-001,1.86282E-002,1.29573E+000,6.85346E-003,6.65322E-001,0,1.93425E+001,-6.64786E+000,9.99416E-001,-1.93425E+001,-4.89244E+001,9.99313E-001,7.82970E-002,-3.47743E-002,1.56784E-003,7.83187E-002,-3.47960E-002,7.94255E-001,7.84806E-002,1.08106E+000,2.90427E-002,0.00000E+000,-2.27447E-002,9.66745E-001,0.00000E+000,-2.65432E-003,-4.96672E-002,1.00000E+000,15
549,1327,-2.36139E+001,-5.11896E-001,1.29632E-001,1.16503E+000,-3.49580E-001,1.12012E-001,1.22149E+000,1.59344E-002,7.74275E-001,0,1.80956E+001,-5.91465E+000,9.99217E-001,-2.09922E+001,-4.73922E+001,9.97720E-001,8.34747E-002,-3.47598E-002,8.68463E-004,8.34811E-002,-3.47662E-002,4.20822E-001,8.38687E-002,1.08667E+000,2.91266E-002,0.00000E+000,-2.42249E-002,9.66723E-001,0.00000E+000,1.23265E-003,-4.96090E-002,1.00000E+000,15
549,1337,-2.35811E+001,9.79224E-002,7.02634E-002,1.19178E+000,-3.70025E-001,7.42738E-002,1.25011E+000,5.54123E-003,6.53491E-001,0,1.86135E+001,-6.14031E+000,9.99613E-001,-2.05109E+001,-4.79704E+001,9.99541E-001,8.17637E-002,-3.47672E-002,1.10495E-003,8.17742E-002,-3.47777E-002,5.43216E-001,8.20779E-002,1.08481E+000,2.91093E-002,0.00000E+000,-2.37344E-002,9.66728E-001,0.00000E+000,-5.55468E-005,-4.96210E-002,1.00000E+000,15
1309,1317,3.09640E+001,-4.30540E-001,-1.06520E-001,6.18117E+000,-4.55426E-002,-6.35356E-002,6.18167E+000,1.36811E-002,4.45967E-001,0,9.22365E+001,-1.43963E+000,9.99059E-001,6.16042E+001,-2.85331E+001,9.97992E-001,9.71274E-002,-3.57834E-002,2.92117E-003,9.71916E-002,-3.58475E-002,1.25846E+000,9.83000E-002,1.10201E+000,-2.77276E-003,0.00000E+000,8.14104E-003,9.65831E-001,0.00000E+000,-1.41676E-003,-4.56788E-002,1.00000E+000,15
1309,1327,3.09881E+001,2.02514E-001,-1.20194E-001,6.18310E+000,-6.63841E-002,-9.03531E-002,6.18412E+000,1.61402E-002,4.28753E-001,0,9.23687E+001,-1.73976E+000,9.98876E-001,6.20012E+001,-2.86667E+001,9.97623E-001,9.85540E-002,-3.57479E-002,3.39938E-003,9.86400E-002,-3.58339E-002,1.44900E+000,9.98616E-002,1.10358E+000,-2.71932E-003,0.00000E+000,8.90386E-003,9.65856E-001,0.00000E+000,1.15849E-003,-4.55915E-002,1.00000E+000,15
1309,1337,3.10261E+001,8.41357E-001,-8.83037E-002,6.18594E+000,-9.04318E-002,-1.18542E-001,6.18774E+000,1.47518E-002,4.46893E-001,0,9.25117E+001,-2.07411E+000,9.99230E-001,6.26720E+001,-2.87954E+001,9.98690E-001,9.99848E-002,-3.56943E-002,3.89538E-003,1.00097E-001,-3.58060E-002,1.64317E+000,1.01439E-001,1.10517E+000,-2.63463E-003,0.00000E+000,9.67395E-003,9.65897E-001,0.00000E+000,3.75826E-003,-4.54532E-002,1.00000E+000,15
549,1317,-2.36278E+001,-1.11138E+000,2.21685E-001,1.15152E+000,-3.22195E-001,1.46935E-001,1.20474E+000,1.33837E-002,7.60514E-001,0,1.77896E+001,-5.53347E+000,9.99417E-001,-2.10826E+001,-4.67896E+001,9.98497E-001,8.51793E-002,-3.47486E-002,6.25068E-004,8.51825E-002,-3.47518E-002,2.98617E-001,8.56621E-002,1.08852E+000,2.91280E-002,0.00000E+000,-2.47151E-002,9.66723E-001,0.00000E+000,2.51978E-003,-4.96080E-002,1.00000E+000,15
549,1307,-2.36456E+001,-1.71129E+000,3.14067E-001,1.13222E+000,-2.95106E-001,1.69415E-001,1.18225E+000,9.70053E-003,6.95801E-001,0,1.74236E+001,-5.13250E+000,9.99049E-001,-2.12295E+001,-4.62191E+001,9.98458E-001,8.68821E-002,-3.47359E-002,3.78853E-004,8.68833E-002,-3.47371E-002,1.78480E-001,8.74627E-002,1.09038E+000,2.91238E-002,0.00000E+000,-2.52061E-002,9.66724E-001,0.00000E+000,3.80927E-003,-4.96109E-002,1.00000E+000,15
1309,1287,3.09478E+001,-2.29463E+000,9.65488E-002,6.18970E+000,3.27711E-002,2.67511E-002,6.18985E+000,1.01929E-002,4.60413E-001,0,9.19702E+001,-3.49352E-001,9.99468E-001,6.14930E+001,-2.79592E+001,9.97250E-001,9.28157E-002,-3.58300E-002,1.53746E-003,9.28341E-002,-3.58483E-002,6.84619E-001,9.36328E-002,1.09730E+000,-2.83243E-003,0.00000E+000,5.86456E-003,9.65802E-001,0.00000E+000,-9.10202E-003,-4.57763E-002,1.00000E+000,15
1309,1297,3.09496E+001,-1.68094E+000,1.09314E-002,6.18801E+000,8.44121E-004,-4.01275E-003,6.18801E+000,1.36496E-002,4.90868E-001,0,9.20852E+001,-8.08317E-001,9.99313E-001,6.14513E+001,-2.82138E+001,9.97327E-001,9.42601E-002,-3.58213E-002,1.99313E-003,9.42907E-002,-3.58518E-002,8.77620E-001,9.51882E-002,1.09887E+000,-2.82392E-003,0.00000E+000,6.62243E-003,9.65806E-001,0.00000E+000,-6.54351E-003,-4.57624E-002,1.00000E+000,15
1309,1307,3.09500E+001,-1.05652E+000,-7.11474E-002,6.18354E+000,-1.87628E-002,-3.64941E-002,6.18367E+000,1.38521E-002,3.88579E-001,0,9.21596E+001,-1.04554E+000,9.99315E-001,6.13933E+001,-2.83754E+001,9.98599E-001,9.56914E-002,-3.58104E-002,2.44883E-003,9.57369E-002,-3.58560E-002,1.06647E+000,9.67366E-002,1.10043E+000,-2.81211E-003,0.00000E+000,7.37805E-003,9.65811E-001,0.00000E+000,-3.99256E-003,-4.57431E-002,1.00000E+000,15
539,1347,-2.42432E+001,7.28346E-001,3.90595E-002,1.15671E+000,-3.70650E-001,4.39344E-002,1.21544E+000,5.82929E-003,6.56404E-001,0,1.81480E+001,-6.07419E+000,9.99515E-001,-2.05049E+001,-4.83367E+001,9.99379E-001,7.98368E-002,-3.45712E-002,1.49776E-003,7.98564E-002,-3.45908E-002,7.49910E-001,8.00939E-002,1.08267E+000,3.09701E-002,0.00000E+000,-2.46321E-002,9.66831E-001,0.00000E+000,-1.26387E-003,-4.82829E-002,1.00000E+000,15
539,1357,-2.42099E+001,1.35150E+000,3.60015E-002,1.17675E+000,-3.87203E-001,1.67627E-002,1.23893E+000,5.72062E-003,6.58637E-001,0,1.85305E+001,-6.28233E+000,9.99576E-001,-1.98397E+001,-4.87764E+001,9.99506E-001,7.81901E-002,-3.45741E-002,1.70842E-003,7.82159E-002,-3.46000E-002,8.67786E-001,7.83890E-002,1.08090E+000,3.09345E-002,0.00000E+000,-2.41726E-002,9.66841E-001,0.00000E+000,-2.67058E-003,-4.83111E-002,1.00000E+000,15
539,1327,-2.42976E+001,-4.97055E-001,1.18274E-001,1.11781E+000,-3.27229E-001,1.01114E-001,1.16910E+000,7.28740E-003,6.53555E-001,0,1.73889E+001,-5.50593E+000,9.98836E-001,-2.14176E+001,-4.72990E+001,9.98696E-001,8.31029E-002,-3.45584E-002,1.06486E-003,8.31125E-002,-3.45681E-002,5.18480E-001,8.35033E-002,1.08621E+000,3.10117E-002,0.00000E+000,-2.55476E-002,9.66821E-001,0.00000E+000,1.53888E-003,-4.82499E-002,1.00000E+000,15
539,1337,-2.42708E+001,1.14849E-001,6.87985E-002,1.13808E+000,-3.47641E-001,7.01512E-002,1.19206E+000,6.22297E-003,6.43969E-001,0,1.77873E+001,-5.77372E+000,9.99302E-001,-2.09976E+001,-4.78136E+001,9.99315E-001,8.14761E-002,-3.45656E-002,1.28219E-003,8.14902E-002,-3.45797E-002,6.32981E-001,8.18006E-002,1.08445E+000,3.09941E-002,0.00000E+000,-2.50909E-002,9.66825E-001,0.00000E+000,1.40773E-004,-4.82639E-002,1.00000E+000,15
1319,1297,3.16735E+001,-1.67558E+000,-1.26453E-002,6.24499E+000,4.04693E-003,-1.61798E-002,6.24501E+000,1.14049E-002,3.54642E-001,0,9.29108E+001,-7.07192E-001,9.99382E-001,6.27585E+001,-2.80634E+001,9.97922E-001,9.39016E-002,-3.49314E-002,2.51264E-003,9.39506E-002,-3.49804E-002,1.11688E+000,9.49660E-002,1.09848E+000,-7.41571E-004,0.00000E+000,5.79812E-003,9.66527E-001,0.00000E+000,-6.86768E-003,-4.23255E-002,1.00000E+000,15
1319,1307,3.16817E+001,-1.05417E+000,-7.91969E-002,6.24501E+000,-2.13586E-002,-4.47750E-002,6.24520E+000,1.29980E-002,3.47716E-001,0,9.30359E+001,-1.07480E+000,9.99311E-001,6.28407E+001,-2.82548E+001,9.98717E-001,9.55085E-002,-3.49172E-002,2.97468E-003,9.55763E-002,-3.49850E-002,1.30587E+000,9.67130E-002,1.10024E+000,-7.19492E-004,0.00000E+000,6.55523E-003,9.66537E-001,0.00000E+000,-3.98876E-003,-4.22892E-002,1.00000E+000,15
539,1307,-2.43361E+001,-1.70055E+000,3.05428E-001,1.07763E+000,-2.78371E-001,1.58344E-001,1.12421E+000,6.52660E-003,6.54032E-001,0,1.66037E+001,-4.84095E+000,9.99321E-001,-2.17512E+001,-4.61527E+001,9.98951E-001,8.63295E-002,-3.45351E-002,6.14456E-004,8.63326E-002,-3.45382E-002,2.91272E-001,8.69056E-002,1.08973E+000,3.10077E-002,0.00000E+000,-2.64576E-002,9.66822E-001,0.00000E+000,4.32477E-003,-4.82531E-002,1.00000E+000,15
539,1317,-2.43183E+001,-1.10332E+000,2.03975E-001,1.09781E+000,-3.05935E-001,1.31644E-001,1.14722E+000,6.99776E-003,6.90255E-001,0,1.69941E+001,-5.24586E+000,9.99180E-001,-2.16323E+001,-4.67609E+001,9.98656E-001,8.47201E-002,-3.45477E-002,8.41235E-004,8.47260E-002,-3.45536E-002,4.04099E-001,8.52045E-002,1.08797E+000,3.10138E-002,0.00000E+000,-2.60030E-002,9.66820E-001,0.00000E+000,2.93311E-003,-4.82483E-002,1.00000E+000,15
1319,1287,3.16784E+001,-2.29559E+000,7.92809E-002,6.25096E+000,2.70074E-002,1.22576E-002,6.25103E+000,1.18570E-002,4.27850E-001,0,9.28705E+001,-4.06008E-001,9.99347E-001,6.29110E+001,-2.78699E+001,9.98176E-001,9.22891E-002,-3.49354E-002,2.06077E-003,9.23225E-002,-3.49688E-002,9.27745E-001,9.32227E-002,1.09674E+000,-7.44608E-004,0.00000E+000,5.04369E-003,9.66526E-001,0.00000E+000,-9.73642E-003,-4.23305E-002,1.00000E+000,15
529,1327,-2.49848E+001,-4.83293E-001,1.18450E-001,1.06577E+000,-3.08147E-001,9.62590E-002,1.11360E+000,6.50889E-003,6.66164E-001,0,1.65906E+001,-5.20776E+000,9.98849E-001,-2.18580E+001,-4.71811E+001,9.98544E-001,8.27914E-002,-3.42065E-002,1.29016E-003,8.28057E-002,-3.42208E-002,6.31712E-001,8.32199E-002,1.08583E+000,3.24205E-002,0.00000E+000,-2.64078E-002,9.67086E-001,0.00000E+000,2.13435E-003,-4.70889E-002,1.00000E+000,15
529,1307,-2.50240E+001,-1.68665E+000,3.09455E-001,1.02440E+000,-2.59857E-001,1.53867E-001,1.06799E+000,8.64738E-003,6.28389E-001,0,1.57867E+001,-4.53604E+000,9.99469E-001,-2.21876E+001,-4.60561E+001,9.98994E-001,8.56831E-002,-3.41911E-002,9.93101E-004,8.56913E-002,-3.41994E-002,4.74625E-001,8.62710E-002,1.08899E+000,3.24155E-002,0.00000E+000,-2.70236E-002,9.67087E-001,0.00000E+000,4.94686E-003,-4.70934E-002,1.00000E+000,15
529,1317,-2.50071E+001,-1.08924E+000,1.99572E-001,1.04510E+000,-2.86204E-001,1.27935E-001,1.09110E+000,6.71638E-003,6.37708E-001,0,1.61829E+001,-4.90212E+000,9.99528E-001,-2.21095E+001,-4.66593E+001,9.98964E-001,8.42409E-002,-3.41999E-002,1.14436E-003,8.42520E-002,-3.42109E-002,5.53516E-001,8.47463E-002,1.08741E+000,3.24245E-002,0.00000E+000,-2.67160E-002,9.67085E-001,0.00000E+000,3.54201E-003,-4.70853E-002,1.00000E+000,15
