Coordinates.Image X [Pixel],Coordinates.Image Y [Pixel],coor.X [mm],coor.Y [mm],coor.Z [mm],disp.Horizontal Displacement U [mm],disp.Vertical Displacement V [mm],disp.Out-Of-Plane: W [mm],disp.Displacement Magnitude [mm],stats.Sigma [mm],stats.Epipolar Distance [Pixel],stats.Shape Index [-],SameCamera.Horizontal: u [Pixel],SameCamera.Vertical: v [Pixel],SameCamera.Correlation Value 2D [-],CrossCamera.Horizontal: q [Pixel],CrossCamera.Vertical: r [Pixel],CrossCamera.Correlation Value Persp [-],strain.Strain-global frame: Exx [ ],strain.Strain-global frame: Eyy [ ],strain.Strain-global frame: Exy [ ],strain.Maximum Principal Strain: EI [ ],strain.Minimum Principal Strain: EII [ ],strain.Shear Angle Gamma [deg],strain.Von Mises Equivalent Strain [ ],defgradient.F[0,0] [-],defgradient.F[0,1] [-],defgradient.F[0,2] [-],defgradient.F[1,0] [-],defgradient.F[1,1] [-],defgradient.F[1,2] [-],defgradient.F[2,0] [-],defgradient.F[2,1] [-],defgradient.F[2,2] [-],ext.Current Image [#]
929,1317,4.21807E+000,-1.10586E+000,6.99581E-002,4.55414E+000,-4.89499E-001,1.56679E-001,4.58305E+000,1.08813E-002,4.90362E-001,0,6.93406E+001,-8.53019E+000,9.99104E-001,2.56146E+001,-4.27302E+001,9.98035E-001,1.26563E-001,-5.26241E-002,6.68552E-005,1.26564E-001,-5.26241E-002,2.13772E-002,1.27160E-001,1.13488E+000,-1.78548E-002,0.00000E+000,1.61530E-002,9.52074E-001,0.00000E+000,-1.42698E-002,-8.54421E-002,1.00000E+000,19
919,1307,3.47666E+000,-1.72556E+000,1.28493E-001,4.47928E+000,-4.59926E-001,2.20011E-001,4.50820E+000,1.32760E-002,5.03194E-001,0,6.80327E+001,-8.17523E+000,9.98335E-001,2.41787E+001,-4.25221E+001,9.95927E-001,1.29220E-001,-5.23037E-002,-3.93287E-004,1.29221E-001,-5.23045E-002,-1.24135E-001,1.30000E-001,1.13791E+000,-1.59556E-002,0.00000E+000,1.35655E-002,9.52485E-001,0.00000E+000,-1.29585E-002,-8.62945E-002,1.00000E+000,19
919,1317,3.46467E+000,-1.12893E+000,2.41908E-002,4.46448E+000,-4.98289E-001,1.66619E-001,4.49529E+000,1.48652E-002,4.83112E-001,0,6.79979E+001,-8.68575E+000,9.97720E-001,2.38661E+001,-4.30906E+001,9.95491E-001,1.27338E-001,-5.23113E-002,-6.20880E-004,1.27341E-001,-5.23134E-002,-1.98015E-001,1.28014E-001,1.13575E+000,-1.59652E-002,0.00000E+000,1.30448E-002,9.52483E-001,0.00000E+000,-1.15008E-002,-8.62881E-002,1.00000E+000,19
919,1327,3.47099E+000,-5.21261E-001,-2.00731E-002,4.45367E+000,-5.37693E-001,1.07225E-001,4.48729E+000,1.20502E-002,5.12640E-001,0,6.80345E+001,-9.18317E+000,9.98862E-001,2.39679E+001,-4.35901E+001,9.96935E-001,1.25431E-001,-5.23283E-002,-8.71762E-004,1.25435E-001,-5.23326E-002,-2.80980E-001,1.26007E-001,1.13357E+000,-1.60225E-002,0.00000E+000,1.25185E-002,9.52469E-001,0.00000E+000,-1.00271E-002,-8.62494E-002,1.00000E+000,19
929,1307,4.22605E+000,-1.70305E+000,1.59464E-001,4.56930E+000,-4.48415E-001,2.15164E-001,4.59629E+000,1.06531E-002,5.15432E-001,0,6.93643E+001,-7.99361E+000,9.99264E-001,2.58326E+001,-4.21378E+001,9.98335E-001,1.28486E-001,-5.26206E-002,1.56391E-004,1.28486E-001,-5.26208E-002,4.94764E-002,1.29185E-001,1.13709E+000,-1.78301E-002,0.00000E+000,1.64198E-002,9.52077E-001,0.00000E+000,-1.60581E-002,-8.54621E-002,1.00000E+000,19
929,1327,4.21777E+000,-4.97467E-001,8.07928E-003,4.54040E+000,-5.23451E-001,9.69793E-002,4.57150E+000,1.00326E-002,4.61147E-001,0,6.93357E+001,-8.95229E+000,9.99212E-001,2.55763E+001,-4.32097E+001,9.98424E-001,1.24629E-001,-5.26288E-002,-3.24070E-005,1.24629E-001,-5.26288E-002,-1.04751E-002,1.25129E-001,1.13266E+000,-1.79011E-002,0.00000E+000,1.58854E-002,9.52069E-001,0.00000E+000,-1.24765E-002,-8.54047E-002,1.00000E+000,19
939,1307,4.96773E+000,-1.68488E+000,1.45188E-001,4.65665E+000,-4.37149E-001,1.90495E-001,4.68100E+000,1.20052E-002,5.20013E-001,0,7.07256E+001,-7.77737E+000,9.99234E-001,2.72739E+001,-4.17293E+001,9.98403E-001,1.27594E-001,-5.22184E-002,5.80787E-004,1.27596E-001,-5.22203E-002,1.85060E-001,1.28295E-001,1.13608E+000,-2.00015E-002,0.00000E+000,1.92279E-002,9.52304E-001,0.00000E+000,-1.84339E-002,-8.40793E-002,1.00000E+000,19
939,1317,4.96095E+000,-1.08691E+000,6.27852E-002,4.64189E+000,-4.77397E-001,1.35690E-001,4.66835E+000,1.23573E-002,4.58822E-001,0,7.06961E+001,-8.30301E+000,9.98893E-001,2.70903E+001,-4.23408E+001,9.97564E-001,1.25844E-001,-5.22204E-002,5.20725E-004,1.25846E-001,-5.22220E-002,1.67551E-001,1.26451E-001,1.13405E+000,-2.00267E-002,0.00000E+000,1.90012E-002,9.52301E-001,0.00000E+000,-1.64070E-002,-8.40540E-002,1.00000E+000,19
939,1327,4.96160E+000,-4.72307E-001,7.69510E-003,4.62744E+000,-5.08407E-001,7.59818E-002,4.65591E+000,9.76523E-003,4.81483E-001,0,7.06796E+001,-8.67358E+000,9.98765E-001,2.70815E+001,-4.27112E+001,9.98056E-001,1.24074E-001,-5.22233E-002,4.50380E-004,1.24076E-001,-5.22244E-002,1.46370E-001,1.24592E-001,1.13202E+000,-2.00744E-002,0.00000E+000,1.87728E-002,9.52296E-001,0.00000E+000,-1.43647E-002,-8.40063E-002,1.00000E+000,19
919,1337,3.48476E+000,9.61248E-002,-3.81600E-002,4.44540E+000,-5.68900E-001,5.09352E-002,4.48194E+000,1.03230E-002,4.76896E-001,0,6.80927E+001,-9.55765E+000,9.98591E-001,2.42437E+001,-4.40293E+001,9.97929E-001,1.23518E-001,-5.23484E-002,-1.12999E-003,1.23525E-001,-5.23557E-002,-3.68120E-001,1.24002E-001,1.13139E+000,-1.60962E-002,0.00000E+000,1.19924E-002,9.52451E-001,0.00000E+000,-8.55389E-003,-8.61996E-002,1.00000E+000,19
929,1337,4.22687E+000,1.14566E-001,-2.57764E-002,4.52990E+000,-5.59369E-001,3.70167E-002,4.56445E+000,9.77949E-003,4.72671E-001,0,6.93771E+001,-9.40234E+000,9.99347E-001,2.57438E+001,-4.36732E+001,9.98818E-001,1.22677E-001,-5.26347E-002,-1.41582E-004,1.22677E-001,-5.26349E-002,-4.62721E-002,1.23088E-001,1.13042E+000,-1.79686E-002,0.00000E+000,1.56164E-002,9.52061E-001,0.00000E+000,-1.06738E-002,-8.53502E-002,1.00000E+000,19
939,1337,4.96817E+000,1.39785E-001,-2.30187E-002,4.61526E+000,-5.43245E-001,2.37421E-002,4.64718E+000,8.69447E-003,4.91486E-001,0,7.06704E+001,-9.13251E+000,9.99242E-001,2.72156E+001,-4.31800E+001,9.98846E-001,1.22297E-001,-5.22265E-002,3.74722E-004,1.22298E-001,-5.22273E-002,1.23020E-001,1.22731E-001,1.12998E+000,-2.01336E-002,0.00000E+000,1.85444E-002,9.52289E-001,0.00000E+000,-1.23224E-002,-8.39470E-002,1.00000E+000,19
949,1317,5.70838E+000,-1.05901E+000,6.38485E-002,4.73237E+000,-4.59059E-001,1.17117E-001,4.75602E+000,1.68134E-002,4.93410E-001,0,7.20801E+001,-7.98921E+000,9.97865E-001,2.86592E+001,-4.17972E+001,9.96313E-001,1.25092E-001,-5.17781E-002,8.87468E-004,1.25096E-001,-5.17825E-002,2.87479E-001,1.25713E-001,1.13319E+000,-2.19760E-002,0.00000E+000,2.14579E-002,9.52531E-001,0.00000E+000,-1.81188E-002,-8.22078E-002,1.00000E+000,19
949,1327,5.70588E+000,-4.47487E-001,5.82696E-003,4.71585E+000,-4.91245E-001,5.97886E-002,4.74174E+000,1.52049E-002,4.70620E-001,0,7.20265E+001,-8.38190E+000,9.98151E-001,2.85949E+001,-4.22303E+001,9.97336E-001,1.23607E-001,-5.17775E-002,8.62707E-004,1.23611E-001,-5.17818E-002,2.81826E-001,1.24152E-001,1.13147E+000,-2.20136E-002,0.00000E+000,2.12810E-002,9.52527E-001,0.00000E+000,-1.57174E-002,-8.21554E-002,1.00000E+000,19
949,1337,5.71070E+000,1.64134E-001,-2.46541E-002,4.70242E+000,-5.26608E-001,1.07456E-002,4.73183E+000,1.09487E-002,4.83678E-001,0,7.19890E+001,-8.85378E+000,9.98834E-001,2.87015E+001,-4.27040E+001,9.98080E-001,1.22110E-001,-5.17769E-002,8.32680E-004,1.22114E-001,-5.17809E-002,2.74360E-001,1.22583E-001,1.12974E+000,-2.20626E-002,0.00000E+000,2.11035E-002,9.52522E-001,0.00000E+000,-1.33092E-002,-8.20872E-002,1.00000E+000,19
949,1307,5.71748E+000,-1.66265E+000,1.46347E-001,4.74915E+000,-4.23691E-001,1.70239E-001,4.77105E+000,1.29657E-002,5.26693E-001,0,7.21464E+001,-7.53412E+000,9.98680E-001,2.88777E+001,-4.12890E+001,9.97737E-001,1.26564E-001,-5.17785E-002,9.04671E-004,1.26568E-001,-5.17831E-002,2.90633E-001,1.27263E-001,1.13491E+000,-2.19554E-002,0.00000E+000,2.16342E-002,9.52533E-001,0.00000E+000,-2.05111E-002,-8.22365E-002,1.00000E+000,19
909,1317,2.72804E+000,-1.14559E+000,1.93685E-002,4.37956E+000,-5.07146E-001,1.64105E-001,4.41188E+000,1.45344E-002,4.50241E-001,0,6.67596E+001,-8.82071E+000,9.96700E-001,2.24698E+001,-4.34506E+001,9.94868E-001,1.28135E-001,-5.26913E-002,-1.37538E-003,1.28145E-001,-5.27017E-002,-4.35764E-001,1.28816E-001,1.13665E+000,-1.39338E-002,0.00000E+000,9.65799E-003,9.52162E-001,0.00000E+000,-8.52424E-003,-8.63363E-002,1.00000E+000,19
909,1327,2.73864E+000,-5.32562E-001,-2.35557E-002,4.37353E+000,-5.41733E-001,1.07819E-001,4.40827E+000,1.10696E-002,4.82811E-001,0,6.68560E+001,-9.23610E+000,9.97844E-001,2.26422E+001,-4.38696E+001,9.97409E-001,1.26287E-001,-5.27058E-002,-1.60892E-003,1.26302E-001,-5.27203E-002,-5.14960E-001,1.26875E-001,1.13455E+000,-1.39871E-002,0.00000E+000,9.20064E-003,9.52150E-001,0.00000E+000,-7.57182E-003,-8.63121E-002,1.00000E+000,19
909,1337,2.75099E+000,8.83443E-002,-4.09461E-002,4.36372E+000,-5.72327E-001,5.12492E-002,4.40139E+000,1.20487E-002,5.31395E-001,0,6.68902E+001,-9.59575E+000,9.98517E-001,2.28987E+001,-4.42158E+001,9.98191E-001,1.24430E-001,-5.27238E-002,-1.85100E-003,1.24449E-001,-5.27431E-002,-5.98572E-001,1.24930E-001,1.13244E+000,-1.40582E-002,0.00000E+000,8.74189E-003,9.52135E-001,0.00000E+000,-6.61649E-003,-8.62800E-002,1.00000E+000,19
909,1307,2.73602E+000,-1.74179E+000,1.28498E-001,4.38932E+000,-4.68543E-001,2.17628E-001,4.41962E+000,1.47361E-002,4.30797E-001,0,6.67176E+001,-8.29737E+000,9.97064E-001,2.27322E+001,-4.29042E+001,9.93375E-001,1.29956E-001,-5.26857E-002,-1.16506E-003,1.29964E-001,-5.26931E-002,-3.65464E-001,1.30736E-001,1.13873E+000,-1.39278E-002,0.00000E+000,1.01099E-002,9.52163E-001,0.00000E+000,-9.46531E-003,-8.63389E-002,1.00000E+000,19
919,1347,3.50571E+000,7.21802E-001,-4.75964E-002,4.44106E+000,-5.95769E-001,-1.16128E-002,4.48086E+000,1.57490E-002,4.99744E-001,0,6.82284E+001,-9.85606E+000,9.99185E-001,2.46502E+001,-4.43318E+001,9.98771E-001,1.21591E-001,-5.23707E-002,-1.39427E-003,1.21602E-001,-5.23819E-002,-4.59177E-001,1.21990E-001,1.12920E+000,-1.61807E-002,0.00000E+000,1.14640E-002,9.52431E-001,0.00000E+000,-7.07430E-003,-8.61424E-002,1.00000E+000,19
929,1347,4.24399E+000,7.35453E-001,-2.97132E-002,4.52223E+000,-5.90033E-001,-1.68492E-002,4.56059E+000,8.74712E-003,4.71807E-001,0,6.94352E+001,-9.77902E+000,9.99323E-001,2.61007E+001,-4.40726E+001,9.99075E-001,1.20713E-001,-5.26418E-002,-2.59064E-004,1.20713E-001,-5.26421E-002,-8.56235E-002,1.21042E-001,1.12819E+000,-1.80538E-002,0.00000E+000,1.53467E-002,9.52050E-001,0.00000E+000,-8.86625E-003,-8.52813E-002,1.00000E+000,19
939,1347,4.98627E+000,7.61167E-001,-1.94739E-002,4.60888E+000,-5.73519E-001,-2.03327E-002,4.64447E+000,1.32818E-002,5.05221E-001,0,7.07156E+001,-9.52980E+000,9.99066E-001,2.76018E+001,-4.35794E+001,9.98288E-001,1.20506E-001,-5.22303E-002,2.90640E-004,1.20506E-001,-5.22308E-002,9.64039E-002,1.20861E-001,1.12793E+000,-2.02109E-002,0.00000E+000,1.83150E-002,9.52281E-001,0.00000E+000,-1.02716E-002,-8.38696E-002,1.00000E+000,19
949,1347,5.73205E+000,7.84440E-001,-1.07209E-002,4.69723E+000,-5.60331E-001,-3.12630E-002,4.73064E+000,1.07956E-002,5.01161E-001,0,7.20459E+001,-9.29716E+000,9.98499E-001,2.91576E+001,-4.31390E+001,9.97890E-001,1.20596E-001,-5.17762E-002,7.92588E-004,1.20599E-001,-5.17798E-002,2.63446E-001,1.21000E-001,1.12800E+000,-2.21338E-002,0.00000E+000,2.09249E-002,9.52515E-001,0.00000E+000,-1.08856E-002,-8.19880E-002,1.00000E+000,19
959,1317,6.44857E+000,-1.03848E+000,4.95959E-002,4.81705E+000,-4.45596E-001,9.18667E-002,4.83849E+000,1.49654E-002,4.84115E-001,0,7.34010E+001,-7.73383E+000,9.98257E-001,3.00877E+001,-4.13576E+001,9.97423E-001,1.24444E-001,-5.12534E-002,9.90595E-004,1.24450E-001,-5.12590E-002,3.23024E-001,1.25092E-001,1.13243E+000,-2.40053E-002,0.00000E+000,2.33997E-002,9.52829E-001,0.00000E+000,-1.88690E-002,-8.01217E-002,1.00000E+000,19
959,1327,6.44692E+000,-4.26687E-001,-1.27692E-002,4.80306E+000,-4.76756E-001,3.82685E-002,4.82682E+000,2.08179E-002,4.95636E-001,0,7.33752E+001,-8.13375E+000,9.99148E-001,3.00272E+001,-4.17579E+001,9.98390E-001,1.23172E-001,-5.12483E-002,1.02629E-003,1.23178E-001,-5.12543E-002,3.37114E-001,1.23754E-001,1.13094E+000,-2.40340E-002,0.00000E+000,2.33232E-002,9.52827E-001,0.00000E+000,-1.63306E-002,-8.00728E-002,1.00000E+000,19
959,1337,6.45486E+000,1.85123E-001,-2.98778E-002,4.79037E+000,-5.14460E-001,-7.32385E-003,4.81793E+000,1.63606E-002,4.86666E-001,0,7.33373E+001,-8.62523E+000,9.98484E-001,3.02088E+001,-4.22665E+001,9.97750E-001,1.21884E-001,-5.12415E-002,1.05367E-003,1.21890E-001,-5.12479E-002,3.48693E-001,1.22403E-001,1.12945E+000,-2.40819E-002,0.00000E+000,2.32462E-002,9.52825E-001,0.00000E+000,-1.37776E-002,-7.99910E-002,1.00000E+000,19
959,1307,6.45537E+000,-1.64074E+000,1.33050E-001,4.83242E+000,-4.07220E-001,1.49481E-001,4.85185E+000,1.13096E-002,5.05791E-001,0,7.34282E+001,-7.24971E+000,9.98587E-001,3.02728E+001,-4.08381E+001,9.97834E-001,1.25707E-001,-5.12578E-002,9.50960E-004,1.25712E-001,-5.12629E-002,3.07880E-001,1.26423E-001,1.13392E+000,-2.39854E-002,0.00000E+000,2.34761E-002,9.52830E-001,0.00000E+000,-2.14034E-002,-8.01556E-002,1.00000E+000,19
959,1347,6.47151E+000,8.01528E-001,-2.68771E-002,4.78240E+000,-5.49846E-001,-5.08967E-002,4.81417E+000,1.16068E-002,4.82379E-001,0,7.33601E+001,-9.09681E+000,9.98377E-001,3.05673E+001,-4.27474E+001,9.98071E-001,1.20586E-001,-5.12340E-002,1.07666E-003,1.20593E-001,-5.12407E-002,3.59008E-001,1.21045E-001,1.12795E+000,-2.41390E-002,0.00000E+000,2.31692E-002,9.52822E-001,0.00000E+000,-1.12211E-002,-7.98933E-002,1.00000E+000,19
909,1347,2.77300E+000,7.11964E-001,-3.29891E-002,4.35854E+000,-6.00758E-001,-3.90138E-003,4.39975E+000,1.40241E-002,5.16560E-001,0,6.69857E+001,-9.94231E+000,9.99082E-001,2.33608E+001,-4.46086E+001,9.98093E-001,1.22571E-001,-5.27448E-002,-2.09996E-003,1.22596E-001,-5.27699E-002,-6.86167E-001,1.22991E-001,1.13033E+000,-1.41453E-002,0.00000E+000,8.28400E-003,9.52116E-001,0.00000E+000,-5.66296E-003,-8.62406E-002,1.00000E+000,19
899,1327,2.00619E+000,-5.33806E-001,1.06538E-002,4.28476E+000,-5.42922E-001,1.08354E-001,4.32037E+000,7.87721E-003,4.95109E-001,0,6.55371E+001,-9.23722E+000,9.98517E-001,2.14038E+001,-4.40544E+001,9.98450E-001,1.26892E-001,-5.30143E-002,-2.22203E-003,1.26919E-001,-5.30418E-002,-7.07520E-001,1.27488E-001,1.13524E+000,-1.20348E-002,0.00000E+000,6.19018E-003,9.51911E-001,0.00000E+000,-5.02522E-003,-8.66951E-002,1.00000E+000,19
899,1337,2.02149E+000,8.24070E-002,-2.97922E-002,4.28178E+000,-5.73814E-001,4.59228E-002,4.32030E+000,1.23903E-002,5.10970E-001,0,6.56970E+001,-9.59941E+000,9.99311E-001,2.16556E+001,-4.44412E+001,9.99112E-001,1.25221E-001,-5.30257E-002,-2.40784E-003,1.25253E-001,-5.30582E-002,-7.73790E-001,1.25740E-001,1.13335E+000,-1.20874E-002,0.00000E+000,5.86039E-003,9.51902E-001,0.00000E+000,-4.58074E-003,-8.66828E-002,1.00000E+000,19
899,1347,2.04918E+000,7.03761E-001,-1.94274E-002,4.28244E+000,-6.04687E-001,-6.96489E-003,4.32493E+000,1.07701E-002,5.04073E-001,0,6.58741E+001,-9.98778E+000,9.99186E-001,2.22120E+001,-4.48715E+001,9.98815E-001,1.23541E-001,-5.30412E-002,-2.60529E-003,1.23580E-001,-5.30796E-002,-8.45092E-001,1.23989E-001,1.13144E+000,-1.21651E-002,0.00000E+000,5.52949E-003,9.51889E-001,0.00000E+000,-4.13475E-003,-8.66646E-002,1.00000E+000,19
899,1317,2.00187E+000,-1.14125E+000,7.47393E-002,4.29309E+000,-5.07076E-001,1.67992E-001,4.32620E+000,1.06601E-002,5.05018E-001,0,6.54628E+001,-8.80653E+000,9.98356E-001,2.13753E+001,-4.35701E+001,9.96943E-001,1.28555E-001,-5.30056E-002,-2.04384E-003,1.28578E-001,-5.30286E-002,-6.44874E-001,1.29233E-001,1.13714E+000,-1.19983E-002,0.00000E+000,6.51898E-003,9.51918E-001,0.00000E+000,-5.46838E-003,-8.67037E-002,1.00000E+000,19
899,1307,2.00132E+000,-1.74008E+000,1.64694E-001,4.29954E+000,-4.66966E-001,2.26912E-001,4.33078E+000,1.09682E-002,4.40826E-001,0,6.53566E+001,-8.26160E+000,9.98332E-001,2.14643E+001,-4.30442E+001,9.95806E-001,1.30209E-001,-5.29995E-002,-1.87341E-003,1.30228E-001,-5.30187E-002,-5.85803E-001,1.30974E-001,1.13902E+000,-1.19779E-002,0.00000E+000,6.84653E-003,9.51921E-001,0.00000E+000,-5.90985E-003,-8.67085E-002,1.00000E+000,19
889,1327,1.27169E+000,-5.40257E-001,2.14122E-002,4.19828E+000,-5.45676E-001,1.07546E-001,4.23496E+000,6.91495E-003,5.10761E-001,0,6.42597E+001,-9.26927E+000,9.99001E-001,2.00864E+001,-4.42678E+001,9.98785E-001,1.27559E-001,-5.24583E-002,-2.86559E-003,1.27605E-001,-5.25039E-002,-9.11747E-001,1.28270E-001,1.13601E+000,-1.04030E-002,0.00000E+000,3.37383E-003,9.52523E-001,0.00000E+000,-2.24055E-003,-8.74990E-002,1.00000E+000,19
889,1337,1.28177E+000,7.59009E-002,-1.98550E-002,4.19136E+000,-5.74997E-001,4.95316E-002,4.23091E+000,1.10866E-002,5.14099E-001,0,6.43435E+001,-9.61990E+000,9.99308E-001,2.02565E+001,-4.46625E+001,9.99002E-001,1.25955E-001,-5.24587E-002,-2.89640E-003,1.26002E-001,-5.25057E-002,-9.29822E-001,1.26584E-001,1.13419E+000,-1.04499E-002,0.00000E+000,3.40952E-003,9.52524E-001,0.00000E+000,-2.73565E-003,-8.75118E-002,1.00000E+000,19
889,1347,1.31043E+000,6.94853E-001,-1.18649E-002,4.19378E+000,-6.07539E-001,-3.07809E-003,4.23756E+000,9.58573E-003,5.00447E-001,0,6.45466E+001,-1.00332E+001,9.99028E-001,2.08242E+001,-4.51299E+001,9.98706E-001,1.24341E-001,-5.24592E-002,-2.93844E-003,1.24390E-001,-5.25080E-002,-9.51912E-001,1.24892E-001,1.13237E+000,-1.05221E-002,0.00000E+000,3.44537E-003,9.52525E-001,0.00000E+000,-3.23307E-003,-8.75314E-002,1.00000E+000,19
969,1297,7.21830E+000,-2.21726E+000,2.26493E-001,4.94068E+000,-3.53948E-001,1.72769E-001,4.95635E+000,1.57625E-002,4.49966E-001,0,7.49229E+001,-6.44185E+000,9.99123E-001,3.21882E+001,-3.98851E+001,9.97848E-001,1.25872E-001,-5.09714E-002,8.60604E-004,1.25876E-001,-5.09756E-002,2.78820E-001,1.26631E-001,1.13413E+000,-2.57367E-002,0.00000E+000,2.49482E-002,9.52892E-001,0.00000E+000,-2.44082E-002,-7.77459E-002,1.00000E+000,19
969,1307,7.19749E+000,-1.62400E+000,1.24313E-001,4.91787E+000,-3.98128E-001,1.26335E-001,4.93558E+000,2.56480E-002,4.79985E-001,0,7.47519E+001,-7.05370E+000,9.98636E-001,3.17466E+001,-4.04790E+001,9.96892E-001,1.24834E-001,-5.09664E-002,9.41181E-004,1.24839E-001,-5.09714E-002,3.06732E-001,1.25537E-001,1.13289E+000,-2.57406E-002,0.00000E+000,2.49283E-002,9.52892E-001,0.00000E+000,-2.17215E-002,-7.77375E-002,1.00000E+000,19
969,1317,7.19259E+000,-1.02167E+000,4.96657E-002,4.90335E+000,-4.36661E-001,7.30692E-002,4.92329E+000,1.04845E-002,4.61578E-001,0,7.47230E+001,-7.56152E+000,9.99280E-001,3.16093E+001,-4.10126E+001,9.98795E-001,1.23787E-001,-5.09590E-002,1.01540E-003,1.23793E-001,-5.09649E-002,3.32913E-001,1.24435E-001,1.13165E+000,-2.57593E-002,0.00000E+000,2.49083E-002,9.52891E-001,0.00000E+000,-1.90314E-002,-7.76970E-002,1.00000E+000,19
889,1317,1.26419E+000,-1.14613E+000,8.68439E-002,4.20287E+000,-5.08883E-001,1.66380E-001,4.23683E+000,9.61261E-003,5.34195E-001,0,6.41314E+001,-8.82703E+000,9.99027E-001,2.00119E+001,-4.37537E+001,9.98337E-001,1.29158E-001,-5.24581E-002,-2.84073E-003,1.29202E-001,-5.25025E-002,-8.95896E-001,1.29955E-001,1.13783E+000,-1.03695E-002,0.00000E+000,3.33820E-003,9.52522E-001,0.00000E+000,-1.74638E-003,-8.74899E-002,1.00000E+000,19
969,1327,7.18921E+000,-4.07760E-001,-6.15227E-003,4.88692E+000,-4.66211E-001,2.33481E-002,4.90917E+000,1.27171E-002,4.85568E-001,0,7.46467E+001,-7.95286E+000,9.98988E-001,3.15354E+001,-4.13867E+001,9.98795E-001,1.22730E-001,-5.09507E-002,1.08667E-003,1.22736E-001,-5.09575E-002,3.58464E-001,1.23324E-001,1.13040E+000,-2.57847E-002,0.00000E+000,2.48884E-002,9.52891E-001,0.00000E+000,-1.63353E-002,-7.76421E-002,1.00000E+000,19
889,1307,1.26016E+000,-1.74622E+000,1.78416E-001,4.20513E+000,-4.70838E-001,2.23918E-001,4.23733E+000,1.25865E-002,4.76565E-001,0,6.39674E+001,-8.31158E+000,9.98632E-001,2.00510E+001,-4.32459E+001,9.96436E-001,1.30747E-001,-5.24579E-002,-2.82289E-003,1.30790E-001,-5.25014E-002,-8.82557E-001,1.31635E-001,1.13964E+000,-1.03519E-002,0.00000E+000,3.30273E-003,9.52522E-001,0.00000E+000,-1.25424E-003,-8.74851E-002,1.00000E+000,19
969,1337,7.19569E+000,2.01189E-001,-3.66297E-002,4.87482E+000,-5.03823E-001,-2.59217E-002,4.90086E+000,1.33050E-002,4.21368E-001,0,7.46333E+001,-8.43531E+000,9.98885E-001,3.16657E+001,-4.19364E+001,9.98296E-001,1.21662E-001,-5.09407E-002,1.15312E-003,1.21669E-001,-5.09484E-002,3.82758E-001,1.22204E-001,1.12916E+000,-2.58209E-002,0.00000E+000,2.48683E-002,9.52890E-001,0.00000E+000,-1.36341E-002,-7.75638E-002,1.00000E+000,19
969,1347,7.20535E+000,8.29416E-001,-3.94092E-002,4.86111E+000,-5.28292E-001,-6.86264E-002,4.89022E+000,1.13242E-002,4.74554E-001,0,7.45637E+001,-8.74265E+000,9.98724E-001,3.19039E+001,-4.21923E+001,9.98094E-001,1.20578E-001,-5.09292E-002,1.21568E-003,1.20587E-001,-5.09378E-002,4.06098E-001,1.21070E-001,1.12790E+000,-2.58664E-002,0.00000E+000,2.48481E-002,9.52890E-001,0.00000E+000,-1.09140E-002,-7.74653E-002,1.00000E+000,19
879,1327,5.40733E-001,-5.43043E-001,3.82712E-002,4.11481E+000,-5.44575E-001,1.12156E-001,4.15221E+000,9.89765E-003,5.20265E-001,0,6.30071E+001,-9.25542E+000,9.99035E-001,1.88431E+001,-4.44406E+001,9.98765E-001,1.28169E-001,-5.26684E-002,-3.25798E-003,1.28228E-001,-5.27271E-002,-1.03180E+000,1.28900E-001,1.13672E+000,-8.99108E-003,0.00000E+000,1.27781E-003,9.52288E-001,0.00000E+000,-2.15219E-004,-8.69860E-002,1.00000E+000,19
879,1337,5.50807E-001,6.90326E-002,-1.05995E-002,4.10855E+000,-5.77090E-001,4.89838E-002,4.14917E+000,9.70964E-003,5.09934E-001,0,6.31183E+001,-9.64227E+000,9.98595E-001,1.89960E+001,-4.48906E+001,9.98383E-001,1.26723E-001,-5.26661E-002,-3.23993E-003,1.26781E-001,-5.27246E-002,-1.03436E+000,1.27378E-001,1.13508E+000,-9.03180E-003,0.00000E+000,1.43860E-003,9.52292E-001,0.00000E+000,-1.20123E-003,-8.70105E-002,1.00000E+000,19
879,1347,5.74618E-001,6.90937E-001,-1.01124E-002,4.10762E+000,-6.06939E-001,-4.80831E-003,4.15222E+000,1.18733E-002,5.24035E-001,0,6.32731E+001,-1.00027E+001,9.98493E-001,1.94739E+001,-4.52846E+001,9.98289E-001,1.25263E-001,-5.26628E-002,-3.23081E-003,1.25322E-001,-5.27214E-002,-1.03993E+000,1.25847E-001,1.13342E+000,-9.09330E-003,0.00000E+000,1.60050E-003,9.52298E-001,0.00000E+000,-2.19404E-003,-8.70473E-002,1.00000E+000,19
879,1307,5.20460E-001,-1.74674E+000,1.95385E-001,4.11123E+000,-4.69232E-001,2.21414E-001,4.14384E+000,1.39457E-002,4.82533E-001,0,6.25800E+001,-8.26670E+000,9.98118E-001,1.86741E+001,-4.33825E+001,9.96505E-001,1.31042E-001,-5.26712E-002,-3.31121E-003,1.31102E-001,-5.27309E-002,-1.03224E+000,1.31935E-001,1.14000E+000,-8.94909E-003,0.00000E+000,9.57467E-004,9.52283E-001,0.00000E+000,1.74924E-003,-8.69608E-002,1.00000E+000,19
879,1317,5.29375E-001,-1.14792E+000,1.05689E-001,4.11526E+000,-5.06429E-001,1.72035E-001,4.14987E+000,1.00324E-002,4.55907E-001,0,6.28127E+001,-8.76081E+000,9.99026E-001,1.87143E+001,-4.39575E+001,9.98267E-001,1.29613E-001,-5.26702E-002,-3.28098E-003,1.29672E-001,-5.27293E-002,-1.03085E+000,1.30423E-001,1.13836E+000,-8.96153E-003,0.00000E+000,1.11704E-003,9.52285E-001,0.00000E+000,7.70670E-004,-8.69683E-002,1.00000E+000,19
979,1307,7.96100E+000,-1.60320E+000,1.37023E-001,5.02104E+000,-3.87030E-001,1.10483E-001,5.03715E+000,1.53104E-002,4.74007E-001,0,7.63148E+001,-6.85409E+000,9.99534E-001,3.36002E+001,-4.00902E+001,9.99257E-001,1.24044E-001,-5.06589E-002,8.88880E-004,1.24048E-001,-5.06634E-002,2.91509E-001,1.24740E-001,1.13195E+000,-2.71592E-002,0.00000E+000,2.59347E-002,9.52964E-001,0.00000E+000,-2.09363E-002,-7.50797E-002,1.00000E+000,19
979,1317,7.94296E+000,-9.95760E-001,5.45387E-002,4.99489E+000,-4.20053E-001,5.65739E-002,5.01284E+000,8.83792E-003,4.68689E-001,0,7.61120E+001,-7.27486E+000,9.99175E-001,3.32443E+001,-4.05216E+001,9.98818E-001,1.23298E-001,-5.06492E-002,1.00328E-003,1.23304E-001,-5.06550E-002,3.30452E-001,1.23956E-001,1.13105E+000,-2.71706E-002,0.00000E+000,2.59946E-002,9.52965E-001,0.00000E+000,-1.83556E-002,-7.50470E-002,1.00000E+000,19
979,1327,7.93396E+000,-3.85824E-001,-5.97173E-003,4.97364E+000,-4.52800E-001,6.15103E-003,4.99422E+000,1.02236E-002,4.48038E-001,0,7.59680E+001,-7.69843E+000,9.98288E-001,3.30731E+001,-4.09684E+001,9.97581E-001,1.22545E-001,-5.06378E-002,1.11513E-003,1.22552E-001,-5.06450E-002,3.68909E-001,1.23165E-001,1.13015E+000,-2.71878E-002,0.00000E+000,2.60545E-002,9.52966E-001,0.00000E+000,-1.57716E-002,-7.49975E-002,1.00000E+000,19
979,1337,7.93521E+000,2.29675E-001,-4.25621E-002,4.95849E+000,-4.83027E-001,-3.88823E-002,4.98212E+000,1.38078E-002,4.52886E-001,0,7.58933E+001,-8.10370E+000,9.97525E-001,3.31098E+001,-4.13681E+001,9.96763E-001,1.21782E-001,-5.06247E-002,1.22448E-003,1.21791E-001,-5.06334E-002,4.06903E-001,1.22366E-001,1.12925E+000,-2.72108E-002,0.00000E+000,2.61146E-002,9.52968E-001,0.00000E+000,-1.31810E-002,-7.49312E-002,1.00000E+000,19
979,1347,7.94370E+000,8.55745E-001,-3.82201E-002,4.94209E+000,-5.09397E-001,-8.05669E-002,4.96893E+000,1.40182E-002,4.69747E-001,0,7.57796E+001,-8.44592E+000,9.96761E-001,3.33424E+001,-4.16896E+001,9.95996E-001,1.21008E-001,-5.06082E-002,1.32906E-003,1.21018E-001,-5.06185E-002,4.43685E-001,1.21556E-001,1.12835E+000,-2.72457E-002,0.00000E+000,2.61750E-002,9.52970E-001,0.00000E+000,-1.05750E-002,-7.48305E-002,1.00000E+000,19
979,1297,7.96281E+000,-2.19567E+000,2.20450E-001,5.02936E+000,-3.39580E-001,1.58154E-001,5.04329E+000,1.27490E-002,4.68881E-001,0,7.62620E+001,-6.19598E+000,9.99287E-001,3.37088E+001,-3.94361E+001,9.98722E-001,1.24782E-001,-5.06678E-002,7.73317E-004,1.24785E-001,-5.06713E-002,2.52532E-001,1.25517E-001,1.13284E+000,-2.71501E-002,0.00000E+000,2.58748E-002,9.52964E-001,0.00000E+000,-2.35170E-002,-7.51060E-002,1.00000E+000,19
869,1317,-2.14856E-001,-1.14880E+000,1.02750E-001,4.01942E+000,-5.03286E-001,1.63622E-001,4.05411E+000,8.07375E-003,4.81729E-001,0,6.14132E+001,-8.68436E+000,9.99186E-001,1.72266E+001,-4.40500E+001,9.98126E-001,1.29791E-001,-5.29380E-002,-3.40180E-003,1.29854E-001,-5.30014E-002,-1.06616E+000,1.30582E-001,1.13858E+000,-7.41437E-003,0.00000E+000,-5.31995E-004,9.51993E-001,0.00000E+000,2.40272E-003,-8.65065E-002,1.00000E+000,19
869,1327,-2.01746E-001,-5.43578E-001,3.85379E-002,4.02120E+000,-5.39655E-001,1.08588E-001,4.05870E+000,1.03107E-002,5.41818E-001,0,6.16240E+001,-9.17499E+000,9.98776E-001,1.73898E+001,-4.45384E+001,9.98245E-001,1.28596E-001,-5.29362E-002,-3.36997E-003,1.28658E-001,-5.29988E-002,-1.06316E+000,1.29322E-001,1.13722E+000,-7.43794E-003,0.00000E+000,-3.32320E-004,9.51997E-001,0.00000E+000,1.03752E-003,-8.65301E-002,1.00000E+000,19
869,1337,-1.86072E-001,6.52369E-002,-2.03275E-003,4.02007E+000,-5.76189E-001,5.08715E-002,4.06147E+000,1.12449E-002,5.28009E-001,0,6.17955E+001,-9.62608E+000,9.98117E-001,1.76479E+001,-4.50597E+001,9.97753E-001,1.27394E-001,-5.29337E-002,-3.34297E-003,1.27456E-001,-5.29956E-002,-1.06168E+000,1.28057E-001,1.13585E+000,-7.47271E-003,0.00000E+000,-1.32031E-004,9.52002E-001,0.00000E+000,-3.31867E-004,-8.65649E-002,1.00000E+000,19
869,1347,-1.65547E-001,6.87679E-001,-1.18598E-002,4.01859E+000,-6.02165E-001,-1.22754E-003,4.06345E+000,1.47605E-002,5.06544E-001,0,6.19359E+001,-9.93301E+000,9.98563E-001,1.80536E+001,-4.54429E+001,9.98131E-001,1.26186E-001,-5.29304E-002,-3.32063E-003,1.26247E-001,-5.29920E-002,-1.06172E+000,1.26788E-001,1.13448E+000,-7.51814E-003,0.00000E+000,6.86815E-005,9.52009E-001,0.00000E+000,-1.70416E-003,-8.66104E-002,1.00000E+000,19
869,1307,-2.19815E-001,-1.74618E+000,2.03727E-001,4.01880E+000,-4.64626E-001,2.21874E-001,4.05165E+000,1.14835E-002,5.09723E-001,0,6.12038E+001,-8.19725E+000,9.98377E-001,1.72740E+001,-4.34739E+001,9.97215E-001,1.30976E-001,-5.29389E-002,-3.43968E-003,1.31041E-001,-5.30032E-002,-1.07107E+000,1.31835E-001,1.13994E+000,-7.40514E-003,0.00000E+000,-7.30655E-004,9.51992E-001,0.00000E+000,3.76097E-003,-8.64973E-002,1.00000E+000,19
989,1307,8.69452E+000,-1.57063E+000,1.22468E-001,5.09775E+000,-3.61430E-001,8.53185E-002,5.11126E+000,1.23741E-002,4.89417E-001,0,7.75047E+001,-6.42103E+000,9.98865E-001,3.49401E+001,-3.94545E+001,9.98198E-001,1.23370E-001,-5.05768E-002,7.58981E-004,1.23373E-001,-5.05801E-002,2.49992E-001,1.24038E-001,1.13113E+000,-2.79996E-002,0.00000E+000,2.62523E-002,9.52865E-001,0.00000E+000,-1.92987E-002,-7.27339E-002,1.00000E+000,19
989,1317,8.67392E+000,-9.61113E-001,3.99399E-002,5.07017E+000,-3.93527E-001,3.68869E-002,5.08555E+000,1.23198E-002,5.39436E-001,0,7.72627E+001,-6.84048E+000,9.99127E-001,3.45445E+001,-3.98245E+001,9.98448E-001,1.22885E-001,-5.05641E-002,9.23560E-004,1.22890E-001,-5.05691E-002,3.05070E-001,1.23530E-001,1.13053E+000,-2.80061E-002,0.00000E+000,2.64099E-002,9.52867E-001,0.00000E+000,-1.67976E-002,-7.27068E-002,1.00000E+000,19
989,1327,8.67624E+000,-3.53579E-001,-7.14017E-003,5.05818E+000,-4.30977E-001,-8.69266E-003,5.07651E+000,1.59457E-002,5.33892E-001,0,7.72436E+001,-7.34339E+000,9.98445E-001,3.45750E+001,-4.03266E+001,9.97178E-001,1.22393E-001,-5.05475E-002,1.08530E-003,1.22400E-001,-5.05543E-002,3.59544E-001,1.23015E-001,1.12994E+000,-2.80194E-002,0.00000E+000,2.65677E-002,9.52871E-001,0.00000E+000,-1.42931E-002,-7.26510E-002,1.00000E+000,19
989,1297,8.71068E+000,-2.17219E+000,2.17070E-001,5.11962E+000,-3.22815E-001,1.40257E-001,5.13171E+000,1.11884E-002,4.81722E-001,0,7.76332E+001,-5.92433E+000,9.98816E-001,3.52917E+001,-3.89660E+001,9.97893E-001,1.23847E-001,-5.05887E-002,5.93981E-004,1.23849E-001,-5.05907E-002,1.95098E-001,1.24539E-001,1.13172E+000,-2.79944E-002,0.00000E+000,2.60949E-002,9.52864E-001,0.00000E+000,-2.17957E-002,-7.27562E-002,1.00000E+000,19
989,1337,8.67757E+000,2.58264E-001,-3.22787E-002,5.04023E+000,-4.64754E-001,-5.46038E-002,5.06191E+000,1.21157E-002,4.53955E-001,0,7.71298E+001,-7.79220E+000,9.97318E-001,3.46348E+001,-4.08486E+001,9.97215E-001,1.21895E-001,-5.05280E-002,1.24451E-003,1.21904E-001,-5.05370E-002,4.13519E-001,1.22496E-001,1.12935E+000,-2.80372E-002,0.00000E+000,2.67252E-002,9.52875E-001,0.00000E+000,-1.17926E-002,-7.25759E-002,1.00000E+000,19
989,1347,8.68565E+000,8.82868E-001,-3.15295E-002,5.02553E+000,-4.90425E-001,-8.98917E-002,5.05020E+000,1.24941E-002,4.57999E-001,0,7.70215E+001,-8.14677E+000,9.98660E-001,3.48519E+001,-4.11900E+001,9.98769E-001,1.21388E-001,-5.05066E-002,1.40288E-003,1.21400E-001,-5.05181E-002,4.67564E-001,1.21968E-001,1.12875E+000,-2.80583E-002,0.00000E+000,2.68836E-002,9.52881E-001,0.00000E+000,-9.27860E-003,-7.24871E-002,1.00000E+000,19
859,1327,-9.40953E-001,-5.42580E-001,3.41410E-002,3.93023E+000,-5.33972E-001,9.94566E-002,3.96759E+000,9.76845E-003,5.35316E-001,0,6.02972E+001,-9.04689E+000,9.98331E-001,1.59812E+001,-4.46164E+001,9.97887E-001,1.28852E-001,-5.30557E-002,-3.29838E-003,1.28911E-001,-5.31154E-002,-1.03844E+000,1.29575E-001,1.13752E+000,-6.08966E-003,0.00000E+000,-1.36006E-003,9.51834E-001,0.00000E+000,1.57363E-003,-8.59488E-002,1.00000E+000,19
859,1337,-9.22436E-001,6.81252E-002,-4.15201E-003,3.93224E+000,-5.67558E-001,4.46743E-002,3.97324E+000,1.14520E-002,5.35768E-001,0,6.05052E+001,-9.47740E+000,9.98217E-001,1.62893E+001,-4.51076E+001,9.97558E-001,1.27931E-001,-5.30547E-002,-3.29243E-003,1.27990E-001,-5.31145E-002,-1.04185E+000,1.28606E-001,1.13647E+000,-6.11588E-003,0.00000E+000,-1.19408E-003,9.51839E-001,0.00000E+000,-6.65410E-007,-8.59882E-002,1.00000E+000,19
859,1347,-9.00541E-001,6.83680E-001,-1.04026E-002,3.93167E+000,-6.00696E-001,-6.94302E-003,3.97730E+000,1.59415E-002,5.04725E-001,0,6.06590E+001,-9.89089E+000,9.98889E-001,1.67245E+001,-4.56112E+001,9.98383E-001,1.27003E-001,-5.30533E-002,-3.29061E-003,1.27063E-001,-5.31134E-002,-1.04664E+000,1.27631E-001,1.13542E+000,-6.15148E-003,0.00000E+000,-1.02746E-003,9.51844E-001,0.00000E+000,-1.58094E-003,-8.60416E-002,1.00000E+000,19
859,1307,-9.60305E-001,-1.74305E+000,2.05565E-001,3.92614E+000,-4.59056E-001,2.17905E-001,3.95889E+000,1.42765E-002,6.04817E-001,0,5.98363E+001,-8.10812E+000,9.98541E-001,1.58606E+001,-4.34780E+001,9.97990E-001,1.30673E-001,-5.30567E-002,-3.32237E-003,1.30733E-001,-5.31167E-002,-1.03562E+000,1.31496E-001,1.13961E+000,-6.06513E-003,0.00000E+000,-1.69013E-003,9.51831E-001,0.00000E+000,4.70414E-003,-8.59120E-002,1.00000E+000,19
859,1317,-9.50696E-001,-1.15103E+000,1.01833E-001,3.93141E+000,-5.02494E-001,1.56599E-001,3.96648E+000,1.09326E-002,5.22266E-001,0,6.01273E+001,-8.64192E+000,9.98405E-001,1.58770E+001,-4.41597E+001,9.97260E-001,1.29766E-001,-5.30563E-002,-3.30815E-003,1.29825E-001,-5.31162E-002,-1.03631E+000,1.30538E-001,1.13856E+000,-6.07222E-003,0.00000E+000,-1.52539E-003,9.51832E-001,0.00000E+000,3.14172E-003,-8.59227E-002,1.00000E+000,19
999,1337,9.41562E+000,2.81802E-001,-3.57645E-002,5.12328E+000,-4.45651E-001,-5.73431E-002,5.14295E+000,1.01762E-002,4.15058E-001,0,7.83426E+001,-7.50816E+000,9.99423E-001,3.60689E+001,-4.03978E+001,9.98761E-001,1.21860E-001,-5.04777E-002,1.08888E-003,1.21867E-001,-5.04846E-002,3.61993E-001,1.22463E-001,1.12927E+000,-2.84780E-002,0.00000E+000,2.66458E-002,9.52743E-001,0.00000E+000,-9.84709E-003,-6.99468E-002,1.00000E+000,19
999,1347,9.42906E+000,9.08371E-001,-2.78772E-002,5.11150E+000,-4.72505E-001,-9.52748E-002,5.13418E+000,9.27796E-003,4.15123E-001,0,7.82876E+001,-7.85102E+000,9.99457E-001,3.63818E+001,-4.07242E+001,9.98987E-001,1.21611E-001,-5.04554E-002,1.25241E-003,1.21620E-001,-5.04645E-002,4.17005E-001,1.22205E-001,1.12898E+000,-2.84896E-002,0.00000E+000,2.68178E-002,9.52750E-001,0.00000E+000,-7.50140E-003,-6.98559E-002,1.00000E+000,19
999,1307,9.43502E+000,-1.54381E+000,1.15067E-001,5.18101E+000,-3.41644E-001,6.75334E-002,5.19270E+000,8.15472E-003,4.70294E-001,0,7.87688E+001,-6.07647E+000,9.99139E-001,3.64064E+001,-3.89394E+001,9.98833E-001,1.22567E-001,-5.05247E-002,5.94209E-004,1.22569E-001,-5.05267E-002,1.96689E-001,1.23197E-001,1.13016E+000,-2.84604E-002,0.00000E+000,2.61345E-002,9.52733E-001,0.00000E+000,-1.68179E-002,-7.00850E-002,1.00000E+000,19
999,1317,9.42065E+000,-9.36658E-001,3.94996E-002,5.15928E+000,-3.75734E-001,2.45745E-002,5.17300E+000,1.33553E-002,4.97107E-001,0,7.85979E+001,-6.54070E+000,9.98438E-001,3.61212E+001,-3.93698E+001,9.95902E-001,1.22337E-001,-5.05119E-002,7.60301E-004,1.22340E-001,-5.05153E-002,2.52018E-001,1.22957E-001,1.12987E+000,-2.84638E-002,0.00000E+000,2.63049E-002,9.52735E-001,0.00000E+000,-1.44949E-002,-7.00584E-002,1.00000E+000,19
999,1327,9.41811E+000,-3.34285E-001,-1.21697E-002,5.14387E+000,-4.17037E-001,-1.87734E-002,5.16078E+000,1.54057E-002,5.02406E-001,0,7.85226E+001,-7.12191E+000,9.98805E-001,3.60657E+001,-3.99355E+001,9.97120E-001,1.22101E-001,-5.04962E-002,9.25315E-004,1.22106E-001,-5.05012E-002,3.07158E-001,1.22712E-001,1.12957E+000,-2.84697E-002,0.00000E+000,2.64754E-002,9.52738E-001,0.00000E+000,-1.21697E-002,-7.00120E-002,1.00000E+000,19
999,1297,9.45363E+000,-2.15091E+000,2.12065E-001,5.20495E+000,-3.08782E-001,1.22965E-001,5.21555E+000,8.76424E-003,4.90344E-001,0,7.89272E+001,-5.68101E+000,9.98586E-001,3.67991E+001,-3.85294E+001,9.96974E-001,1.22791E-001,-5.05362E-002,4.27728E-004,1.22792E-001,-5.05373E-002,1.41390E-001,1.23431E-001,1.13046E+000,-2.84579E-002,0.00000E+000,2.59642E-002,9.52732E-001,0.00000E+000,-1.91387E-002,-7.01042E-002,1.00000E+000,19
849,1337,-1.66006E+000,6.73830E-002,9.44374E-004,3.84190E+000,-5.65007E-001,4.18188E-002,3.88345E+000,1.36809E-002,5.57137E-001,0,5.91647E+001,-9.40798E+000,9.98776E-001,1.49318E+001,-4.52209E+001,9.98400E-001,1.28233E-001,-5.29048E-002,-3.00446E-003,1.28282E-001,-5.29546E-002,-9.49997E-001,1.28931E-001,1.13682E+000,-4.93920E-003,0.00000E+000,-1.61614E-003,9.51887E-001,0.00000E+000,-1.02876E-004,-8.48505E-002,1.00000E+000,19
849,1347,-1.64260E+000,6.78714E-001,-1.16714E-002,3.83970E+000,-5.99158E-001,-3.48997E-003,3.88617E+000,1.22566E-002,4.98430E-001,0,5.92742E+001,-9.85458E+000,9.98969E-001,1.52846E+001,-4.57920E+001,9.98770E-001,1.27629E-001,-5.29037E-002,-2.99735E-003,1.27679E-001,-5.29535E-002,-9.50922E-001,1.28296E-001,1.13613E+000,-4.95954E-003,0.00000E+000,-1.46015E-003,9.51891E-001,0.00000E+000,-1.63390E-003,-8.48959E-002,1.00000E+000,19
849,1357,-1.61157E+000,1.30394E+000,2.67356E-002,3.84065E+000,-6.29001E-001,-4.84472E-002,3.89211E+000,1.01350E-002,5.02961E-001,0,5.94222E+001,-1.02376E+001,9.99072E-001,1.59679E+001,-4.62310E+001,9.99027E-001,1.27017E-001,-5.29022E-002,-2.99489E-003,1.27067E-001,-5.29520E-002,-9.53377E-001,1.27653E-001,1.13544E+000,-4.99060E-003,0.00000E+000,-1.30266E-003,9.51899E-001,0.00000E+000,-3.17966E-003,-8.49653E-002,1.00000E+000,19
849,1327,-1.67267E+000,-5.38981E-001,3.95774E-002,3.84452E+000,-5.27492E-001,9.13545E-002,3.88161E+000,1.31648E-002,5.44295E-001,0,5.90438E+001,-8.90893E+000,9.98889E-001,1.47158E+001,-4.46669E+001,9.98749E-001,1.28833E-001,-5.29056E-002,-3.01362E-003,1.28883E-001,-5.29555E-002,-9.49737E-001,1.29564E-001,1.13750E+000,-4.92339E-003,0.00000E+000,-1.77209E-003,9.51883E-001,0.00000E+000,1.42781E-003,-8.48151E-002,1.00000E+000,19
1009,1337,1.01605E+001,3.15800E-001,-4.42561E-002,5.21436E+000,-4.18443E-001,-5.74333E-002,5.23144E+000,1.34189E-002,4.48526E-001,0,7.96640E+001,-7.08913E+000,9.99386E-001,3.76042E+001,-3.97372E+001,9.99212E-001,1.21748E-001,-5.04038E-002,8.11898E-004,1.21751E-001,-5.04076E-002,2.70209E-001,1.22350E-001,1.12913E+000,-2.86371E-002,0.00000E+000,2.61216E-002,9.52678E-001,0.00000E+000,-8.04549E-003,-6.77155E-002,1.00000E+000,19
1009,1347,1.01685E+001,9.24911E-001,-3.14552E-002,5.19488E+000,-4.62367E-001,-9.95609E-002,5.21637E+000,9.14562E-003,4.22398E-001,0,7.95127E+001,-7.70246E+000,9.99721E-001,3.78377E+001,-4.03566E+001,9.99456E-001,1.21701E-001,-5.03859E-002,9.40612E-004,1.21706E-001,-5.03911E-002,3.13161E-001,1.22304E-001,1.12906E+000,-2.86398E-002,0.00000E+000,2.62431E-002,9.52683E-001,0.00000E+000,-6.05822E-003,-6.76317E-002,1.00000E+000,19
1009,1297,1.01918E+001,-2.13045E+000,2.02811E-001,5.28656E+000,-2.93568E-001,1.08274E-001,5.29582E+000,1.14667E-002,4.21518E-001,0,8.01551E+001,-5.40242E+000,9.97750E-001,3.82283E+001,-3.81358E+001,9.96366E-001,1.21894E-001,-5.04472E-002,2.96272E-004,1.21894E-001,-5.04477E-002,9.84970E-002,1.22496E-001,1.12938E+000,-2.86330E-002,0.00000E+000,2.56393E-002,9.52670E-001,0.00000E+000,-1.59376E-002,-6.78405E-002,1.00000E+000,19
1009,1307,1.01769E+001,-1.52075E+000,1.10461E-001,5.26633E+000,-3.23297E-001,5.75383E-002,5.27655E+000,1.12603E-002,4.36409E-001,0,8.00362E+001,-5.78935E+000,9.98664E-001,3.79031E+001,-3.84956E+001,9.98500E-001,1.21863E-001,-5.04384E-002,4.25206E-004,1.21864E-001,-5.04394E-002,1.41393E-001,1.22465E-001,1.12932E+000,-2.86335E-002,0.00000E+000,2.57596E-002,9.52671E-001,0.00000E+000,-1.39700E-002,-6.78241E-002,1.00000E+000,19
1009,1317,1.01672E+001,-9.13600E-001,3.95901E-002,5.24891E+000,-3.57492E-001,1.80498E-002,5.26110E+000,1.13139E-002,4.48779E-001,0,7.99192E+001,-6.26103E+000,9.99029E-001,3.76995E+001,-3.89412E+001,9.98586E-001,1.21829E-001,-5.04285E-002,5.54165E-004,1.21830E-001,-5.04303E-002,1.84323E-001,1.22431E-001,1.12926E+000,-2.86343E-002,0.00000E+000,2.58800E-002,9.52673E-001,0.00000E+000,-1.19988E-002,-6.78006E-002,1.00000E+000,19
849,1317,-1.68938E+000,-1.14212E+000,1.08371E-001,3.83998E+000,-4.89657E-001,1.56183E-001,3.87423E+000,1.39939E-002,6.10128E-001,0,5.87612E+001,-8.46625E+000,9.98597E-001,1.45072E+001,-4.40902E+001,9.97845E-001,1.29430E-001,-5.29062E-002,-3.02414E-003,1.29480E-001,-5.29564E-002,-9.49934E-001,1.30193E-001,1.13818E+000,-4.91072E-003,0.00000E+000,-1.92758E-003,9.51880E-001,0.00000E+000,2.95396E-003,-8.47868E-002,1.00000E+000,19
1009,1327,1.01622E+001,-3.03452E-001,-1.01597E-002,5.22935E+000,-3.92970E-001,-3.05603E-002,5.24419E+000,1.09431E-002,4.55169E-001,0,7.97975E+001,-6.73053E+000,9.99341E-001,3.76115E+001,-3.93889E+001,9.99173E-001,1.21790E-001,-5.04159E-002,6.83141E-004,1.21793E-001,-5.04186E-002,2.27287E-001,1.22392E-001,1.12919E+000,-2.86357E-002,0.00000E+000,2.60009E-002,9.52676E-001,0.00000E+000,-1.00215E-002,-6.77559E-002,1.00000E+000,19
849,1307,-1.70238E+000,-1.74311E+000,2.03645E-001,3.83133E+000,-4.54443E-001,2.09183E-001,3.86386E+000,1.56649E-002,5.65646E-001,0,5.84494E+001,-7.99294E+000,9.98614E-001,1.44190E+001,-4.35912E+001,9.97757E-001,1.30021E-001,-5.29065E-002,-3.03812E-003,1.30072E-001,-5.29570E-002,-9.51236E-001,1.30817E-001,1.13886E+000,-4.90609E-003,0.00000E+000,-2.08254E-003,9.51879E-001,0.00000E+000,4.47489E-003,-8.47765E-002,1.00000E+000,19
839,1337,-2.39733E+000,6.01707E-002,2.69327E-002,3.75125E+000,-5.67186E-001,5.83395E-002,3.79433E+000,2.58855E-002,5.52722E-001,0,5.77562E+001,-9.47285E+000,9.99029E-001,1.36329E+001,-4.54925E+001,9.98284E-001,1.28298E-001,-5.29524E-002,-2.57471E-003,1.28335E-001,-5.29890E-002,-8.13682E-001,1.28982E-001,1.13689E+000,-3.98250E-003,0.00000E+000,-1.54944E-003,9.51724E-001,0.00000E+000,-6.39077E-004,-8.33999E-002,1.00000E+000,19
839,1347,-2.38112E+000,6.72735E-001,-4.46961E-003,3.74991E+000,-5.98854E-001,3.74755E-003,3.79742E+000,1.00860E-002,5.00204E-001,0,5.79083E+001,-9.85785E+000,9.99138E-001,1.39238E+001,-4.60027E+001,9.98737E-001,1.27868E-001,-5.29512E-002,-2.55888E-003,1.27905E-001,-5.29874E-002,-8.10608E-001,1.28530E-001,1.13641E+000,-3.99551E-003,0.00000E+000,-1.38029E-003,9.51728E-001,0.00000E+000,-2.24406E-003,-8.34428E-002,1.00000E+000,19
839,1357,-2.34909E+000,1.30154E+000,2.81128E-002,3.75296E+000,-6.24142E-001,-4.27167E-002,3.80475E+000,8.29066E-003,4.90249E-001,0,5.80922E+001,-1.01613E+001,9.99264E-001,1.46118E+001,-4.63826E+001,9.99075E-001,1.27432E-001,-5.29492E-002,-2.54662E-003,1.27467E-001,-5.29852E-002,-8.08689E-001,1.28070E-001,1.13591E+000,-4.01691E-003,0.00000E+000,-1.20950E-003,9.51736E-001,0.00000E+000,-3.86446E-003,-8.35134E-002,1.00000E+000,19
1019,1337,1.09098E+001,3.43496E-001,-3.67400E-002,5.30334E+000,-4.01014E-001,-6.81145E-002,5.31892E+000,1.16637E-002,5.21182E-001,0,8.09883E+001,-6.82354E+000,9.99235E-001,3.92427E+001,-3.91892E+001,9.99147E-001,1.21620E-001,-5.03692E-002,5.38711E-004,1.21622E-001,-5.03708E-002,1.79461E-001,1.22218E-001,1.12897E+000,-2.87192E-002,0.00000E+000,2.55511E-002,9.52630E-001,0.00000E+000,-6.25512E-003,-6.62602E-002,1.00000E+000,19
1019,1347,1.09102E+001,9.52463E-001,-3.59255E-002,5.28190E+000,-4.42237E-001,-9.70437E-002,5.30126E+000,1.06428E-002,4.75190E-001,0,8.07640E+001,-7.40550E+000,9.99407E-001,3.93340E+001,-3.97938E+001,9.99367E-001,1.21713E-001,-5.03556E-002,6.54680E-004,1.21715E-001,-5.03581E-002,2.17993E-001,1.22318E-001,1.12907E+000,-2.87160E-002,0.00000E+000,2.56580E-002,9.52634E-001,0.00000E+000,-4.50925E-003,-6.62016E-002,1.00000E+000,19
839,1327,-2.42347E+000,-5.38665E-001,4.58646E-002,3.74469E+000,-5.19782E-001,1.10262E-001,3.78220E+000,2.36767E-002,5.57292E-001,0,5.74874E+001,-8.82350E+000,9.99171E-001,1.31626E+001,-4.47708E+001,9.98605E-001,1.28726E-001,-5.29538E-002,-2.59002E-003,1.28763E-001,-5.29907E-002,-8.16584E-001,1.29433E-001,1.13738E+000,-3.96800E-003,0.00000E+000,-1.71896E-003,9.51719E-001,0.00000E+000,9.69300E-004,-8.33521E-002,1.00000E+000,19
1019,1327,1.09054E+001,-2.79848E-001,-1.71963E-002,5.31720E+000,-3.75623E-001,-3.45146E-002,5.33056E+000,1.14986E-002,4.67321E-001,0,8.10837E+001,-6.46099E+000,9.99135E-001,3.91271E+001,-3.89049E+001,9.98869E-001,1.21525E-001,-5.03814E-002,4.22862E-004,1.21526E-001,-5.03825E-002,1.40937E-001,1.22116E-001,1.12887E+000,-2.87219E-002,0.00000E+000,2.54444E-002,9.52627E-001,0.00000E+000,-8.00019E-003,-6.63091E-002,1.00000E+000,19
1019,1317,1.09103E+001,-8.93992E-001,3.49592E-002,5.33321E+000,-3.45149E-001,3.98914E-004,5.34436E+000,1.22067E-002,4.51752E-001,0,8.11990E+001,-6.05003E+000,9.99307E-001,3.92201E+001,-3.85307E+001,9.98643E-001,1.21427E-001,-5.03911E-002,3.07684E-004,1.21427E-001,-5.03917E-002,1.02603E-001,1.22011E-001,1.12878E+000,-2.87236E-002,0.00000E+000,2.53379E-002,9.52625E-001,0.00000E+000,-9.74044E-003,-6.63388E-002,1.00000E+000,19
839,1317,-2.43018E+000,-1.14023E+000,1.12495E-001,3.74595E+000,-4.82005E-001,1.52634E-001,3.77992E+000,1.17574E-002,5.31060E-001,0,5.73649E+001,-8.31034E+000,9.98654E-001,1.31040E+001,-4.42078E+001,9.97245E-001,1.29150E-001,-5.29543E-002,-2.60899E-003,1.29187E-001,-5.29917E-002,-8.20647E-001,1.29880E-001,1.13787E+000,-3.96204E-003,0.00000E+000,-1.88765E-003,9.51717E-001,0.00000E+000,2.56990E-003,-8.33325E-002,1.00000E+000,19
1019,1297,1.09289E+001,-2.10695E+000,1.82241E-001,5.36809E+000,-2.75000E-001,8.83354E-002,5.37586E+000,1.22093E-002,4.23906E-001,0,8.13990E+001,-5.08855E+000,9.99119E-001,3.96247E+001,-3.76360E+001,9.98349E-001,1.21221E-001,-5.04085E-002,7.81483E-005,1.21222E-001,-5.04085E-002,2.60885E-002,1.21793E-001,1.12858E+000,-2.87261E-002,0.00000E+000,2.51256E-002,9.52623E-001,0.00000E+000,-1.32094E-002,-6.63827E-002,1.00000E+000,19
1019,1307,1.09141E+001,-1.49976E+000,9.24300E-002,5.34715E+000,-3.09523E-001,3.70484E-002,5.35622E+000,1.58285E-002,4.91530E-001,0,8.12739E+001,-5.54954E+000,9.99272E-001,3.93058E+001,-3.80116E+001,9.98472E-001,1.21326E-001,-5.04005E-002,1.92970E-004,1.21326E-001,-5.04007E-002,6.43837E-002,1.21903E-001,1.12868E+000,-2.87251E-002,0.00000E+000,2.52319E-002,9.52624E-001,0.00000E+000,-1.14727E-002,-6.63661E-002,1.00000E+000,19
839,1307,-2.43605E+000,-1.73836E+000,2.05265E-001,3.74390E+000,-4.44101E-001,2.00808E-001,3.77550E+000,1.05246E-002,5.03266E-001,0,5.71701E+001,-7.79998E+000,9.98370E-001,1.31207E+001,-4.36482E+001,9.96615E-001,1.29569E-001,-5.29547E-002,-2.62922E-003,1.29607E-001,-5.29925E-002,-8.25109E-001,1.30322E-001,1.13835E+000,-3.95912E-003,0.00000E+000,-2.05583E-003,9.51716E-001,0.00000E+000,4.16560E-003,-8.33228E-002,1.00000E+000,19
829,1337,-3.13809E+000,5.91549E-002,1.41523E-002,3.65991E+000,-5.60331E-001,5.18833E-002,3.70292E+000,1.85966E-002,5.44918E-001,0,5.64085E+001,-9.35325E+000,9.98346E-001,1.21948E+001,-4.55865E+001,9.97565E-001,1.27991E-001,-5.29401E-002,-2.11529E-003,1.28016E-001,-5.29649E-002,-6.69730E-001,1.28649E-001,1.13654E+000,-3.27382E-003,0.00000E+000,-1.21522E-003,9.51625E-001,0.00000E+000,-1.24241E-003,-8.20069E-002,1.00000E+000,19
829,1347,-3.11685E+000,6.72398E-001,3.48848E-003,3.66118E+000,-5.94456E-001,5.49576E-003,3.70913E+000,9.20749E-003,5.22010E-001,0,5.65726E+001,-9.78587E+000,9.98294E-001,1.26133E+001,-4.61178E+001,9.98223E-001,1.27687E-001,-5.29430E-002,-2.16468E-003,1.27713E-001,-5.29689E-002,-6.86502E-001,1.28330E-001,1.13620E+000,-3.28424E-003,0.00000E+000,-1.16307E-003,9.51626E-001,0.00000E+000,-3.00497E-003,-8.20607E-002,1.00000E+000,19
829,1357,-3.08799E+000,1.29856E+000,2.84444E-002,3.66273E+000,-6.21269E-001,-4.15685E-002,3.71527E+000,9.34223E-003,5.16367E-001,0,5.67360E+001,-1.01112E+001,9.98921E-001,1.32363E+001,-4.65219E+001,9.98936E-001,1.27379E-001,-5.29468E-002,-2.21609E-003,1.27406E-001,-5.29740E-002,-7.03990E-001,1.28007E-001,1.13586E+000,-3.29845E-003,0.00000E+000,-1.11067E-003,9.51628E-001,0.00000E+000,-4.77641E-003,-8.21341E-002,1.00000E+000,19
1029,1337,1.16400E+001,3.60425E-001,-4.41317E-002,5.37859E+000,-3.88571E-001,-6.83999E-002,5.39304E+000,1.05711E-002,4.78249E-001,0,8.20715E+001,-6.63121E+000,9.98819E-001,4.05588E+001,-3.88354E+001,9.98450E-001,1.21641E-001,-5.01594E-002,3.46695E-004,1.21641E-001,-5.01601E-002,1.15623E-001,1.22263E-001,1.12899E+000,-2.86272E-002,0.00000E+000,2.49879E-002,9.52769E-001,0.00000E+000,-4.33419E-003,-6.51043E-002,1.00000E+000,19
1029,1347,1.16424E+001,9.82754E-001,-4.30969E-002,5.35804E+000,-4.18239E-001,-1.00926E-001,5.37529E+000,1.01843E-002,5.09738E-001,0,8.18695E+001,-7.05012E+000,9.99068E-001,4.06807E+001,-3.91932E+001,9.98549E-001,1.21856E-001,-5.01449E-002,4.71720E-004,1.21857E-001,-5.01462E-002,1.57135E-001,1.22491E-001,1.12923E+000,-2.86189E-002,0.00000E+000,2.51133E-002,9.52774E-001,0.00000E+000,-2.69196E-003,-6.50468E-002,1.00000E+000,19
1029,1327,1.16451E+001,-2.57214E-001,-1.28448E-002,5.39950E+000,-3.58328E-001,-3.46332E-002,5.41149E+000,1.14130E-002,4.45210E-001,0,8.22683E+001,-6.21429E+000,9.98949E-001,4.06161E+001,-3.84785E+001,9.98468E-001,1.21424E-001,-5.01712E-002,2.23004E-004,1.21424E-001,-5.01715E-002,7.44613E-002,1.22032E-001,1.12875E+000,-2.86330E-002,0.00000E+000,2.48628E-002,9.52766E-001,0.00000E+000,-5.97181E-003,-6.51438E-002,1.00000E+000,19
829,1327,-3.15972E+000,-5.40859E-001,4.33239E-002,3.65388E+000,-5.16848E-001,9.50901E-002,3.69148E+000,1.74932E-002,5.77357E-001,0,5.61752E+001,-8.76341E+000,9.98951E-001,1.18170E+001,-4.48890E+001,9.98624E-001,1.28291E-001,-5.29379E-002,-2.06716E-003,1.28314E-001,-5.29615E-002,-6.53424E-001,1.28964E-001,1.13688E+000,-3.26569E-003,0.00000E+000,-1.26716E-003,9.51623E-001,0.00000E+000,5.13445E-004,-8.19649E-002,1.00000E+000,19
829,1307,-3.16311E+000,-1.74444E+000,2.27599E-001,3.66278E+000,-4.45293E-001,2.13649E-001,3.69593E+000,1.29002E-002,4.56402E-001,0,5.59214E+001,-7.82901E+000,9.98600E-001,1.19763E+001,-4.39076E+001,9.96619E-001,1.28877E-001,-5.29360E-002,-1.97570E-003,1.28899E-001,-5.29575E-002,-6.22516E-001,1.29580E-001,1.13756E+000,-3.25921E-003,0.00000E+000,-1.37058E-003,9.51622E-001,0.00000E+000,4.00945E-003,-8.19314E-002,1.00000E+000,19
829,1317,-3.16622E+000,-1.14346E+000,1.16020E-001,3.65661E+000,-4.79962E-001,1.50254E-001,3.69104E+000,1.41542E-002,4.91534E-001,0,5.60368E+001,-8.25339E+000,9.98619E-001,1.17763E+001,-4.43830E+001,9.98104E-001,1.28586E-001,-5.29366E-002,-2.02066E-003,1.28608E-001,-5.29591E-002,-6.37697E-001,1.29274E-001,1.13722E+000,-3.26085E-003,0.00000E+000,-1.31894E-003,9.51623E-001,0.00000E+000,2.26397E-003,-8.19399E-002,1.00000E+000,19
1029,1317,1.16508E+001,-8.74345E-001,3.36584E-002,5.41655E+000,-3.32291E-001,-4.17048E-003,5.42674E+000,1.20900E-002,4.56796E-001,0,8.24167E+001,-5.84682E+000,9.99352E-001,4.07094E+001,-3.81262E+001,9.98586E-001,1.21205E-001,-5.01814E-002,1.00514E-004,1.21205E-001,-5.01814E-002,3.36026E-002,1.21801E-001,1.12851E+000,-2.86372E-002,0.00000E+000,2.47384E-002,9.52764E-001,0.00000E+000,-7.60097E-003,-6.51724E-002,1.00000E+000,19
1029,1307,1.16601E+001,-1.47972E+000,1.07715E-001,5.43465E+000,-2.96364E-001,4.27173E-002,5.44290E+000,1.10299E-002,4.99891E-001,0,8.25150E+001,-5.37442E+000,9.99388E-001,4.09127E+001,-3.76358E+001,9.97579E-001,1.20984E-001,-5.01906E-002,-2.14702E-005,1.20984E-001,-5.01906E-002,-7.18654E-003,1.21567E-001,1.12828E+000,-2.86404E-002,0.00000E+000,2.46142E-002,9.52763E-001,0.00000E+000,-9.22749E-003,-6.51946E-002,1.00000E+000,19
1029,1297,1.16727E+001,-2.08344E+000,1.89440E-001,5.45386E+000,-2.58351E-001,8.76630E-002,5.46068E+000,1.02076E-002,4.75058E-001,0,8.26344E+001,-4.85946E+000,9.99276E-001,4.11820E+001,-3.71695E+001,9.97781E-001,1.20760E-001,-5.01990E-002,-1.43410E-004,1.20760E-001,-5.01991E-002,-4.80629E-002,1.21331E-001,1.12804E+000,-2.86429E-002,0.00000E+000,2.44897E-002,9.52761E-001,0.00000E+000,-1.08569E-002,-6.52113E-002,1.00000E+000,19
819,1317,-3.89886E+000,-1.15267E+000,1.24524E-001,3.56952E+000,-4.84682E-001,1.49210E-001,3.60537E+000,1.39048E-002,4.75193E-001,0,5.47387E+001,-8.31252E+000,9.98314E-001,1.05162E+001,-4.46492E+001,9.97211E-001,1.27675E-001,-5.27491E-002,-1.55655E-003,1.27689E-001,-5.27626E-002,-4.94252E-001,1.28328E-001,1.13618E+000,-2.93442E-003,0.00000E+000,-6.52977E-004,9.51669E-001,0.00000E+000,1.65985E-003,-8.02308E-002,1.00000E+000,19
819,1327,-3.89446E+000,-5.51719E-001,4.79029E-002,3.56698E+000,-5.21153E-001,1.01046E-001,3.60627E+000,1.37187E-002,4.97693E-001,0,5.48580E+001,-8.80392E+000,9.98873E-001,1.05152E+001,-4.52060E+001,9.97713E-001,1.27471E-001,-5.27515E-002,-1.65412E-003,1.27486E-001,-5.27666E-002,-5.25813E-001,1.28115E-001,1.13595E+000,-2.93695E-003,0.00000E+000,-7.10574E-004,9.51668E-001,0.00000E+000,7.07845E-007,-8.02487E-002,1.00000E+000,19
819,1337,-3.87676E+000,5.78418E-002,9.63176E-003,3.56989E+000,-5.55353E-001,5.21454E-002,3.61321E+000,1.12644E-002,5.36805E-001,0,5.50578E+001,-9.25694E+000,9.98451E-001,1.08128E+001,-4.57032E+001,9.98026E-001,1.27262E-001,-5.27561E-002,-1.75355E-003,1.27280E-001,-5.27732E-002,-5.58044E-001,1.27897E-001,1.13572E+000,-2.94231E-003,0.00000E+000,-7.68517E-004,9.51667E-001,0.00000E+000,-1.66840E-003,-8.02867E-002,1.00000E+000,19
819,1307,-3.90397E+000,-1.75051E+000,2.12984E-001,3.56831E+000,-4.48477E-001,1.94058E-001,3.60161E+000,1.37878E-002,5.07575E-001,0,5.45700E+001,-7.82593E+000,9.98477E-001,1.05353E+001,-4.40419E+001,9.97233E-001,1.27876E-001,-5.27477E-002,-1.45985E-003,1.27888E-001,-5.27595E-002,-4.63041E-001,1.28538E-001,1.13642E+000,-2.93299E-003,0.00000E+000,-5.95597E-004,9.51669E-001,0.00000E+000,3.31273E-003,-8.02206E-002,1.00000E+000,19
819,1347,-3.85169E+000,6.75859E-001,1.73824E-003,3.57477E+000,-5.85039E-001,6.65292E-003,3.62234E+000,1.04171E-002,5.34843E-001,0,5.52723E+001,-9.62877E+000,9.98983E-001,1.12992E+001,-4.61577E+001,9.98965E-001,1.27050E-001,-5.27623E-002,-1.85425E-003,1.27070E-001,-5.27814E-002,-5.90758E-001,1.27675E-001,1.13548E+000,-2.94961E-003,0.00000E+000,-8.26661E-004,9.51665E-001,0.00000E+000,-3.34328E-003,-8.03386E-002,1.00000E+000,19
819,1357,-3.82562E+000,1.29061E+000,3.30521E-002,3.57319E+000,-6.23244E-001,-3.68566E-002,3.62733E+000,1.30354E-002,5.23303E-001,0,5.53788E+001,-1.01388E+001,9.98673E-001,1.18944E+001,-4.67569E+001,9.98541E-001,1.26835E-001,-5.27708E-002,-1.95670E-003,1.26856E-001,-5.27921E-002,-6.24108E-001,1.27449E-001,1.13524E+000,-2.95961E-003,0.00000E+000,-8.85063E-004,9.51662E-001,0.00000E+000,-5.02560E-003,-8.04095E-002,1.00000E+000,19
1039,1337,1.23812E+001,3.84089E-001,-4.90294E-002,5.46289E+000,-3.71752E-001,-7.30413E-002,5.47601E+000,9.88647E-003,4.78901E-001,0,8.33029E+001,-6.36425E+000,9.99104E-001,4.20572E+001,-3.83597E+001,9.98030E-001,1.21673E-001,-4.98567E-002,-3.35666E-006,1.21673E-001,-4.98567E-002,-1.12122E-003,1.22332E-001,1.12902E+000,-2.85625E-002,0.00000E+000,2.41634E-002,9.53023E-001,0.00000E+000,-2.60561E-003,-6.42286E-002,1.00000E+000,19
1039,1347,1.23824E+001,9.95927E-001,-4.13374E-002,5.44141E+000,-4.09832E-001,-9.71352E-002,5.45769E+000,9.71207E-003,4.34474E-001,0,8.30601E+001,-6.92569E+000,9.99489E-001,4.21698E+001,-3.89310E+001,9.98906E-001,1.21982E-001,-4.98472E-002,8.48083E-005,1.21982E-001,-4.98473E-002,2.82789E-002,1.22659E-001,1.12937E+000,-2.85505E-002,0.00000E+000,2.42232E-002,9.53025E-001,0.00000E+000,-1.10800E-003,-6.41768E-002,1.00000E+000,19
1039,1317,1.23884E+001,-8.46208E-001,2.93915E-002,5.49834E+000,-3.08930E-001,-4.42387E-003,5.50701E+000,9.97531E-003,4.30438E-001,0,8.35904E+001,-5.49047E+000,9.99138E-001,4.21548E+001,-3.76000E+001,9.98353E-001,1.21047E-001,-4.98716E-002,-1.75926E-004,1.21047E-001,-4.98717E-002,-5.89741E-002,1.21671E-001,1.12833E+000,-2.85776E-002,0.00000E+000,2.40439E-002,9.53020E-001,0.00000E+000,-5.59768E-003,-6.42933E-002,1.00000E+000,19
1039,1327,1.23846E+001,-2.36125E-001,-1.80329E-002,5.48230E+000,-3.42381E-001,-3.88678E-002,5.49312E+000,9.48828E-003,4.15364E-001,0,8.34750E+001,-5.96714E+000,9.99150E-001,4.20864E+001,-3.80593E+001,9.98237E-001,1.21360E-001,-4.98646E-002,-9.03511E-005,1.21360E-001,-4.98647E-002,-3.02336E-002,1.22001E-001,1.12867E+000,-2.85711E-002,0.00000E+000,2.41034E-002,9.53021E-001,0.00000E+000,-4.10728E-003,-6.42653E-002,1.00000E+000,19
1039,1307,1.23985E+001,-1.45847E+000,8.95315E-002,5.51775E+000,-2.79098E-001,3.04312E-002,5.52489E+000,9.98664E-003,4.54325E-001,0,8.37543E+001,-5.08118E+000,9.99126E-001,4.23434E+001,-3.71978E+001,9.98339E-001,1.20732E-001,-4.98778E-002,-2.60856E-004,1.20733E-001,-4.98782E-002,-8.76026E-002,1.21339E-001,1.12798E+000,-2.85826E-002,0.00000E+000,2.39844E-002,9.53019E-001,0.00000E+000,-7.08683E-003,-6.43147E-002,1.00000E+000,19
1039,1297,1.24126E+001,-2.06610E+000,1.73440E-001,5.53795E+000,-2.45499E-001,7.50920E-002,5.54390E+000,9.98292E-003,4.42565E-001,0,8.38898E+001,-4.63428E+000,9.98754E-001,4.26396E+001,-3.67919E+001,9.98163E-001,1.20415E-001,-4.98833E-002,-3.45127E-004,1.20416E-001,-4.98840E-002,-1.16115E-001,1.21004E-001,1.12763E+000,-2.85859E-002,0.00000E+000,2.39249E-002,9.53019E-001,0.00000E+000,-8.57631E-003,-6.43288E-002,1.00000E+000,19
1049,1337,1.31283E+001,4.05714E-001,-5.46274E-002,5.55188E+000,-3.54944E-001,-8.13630E-002,5.56381E+000,1.44419E-002,4.45651E-001,0,8.46162E+001,-6.11165E+000,9.99526E-001,4.36482E+001,-3.79304E+001,9.98701E-001,1.21668E-001,-4.98075E-002,-4.92208E-004,1.21670E-001,-4.98089E-002,-1.64461E-001,1.22334E-001,1.12902E+000,-2.84498E-002,0.00000E+000,2.30544E-002,9.53016E-001,0.00000E+000,-1.27185E-003,-6.29122E-002,1.00000E+000,19
1049,1347,1.31362E+001,1.02250E+000,-3.69439E-002,5.53463E+000,-3.92006E-001,-1.04997E-001,5.54949E+000,1.15407E-002,4.60119E-001,0,8.44339E+001,-6.65335E+000,9.99454E-001,4.38815E+001,-3.84154E+001,9.98304E-001,1.22097E-001,-4.98033E-002,-4.45981E-004,1.22098E-001,-4.98045E-002,-1.48648E-001,1.22786E-001,1.12951E+000,-2.84313E-002,0.00000E+000,2.30490E-002,9.53016E-001,0.00000E+000,-1.31125E-004,-6.28688E-002,1.00000E+000,19
1049,1307,1.31449E+001,-1.43415E+000,9.94732E-002,5.60452E+000,-2.60376E-001,2.98215E-002,5.61065E+000,1.33214E-002,4.02171E-001,0,8.50006E+001,-4.79914E+000,9.99177E-001,4.39551E+001,-3.67745E+001,9.98449E-001,1.20384E-001,-4.98160E-002,-6.17807E-004,1.20386E-001,-4.98182E-002,-2.07973E-001,1.20981E-001,1.12758E+000,-2.84764E-002,0.00000E+000,2.30706E-002,9.53016E-001,0.00000E+000,-4.66718E-003,-6.29747E-002,1.00000E+000,19
1049,1317,1.31319E+001,-8.22857E-001,3.46255E-002,5.58180E+000,-2.92030E-001,-1.10247E-002,5.58945E+000,1.22222E-002,4.39486E-001,0,8.48102E+001,-5.24747E+000,9.98770E-001,4.37117E+001,-3.71502E+001,9.97118E-001,1.20813E-001,-4.98134E-002,-5.76684E-004,1.20815E-001,-4.98153E-002,-1.93646E-001,1.21432E-001,1.12806E+000,-2.84692E-002,0.00000E+000,2.30652E-002,9.53016E-001,0.00000E+000,-3.53747E-003,-6.29578E-002,1.00000E+000,19
1049,1327,1.31265E+001,-2.16754E-001,-2.05752E-002,5.56723E+000,-3.29112E-001,-3.96890E-002,5.57710E+000,8.07572E-003,4.17442E-001,0,8.47006E+001,-5.76890E+000,9.99204E-001,4.36033E+001,-3.76563E+001,9.97616E-001,1.21241E-001,-4.98108E-002,-5.35786E-004,1.21242E-001,-4.98125E-002,-1.79466E-001,1.21883E-001,1.12854E+000,-2.84624E-002,0.00000E+000,2.30598E-002,9.53016E-001,0.00000E+000,-2.40703E-003,-6.29419E-002,1.00000E+000,19
809,1347,-4.59629E+000,6.63779E-001,-1.51146E-003,3.47850E+000,-5.89622E-001,7.80640E-003,3.52813E+000,8.81718E-003,5.18455E-001,0,5.38226E+001,-9.69414E+000,9.99353E-001,9.83275E+000,-4.64500E+001,9.99330E-001,1.26337E-001,-5.25577E-002,-1.56262E-003,1.26351E-001,-5.25714E-002,-5.00420E-001,1.26943E-001,1.13467E+000,-2.86726E-003,0.00000E+000,-3.17627E-004,9.51739E-001,0.00000E+000,-3.66910E-003,-7.87395E-002,1.00000E+000,19
809,1357,-4.56979E+000,1.28335E+000,3.61120E-002,3.47687E+000,-6.23866E-001,-3.29055E-002,3.53255E+000,1.05337E-002,5.14060E-001,0,5.39172E+001,-1.01433E+001,9.99183E-001,1.04533E+001,-4.69870E+001,9.98703E-001,1.26252E-001,-5.25727E-002,-1.73365E-003,1.26269E-001,-5.25895E-002,-5.55394E-001,1.26855E-001,1.13458E+000,-2.87105E-003,0.00000E+000,-5.21444E-004,9.51730E-001,0.00000E+000,-5.26356E-003,-7.88080E-002,1.00000E+000,19
809,1327,-4.63308E+000,-5.64412E-001,3.69165E-002,3.47578E+000,-5.29864E-001,9.17128E-002,3.51713E+000,9.59938E-003,5.33611E-001,0,5.35222E+001,-8.89668E+000,9.99288E-001,9.11959E+000,-4.54607E+001,9.97818E-001,1.26498E-001,-5.25392E-002,-1.22554E-003,1.26506E-001,-5.25476E-002,-3.92176E-001,1.27109E-001,1.13484E+000,-2.86266E-003,0.00000E+000,8.60104E-005,9.51749E-001,0.00000E+000,-5.11460E-004,-7.86564E-002,1.00000E+000,19
809,1337,-4.61382E+000,4.71809E-002,1.16989E-002,3.47995E+000,-5.60657E-001,5.35144E-002,3.52523E+000,7.53759E-003,5.26072E-001,0,5.37054E+001,-9.31978E+000,9.99292E-001,9.47441E+000,-4.59796E+001,9.99185E-001,1.26419E-001,-5.25475E-002,-1.39367E-003,1.26430E-001,-5.25583E-002,-4.46146E-001,1.27027E-001,1.13476E+000,-2.86470E-003,0.00000E+000,-1.15501E-004,9.51745E-001,0.00000E+000,-2.08788E-003,-7.86932E-002,1.00000E+000,19
809,1307,-4.64348E+000,-1.75371E+000,2.14524E-001,3.47618E+000,-4.46756E-001,1.97536E-001,3.51033E+000,1.62849E-002,5.82829E-001,0,5.31783E+001,-7.82563E+000,9.96600E-001,9.15881E+000,-4.41540E+001,9.95215E-001,1.26647E-001,-5.25325E-002,-8.92170E-004,1.26652E-001,-5.25369E-002,-2.85277E-001,1.27263E-001,1.13502E+000,-2.86119E-003,0.00000E+000,4.87067E-004,9.51753E-001,0.00000E+000,2.62599E-003,-7.86299E-002,1.00000E+000,19
809,1317,-4.63573E+000,-1.15885E+000,1.18156E-001,3.48024E+000,-4.86890E-001,1.45715E-001,3.51715E+000,1.47929E-002,5.59016E-001,0,5.34131E+001,-8.34234E+000,9.98911E-001,9.15993E+000,-4.47876E+001,9.97523E-001,1.26574E-001,-5.25350E-002,-1.05857E-003,1.26580E-001,-5.25412E-002,-3.38614E-001,1.27187E-001,1.13493E+000,-2.86170E-003,0.00000E+000,2.86749E-004,9.51752E-001,0.00000E+000,1.05891E-003,-7.86390E-002,1.00000E+000,19
1049,1297,1.31516E+001,-2.04932E+000,1.72675E-001,5.61970E+000,-2.33508E-001,7.40137E-002,5.62504E+000,1.10756E-002,3.93493E-001,0,8.50653E+001,-4.44228E+000,9.98670E-001,4.41143E+001,-3.64638E+001,9.97269E-001,1.19954E-001,-4.98185E-002,-6.58575E-004,1.19957E-001,-4.98210E-002,-2.22255E-001,1.20529E-001,1.12710E+000,-2.84827E-002,0.00000E+000,2.30759E-002,9.53016E-001,0.00000E+000,-5.79593E-003,-6.29896E-002,1.00000E+000,19
799,1337,-5.35195E+000,3.93328E-002,9.97059E-003,3.38944E+000,-5.61927E-001,5.57230E-002,3.43616E+000,8.00886E-003,5.22941E-001,0,5.23389E+001,-9.33440E+000,9.99310E-001,8.11531E+000,-4.62010E+001,9.99250E-001,1.25263E-001,-5.23132E-002,-9.99451E-004,1.25269E-001,-5.23189E-002,-3.22463E-001,1.25834E-001,1.13345E+000,-2.84828E-003,0.00000E+000,6.53015E-004,9.51844E-001,0.00000E+000,-2.49981E-003,-7.70281E-002,1.00000E+000,19
799,1347,-5.33331E+000,6.54332E-001,-8.91716E-004,3.38963E+000,-5.92373E-001,1.41635E-002,3.44103E+000,9.58566E-003,5.32224E-001,0,5.24681E+001,-9.74374E+000,9.99025E-001,8.49752E+000,-4.66943E+001,9.98827E-001,1.25254E-001,-5.23271E-002,-1.23006E-003,1.25262E-001,-5.23356E-002,-3.96847E-001,1.25825E-001,1.13344E+000,-2.84844E-003,0.00000E+000,3.16457E-004,9.51834E-001,0.00000E+000,-3.91524E-003,-7.70685E-002,1.00000E+000,19
799,1357,-5.30331E+000,1.27822E+000,3.49177E-002,3.39154E+000,-6.21972E-001,-2.92702E-002,3.44823E+000,9.89413E-003,5.11661E-001,0,5.26238E+001,-1.01102E+001,9.98824E-001,9.17073E+000,-4.71700E+001,9.98351E-001,1.25242E-001,-5.23478E-002,-1.46264E-003,1.25254E-001,-5.23598E-002,-4.71847E-001,1.25814E-001,1.13344E+000,-2.84867E-003,0.00000E+000,-2.27652E-005,9.51820E-001,0.00000E+000,-5.34187E-003,-7.71298E-002,1.00000E+000,19
799,1327,-5.36552E+000,-5.74971E-001,4.52843E-002,3.39041E+000,-5.33284E-001,1.01774E-001,3.43360E+000,1.58900E-002,5.37899E-001,0,5.22113E+001,-8.98410E+000,9.99334E-001,7.87123E+000,-4.57393E+001,9.98035E-001,1.25271E-001,-5.23021E-002,-7.69385E-004,1.25274E-001,-5.23054E-002,-2.48244E-001,1.25841E-001,1.13345E+000,-2.84816E-003,0.00000E+000,9.88899E-004,9.51851E-001,0.00000E+000,-1.08722E-003,-7.69963E-002,1.00000E+000,19
1059,1327,1.38692E+001,-1.99611E-001,-1.81741E-002,5.65167E+000,-3.18469E-001,-3.91327E-002,5.66077E+000,1.23365E-002,4.27638E-001,0,8.59116E+001,-5.62042E+000,9.99380E-001,4.51453E+001,-3.72945E+001,9.98034E-001,1.21256E-001,-4.99782E-002,-8.15454E-004,1.21260E-001,-4.99821E-002,-2.72846E-001,1.21882E-001,1.12857E+000,-2.78969E-002,0.00000E+000,2.19564E-002,9.52811E-001,0.00000E+000,-9.05575E-004,-6.17599E-002,1.00000E+000,19
1059,1337,1.38733E+001,4.26538E-001,-4.58147E-002,5.63811E+000,-3.41032E-001,-7.60179E-002,5.64893E+000,9.88924E-003,4.40616E-001,0,8.58360E+001,-5.91747E+000,9.99617E-001,4.52375E+001,-3.75315E+001,9.98965E-001,1.21746E-001,-4.99778E-002,-7.98627E-004,1.21749E-001,-4.99815E-002,-2.66455E-001,1.22397E-001,1.12912E+000,-2.78819E-002,0.00000E+000,2.19235E-002,9.52810E-001,0.00000E+000,-2.05964E-004,-6.17410E-002,1.00000E+000,19
1059,1347,1.38834E+001,1.04351E+000,-3.19621E-002,5.62267E+000,-3.77300E-001,-1.04509E-001,5.63629E+000,1.36336E-002,4.22461E-001,0,8.56992E+001,-6.43609E+000,9.99528E-001,4.54963E+001,-3.80198E+001,9.98386E-001,1.22236E-001,-4.99772E-002,-7.78925E-004,1.22240E-001,-4.99807E-002,-2.59143E-001,1.22914E-001,1.12968E+000,-2.78604E-002,0.00000E+000,2.18905E-002,9.52808E-001,0.00000E+000,4.96093E-004,-6.17139E-002,1.00000E+000,19
1059,1297,1.38901E+001,-2.02981E+000,1.63685E-001,5.70265E+000,-2.17109E-001,7.32905E-002,5.70725E+000,1.13924E-002,3.48305E-001,0,8.62554E+001,-4.19300E+000,9.98815E-001,4.55723E+001,-3.60742E+001,9.96579E-001,1.19789E-001,-4.99793E-002,-8.57524E-004,1.19794E-001,-4.99836E-002,-2.89399E-001,1.20339E-001,1.12692E+000,-2.79224E-002,0.00000E+000,2.20547E-002,9.52812E-001,0.00000E+000,-2.99583E-003,-6.17921E-002,1.00000E+000,19
1059,1307,1.38839E+001,-1.41786E+000,9.35270E-002,5.68781E+000,-2.46511E-001,3.21050E-002,5.69324E+000,1.26889E-002,3.38939E-001,0,8.61868E+001,-4.60089E+000,9.99234E-001,4.54246E+001,-3.64485E+001,9.98328E-001,1.20277E-001,-4.99789E-002,-8.44029E-004,1.20282E-001,-4.99831E-002,-2.84029E-001,1.20852E-001,1.12747E+000,-2.79151E-002,0.00000E+000,2.20221E-002,9.52812E-001,0.00000E+000,-2.30134E-003,-6.17829E-002,1.00000E+000,19
1059,1317,1.38720E+001,-8.09327E-001,2.39265E-002,5.66669E+000,-2.81752E-001,-1.11517E-002,5.67370E+000,1.30050E-002,4.10935E-001,0,8.60326E+001,-5.10273E+000,9.99098E-001,4.51898E+001,-3.68373E+001,9.97223E-001,1.20767E-001,-4.99786E-002,-8.30279E-004,1.20771E-001,-4.99826E-002,-2.78602E-001,1.21366E-001,1.12802E+000,-2.79072E-002,0.00000E+000,2.19893E-002,9.52811E-001,0.00000E+000,-1.60445E-003,-6.17729E-002,1.00000E+000,19
799,1307,-5.37305E+000,-1.76115E+000,2.27318E-001,3.39239E+000,-4.48555E-001,2.06134E-001,3.42812E+000,2.09960E-002,5.72684E-001,0,5.18978E+001,-7.87415E+000,9.97579E-001,7.96740E+000,-4.43967E+001,9.97257E-001,1.25279E-001,-5.22934E-002,-3.12638E-004,1.25280E-001,-5.22939E-002,-1.00876E-001,1.25848E-001,1.13346E+000,-2.84808E-003,0.00000E+000,1.65598E-003,9.51856E-001,0.00000E+000,1.71825E-003,-7.69753E-002,1.00000E+000,19
799,1317,-5.37242E+000,-1.16862E+000,1.13078E-001,3.39204E+000,-4.89200E-001,1.49920E-001,3.43041E+000,1.77257E-002,5.85755E-001,0,5.20788E+001,-8.40229E+000,9.98677E-001,7.81364E+000,-4.50127E+001,9.97142E-001,1.25276E-001,-5.22951E-002,-5.40594E-004,1.25278E-001,-5.22967E-002,-1.74428E-001,1.25846E-001,1.13346E+000,-2.84809E-003,0.00000E+000,1.32302E-003,9.51856E-001,0.00000E+000,3.17958E-004,-7.69776E-002,1.00000E+000,19
789,1327,-6.09765E+000,-5.80682E-001,4.89537E-002,3.30562E+000,-5.32199E-001,1.10680E-001,3.35001E+000,1.35974E-002,5.50410E-001,0,5.09105E+001,-8.99007E+000,9.99192E-001,6.62210E+000,-4.59291E+001,9.98253E-001,1.24096E-001,-5.20277E-002,-4.71485E-004,1.24097E-001,-5.20289E-002,-1.53380E-001,1.24636E-001,1.13212E+000,-2.97327E-003,0.00000E+000,1.69679E-003,9.51996E-001,0.00000E+000,-1.54830E-003,-7.54037E-002,1.00000E+000,19
789,1337,-6.08342E+000,3.59041E-002,1.18686E-002,3.30477E+000,-5.58820E-001,5.95237E-002,3.35222E+000,9.61179E-003,5.23364E-001,0,5.10540E+001,-9.29119E+000,9.99004E-001,6.87308E+000,-4.63596E+001,9.98873E-001,1.24171E-001,-5.20427E-002,-7.66075E-004,1.24174E-001,-5.20461E-002,-2.49082E-001,1.24715E-001,1.13221E+000,-2.97121E-003,0.00000E+000,1.22317E-003,9.51985E-001,0.00000E+000,-2.81548E-003,-7.54333E-002,1.00000E+000,19
789,1347,-6.06243E+000,6.50864E-001,1.99559E-003,3.30701E+000,-5.90336E-001,1.67370E-002,3.35933E+000,1.05756E-002,5.51352E-001,0,5.12180E+001,-9.70952E+000,9.98656E-001,7.29507E+000,-4.68479E+001,9.98289E-001,1.24245E-001,-5.20610E-002,-1.06149E-003,1.24251E-001,-5.20674E-002,-3.44946E-001,1.24793E-001,1.13230E+000,-2.96864E-003,0.00000E+000,7.47968E-004,9.51972E-001,0.00000E+000,-4.08692E-003,-7.54701E-002,1.00000E+000,19
789,1357,-6.03742E+000,1.27137E+000,3.31432E-002,3.30545E+000,-6.22129E-001,-2.48247E-002,3.36358E+000,9.33651E-003,5.37833E-001,0,5.13152E+001,-1.01173E+001,9.98482E-001,7.88168E+000,-4.73645E+001,9.98275E-001,1.24317E-001,-5.20863E-002,-1.35813E-003,1.24327E-001,-5.20968E-002,-4.41086E-001,1.24869E-001,1.13239E+000,-2.96502E-003,0.00000E+000,2.70203E-004,9.51952E-001,0.00000E+000,-5.36520E-003,-7.55223E-002,1.00000E+000,19
1069,1327,1.46125E+001,-1.84362E-001,-2.64018E-002,5.73731E+000,-3.09902E-001,-4.45149E-002,5.74584E+000,1.29526E-002,4.37445E-001,0,8.71627E+001,-5.47812E+000,9.99326E-001,4.66810E+001,-3.69392E+001,9.97530E-001,1.21286E-001,-4.99573E-002,-1.09492E-003,1.21293E-001,-4.99643E-002,-3.66325E-001,1.21918E-001,1.12862E+000,-2.74184E-002,0.00000E+000,2.09586E-002,9.52805E-001,0.00000E+000,1.56912E-004,-6.09503E-002,1.00000E+000,19
1069,1337,1.46119E+001,4.39828E-001,-4.67101E-002,5.71982E+000,-3.32588E-001,-7.04080E-002,5.72992E+000,8.29873E-003,4.16931E-001,0,8.69881E+001,-5.80804E+000,9.99446E-001,4.67120E+001,-3.72383E+001,9.98484E-001,1.21766E-001,-4.99586E-002,-1.09639E-003,1.21773E-001,-4.99656E-002,-3.65791E-001,1.22424E-001,1.12916E+000,-2.74044E-002,0.00000E+000,2.09186E-002,9.52804E-001,0.00000E+000,4.03766E-004,-6.09439E-002,1.00000E+000,19
1069,1347,1.46195E+001,1.05879E+000,-4.66942E-002,5.70353E+000,-3.66782E-001,-1.04973E-001,5.71627E+000,8.43996E-003,4.42193E-001,0,8.68625E+001,-6.29028E+000,9.99525E-001,4.69051E+001,-3.76420E+001,9.98822E-001,1.22249E-001,-4.99602E-002,-1.09541E-003,1.22256E-001,-4.99671E-002,-3.64436E-001,1.22933E-001,1.12971E+000,-2.73846E-002,0.00000E+000,2.08782E-002,9.52803E-001,0.00000E+000,6.52287E-004,-6.09349E-002,1.00000E+000,19
789,1307,-6.10126E+000,-1.76929E+000,2.23920E-001,3.31170E+000,-4.50526E-001,2.09593E-001,3.34877E+000,1.44504E-002,5.30833E-001,0,5.06810E+001,-7.88282E+000,9.98555E-001,6.76187E+000,-4.46318E+001,9.96054E-001,1.23942E-001,-5.20158E-002,1.14236E-004,1.23942E-001,-5.20159E-002,3.71978E-002,1.24474E-001,1.13195E+000,-2.97460E-003,0.00000E+000,2.63665E-003,9.52004E-001,0.00000E+000,9.66363E-004,-7.53845E-002,1.00000E+000,19
789,1317,-6.10014E+000,-1.17867E+000,1.35489E-001,3.30906E+000,-4.94108E-001,1.64775E-001,3.34980E+000,1.59071E-002,5.46184E-001,0,5.07890E+001,-8.49474E+000,9.98536E-001,6.67812E+000,-4.53329E+001,9.95301E-001,1.24020E-001,-5.20208E-002,-1.78403E-004,1.24020E-001,-5.20210E-002,-5.80644E-002,1.24555E-001,1.13203E+000,-2.97408E-003,0.00000E+000,2.16717E-003,9.52001E-001,0.00000E+000,-2.89765E-004,-7.53920E-002,1.00000E+000,19
1069,1297,1.46193E+001,-2.01301E+000,1.41500E-001,5.77760E+000,-2.03615E-001,6.69278E-002,5.78157E+000,1.45420E-002,3.72280E-001,0,8.73464E+001,-3.99092E+000,9.98119E-001,4.68652E+001,-3.56651E+001,9.95460E-001,1.19844E-001,-4.99541E-002,-1.08431E-003,1.19851E-001,-4.99610E-002,-3.65864E-001,1.20402E-001,1.12699E+000,-2.74463E-002,0.00000E+000,2.10787E-002,9.52807E-001,0.00000E+000,-5.83318E-004,-6.09630E-002,1.00000E+000,19
1069,1307,1.46154E+001,-1.40364E+000,6.56256E-002,5.76619E+000,-2.34947E-001,2.49743E-002,5.77103E+000,1.03350E-002,3.29624E-001,0,8.73354E+001,-4.41366E+000,9.99217E-001,4.67434E+001,-3.60816E+001,9.97769E-001,1.20323E-001,-4.99550E-002,-1.08912E-003,1.20330E-001,-4.99620E-002,-3.66452E-001,1.20905E-001,1.12753E+000,-2.74400E-002,0.00000E+000,2.10388E-002,9.52807E-001,0.00000E+000,-3.37829E-004,-6.09601E-002,1.00000E+000,19
1069,1317,1.46154E+001,-7.88799E-001,2.04280E-002,5.75333E+000,-2.67071E-001,-8.47760E-003,5.75954E+000,1.13347E-002,4.18961E-001,0,8.72661E+001,-4.88469E+000,9.99438E-001,4.67369E+001,-3.64131E+001,9.97617E-001,1.20804E-001,-4.99561E-002,-1.09205E-003,1.20811E-001,-4.99631E-002,-3.66400E-001,1.21412E-001,1.12807E+000,-2.74293E-002,0.00000E+000,2.09987E-002,9.52806E-001,0.00000E+000,-9.05039E-005,-6.09552E-002,1.00000E+000,19
779,1327,-6.82354E+000,-5.81488E-001,5.89660E-002,3.22562E+000,-5.28828E-001,1.21065E-001,3.27092E+000,1.95695E-002,5.82257E-001,0,4.96765E+001,-8.94443E+000,9.99125E-001,5.49020E+000,-4.60466E+001,9.97799E-001,1.22871E-001,-5.16103E-002,-3.93239E-004,1.22872E-001,-5.16112E-002,-1.29130E-001,1.23394E-001,1.13073E+000,-3.30467E-003,0.00000E+000,2.13771E-003,9.52300E-001,0.00000E+000,-1.71632E-003,-7.40872E-002,1.00000E+000,19
779,1337,-6.81007E+000,2.36253E-002,1.39521E-002,3.22450E+000,-5.65596E-001,6.36367E-002,3.27435E+000,9.32299E-003,5.29976E-001,0,4.98373E+001,-9.39029E+000,9.98689E-001,5.70825E+000,-4.66514E+001,9.98608E-001,1.23084E-001,-5.16287E-002,-7.55414E-004,1.23087E-001,-5.16319E-002,-2.47727E-001,1.23618E-001,1.13098E+000,-3.29914E-003,0.00000E+000,1.51521E-003,9.52286E-001,0.00000E+000,-2.77275E-003,-7.41112E-002,1.00000E+000,19
779,1347,-6.79317E+000,6.42597E-001,3.79519E-003,3.22226E+000,-5.92158E-001,1.76279E-002,3.27627E+000,1.16447E-002,5.22765E-001,0,4.99396E+001,-9.72346E+000,9.98129E-001,6.06897E+000,-4.70972E+001,9.97866E-001,1.23297E-001,-5.16519E-002,-1.11818E-003,1.23304E-001,-5.16591E-002,-3.66184E-001,1.23842E-001,1.13122E+000,-3.29188E-003,0.00000E+000,8.90491E-004,9.52267E-001,0.00000E+000,-3.83296E-003,-7.41426E-002,1.00000E+000,19
779,1357,-6.77043E+000,1.26499E+000,3.26832E-002,3.21939E+000,-6.21629E-001,-2.24255E-002,3.27893E+000,8.78480E-003,5.31737E-001,0,5.00109E+001,-1.01040E+001,9.98433E-001,6.61774E+000,-4.75705E+001,9.98544E-001,1.23509E-001,-5.16823E-002,-1.48244E-003,1.23522E-001,-5.16949E-002,-4.84781E-001,1.24067E-001,1.13147E+000,-3.28217E-003,0.00000E+000,2.61484E-004,9.52242E-001,0.00000E+000,-4.90044E-003,-7.41846E-002,1.00000E+000,19
779,1317,-6.82422E+000,-1.17700E+000,1.37741E-001,3.23070E+000,-4.86613E-001,1.66558E-001,3.27138E+000,1.96242E-002,5.37451E-001,0,4.96067E+001,-8.37682E+000,9.99308E-001,5.55600E+000,-4.54137E+001,9.97826E-001,1.22656E-001,-5.16017E-002,-3.04684E-005,1.22656E-001,-5.16017E-002,-1.00179E-002,1.23170E-001,1.13049E+000,-3.30686E-003,0.00000E+000,2.75874E-003,9.52305E-001,0.00000E+000,-6.62358E-004,-7.40777E-002,1.00000E+000,19
1079,1337,1.53549E+001,4.57054E-001,-6.13641E-002,5.80477E+000,-3.21778E-001,-8.13888E-002,5.81425E+000,1.14136E-002,4.27225E-001,0,8.82478E+001,-5.62561E+000,9.99110E-001,4.82347E+001,-3.68363E+001,9.98974E-001,1.22001E-001,-5.00519E-002,-1.35386E-003,1.22011E-001,-5.00625E-002,-4.50818E-001,1.22664E-001,1.12944E+000,-2.68516E-002,0.00000E+000,1.99282E-002,9.52712E-001,0.00000E+000,8.74806E-004,-6.05174E-002,1.00000E+000,19
1079,1347,1.53656E+001,1.07757E+000,-5.34909E-002,5.79131E+000,-3.54597E-001,-1.08492E-001,5.80317E+000,6.68410E-003,4.46311E-001,0,8.81370E+001,-6.10246E+000,9.99631E-001,4.84884E+001,-3.72343E+001,9.99498E-001,1.22482E-001,-5.00568E-002,-1.38111E-003,1.22493E-001,-5.00678E-002,-4.58593E-001,1.23171E-001,1.12998E+000,-2.68317E-002,0.00000E+000,1.98559E-002,9.52709E-001,0.00000E+000,7.44460E-004,-6.05222E-002,1.00000E+000,19
1079,1297,1.53647E+001,-1.99018E+000,1.47555E-001,5.86445E+000,-1.86703E-001,7.28521E-002,5.86787E+000,1.35763E-002,4.21407E-001,0,8.85644E+001,-3.77107E+000,9.98719E-001,4.84647E+001,-3.52083E+001,9.96925E-001,1.20087E-001,-5.00381E-002,-1.22912E-003,1.20095E-001,-5.00470E-002,-4.13922E-001,1.20649E-001,1.12728E+000,-2.68929E-002,0.00000E+000,2.02155E-002,9.52718E-001,0.00000E+000,1.39246E-003,-6.05075E-002,1.00000E+000,19
1079,1307,1.53553E+001,-1.38732E+000,6.06700E-002,5.84893E+000,-2.24554E-001,2.58908E-002,5.85329E+000,1.18270E-002,3.47562E-001,0,8.85150E+001,-4.25824E+000,9.99279E-001,4.82379E+001,-3.57167E+001,9.97852E-001,1.20563E-001,-5.00407E-002,-1.26241E-003,1.20572E-001,-5.00501E-002,-4.23936E-001,1.21150E-001,1.12782E+000,-2.68878E-002,0.00000E+000,2.01440E-002,9.52717E-001,0.00000E+000,1.26368E-003,-6.05088E-002,1.00000E+000,19
1079,1327,1.53538E+001,-1.67865E-001,-3.74883E-002,5.82027E+000,-2.99583E-001,-5.40145E-002,5.82823E+000,1.35043E-002,4.34625E-001,0,8.83860E+001,-5.30418E+000,9.99288E-001,4.81861E+001,-3.65650E+001,9.98602E-001,1.21522E-001,-5.00479E-002,-1.32412E-003,1.21532E-001,-5.00581E-002,-4.42153E-001,1.22160E-001,1.12890E+000,-2.68653E-002,0.00000E+000,2.00001E-002,9.52714E-001,0.00000E+000,1.00431E-003,-6.05141E-002,1.00000E+000,19
1079,1317,1.53517E+001,-7.71027E-001,5.33423E-003,5.83257E+000,-2.55597E-001,-1.69713E-002,5.83819E+000,1.13777E-002,4.02956E-001,0,8.84291E+001,-4.67149E+000,9.99243E-001,4.81579E+001,-3.60195E+001,9.98271E-001,1.21043E-001,-5.00442E-002,-1.29356E-003,1.21053E-001,-5.00540E-002,-4.33169E-001,1.21655E-001,1.12836E+000,-2.68772E-002,0.00000E+000,2.00720E-002,9.52715E-001,0.00000E+000,1.13393E-003,-6.05113E-002,1.00000E+000,19
779,1307,-6.83250E+000,-1.78285E+000,2.26470E-001,3.22590E+000,-4.59703E-001,2.10656E-001,3.26529E+000,1.36025E-002,5.52112E-001,0,4.93921E+001,-8.02075E+000,9.99067E-001,5.52760E+000,-4.49322E+001,9.97157E-001,1.22442E-001,-5.15955E-002,3.30221E-004,1.22443E-001,-5.15961E-002,1.08713E-001,1.22946E-001,1.13025E+000,-3.30820E-003,0.00000E+000,3.37559E-003,9.52309E-001,0.00000E+000,3.84491E-004,-7.40719E-002,1.00000E+000,19
1089,1337,1.60964E+001,4.76781E-001,-7.04243E-002,5.88788E+000,-3.09098E-001,-8.65432E-002,5.89662E+000,1.02903E-002,4.77691E-001,0,8.94552E+001,-5.43711E+000,9.98889E-001,4.97498E+001,-3.63883E+001,9.98602E-001,1.22588E-001,-5.02054E-002,-1.49202E-003,1.22601E-001,-5.02183E-002,-4.94685E-001,1.23267E-001,1.13012E+000,-2.60817E-002,0.00000E+000,1.89790E-002,9.52564E-001,0.00000E+000,1.27583E-003,-6.01493E-002,1.00000E+000,19
1089,1347,1.61064E+001,1.09718E+000,-6.31029E-002,5.87373E+000,-3.41203E-001,-1.13759E-001,5.88473E+000,8.04397E-003,4.48449E-001,0,8.93348E+001,-5.89426E+000,9.99406E-001,4.99908E+001,-3.68093E+001,9.98713E-001,1.23159E-001,-5.02134E-002,-1.54350E-003,1.23173E-001,-5.02271E-002,-5.10038E-001,1.23869E-001,1.13077E+000,-2.60580E-002,0.00000E+000,1.88697E-002,9.52560E-001,0.00000E+000,8.95560E-004,-6.01633E-002,1.00000E+000,19
769,1347,-7.52345E+000,6.33970E-001,7.05656E-003,3.13833E+000,-5.94477E-001,2.40075E-002,3.19423E+000,9.45675E-003,5.19302E-001,0,4.86559E+001,-9.75928E+000,9.98266E-001,4.85835E+000,-4.73429E+001,9.98220E-001,1.22053E-001,-5.12643E-002,-1.08172E-003,1.22060E-001,-5.12710E-002,-3.57581E-001,1.22579E-001,1.12982E+000,-3.46328E-003,0.00000E+000,1.07992E-003,9.52550E-001,0.00000E+000,-3.48971E-003,-7.29111E-002,1.00000E+000,19
769,1357,-7.49899E+000,1.25830E+000,3.25942E-002,3.13775E+000,-6.21610E-001,-1.76251E-002,3.19878E+000,8.97631E-003,5.41682E-001,0,4.87661E+001,-1.01054E+001,9.98739E-001,5.42769E+000,-4.77738E+001,9.98757E-001,1.22208E-001,-5.12930E-002,-1.43372E-003,1.22220E-001,-5.13049E-002,-4.73418E-001,1.22743E-001,1.13000E+000,-3.45633E-003,0.00000E+000,4.70781E-004,9.52527E-001,0.00000E+000,-4.49144E-003,-7.29497E-002,1.00000E+000,19
769,1327,-7.55085E+000,-5.89677E-001,6.68003E-002,3.14148E+000,-5.32039E-001,1.17015E-001,3.18836E+000,1.48909E-002,5.73163E-001,0,4.84220E+001,-8.98841E+000,9.98850E-001,4.33492E+000,-4.62940E+001,9.96928E-001,1.21741E-001,-5.12274E-002,-3.81506E-004,1.21742E-001,-5.12283E-002,-1.26373E-001,1.22250E-001,1.12946E+000,-3.47177E-003,0.00000E+000,2.28787E-003,9.52579E-001,0.00000E+000,-1.50323E-003,-7.28641E-002,1.00000E+000,19
769,1337,-7.54096E+000,1.19553E-002,1.58987E-002,3.13934E+000,-5.71538E-001,6.63635E-002,3.19163E+000,8.81988E-003,5.29950E-001,0,4.85474E+001,-9.47604E+000,9.98673E-001,4.48296E+000,-4.69375E+001,9.98359E-001,1.21897E-001,-5.12424E-002,-7.31482E-004,1.21901E-001,-5.12455E-002,-2.42058E-001,1.22415E-001,1.12964E+000,-3.46842E-003,0.00000E+000,1.68477E-003,9.52568E-001,0.00000E+000,-2.49503E-003,-7.28826E-002,1.00000E+000,19
1089,1327,1.60933E+001,-1.43224E-001,-5.33946E-002,5.90308E+000,-2.78405E-001,-5.94894E-002,5.90994E+000,1.19969E-002,4.31930E-001,0,8.95875E+001,-4.99452E+000,9.98873E-001,4.96592E+001,-3.60544E+001,9.97973E-001,1.22016E-001,-5.01986E-002,-1.43808E-003,1.22028E-001,-5.02107E-002,-4.78404E-001,1.22664E-001,1.12948E+000,-2.60996E-002,0.00000E+000,1.90883E-002,9.52567E-001,0.00000E+000,1.65592E-003,-6.01387E-002,1.00000E+000,19
1089,1317,1.60966E+001,-7.58559E-001,-4.27990E-003,5.91932E+000,-2.48017E-001,-2.23683E-002,5.92455E+000,1.07650E-002,4.58838E-001,0,8.96927E+001,-4.58915E+000,9.99286E-001,4.97239E+001,-3.56831E+001,9.98789E-001,1.21447E-001,-5.01930E-002,-1.38219E-003,1.21458E-001,-5.02041E-002,-4.61353E-001,1.22065E-001,1.12884E+000,-2.61124E-002,0.00000E+000,1.91970E-002,9.52569E-001,0.00000E+000,2.03388E-003,-6.01312E-002,1.00000E+000,19
1089,1297,1.61089E+001,-1.96875E+000,1.45698E-001,5.94991E+000,-1.71879E-001,7.16809E-002,5.95282E+000,1.01339E-002,4.70779E-001,0,8.97868E+001,-3.55630E+000,9.99329E-001,5.00367E+001,-3.47565E+001,9.98658E-001,1.20310E-001,-5.01832E-002,-1.26743E-003,1.20319E-001,-5.01926E-002,-4.25899E-001,1.20869E-001,1.12756E+000,-2.61304E-002,0.00000E+000,1.94138E-002,9.52572E-001,0.00000E+000,2.78795E-003,-6.01206E-002,1.00000E+000,19
1089,1307,1.61004E+001,-1.36808E+000,5.74335E-002,5.93480E+000,-2.12456E-001,2.20032E-002,5.93864E+000,9.93251E-003,4.36804E-001,0,8.97559E+001,-4.09807E+000,9.99476E-001,4.98198E+001,-3.52741E+001,9.98919E-001,1.20878E-001,-5.01876E-002,-1.32579E-003,1.20888E-001,-5.01978E-002,-4.44019E-001,1.21465E-001,1.12819E+000,-2.61239E-002,0.00000E+000,1.93056E-002,9.52571E-001,0.00000E+000,2.41165E-003,-6.01245E-002,1.00000E+000,19
769,1317,-7.55904E+000,-1.18577E+000,1.32152E-001,3.14131E+000,-4.92314E-001,1.61564E-001,3.18376E+000,1.67548E-002,5.61125E-001,0,4.82774E+001,-8.41948E+000,9.99338E-001,4.25136E+000,-4.56243E+001,9.98476E-001,1.21585E-001,-5.12166E-002,-3.33160E-005,1.21585E-001,-5.12166E-002,-1.10466E-002,1.22086E-001,1.12928E+000,-3.47401E-003,0.00000E+000,2.88710E-003,9.52586E-001,0.00000E+000,-5.17804E-004,-7.28517E-002,1.00000E+000,19
1099,1327,1.68333E+001,-1.25764E-001,-6.01846E-002,5.98583E+000,-2.66246E-001,-5.61970E-002,5.99201E+000,1.28644E-002,4.58265E-001,0,9.07563E+001,-4.83029E+000,9.97889E-001,5.11594E+001,-3.56606E+001,9.96253E-001,1.22548E-001,-5.03343E-002,-1.58085E-003,1.22563E-001,-5.03488E-002,-5.23856E-001,1.23211E-001,1.13010E+000,-2.54174E-002,0.00000E+000,1.82132E-002,9.52464E-001,0.00000E+000,1.90968E-003,-6.02929E-002,1.00000E+000,19
1099,1337,1.68416E+001,4.98008E-001,-7.08585E-002,5.97408E+000,-2.93611E-001,-8.38332E-002,5.98188E+000,1.21646E-002,4.57696E-001,0,9.06761E+001,-5.21062E+000,9.98196E-001,5.13421E+001,-3.59709E+001,9.97611E-001,1.23256E-001,-5.03412E-002,-1.62876E-003,1.23272E-001,-5.03565E-002,-5.37507E-001,1.23958E-001,1.13090E+000,-2.53929E-002,0.00000E+000,1.81124E-002,9.52461E-001,0.00000E+000,1.44392E-003,-6.03071E-002,1.00000E+000,19
1099,1347,1.68547E+001,1.12251E+000,-5.67078E-002,5.96073E+000,-3.23443E-001,-1.12588E-001,5.97056E+000,1.02115E-002,4.51953E-001,0,9.05715E+001,-5.63606E+000,9.98759E-001,5.16401E+001,-3.63299E+001,9.98073E-001,1.23965E-001,-5.03493E-002,-1.67352E-003,1.23981E-001,-5.03653E-002,-5.50003E-001,1.24706E-001,1.13170E+000,-2.53609E-002,0.00000E+000,1.80113E-002,9.52457E-001,0.00000E+000,9.76947E-004,-6.03257E-002,1.00000E+000,19
759,1347,-8.24947E+000,6.29434E-001,6.86502E-003,3.05834E+000,-5.92978E-001,2.75437E-002,3.11542E+000,8.85475E-003,5.18928E-001,0,4.74390E+001,-9.72606E+000,9.98369E-001,3.70987E+000,-4.75159E+001,9.97867E-001,1.20810E-001,-5.09371E-002,-1.00416E-003,1.20816E-001,-5.09429E-002,-3.34978E-001,1.21309E-001,1.12841E+000,-3.49032E-003,0.00000E+000,1.23997E-003,9.52783E-001,0.00000E+000,-3.32181E-003,-7.17612E-002,1.00000E+000,19
759,1357,-8.22828E+000,1.25027E+000,3.09444E-002,3.05500E+000,-6.23026E-001,-1.39964E-002,3.11792E+000,9.32469E-003,5.47256E-001,0,4.75067E+001,-1.01221E+001,9.98582E-001,4.22669E+000,-4.79968E+001,9.98240E-001,1.20817E-001,-5.09579E-002,-1.26587E-003,1.20826E-001,-5.09672E-002,-4.22202E-001,1.21317E-001,1.12842E+000,-3.48986E-003,0.00000E+000,8.10825E-004,9.52767E-001,0.00000E+000,-4.36559E-003,-7.18005E-002,1.00000E+000,19
1099,1297,1.68487E+001,-1.95576E+000,1.32430E-001,6.03220E+000,-1.63987E-001,6.64151E-002,6.03480E+000,9.63627E-003,4.95007E-001,0,9.09793E+001,-3.43452E+000,9.98813E-001,5.15226E+001,-3.44244E+001,9.97794E-001,1.20435E-001,-5.03197E-002,-1.42286E-003,1.20447E-001,-5.03316E-002,-4.77389E-001,1.20987E-001,1.12771E+000,-2.54552E-002,0.00000E+000,1.85135E-002,9.52469E-001,0.00000E+000,3.29684E-003,-6.02709E-002,1.00000E+000,19
1099,1307,1.68437E+001,-1.34864E+000,5.04807E-002,6.02057E+000,-1.98745E-001,2.31623E-002,6.02390E+000,1.11168E-002,4.77297E-001,0,9.09753E+001,-3.90280E+000,9.99167E-001,5.13724E+001,-3.48453E+001,9.98399E-001,1.21139E-001,-5.03238E-002,-1.47737E-003,1.21151E-001,-5.03366E-002,-4.93627E-001,1.21727E-001,1.12851E+000,-2.54471E-002,0.00000E+000,1.84136E-002,9.52468E-001,0.00000E+000,2.83539E-003,-6.02756E-002,1.00000E+000,19
1099,1317,1.68372E+001,-7.38877E-001,-1.50871E-002,6.00363E+000,-2.33067E-001,-1.98178E-002,6.00819E+000,1.32673E-002,4.82738E-001,0,9.08865E+001,-4.37698E+000,9.98716E-001,5.12285E+001,-3.52490E+001,9.97775E-001,1.21843E-001,-5.03288E-002,-1.52993E-003,1.21857E-001,-5.03423E-002,-5.09080E-001,1.22468E-001,1.12930E+000,-2.54343E-002,0.00000E+000,1.83135E-002,9.52466E-001,0.00000E+000,2.37304E-003,-6.02831E-002,1.00000E+000,19
759,1327,-8.28320E+000,-6.00348E-001,6.34082E-002,3.05409E+000,-5.36773E-001,1.13100E-001,3.10296E+000,1.03586E-002,5.44555E-001,0,4.71166E+001,-9.03597E+000,9.98869E-001,3.07832E+000,-4.65661E+001,9.98885E-001,1.20793E-001,-5.09107E-002,-4.84724E-004,1.20795E-001,-5.09121E-002,-1.61745E-001,1.21290E-001,1.12839E+000,-3.49087E-003,0.00000E+000,2.09171E-003,9.52802E-001,0.00000E+000,-1.25017E-003,-7.17139E-002,1.00000E+000,19
759,1337,-8.26747E+000,1.36675E-002,2.10696E-002,3.05760E+000,-5.64151E-001,6.95139E-002,3.10999E+000,8.85391E-003,5.40746E-001,0,4.73029E+001,-9.36657E+000,9.98415E-001,3.34036E+000,-4.70187E+001,9.98114E-001,1.20802E-001,-5.09219E-002,-7.44109E-004,1.20806E-001,-5.09252E-002,-2.48266E-001,1.21300E-001,1.12840E+000,-3.49064E-003,0.00000E+000,1.66639E-003,9.52794E-001,0.00000E+000,-2.28465E-003,-7.17335E-002,1.00000E+000,19
759,1317,-8.28798E+000,-1.19983E+000,1.34872E-001,3.05634E+000,-5.00821E-001,1.58956E-001,3.10118E+000,1.47871E-002,5.67405E-001,0,4.70069E+001,-8.55511E+000,9.98999E-001,3.06178E+000,-4.59420E+001,9.98467E-001,1.20783E-001,-5.09036E-002,-2.27097E-004,1.20784E-001,-5.09039E-002,-7.57873E-002,1.21280E-001,1.12838E+000,-3.49101E-003,0.00000E+000,2.51411E-003,9.52807E-001,0.00000E+000,-2.22783E-004,-7.17026E-002,1.00000E+000,19
749,1317,-9.00851E+000,-1.20221E+000,1.54474E-001,2.97816E+000,-4.99941E-001,1.66970E-001,3.02444E+000,1.09702E-002,5.89374E-001,0,4.58040E+001,-8.55484E+000,9.99024E-001,2.05175E+000,-4.61068E+001,9.98090E-001,1.20039E-001,-5.06688E-002,-3.87777E-004,1.20040E-001,-5.06697E-002,-1.30151E-001,1.20525E-001,1.12754E+000,-3.21985E-003,0.00000E+000,1.97628E-003,9.52967E-001,0.00000E+000,-1.38742E-004,-7.07344E-002,1.00000E+000,19
749,1327,-9.00402E+000,-6.02411E-001,6.87660E-002,2.97722E+000,-5.34809E-001,1.14985E-001,3.02706E+000,8.32506E-003,5.54389E-001,0,4.59520E+001,-8.98980E+000,9.98694E-001,2.02726E+000,-4.67038E+001,9.98462E-001,1.19909E-001,-5.06728E-002,-5.66689E-004,1.19911E-001,-5.06746E-002,-1.90339E-001,1.20389E-001,1.12739E+000,-3.22110E-003,0.00000E+000,1.69525E-003,9.52964E-001,0.00000E+000,-1.02394E-003,-7.07419E-002,1.00000E+000,19
749,1337,-8.99389E+000,1.00437E-002,2.50100E-002,2.97547E+000,-5.62712E-001,7.10319E-002,3.02904E+000,8.37443E-003,5.70723E-001,0,4.60574E+001,-9.34749E+000,9.98674E-001,2.19987E+000,-4.71701E+001,9.98478E-001,1.19778E-001,-5.06802E-002,-7.47306E-004,1.19781E-001,-5.06835E-002,-2.51185E-001,1.20252E-001,1.12724E+000,-3.22381E-003,0.00000E+000,1.41259E-003,9.52959E-001,0.00000E+000,-1.91431E-003,-7.07584E-002,1.00000E+000,19
749,1347,-8.97863E+000,6.22956E-001,4.84588E-003,2.97433E+000,-5.93187E-001,2.67859E-002,3.03303E+000,9.28762E-003,5.25883E-001,0,4.61714E+001,-9.72237E+000,9.98781E-001,2.51272E+000,-4.77120E+001,9.98427E-001,1.19645E-001,-5.06901E-002,-9.28865E-004,1.19650E-001,-5.06952E-002,-3.12431E-001,1.20113E-001,1.12710E+000,-3.22754E-003,0.00000E+000,1.12920E-003,9.52952E-001,0.00000E+000,-2.80698E-003,-7.07810E-002,1.00000E+000,19
1109,1297,1.75905E+001,-1.94086E+000,1.22612E-001,6.11772E+000,-1.52018E-001,7.14741E-002,6.12003E+000,1.00207E-002,4.85075E-001,0,9.21787E+001,-3.27439E+000,9.98371E-001,5.30497E+001,-3.40871E+001,9.96746E-001,1.20731E-001,-5.06260E-002,-1.49492E-003,1.20744E-001,-5.06391E-002,-4.99798E-001,1.21266E-001,1.12808E+000,-2.43887E-002,0.00000E+000,1.74234E-002,9.52217E-001,0.00000E+000,4.02525E-003,-6.06211E-002,1.00000E+000,19
1109,1307,1.75838E+001,-1.33232E+000,4.04001E-002,6.10444E+000,-1.85272E-001,2.81603E-002,6.10732E+000,1.11794E-002,4.32765E-001,0,9.21506E+001,-3.70665E+000,9.98768E-001,5.28741E+001,-3.45010E+001,9.98012E-001,1.21492E-001,-5.06285E-002,-1.52335E-003,1.21506E-001,-5.06419E-002,-5.07041E-001,1.22065E-001,1.12893E+000,-2.43800E-002,0.00000E+000,1.73857E-002,9.52217E-001,0.00000E+000,3.33343E-003,-6.06282E-002,1.00000E+000,19
1109,1317,1.75779E+001,-7.21448E-001,-2.24846E-002,6.08816E+000,-2.18819E-001,-1.14041E-002,6.09210E+000,1.21397E-002,4.45497E-001,0,9.20596E+001,-4.17699E+000,9.98372E-001,5.27436E+001,-3.48878E+001,9.97544E-001,1.22254E-001,-5.06314E-002,-1.54971E-003,1.22268E-001,-5.06453E-002,-5.13531E-001,1.22867E-001,1.12979E+000,-2.43662E-002,0.00000E+000,1.73478E-002,9.52216E-001,0.00000E+000,2.63970E-003,-6.06393E-002,1.00000E+000,19
749,1357,-8.95424E+000,1.24303E+000,3.36904E-002,2.97470E+000,-6.23204E-001,-8.48393E-003,3.03929E+000,1.11103E-002,5.47176E-001,0,4.62771E+001,-1.01345E+001,9.98741E-001,3.09289E+000,-4.82198E+001,9.98458E-001,1.19510E-001,-5.07042E-002,-1.11246E-003,1.19518E-001,-5.07115E-002,-3.74442E-001,1.19973E-001,1.12695E+000,-3.23300E-003,0.00000E+000,8.43864E-004,9.52941E-001,0.00000E+000,-3.70576E-003,-7.08141E-002,1.00000E+000,19
1109,1327,1.75759E+001,-1.08836E-001,-6.46908E-002,6.07098E+000,-2.53600E-001,-5.00452E-002,6.07648E+000,1.09272E-002,4.38868E-001,0,9.19479E+001,-4.65727E+000,9.97821E-001,5.27096E+001,-3.53027E+001,9.96800E-001,1.23018E-001,-5.06349E-002,-1.57343E-003,1.23032E-001,-5.06491E-002,-5.19088E-001,1.23670E-001,1.13065E+000,-2.43462E-002,0.00000E+000,1.73098E-002,9.52216E-001,0.00000E+000,1.94395E-003,-6.06555E-002,1.00000E+000,19
1109,1337,1.75816E+001,5.15326E-001,-7.87597E-002,6.05607E+000,-2.81194E-001,-8.23343E-002,6.06315E+000,1.15021E-002,4.60012E-001,0,9.18383E+001,-5.03845E+000,9.98779E-001,5.28428E+001,-3.55872E+001,9.98160E-001,1.23783E-001,-5.06390E-002,-1.59428E-003,1.23798E-001,-5.06536E-002,-5.23646E-001,1.24477E-001,1.13152E+000,-2.43192E-002,0.00000E+000,1.72717E-002,9.52214E-001,0.00000E+000,1.24478E-003,-6.06773E-002,1.00000E+000,19
1109,1347,1.75991E+001,1.14033E+000,-5.25066E-002,6.04358E+000,-3.13068E-001,-1.12899E-001,6.05273E+000,1.14786E-002,4.52813E-001,0,9.17521E+001,-5.48705E+000,9.98807E-001,5.32287E+001,-3.59641E+001,9.97915E-001,1.24551E-001,-5.06443E-002,-1.60996E-003,1.24566E-001,-5.06591E-002,-5.26459E-001,1.25287E-001,1.13238E+000,-2.42800E-002,0.00000E+000,1.72333E-002,9.52213E-001,0.00000E+000,5.42394E-004,-6.07091E-002,1.00000E+000,19
739,1337,-9.71830E+000,9.36212E-005,3.03021E-002,2.89509E+000,-5.66901E-001,7.46522E-002,2.95102E+000,9.58342E-003,5.58552E-001,0,4.48329E+001,-9.40925E+000,9.98547E-001,1.09747E+000,-4.74427E+001,9.98266E-001,1.18701E-001,-5.02754E-002,-8.40081E-004,1.18705E-001,-5.02795E-002,-2.84841E-001,1.19167E-001,1.12603E+000,-3.01775E-003,0.00000E+000,1.04567E-003,9.53301E-001,0.00000E+000,-1.63500E-003,-7.00997E-002,1.00000E+000,19
739,1347,-9.70653E+000,6.14640E-001,8.94575E-003,2.89091E+000,-5.95420E-001,3.07965E-002,2.95175E+000,7.35701E-003,5.41939E-001,0,4.48972E+001,-9.76628E+000,9.99212E-001,1.35489E+000,-4.79451E+001,9.99144E-001,1.18395E-001,-5.02845E-002,-1.01617E-003,1.18401E-001,-5.02906E-002,-3.45148E-001,1.18848E-001,1.12569E+000,-3.02619E-003,0.00000E+000,7.77649E-004,9.53295E-001,0.00000E+000,-2.54507E-003,-7.01221E-002,1.00000E+000,19
739,1357,-9.68309E+000,1.23645E+000,3.37872E-002,2.89091E+000,-6.23053E-001,-6.51717E-003,2.95729E+000,8.20462E-003,5.38424E-001,0,4.50023E+001,-1.01258E+001,9.98919E-001,1.91275E+000,-4.84319E+001,9.98916E-001,1.18086E-001,-5.02976E-002,-1.19515E-003,1.18095E-001,-5.03061E-002,-4.06643E-001,1.18525E-001,1.12534E+000,-3.03858E-003,0.00000E+000,5.07926E-004,9.53285E-001,0.00000E+000,-3.46092E-003,-7.01551E-002,1.00000E+000,19
739,1327,-9.72987E+000,-6.08038E-001,7.36756E-002,2.89526E+000,-5.34651E-001,1.18039E-001,2.94657E+000,9.19904E-003,5.28557E-001,0,4.47042E+001,-8.97975E+000,9.99252E-001,9.02101E-001,-4.69141E+001,9.98975E-001,1.19006E-001,-5.02684E-002,-6.65371E-004,1.19008E-001,-5.02710E-002,-2.25210E-001,1.19485E-001,1.12637E+000,-3.01152E-003,0.00000E+000,1.31312E-003,9.53306E-001,0.00000E+000,-7.26880E-004,-7.00832E-002,1.00000E+000,19
1119,1297,1.83291E+001,-1.92548E+000,1.10995E-001,6.19979E+000,-1.39757E-001,7.50141E-002,6.20182E+000,1.04300E-002,4.42220E-001,0,9.33296E+001,-3.08660E+000,9.99155E-001,5.45303E+001,-3.37553E+001,9.98401E-001,1.21212E-001,-5.05194E-002,-1.65298E-003,1.21228E-001,-5.05353E-002,-5.51428E-001,1.21785E-001,1.12864E+000,-2.34010E-002,0.00000E+000,1.62824E-002,9.52380E-001,0.00000E+000,3.97372E-003,-6.13180E-002,1.00000E+000,19
1119,1307,1.83239E+001,-1.31803E+000,3.38588E-002,6.18650E+000,-1.75226E-001,3.11310E-002,6.18906E+000,9.02502E-003,4.30021E-001,0,9.33044E+001,-3.57041E+000,9.99140E-001,5.43855E+001,-3.41751E+001,9.98944E-001,1.21946E-001,-5.05191E-002,-1.63544E-003,1.21962E-001,-5.05346E-002,-5.43253E-001,1.22557E-001,1.12947E+000,-2.33907E-002,0.00000E+000,1.63364E-002,9.52381E-001,0.00000E+000,3.22114E-003,-6.13274E-002,1.00000E+000,19
1119,1317,1.83227E+001,-7.06070E-001,-2.51054E-002,6.17415E+000,-2.07931E-001,-7.64981E-003,6.17766E+000,9.62100E-003,4.24730E-001,0,9.32696E+001,-4.02806E+000,9.98693E-001,5.43360E+001,-3.45602E+001,9.98657E-001,1.22681E-001,-5.05186E-002,-1.61614E-003,1.22696E-001,-5.05337E-002,-5.34568E-001,1.23330E-001,1.13029E+000,-2.33764E-002,0.00000E+000,1.63905E-002,9.52382E-001,0.00000E+000,2.46733E-003,-6.13404E-002,1.00000E+000,19
1119,1327,1.83227E+001,-9.10289E-002,-6.14351E-002,6.15802E+000,-2.40724E-001,-4.34822E-002,6.16287E+000,9.00960E-003,4.13539E-001,0,9.31621E+001,-4.48580E+000,9.98579E-001,5.43410E+001,-3.49507E+001,9.98439E-001,1.23417E-001,-5.05181E-002,-1.59417E-003,1.23432E-001,-5.05327E-002,-5.25075E-001,1.24106E-001,1.13112E+000,-2.33560E-002,0.00000E+000,1.64448E-002,9.52383E-001,0.00000E+000,1.71105E-003,-6.13590E-002,1.00000E+000,19
1119,1337,1.83283E+001,5.28408E-001,-7.75115E-002,6.14219E+000,-2.73972E-001,-8.03486E-002,6.14882E+000,8.46242E-003,4.52186E-001,0,9.30589E+001,-4.94798E+000,9.99283E-001,5.44670E+001,-3.52938E+001,9.98569E-001,1.24156E-001,-5.05175E-002,-1.56928E-003,1.24170E-001,-5.05315E-002,-5.14693E-001,1.24885E-001,1.13196E+000,-2.33290E-002,0.00000E+000,1.64994E-002,9.52385E-001,0.00000E+000,9.50432E-004,-6.13836E-002,1.00000E+000,19
1119,1347,1.83434E+001,1.15296E+000,-5.38496E-002,6.12781E+000,-3.05627E-001,-1.10593E-001,6.13643E+000,1.20153E-002,4.33132E-001,0,9.29441E+001,-5.39550E+000,9.99209E-001,5.48087E+001,-3.56766E+001,9.98540E-001,1.24896E-001,-5.05167E-002,-1.53997E-003,1.24909E-001,-5.05302E-002,-5.02954E-001,1.25666E-001,1.13279E+000,-2.32919E-002,0.00000E+000,1.65541E-002,9.52387E-001,0.00000E+000,1.87775E-004,-6.14174E-002,1.00000E+000,19
739,1317,-9.73078E+000,-1.20601E+000,1.55673E-001,2.89942E+000,-4.98694E-001,1.64810E-001,2.94661E+000,1.17915E-002,5.69507E-001,0,4.46225E+001,-8.51502E+000,9.99067E-001,9.72751E-001,-4.62757E+001,9.98501E-001,1.19307E-001,-5.02649E-002,-4.93415E-004,1.19308E-001,-5.02664E-002,-1.66715E-001,1.19800E-001,1.12671E+000,-3.00882E-003,0.00000E+000,1.57872E-003,9.53308E-001,0.00000E+000,1.74986E-004,-7.00760E-002,1.00000E+000,19
1129,1297,1.90676E+001,-1.90508E+000,1.04421E-001,6.28009E+000,-1.23042E-001,7.87900E-002,6.28179E+000,1.14504E-002,4.25761E-001,0,9.44479E+001,-2.84579E+000,9.99460E-001,5.60214E+001,-3.33434E+001,9.98413E-001,1.21500E-001,-5.05103E-002,-1.84193E-003,1.21520E-001,-5.05300E-002,-6.13444E-001,1.22093E-001,1.12898E+000,-2.24090E-002,0.00000E+000,1.51286E-002,9.52425E-001,0.00000E+000,3.15490E-003,-6.15792E-002,1.00000E+000,19
1129,1307,1.90625E+001,-1.30385E+000,2.98684E-002,6.26676E+000,-1.64868E-001,3.67815E-002,6.26904E+000,1.61701E-002,3.87658E-001,0,9.44183E+001,-3.42176E+000,9.99335E-001,5.58837E+001,-3.38764E+001,9.96817E-001,1.22299E-001,-5.05067E-002,-1.77242E-003,1.22317E-001,-5.05249E-002,-5.87585E-001,1.22932E-001,1.12988E+000,-2.23974E-002,0.00000E+000,1.52794E-002,9.52427E-001,0.00000E+000,2.42108E-003,-6.15886E-002,1.00000E+000,19
1129,1317,1.90656E+001,-6.94207E-001,-2.89279E-002,6.25810E+000,-2.00313E-001,-3.40690E-003,6.26131E+000,9.43831E-003,3.75084E-001,0,9.44461E+001,-3.91635E+000,9.99352E-001,5.58989E+001,-3.42993E+001,9.97411E-001,1.23099E-001,-5.05025E-002,-1.70077E-003,1.23115E-001,-5.05192E-002,-5.61256E-001,1.23773E-001,1.13078E+000,-2.23812E-002,0.00000E+000,1.54305E-002,9.52430E-001,0.00000E+000,1.68578E-003,-6.16018E-002,1.00000E+000,19
729,1347,-1.04230E+001,6.03445E-001,2.17139E-002,2.81737E+000,-6.01953E-001,3.73479E-002,2.88120E+000,6.50592E-003,5.46298E-001,0,4.37676E+001,-9.87052E+000,9.99529E-001,3.99611E-001,-4.82459E+001,9.99479E-001,1.17127E-001,-4.98590E-002,-9.04038E-004,1.17132E-001,-4.98639E-002,-3.10178E-001,1.17563E-001,1.12426E+000,-2.34748E-003,0.00000E+000,4.21943E-004,9.53629E-001,0.00000E+000,-2.56894E-003,-6.90433E-002,1.00000E+000,19
729,1357,-1.04052E+001,1.22970E+000,3.59022E-002,2.81308E+000,-6.24195E-001,-4.51579E-003,2.88151E+000,7.60983E-003,5.47168E-001,0,4.38183E+001,-1.01345E+001,9.99140E-001,8.46390E-001,-4.86413E+001,9.99293E-001,1.16584E-001,-4.98690E-002,-1.05562E-003,1.16591E-001,-4.98757E-002,-3.63342E-001,1.16996E-001,1.12366E+000,-2.36803E-003,0.00000E+000,2.24083E-004,9.53623E-001,0.00000E+000,-3.68734E-003,-6.90812E-002,1.00000E+000,19
1129,1327,1.90692E+001,-7.59962E-002,-6.35856E-002,6.24602E+000,-2.29292E-001,-3.53560E-002,6.25032E+000,1.09447E-002,3.91091E-001,0,9.43843E+001,-4.34696E+000,9.99166E-001,5.59622E+001,-3.46286E+001,9.98487E-001,1.23898E-001,-5.04977E-002,-1.62670E-003,1.23913E-001,-5.05128E-002,-5.34373E-001,1.24616E-001,1.13169E+000,-2.23596E-002,0.00000E+000,1.55819E-002,9.52433E-001,0.00000E+000,9.49026E-004,-6.16194E-002,1.00000E+000,19
729,1337,-1.04423E+001,-5.90698E-003,3.66972E-002,2.81502E+000,-5.66950E-001,8.10811E-002,2.87269E+000,8.64279E-003,5.57876E-001,0,4.36020E+001,-9.41799E+000,9.98989E-001,9.55444E-003,-4.76512E+001,9.98619E-001,1.17667E-001,-4.98512E-002,-7.55176E-004,1.17670E-001,-4.98546E-002,-2.58284E-001,1.18126E-001,1.12487E+000,-2.33165E-003,0.00000E+000,6.19016E-004,9.53634E-001,0.00000E+000,-1.45500E-003,-6.90141E-002,1.00000E+000,19
729,1327,-1.04530E+001,-6.12226E-001,8.05004E-002,2.81509E+000,-5.34839E-001,1.20298E-001,2.86797E+000,9.18836E-003,5.51853E-001,0,4.34847E+001,-8.97691E+000,9.98953E-001,-1.71066E-001,-4.70817E+001,9.98436E-001,1.18201E-001,-4.98460E-002,-6.09806E-004,1.18204E-001,-4.98483E-002,-2.07910E-001,1.18685E-001,1.12547E+000,-2.32163E-003,0.00000E+000,8.14862E-004,9.53638E-001,0.00000E+000,-3.47991E-004,-6.89956E-002,1.00000E+000,19
1129,1337,1.90828E+001,5.46347E-001,-6.35790E-002,6.23225E+000,-2.64577E-001,-7.96735E-002,6.23837E+000,1.13093E-002,4.70215E-001,0,9.43374E+001,-4.82516E+000,9.98978E-001,5.62390E+001,-3.49395E+001,9.98806E-001,1.24706E-001,-5.04908E-002,-1.54490E-003,1.24720E-001,-5.05044E-002,-5.05187E-001,1.25469E-001,1.13260E+000,-2.23221E-002,0.00000E+000,1.57351E-002,9.52440E-001,0.00000E+000,2.03168E-004,-6.16501E-002,1.00000E+000,19
729,1317,-1.04570E+001,-1.21292E+000,1.51392E-001,2.81753E+000,-5.00074E-001,1.63554E-001,2.86623E+000,1.07493E-002,5.79995E-001,0,4.33890E+001,-8.52691E+000,9.98878E-001,-1.77234E-001,-4.64663E+001,9.98104E-001,1.18733E-001,-4.98428E-002,-4.66584E-004,1.18734E-001,-4.98440E-002,-1.58582E-001,1.19242E-001,1.12607E+000,-2.31558E-003,0.00000E+000,1.01020E-003,9.53640E-001,0.00000E+000,7.56171E-004,-6.89845E-002,1.00000E+000,19
1129,1347,1.90921E+001,1.17302E+000,-5.31216E-002,6.21472E+000,-2.92813E-001,-1.11521E-001,6.22261E+000,1.34796E-002,4.72463E-001,0,9.41831E+001,-5.22484E+000,9.98809E-001,5.64662E+001,-3.52488E+001,9.98244E-001,1.25510E-001,-5.04839E-002,-1.46379E-003,1.25522E-001,-5.04961E-002,-4.76501E-001,1.26319E-001,1.13351E+000,-2.22853E-002,0.00000E+000,1.58877E-002,9.52446E-001,0.00000E+000,-5.39712E-004,-6.16800E-002,1.00000E+000,19
719,1347,-1.11496E+001,6.02953E-001,2.01010E-002,2.73468E+000,-5.96306E-001,3.72302E-002,2.79918E+000,1.01849E-002,5.68533E-001,0,4.25117E+001,-9.78317E+000,9.99055E-001,-7.42509E-001,-4.83432E+001,9.99038E-001,1.16172E-001,-4.95982E-002,-8.46486E-004,1.16176E-001,-4.96025E-002,-2.92565E-001,1.16588E-001,1.12319E+000,-1.54858E-003,0.00000E+000,-1.61764E-004,9.53798E-001,0.00000E+000,-2.29327E-003,-6.78186E-002,1.00000E+000,19
719,1357,-1.11323E+001,1.22266E+000,4.08864E-002,2.73026E+000,-6.25390E-001,2.80049E-003,2.80097E+000,8.54410E-003,5.90765E-001,0,4.25398E+001,-1.01714E+001,9.99080E-001,-2.85245E-001,-4.88453E+001,9.99199E-001,1.15412E-001,-4.96045E-002,-9.51275E-004,1.15417E-001,-4.96099E-002,-3.30281E-001,1.15795E-001,1.12234E+000,-1.57687E-003,0.00000E+000,-2.56315E-004,9.53795E-001,0.00000E+000,-3.54601E-003,-6.78604E-002,1.00000E+000,19
719,1337,-1.11667E+001,-8.58178E-003,3.56334E-002,2.73364E+000,-5.64698E-001,7.72551E-002,2.79243E+000,1.14960E-002,5.90769E-001,0,4.23787E+001,-9.37536E+000,9.98302E-001,-1.09809E+000,-4.77759E+001,9.97702E-001,1.16925E-001,-4.95935E-002,-7.45612E-004,1.16928E-001,-4.95969E-002,-2.56544E-001,1.17375E-001,1.12403E+000,-1.52770E-003,0.00000E+000,-6.77808E-005,9.53801E-001,0.00000E+000,-1.04808E-003,-6.77878E-002,1.00000E+000,19
719,1327,-1.11752E+001,-6.14488E-001,8.44685E-002,2.73545E+000,-5.32715E-001,1.19849E-001,2.78941E+000,8.25759E-003,5.90796E-001,0,4.22791E+001,-8.94592E+000,9.98312E-001,-1.23285E+000,-4.72057E+001,9.97819E-001,1.17672E-001,-4.95905E-002,-6.48563E-004,1.17674E-001,-4.95930E-002,-2.22161E-001,1.18157E-001,1.12487E+000,-1.51423E-003,0.00000E+000,2.56909E-005,9.53802E-001,0.00000E+000,1.90347E-004,-6.77680E-002,1.00000E+000,19
719,1317,-1.11803E+001,-1.21586E+000,1.62281E-001,2.73567E+000,-4.99178E-001,1.64252E-001,2.78569E+000,1.07433E-002,5.80437E-001,0,4.21464E+001,-8.50564E+000,9.98359E-001,-1.23719E+000,-4.66329E+001,9.97527E-001,1.18415E-001,-4.95888E-002,-5.54616E-004,1.18417E-001,-4.95907E-002,-1.89143E-001,1.18936E-001,1.12571E+000,-1.50724E-003,0.00000E+000,1.18955E-004,9.53803E-001,0.00000E+000,1.42601E-003,-6.77577E-002,1.00000E+000,19
1139,1297,1.98207E+001,-1.89500E+000,1.07945E-001,6.37308E+000,-1.16323E-001,8.68245E-002,6.37473E+000,7.78075E-003,3.70971E-001,0,9.57406E+001,-2.76848E+000,9.99743E-001,5.77589E+001,-3.31308E+001,9.98689E-001,1.21786E-001,-5.06158E-002,-1.95078E-003,1.21808E-001,-5.06379E-002,-6.48207E-001,1.22384E-001,1.12932E+000,-2.13831E-002,0.00000E+000,1.41132E-002,9.52363E-001,0.00000E+000,2.08372E-003,-6.19397E-002,1.00000E+000,19
1139,1307,1.98135E+001,-1.29476E+000,2.14316E-002,6.35879E+000,-1.59188E-001,3.75947E-002,6.36089E+000,9.76878E-003,3.35492E-001,0,9.57273E+001,-3.33911E+000,9.99574E-001,5.75699E+001,-3.36508E+001,9.98508E-001,1.22683E-001,-5.06114E-002,-1.86096E-003,1.22703E-001,-5.06314E-002,-6.15189E-001,1.23325E-001,1.13033E+000,-2.13718E-002,0.00000E+000,1.42996E-002,9.52365E-001,0.00000E+000,1.39327E-003,-6.19474E-002,1.00000E+000,19
1139,1337,1.98280E+001,5.67673E-001,-6.53149E-002,6.31627E+000,-2.49180E-001,-7.94008E-002,6.32169E+000,1.18494E-002,4.82865E-001,0,9.55253E+001,-4.61214E+000,9.98685E-001,5.78439E+001,-3.45021E+001,9.97915E-001,1.25386E-001,-5.05898E-002,-1.56602E-003,1.25399E-001,-5.06038E-002,-5.09828E-001,1.26175E-001,1.13339E+000,-2.12837E-002,0.00000E+000,1.48635E-002,9.52381E-001,0.00000E+000,-6.95123E-004,-6.20076E-002,1.00000E+000,19
1139,1347,1.98480E+001,1.19051E+000,-4.01479E-002,6.30508E+000,-2.84406E-001,-1.13017E-001,6.31250E+000,1.25343E-002,4.87966E-001,0,9.54730E+001,-5.11044E+000,9.98534E-001,5.82582E+001,-3.48992E+001,9.97235E-001,1.26290E-001,-5.05798E-002,-1.45914E-003,1.26302E-001,-5.05918E-002,-4.72637E-001,1.27132E-001,1.13441E+000,-2.12358E-002,0.00000E+000,1.50529E-002,9.52390E-001,0.00000E+000,-1.39639E-003,-6.20403E-002,1.00000E+000,19
1139,1327,1.98181E+001,-6.08047E-002,-7.02708E-002,6.33366E+000,-2.21564E-001,-4.08764E-002,6.33767E+000,1.17032E-002,4.34012E-001,0,9.56512E+001,-4.22890E+000,9.98974E-001,5.76175E+001,-3.42614E+001,9.97538E-001,1.24481E-001,-5.05990E-002,-1.67030E-003,1.24497E-001,-5.06149E-002,-5.46549E-001,1.25220E-001,1.13236E+000,-2.13258E-002,0.00000E+000,1.46745E-002,9.52374E-001,0.00000E+000,4.86036E-006,-6.19788E-002,1.00000E+000,19
1139,1317,1.98075E+001,-6.83080E-001,-4.20717E-002,6.34202E+000,-1.92909E-001,-2.84708E-003,6.34495E+000,1.12702E-002,3.88832E-001,0,9.56356E+001,-3.82741E+000,9.99568E-001,5.74352E+001,-3.39983E+001,9.97959E-001,1.23580E-001,-5.06062E-002,-1.76860E-003,1.23598E-001,-5.06241E-002,-5.81674E-001,1.24270E-001,1.13134E+000,-2.13551E-002,0.00000E+000,1.44865E-002,9.52368E-001,0.00000E+000,7.01137E-004,-6.19588E-002,1.00000E+000,19
709,1347,-1.18788E+001,6.01895E-001,1.90769E-002,2.64913E+000,-5.91139E-001,3.80612E-002,2.71455E+000,9.68025E-003,5.75180E-001,0,4.12071E+001,-9.69791E+000,9.98969E-001,-1.91692E+000,-4.84590E+001,9.98778E-001,1.15257E-001,-4.88191E-002,-9.25926E-004,1.15262E-001,-4.88243E-002,-3.23322E-001,1.15710E-001,1.12216E+000,-6.91738E-004,0.00000E+000,-1.05516E-003,9.54472E-001,0.00000E+000,-2.05999E-003,-6.67293E-002,1.00000E+000,19
709,1357,-1.18590E+001,1.21987E+000,3.15167E-002,2.64792E+000,-6.20393E-001,-1.67629E-003,2.71963E+000,8.85776E-003,5.69953E-001,0,4.13002E+001,-1.00769E+001,9.99187E-001,-1.44280E+000,-4.89843E+001,9.99161E-001,1.14362E-001,-4.88266E-002,-1.05735E-003,1.14369E-001,-4.88335E-002,-3.71216E-001,1.14775E-001,1.12116E+000,-7.23864E-004,0.00000E+000,-1.20414E-003,9.54467E-001,0.00000E+000,-3.23491E-003,-6.67671E-002,1.00000E+000,19
709,1337,-1.18871E+001,-1.39720E-002,4.13636E-002,2.65525E+000,-5.65191E-001,7.68361E-002,2.71583E+000,9.08927E-003,5.58064E-001,0,4.11904E+001,-9.35770E+000,9.98706E-001,-2.12179E+000,-4.79895E+001,9.98316E-001,1.16145E-001,-4.88139E-002,-7.99634E-004,1.16149E-001,-4.88178E-002,-2.77731E-001,1.16639E-001,1.12316E+000,-6.69628E-004,0.00000E+000,-9.06965E-004,9.54475E-001,0.00000E+000,-8.91235E-004,-6.67034E-002,1.00000E+000,19
709,1317,-1.18988E+001,-1.21625E+000,1.79957E-001,2.65745E+000,-4.96671E-001,1.67225E-001,2.70864E+000,1.14510E-002,5.81390E-001,0,4.09512E+001,-8.46027E+000,9.98875E-001,-2.19873E+000,-4.67739E+001,9.98544E-001,1.17903E-001,-4.88089E-002,-5.58752E-004,1.17904E-001,-4.88108E-002,-1.92030E-001,1.18485E-001,1.12514E+000,-6.48181E-004,0.00000E+000,-6.12464E-004,9.54478E-001,0.00000E+000,1.43133E-003,-6.66782E-002,1.00000E+000,19
709,1327,-1.18923E+001,-6.16378E-001,1.00187E-001,2.65820E+000,-5.31319E-001,1.18122E-001,2.71335E+000,1.25722E-002,5.96541E-001,0,4.11116E+001,-8.91919E+000,9.98890E-001,-2.17888E+000,-4.73652E+001,9.98447E-001,1.17025E-001,-4.88110E-002,-6.78277E-004,1.17028E-001,-4.88138E-002,-2.34336E-001,1.17563E-001,1.12415E+000,-6.57078E-004,0.00000E+000,-7.59598E-004,9.54477E-001,0.00000E+000,2.70971E-004,-6.66886E-002,1.00000E+000,19
1149,1297,2.05631E+001,-1.88514E+000,9.15663E-002,6.45696E+000,-1.11202E-001,8.29046E-002,6.45845E+000,1.83804E-002,3.90583E-001,0,9.69432E+001,-2.68798E+000,9.99125E-001,5.93033E+001,-3.28433E+001,9.96314E-001,1.22057E-001,-5.07143E-002,-2.05883E-003,1.22081E-001,-5.07388E-002,-6.82637E-001,1.22659E-001,1.12964E+000,-2.04348E-002,0.00000E+000,1.31850E-002,9.52322E-001,0.00000E+000,6.87557E-004,-6.25732E-002,1.00000E+000,19
1149,1307,2.05663E+001,-1.27279E+000,2.20614E-002,6.45162E+000,-1.41959E-001,4.56719E-002,6.45334E+000,1.16355E-002,3.92688E-001,0,9.70122E+001,-3.13271E+000,9.99328E-001,5.93023E+001,-3.31902E+001,9.97848E-001,1.23050E-001,-5.07105E-002,-1.97996E-003,1.23072E-001,-5.07330E-002,-6.52759E-001,1.23703E-001,1.13076E+000,-2.04200E-002,0.00000E+000,1.33399E-002,9.52324E-001,0.00000E+000,1.17992E-004,-6.25807E-002,1.00000E+000,19
1149,1317,2.05636E+001,-6.62155E-001,-3.82078E-002,6.43593E+000,-1.78452E-001,-1.78063E-004,6.43840E+000,1.01161E-002,4.21444E-001,0,9.69581E+001,-3.63636E+000,9.99352E-001,5.92246E+001,-3.35712E+001,9.97827E-001,1.24046E-001,-5.07058E-002,-1.89743E-003,1.24067E-001,-5.07264E-002,-6.22011E-001,1.24752E-001,1.13189E+000,-2.03976E-002,0.00000E+000,1.34955E-002,9.52327E-001,0.00000E+000,-4.54351E-004,-6.25920E-002,1.00000E+000,19
1149,1327,2.05655E+001,-4.19119E-002,-7.62445E-002,6.42046E+000,-2.06248E-001,-4.15653E-002,6.42390E+000,1.03637E-002,3.79673E-001,0,9.68823E+001,-4.00752E+000,9.99109E-001,5.92557E+001,-3.38873E+001,9.97612E-001,1.25041E-001,-5.07002E-002,-1.81169E-003,1.25060E-001,-5.07189E-002,-5.90569E-001,1.25802E-001,1.13302E+000,-2.03677E-002,0.00000E+000,1.36512E-002,9.52331E-001,0.00000E+000,-1.02672E-003,-6.26072E-002,1.00000E+000,19
1149,1337,2.05776E+001,5.78213E-001,-8.00154E-002,6.40669E+000,-2.43563E-001,-8.21121E-002,6.41185E+000,1.56854E-002,4.68714E-001,0,9.68249E+001,-4.52400E+000,9.99113E-001,5.94994E+001,-3.42161E+001,9.98299E-001,1.26047E-001,-5.06930E-002,-1.71884E-003,1.26064E-001,-5.07097E-002,-5.57147E-001,1.26864E-001,1.13416E+000,-2.03233E-002,0.00000E+000,1.38087E-002,9.52337E-001,0.00000E+000,-1.60593E-003,-6.26297E-002,1.00000E+000,19
1149,1347,2.06040E+001,1.20537E+000,-3.76198E-002,6.39785E+000,-2.77607E-001,-1.13603E-001,6.40488E+000,1.56903E-002,4.72619E-001,0,9.67963E+001,-4.99841E+000,9.99093E-001,6.00384E+001,-3.45828E+001,9.97919E-001,1.27054E-001,-5.06839E-002,-1.61902E-003,1.27068E-001,-5.06987E-002,-5.21852E-001,1.27930E-001,1.13530E+000,-2.02633E-002,0.00000E+000,1.39666E-002,9.52345E-001,0.00000E+000,-2.18684E-003,-6.26602E-002,1.00000E+000,19
699,1347,-1.25928E+001,5.97170E-001,2.70326E-002,2.57688E+000,-5.92099E-001,4.01327E-002,2.64434E+000,9.57466E-003,6.00102E-001,0,4.01046E+001,-9.70176E+000,9.99261E-001,-2.83120E+000,-4.86396E+001,9.99159E-001,1.14242E-001,-4.80695E-002,-8.24377E-004,1.14247E-001,-4.80737E-002,-2.90994E-001,1.14723E-001,1.12103E+000,5.22112E-004,0.00000E+000,-1.90879E-003,9.55106E-001,0.00000E+000,-1.80592E-003,-6.54655E-002,1.00000E+000,19
699,1357,-1.25760E+001,1.21009E+000,3.92492E-002,2.57322E+000,-6.25924E-001,1.90829E-003,2.64825E+000,9.44125E-003,5.82262E-001,0,4.01561E+001,-1.01489E+001,9.99159E-001,-2.40232E+000,-4.92508E+001,9.99036E-001,1.13251E-001,-4.80735E-002,-9.05428E-004,1.13256E-001,-4.80786E-002,-3.21556E-001,1.13686E-001,1.11992E+000,4.87422E-004,0.00000E+000,-1.97396E-003,9.55104E-001,0.00000E+000,-2.78247E-003,-6.54961E-002,1.00000E+000,19
699,1337,-1.26095E+001,-2.20432E-002,4.67537E-002,2.57464E+000,-5.68338E-001,7.73645E-002,2.63775E+000,7.62339E-003,5.61389E-001,0,3.99640E+001,-9.39950E+000,9.99184E-001,-3.17399E+000,-4.82259E+001,9.98953E-001,1.15229E-001,-4.80667E-002,-7.48058E-004,1.15232E-001,-4.80701E-002,-2.62465E-001,1.15758E-001,1.12213E+000,5.46717E-004,0.00000E+000,-1.84381E-003,9.55108E-001,0.00000E+000,-8.32267E-004,-6.54438E-002,1.00000E+000,19
699,1317,-1.26218E+001,-1.21684E+000,1.92627E-001,2.57390E+000,-4.95431E-001,1.62985E-001,2.62621E+000,1.17069E-002,6.23847E-001,0,3.96925E+001,-8.42790E+000,9.99151E-001,-3.23840E+000,-4.68875E+001,9.98622E-001,1.17176E-001,-4.80646E-002,-6.09879E-004,1.17178E-001,-4.80669E-002,-2.11467E-001,1.17806E-001,1.12432E+000,5.66460E-004,0.00000E+000,-1.71514E-003,9.55109E-001,0.00000E+000,1.09555E-003,-6.54264E-002,1.00000E+000,19
699,1327,-1.26166E+001,-6.16969E-001,1.05026E-001,2.57505E+000,-5.30075E-001,1.15176E-001,2.63156E+000,9.55821E-003,6.83925E-001,0,3.98552E+001,-8.88869E+000,9.99143E-001,-3.26006E+000,-4.74418E+001,9.97848E-001,1.16201E-001,-4.80653E-002,-6.77806E-004,1.16204E-001,-4.80681E-002,-2.36412E-001,1.16780E-001,1.12322E+000,5.59472E-004,0.00000E+000,-1.77960E-003,9.55108E-001,0.00000E+000,1.29805E-004,-6.54326E-002,1.00000E+000,19
1159,1307,2.13072E+001,-1.26378E+000,1.58167E-003,6.53346E+000,-1.37040E-001,3.75203E-002,6.53501E+000,1.22615E-002,3.80746E-001,0,9.82000E+001,-3.04462E+000,9.98255E-001,6.08214E+001,-3.29212E+001,9.96852E-001,1.23530E-001,-5.09589E-002,-2.01224E-003,1.23553E-001,-5.09821E-002,-6.60630E-001,1.24180E-001,1.13132E+000,-1.95370E-002,0.00000E+000,1.26049E-002,9.52131E-001,0.00000E+000,-1.20475E-003,-6.31265E-002,1.00000E+000,19
1159,1317,2.13110E+001,-6.45439E-001,-5.16599E-002,6.52406E+000,-1.66666E-001,-1.39865E-003,6.52619E+000,1.23265E-002,4.34177E-001,0,9.82111E+001,-3.46185E+000,9.98550E-001,6.08553E+001,-3.31829E+001,9.98227E-001,1.24586E-001,-5.09586E-002,-1.98910E-003,1.24608E-001,-5.09811E-002,-6.49108E-001,1.25292E-001,1.13252E+000,-1.95130E-002,0.00000E+000,1.26454E-002,9.52132E-001,0.00000E+000,-1.77146E-003,-6.31379E-002,1.00000E+000,19
1159,1327,2.13204E+001,-2.81460E-002,-7.63388E-002,6.51361E+000,-2.00128E-001,-3.87828E-002,6.51679E+000,8.51950E-003,4.21553E-001,0,9.81957E+001,-3.92687E+000,9.99269E-001,6.10234E+001,-3.35567E+001,9.98701E-001,1.25643E-001,-5.09582E-002,-1.96064E-003,1.25664E-001,-5.09799E-002,-6.35999E-001,1.26407E-001,1.13371E+000,-1.94767E-002,0.00000E+000,1.26860E-002,9.52133E-001,0.00000E+000,-2.33947E-003,-6.31551E-002,1.00000E+000,19
1159,1297,2.13066E+001,-1.87205E+000,7.24391E-002,6.54207E+000,-1.02263E-001,7.91253E-002,6.54335E+000,1.33317E-002,4.39712E-001,0,9.81608E+001,-2.56703E+000,9.98623E-001,6.08627E+001,-3.24852E+001,9.94751E-001,1.22479E-001,-5.09592E-002,-2.03232E-003,1.22503E-001,-5.09830E-002,-6.71259E-001,1.23076E-001,1.13013E+000,-1.95541E-002,0.00000E+000,1.25646E-002,9.52130E-001,0.00000E+000,-6.41708E-004,-6.31184E-002,1.00000E+000,19
1159,1337,2.13424E+001,5.92040E-001,-6.55680E-002,6.50604E+000,-2.37870E-001,-7.86797E-002,6.51087E+000,1.18298E-002,4.46285E-001,0,9.82266E+001,-4.44813E+000,9.99617E-001,6.14419E+001,-3.39462E+001,9.99394E-001,1.26706E-001,-5.09576E-002,-1.92458E-003,1.26727E-001,-5.09784E-002,-6.20571E-001,1.27531E-001,1.13492E+000,-1.94231E-002,0.00000E+000,1.27269E-002,9.52135E-001,0.00000E+000,-2.91214E-003,-6.31805E-002,1.00000E+000,19
1159,1347,2.13610E+001,1.21986E+000,-3.98631E-002,6.49203E+000,-2.68413E-001,-1.16052E-001,6.49861E+000,1.31111E-002,4.45697E-001,0,9.81451E+001,-4.87639E+000,9.99178E-001,6.18320E+001,-3.42674E+001,9.98674E-001,1.27768E-001,-5.09570E-002,-1.88620E-003,1.27788E-001,-5.09769E-002,-6.04588E-001,1.28656E-001,1.13613E+000,-1.93640E-002,0.00000E+000,1.27678E-002,9.52137E-001,0.00000E+000,-3.48467E-003,-6.32085E-002,1.00000E+000,19
689,1347,-1.33115E+001,5.89209E-001,3.34716E-002,2.49907E+000,-5.96408E-001,3.81874E-002,2.56954E+000,9.02295E-003,6.17660E-001,0,3.89266E+001,-9.74858E+000,9.99452E-001,-3.81764E+000,-4.88711E+001,9.98864E-001,1.13163E-001,-4.75574E-002,-8.03314E-004,1.13167E-001,-4.75614E-002,-2.86367E-001,1.13645E-001,1.11982E+000,1.68443E-003,0.00000E+000,-2.86673E-003,9.55545E-001,0.00000E+000,-1.67718E-003,-6.46901E-002,1.00000E+000,19
689,1357,-1.32973E+001,1.20045E+000,3.56983E-002,2.49513E+000,-6.29424E-001,1.73281E-003,2.57329E+000,9.43379E-003,5.88934E-001,0,3.89687E+001,-1.01899E+001,9.99221E-001,-3.45444E+000,-4.94939E+001,9.99168E-001,1.12013E-001,-4.75619E-002,-9.06153E-004,1.12019E-001,-4.75671E-002,-3.25342E-001,1.12442E-001,1.11853E+000,1.64865E-003,0.00000E+000,-2.97965E-003,9.55542E-001,0.00000E+000,-2.57189E-003,-6.47151E-002,1.00000E+000,19
689,1337,-1.33249E+001,-1.92377E-002,4.84479E-002,2.50099E+000,-5.60463E-001,7.59801E-002,2.56414E+000,9.53732E-003,5.73313E-001,0,3.88467E+001,-9.26843E+000,9.99370E-001,-4.12118E+000,-4.82821E+001,9.99322E-001,1.14312E-001,-4.75536E-002,-7.02836E-004,1.14315E-001,-4.75567E-002,-2.48778E-001,1.14851E-001,1.12110E+000,1.71472E-003,0.00000E+000,-2.75362E-003,9.55548E-001,0.00000E+000,-7.80977E-004,-6.46690E-002,1.00000E+000,19
1169,1327,2.20666E+001,-1.56681E-002,-8.60680E-002,6.59806E+000,-1.93283E-001,-4.34952E-002,6.60103E+000,8.29438E-003,4.43557E-001,0,9.94063E+001,-3.83407E+000,9.99486E-001,6.26427E+001,-3.32363E+001,9.99068E-001,1.26098E-001,-5.11562E-002,-1.91633E-003,1.26119E-001,-5.11770E-002,-6.19339E-001,1.26863E-001,1.13425E+000,-1.84692E-002,0.00000E+000,1.20001E-002,9.51966E-001,0.00000E+000,-3.69641E-003,-6.33523E-002,1.00000E+000,19
1169,1337,2.20920E+001,6.10223E-001,-6.62043E-002,6.59189E+000,-2.25643E-001,-8.17296E-002,6.59626E+000,1.11166E-002,4.50758E-001,0,9.94483E+001,-4.28357E+000,9.99598E-001,6.31277E+001,-3.35640E+001,9.99113E-001,1.27165E-001,-5.11595E-002,-1.91024E-003,1.27185E-001,-5.11800E-002,-6.13670E-001,1.27990E-001,1.13546E+000,-1.84117E-002,0.00000E+000,1.19756E-002,9.51965E-001,0.00000E+000,-4.17108E-003,-6.33749E-002,1.00000E+000,19
1169,1347,2.21178E+001,1.23524E+000,-3.38197E-002,6.58294E+000,-2.60641E-001,-1.19910E-001,6.58919E+000,1.04647E-002,4.30223E-001,0,9.94467E+001,-4.76499E+000,9.99134E-001,6.36376E+001,-3.39511E+001,9.98889E-001,1.28231E-001,-5.11631E-002,-1.90179E-003,1.28251E-001,-5.11833E-002,-6.07310E-001,1.29119E-001,1.13668E+000,-1.83485E-002,0.00000E+000,1.19511E-002,9.51963E-001,0.00000E+000,-4.64661E-003,-6.33996E-002,1.00000E+000,19
689,1327,-1.33436E+001,-6.24931E-001,9.18772E-002,2.49198E+000,-5.30081E-001,1.11211E-001,2.55016E+000,1.08481E-002,6.32813E-001,0,3.86032E+001,-8.86306E+000,9.98881E-001,-4.42719E+000,-4.76630E+001,9.98297E-001,1.15447E-001,-4.75514E-002,-6.08249E-004,1.15450E-001,-4.75536E-002,-2.13802E-001,1.16045E-001,1.12237E+000,1.73382E-003,0.00000E+000,-2.64165E-003,9.55549E-001,0.00000E+000,1.06166E-004,-6.46557E-002,1.00000E+000,19
1169,1317,2.20575E+001,-6.36351E-001,-5.54201E-002,6.60865E+000,-1.60822E-001,-1.93969E-003,6.61061E+000,1.45572E-002,3.52205E-001,0,9.94064E+001,-3.37889E+000,9.99021E-001,6.24912E+001,-3.29816E+001,9.98906E-001,1.25035E-001,-5.11539E-002,-1.91316E-003,1.25056E-001,-5.11747E-002,-6.22052E-001,1.25742E-001,1.13304E+000,-1.85052E-002,0.00000E+000,1.20245E-002,9.51967E-001,0.00000E+000,-3.22385E-003,-6.33383E-002,1.00000E+000,19
1169,1307,2.20515E+001,-1.25268E+000,-1.20288E-002,6.61730E+000,-1.31741E-001,3.29907E-002,6.61869E+000,1.24121E-002,3.91596E-001,0,9.94006E+001,-2.95118E+000,9.99078E-001,6.24073E+001,-3.26230E+001,9.98248E-001,1.23982E-001,-5.11519E-002,-1.90624E-003,1.24003E-001,-5.11727E-002,-6.23535E-001,1.24632E-001,1.13185E+000,-1.85320E-002,0.00000E+000,1.20487E-002,9.51967E-001,0.00000E+000,-2.75624E-003,-6.33278E-002,1.00000E+000,19
1169,1297,2.20540E+001,-1.86002E+000,6.77735E-002,6.62828E+000,-9.49869E-002,7.97921E-002,6.62944E+000,1.10513E-002,4.65909E-001,0,9.93735E+001,-2.48267E+000,9.99234E-001,6.25123E+001,-3.21855E+001,9.96423E-001,1.22928E-001,-5.11505E-002,-1.89449E-003,1.22948E-001,-5.11711E-002,-6.23450E-001,1.23523E-001,1.13066E+000,-1.85477E-002,0.00000E+000,1.20728E-002,9.51967E-001,0.00000E+000,-2.28876E-003,-6.33216E-002,1.00000E+000,19
689,1317,-1.33486E+001,-1.22337E+000,1.77777E-001,2.49076E+000,-4.95811E-001,1.56620E-001,2.54445E+000,1.23642E-002,6.06682E-001,0,3.84474E+001,-8.39736E+000,9.98792E-001,-4.40740E+000,-4.70644E+001,9.97389E-001,1.16578E-001,-4.75507E-002,-5.18942E-004,1.16580E-001,-4.75523E-002,-1.81155E-001,1.17237E-001,1.12364E+000,1.74151E-003,0.00000E+000,-2.52994E-003,9.55550E-001,0.00000E+000,9.91262E-004,-6.46504E-002,1.00000E+000,19
679,1347,-1.40379E+001,5.82259E-001,2.10090E-002,2.41506E+000,-5.94927E-001,2.72521E-002,2.48740E+000,1.45016E-002,6.28976E-001,0,3.76749E+001,-9.73289E+000,9.98830E-001,-4.96824E+000,-4.90503E+001,9.98599E-001,1.12052E-001,-4.71116E-002,-8.33682E-004,1.12056E-001,-4.71160E-002,-3.00099E-001,1.12528E-001,1.11857E+000,2.90334E-003,0.00000E+000,-3.97440E-003,9.55928E-001,0.00000E+000,-1.54185E-003,-6.40494E-002,1.00000E+000,19
679,1357,-1.40125E+001,1.19536E+000,2.84784E-002,2.42398E+000,-6.27188E-001,4.23896E-003,2.50381E+000,7.35905E-003,6.00892E-001,0,3.78788E+001,-1.01552E+001,9.99229E-001,-4.41612E+000,-4.96556E+001,9.99122E-001,1.10676E-001,-4.71196E-002,-1.02806E-003,1.10683E-001,-4.71263E-002,-3.73269E-001,1.11089E-001,1.11703E+000,2.86430E-003,0.00000E+000,-4.26217E-003,9.55920E-001,0.00000E+000,-2.43687E-003,-6.40722E-002,1.00000E+000,19
1179,1297,2.27952E+001,-1.85254E+000,4.81171E-002,6.71236E+000,-8.99018E-002,8.35915E-002,6.71348E+000,1.86125E-002,4.99853E-001,0,1.00545E+002,-2.43958E+000,9.99473E-001,6.40448E+001,-3.19215E+001,9.97070E-001,1.23271E-001,-5.12713E-002,-1.83276E-003,1.23291E-001,-5.12905E-002,-6.01537E-001,1.23869E-001,1.13106E+000,-1.77208E-002,0.00000E+000,1.15875E-002,9.51883E-001,0.00000E+000,-3.88353E-003,-6.37129E-002,1.00000E+000,19
1179,1307,2.27993E+001,-1.24431E+000,-2.24636E-002,6.70548E+000,-1.25082E-001,3.61247E-002,6.70674E+000,8.22224E-003,3.46912E-001,0,1.00634E+002,-2.87986E+000,9.99559E-001,6.40579E+001,-3.24016E+001,9.98486E-001,1.24277E-001,-5.12709E-002,-1.81118E-003,1.24296E-001,-5.12896E-002,-5.91055E-001,1.24927E-001,1.13220E+000,-1.77014E-002,0.00000E+000,1.16167E-002,9.51883E-001,0.00000E+000,-4.20349E-003,-6.37183E-002,1.00000E+000,19
1179,1317,2.28026E+001,-6.28009E-001,-9.57624E-002,6.69873E+000,-1.53258E-001,-1.00285E-002,6.70049E+000,1.93920E-002,3.44753E-001,0,1.00718E+002,-3.26526E+000,9.99459E-001,6.40534E+001,-3.26754E+001,9.98856E-001,1.25284E-001,-5.12705E-002,-1.79037E-003,1.25302E-001,-5.12887E-002,-5.80934E-001,1.25987E-001,1.13334E+000,-1.76838E-002,0.00000E+000,1.16460E-002,9.51884E-001,0.00000E+000,-4.52408E-003,-6.37233E-002,1.00000E+000,19
1179,1337,2.28432E+001,6.19758E-001,-7.84038E-002,6.67945E+000,-2.21425E-001,-9.39537E-002,6.68378E+000,9.59130E-003,4.15579E-001,0,1.00734E+002,-4.20726E+000,9.99442E-001,6.48240E+001,-3.33100E+001,9.98291E-001,1.27323E-001,-5.12690E-002,-1.71840E-003,1.27340E-001,-5.12856E-002,-5.51226E-001,1.28140E-001,1.13566E+000,-1.75796E-002,0.00000E+000,1.17054E-002,9.51886E-001,0.00000E+000,-5.17516E-003,-6.37526E-002,1.00000E+000,19
1179,1347,2.28791E+001,1.25072E+000,-3.54711E-002,6.67798E+000,-2.53340E-001,-1.30930E-001,6.68407E+000,9.26549E-003,4.22141E-001,0,1.00837E+002,-4.63987E+000,9.99474E-001,6.55057E+001,-3.36120E+001,9.98921E-001,1.28347E-001,-5.12682E-002,-1.67681E-003,1.28363E-001,-5.12838E-002,-5.34828E-001,1.29224E-001,1.13683E+000,-1.75146E-002,0.00000E+000,1.17353E-002,9.51888E-001,0.00000E+000,-5.50248E-003,-6.37708E-002,1.00000E+000,19
679,1327,-1.40636E+001,-6.30265E-001,9.89121E-002,2.41344E+000,-5.29663E-001,1.16270E-001,2.47361E+000,1.29239E-002,5.98129E-001,0,3.73927E+001,-8.85059E+000,9.98530E-001,-5.42755E+000,-4.78779E+001,9.97771E-001,1.14773E-001,-4.71006E-002,-4.57330E-004,1.14775E-001,-4.71019E-002,-1.61872E-001,1.15388E-001,1.12162E+000,2.96018E-003,0.00000E+000,-3.40331E-003,9.55938E-001,0.00000E+000,2.34395E-004,-6.40162E-002,1.00000E+000,19
679,1337,-1.40507E+001,-2.44511E-002,4.70891E-002,2.41761E+000,-5.59915E-001,7.75059E-002,2.48281E+000,1.38911E-002,5.79086E-001,0,3.75708E+001,-9.25158E+000,9.98946E-001,-5.23283E+000,-4.84597E+001,9.98788E-001,1.13418E-001,-4.71043E-002,-6.41514E-004,1.13420E-001,-4.71069E-002,-2.28973E-001,1.13961E-001,1.12010E+000,2.93962E-003,0.00000E+000,-3.68810E-003,9.55935E-001,0.00000E+000,-6.51366E-004,-6.40282E-002,1.00000E+000,19
1179,1327,2.28166E+001,-9.95313E-003,-9.90834E-002,6.68688E+000,-1.90267E-001,-4.80230E-002,6.68976E+000,1.34513E-002,4.00448E-001,0,1.00682E+002,-3.80667E+000,9.99448E-001,6.43217E+001,-3.30457E+001,9.97783E-001,1.26301E-001,-5.12699E-002,-1.75748E-003,1.26318E-001,-5.12873E-002,-5.67002E-001,1.27060E-001,1.13450E+000,-1.76388E-002,0.00000E+000,1.16756E-002,9.51885E-001,0.00000E+000,-4.84854E-003,-6.37360E-002,1.00000E+000,19
679,1317,-1.40702E+001,-1.22804E+000,1.85098E-001,2.41074E+000,-4.95017E-001,1.62626E-001,2.46640E+000,1.08750E-002,6.24769E-001,0,3.72122E+001,-8.40510E+000,9.99010E-001,-5.43031E+000,-4.72417E+001,9.97582E-001,1.16122E-001,-4.70995E-002,-2.78739E-004,1.16123E-001,-4.71000E-002,-9.78454E-002,1.16811E-001,1.12313E+000,2.96949E-003,0.00000E+000,-3.11943E-003,9.55940E-001,0.00000E+000,1.11735E-003,-6.40108E-002,1.00000E+000,19
669,1327,-1.47798E+001,-6.41926E-001,9.75146E-002,2.33900E+000,-5.34516E-001,1.16863E-001,2.40214E+000,1.04668E-002,5.63572E-001,0,3.62590E+001,-8.91914E+000,9.99406E-001,-6.38981E+000,-4.81717E+001,9.98756E-001,1.13989E-001,-4.67062E-002,-2.60449E-004,1.13990E-001,-4.67066E-002,-9.28624E-002,1.14607E-001,1.12073E+000,4.73595E-003,0.00000E+000,-4.53344E-003,9.56260E-001,0.00000E+000,1.54489E-004,-6.31841E-002,1.00000E+000,19
669,1337,-1.47696E+001,-2.94004E-002,5.00141E-002,2.34019E+000,-5.60019E-001,8.01012E-002,2.40760E+000,8.66067E-003,6.13116E-001,0,3.63828E+001,-9.25569E+000,9.99181E-001,-6.22174E+000,-4.86276E+001,9.99067E-001,1.12372E-001,-4.67106E-002,-5.00598E-004,1.12374E-001,-4.67122E-002,-1.80295E-001,1.12905E-001,1.11892E+000,4.71049E-003,0.00000E+000,-4.92802E-003,9.56255E-001,0.00000E+000,-6.84622E-004,-6.31959E-002,1.00000E+000,19
669,1347,-1.47545E+001,5.76921E-001,1.86518E-002,2.34339E+000,-5.92636E-001,4.29698E-002,2.41755E+000,7.38821E-003,5.91644E-001,0,3.65393E+001,-9.69165E+000,9.99183E-001,-5.93500E+000,-4.92498E+001,9.98981E-001,1.10752E-001,-4.67170E-002,-7.44383E-004,1.10756E-001,-4.67206E-002,-2.70838E-001,1.11206E-001,1.11711E+000,4.67695E-003,0.00000E+000,-5.32253E-003,9.56247E-001,0.00000E+000,-1.52358E-003,-6.32114E-002,1.00000E+000,19
669,1357,-1.47300E+001,1.19552E+000,3.07652E-002,2.34850E+000,-6.19441E-001,7.35906E-003,2.42883E+000,7.91249E-003,5.89500E-001,0,3.67161E+001,-1.00480E+001,9.98989E-001,-5.38163E+000,-4.97698E+001,9.99058E-001,1.09119E-001,-4.67288E-002,-9.98983E-004,1.09125E-001,-4.67352E-002,-3.67247E-001,1.09499E-001,1.11529E+000,4.62251E-003,0.00000E+000,-5.71942E-003,9.56235E-001,0.00000E+000,-2.36760E-003,-6.32367E-002,1.00000E+000,19
1189,1337,2.36008E+001,6.31265E-001,-8.80713E-002,6.77248E+000,-2.17486E-001,-1.05330E-001,6.77679E+000,1.24555E-002,4.39031E-001,0,1.02096E+002,-4.13655E+000,9.99502E-001,6.66288E+001,-3.30013E+001,9.98649E-001,1.27158E-001,-5.15049E-002,-1.54916E-003,1.27171E-001,-5.15183E-002,-4.96753E-001,1.27933E-001,1.13549E+000,-1.68360E-002,0.00000E+000,1.14551E-002,9.51672E-001,0.00000E+000,-5.95206E-003,-6.38683E-002,1.00000E+000,19
669,1317,-1.47843E+001,-1.23468E+000,1.98075E-001,2.33721E+000,-4.95306E-001,1.70773E-001,2.39521E+000,1.26663E-002,5.77104E-001,0,3.60706E+001,-8.42366E+000,9.99460E-001,-6.31797E+000,-4.74930E+001,9.98576E-001,1.15593E-001,-4.67063E-002,-2.96879E-005,1.15593E-001,-4.67063E-002,-1.04806E-002,1.16301E-001,1.12253E+000,4.74348E-003,0.00000E+000,-4.14123E-003,9.56262E-001,0.00000E+000,9.88561E-004,-6.31806E-002,1.00000E+000,19
1189,1297,2.35537E+001,-1.84241E+000,5.99145E-002,6.80307E+000,-8.59386E-002,7.88256E-002,6.80407E+000,1.32206E-002,4.74358E-001,0,1.01838E+002,-2.39566E+000,9.99393E-001,6.58989E+001,-3.17113E+001,9.96735E-001,1.23626E-001,-5.14991E-002,-1.55728E-003,1.23640E-001,-5.15130E-002,-5.09440E-001,1.24212E-001,1.13148E+000,-1.69543E-002,0.00000E+000,1.15594E-002,9.51675E-001,0.00000E+000,-5.46359E-003,-6.38539E-002,1.00000E+000,19
1189,1307,2.35471E+001,-1.23537E+000,-3.37083E-002,6.78993E+000,-1.22972E-001,2.63188E-002,6.79110E+000,9.53708E-003,4.31938E-001,0,1.01860E+002,-2.86238E+000,9.99020E-001,6.57098E+001,-3.21050E+001,9.98368E-001,1.24504E-001,-5.14999E-002,-1.56361E-003,1.24518E-001,-5.15138E-002,-5.08961E-001,1.25134E-001,1.13247E+000,-1.69441E-002,0.00000E+000,1.15335E-002,9.51675E-001,0.00000E+000,-5.58479E-003,-6.38552E-002,1.00000E+000,19
1189,1317,2.35657E+001,-6.06148E-001,-6.65962E-002,6.78896E+000,-1.46486E-001,-1.59333E-002,6.79056E+000,1.07151E-002,4.60031E-001,0,1.02005E+002,-3.15783E+000,9.99476E-001,6.60054E+001,-3.22474E+001,9.99373E-001,1.25389E-001,-5.15014E-002,-1.56150E-003,1.25403E-001,-5.15151E-002,-5.05725E-001,1.26066E-001,1.13348E+000,-1.69144E-002,0.00000E+000,1.15074E-002,9.51674E-001,0.00000E+000,-5.70717E-003,-6.38588E-002,1.00000E+000,19
1189,1327,2.35808E+001,7.73020E-003,-8.83507E-002,6.78053E+000,-1.85525E-001,-6.31414E-002,6.78336E+000,1.35416E-002,4.41962E-001,0,1.02061E+002,-3.69165E+000,9.99603E-001,6.62634E+001,-3.26778E+001,9.99133E-001,1.26273E-001,-5.15030E-002,-1.55673E-003,1.26286E-001,-5.15166E-002,-5.01671E-001,1.26998E-001,1.13448E+000,-1.68785E-002,0.00000E+000,1.14813E-002,9.51673E-001,0.00000E+000,-5.82944E-003,-6.38632E-002,1.00000E+000,19
659,1327,-1.54947E+001,-6.33003E-001,1.05357E-001,2.26431E+000,-5.21055E-001,1.19970E-001,2.32658E+000,1.55532E-002,5.43912E-001,0,3.51073E+001,-8.69389E+000,9.99253E-001,-7.29593E+000,-4.81613E+001,9.97761E-001,1.12994E-001,-4.63984E-002,-2.36219E-004,1.12995E-001,-4.63988E-002,-8.49116E-002,1.13595E-001,1.11961E+000,6.57783E-003,0.00000E+000,-6.04627E-003,9.56505E-001,0.00000E+000,-7.36140E-005,-6.24990E-002,1.00000E+000,19
659,1337,-1.54705E+001,-3.69977E-002,7.33779E-002,2.27951E+000,-5.63014E-001,9.85233E-002,2.35007E+000,2.02914E-002,6.88164E-001,0,3.54097E+001,-9.37044E+000,9.99139E-001,-6.87549E+000,-4.88575E+001,9.98754E-001,1.11267E-001,-4.64022E-002,-4.83626E-004,1.11268E-001,-4.64037E-002,-1.75744E-001,1.11778E-001,1.11768E+000,6.55083E-003,0.00000E+000,-6.46199E-003,9.56499E-001,0.00000E+000,-8.32743E-004,-6.25096E-002,1.00000E+000,19
659,1347,-1.54596E+001,5.76372E-001,4.21604E-002,2.27850E+000,-5.88285E-001,6.05899E-002,2.35400E+000,1.04913E-002,6.62849E-001,0,3.55003E+001,-9.69098E+000,9.99562E-001,-6.64944E+000,-4.93765E+001,9.99419E-001,1.09537E-001,-4.64081E-002,-7.34934E-004,1.09540E-001,-4.64115E-002,-2.70015E-001,1.09965E-001,1.11574E+000,6.51492E-003,0.00000E+000,-6.87743E-003,9.56492E-001,0.00000E+000,-1.59136E-003,-6.25237E-002,1.00000E+000,19
659,1357,-1.54411E+001,1.19624E+000,3.98868E-002,2.27832E+000,-6.13011E-001,1.37920E-002,2.35939E+000,7.50756E-003,6.03602E-001,0,3.56253E+001,-9.96173E+000,9.99292E-001,-6.22609E+000,-4.98770E+001,9.99373E-001,1.07793E-001,-4.64189E-002,-9.96567E-004,1.07800E-001,-4.64253E-002,-3.70243E-001,1.08145E-001,1.11380E+000,6.45907E-003,0.00000E+000,-7.29518E-003,9.56480E-001,0.00000E+000,-2.35419E-003,-6.25457E-002,1.00000E+000,19
1199,1307,2.42999E+001,-1.22313E+000,-3.64140E-002,6.87591E+000,-1.18790E-001,1.31348E-002,6.87695E+000,1.28350E-002,4.57778E-001,0,1.03118E+002,-2.78426E+000,9.99131E-001,6.74583E+001,-3.18046E+001,9.98002E-001,1.24617E-001,-5.14883E-002,-1.24342E-003,1.24626E-001,-5.14971E-002,-4.04520E-001,1.25250E-001,1.13262E+000,-1.60302E-002,0.00000E+000,1.14332E-002,9.51686E-001,0.00000E+000,-6.48810E-003,-6.38415E-002,1.00000E+000,19
1199,1317,2.43115E+001,-6.04964E-001,-7.88305E-002,6.87033E+000,-1.50468E-001,-2.93381E-002,6.87204E+000,1.13725E-002,4.45577E-001,0,1.03201E+002,-3.21190E+000,9.98636E-001,6.76302E+001,-3.21174E+001,9.97401E-001,1.25415E-001,-5.14908E-002,-1.25939E-003,1.25424E-001,-5.14998E-002,-4.07859E-001,1.26091E-001,1.13352E+000,-1.60064E-002,0.00000E+000,1.13662E-002,9.51684E-001,0.00000E+000,-6.39264E-003,-6.38389E-002,1.00000E+000,19
1199,1327,2.43282E+001,1.72121E-002,-1.08808E-001,6.86696E+000,-1.79219E-001,-7.01427E-002,6.86965E+000,1.20482E-002,4.25455E-001,0,1.03307E+002,-3.60361E+000,9.99044E-001,6.78982E+001,-3.23998E+001,9.98040E-001,1.26214E-001,-5.14935E-002,-1.27375E-003,1.26223E-001,-5.15027E-002,-4.10649E-001,1.26933E-001,1.13443E+000,-1.59789E-002,0.00000E+000,1.12991E-002,9.51682E-001,0.00000E+000,-6.29709E-003,-6.38360E-002,1.00000E+000,19
659,1317,-1.55083E+001,-1.23807E+000,1.78997E-001,2.25577E+000,-4.93223E-001,1.60961E-001,2.31467E+000,1.31346E-002,6.08128E-001,0,3.48554E+001,-8.36007E+000,9.98302E-001,-7.44158E+000,-4.75888E+001,9.95478E-001,1.14708E-001,-4.63975E-002,4.55776E-006,1.14708E-001,-4.63975E-002,1.62092E-003,1.15404E-001,1.12153E+000,6.59308E-003,0.00000E+000,-5.63294E-003,9.56508E-001,0.00000E+000,6.81169E-004,-6.24930E-002,1.00000E+000,19
1199,1337,2.43595E+001,6.45310E-001,-8.22377E-002,6.86350E+000,-2.11899E-001,-1.11489E-001,6.86767E+000,1.02042E-002,4.49721E-001,0,1.03402E+002,-4.05528E+000,9.99379E-001,6.84783E+001,-3.26939E+001,9.98213E-001,1.27021E-001,-5.14977E-002,-1.27958E-003,1.27030E-001,-5.15069E-002,-4.10655E-001,1.27784E-001,1.13535E+000,-1.59311E-002,0.00000E+000,1.12313E-002,9.51678E-001,0.00000E+000,-6.20049E-003,-6.38310E-002,1.00000E+000,19
1199,1297,2.43037E+001,-1.82726E+000,4.58034E-002,6.88696E+000,-7.82032E-002,5.68730E-002,6.88764E+000,1.01830E-002,4.46730E-001,0,1.03098E+002,-2.21789E+000,9.98926E-001,6.75866E+001,-3.13700E+001,9.97361E-001,1.23822E-001,-5.14868E-002,-1.22165E-003,1.23830E-001,-5.14953E-002,-3.99245E-001,1.24413E-001,1.13172E+000,-1.60404E-002,0.00000E+000,1.14999E-002,9.51686E-001,0.00000E+000,-6.58307E-003,-6.38425E-002,1.00000E+000,19
649,1347,-1.61800E+001,5.78641E-001,3.25833E-002,2.19812E+000,-5.81311E-001,4.67261E-002,2.27417E+000,1.08854E-002,6.63610E-001,0,3.43065E+001,-9.53358E+000,9.99284E-001,-7.68495E+000,-4.94253E+001,9.98403E-001,1.08197E-001,-4.60237E-002,-6.63557E-004,1.08199E-001,-4.60265E-002,-2.46518E-001,1.08600E-001,1.11424E+000,8.56366E-003,0.00000E+000,-8.49552E-003,9.56806E-001,0.00000E+000,-1.74150E-003,-6.18517E-002,1.00000E+000,19
649,1357,-1.61579E+001,1.19485E+000,4.30383E-002,2.20224E+000,-6.08651E-001,1.51830E-002,2.28485E+000,7.54022E-003,5.99504E-001,0,3.44561E+001,-9.88500E+000,9.99451E-001,-7.16929E+000,-5.00136E+001,9.99046E-001,1.06248E-001,-4.60328E-002,-9.16619E-004,1.06253E-001,-4.60383E-002,-3.44862E-001,1.06568E-001,1.11207E+000,8.50336E-003,0.00000E+000,-8.90057E-003,9.56795E-001,0.00000E+000,-2.46271E-003,-6.18717E-002,1.00000E+000,19
649,1337,-1.61996E+001,-3.08556E-002,6.39851E-002,2.19023E+000,-5.50647E-001,8.38019E-002,2.25995E+000,1.16926E-002,6.13329E-001,0,3.40790E+001,-9.11698E+000,9.99421E-001,-8.04178E+000,-4.88844E+001,9.98692E-001,1.10138E-001,-4.60190E-002,-4.20382E-004,1.10139E-001,-4.60202E-002,-1.54242E-001,1.10633E-001,1.11640E+000,8.60291E-003,0.00000E+000,-8.09111E-003,9.56813E-001,0.00000E+000,-1.02143E-003,-6.18386E-002,1.00000E+000,19
649,1327,-1.62169E+001,-6.27845E-001,1.06852E-001,2.18148E+000,-5.12081E-001,1.14027E-001,2.24368E+000,9.33571E-003,5.77606E-001,0,3.38534E+001,-8.53980E+000,9.99647E-001,-8.32704E+000,-4.81699E+001,9.99275E-001,1.12064E-001,-4.60166E-002,-1.83306E-004,1.12064E-001,-4.60168E-002,-6.64384E-002,1.12660E-001,1.11855E+000,8.63137E-003,0.00000E+000,-7.68884E-003,9.56819E-001,0.00000E+000,-3.05190E-004,-6.18291E-002,1.00000E+000,19
1209,1307,2.50547E+001,-1.20759E+000,-3.79664E-002,6.96403E+000,-1.10058E-001,3.71480E-003,6.96490E+000,1.00091E-002,4.61052E-001,0,1.04388E+002,-2.64764E+000,9.99204E-001,6.92433E+001,-3.14668E+001,9.98118E-001,1.24456E-001,-5.12092E-002,-8.68888E-004,1.24460E-001,-5.12135E-002,-2.83392E-001,1.25108E-001,1.13245E+000,-1.50274E-002,0.00000E+000,1.13271E-002,9.51933E-001,0.00000E+000,-6.72636E-003,-6.35337E-002,1.00000E+000,19
1209,1317,2.50639E+001,-5.95548E-001,-8.60954E-002,6.95772E+000,-1.47052E-001,-3.74398E-002,6.95938E+000,1.16865E-002,4.38340E-001,0,1.04461E+002,-3.15530E+000,9.99145E-001,6.93679E+001,-3.18661E+001,9.97278E-001,1.25276E-001,-5.12109E-002,-8.78091E-004,1.25280E-001,-5.12153E-002,-2.85060E-001,1.25973E-001,1.13338E+000,-1.50053E-002,0.00000E+000,1.12627E-002,9.51932E-001,0.00000E+000,-6.42896E-003,-6.35267E-002,1.00000E+000,19
1209,1327,2.50887E+001,3.19385E-002,-1.01124E-001,6.95779E+000,-1.72767E-001,-8.09510E-002,6.96041E+000,1.11617E-002,3.98776E-001,0,1.04624E+002,-3.49382E+000,9.99259E-001,6.97844E+001,-3.21060E+001,9.98280E-001,1.26098E-001,-5.12133E-002,-8.81732E-004,1.26102E-001,-5.12177E-002,-2.84911E-001,1.26840E-001,1.13431E+000,-1.49704E-002,0.00000E+000,1.11981E-002,9.51929E-001,0.00000E+000,-6.13043E-003,-6.35155E-002,1.00000E+000,19
1209,1337,2.51215E+001,6.59038E-001,-6.95058E-002,6.95529E+000,-2.07930E-001,-1.18267E-001,6.95940E+000,1.15513E-002,4.52577E-001,0,1.04718E+002,-3.99091E+000,9.99164E-001,7.03922E+001,-3.24106E+001,9.97506E-001,1.26928E-001,-5.12165E-002,-8.79084E-004,1.26933E-001,-5.12208E-002,-2.82726E-001,1.27718E-001,1.13525E+000,-1.49206E-002,0.00000E+000,1.11327E-002,9.51926E-001,0.00000E+000,-5.82864E-003,-6.34995E-002,1.00000E+000,19
1209,1297,2.50569E+001,-1.81385E+000,4.01126E-002,6.97539E+000,-6.98783E-002,5.01904E-002,6.97592E+000,9.60542E-003,4.15186E-001,0,1.04363E+002,-2.08377E+000,9.99119E-001,6.93410E+001,-3.10756E+001,9.97487E-001,1.23637E-001,-5.12079E-002,-8.55814E-004,1.23641E-001,-5.12121E-002,-2.80437E-001,1.24246E-001,1.13153E+000,-1.50404E-002,0.00000E+000,1.13913E-002,9.51934E-001,0.00000E+000,-7.02312E-003,-6.35379E-002,1.00000E+000,19
649,1317,-1.62240E+001,-1.23265E+000,1.87678E-001,2.17801E+000,-4.85224E-001,1.54738E-001,2.23676E+000,8.30227E-003,6.03291E-001,0,3.36818E+001,-8.20254E+000,9.99280E-001,-8.35369E+000,-4.76250E+001,9.98990E-001,1.13980E-001,-4.60175E-002,4.58538E-005,1.13980E-001,-4.60175E-002,1.64204E-002,1.14682E-001,1.12070E+000,8.64383E-003,0.00000E+000,-7.28790E-003,9.56821E-001,0.00000E+000,4.08699E-004,-6.18250E-002,1.00000E+000,19
639,1347,-1.68972E+001,5.82843E-001,3.10429E-002,2.12172E+000,-5.70877E-001,4.69486E-002,2.19768E+000,1.15358E-002,6.15430E-001,0,3.31331E+001,-9.33970E+000,9.98928E-001,-8.64232E+000,-4.94861E+001,9.98155E-001,1.06956E-001,-4.55549E-002,-6.26898E-004,1.06958E-001,-4.55575E-002,-2.35510E-001,1.07349E-001,1.11284E+000,1.08167E-002,0.00000E+000,-1.03570E-002,9.57191E-001,0.00000E+000,-1.97297E-003,-6.10877E-002,1.00000E+000,19
639,1357,-1.68731E+001,1.20133E+000,4.29023E-002,2.12775E+000,-5.96553E-001,1.57505E-002,2.20985E+000,7.40203E-003,6.09355E-001,0,3.33105E+001,-9.68493E+000,9.99262E-001,-8.09112E+000,-5.00151E+001,9.99142E-001,1.04858E-001,-4.55631E-002,-8.79264E-004,1.04863E-001,-4.55682E-002,-3.34899E-001,1.05162E-001,1.11051E+000,1.07518E-002,0.00000E+000,-1.07589E-002,9.57180E-001,0.00000E+000,-2.75627E-003,-6.11095E-002,1.00000E+000,19
639,1317,-1.69363E+001,-1.23503E+000,2.08171E-001,2.10352E+000,-4.86227E-001,1.62032E-001,2.16506E+000,1.11357E-002,6.85849E-001,0,3.25228E+001,-8.23801E+000,9.99242E-001,-9.17806E+000,-4.77621E+001,9.98353E-001,1.13162E-001,-4.55536E-002,7.04850E-005,1.13162E-001,-4.55536E-002,2.54448E-002,1.13876E-001,1.11976E+000,1.08923E-002,0.00000E+000,-9.16191E-003,9.57204E-001,0.00000E+000,3.55939E-004,-6.10622E-002,1.00000E+000,19
639,1327,-1.69278E+001,-6.38438E-001,1.23194E-001,2.10985E+000,-5.17919E-001,1.24926E-001,2.17608E+000,8.17063E-003,6.15069E-001,0,3.27299E+001,-8.66889E+000,9.99477E-001,-9.14376E+000,-4.84489E+001,9.98666E-001,1.11112E-001,-4.55507E-002,-1.52915E-004,1.11112E-001,-4.55509E-002,-5.59254E-002,1.11711E-001,1.11747E+000,1.08841E-002,0.00000E+000,-9.55772E-003,9.57203E-001,0.00000E+000,-4.15391E-004,-6.10650E-002,1.00000E+000,19
639,1337,-1.69166E+001,-2.81340E-002,5.74331E-002,2.11444E+000,-5.43398E-001,8.22323E-002,2.18470E+000,9.20527E-003,6.45395E-001,0,3.29217E+001,-8.97954E+000,9.99327E-001,-9.01167E+000,-4.89152E+001,9.98643E-001,1.09037E-001,-4.55509E-002,-3.85377E-004,1.09038E-001,-4.55518E-002,-1.42833E-001,1.09529E-001,1.11515E+000,1.08602E-002,0.00000E+000,-9.95719E-003,9.57199E-001,0.00000E+000,-1.19386E-003,-6.10730E-002,1.00000E+000,19
1219,1317,2.58243E+001,-5.81108E-001,-8.01735E-002,7.04895E+000,-1.42929E-001,-4.60965E-002,7.05055E+000,1.38696E-002,4.81625E-001,0,1.05774E+002,-3.07651E+000,9.99201E-001,7.12532E+001,-3.15396E+001,9.97285E-001,1.24954E-001,-5.11601E-002,-4.31561E-004,1.24955E-001,-5.11612E-002,-1.40400E-001,1.25637E-001,1.13303E+000,-1.38359E-002,0.00000E+000,1.11211E-002,9.51937E-001,0.00000E+000,-6.15221E-003,-6.27930E-002,1.00000E+000,19
1219,1327,2.58460E+001,4.45318E-002,-9.88218E-002,7.04794E+000,-1.68446E-001,-8.52510E-002,7.05047E+000,7.60960E-003,4.17182E-001,0,1.05906E+002,-3.42700E+000,9.99545E-001,7.16159E+001,-3.18117E+001,9.98738E-001,1.25729E-001,-5.11612E-002,-4.24851E-004,1.25730E-001,-5.11622E-002,-1.37611E-001,1.26454E-001,1.13390E+000,-1.38055E-002,0.00000E+000,1.10695E-002,9.51935E-001,0.00000E+000,-5.64945E-003,-6.27756E-002,1.00000E+000,19
1219,1337,2.58805E+001,6.75138E-001,-6.69817E-002,7.04623E+000,-2.00672E-001,-1.24890E-001,7.05019E+000,1.02508E-002,4.73788E-001,0,1.06020E+002,-3.87681E+000,9.99295E-001,7.22480E+001,-3.20592E+001,9.98128E-001,1.26513E-001,-5.11627E-002,-4.10433E-004,1.26514E-001,-5.11636E-002,-1.32353E-001,1.27282E-001,1.13479E+000,-1.37572E-002,0.00000E+000,1.10171E-002,9.51932E-001,0.00000E+000,-5.13961E-003,-6.27478E-002,1.00000E+000,19
1219,1297,2.58144E+001,-1.80073E+000,3.82575E-002,7.06642E+000,-6.38450E-002,4.32032E-002,7.06684E+000,1.07102E-002,3.98825E-001,0,1.05666E+002,-1.97049E+000,9.99167E-001,7.11707E+001,-3.07859E+001,9.97247E-001,1.23403E-001,-5.11587E-002,-4.34489E-004,1.23404E-001,-5.11598E-002,-1.42609E-001,1.24003E-001,1.13128E+000,-1.38726E-002,0.00000E+000,1.12244E-002,9.51939E-001,0.00000E+000,-7.15762E-003,-6.28141E-002,1.00000E+000,19
1219,1307,2.58177E+001,-1.19182E+000,-2.52540E-002,7.05804E+000,-1.03068E-001,1.74520E-003,7.05880E+000,1.34911E-002,4.48626E-001,0,1.05714E+002,-2.53165E+000,9.99190E-001,7.11808E+001,-3.11632E+001,9.96736E-001,1.24178E-001,-5.11593E-002,-4.34149E-004,1.24179E-001,-5.11604E-002,-1.41868E-001,1.24819E-001,1.13215E+000,-1.38568E-002,0.00000E+000,1.11728E-002,9.51938E-001,0.00000E+000,-6.65557E-003,-6.28051E-002,1.00000E+000,19
629,1347,-1.76106E+001,5.79010E-001,2.60110E-002,2.04908E+000,-5.68344E-001,4.63462E-002,2.12694E+000,1.01940E-002,5.91988E-001,0,3.20215E+001,-9.27702E+000,9.98736E-001,-9.55024E+000,-4.96500E+001,9.98216E-001,1.05899E-001,-4.58660E-002,-6.44391E-004,1.05902E-001,-4.58688E-002,-2.43271E-001,1.06217E-001,1.11164E+000,1.31379E-002,0.00000E+000,-1.23937E-002,9.56837E-001,0.00000E+000,-1.89441E-003,-6.05386E-002,1.00000E+000,19
629,1357,-1.75830E+001,1.19780E+000,4.12941E-002,2.05854E+000,-5.93811E-001,1.67403E-002,2.14254E+000,8.66601E-003,5.99721E-001,0,3.22474E+001,-9.62923E+000,9.98836E-001,-8.93306E+000,-5.01763E+001,9.98619E-001,1.03877E-001,-4.58686E-002,-7.43577E-004,1.03881E-001,-4.58723E-002,-2.84499E-001,1.04117E-001,1.10939E+000,1.30753E-002,0.00000E+000,-1.25143E-002,9.56834E-001,0.00000E+000,-2.55825E-003,-6.05572E-002,1.00000E+000,19
629,1327,-1.76416E+001,-6.37008E-001,1.19316E-001,2.03629E+000,-5.10715E-001,1.23360E-001,2.10298E+000,8.48334E-003,5.93672E-001,0,3.16067E+001,-8.53455E+000,9.99119E-001,-1.00534E+001,-4.85299E+001,9.98423E-001,1.09906E-001,-4.58654E-002,-4.75002E-004,1.09907E-001,-4.58669E-002,-1.74713E-001,1.10407E-001,1.11610E+000,1.32006E-002,0.00000E+000,-1.21538E-002,9.56840E-001,0.00000E+000,-5.74323E-004,-6.05201E-002,1.00000E+000,19
629,1337,-1.76269E+001,-3.12720E-002,5.68444E-002,2.04438E+000,-5.40459E-001,8.34908E-002,2.11626E+000,9.42804E-003,6.28030E-001,0,3.18455E+001,-8.92306E+000,9.99039E-001,-9.85970E+000,-4.90727E+001,9.98538E-001,1.07906E-001,-4.58651E-002,-5.55864E-004,1.07908E-001,-4.58671E-002,-2.07114E-001,1.08311E-001,1.11387E+000,1.31777E-002,0.00000E+000,-1.22737E-002,9.56839E-001,0.00000E+000,-1.23404E-003,-6.05269E-002,1.00000E+000,19
1229,1317,2.65843E+001,-5.61616E-001,-8.41044E-002,7.14248E+000,-1.29818E-001,-5.29205E-002,7.14386E+000,1.31061E-002,4.62936E-001,0,1.07111E+002,-2.86888E+000,9.99198E-001,7.31245E+001,-3.11443E+001,9.98461E-001,1.24744E-001,-5.09154E-002,5.43563E-005,1.24744E-001,-5.09154E-002,1.77296E-002,1.25444E-001,1.13280E+000,-1.26877E-002,0.00000E+000,1.10541E-002,9.52132E-001,0.00000E+000,-5.54522E-003,-6.21475E-002,1.00000E+000,19
1229,1327,2.66012E+001,5.59022E-002,-1.01537E-001,7.13604E+000,-1.66744E-001,-9.21792E-002,7.13859E+000,9.68783E-003,4.93068E-001,0,1.07168E+002,-3.39640E+000,9.99262E-001,7.34106E+001,-3.14969E+001,9.98152E-001,1.25462E-001,-5.09147E-002,7.82528E-005,1.25462E-001,-5.09147E-002,2.54204E-002,1.26202E-001,1.13361E+000,-1.26589E-002,0.00000E+000,1.10315E-002,9.52131E-001,0.00000E+000,-4.92635E-003,-6.21255E-002,1.00000E+000,19
1229,1337,2.66359E+001,6.88555E-001,-7.95841E-002,7.13729E+000,-1.91916E-001,-1.30568E-001,7.14106E+000,9.71945E-003,4.41903E-001,0,1.07321E+002,-3.74419E+000,9.99111E-001,7.40298E+001,-3.17430E+001,9.97906E-001,1.26180E-001,-5.09138E-002,1.07556E-004,1.26180E-001,-5.09139E-002,3.47980E-002,1.26961E-001,1.13442E+000,-1.26177E-002,0.00000E+000,1.10088E-002,9.52130E-001,0.00000E+000,-4.30613E-003,-6.20941E-002,1.00000E+000,19
629,1317,-1.76541E+001,-1.23342E+000,2.07906E-001,2.02579E+000,-4.78660E-001,1.62972E-001,2.08794E+000,9.56859E-003,6.47658E-001,0,3.13282E+001,-8.10345E+000,9.99263E-001,-1.01372E+001,-4.78552E+001,9.98380E-001,1.11885E-001,-4.58669E-002,-4.01740E-004,1.11886E-001,-4.58679E-002,-1.45911E-001,1.12489E-001,1.11831E+000,1.32078E-002,0.00000E+000,-1.20348E-002,9.56841E-001,0.00000E+000,8.00791E-005,-6.05180E-002,1.00000E+000,19
1229,1297,2.65717E+001,-1.78570E+000,3.52835E-002,7.15680E+000,-5.61984E-002,3.52273E-002,7.15711E+000,1.15095E-002,4.56186E-001,0,1.06960E+002,-1.86206E+000,9.98823E-001,7.29998E+001,-3.04274E+001,9.96305E-001,1.23315E-001,-5.09163E-002,1.72434E-005,1.23315E-001,-5.09163E-002,5.67047E-003,1.23937E-001,1.13119E+000,-1.27211E-002,0.00000E+000,1.10992E-002,9.52133E-001,0.00000E+000,-6.77599E-003,-6.21730E-002,1.00000E+000,19
1229,1307,2.65818E+001,-1.17197E+000,-2.59528E-002,7.15650E+000,-8.95321E-002,1.34295E-003,7.15706E+000,1.58743E-002,4.74291E-001,0,1.07097E+002,-2.34367E+000,9.98819E-001,7.31189E+001,-3.07482E+001,9.96995E-001,1.24029E-001,-5.09159E-002,3.41221E-005,1.24029E-001,-5.09159E-002,1.11753E-002,1.24689E-001,1.13199E+000,-1.27082E-002,0.00000E+000,1.10767E-002,9.52133E-001,0.00000E+000,-6.16173E-003,-6.21632E-002,1.00000E+000,19
619,1327,-1.83571E+001,-6.37412E-001,1.15068E-001,1.96042E+000,-5.05585E-001,1.20103E-001,2.02812E+000,6.95263E-003,5.91623E-001,0,3.04506E+001,-8.43789E+000,9.99125E-001,-1.09859E+001,-4.86291E+001,9.98829E-001,1.08973E-001,-4.54730E-002,-6.87194E-004,1.08976E-001,-4.54761E-002,-2.54925E-001,1.09472E-001,1.11502E+000,1.56333E-002,0.00000E+000,-1.46507E-002,9.57156E-001,0.00000E+000,-6.90286E-004,-6.00837E-002,1.00000E+000,19
619,1337,-1.83395E+001,-3.03165E-002,5.78180E-002,1.97064E+000,-5.34364E-001,8.08493E-002,2.04341E+000,8.21178E-003,6.25971E-001,0,3.07198E+001,-8.81351E+000,9.98515E-001,-1.07333E+001,-4.91637E+001,9.98211E-001,1.06902E-001,-4.54730E-002,-6.93288E-004,1.06905E-001,-4.54761E-002,-2.60683E-001,1.07301E-001,1.11272E+000,1.56072E-002,0.00000E+000,-1.46332E-002,9.57156E-001,0.00000E+000,-1.29039E-003,-6.00904E-002,1.00000E+000,19
619,1347,-1.83200E+001,5.81559E-001,2.38458E-002,1.97998E+000,-5.59456E-001,4.77820E-002,2.05805E+000,9.48377E-003,6.00924E-001,0,3.09562E+001,-9.13797E+000,9.98559E-001,-1.03817E+001,-4.97056E+001,9.98222E-001,1.04826E-001,-4.54730E-002,-7.03906E-004,1.04829E-001,-4.54763E-002,-2.68330E-001,1.05135E-001,1.11041E+000,1.55710E-002,0.00000E+000,-1.46158E-002,9.57156E-001,0.00000E+000,-1.89032E-003,-6.00999E-002,1.00000E+000,19
619,1357,-1.82928E+001,1.20007E+000,3.32164E-002,1.99011E+000,-5.84049E-001,1.79692E-002,2.07412E+000,8.43796E-003,5.96108E-001,0,3.11930E+001,-9.47098E+000,9.99126E-001,-9.78712E+000,-5.02314E+001,9.98913E-001,1.02734E-001,-4.54732E-002,-7.25350E-004,1.02738E-001,-4.54767E-002,-2.80405E-001,1.02963E-001,1.10810E+000,1.55107E-002,0.00000E+000,-1.45982E-002,9.57157E-001,0.00000E+000,-2.49322E-003,-6.01155E-002,1.00000E+000,19
619,1317,-1.83667E+001,-1.23015E+000,2.08246E-001,1.95290E+000,-4.68414E-001,1.64807E-001,2.01504E+000,1.15952E-002,6.29223E-001,0,3.02043E+001,-7.95483E+000,9.98929E-001,-1.10107E+001,-4.79137E+001,9.98220E-001,1.11028E-001,-4.54732E-002,-6.89260E-004,1.11031E-001,-4.54763E-002,-2.52334E-001,1.11635E-001,1.11732E+000,1.56409E-002,0.00000E+000,-1.46680E-002,9.57156E-001,0.00000E+000,-9.36617E-005,-6.00817E-002,1.00000E+000,19
1239,1307,2.73295E+001,-1.16341E+000,-4.54433E-002,7.23892E+000,-8.56897E-002,-1.49125E-002,7.23944E+000,1.62128E-002,4.37088E-001,0,1.08310E+002,-2.25569E+000,9.98677E-001,7.47792E+001,-3.05016E+001,9.97340E-001,1.23684E-001,-5.04833E-002,2.52790E-004,1.23685E-001,-5.04837E-002,8.31598E-002,1.24378E-001,1.13161E+000,-1.18055E-002,0.00000E+000,1.07313E-002,9.52511E-001,0.00000E+000,-5.96594E-003,-6.15255E-002,1.00000E+000,19
1239,1317,2.73424E+001,-5.42193E-001,-9.03299E-002,7.23554E+000,-1.14295E-001,-5.46094E-002,7.23665E+000,1.48994E-002,4.29868E-001,0,1.08418E+002,-2.65044E+000,9.98850E-001,7.49656E+001,-3.07526E+001,9.98151E-001,1.24435E-001,-5.04784E-002,3.35348E-004,1.24435E-001,-5.04790E-002,1.09849E-001,1.25171E-001,1.13246E+000,-1.17843E-002,0.00000E+000,1.08076E-002,9.52513E-001,0.00000E+000,-5.00269E-003,-6.15014E-002,1.00000E+000,19
1239,1327,2.73630E+001,7.59323E-002,-8.77709E-002,7.22799E+000,-1.55550E-001,-9.12027E-002,7.23024E+000,1.20561E-002,5.17145E-001,0,1.08446E+002,-3.24487E+000,9.98948E-001,7.53350E+001,-3.11094E+001,9.98184E-001,1.25192E-001,-5.04709E-002,4.25365E-004,1.25193E-001,-5.04719E-002,1.38740E-001,1.25973E-001,1.13331E+000,-1.17479E-002,0.00000E+000,1.08848E-002,9.52516E-001,0.00000E+000,-4.02878E-003,-6.14598E-002,1.00000E+000,19
1239,1337,2.73875E+001,7.05947E-001,-7.61879E-002,7.22256E+000,-1.80616E-001,-1.26067E-001,7.22591E+000,1.03264E-002,4.20973E-001,0,1.08489E+002,-3.59106E+000,9.98652E-001,7.57790E+001,-3.13960E+001,9.97129E-001,1.25942E-001,-5.04630E-002,5.15762E-004,1.25944E-001,-5.04645E-002,1.67515E-001,1.26769E-001,1.13416E+000,-1.17092E-002,0.00000E+000,1.09614E-002,9.52520E-001,0.00000E+000,-3.06181E-003,-6.14157E-002,1.00000E+000,19
1239,1297,2.73257E+001,-1.77401E+000,3.09343E-002,7.24454E+000,-4.95914E-002,3.00837E-002,7.24477E+000,1.04500E-002,4.51203E-001,0,1.08203E+002,-1.77117E+000,9.98852E-001,7.47793E+001,-3.01497E+001,9.97309E-001,1.22934E-001,-5.04868E-002,1.74307E-004,1.22934E-001,-5.04870E-002,5.75886E-002,1.23586E-001,1.13077E+000,-1.18177E-002,0.00000E+000,1.06552E-002,9.52510E-001,0.00000E+000,-6.92663E-003,-6.15394E-002,1.00000E+000,19
609,1347,-1.90285E+001,5.81960E-001,2.39830E-002,1.91043E+000,-5.53950E-001,4.61072E-002,1.98966E+000,1.24500E-002,6.28292E-001,0,2.98913E+001,-9.04741E+000,9.98287E-001,-1.11889E+001,-4.97901E+001,9.97923E-001,1.03822E-001,-4.45561E-002,-9.16623E-004,1.03828E-001,-4.45617E-002,-3.53933E-001,1.04174E-001,1.10926E+000,1.78217E-002,0.00000E+000,-1.69989E-002,9.57950E-001,0.00000E+000,-1.73005E-003,-5.92996E-002,1.00000E+000,19
609,1357,-1.90033E+001,1.20482E+000,2.89026E-002,1.91971E+000,-5.73077E-001,1.71977E-002,2.00349E+000,9.84500E-003,6.15391E-001,0,3.01110E+001,-9.29414E+000,9.98976E-001,-1.06340E+001,-5.02454E+001,9.98540E-001,1.01717E-001,-4.45557E-002,-9.02125E-004,1.01722E-001,-4.45613E-002,-3.53350E-001,1.01982E-001,1.10693E+000,1.77649E-002,0.00000E+000,-1.69103E-002,9.57952E-001,0.00000E+000,-2.50609E-003,-5.93185E-002,1.00000E+000,19
609,1317,-1.90833E+001,-1.23077E+000,2.04943E-001,1.87507E+000,-4.63470E-001,1.59698E-001,1.93809E+000,1.24210E-002,6.42166E-001,0,2.90217E+001,-7.87490E+000,9.99026E-001,-1.19513E+001,-4.80092E+001,9.97831E-001,1.10076E-001,-4.45551E-002,-1.00465E-003,1.10083E-001,-4.45617E-002,-3.72235E-001,1.10746E-001,1.11622E+000,1.78912E-002,0.00000E+000,-1.72634E-002,9.57947E-001,0.00000E+000,5.86251E-004,-5.92764E-002,1.00000E+000,19
609,1327,-1.90698E+001,-6.39046E-001,1.14053E-001,1.88694E+000,-5.02703E-001,1.20175E-001,1.95645E+000,8.77333E-003,6.35242E-001,0,2.93219E+001,-8.39139E+000,9.99026E-001,-1.18622E+001,-4.87311E+001,9.98412E-001,1.08001E-001,-4.45558E-002,-9.67725E-004,1.08007E-001,-4.45619E-002,-3.63430E-001,1.08556E-001,1.11391E+000,1.78853E-002,0.00000E+000,-1.71754E-002,9.57947E-001,0.00000E+000,-1.84381E-004,-5.92784E-002,1.00000E+000,19
609,1337,-1.90497E+001,-2.89108E-002,5.84001E-002,1.89970E+000,-5.26744E-001,8.20468E-002,1.97308E+000,1.02477E-002,6.18581E-001,0,2.96256E+001,-8.69379E+000,9.98419E-001,-1.15657E+001,-4.92494E+001,9.98021E-001,1.05918E-001,-4.45560E-002,-9.39697E-004,1.05924E-001,-4.45619E-002,-3.57789E-001,1.06367E-001,1.11159E+000,1.78592E-002,0.00000E+000,-1.70873E-002,9.57948E-001,0.00000E+000,-9.55742E-004,-5.92871E-002,1.00000E+000,19
1249,1297,2.80828E+001,-1.75661E+000,3.53855E-002,7.33339E+000,-3.92758E-002,2.80666E-002,7.33355E+000,1.23093E-002,4.71548E-001,0,1.09444E+002,-1.62488E+000,9.98971E-001,7.66241E+001,-2.97893E+001,9.97572E-001,1.22209E-001,-4.99018E-002,3.34343E-004,1.22210E-001,-4.99025E-002,1.11302E-001,1.22893E-001,1.12997E+000,-1.05548E-002,0.00000E+000,9.93833E-003,9.53047E-001,0.00000E+000,-7.40741E-003,-6.10523E-002,1.00000E+000,19
1249,1307,2.80809E+001,-1.15048E+000,-5.15725E-002,7.32451E+000,-7.81760E-002,-1.80650E-002,7.32495E+000,1.57991E-002,4.42815E-001,0,1.09512E+002,-2.15134E+000,9.98912E-001,7.65205E+001,-3.01943E+001,9.97126E-001,1.23103E-001,-4.98927E-002,5.64592E-004,1.23105E-001,-4.98946E-002,1.86989E-001,1.23839E-001,1.13097E+000,-1.05440E-002,0.00000E+000,1.02806E-002,9.53050E-001,0.00000E+000,-6.01105E-003,-6.10373E-002,1.00000E+000,19
1249,1317,2.80898E+001,-5.35007E-001,-9.81117E-002,7.31797E+000,-1.11839E-001,-5.55782E-002,7.31903E+000,1.42179E-002,4.11640E-001,0,1.09568E+002,-2.62204E+000,9.98254E-001,7.66400E+001,-3.05417E+001,9.96862E-001,1.23997E-001,-4.98778E-002,8.01286E-004,1.24001E-001,-4.98815E-002,2.64035E-001,1.24788E-001,1.13197E+000,-1.05202E-002,0.00000E+000,1.06241E-002,9.53058E-001,0.00000E+000,-4.60967E-003,-6.10041E-002,1.00000E+000,19
1249,1327,2.81085E+001,9.31232E-002,-1.10786E-001,7.31119E+000,-1.39957E-001,-9.71861E-002,7.31318E+000,1.29076E-002,4.45268E-001,0,1.09626E+002,-3.00759E+000,9.98389E-001,7.69599E+001,-3.07348E+001,9.97567E-001,1.24895E-001,-4.98558E-002,1.04644E-003,1.24901E-001,-4.98621E-002,3.43082E-001,1.25744E-001,1.13299E+000,-1.04808E-002,0.00000E+000,1.09703E-002,9.53072E-001,0.00000E+000,-3.19752E-003,-6.09491E-002,1.00000E+000,19
1249,1337,2.81367E+001,7.24789E-001,-8.64666E-002,7.30649E+000,-1.67354E-001,-1.29486E-001,7.30955E+000,9.74691E-003,4.17442E-001,0,1.09668E+002,-3.39445E+000,9.99184E-001,7.74764E+001,-3.09876E+001,9.98693E-001,1.25791E-001,-4.98288E-002,1.29680E-003,1.25801E-001,-4.98384E-002,4.23047E-001,1.26702E-001,1.13400E+000,-1.04301E-002,0.00000E+000,1.13171E-002,9.53089E-001,0.00000E+000,-1.78264E-003,-6.08783E-002,1.00000E+000,19
1259,1327,2.88606E+001,1.04023E-001,-1.22258E-001,7.39679E+000,-1.33684E-001,-1.05182E-001,7.39874E+000,1.06525E-002,4.06612E-001,0,1.10848E+002,-2.90928E+000,9.99253E-001,7.87057E+001,-3.04663E+001,9.98538E-001,1.24692E-001,-4.95564E-002,1.62461E-003,1.24707E-001,-4.95715E-002,5.34138E-001,1.25578E-001,1.13276E+000,-9.57993E-003,0.00000E+000,1.12468E-002,9.53308E-001,0.00000E+000,-1.84928E-003,-6.01274E-002,1.00000E+000,19
1259,1337,2.88902E+001,7.34368E-001,-9.36296E-002,7.39284E+000,-1.63183E-001,-1.34811E-001,7.39587E+000,9.53002E-003,4.00603E-001,0,1.10891E+002,-3.34067E+000,9.99496E-001,7.92473E+001,-3.07365E+001,9.99248E-001,1.25597E-001,-4.95179E-002,1.96571E-003,1.25619E-001,-4.95400E-002,6.43054E-001,1.26550E-001,1.13379E+000,-9.52757E-003,0.00000E+000,1.17455E-002,9.53333E-001,0.00000E+000,-4.15946E-005,-6.00351E-002,1.00000E+000,19
599,1347,-1.97318E+001,5.92340E-001,3.40429E-002,1.84515E+000,-5.38441E-001,5.13715E-002,1.92280E+000,1.19015E-002,6.37143E-001,0,2.88706E+001,-8.81438E+000,9.98907E-001,-1.18812E+001,-4.97517E+001,9.98932E-001,1.03322E-001,-4.46661E-002,-6.61226E-004,1.03325E-001,-4.46691E-002,-2.55997E-001,1.03640E-001,1.10868E+000,1.97048E-002,0.00000E+000,-1.81566E-002,9.57759E-001,0.00000E+000,-1.40633E-003,-5.81603E-002,1.00000E+000,19
599,1357,-1.97036E+001,1.20607E+000,3.31308E-002,1.85807E+000,-5.66379E-001,1.94251E-002,1.94257E+000,8.12749E-003,6.31774E-001,0,2.91573E+001,-9.19194E+000,9.99211E-001,-1.12982E+001,-5.03323E+001,9.98895E-001,1.01347E-001,-4.46636E-002,-4.23284E-004,1.01348E-001,-4.46649E-002,-1.66098E-001,1.01586E-001,1.10649E+000,1.96537E-002,0.00000E+000,-1.76435E-002,9.57771E-001,0.00000E+000,-2.23193E-003,-5.81796E-002,1.00000E+000,19
1259,1287,2.88376E+001,-2.35226E+000,1.20346E-001,7.42498E+000,5.26744E-003,6.01868E-002,7.42522E+000,1.34082E-002,4.15206E-001,0,1.10574E+002,-9.87370E-001,9.98512E-001,7.84999E+001,-2.91718E+001,9.94872E-001,1.21067E-001,-4.96290E-002,3.27410E-004,1.21068E-001,-4.96296E-002,1.09898E-001,1.21721E-001,1.12870E+000,-9.65989E-003,0.00000E+000,9.27146E-003,9.53269E-001,0.00000E+000,-9.00869E-003,-6.02683E-002,1.00000E+000,19
1259,1297,2.88322E+001,-1.74682E+000,1.35376E-002,7.41819E+000,-3.31709E-002,1.53884E-002,7.41828E+000,1.16639E-002,4.40782E-001,0,1.10673E+002,-1.51335E+000,9.98577E-001,7.83163E+001,-2.95174E+001,9.96197E-001,1.21976E-001,-4.96220E-002,6.42901E-004,1.21979E-001,-4.96244E-002,2.14657E-001,1.22683E-001,1.12971E+000,-9.65767E-003,0.00000E+000,9.76344E-003,9.53270E-001,0.00000E+000,-7.22551E-003,-6.02644E-002,1.00000E+000,19
1259,1307,2.88345E+001,-1.13526E+000,-6.32121E-002,7.41216E+000,-6.83254E-002,-2.51446E-002,7.41252E+000,1.17188E-002,4.40698E-001,0,1.10758E+002,-1.99693E+000,9.98754E-001,7.82919E+001,-2.98433E+001,9.97317E-001,1.22883E-001,-4.96083E-002,9.63684E-004,1.22889E-001,-4.96136E-002,3.20090E-001,1.23646E-001,1.13073E+000,-9.64472E-003,0.00000E+000,1.02564E-002,9.53276E-001,0.00000E+000,-5.43868E-003,-6.02416E-002,1.00000E+000,19
599,1327,-1.97790E+001,-6.23765E-001,1.25793E-001,1.81519E+000,-4.83344E-001,1.24745E-001,1.88258E+000,9.02748E-003,6.40677E-001,0,2.82019E+001,-8.08910E+000,9.99124E-001,-1.26386E+001,-4.86194E+001,9.98609E-001,1.07238E-001,-4.46609E-002,-1.15457E-003,1.07247E-001,-4.46697E-002,-4.35464E-001,1.07744E-001,1.11303E+000,1.97622E-002,0.00000E+000,-1.91782E-002,9.57746E-001,0.00000E+000,2.37434E-004,-5.81385E-002,1.00000E+000,19
599,1337,-1.97589E+001,-2.07026E-002,6.07999E-002,1.82949E+000,-5.12912E-001,8.59052E-002,1.90197E+000,8.31324E-003,6.22082E-001,0,2.85330E+001,-8.47725E+000,9.99002E-001,-1.23710E+001,-4.92293E+001,9.98913E-001,1.05287E-001,-4.46657E-002,-9.04375E-004,1.05293E-001,-4.46711E-002,-3.45537E-001,1.05695E-001,1.11086E+000,1.97430E-002,0.00000E+000,-1.86687E-002,9.57750E-001,0.00000E+000,-5.82351E-004,-5.81458E-002,1.00000E+000,19
1259,1317,2.88440E+001,-5.18278E-001,-1.05109E-001,7.40589E+000,-1.01464E-001,-5.91566E-002,7.40682E+000,1.12633E-002,4.42199E-001,0,1.10804E+002,-2.47464E+000,9.99178E-001,7.84279E+001,-3.01593E+001,9.98031E-001,1.23788E-001,-4.95871E-002,1.29036E-003,1.23798E-001,-4.95967E-002,4.26396E-001,1.24610E-001,1.13174E+000,-9.61998E-003,0.00000E+000,1.07508E-002,9.53288E-001,0.00000E+000,-3.64707E-003,-6.01980E-002,1.00000E+000,19
599,1317,-1.97982E+001,-1.22532E+000,2.11501E-001,1.79733E+000,-4.54907E-001,1.58056E-001,1.86073E+000,1.15295E-002,6.27416E-001,0,2.78284E+001,-7.70744E+000,9.99046E-001,-1.28325E+001,-4.80461E+001,9.98682E-001,1.09182E-001,-4.46529E-002,-1.41086E-003,1.09195E-001,-4.46658E-002,-5.25413E-001,1.09796E-001,1.11519E+000,1.97670E-002,0.00000E+000,-1.96872E-002,9.57744E-001,0.00000E+000,1.05650E-003,-5.81367E-002,1.00000E+000,19
589,1347,-2.04419E+001,6.02213E-001,3.73820E-002,1.77345E+000,-5.22948E-001,5.44390E-002,1.84974E+000,8.48391E-003,6.32997E-001,0,2.77544E+001,-8.56642E+000,9.99068E-001,-1.26918E+001,-4.97142E+001,9.99097E-001,1.02871E-001,-4.44846E-002,-1.11113E-004,1.02871E-001,-4.44847E-002,-4.32038E-002,1.03184E-001,1.10813E+000,2.21646E-002,0.00000E+000,-1.92420E-002,9.57859E-001,0.00000E+000,-1.24247E-003,-5.72123E-002,1.00000E+000,19
589,1357,-2.04101E+001,1.21592E+000,4.01784E-002,1.78960E+000,-5.51913E-001,2.28825E-002,1.87291E+000,6.74519E-003,6.37275E-001,0,2.80903E+001,-8.95493E+000,9.99177E-001,-1.20410E+001,-5.02998E+001,9.99348E-001,1.00885E-001,-4.44826E-002,1.36410E-004,1.00885E-001,-4.44828E-002,5.37651E-002,1.01120E-001,1.10593E+000,2.21120E-002,0.00000E+000,-1.87188E-002,9.57872E-001,0.00000E+000,-1.98610E-003,-5.72301E-002,1.00000E+000,19
589,1337,-2.04660E+001,-1.35387E-002,6.65621E-002,1.75976E+000,-5.00841E-001,8.56641E-002,1.83165E+000,6.82409E-003,6.17178E-001,0,2.74574E+001,-8.28065E+000,9.99369E-001,-1.31295E+001,-4.92365E+001,9.99331E-001,1.04845E-001,-4.44825E-002,-3.65622E-004,1.04846E-001,-4.44834E-002,-1.40285E-001,1.05246E-001,1.11032E+000,2.21994E-002,0.00000E+000,-1.97633E-002,9.57851E-001,0.00000E+000,-5.01423E-004,-5.72005E-002,1.00000E+000,19
589,1327,-2.04814E+001,-6.07553E-001,1.29209E-001,1.75023E+000,-4.63034E-001,1.23497E-001,1.81465E+000,1.23189E-002,6.81743E-001,0,2.72023E+001,-7.77271E+000,9.99444E-001,-1.33313E+001,-4.84572E+001,9.98673E-001,1.06802E-001,-4.44768E-002,-6.25073E-004,1.06805E-001,-4.44794E-002,-2.36736E-001,1.07301E-001,1.11249E+000,2.22191E-002,0.00000E+000,-2.02815E-002,9.57846E-001,0.00000E+000,2.35102E-004,-5.71939E-002,1.00000E+000,19
1269,1327,2.96197E+001,1.19906E-001,-1.15410E-001,7.48847E+000,-1.24533E-001,-9.63975E-002,7.49013E+000,9.33133E-003,4.26568E-001,0,1.12087E+002,-2.80482E+000,9.99373E-001,8.05892E+001,-3.01309E+001,9.98666E-001,1.24567E-001,-4.90908E-002,2.09893E-003,1.24592E-001,-4.91161E-002,6.92378E-001,1.25518E-001,1.13263E+000,-8.67886E-003,0.00000E+000,1.13560E-002,9.53639E-001,0.00000E+000,-1.01910E-003,-5.81190E-002,1.00000E+000,19
1269,1337,2.96536E+001,7.44051E-001,-8.97993E-002,7.48771E+000,-1.60288E-001,-1.32358E-001,7.49059E+000,9.53101E-003,4.09939E-001,0,1.12206E+002,-3.32412E+000,9.99260E-001,8.11910E+001,-3.04941E+001,9.98098E-001,1.25520E-001,-4.90427E-002,2.51210E-003,1.25556E-001,-4.90789E-002,8.24309E-001,1.26548E-001,1.13371E+000,-8.62176E-003,0.00000E+000,1.19900E-002,9.53672E-001,0.00000E+000,8.42380E-004,-5.80209E-002,1.00000E+000,19
589,1317,-2.05043E+001,-1.21072E+000,2.25607E-001,1.72840E+000,-4.36211E-001,1.65767E-001,1.79028E+000,9.83239E-003,6.07067E-001,0,2.67441E+001,-7.41160E+000,9.98674E-001,-1.35490E+001,-4.79604E+001,9.97709E-001,1.08756E-001,-4.44674E-002,-8.91744E-004,1.08761E-001,-4.44726E-002,-3.33440E-001,1.09362E-001,1.11467E+000,2.22229E-002,0.00000E+000,-2.08001E-002,9.57845E-001,0.00000E+000,9.72226E-004,-5.71926E-002,1.00000E+000,19
1269,1317,2.96048E+001,-5.02570E-001,-1.02672E-001,7.49724E+000,-9.23957E-002,-6.30723E-002,7.49808E+000,9.49028E-003,4.13552E-001,0,1.12088E+002,-2.33542E+000,9.99324E-001,8.03340E+001,-2.98423E+001,9.98421E-001,1.23613E-001,-4.91257E-002,1.69505E-003,1.23630E-001,-4.91423E-002,5.62160E-001,1.24493E-001,1.13155E+000,-8.71781E-003,0.00000E+000,1.07248E-002,9.53616E-001,0.00000E+000,-2.87244E-003,-5.81860E-002,1.00000E+000,19
1269,1307,2.95939E+001,-1.12089E+000,-5.67983E-002,7.50229E+000,-6.08123E-002,-2.50605E-002,7.50258E+000,1.05278E-002,4.33876E-001,0,1.12007E+002,-1.89292E+000,9.98756E-001,8.01829E+001,-2.95463E+001,9.97811E-001,1.22660E-001,-4.91513E-002,1.29828E-003,1.22670E-001,-4.91612E-002,4.32917E-001,1.23472E-001,1.13048E+000,-8.74411E-003,0.00000E+000,1.00966E-002,9.53601E-001,0.00000E+000,-4.71715E-003,-5.82312E-002,1.00000E+000,19
1269,1297,2.95859E+001,-1.73608E+000,6.73894E-003,7.50512E+000,-2.80307E-002,1.15689E-002,7.50518E+000,1.14488E-002,4.44347E-001,0,1.11894E+002,-1.43686E+000,9.98779E-001,8.00997E+001,-2.92454E+001,9.97251E-001,1.21703E-001,-4.91708E-002,9.05491E-004,1.21707E-001,-4.91756E-002,3.03610E-001,1.22452E-001,1.12941E+000,-8.76201E-003,0.00000E+000,9.46907E-003,9.53590E-001,0.00000E+000,-6.55956E-003,-5.82619E-002,1.00000E+000,19
1269,1287,2.95941E+001,-2.34309E+000,1.18044E-001,7.51242E+000,7.58328E-003,5.25440E-002,7.51261E+000,1.62698E-002,4.20079E-001,0,1.11816E+002,-9.41410E-001,9.99002E-001,8.03307E+001,-2.89346E+001,9.95909E-001,1.20745E-001,-4.91762E-002,5.22733E-004,1.20747E-001,-4.91778E-002,1.76258E-001,1.21437E-001,1.12834E+000,-8.76069E-003,0.00000E+000,8.84427E-003,9.53591E-001,0.00000E+000,-8.39408E-003,-5.82597E-002,1.00000E+000,19
579,1347,-2.11469E+001,6.09078E-001,4.00459E-002,1.70579E+000,-5.11331E-001,5.25978E-002,1.78156E+000,7.11631E-003,6.34036E-001,0,2.67140E+001,-8.36751E+000,9.99200E-001,-1.34217E+001,-4.97183E+001,9.99231E-001,1.02002E-001,-4.42396E-002,4.30215E-004,1.02003E-001,-4.42409E-002,1.68552E-001,1.02301E-001,1.10712E+000,2.46286E-002,0.00000E+000,-2.03255E-002,9.58037E-001,0.00000E+000,-1.71187E-003,-5.65832E-002,1.00000E+000,19
579,1357,-2.11099E+001,1.22917E+000,4.76362E-002,1.72695E+000,-5.34247E-001,2.39682E-002,1.80786E+000,6.91149E-003,6.49081E-001,0,2.71186E+001,-8.66979E+000,9.99483E-001,-1.26751E+001,-5.02124E+001,9.99629E-001,9.98969E-002,-4.42383E-002,7.02070E-004,9.99003E-002,-4.42417E-002,2.79074E-001,1.00118E-001,1.10479E+000,2.45726E-002,0.00000E+000,-1.97518E-002,9.58051E-001,0.00000E+000,-2.60370E-003,-5.66047E-002,1.00000E+000,19
579,1337,-2.11755E+001,-4.00763E-003,7.36343E-002,1.68753E+000,-4.86796E-001,8.82003E-002,1.75855E+000,7.34203E-003,6.33112E-001,0,2.63337E+001,-8.06023E+000,9.98996E-001,-1.39144E+001,-4.92004E+001,9.99074E-001,1.04092E-001,-4.42361E-002,1.50779E-004,1.04092E-001,-4.42363E-002,5.82424E-002,1.04482E-001,1.10943E+000,2.46648E-002,0.00000E+000,-2.08968E-002,9.58028E-001,0.00000E+000,-8.23651E-004,-5.65693E-002,1.00000E+000,19
579,1327,-2.11991E+001,-6.00276E-001,1.28109E-001,1.67033E+000,-4.51454E-001,1.21569E-001,1.73453E+000,8.70650E-003,6.76132E-001,0,2.59720E+001,-7.56071E+000,9.99368E-001,-1.42658E+001,-4.84480E+001,9.98628E-001,1.06163E-001,-4.42295E-002,-1.32667E-004,1.06164E-001,-4.42296E-002,-5.05425E-002,1.06655E-001,1.11173E+000,2.46876E-002,0.00000E+000,-2.14645E-002,9.58022E-001,0.00000E+000,5.88147E-005,-5.65606E-002,1.00000E+000,19
579,1317,-2.12158E+001,-1.19650E+000,2.21882E-001,1.65485E+000,-4.19218E-001,1.62834E-001,1.71487E+000,1.24085E-002,6.73426E-001,0,2.56151E+001,-7.12583E+000,9.98637E-001,-1.43956E+001,-4.78006E+001,9.97423E-001,1.08227E-001,-4.42184E-002,-4.23714E-004,1.08229E-001,-4.42196E-002,-1.59248E-001,1.08830E-001,1.11403E+000,2.46922E-002,0.00000E+000,-2.20316E-002,9.58021E-001,0.00000E+000,9.40459E-004,-5.65588E-002,1.00000E+000,19
1279,1317,3.03570E+001,-4.94105E-001,-1.03466E-001,7.58287E+000,-8.82097E-002,-5.77363E-002,7.58361E+000,8.90175E-003,3.91057E-001,0,1.13251E+002,-2.30204E+000,9.99076E-001,8.21045E+001,-2.96290E+001,9.97558E-001,1.23238E-001,-4.84618E-002,2.01219E-003,1.23261E-001,-4.84854E-002,6.71339E-001,1.24193E-001,1.13113E+000,-7.78445E-003,0.00000E+000,1.05178E-002,9.54148E-001,0.00000E+000,-2.22646E-003,-5.62595E-002,1.00000E+000,19
1279,1327,3.03827E+001,1.34085E-001,-1.08474E-001,7.58320E+000,-1.17117E-001,-8.87696E-002,7.58463E+000,1.35855E-002,4.42101E-001,0,1.13373E+002,-2.72543E+000,9.98811E-001,8.25365E+001,-2.98240E+001,9.98277E-001,1.24299E-001,-4.84180E-002,2.49750E-003,1.24335E-001,-4.84541E-002,8.28274E-001,1.25339E-001,1.13233E+000,-7.73816E-003,0.00000E+000,1.12913E-002,9.54178E-001,0.00000E+000,-1.57134E-004,-5.61798E-002,1.00000E+000,19
1279,1337,3.04157E+001,7.58715E-001,-8.35689E-002,7.58145E+000,-1.53942E-001,-1.24947E-001,7.58404E+000,1.02678E-002,4.36621E-001,0,1.13480E+002,-3.24548E+000,9.99191E-001,8.31216E+001,-3.01714E+001,9.98635E-001,1.25357E-001,-4.83606E-002,2.99156E-003,1.25408E-001,-4.84121E-002,9.86292E-001,1.26490E-001,1.13354E+000,-7.67456E-003,0.00000E+000,1.20674E-002,9.54218E-001,0.00000E+000,1.91938E-003,-5.60702E-002,1.00000E+000,19
1279,1307,3.03402E+001,-1.11142E+000,-6.74674E-002,7.58328E+000,-5.56025E-002,-2.50867E-002,7.58353E+000,1.03437E-002,4.38348E-001,0,1.13124E+002,-1.83141E+000,9.98953E-001,8.18484E+001,-2.92847E+001,9.97024E-001,1.22180E-001,-4.84939E-002,1.53685E-003,1.22194E-001,-4.85077E-002,5.15868E-001,1.23056E-001,1.12994E+000,-7.81603E-003,0.00000E+000,9.75083E-003,9.54127E-001,0.00000E+000,-4.27861E-003,-5.63140E-002,1.00000E+000,19
1279,1297,3.03400E+001,-1.72170E+000,1.35081E-002,7.59055E+000,-1.84202E-002,1.61154E-002,7.59059E+000,1.78215E-002,3.71099E-001,0,1.13051E+002,-1.29623E+000,9.98788E-001,8.19102E+001,-2.89845E+001,9.97475E-001,1.21117E-001,-4.85119E-002,1.06935E-003,1.21124E-001,-4.85186E-002,3.61177E-001,1.21920E-001,1.12875E+000,-7.82975E-003,0.00000E+000,8.98416E-003,9.54119E-001,0.00000E+000,-6.32985E-003,-5.63376E-002,1.00000E+000,19
1279,1287,3.03426E+001,-2.34278E+000,1.04024E-001,7.59624E+000,4.89654E-003,5.08752E-002,7.59642E+000,1.63488E-002,3.26500E-001,0,1.12984E+002,-9.57253E-001,9.98970E-001,8.20265E+001,-2.88605E+001,9.96572E-001,1.20052E-001,-4.85234E-002,6.06738E-004,1.20054E-001,-4.85255E-002,2.06216E-001,1.20786E-001,1.12756E+000,-7.83550E-003,0.00000E+000,8.22000E-003,9.54115E-001,0.00000E+000,-8.37437E-003,-5.63475E-002,1.00000E+000,19
569,1347,-2.18505E+001,6.23626E-001,4.70806E-002,1.63943E+000,-4.92126E-001,5.68032E-002,1.71265E+000,7.58318E-003,6.50842E-001,0,2.56749E+001,-8.06621E+000,9.99109E-001,-1.41105E+001,-4.96062E+001,9.98919E-001,1.01472E-001,-4.38976E-002,8.93384E-004,1.01477E-001,-4.39031E-002,3.52100E-001,1.01784E-001,1.10647E+000,2.71748E-002,0.00000E+000,-2.16510E-002,9.58301E-001,0.00000E+000,-1.77652E-003,-5.59304E-002,1.00000E+000,19
569,1357,-2.18158E+001,1.23717E+000,4.52848E-002,1.65965E+000,-5.19240E-001,2.64497E-002,1.73918E+000,7.34029E-003,6.54028E-001,0,2.60704E+001,-8.44007E+000,9.99344E-001,-1.34283E+001,-5.01884E+001,9.99089E-001,9.92967E-002,-4.38987E-002,1.23151E-003,9.93073E-002,-4.39093E-002,4.92708E-001,9.95286E-002,1.10407E+000,2.71222E-002,0.00000E+000,-2.09504E-002,9.58316E-001,0.00000E+000,-2.84381E-003,-5.59538E-002,1.00000E+000,19
569,1327,-2.19049E+001,-5.95587E-001,1.24657E-001,1.60250E+000,-4.41398E-001,1.21492E-001,1.66661E+000,1.27654E-002,7.00330E-001,0,2.49246E+001,-7.40083E+000,9.99534E-001,-1.50243E+001,-4.84573E+001,9.99064E-001,1.05784E-001,-4.38833E-002,2.02156E-004,1.05784E-001,-4.38836E-002,7.73898E-002,1.06294E-001,1.11125E+000,2.72387E-002,0.00000E+000,-2.30461E-002,9.58282E-001,0.00000E+000,3.48739E-004,-5.59020E-002,1.00000E+000,19
569,1337,-2.18794E+001,1.14969E-002,7.75353E-002,1.62009E+000,-4.67629E-001,8.55233E-002,1.68840E+000,7.04153E-003,6.37610E-001,0,2.52960E+001,-7.73381E+000,9.99188E-001,-1.46181E+001,-4.90710E+001,9.99105E-001,1.03635E-001,-4.38913E-002,5.48239E-004,1.03637E-001,-4.38933E-002,2.12919E-001,1.04040E-001,1.10886E+000,2.72096E-002,0.00000E+000,-2.23500E-002,9.58291E-001,0.00000E+000,-7.11773E-004,-5.59150E-002,1.00000E+000,19
1289,1327,3.11306E+001,1.41450E-001,-1.18151E-001,7.66533E+000,-1.14246E-001,-8.69312E-002,7.66668E+000,1.24218E-002,4.29094E-001,0,1.14499E+002,-2.69797E+000,9.98488E-001,8.42307E+001,-2.96028E+001,9.97446E-001,1.23993E-001,-4.74980E-002,2.87235E-003,1.24041E-001,-4.75461E-002,9.59304E-001,1.25162E-001,1.13200E+000,-6.58339E-003,0.00000E+000,1.10139E-002,9.54944E-001,0.00000E+000,5.62593E-004,-5.39511E-002,1.00000E+000,19
1289,1337,3.11646E+001,7.71456E-001,-9.39432E-002,7.66457E+000,-1.46138E-001,-1.23125E-001,7.66695E+000,1.19311E-002,4.38947E-001,0,1.14619E+002,-3.14608E+000,9.99018E-001,8.48289E+001,-2.98556E+001,9.98082E-001,1.25214E-001,-4.74347E-002,3.42331E-003,1.25282E-001,-4.75026E-002,1.13547E+000,1.26496E-001,1.13339E+000,-6.50992E-003,0.00000E+000,1.18859E-002,9.54990E-001,0.00000E+000,2.83992E-003,-5.38309E-002,1.00000E+000,19
569,1317,-2.19263E+001,-1.18586E+000,2.22249E-001,1.58093E+000,-4.03542E-001,1.57326E-001,1.63919E+000,1.41627E-002,6.69669E-001,0,2.44854E+001,-6.86949E+000,9.98896E-001,-1.52097E+001,-4.77393E+001,9.97450E-001,1.07922E-001,-4.38668E-002,-1.56419E-004,1.07922E-001,-4.38670E-002,-5.90434E-002,1.08550E-001,1.11363E+000,2.72380E-002,0.00000E+000,-2.37412E-002,9.58283E-001,0.00000E+000,1.40759E-003,-5.59023E-002,1.00000E+000,19
1289,1317,3.11080E+001,-4.83226E-001,-1.02116E-001,7.66571E+000,-8.54181E-002,-5.37750E-002,7.66637E+000,1.42316E-002,4.81072E-001,0,1.14376E+002,-2.29174E+000,9.99139E-001,8.38608E+001,-2.93271E+001,9.96595E-001,1.22775E-001,-4.75423E-002,2.33634E-003,1.22807E-001,-4.75743E-002,7.85761E-001,1.23841E-001,1.13062E+000,-6.63187E-003,0.00000E+000,1.01495E-002,9.54914E-001,0.00000E+000,-1.69471E-003,-5.40304E-002,1.00000E+000,19
1289,1287,3.10901E+001,-2.32380E+000,9.20732E-002,7.67683E+000,1.82417E-002,4.49968E-002,7.67698E+000,1.69758E-002,4.12102E-001,0,1.14111E+002,-7.80249E-001,9.98964E-001,8.37131E+001,-2.84113E+001,9.96371E-001,1.19094E-001,-4.76103E-002,7.69250E-004,1.19097E-001,-4.76138E-002,2.64382E-001,1.19892E-001,1.12649E+000,-6.69333E-003,0.00000E+000,7.56631E-003,9.54875E-001,0.00000E+000,-8.44090E-003,-5.41309E-002,1.00000E+000,19
1289,1297,3.10922E+001,-1.71348E+000,1.37186E-002,7.67232E+000,-1.56146E-002,9.38576E-003,7.67234E+000,1.78353E-002,3.14646E-001,0,1.14202E+002,-1.24409E+000,9.99107E-001,8.36861E+001,-2.87974E+001,9.97328E-001,1.20322E-001,-4.75928E-002,1.28643E-003,1.20332E-001,-4.76027E-002,4.38921E-001,1.21203E-001,1.12786E+000,-6.67928E-003,0.00000E+000,8.42308E-003,9.54884E-001,0.00000E+000,-6.20339E-003,-5.41079E-002,1.00000E+000,19
1289,1307,3.10949E+001,-1.10165E+000,-6.96805E-002,7.66863E+000,-5.28030E-002,-2.97675E-002,7.66887E+000,1.26126E-002,4.55654E-001,0,1.14321E+002,-1.79110E+000,9.99551E-001,8.36600E+001,-2.90297E+001,9.97522E-001,1.21552E-001,-4.75753E-002,1.80709E-003,1.21572E-001,-4.75946E-002,6.12099E-001,1.22522E-001,1.12924E+000,-6.66576E-003,0.00000E+000,9.28639E-003,9.54892E-001,0.00000E+000,-3.94881E-003,-5.40858E-002,1.00000E+000,19
559,1327,-2.26027E+001,-5.85113E-001,1.24613E-001,1.54146E+000,-4.27179E-001,1.19210E-001,1.60399E+000,2.28701E-002,8.05838E-001,0,2.39865E+001,-7.20031E+000,9.99644E-001,-1.56434E+001,-4.83437E+001,9.98829E-001,1.05374E-001,-4.37845E-002,6.51016E-004,1.05377E-001,-4.37873E-002,2.50066E-001,1.05877E-001,1.11072E+000,2.98984E-002,0.00000E+000,-2.44905E-002,9.58285E-001,0.00000E+000,4.61181E-004,-5.48250E-002,1.00000E+000,19
559,1337,-2.25829E+001,2.34937E-002,7.45866E-002,1.55366E+000,-4.50735E-001,8.18339E-002,1.61979E+000,6.65530E-003,6.63915E-001,0,2.42761E+001,-7.45821E+000,9.99623E-001,-1.53319E+001,-4.89700E+001,9.99446E-001,1.03272E-001,-4.37924E-002,9.34753E-004,1.03278E-001,-4.37983E-002,3.64157E-001,1.03674E-001,1.10839E+000,2.98713E-002,0.00000E+000,-2.39157E-002,9.58292E-001,0.00000E+000,-6.93904E-004,-5.48384E-002,1.00000E+000,19
559,1347,-2.25574E+001,6.35255E-001,4.65840E-002,1.56965E+000,-4.73842E-001,5.49518E-002,1.64053E+000,9.17521E-003,6.30970E-001,0,2.45970E+001,-7.77440E+000,9.99174E-001,-1.48678E+001,-4.95415E+001,9.98749E-001,1.01158E-001,-4.37986E-002,1.21651E-003,1.01168E-001,-4.38088E-002,4.80793E-001,1.01470E-001,1.10606E+000,2.98376E-002,0.00000E+000,-2.33394E-002,9.58300E-001,0.00000E+000,-1.85217E-003,-5.48551E-002,1.00000E+000,19
559,1357,-2.25213E+001,1.24775E+000,4.18751E-002,1.59205E+000,-5.00933E-001,2.54276E-002,1.66920E+000,7.89529E-003,6.31236E-001,0,2.50245E+001,-8.15343E+000,9.99172E-001,-1.41717E+001,-5.01366E+001,9.99086E-001,9.90291E-002,-4.38014E-002,1.49292E-003,9.90447E-002,-4.38170E-002,5.98789E-001,9.92636E-002,1.10371E+000,2.97890E-002,0.00000E+000,-2.27607E-002,9.58312E-001,0.00000E+000,-3.01508E-003,-5.48792E-002,1.00000E+000,19
559,1317,-2.26299E+001,-1.17084E+000,2.28410E-001,1.51358E+000,-3.85392E-001,1.58518E-001,1.56989E+000,2.25383E-002,7.12281E-001,0,2.34392E+001,-6.58178E+000,9.99406E-001,-1.58967E+001,-4.75993E+001,9.98337E-001,1.07469E-001,-4.37698E-002,3.54520E-004,1.07470E-001,-4.37706E-002,1.34307E-001,1.08084E-001,1.11305E+000,2.98961E-002,0.00000E+000,-2.50650E-002,9.58285E-001,0.00000E+000,1.61569E-003,-5.48261E-002,1.00000E+000,19
1299,1327,3.18855E+001,1.54473E-001,-1.23162E-001,7.74986E+000,-1.08651E-001,-9.53945E-002,7.75121E+000,1.61375E-002,4.28093E-001,0,1.15697E+002,-2.60157E+000,9.98513E-001,8.60442E+001,-2.92972E+001,9.97650E-001,1.23762E-001,-4.64707E-002,3.22377E-003,1.23823E-001,-4.65318E-002,1.08452E+000,1.25090E-001,1.13175E+000,-5.06328E-003,0.00000E+000,1.03928E-002,9.55807E-001,0.00000E+000,1.15603E-003,-5.14069E-002,1.00000E+000,19
1299,1337,3.19299E+001,7.84707E-001,-8.62477E-002,7.75797E+000,-1.41975E-001,-1.23431E-001,7.76025E+000,1.49880E-002,4.73152E-001,0,1.15914E+002,-3.09697E+000,9.98471E-001,8.68172E+001,-2.95545E+001,9.97267E-001,1.25162E-001,-4.64013E-002,3.82074E-003,1.25247E-001,-4.64863E-002,1.27514E+000,1.26626E-001,1.13334E+000,-4.97547E-003,0.00000E+000,1.13400E-002,9.55859E-001,0.00000E+000,3.60609E-003,-5.12723E-002,1.00000E+000,19
1299,1287,3.18474E+001,-2.31261E+000,9.72783E-002,7.76234E+000,2.06103E-002,4.05017E-002,7.76247E+000,1.28671E-002,5.05021E-001,0,1.15304E+002,-7.63123E-001,9.99113E-001,8.55767E+001,-2.81151E+001,9.97002E-001,1.18153E-001,-4.65844E-002,9.62592E-004,1.18158E-001,-4.65900E-002,3.34776E-001,1.19035E-001,1.12544E+000,-5.18593E-003,0.00000E+000,6.65691E-003,9.55734E-001,0.00000E+000,-8.50749E-003,-5.15950E-002,1.00000E+000,19
1299,1297,3.18510E+001,-1.70451E+000,2.70333E-002,7.76077E+000,-1.52223E-002,1.83782E-002,7.76081E+000,1.38687E-002,5.15132E-001,0,1.15383E+002,-1.33533E+000,9.99313E-001,8.55829E+001,-2.84980E+001,9.97498E-001,1.19560E-001,-4.65693E-002,1.51740E-003,1.19574E-001,-4.65831E-002,5.23275E-001,1.20542E-001,1.12701E+000,-5.17324E-003,0.00000E+000,7.58585E-003,9.55742E-001,0.00000E+000,-6.10464E-003,-5.15755E-002,1.00000E+000,19
1299,1307,3.18646E+001,-1.08492E+000,-3.91326E-002,7.76378E+000,-4.51899E-002,-1.89289E-002,7.76394E+000,2.53832E-002,5.06369E-001,0,1.15588E+002,-1.73311E+000,9.99198E-001,8.57503E+001,-2.87191E+001,9.97673E-001,1.20968E-001,-4.65446E-002,2.08151E-003,1.20994E-001,-4.65704E-002,7.11810E-001,1.22058E-001,1.12859E+000,-5.14757E-003,0.00000E+000,8.52119E-003,9.55757E-001,0.00000E+000,-3.68524E-003,-5.15361E-002,1.00000E+000,19
1299,1317,3.18740E+001,-4.66288E-001,-8.49691E-002,7.75776E+000,-7.74915E-002,-5.37965E-002,7.75834E+000,2.04523E-002,4.95647E-001,0,1.15644E+002,-2.18835E+000,9.98630E-001,8.58766E+001,-2.90016E+001,9.97439E-001,1.22369E-001,-4.65112E-002,2.65072E-003,1.22411E-001,-4.65528E-002,8.99011E-001,1.23575E-001,1.13017E+000,-5.11014E-003,0.00000E+000,9.45693E-003,9.55779E-001,0.00000E+000,-1.26480E-003,-5.14788E-002,1.00000E+000,19
559,1307,-2.26526E+001,-1.76514E+000,3.40262E-001,1.48836E+000,-3.53336E-001,1.94833E-001,1.54209E+000,1.05678E-002,6.93945E-001,0,2.29429E+001,-6.15362E+000,9.98807E-001,-1.60607E+001,-4.69639E+001,9.97769E-001,1.09557E-001,-4.37535E-002,5.56138E-005,1.09557E-001,-4.37535E-002,2.07843E-002,1.10294E-001,1.11538E+000,2.98876E-002,0.00000E+000,-2.56394E-002,9.58288E-001,0.00000E+000,2.76980E-003,-5.48304E-002,1.00000E+000,19
549,1347,-2.32572E+001,6.50337E-001,4.81660E-002,1.50657E+000,-4.54391E-001,5.53312E-002,1.57458E+000,8.13679E-003,6.73989E-001,0,2.36169E+001,-7.46626E+000,9.99091E-001,-1.55053E+001,-4.93963E+001,9.98717E-001,1.00861E-001,-4.36184E-002,1.57638E-003,1.00878E-001,-4.36356E-002,6.25042E-001,1.01183E-001,1.10566E+000,3.23725E-002,0.00000E+000,-2.48532E-002,9.58373E-001,0.00000E+000,-1.88546E-003,-5.36496E-002,1.00000E+000,19
549,1357,-2.32210E+001,1.26850E+000,4.82408E-002,1.52834E+000,-4.76622E-001,2.53079E-002,1.60113E+000,8.66359E-003,6.59692E-001,0,2.40339E+001,-7.75657E+000,9.99109E-001,-1.47908E+001,-4.99243E+001,9.98929E-001,9.87989E-002,-4.36215E-002,1.83941E-003,9.88227E-002,-4.36453E-002,7.39832E-001,9.90467E-002,1.10339E+000,3.23234E-002,0.00000E+000,-2.42993E-002,9.58385E-001,0.00000E+000,-3.13416E-003,-5.36766E-002,1.00000E+000,19
549,1327,-2.33237E+001,-5.64805E-001,1.43126E-001,1.45519E+000,-4.02489E-001,1.25506E-001,1.51503E+000,1.84719E-002,7.67445E-001,0,2.26267E+001,-6.81018E+000,9.99007E-001,-1.65520E+001,-4.81941E+001,9.97257E-001,1.04945E-001,-4.36015E-002,1.03290E-003,1.04952E-001,-4.36087E-002,3.98374E-001,1.05450E-001,1.11018E+000,3.24245E-002,0.00000E+000,-2.59551E-002,9.58360E-001,0.00000E+000,5.99142E-004,-5.36210E-002,1.00000E+000,19
549,1337,-2.32861E+001,4.10161E-002,8.11563E-002,1.48677E+000,-4.26931E-001,8.51667E-002,1.54919E+000,6.94738E-003,6.51664E-001,0,2.32277E+001,-7.09755E+000,9.99395E-001,-1.60062E+001,-4.88241E+001,9.99299E-001,1.02914E-001,-4.36111E-002,1.30575E-003,1.02925E-001,-4.36227E-002,5.10535E-001,1.03323E-001,1.10793E+000,3.24037E-002,0.00000E+000,-2.54063E-002,9.58365E-001,0.00000E+000,-6.38308E-004,-5.36325E-002,1.00000E+000,19
1309,1317,3.26196E+001,-4.64175E-001,-1.10046E-001,7.83677E+000,-7.91777E-002,-6.70617E-002,7.83746E+000,1.62238E-002,4.47918E-001,0,1.16786E+002,-2.18719E+000,9.98472E-001,8.75239E+001,-2.88480E+001,9.97522E-001,1.22269E-001,-4.56289E-002,3.03729E-003,1.22324E-001,-4.56838E-002,1.03603E+000,1.23623E-001,1.13006E+000,-3.17326E-003,0.00000E+000,8.55765E-003,9.56510E-001,0.00000E+000,-1.01127E-003,-4.88926E-002,1.00000E+000,19
1309,1327,3.26438E+001,1.62512E-001,-1.28603E-001,7.83885E+000,-1.06386E-001,-9.87620E-002,7.84019E+000,1.90215E-002,4.19116E-001,0,1.16940E+002,-2.57717E+000,9.98239E-001,8.79143E+001,-2.90719E+001,9.96977E-001,1.23834E-001,-4.55878E-002,3.58495E-003,1.23909E-001,-4.56636E-002,1.21166E+000,1.25329E-001,1.13184E+000,-3.11306E-003,0.00000E+000,9.43934E-003,9.56540E-001,0.00000E+000,1.47148E-003,-4.88083E-002,1.00000E+000,19
1309,1337,3.26843E+001,7.95812E-001,-9.29752E-002,7.84413E+000,-1.35977E-001,-1.23213E-001,7.84628E+000,1.79792E-002,4.55779E-001,0,1.17100E+002,-3.02237E+000,9.98815E-001,8.86216E+001,-2.92819E+001,9.98193E-001,1.25403E-001,-4.55256E-002,4.15224E-003,1.25504E-001,-4.56264E-002,1.39075E+000,1.27052E-001,1.13363E+000,-3.01760E-003,0.00000E+000,1.03292E-002,9.56587E-001,0.00000E+000,3.97734E-003,-4.86748E-002,1.00000E+000,19
549,1317,-2.33380E+001,-1.15660E+000,2.41611E-001,1.44138E+000,-3.67410E-001,1.66860E-001,1.49680E+000,1.54065E-002,7.76574E-001,0,2.22976E+001,-6.33239E+000,9.99230E-001,-1.66258E+001,-4.74764E+001,9.98217E-001,1.06968E-001,-4.35875E-002,7.51868E-004,1.06972E-001,-4.35912E-002,2.86123E-001,1.07580E-001,1.11243E+000,3.24262E-002,0.00000E+000,-2.65036E-002,9.58360E-001,0.00000E+000,1.83584E-003,-5.36201E-002,1.00000E+000,19
549,1307,-2.33583E+001,-1.75129E+000,3.32407E-001,1.41950E+000,-3.35106E-001,1.87755E-001,1.47055E+000,1.08539E-002,7.10312E-001,0,2.18938E+001,-5.84312E+000,9.98813E-001,-1.68156E+001,-4.68241E+001,9.98222E-001,1.08990E-001,-4.35718E-002,4.67534E-004,1.08991E-001,-4.35732E-002,1.75584E-001,1.09718E-001,1.11468E+000,3.24211E-002,0.00000E+000,-2.70532E-002,9.58361E-001,0.00000E+000,3.07489E-003,-5.36229E-002,1.00000E+000,19
1309,1287,3.26046E+001,-2.30911E+000,9.61431E-002,7.84643E+000,1.82930E-002,2.63454E-002,7.84650E+000,1.17886E-002,4.68575E-001,0,1.16516E+002,-7.87099E-001,9.99139E-001,8.74355E+001,-2.79900E+001,9.96803E-001,1.17545E-001,-4.56833E-002,1.45004E-003,1.17558E-001,-4.56962E-002,5.08934E-001,1.18525E-001,1.12477E+000,-3.24041E-003,0.00000E+000,5.92584E-003,9.56476E-001,0.00000E+000,-8.42216E-003,-4.89866E-002,1.00000E+000,19
1309,1297,3.26062E+001,-1.70313E+000,1.40937E-002,7.84463E+000,-2.13474E-002,-8.50440E-004,7.84466E+000,1.57307E-002,5.01125E-001,0,1.16618E+002,-1.38147E+000,9.98947E-001,8.73967E+001,-2.83677E+001,9.96847E-001,1.19127E-001,-4.56731E-002,1.97306E-003,1.19151E-001,-4.56968E-002,6.85838E-001,1.20223E-001,1.12653E+000,-3.23087E-003,0.00000E+000,6.80207E-003,9.56481E-001,0.00000E+000,-5.95480E-003,-4.89732E-002,1.00000E+000,19
1309,1307,3.26062E+001,-1.08276E+000,-7.02071E-002,7.83969E+000,-4.49961E-002,-3.55538E-002,7.83990E+000,1.64374E-002,3.92503E-001,0,1.16697E+002,-1.68178E+000,9.98928E-001,8.73293E+001,-2.85872E+001,9.98206E-001,1.20695E-001,-4.56604E-002,2.49600E-003,1.20733E-001,-4.56978E-002,8.59410E-001,1.21915E-001,1.12829E+000,-3.21760E-003,0.00000E+000,7.67569E-003,9.56488E-001,0.00000E+000,-3.49478E-003,-4.89546E-002,1.00000E+000,19
539,1347,-2.39607E+001,6.67245E-001,4.85286E-002,1.43918E+000,-4.31751E-001,5.34034E-002,1.50349E+000,7.47363E-003,6.72818E-001,0,2.25728E+001,-7.10347E+000,9.99148E-001,-1.61984E+001,-4.92433E+001,9.99074E-001,1.00631E-001,-4.33565E-002,1.75576E-003,1.00652E-001,-4.33779E-002,6.98520E-001,1.00971E-001,1.10534E+000,3.46333E-002,0.00000E+000,-2.64843E-002,9.58516E-001,0.00000E+000,-1.81724E-003,-5.23624E-002,1.00000E+000,19
539,1357,-2.39243E+001,1.28669E+000,4.36896E-002,1.46233E+000,-4.52008E-001,2.44508E-002,1.53079E+000,7.15844E-003,6.59995E-001,0,2.30086E+001,-7.35970E+000,9.99377E-001,-1.54929E+001,-4.97420E+001,9.99212E-001,9.87001E-002,-4.33610E-002,1.99439E-003,9.87281E-002,-4.33890E-002,8.04160E-001,9.89688E-002,1.10321E+000,3.45909E-002,0.00000E+000,-2.59805E-002,9.58526E-001,0.00000E+000,-3.15092E-003,-5.23890E-002,1.00000E+000,19
539,1327,-2.40197E+001,-5.46525E-001,1.30016E-001,1.39572E+000,-3.76699E-001,1.12856E-001,1.45006E+000,8.81707E-003,6.51397E-001,0,2.17346E+001,-6.34467E+000,9.98295E-001,-1.71697E+001,-4.80436E+001,9.98174E-001,1.04460E-001,-4.33398E-002,1.26494E-003,1.04471E-001,-4.33507E-002,4.90315E-001,1.04974E-001,1.10957E+000,3.46828E-002,0.00000E+000,-2.74884E-002,9.58504E-001,0.00000E+000,8.40559E-004,-5.23314E-002,1.00000E+000,19
539,1337,-2.39902E+001,6.00391E-002,8.06640E-002,1.41863E+000,-4.02451E-001,8.20168E-002,1.47689E+000,7.70755E-003,6.53960E-001,0,2.21750E+001,-6.70465E+000,9.98961E-001,-1.67109E+001,-4.86332E+001,9.98950E-001,1.02553E-001,-4.33490E-002,1.51139E-003,1.02568E-001,-4.33647E-002,5.93441E-001,1.02975E-001,1.10746E+000,3.46619E-002,0.00000E+000,-2.69875E-002,9.58509E-001,0.00000E+000,-4.85302E-004,-5.23445E-002,1.00000E+000,19
1319,1297,3.33460E+001,-1.69724E+000,-1.65367E-002,7.91748E+000,-1.76092E-002,-2.00712E-002,7.91752E+000,1.32914E-002,3.57245E-001,0,1.17688E+002,-1.25606E+000,9.99020E-001,8.89532E+001,-2.81964E+001,9.97626E-001,1.18731E-001,-4.46428E-002,2.56209E-003,1.18772E-001,-4.46829E-002,8.98239E-001,1.19979E-001,1.12610E+000,-7.73071E-004,0.00000E+000,5.85192E-003,9.57322E-001,0.00000E+000,-6.28573E-003,-4.55744E-002,1.00000E+000,19
1319,1307,3.33551E+001,-1.08205E+000,-8.26354E-002,7.91844E+000,-4.92366E-002,-4.82135E-002,7.91874E+000,1.55388E-002,3.39568E-001,0,1.17828E+002,-1.72360E+000,9.98946E-001,8.90504E+001,-2.84873E+001,9.98364E-001,1.20528E-001,-4.46263E-002,3.09507E-003,1.20586E-001,-4.46843E-002,1.07325E+000,1.21925E-001,1.12811E+000,-7.47714E-004,0.00000E+000,6.73119E-003,9.57334E-001,0.00000E+000,-3.47156E-003,-4.55389E-002,1.00000E+000,19
539,1307,-2.40626E+001,-1.73967E+000,3.21768E-001,1.35113E+000,-3.17489E-001,1.74684E-001,1.39888E+000,7.31373E-003,6.56224E-001,0,2.08658E+001,-5.52562E+000,9.99056E-001,-1.75542E+001,-4.67478E+001,9.98840E-001,1.08245E-001,-4.33113E-002,7.53588E-004,1.08248E-001,-4.33151E-002,2.84885E-001,1.08966E-001,1.11378E+000,3.46779E-002,0.00000E+000,-2.84867E-002,9.58505E-001,0.00000E+000,3.48325E-003,-5.23344E-002,1.00000E+000,19
539,1317,-2.40430E+001,-1.14861E+000,2.18247E-001,1.37316E+000,-3.51229E-001,1.45917E-001,1.42486E+000,8.29323E-003,6.80399E-001,0,2.12922E+001,-6.01868E+000,9.98751E-001,-1.74147E+001,-4.74517E+001,9.98295E-001,1.06357E-001,-4.33267E-002,1.01111E-003,1.06364E-001,-4.33335E-002,3.87009E-001,1.06970E-001,1.11168E+000,3.46853E-002,0.00000E+000,-2.79880E-002,9.58503E-001,0.00000E+000,2.16304E-003,-5.23298E-002,1.00000E+000,19
1319,1287,3.33522E+001,-2.31126E+000,7.85121E-002,7.92478E+000,1.13376E-002,1.14888E-002,7.92480E+000,1.39307E-002,4.29757E-001,0,1.17651E+002,-8.60578E-001,9.98825E-001,8.91293E+001,-2.79201E+001,9.97972E-001,1.16929E-001,-4.46474E-002,2.04044E-003,1.16955E-001,-4.46732E-002,7.23394E-001,1.18036E-001,1.12409E+000,-7.76514E-004,0.00000E+000,4.97566E-003,9.57321E-001,0.00000E+000,-9.09027E-003,-4.55792E-002,1.00000E+000,19
529,1327,-2.47209E+001,-5.31663E-001,1.31562E-001,1.32969E+000,-3.56518E-001,1.09371E-001,1.38099E+000,7.72811E-003,6.51832E-001,0,2.07157E+001,-6.02442E+000,9.98333E-001,-1.78201E+001,-4.79197E+001,9.98071E-001,1.04057E-001,-4.27985E-002,1.52931E-003,1.04073E-001,-4.28145E-002,5.96574E-001,1.04616E-001,1.10907E+000,3.62976E-002,0.00000E+000,-2.84335E-002,9.58935E-001,0.00000E+000,1.51006E-003,-5.10759E-002,1.00000E+000,19
529,1307,-2.47649E+001,-1.72410E+000,3.25603E-001,1.28344E+000,-2.97304E-001,1.70014E-001,1.32835E+000,1.00676E-002,6.28663E-001,0,1.98249E+001,-5.19152E+000,9.99228E-001,-1.82120E+001,-4.66280E+001,9.98751E-001,1.07387E-001,-4.27835E-002,1.24731E-003,1.07397E-001,-4.27938E-002,4.75854E-001,1.08133E-001,1.11278E+000,3.62917E-002,0.00000E+000,-2.90054E-002,9.58936E-001,0.00000E+000,4.35054E-003,-5.10805E-002,1.00000E+000,19
529,1317,-2.47456E+001,-1.13204E+000,2.13859E-001,1.30658E+000,-3.29004E-001,1.42222E-001,1.35485E+000,8.03187E-003,6.26840E-001,0,2.02656E+001,-5.63389E+000,9.99252E-001,-1.81035E+001,-4.73141E+001,9.98675E-001,1.05726E-001,-4.27919E-002,1.39147E-003,1.05739E-001,-4.28050E-002,5.36743E-001,1.06376E-001,1.11093E+000,3.63023E-002,0.00000E+000,-2.87197E-002,9.58935E-001,0.00000E+000,2.93156E-003,-5.10724E-002,1.00000E+000,19
