Coordinates.Image X [Pixel],Coordinates.Image Y [Pixel],coor.X [mm],coor.Y [mm],coor.Z [mm],disp.Horizontal Displacement U [mm],disp.Vertical Displacement V [mm],disp.Out-Of-Plane: W [mm],disp.Displacement Magnitude [mm],stats.Sigma [mm],stats.Epipolar Distance [Pixel],stats.Shape Index [-],SameCamera.Horizontal: u [Pixel],SameCamera.Vertical: v [Pixel],SameCamera.Correlation Value 2D [-],CrossCamera.Horizontal: q [Pixel],CrossCamera.Vertical: r [Pixel],CrossCamera.Correlation Value Persp [-],strain.Strain-global frame: Exx [ ],strain.Strain-global frame: Eyy [ ],strain.Strain-global frame: Exy [ ],strain.Maximum Principal Strain: EI [ ],strain.Minimum Principal Strain: EII [ ],strain.Shear Angle Gamma [deg],strain.Von Mises Equivalent Strain [ ],defgradient.F[0,0] [-],defgradient.F[0,1] [-],defgradient.F[0,2] [-],defgradient.F[1,0] [-],defgradient.F[1,1] [-],defgradient.F[1,2] [-],defgradient.F[2,0] [-],defgradient.F[2,1] [-],defgradient.F[2,2] [-],ext.Current Image [#]
929,1317,8.77237E+000,-1.16763E+000,6.14188E-002,9.10844E+000,-5.51267E-001,1.48139E-001,9.12631E+000,1.86761E-002,4.49377E-001,0,1.38758E+002,-1.00481E+001,9.97244E-001,9.60837E+001,-4.30981E+001,9.95509E-001,2.42437E-001,-1.02004E-001,-6.46622E-004,2.42439E-001,-1.02005E-001,-1.07561E-001,2.43452E-001,1.27428E+000,-2.34651E-002,0.00000E+000,1.68647E-002,9.07443E-001,0.00000E+000,-1.67152E-002,-1.00489E-001,1.00000E+000,38
919,1307,7.94411E+000,-1.75480E+000,1.36708E-001,8.94673E+000,-4.89169E-001,2.28225E-001,8.96300E+000,2.18439E-002,4.76169E-001,0,1.36114E+002,-9.19764E+000,9.94469E-001,9.33156E+001,-4.24361E+001,9.92017E-001,2.46693E-001,-1.01733E-001,-1.43040E-003,2.46699E-001,-1.01739E-001,-2.35212E-001,2.47958E-001,1.27973E+000,-2.07949E-002,0.00000E+000,1.33433E-002,9.07798E-001,0.00000E+000,-1.51439E-002,-1.01098E-001,1.00000E+000,38
919,1317,7.92427E+000,-1.19055E+000,1.84590E-002,8.92408E+000,-5.59913E-001,1.60887E-001,8.94307E+000,2.76187E-002,4.58886E-001,0,1.36026E+002,-1.02023E+001,9.90936E-001,9.28534E+001,-4.34649E+001,9.89116E-001,2.44170E-001,-1.01739E-001,-1.61612E-003,2.44177E-001,-1.01747E-001,-2.67683E-001,2.45305E-001,1.27648E+000,-2.08090E-002,0.00000E+000,1.28924E-002,9.07796E-001,0.00000E+000,-1.34278E-002,-1.01091E-001,1.00000E+000,38
919,1327,7.92729E+000,-6.16967E-001,-3.52278E-002,8.90997E+000,-6.33399E-001,9.20698E-002,8.93293E+000,2.00392E-002,4.93029E-001,0,1.36054E+002,-1.12307E+001,9.95642E-001,9.28765E+001,-4.44585E+001,9.94175E-001,2.41614E-001,-1.01753E-001,-1.83097E-003,2.41624E-001,-1.01763E-001,-3.05512E-001,2.42623E-001,1.27320E+000,-2.08946E-002,0.00000E+000,1.24372E-002,9.07784E-001,0.00000E+000,-1.16955E-002,-1.01046E-001,1.00000E+000,38
929,1307,8.78491E+000,-1.73126E+000,1.59967E-001,9.12817E+000,-4.76618E-001,2.15667E-001,9.14314E+000,1.83359E-002,5.02113E-001,0,1.38803E+002,-9.00325E+000,9.97699E-001,9.63920E+001,-4.20021E+001,9.96379E-001,2.45019E-001,-1.02007E-001,-6.59114E-004,2.45020E-001,-1.02008E-001,-1.08823E-001,2.46161E-001,1.27761E+000,-2.34281E-002,0.00000E+000,1.69674E-002,9.07445E-001,0.00000E+000,-1.88636E-002,-1.00513E-001,1.00000E+000,38
929,1327,8.76420E+000,-5.88829E-001,-1.06994E-002,9.08683E+000,-6.14813E-001,7.82006E-002,9.10794E+000,1.69076E-002,4.47266E-001,0,1.38679E+002,-1.09410E+001,9.97541E-001,9.58974E+001,-4.39898E+001,9.96668E-001,2.39839E-001,-1.02000E-001,-6.46597E-004,2.39841E-001,-1.02001E-001,-1.08376E-001,2.40731E-001,1.27093E+000,-2.35342E-002,0.00000E+000,1.67616E-002,9.07441E-001,0.00000E+000,-1.45623E-002,-1.00445E-001,1.00000E+000,38
939,1307,9.61883E+000,-1.71479E+000,1.40134E-001,9.30775E+000,-4.67057E-001,1.85441E-001,9.32130E+000,1.99961E-002,5.05519E-001,0,1.41532E+002,-8.81424E+000,9.97856E-001,9.92806E+001,-4.15982E+001,9.96790E-001,2.43062E-001,-1.01270E-001,-1.61383E-004,2.43062E-001,-1.01270E-001,-2.68535E-002,2.44186E-001,1.27511E+000,-2.67675E-002,0.00000E+000,2.05016E-002,9.07904E-001,0.00000E+000,-2.15599E-002,-9.88810E-002,1.00000E+000,38
939,1317,9.60373E+000,-1.14745E+000,4.88717E-002,9.28467E+000,-5.37933E-001,1.21777E-001,9.30103E+000,1.90667E-002,4.29071E-001,0,1.41422E+002,-9.80912E+000,9.97232E-001,9.89485E+001,-4.26624E+001,9.95420E-001,2.40735E-001,-1.01263E-001,-9.48017E-005,2.40735E-001,-1.01263E-001,-1.58824E-002,2.41743E-001,1.27208E+000,-2.68049E-002,0.00000E+000,2.04776E-002,9.07904E-001,0.00000E+000,-1.91313E-002,-9.88510E-002,1.00000E+000,38
939,1327,9.60041E+000,-5.58983E-001,-1.03979E-002,9.26625E+000,-5.95082E-001,5.78888E-002,9.28552E+000,1.66647E-002,4.55527E-001,0,1.41367E+002,-1.05995E+001,9.96690E-001,9.88638E+001,-4.34155E+001,9.95651E-001,2.38380E-001,-1.01254E-001,-4.05866E-005,2.38380E-001,-1.01254E-001,-6.84691E-003,2.39278E-001,1.26904E+000,-2.68753E-002,0.00000E+000,2.04534E-002,9.07903E-001,0.00000E+000,-1.66859E-002,-9.87943E-002,1.00000E+000,38
919,1337,7.93793E+000,-2.72335E-002,-5.88643E-002,8.89857E+000,-6.92258E-001,3.02310E-002,8.92550E+000,1.94750E-002,4.68360E-001,0,1.36086E+002,-1.20480E+001,9.95263E-001,9.30810E+001,-4.52969E+001,9.94559E-001,2.39052E-001,-1.01769E-001,-2.05554E-003,2.39064E-001,-1.01781E-001,-3.45543E-001,2.39941E-001,1.26992E+000,-2.10048E-002,0.00000E+000,1.19824E-002,9.07769E-001,0.00000E+000,-9.96483E-003,-1.00988E-001,1.00000E+000,38
929,1337,8.77174E+000,-9.50044E-003,-4.70338E-002,9.07476E+000,-6.83435E-001,1.57592E-002,9.10047E+000,1.74673E-002,4.48238E-001,0,1.38711E+002,-1.19082E+001,9.97837E-001,9.60259E+001,-4.49478E+001,9.97235E-001,2.37218E-001,-1.01995E-001,-6.58997E-004,2.37219E-001,-1.01996E-001,-1.11309E-001,2.37994E-001,1.26757E+000,-2.36350E-002,0.00000E+000,1.66582E-002,9.07438E-001,0.00000E+000,-1.23995E-002,-1.00380E-001,1.00000E+000,38
939,1337,9.60303E+000,2.04764E-002,-4.80705E-002,9.25011E+000,-6.62554E-001,-1.30973E-003,9.27381E+000,1.57090E-002,4.54868E-001,0,1.41328E+002,-1.15646E+001,9.97599E-001,9.89125E+001,-4.43683E+001,9.97237E-001,2.36014E-001,-1.01243E-001,6.62411E-006,2.36014E-001,-1.01243E-001,1.12535E-003,2.36807E-001,1.26600E+000,-2.69629E-002,0.00000E+000,2.04293E-002,9.07902E-001,0.00000E+000,-1.42415E-002,-9.87240E-002,1.00000E+000,38
949,1317,1.04418E+001,-1.11627E+000,5.33097E-002,9.46575E+000,-5.16318E-001,1.06579E-001,9.48042E+000,3.02998E-002,4.58886E-001,0,1.44110E+002,-9.46333E+000,9.92047E-001,1.01957E+002,-4.20673E+001,9.89485E-001,2.38973E-001,-1.00387E-001,3.41199E-004,2.38974E-001,-1.00387E-001,5.76062E-002,2.39989E-001,1.26982E+000,-2.97985E-002,0.00000E+000,2.35809E-002,9.08410E-001,0.00000E+000,-2.10141E-002,-9.63136E-002,1.00000E+000,38
949,1327,1.04315E+001,-5.29984E-001,-1.79097E-002,9.44150E+000,-5.73742E-001,3.60519E-002,9.45899E+000,2.58134E-002,4.49458E-001,0,1.43995E+002,-1.02469E+001,9.93841E-001,1.01741E+002,-4.28453E+001,9.92278E-001,2.37077E-001,-1.00373E-001,4.54418E-004,2.37078E-001,-1.00373E-001,7.71556E-002,2.38004E-001,1.26735E+000,-2.98519E-002,0.00000E+000,2.36144E-002,9.08411E-001,0.00000E+000,-1.81157E-002,-9.62509E-002,1.00000E+000,38
949,1337,1.04361E+001,4.87692E-002,-5.07288E-002,9.42777E+000,-6.41972E-001,-1.53291E-002,9.44961E+000,1.89726E-002,4.56814E-001,0,1.43967E+002,-1.12418E+001,9.96413E-001,1.01828E+002,-4.38135E+001,9.95296E-001,2.35165E-001,-1.00356E-001,5.61341E-004,2.35166E-001,-1.00357E-001,9.58577E-002,2.36006E-001,1.26487E+000,-2.99214E-002,0.00000E+000,2.36480E-002,9.08412E-001,0.00000E+000,-1.52103E-002,-9.61694E-002,1.00000E+000,38
949,1307,1.04601E+001,-1.69354E+000,1.35117E-001,9.49176E+000,-4.54580E-001,1.59009E-001,9.50397E+000,2.50684E-002,5.07479E-001,0,1.44307E+002,-8.58392E+000,9.95285E-001,1.02319E+002,-4.11520E+001,9.93310E-001,2.40851E-001,-1.00398E-001,2.18975E-004,2.40851E-001,-1.00398E-001,3.67659E-002,2.41959E-001,1.27228E+000,-2.97692E-002,0.00000E+000,2.35475E-002,9.08410E-001,0.00000E+000,-2.39032E-002,-9.63480E-002,1.00000E+000,38
909,1317,7.09594E+000,-1.20642E+000,1.28767E-002,8.74746E+000,-5.67979E-001,1.57613E-001,8.76730E+000,2.46556E-002,4.27635E-001,0,1.33448E+002,-1.03110E+001,9.88252E-001,9.00100E+001,-4.38207E+001,9.87917E-001,2.45920E-001,-1.02541E-001,-2.66765E-003,2.45940E-001,-1.02562E-001,-4.38595E-001,2.47066E-001,1.27872E+000,-1.79648E-002,0.00000E+000,8.59210E-003,9.07106E-001,0.00000E+000,-9.81365E-003,-1.00975E-001,1.00000E+000,38
909,1327,7.10695E+000,-6.24326E-001,-3.94539E-002,8.74184E+000,-6.33496E-001,9.19206E-002,8.76524E+000,2.07246E-002,4.63132E-001,0,1.33590E+002,-1.12082E+001,9.91667E-001,9.01611E+001,-4.46855E+001,9.93011E-001,2.43429E-001,-1.02552E-001,-2.85779E-003,2.43452E-001,-1.02576E-001,-4.73218E-001,2.44455E-001,1.27553E+000,-1.80452E-002,0.00000E+000,8.23133E-003,9.07097E-001,0.00000E+000,-8.71310E-003,-1.00948E-001,1.00000E+000,38
909,1337,7.11528E+000,-3.11697E-002,-5.82175E-002,8.72802E+000,-6.91841E-001,3.39779E-002,8.75546E+000,2.23692E-002,5.12219E-001,0,1.33569E+002,-1.20156E+001,9.95453E-001,9.03411E+001,-4.54469E+001,9.95344E-001,2.40925E-001,-1.02566E-001,-3.05890E-003,2.40952E-001,-1.02593E-001,-5.10184E-001,2.41835E-001,1.27233E+000,-1.81523E-002,0.00000E+000,7.86966E-003,9.07084E-001,0.00000E+000,-7.60983E-003,-1.00911E-001,1.00000E+000,38
909,1307,7.10756E+000,-1.76989E+000,1.35306E-001,8.76086E+000,-4.96642E-001,2.24437E-001,8.77780E+000,2.32050E-002,4.14089E-001,0,1.33397E+002,-9.29081E+000,9.91012E-001,9.03551E+001,-4.28034E+001,9.86943E-001,2.48378E-001,-1.02537E-001,-2.50662E-003,2.48396E-001,-1.02555E-001,-4.09242E-001,2.49650E-001,1.28188E+000,-1.79560E-002,0.00000E+000,8.94913E-003,9.07107E-001,0.00000E+000,-1.09028E-002,-1.00978E-001,1.00000E+000,38
919,1347,7.95993E+000,5.73585E-001,-6.94818E-002,8.89527E+000,-7.43987E-001,-3.34982E-002,8.92640E+000,2.86082E-002,4.81029E-001,0,1.36240E+002,-1.27453E+001,9.97427E-001,9.34891E+001,-4.59744E+001,9.96551E-001,2.36469E-001,-1.01787E-001,-2.28766E-003,2.36484E-001,-1.01802E-001,-3.87474E-001,2.37245E-001,1.26662E+000,-2.11311E-002,0.00000E+000,1.15257E-002,9.07751E-001,0.00000E+000,-8.22714E-003,-1.00921E-001,1.00000E+000,38
929,1347,8.78925E+000,5.83200E-001,-5.22818E-002,9.06749E+000,-7.42286E-001,-3.94179E-002,9.09790E+000,1.63473E-002,4.52212E-001,0,1.38779E+002,-1.27425E+001,9.97773E-001,9.63724E+001,-4.57660E+001,9.97361E-001,2.34580E-001,-1.01990E-001,-6.82081E-004,2.34581E-001,-1.01991E-001,-1.16113E-001,2.35246E-001,1.26420E+000,-2.37624E-002,0.00000E+000,1.65545E-002,9.07434E-001,0.00000E+000,-1.02321E-002,-1.00298E-001,1.00000E+000,38
939,1347,9.62195E+000,6.12890E-001,-4.66370E-002,9.24457E+000,-7.21796E-001,-4.74957E-002,9.27282E+000,2.09216E-002,4.76670E-001,0,1.41391E+002,-1.24314E+001,9.97477E-001,9.92923E+001,-4.51949E+001,9.96598E-001,2.33629E-001,-1.01231E-001,4.33448E-005,2.33629E-001,-1.01231E-001,7.41644E-003,2.34321E-001,1.26294E+000,-2.70771E-002,0.00000E+000,2.04050E-002,9.07901E-001,0.00000E+000,-1.17883E-002,-9.86322E-002,1.00000E+000,38
949,1347,1.04577E+001,6.36105E-001,-4.41693E-002,9.42290E+000,-7.08666E-001,-6.47114E-002,9.44973E+000,1.86782E-002,4.70793E-001,0,1.44052E+002,-1.21993E+001,9.96026E-001,1.02258E+002,-4.47318E+001,9.94397E-001,2.33230E-001,-1.00336E-001,6.56407E-004,2.33232E-001,-1.00337E-001,1.12749E-001,2.33988E-001,1.26238E+000,-3.00224E-002,0.00000E+000,2.36819E-002,9.08413E-001,0.00000E+000,-1.22885E-002,-9.60509E-002,1.00000E+000,38
959,1317,1.12701E+001,-1.09453E+000,2.72371E-002,9.63863E+000,-5.01655E-001,6.95079E-002,9.65193E+000,2.78278E-002,4.48679E-001,0,1.46756E+002,-9.17681E+000,9.93214E-001,1.04761E+002,-4.15742E+001,9.91813E-001,2.37391E-001,-9.93865E-002,3.23693E-004,2.37391E-001,-9.93868E-002,5.50697E-002,2.38436E-001,1.26774E+000,-3.30590E-002,0.00000E+000,2.59456E-002,9.09049E-001,0.00000E+000,-2.17535E-002,-9.38540E-002,1.00000E+000,38
959,1327,1.12703E+001,-5.07925E-001,-3.33815E-002,9.62643E+000,-5.57994E-001,1.76562E-002,9.64260E+000,3.79311E-002,4.13403E-001,0,1.46759E+002,-9.97074E+000,9.96768E-001,1.04727E+002,-4.23793E+001,9.95835E-001,2.35851E-001,-9.93642E-002,5.30612E-004,2.35851E-001,-9.93650E-002,9.06933E-002,2.36823E-001,1.26572E+000,-3.30976E-002,0.00000E+000,2.61399E-002,9.09053E-001,0.00000E+000,-1.88058E-002,-9.37977E-002,1.00000E+000,38
959,1337,1.12745E+001,6.94634E-002,-5.00929E-002,9.61003E+000,-6.30119E-001,-2.75390E-002,9.63071E+000,2.71651E-002,4.42577E-001,0,1.46667E+002,-1.10370E+001,9.95513E-001,1.04839E+002,-4.33911E+001,9.95002E-001,2.34292E-001,-9.93354E-002,7.28390E-004,2.34294E-001,-9.93370E-002,1.25090E-001,2.35195E-001,1.26369E+000,-3.31620E-002,0.00000E+000,2.63351E-002,9.09059E-001,0.00000E+000,-1.58433E-002,-9.37036E-002,1.00000E+000,38
959,1307,1.12834E+001,-1.66648E+000,1.21497E-001,9.66047E+000,-4.32956E-001,1.37927E-001,9.67116E+000,2.11141E-002,4.76681E-001,0,1.46828E+002,-8.22714E+000,9.94913E-001,1.05069E+002,-4.06159E+001,9.93304E-001,2.38918E-001,-9.94058E-002,1.12262E-004,2.38918E-001,-9.94059E-002,1.90117E-002,2.40037E-001,1.26976E+000,-3.30322E-002,0.00000E+000,2.57516E-002,9.09047E-001,0.00000E+000,-2.46978E-002,-9.38931E-002,1.00000E+000,38
959,1347,1.12859E+001,6.50230E-001,-6.48710E-002,9.59681E+000,-7.01144E-001,-8.88906E-002,9.62280E+000,2.07268E-002,4.52697E-001,0,1.46675E+002,-1.20491E+001,9.95073E-001,1.05066E+002,-4.43656E+001,9.94518E-001,2.32721E-001,-9.93035E-002,9.21056E-004,2.32724E-001,-9.93060E-002,1.58940E-001,2.33556E-001,1.26166E+000,-3.32389E-002,0.00000E+000,2.65306E-002,9.09067E-001,0.00000E+000,-1.28778E-002,-9.35913E-002,1.00000E+000,38
909,1347,7.13532E+000,5.63657E-001,-5.55955E-002,8.72086E+000,-7.49065E-001,-2.65078E-002,8.75301E+000,2.44517E-002,5.02800E-001,0,1.33651E+002,-1.28196E+001,9.97420E-001,9.07465E+001,-4.62593E+001,9.95603E-001,2.38419E-001,-1.02581E-001,-3.26938E-003,2.38450E-001,-1.02613E-001,-5.49262E-001,2.39221E-001,1.26914E+000,-1.82836E-002,0.00000E+000,7.50887E-003,9.07070E-001,0.00000E+000,-6.50923E-003,-1.00865E-001,1.00000E+000,38
899,1327,6.27895E+000,-6.22904E-001,-2.20969E-003,8.55751E+000,-6.32020E-001,9.54908E-002,8.58135E+000,1.57112E-002,4.58930E-001,0,1.30850E+002,-1.11525E+001,9.94532E-001,8.74193E+001,-4.48550E+001,9.94562E-001,2.44685E-001,-1.03231E-001,-3.67021E-003,2.44724E-001,-1.03270E-001,-6.04330E-001,2.45715E-001,1.27715E+000,-1.53794E-002,0.00000E+000,4.55969E-003,9.06509E-001,0.00000E+000,-5.61719E-003,-1.00951E-001,1.00000E+000,38
899,1337,6.29672E+000,-3.37276E-002,-4.50951E-002,8.55701E+000,-6.89949E-001,3.06199E-002,8.58483E+000,2.32921E-002,4.85023E-001,0,1.31060E+002,-1.19548E+001,9.97664E-001,8.76962E+001,-4.56380E+001,9.97217E-001,2.42470E-001,-1.03241E-001,-3.84036E-003,2.42512E-001,-1.03284E-001,-6.36369E-001,2.43399E-001,1.27432E+000,-1.54575E-002,0.00000E+000,4.29269E-003,9.06501E-001,0.00000E+000,-5.23593E-003,-1.00941E-001,1.00000E+000,38
899,1347,6.32980E+000,5.55230E-001,-4.28226E-002,8.56307E+000,-7.53219E-001,-3.03601E-002,8.59618E+000,1.96012E-002,4.91192E-001,0,1.31346E+002,-1.28547E+001,9.97560E-001,8.83035E+001,-4.65329E+001,9.96752E-001,2.40244E-001,-1.03255E-001,-4.02540E-003,2.40291E-001,-1.03302E-001,-6.71317E-001,2.41077E-001,1.27149E+000,-1.55729E-002,0.00000E+000,4.02503E-003,9.06491E-001,0.00000E+000,-4.85372E-003,-1.00925E-001,1.00000E+000,38
899,1317,6.27698E+000,-1.19994E+000,7.27191E-002,8.56820E+000,-5.65756E-001,1.65972E-001,8.58846E+000,1.97987E-002,4.67336E-001,0,1.30764E+002,-1.02525E+001,9.93334E-001,8.74549E+001,-4.39345E+001,9.91543E-001,2.46890E-001,-1.03224E-001,-3.50977E-003,2.46926E-001,-1.03259E-001,-5.74293E-001,2.48025E-001,1.27997E+000,-1.53252E-002,0.00000E+000,4.82605E-003,9.06514E-001,0.00000E+000,-5.99754E-003,-1.00959E-001,1.00000E+000,38
899,1307,6.27835E+000,-1.76447E+000,1.71322E-001,8.57658E+000,-4.91353E-001,2.33540E-001,8.59381E+000,1.93095E-002,4.12259E-001,0,1.30642E+002,-9.17832E+000,9.93745E-001,8.75937E+001,-4.29022E+001,9.90306E-001,2.49084E-001,-1.03219E-001,-3.35916E-003,2.49116E-001,-1.03251E-001,-5.46242E-001,2.50328E-001,1.28279E+000,-1.52950E-002,0.00000E+000,5.09155E-003,9.06517E-001,0.00000E+000,-6.37665E-003,-1.00963E-001,1.00000E+000,38
889,1327,5.45324E+000,-6.29710E-001,9.12525E-003,8.37983E+000,-6.35129E-001,9.52594E-002,8.40440E+000,1.40807E-002,4.76014E-001,0,1.28228E+002,-1.11789E+001,9.96230E-001,8.46645E+001,-4.50849E+001,9.95797E-001,2.45939E-001,-1.02552E-001,-4.54570E-003,2.45998E-001,-1.02611E-001,-7.47195E-001,2.47122E-001,1.27877E+000,-1.33303E-002,0.00000E+000,1.18951E-003,9.07169E-001,0.00000E+000,-2.21826E-003,-1.01253E-001,1.00000E+000,38
889,1337,5.46392E+000,-4.05242E-002,-4.12468E-002,8.37351E+000,-6.91422E-001,2.81398E-002,8.40205E+000,2.14738E-002,4.78352E-001,0,1.28357E+002,-1.19477E+001,9.97480E-001,8.48168E+001,-4.58663E+001,9.96935E-001,2.43804E-001,-1.02550E-001,-4.54655E-003,2.43864E-001,-1.02609E-001,-7.51942E-001,2.44883E-001,1.27605E+000,-1.34003E-002,0.00000E+000,1.33262E-003,9.07173E-001,0.00000E+000,-3.02411E-003,-1.01273E-001,1.00000E+000,38
889,1347,5.49837E+000,5.46519E-001,-3.73985E-002,8.38171E+000,-7.55873E-001,-2.86117E-002,8.41577E+000,1.71188E-002,4.69807E-001,0,1.28661E+002,-1.28695E+001,9.97101E-001,8.54501E+001,-4.68033E+001,9.96521E-001,2.41657E-001,-1.02547E-001,-4.56202E-003,2.41718E-001,-1.02607E-001,-7.59210E-001,2.42635E-001,1.27331E+000,-1.35083E-002,0.00000E+000,1.47626E-003,9.07179E-001,0.00000E+000,-3.83299E-003,-1.01305E-001,1.00000E+000,38
969,1297,1.21476E+001,-2.20861E+000,2.26130E-001,9.87000E+000,-3.45301E-001,1.72406E-001,9.87755E+000,2.59983E-002,4.55257E-001,0,1.49739E+002,-6.91919E+000,9.97461E-001,1.08606E+002,-3.91370E+001,9.95757E-001,2.38222E-001,-9.88101E-002,-2.14434E-004,2.38222E-001,-9.88103E-002,-3.64539E-002,2.39373E-001,1.26889E+000,-3.57596E-002,0.00000E+000,2.73159E-002,9.09318E-001,0.00000E+000,-2.77429E-002,-9.10939E-002,1.00000E+000,38
969,1307,1.21065E+001,-1.65551E+000,9.93986E-002,9.82688E+000,-4.29635E-001,1.01420E-001,9.83679E+000,5.00470E-002,4.41779E-001,0,1.49372E+002,-8.09917E+000,9.96091E-001,1.07803E+002,-4.03134E+001,9.93945E-001,2.37045E-001,-9.87933E-002,3.33687E-005,2.37045E-001,-9.87933E-002,5.69288E-003,2.38137E-001,1.26730E+000,-3.57645E-002,0.00000E+000,2.75607E-002,9.09319E-001,0.00000E+000,-2.47673E-002,-9.10846E-002,1.00000E+000,38
969,1317,1.21031E+001,-1.08245E+000,2.81917E-002,9.81388E+000,-4.97438E-001,5.15952E-002,9.82661E+000,1.67805E-002,4.23442E-001,0,1.49365E+002,-9.09127E+000,9.98120E-001,1.07692E+002,-4.12956E+001,9.97574E-001,2.35856E-001,-9.87699E-002,2.74094E-004,2.35857E-001,-9.87701E-002,4.69312E-002,2.36892E-001,1.26572E+000,-3.57882E-002,0.00000E+000,2.78057E-002,9.09323E-001,0.00000E+000,-2.17901E-002,-9.10401E-002,1.00000E+000,38
889,1317,5.44405E+000,-1.20441E+000,8.41683E-002,8.38273E+000,-5.67159E-001,1.63704E-001,8.40349E+000,1.86431E-002,5.11213E-001,0,1.28031E+002,-1.02593E+001,9.96162E-001,8.45892E+001,-4.41142E+001,9.95403E-001,2.48065E-001,-1.02554E-001,-4.55264E-003,2.48124E-001,-1.02613E-001,-7.43795E-001,2.49357E-001,1.28150E+000,-1.32803E-002,0.00000E+000,1.04661E-003,9.07167E-001,0.00000E+000,-1.41354E-003,-1.01238E-001,1.00000E+000,38
969,1327,1.20935E+001,-4.97729E-001,-3.72282E-002,9.79116E+000,-5.56180E-001,-7.72788E-003,9.80695E+000,2.47320E-002,4.29847E-001,0,1.49238E+002,-9.92760E+000,9.96696E-001,1.07497E+002,-4.20982E+001,9.95468E-001,2.34656E-001,-9.87435E-002,5.11790E-004,2.34656E-001,-9.87443E-002,8.79527E-002,2.35635E-001,1.26413E+000,-3.58203E-002,0.00000E+000,2.80511E-002,9.09328E-001,0.00000E+000,-1.88072E-002,-9.09798E-002,1.00000E+000,38
889,1307,5.43874E+000,-1.77090E+000,1.83808E-001,8.38372E+000,-4.95519E-001,2.29310E-001,8.40148E+000,2.14571E-002,4.66841E-001,0,1.27806E+002,-9.22614E+000,9.95115E-001,8.46274E+001,-4.31077E+001,9.92447E-001,2.50179E-001,-1.02555E-001,-4.56864E-003,2.50238E-001,-1.02614E-001,-7.41936E-001,2.51584E-001,1.28421E+000,-1.32542E-002,0.00000E+000,9.04209E-004,9.07165E-001,0.00000E+000,-6.11668E-004,-1.01230E-001,1.00000E+000,38
969,1337,1.20966E+001,8.07174E-002,-7.33504E-002,9.77574E+000,-6.24295E-001,-6.26424E-002,9.79586E+000,2.28681E-002,3.82491E-001,0,1.49199E+002,-1.09005E+001,9.96602E-001,1.07554E+002,-4.30877E+001,9.96152E-001,2.33443E-001,-9.87123E-002,7.44247E-004,2.33444E-001,-9.87139E-002,1.28380E-001,2.34369E-001,1.26254E+000,-3.58659E-002,0.00000E+000,2.82969E-002,9.09335E-001,0.00000E+000,-1.58202E-002,-9.08940E-002,1.00000E+000,38
969,1347,1.21031E+001,6.86996E-001,-7.52108E-002,9.75889E+000,-6.70712E-001,-1.04428E-001,9.78247E+000,1.89889E-002,4.42122E-001,0,1.49075E+002,-1.15755E+001,9.96461E-001,1.07731E+002,-4.36697E+001,9.95577E-001,2.32212E-001,-9.86768E-002,9.73322E-004,2.32215E-001,-9.86797E-002,1.68536E-001,2.33085E-001,1.26094E+000,-3.59234E-002,0.00000E+000,2.85443E-002,9.09344E-001,0.00000E+000,-1.28135E-002,-9.07860E-002,1.00000E+000,38
879,1327,4.63288E+000,-6.29767E-001,2.95364E-002,8.20696E+000,-6.31300E-001,1.03421E-001,8.23185E+000,1.96973E-002,4.96151E-001,0,1.25644E+002,-1.11231E+001,9.96379E-001,8.20189E+001,-4.52281E+001,9.96107E-001,2.46880E-001,-1.02852E-001,-5.08423E-003,2.46954E-001,-1.02926E-001,-8.32702E-001,2.48092E-001,1.28000E+000,-1.14878E-002,0.00000E+000,-1.31339E-003,9.06834E-001,0.00000E+000,8.39671E-005,-1.00494E-001,1.00000E+000,38
879,1337,4.64273E+000,-4.69092E-002,-2.90650E-002,8.20048E+000,-6.93032E-001,3.05183E-002,8.22977E+000,1.93712E-002,4.74685E-001,0,1.25792E+002,-1.19560E+001,9.95031E-001,8.21405E+001,-4.61037E+001,9.94653E-001,2.45002E-001,-1.02845E-001,-5.00163E-003,2.45074E-001,-1.02917E-001,-8.23618E-001,2.46119E-001,1.27760E+000,-1.15472E-002,0.00000E+000,-9.73979E-004,9.06843E-001,0.00000E+000,-1.33876E-003,-1.00530E-001,1.00000E+000,38
879,1347,4.67251E+000,5.45678E-001,-3.25663E-002,8.20551E+000,-7.52198E-001,-2.72623E-002,8.23996E+000,2.23531E-002,4.92049E-001,0,1.26050E+002,-1.27841E+001,9.95106E-001,8.26884E+001,-4.69285E+001,9.94776E-001,2.43107E-001,-1.02836E-001,-4.93019E-003,2.43177E-001,-1.02906E-001,-8.16328E-001,2.44132E-001,1.27518E+000,-1.16372E-002,0.00000E+000,-6.32497E-004,9.06855E-001,0.00000E+000,-2.77016E-003,-1.00583E-001,1.00000E+000,38
879,1307,4.60139E+000,-1.76922E+000,2.02614E-001,8.19217E+000,-4.91706E-001,2.28643E-001,8.21009E+000,2.54344E-002,4.78963E-001,0,1.24968E+002,-9.14098E+000,9.93643E-001,8.17173E+001,-4.32222E+001,9.91060E-001,2.50609E-001,-1.02859E-001,-5.27105E-003,2.50688E-001,-1.02938E-001,-8.54162E-001,2.52019E-001,1.28479E+000,-1.14267E-002,0.00000E+000,-1.99014E-003,9.06826E-001,0.00000E+000,2.92071E-003,-1.00458E-001,1.00000E+000,38
879,1317,4.61582E+000,-1.20183E+000,1.06877E-001,8.20170E+000,-5.60333E-001,1.73224E-001,8.22265E+000,1.90030E-002,4.22004E-001,0,1.25319E+002,-1.01155E+001,9.96625E-001,8.18281E+001,-4.42748E+001,9.95428E-001,2.48754E-001,-1.02857E-001,-5.17321E-003,2.48830E-001,-1.02933E-001,-8.42744E-001,2.50063E-001,1.28241E+000,-1.14447E-002,0.00000E+000,-1.65291E-003,9.06828E-001,0.00000E+000,1.50715E-003,-1.00469E-001,1.00000E+000,38
979,1307,1.29755E+001,-1.63643E+000,1.17098E-001,1.00356E+001,-4.20260E-001,9.05575E-002,1.00448E+001,2.85359E-002,4.12842E-001,0,1.52451E+002,-7.94069E+000,9.98054E-001,1.11331E+002,-3.99615E+001,9.98040E-001,2.35353E-001,-9.81210E-002,-1.11709E-005,2.35353E-001,-9.81210E-002,-1.91933E-003,2.36434E-001,1.26507E+000,-3.77576E-002,0.00000E+000,2.88228E-002,9.09639E-001,0.00000E+000,-2.37901E-002,-8.79776E-002,1.00000E+000,38
979,1317,1.29435E+001,-1.05478E+000,2.83539E-002,9.99543E+000,-4.79075E-001,3.03891E-002,1.00069E+001,1.70075E-002,4.20492E-001,0,1.52072E+002,-8.77621E+000,9.97065E-001,1.10744E+002,-4.07621E+001,9.96508E-001,2.34636E-001,-9.80944E-002,2.81631E-004,2.34637E-001,-9.80946E-002,4.84964E-002,2.35684E-001,1.26410E+000,-3.77699E-002,0.00000E+000,2.91643E-002,9.09644E-001,0.00000E+000,-2.09489E-002,-8.79418E-002,1.00000E+000,38
979,1327,1.29247E+001,-4.73941E-001,-4.10703E-002,9.96442E+000,-5.40917E-001,-2.89476E-002,9.97913E+000,1.82377E-002,4.17849E-001,0,1.51823E+002,-9.66207E+000,9.94948E-001,1.10399E+002,-4.16201E+001,9.93335E-001,2.33910E-001,-9.80636E-002,5.72058E-004,2.33911E-001,-9.80646E-002,9.87318E-002,2.34926E-001,1.26312E+000,-3.77885E-002,0.00000E+000,2.95062E-002,9.09650E-001,0.00000E+000,-1.81052E-002,-8.78877E-002,1.00000E+000,38
979,1337,1.29211E+001,1.14500E-001,-8.20757E-002,9.94435E+000,-5.98203E-001,-7.83958E-002,9.96263E+000,2.44028E-002,3.99658E-001,0,1.51695E+002,-1.04878E+001,9.92298E-001,1.10343E+002,-4.24286E+001,9.91671E-001,2.33174E-001,-9.80286E-002,8.60381E-004,2.33176E-001,-9.80308E-002,1.48839E-001,2.34159E-001,1.26214E+000,-3.78134E-002,0.00000E+000,2.98488E-002,9.09659E-001,0.00000E+000,-1.52553E-002,-8.78153E-002,1.00000E+000,38
979,1347,1.29258E+001,7.17543E-001,-7.06593E-002,9.92418E+000,-6.47599E-001,-1.13006E-001,9.94593E+000,2.49885E-002,4.17687E-001,0,1.51494E+002,-1.12254E+001,9.89644E-001,1.10514E+002,-4.31093E+001,9.89139E-001,2.32425E-001,-9.79850E-002,1.14490E-003,2.32429E-001,-9.79890E-002,1.98532E-001,2.33380E-001,1.26115E+000,-3.78512E-002,0.00000E+000,3.01933E-002,9.09672E-001,0.00000E+000,-1.23904E-002,-8.77055E-002,1.00000E+000,38
979,1297,1.29769E+001,-2.19070E+000,2.11140E-001,1.00435E+001,-3.34607E-001,1.48844E-001,1.00501E+001,2.25083E-002,4.58410E-001,0,1.52335E+002,-6.71570E+000,9.97518E-001,1.11454E+002,-3.87244E+001,9.97101E-001,2.36062E-001,-9.81459E-002,-3.05168E-004,2.36062E-001,-9.81462E-002,-5.23172E-002,2.37176E-001,1.26605E+000,-3.77477E-002,0.00000E+000,2.84812E-002,9.09636E-001,0.00000E+000,-2.66317E-002,-8.80064E-002,1.00000E+000,38
869,1317,3.77364E+000,-1.19699E+000,1.00721E-001,8.00792E+000,-5.51480E-001,1.61594E-001,8.02851E+000,1.39712E-002,4.40864E-001,0,1.22481E+002,-9.92655E+000,9.97369E-001,7.87960E+001,-4.42871E+001,9.95951E-001,2.48963E-001,-1.03371E-001,-5.26598E-003,2.49042E-001,-1.03450E-001,-8.56086E-001,2.50228E-001,1.28270E+000,-9.35311E-003,0.00000E+000,-3.44964E-003,9.06302E-001,0.00000E+000,3.31971E-003,-9.98317E-002,1.00000E+000,38
869,1327,3.79330E+000,-6.24687E-001,3.10693E-002,8.01625E+000,-6.20764E-001,1.01120E-001,8.04088E+000,1.97942E-002,5.24663E-001,0,1.22820E+002,-1.09483E+001,9.95808E-001,7.90429E+001,-4.52498E+001,9.94787E-001,2.47504E-001,-1.03367E-001,-5.17820E-003,2.47580E-001,-1.03443E-001,-8.45336E-001,2.48692E-001,1.28082E+000,-9.38547E-003,0.00000E+000,-3.08991E-003,9.06308E-001,0.00000E+000,1.48529E-003,-9.98633E-002,1.00000E+000,38
869,1337,3.81121E+000,-4.90448E-002,-1.70795E-002,8.01735E+000,-6.90471E-001,3.58248E-002,8.04711E+000,2.12771E-002,5.01574E-001,0,1.23058E+002,-1.19123E+001,9.93910E-001,7.93105E+001,-4.62613E+001,9.93314E-001,2.46035E-001,-1.03361E-001,-5.09616E-003,2.46109E-001,-1.03435E-001,-8.35459E-001,2.47149E-001,1.27894E+000,-9.43332E-003,0.00000E+000,-2.72926E-003,9.06317E-001,0.00000E+000,-3.53813E-004,-9.99099E-002,1.00000E+000,38
869,1347,3.83646E+000,5.47781E-001,-3.05393E-002,8.02059E+000,-7.42063E-001,-1.99070E-002,8.05487E+000,2.58800E-002,4.83479E-001,0,1.23282E+002,-1.26302E+001,9.95365E-001,7.97695E+001,-4.70192E+001,9.94992E-001,2.44558E-001,-1.03353E-001,-5.01972E-003,2.44630E-001,-1.03426E-001,-8.26444E-001,2.45601E-001,1.27705E+000,-9.49589E-003,0.00000E+000,-2.36802E-003,9.06329E-001,0.00000E+000,-2.19589E-003,-9.99710E-002,1.00000E+000,38
869,1307,3.76711E+000,-1.76266E+000,2.17143E-001,8.00573E+000,-4.81108E-001,2.35289E-001,8.02362E+000,2.06406E-002,4.81228E-001,0,1.22180E+002,-8.96686E+000,9.94797E-001,7.88529E+001,-4.32573E+001,9.93035E-001,2.50411E-001,-1.03373E-001,-5.36084E-003,2.50493E-001,-1.03454E-001,-8.67929E-001,2.51753E-001,1.28457E+000,-9.34055E-003,0.00000E+000,-3.80778E-003,9.06299E-001,0.00000E+000,5.14603E-003,-9.98194E-002,1.00000E+000,38
989,1307,1.37855E+001,-1.59501E+000,9.69357E-002,1.01887E+001,-3.85808E-001,5.97867E-002,1.01962E+001,2.17941E-002,4.57501E-001,0,1.54756E+002,-7.38599E+000,9.96123E-001,1.13880E+002,-3.91535E+001,9.96027E-001,2.33941E-001,-9.78408E-002,-8.11403E-005,2.33941E-001,-9.78408E-002,-1.40122E-002,2.34981E-001,1.26322E+000,-3.86325E-002,0.00000E+000,2.91755E-002,9.09652E-001,0.00000E+000,-2.20455E-002,-8.50928E-002,1.00000E+000,38
989,1317,1.37515E+001,-1.01118E+000,1.61897E-002,1.01478E+001,-4.43594E-001,1.31367E-002,1.01575E+001,2.31402E-002,5.24013E-001,0,1.54318E+002,-8.23795E+000,9.96515E-001,1.13278E+002,-3.99063E+001,9.96045E-001,2.33619E-001,-9.78104E-002,2.73206E-004,2.33619E-001,-9.78106E-002,4.72304E-002,2.34647E-001,1.26275E+000,-3.86375E-002,0.00000E+000,2.96242E-002,9.09657E-001,0.00000E+000,-1.92224E-002,-8.50624E-002,1.00000E+000,38
989,1327,1.37532E+001,-4.35448E-001,-4.22530E-002,1.01352E+001,-5.12846E-001,-4.38054E-002,1.01482E+001,2.62365E-002,4.88955E-001,0,1.54340E+002,-9.21723E+000,9.95262E-001,1.13271E+002,-4.08790E+001,9.93506E-001,2.33289E-001,-9.77715E-002,6.25567E-004,2.33290E-001,-9.77726E-002,1.08265E-001,2.34306E-001,1.26227E+000,-3.86480E-002,0.00000E+000,3.00732E-002,9.09667E-001,0.00000E+000,-1.63971E-002,-8.49999E-002,1.00000E+000,38
989,1297,1.38121E+001,-2.16673E+000,2.03169E-001,1.02210E+001,-3.17353E-001,1.26356E-001,1.02267E+001,1.96572E-002,4.47131E-001,0,1.54982E+002,-6.42776E+000,9.95995E-001,1.14414E+002,-3.82395E+001,9.95263E-001,2.34254E-001,-9.78695E-002,-4.35551E-004,2.34254E-001,-9.78700E-002,-7.51383E-002,2.35307E-001,1.26369E+000,-3.86283E-002,0.00000E+000,2.87275E-002,9.09649E-001,0.00000E+000,-2.48644E-002,-8.51178E-002,1.00000E+000,38
989,1337,1.37494E+001,1.46259E-001,-7.03822E-002,1.01121E+001,-5.76758E-001,-9.27074E-002,1.01289E+001,2.15816E-002,4.18823E-001,0,1.54163E+002,-1.01535E+001,9.91622E-001,1.13233E+002,-4.18443E+001,9.92064E-001,2.32952E-001,-9.77268E-002,9.75444E-004,2.32954E-001,-9.77297E-002,1.69011E-001,2.33958E-001,1.26180E+000,-3.86620E-002,0.00000E+000,3.05214E-002,9.09681E-001,0.00000E+000,-1.35776E-002,-8.49158E-002,1.00000E+000,38
989,1347,1.37536E+001,7.46812E-001,-6.96725E-002,1.00935E+001,-6.26482E-001,-1.28035E-001,1.01137E+001,2.34635E-002,4.21323E-001,0,1.53993E+002,-1.09025E+001,9.95444E-001,1.13375E+002,-4.25463E+001,9.96064E-001,2.32604E-001,-9.76778E-002,1.32570E-003,2.32609E-001,-9.76831E-002,2.29972E-001,2.33601E-001,1.26133E+000,-3.86785E-002,0.00000E+000,3.09718E-002,9.09696E-001,0.00000E+000,-1.07435E-002,-8.48164E-002,1.00000E+000,38
859,1327,2.95868E+000,-6.18629E-001,2.40567E-002,7.82987E+000,-6.10020E-001,8.93724E-002,7.85410E+000,1.86893E-002,5.11631E-001,0,1.20089E+002,-1.07195E+001,9.94179E-001,7.61312E+001,-4.52584E+001,9.93492E-001,2.47723E-001,-1.03512E-001,-4.97951E-003,2.47794E-001,-1.03582E-001,-8.12073E-001,2.48902E-001,1.28111E+000,-7.56721E-003,0.00000E+000,-4.05375E-003,9.06103E-001,0.00000E+000,2.11640E-003,-9.91075E-002,1.00000E+000,38
859,1337,2.98311E+000,-3.82956E-002,-1.97316E-002,7.83779E+000,-6.73979E-001,2.90947E-002,7.86677E+000,2.13979E-002,5.16027E-001,0,1.20410E+002,-1.16310E+001,9.93423E-001,7.65099E+001,-4.61940E+001,9.93068E-001,2.46702E-001,-1.03510E-001,-4.96417E-003,2.46772E-001,-1.03581E-001,-8.11935E-001,2.47830E-001,1.27980E+000,-7.59998E-003,0.00000E+000,-3.80857E-003,9.06109E-001,0.00000E+000,8.14916E-006,-9.91601E-002,1.00000E+000,38
859,1347,3.00742E+000,5.46070E-001,-3.11400E-002,7.83963E+000,-7.38307E-001,-2.76804E-002,7.87437E+000,2.79913E-002,4.76970E-001,0,1.20620E+002,-1.25317E+001,9.96026E-001,7.69584E+001,-4.71614E+001,9.95895E-001,2.45672E-001,-1.03508E-001,-4.95337E-003,2.45742E-001,-1.03578E-001,-8.12565E-001,2.46750E-001,1.27848E+000,-7.64452E-003,0.00000E+000,-3.56259E-003,9.06118E-001,0.00000E+000,-2.10694E-003,-9.92316E-002,1.00000E+000,38
859,1307,2.93084E+000,-1.75679E+000,2.11746E-001,7.81728E+000,-4.72797E-001,2.24086E-001,7.83477E+000,2.41706E-002,5.59261E-001,0,1.19419E+002,-8.79819E+000,9.95993E-001,7.59203E+001,-4.32233E+001,9.95573E-001,2.49740E-001,-1.03513E-001,-5.02346E-003,2.49812E-001,-1.03585E-001,-8.14557E-001,2.51022E-001,1.28373E+000,-7.53670E-003,0.00000E+000,-4.54170E-003,9.06098E-001,0.00000E+000,6.31224E-003,-9.90585E-002,1.00000E+000,38
859,1317,2.94782E+000,-1.19976E+000,9.99686E-002,7.82992E+000,-5.51224E-001,1.54734E-001,7.85082E+000,1.89048E-002,4.80120E-001,0,1.19865E+002,-9.87978E+000,9.95512E-001,7.60321E+001,-4.44164E+001,9.93352E-001,2.48736E-001,-1.03513E-001,-4.99905E-003,2.48807E-001,-1.03584E-001,-8.12913E-001,2.49966E-001,1.28242E+000,-7.54547E-003,0.00000E+000,-4.29809E-003,9.06099E-001,0.00000E+000,4.21746E-003,-9.90726E-002,1.00000E+000,38
999,1337,1.45698E+001,1.72323E-001,-8.14133E-002,1.02774E+001,-5.55129E-001,-1.02992E-001,1.02929E+001,1.70082E-002,3.56581E-001,0,1.56586E+002,-9.81598E+000,9.98350E-001,1.15963E+002,-4.13401E+001,9.97341E-001,2.32627E-001,-9.75840E-002,8.15598E-004,2.32629E-001,-9.75860E-002,1.41516E-001,2.33632E-001,1.26136E+000,-3.89128E-002,0.00000E+000,3.02094E-002,9.09572E-001,0.00000E+000,-1.11773E-002,-8.17062E-002,1.00000E+000,38
999,1347,1.45837E+001,7.74992E-001,-6.66477E-002,1.02662E+001,-6.05885E-001,-1.34045E-001,1.02849E+001,1.55782E-002,3.90533E-001,0,1.56508E+002,-1.05848E+001,9.98449E-001,1.16280E+002,-4.20216E+001,9.97950E-001,2.32641E-001,-9.75368E-002,1.14738E-003,2.32645E-001,-9.75407E-002,1.99101E-001,2.33653E-001,1.26135E+000,-3.89130E-002,0.00000E+000,3.06260E-002,9.09588E-001,0.00000E+000,-8.52551E-003,-8.16040E-002,1.00000E+000,38
999,1307,1.46104E+001,-1.56385E+000,8.63152E-002,1.03564E+001,-3.61686E-001,3.87818E-002,1.03628E+001,1.45519E-002,4.42905E-001,0,1.57244E+002,-6.98322E+000,9.97213E-001,1.16682E+002,-3.85526E+001,9.97297E-001,2.32542E-001,-9.76859E-002,-1.73667E-004,2.32543E-001,-9.76860E-002,-3.01319E-002,2.33531E-001,1.26138E+000,-3.89124E-002,0.00000E+000,2.89699E-002,9.09547E-001,0.00000E+000,-1.90653E-002,-8.18616E-002,1.00000E+000,38
999,1317,1.45886E+001,-9.84308E-001,3.55166E-003,1.03272E+001,-4.23384E-001,-1.13734E-002,1.03359E+001,2.07852E-002,4.99287E-001,0,1.57001E+002,-7.89745E+000,9.95618E-001,1.16266E+002,-3.93690E+001,9.93420E-001,2.32578E-001,-9.76576E-002,1.56438E-004,2.32578E-001,-9.76577E-002,2.71420E-002,2.33570E-001,1.26137E+000,-3.89125E-002,0.00000E+000,2.93831E-002,9.09552E-001,0.00000E+000,-1.64355E-002,-8.18317E-002,1.00000E+000,38
999,1327,1.45829E+001,-4.16174E-001,-5.47888E-002,1.03087E+001,-4.98926E-001,-6.13924E-002,1.03210E+001,2.51177E-002,4.94737E-001,0,1.56913E+002,-9.01219E+000,9.96455E-001,1.16143E+002,-4.04434E+001,9.94267E-001,2.32606E-001,-9.76236E-002,4.86450E-004,2.32606E-001,-9.76243E-002,8.44003E-002,2.33604E-001,1.26136E+000,-3.89126E-002,0.00000E+000,2.97966E-002,9.09560E-001,0.00000E+000,-1.38044E-002,-8.17796E-002,1.00000E+000,38
999,1297,1.46395E+001,-2.14527E+000,1.98831E-001,1.03908E+001,-3.03134E-001,1.09731E-001,1.03958E+001,1.55517E-002,4.54641E-001,0,1.57487E+002,-6.19511E+000,9.95080E-001,1.17264E+002,-3.77928E+001,9.93122E-001,2.32500E-001,-9.77118E-002,-5.03744E-004,2.32501E-001,-9.77126E-002,-8.74054E-002,2.33484E-001,1.26138E+000,-3.89124E-002,0.00000E+000,2.85570E-002,9.09544E-001,0.00000E+000,-2.16931E-002,-8.18833E-002,1.00000E+000,38
849,1337,2.15318E+000,-3.67673E-002,-1.65273E-002,7.65514E+000,-6.69158E-001,2.43472E-002,7.68437E+000,2.51757E-002,5.45094E-001,0,1.17708E+002,-1.15128E+001,9.95828E-001,7.36979E+001,-4.62753E+001,9.95176E-001,2.46947E-001,-1.03189E-001,-4.48444E-003,2.47004E-001,-1.03247E-001,-7.33666E-001,2.48109E-001,1.28012E+000,-6.07514E-003,0.00000E+000,-3.98478E-003,9.06278E-001,0.00000E+000,-1.24478E-004,-9.78446E-002,1.00000E+000,38
849,1347,2.17010E+000,5.43544E-001,-2.97140E-002,7.65241E+000,-7.34328E-001,-2.15325E-002,7.68760E+000,2.21405E-002,4.69918E-001,0,1.17813E+002,-1.24493E+001,9.96448E-001,7.40293E+001,-4.73223E+001,9.96462E-001,2.46417E-001,-1.03188E-001,-4.47084E-003,2.46475E-001,-1.03245E-001,-7.32553E-001,2.47553E-001,1.27944E+000,-6.09521E-003,0.00000E+000,-3.76140E-003,9.06284E-001,0.00000E+000,-2.18999E-003,-9.79059E-002,1.00000E+000,38
849,1357,2.20532E+000,1.13964E+000,4.06314E-003,7.65753E+000,-7.93304E-001,-7.11196E-002,7.69884E+000,1.91808E-002,4.86226E-001,0,1.18035E+002,-1.32980E+001,9.96782E-001,7.47488E+001,-4.81838E+001,9.96963E-001,2.45879E-001,-1.03186E-001,-4.46131E-003,2.45936E-001,-1.03243E-001,-7.32123E-001,2.46988E-001,1.27876E+000,-6.12590E-003,0.00000E+000,-3.53610E-003,9.06295E-001,0.00000E+000,-4.27338E-003,-9.79997E-002,1.00000E+000,38
849,1327,2.13791E+000,-6.09479E-001,2.98642E-002,7.65510E+000,-5.97991E-001,8.16413E-002,7.67885E+000,2.53950E-002,5.22285E-001,0,1.17514E+002,-1.04848E+001,9.96291E-001,7.34672E+001,-4.52335E+001,9.95906E-001,2.47472E-001,-1.03190E-001,-4.49986E-003,2.47530E-001,-1.03248E-001,-7.35084E-001,2.48661E-001,1.28079E+000,-6.05956E-003,0.00000E+000,-4.20820E-003,9.06273E-001,0.00000E+000,1.94145E-003,-9.77970E-002,1.00000E+000,38
1009,1337,1.54019E+001,2.15970E-001,-8.80937E-002,1.04558E+001,-5.18272E-001,-1.01271E-001,1.04691E+001,2.49431E-002,4.05624E-001,0,1.59152E+002,-9.27488E+000,9.98031E-001,1.18890E+002,-4.05162E+001,9.98036E-001,2.32334E-001,-9.73388E-002,4.39942E-004,2.32335E-001,-9.73393E-002,7.64598E-002,2.33350E-001,1.26097E+000,-3.87801E-002,0.00000E+000,2.92591E-002,9.09635E-001,0.00000E+000,-8.99138E-003,-7.91701E-002,1.00000E+000,38
1009,1347,1.54076E+001,7.87630E-001,-6.75096E-002,1.04340E+001,-5.99648E-001,-1.35615E-001,1.04521E+001,1.73084E-002,4.08016E-001,0,1.58937E+002,-1.05213E+001,9.98960E-001,1.19083E+002,-4.17059E+001,9.98607E-001,2.32630E-001,-9.73045E-002,6.81114E-004,2.32631E-001,-9.73059E-002,1.18280E-001,2.33664E-001,1.26133E+000,-3.87650E-002,0.00000E+000,2.95235E-002,9.09646E-001,0.00000E+000,-6.72584E-003,-7.90750E-002,1.00000E+000,38
1009,1297,1.54609E+001,-2.12476E+000,1.92449E-001,1.05557E+001,-2.87874E-001,9.79111E-002,1.05601E+001,1.98850E-002,3.70741E-001,0,1.59899E+002,-5.92713E+000,9.92983E-001,1.20024E+002,-3.74031E+001,9.92002E-001,2.31107E-001,-9.74256E-002,-5.07347E-004,2.31108E-001,-9.74264E-002,-8.84806E-002,2.32054E-001,1.25955E+000,-3.88025E-002,0.00000E+000,2.82077E-002,9.09618E-001,0.00000E+000,-1.80004E-002,-7.93121E-002,1.00000E+000,38
1009,1307,1.54388E+001,-1.53847E+000,8.16449E-002,1.05283E+001,-3.41023E-001,2.87222E-002,1.05338E+001,1.98291E-002,3.77174E-001,0,1.59755E+002,-6.65786E+000,9.95837E-001,1.19555E+002,-3.80792E+001,9.96443E-001,2.31421E-001,-9.74075E-002,-2.71808E-004,2.31421E-001,-9.74078E-002,-4.73603E-002,2.32384E-001,1.25990E+000,-3.87996E-002,0.00000E+000,2.84699E-002,9.09620E-001,0.00000E+000,-1.57534E-002,-7.92934E-002,1.00000E+000,38
1009,1317,1.54210E+001,-9.61200E-001,-9.76854E-003,1.05027E+001,-4.05092E-001,-3.13089E-002,1.05106E+001,1.95168E-002,4.24986E-001,0,1.59605E+002,-7.58884E+000,9.96971E-001,1.19185E+002,-3.89141E+001,9.96626E-001,2.31730E-001,-9.73877E-002,-3.55778E-005,2.31730E-001,-9.73877E-002,-6.19370E-003,2.32710E-001,1.26026E+000,-3.87954E-002,0.00000E+000,2.87326E-002,9.09624E-001,0.00000E+000,-1.35029E-002,-7.92667E-002,1.00000E+000,38
849,1317,2.11435E+000,-1.18389E+000,1.03760E-001,7.64372E+000,-5.31434E-001,1.51572E-001,7.66367E+000,2.45230E-002,5.79376E-001,0,1.17101E+002,-9.58320E+000,9.95919E-001,7.31687E+001,-4.42389E+001,9.93912E-001,2.47992E-001,-1.03191E-001,-4.51649E-003,2.48050E-001,-1.03249E-001,-7.36707E-001,2.49207E-001,1.28147E+000,-6.04708E-003,0.00000E+000,-4.43102E-003,9.06269E-001,0.00000E+000,4.00183E-003,-9.77589E-002,1.00000E+000,38
1009,1327,1.54137E+001,-3.77924E-001,-4.85079E-002,1.04808E+001,-4.67442E-001,-6.89085E-002,1.04915E+001,1.85804E-002,3.96991E-001,0,1.59414E+002,-8.50514E+000,9.98132E-001,1.19073E+002,-3.98065E+001,9.97981E-001,2.32035E-001,-9.73627E-002,2.02541E-004,2.32035E-001,-9.73629E-002,3.52302E-002,2.33033E-001,1.26062E+000,-3.87873E-002,0.00000E+000,2.89959E-002,9.09630E-001,0.00000E+000,-1.12465E-002,-7.92159E-002,1.00000E+000,38
849,1307,2.08971E+000,-1.75322E+000,2.07383E-001,7.62343E+000,-4.64545E-001,2.12921E-001,7.64054E+000,2.60462E-002,5.62772E-001,0,1.16570E+002,-8.62974E+000,9.96080E-001,7.29205E+001,-4.32653E+001,9.95153E-001,2.48505E-001,-1.03192E-001,-4.53610E-003,2.48564E-001,-1.03250E-001,-7.38823E-001,2.49747E-001,1.28214E+000,-6.04256E-003,0.00000E+000,-4.65324E-003,9.06267E-001,0.00000E+000,6.05670E-003,-9.77451E-002,1.00000E+000,38
839,1337,1.31778E+000,-4.77101E-002,6.41861E-003,7.46635E+000,-6.75067E-001,3.78255E-002,7.49691E+000,4.52669E-002,5.23524E-001,0,1.14849E+002,-1.16058E+001,9.96795E-001,7.08495E+001,-4.66184E+001,9.95726E-001,2.46844E-001,-1.03340E-001,-3.71784E-003,2.46883E-001,-1.03379E-001,-6.08208E-001,2.47968E-001,1.27999E+000,-4.64739E-003,0.00000E+000,-3.50972E-003,9.05974E-001,0.00000E+000,-8.64109E-004,-9.59861E-002,1.00000E+000,38
839,1347,1.33770E+000,5.37526E-001,-2.43728E-002,7.46872E+000,-7.34062E-001,-1.61556E-002,7.50473E+000,1.88498E-002,4.56910E-001,0,1.15059E+002,-1.24276E+001,9.96862E-001,7.11901E+001,-4.75483E+001,9.96487E-001,2.46588E-001,-1.03338E-001,-3.68257E-003,2.46627E-001,-1.03376E-001,-6.02884E-001,2.47699E-001,1.27966E+000,-4.65602E-003,0.00000E+000,-3.25776E-003,9.05981E-001,0.00000E+000,-2.95133E-003,-9.60418E-002,1.00000E+000,38
839,1357,1.37472E+000,1.14015E+000,3.88856E-003,7.47678E+000,-7.85530E-001,-6.69409E-002,7.51822E+000,1.62527E-002,4.66448E-001,0,1.15328E+002,-1.31555E+001,9.97394E-001,7.19289E+001,-4.83019E+001,9.97273E-001,2.46326E-001,-1.03334E-001,-3.64930E-003,2.46364E-001,-1.03372E-001,-5.97892E-001,2.47424E-001,1.27934E+000,-4.67023E-003,0.00000E+000,-3.00364E-003,9.05992E-001,0.00000E+000,-5.05641E-003,-9.61336E-002,1.00000E+000,38
1019,1337,1.62452E+001,2.44683E-001,-8.05209E-002,1.06387E+001,-4.99827E-001,-1.11895E-001,1.06511E+001,2.24376E-002,4.84842E-001,0,1.61827E+002,-9.01249E+000,9.97231E-001,1.22019E+002,-3.99386E+001,9.97410E-001,2.32063E-001,-9.72286E-002,1.25954E-004,2.32063E-001,-9.72286E-002,2.19156E-002,2.33077E-001,1.26062E+000,-3.85689E-002,0.00000E+000,2.83797E-002,9.09641E-001,0.00000E+000,-6.87197E-003,-7.75317E-002,1.00000E+000,38
1019,1347,1.62388E+001,8.18576E-001,-7.18163E-002,1.06105E+001,-5.76124E-001,-1.32935E-001,1.06270E+001,1.95873E-002,4.27081E-001,0,1.61473E+002,-1.01709E+001,9.97999E-001,1.22002E+002,-4.10976E+001,9.97883E-001,2.32524E-001,-9.72038E-002,3.30114E-004,2.32524E-001,-9.72042E-002,5.73628E-002,2.33563E-001,1.26120E+000,-3.85497E-002,0.00000E+000,2.85895E-002,9.09648E-001,0.00000E+000,-4.85971E-003,-7.74644E-002,1.00000E+000,38
839,1327,1.28083E+000,-6.06756E-001,2.49541E-002,7.44900E+000,-5.87873E-001,8.93515E-002,7.47269E+000,4.02156E-002,5.37535E-001,0,1.14410E+002,-1.03237E+001,9.97708E-001,7.02238E+001,-4.52877E+001,9.96856E-001,2.47095E-001,-1.03342E-001,-3.75292E-003,2.47136E-001,-1.03382E-001,-6.13501E-001,2.48232E-001,1.28031E+000,-4.63777E-003,0.00000E+000,-3.76217E-003,9.05967E-001,0.00000E+000,1.22715E-003,-9.59239E-002,1.00000E+000,38
1019,1327,1.62443E+001,-3.53821E-001,-5.79687E-002,1.06561E+001,-4.49596E-001,-7.52871E-002,1.06658E+001,2.07531E-002,4.28388E-001,0,1.61964E+002,-8.24643E+000,9.96993E-001,1.21975E+002,-3.92902E+001,9.96957E-001,2.31598E-001,-9.72512E-002,-7.72354E-005,2.31598E-001,-9.72512E-002,-1.34568E-002,2.32586E-001,1.26005E+000,-3.85849E-002,0.00000E+000,2.81700E-002,9.09636E-001,0.00000E+000,-8.88386E-003,-7.75879E-002,1.00000E+000,38
1019,1317,1.62520E+001,-9.40856E-001,-1.78624E-003,1.06749E+001,-3.92012E-001,-3.63466E-002,1.06822E+001,2.08724E-002,4.12569E-001,0,1.62098E+002,-7.39989E+000,9.97371E-001,1.22125E+002,-3.85175E+001,9.97233E-001,2.31130E-001,-9.72694E-002,-2.77769E-004,2.31130E-001,-9.72697E-002,-4.84623E-002,2.32093E-001,1.25948E+000,-3.85946E-002,0.00000E+000,2.79608E-002,9.09632E-001,0.00000E+000,-1.08913E-002,-7.76220E-002,1.00000E+000,38
839,1317,1.27625E+000,-1.17599E+000,1.00776E-001,7.45239E+000,-5.17769E-001,1.40916E-001,7.47168E+000,2.00795E-002,5.26256E-001,0,1.14280E+002,-9.31845E+000,9.96147E-001,7.02242E+001,-4.42471E+001,9.93537E-001,2.47342E-001,-1.03343E-001,-3.79009E-003,2.47383E-001,-1.03384E-001,-6.19137E-001,2.48491E-001,1.28063E+000,-4.63383E-003,0.00000E+000,-4.01367E-003,9.05964E-001,0.00000E+000,3.31054E-003,-9.58985E-002,1.00000E+000,38
1019,1297,1.62795E+001,-2.09831E+000,1.55958E-001,1.07187E+001,-2.66359E-001,6.20517E-002,1.07222E+001,1.96245E-002,3.66500E-001,0,1.62370E+002,-5.54348E+000,9.97701E-001,1.22693E+002,-3.68181E+001,9.97123E-001,2.30183E-001,-9.73024E-002,-6.76227E-004,2.30184E-001,-9.73038E-002,-1.18310E-001,2.31099E-001,1.25834E+000,-3.86090E-002,0.00000E+000,2.75436E-002,9.09627E-001,0.00000E+000,-1.48936E-002,-7.76724E-002,1.00000E+000,38
1019,1307,1.62587E+001,-1.51927E+000,5.85425E-002,1.06917E+001,-3.29039E-001,3.16087E-003,1.06968E+001,2.44433E-002,4.26805E-001,0,1.62198E+002,-6.44497E+000,9.97976E-001,1.22267E+002,-3.76057E+001,9.97537E-001,2.30659E-001,-9.72871E-002,-4.77316E-004,2.30660E-001,-9.72878E-002,-8.33920E-002,2.31599E-001,1.25891E+000,-3.86036E-002,0.00000E+000,2.77525E-002,9.09629E-001,0.00000E+000,-1.28896E-002,-7.76533E-002,1.00000E+000,38
839,1307,1.26773E+000,-1.74284E+000,2.07757E-001,7.44769E+000,-4.48575E-001,2.03300E-001,7.46395E+000,1.81389E-002,5.09213E-001,0,1.13984E+002,-8.33962E+000,9.94650E-001,7.02339E+001,-4.32386E+001,9.92150E-001,2.47583E-001,-1.03344E-001,-3.82793E-003,2.47625E-001,-1.03385E-001,-6.24886E-001,2.48745E-001,1.28095E+000,-4.63192E-003,0.00000E+000,-4.26450E-003,9.05962E-001,0.00000E+000,5.38837E-003,-9.58861E-002,1.00000E+000,38
829,1337,4.85276E-001,-4.11142E-002,4.60734E-003,7.28328E+000,-6.60600E-001,4.23383E-002,7.31330E+000,3.25474E-002,5.23316E-001,0,1.12101E+002,-1.13833E+001,9.94683E-001,6.79998E+001,-4.66260E+001,9.93473E-001,2.46135E-001,-1.03300E-001,-2.95886E-003,2.46160E-001,-1.03325E-001,-4.85108E-001,2.47215E-001,1.27908E+000,-3.65784E-003,0.00000E+000,-2.73432E-003,9.05863E-001,0.00000E+000,-1.70303E-003,-9.43068E-002,1.00000E+000,38
829,1347,5.08493E-001,5.40160E-001,-1.46430E-002,7.28652E+000,-7.26694E-001,-1.26357E-002,7.32268E+000,1.78684E-002,4.73760E-001,0,1.12326E+002,-1.22973E+001,9.94299E-001,6.84173E+001,-4.76353E+001,9.94174E-001,2.46086E-001,-1.03304E-001,-3.01698E-003,2.46112E-001,-1.03330E-001,-4.94699E-001,2.47164E-001,1.27902E+000,-3.65952E-003,0.00000E+000,-2.65529E-003,9.05866E-001,0.00000E+000,-3.88139E-003,-9.43732E-002,1.00000E+000,38
829,1357,5.38889E-001,1.13904E+000,6.12364E-003,7.28960E+000,-7.80793E-001,-6.38893E-002,7.33158E+000,1.83805E-002,4.88695E-001,0,1.12522E+002,-1.30644E+001,9.96269E-001,6.90388E+001,-4.84304E+001,9.96498E-001,2.46032E-001,-1.03309E-001,-3.07579E-003,2.46060E-001,-1.03336E-001,-5.04412E-001,2.47108E-001,1.27897E+000,-3.66183E-003,0.00000E+000,-2.57593E-003,9.05869E-001,0.00000E+000,-6.06925E-003,-9.44639E-002,1.00000E+000,38
1029,1337,1.70535E+001,2.61019E-001,-9.31394E-002,1.07922E+001,-4.87977E-001,-1.17408E-001,1.08038E+001,1.86822E-002,4.51328E-001,0,1.64046E+002,-8.83551E+000,9.96074E-001,1.24574E+002,-3.95693E+001,9.95637E-001,2.31954E-001,-9.68724E-002,-4.83993E-005,2.31954E-001,-9.68724E-002,-8.43324E-003,2.33001E-001,1.26049E+000,-3.81246E-002,0.00000E+000,2.75929E-002,9.09874E-001,0.00000E+000,-4.65727E-003,-7.59328E-002,1.00000E+000,38
1029,1347,1.70513E+001,8.57074E-001,-8.30553E-002,1.07670E+001,-5.43919E-001,-1.40884E-001,1.07816E+001,1.85676E-002,4.67080E-001,0,1.63737E+002,-9.69709E+000,9.97117E-001,1.24623E+002,-4.03490E+001,9.96388E-001,2.32553E-001,-9.68464E-002,1.66814E-004,2.32553E-001,-9.68464E-002,2.90156E-002,2.33633E-001,1.26124E+000,-3.80982E-002,0.00000E+000,2.78199E-002,9.09882E-001,0.00000E+000,-2.67982E-003,-7.58638E-002,1.00000E+000,38
1029,1327,1.70682E+001,-3.29405E-001,-5.47068E-002,1.08226E+001,-4.30519E-001,-7.64952E-002,1.08314E+001,1.98127E-002,4.28291E-001,0,1.64354E+002,-7.99462E+000,9.96445E-001,1.24801E+002,-3.88136E+001,9.96043E-001,2.31353E-001,-9.68939E-002,-2.60258E-004,2.31353E-001,-9.68941E-002,-4.54283E-002,2.32367E-001,1.25974E+000,-3.81426E-002,0.00000E+000,2.73664E-002,9.09868E-001,0.00000E+000,-6.63018E-003,-7.59803E-002,1.00000E+000,38
829,1327,4.56041E-001,-6.07330E-001,2.40089E-002,7.26964E+000,-5.83318E-001,7.57751E-002,7.29340E+000,3.59930E-002,5.64701E-001,0,1.11778E+002,-1.02331E+001,9.95534E-001,6.74925E+001,-4.53914E+001,9.95348E-001,2.46180E-001,-1.03297E-001,-2.90121E-003,2.46204E-001,-1.03321E-001,-4.75602E-001,2.47261E-001,1.27913E+000,-3.65652E-003,0.00000E+000,-2.81307E-003,9.05862E-001,0.00000E+000,4.67916E-004,-9.42550E-002,1.00000E+000,38
829,1307,4.56543E-001,-1.75179E+000,2.27325E-001,7.28244E+000,-4.52641E-001,2.13374E-001,7.29961E+000,2.20080E-002,4.44333E-001,0,1.11496E+002,-8.38676E+000,9.95684E-001,6.77596E+001,-4.35555E+001,9.92980E-001,2.46254E-001,-1.03295E-001,-2.78712E-003,2.46276E-001,-1.03317E-001,-4.56808E-001,2.47337E-001,1.27924E+000,-3.65547E-003,0.00000E+000,-2.97001E-003,9.05860E-001,0.00000E+000,4.79420E-003,-9.42138E-002,1.00000E+000,38
829,1317,4.51050E-001,-1.17910E+000,9.78196E-002,7.27388E+000,-5.15595E-001,1.32054E-001,7.29333E+000,2.59247E-002,4.87007E-001,0,1.11649E+002,-9.23328E+000,9.94655E-001,6.74823E+001,-4.44168E+001,9.94116E-001,2.46219E-001,-1.03296E-001,-2.84399E-003,2.46242E-001,-1.03319E-001,-4.66173E-001,2.47302E-001,1.27919E+000,-3.65574E-003,0.00000E+000,-2.89163E-003,9.05860E-001,0.00000E+000,2.63356E-003,-9.42242E-002,1.00000E+000,38
1029,1317,1.70779E+001,-9.24067E-001,-8.67164E-003,1.08437E+001,-3.82013E-001,-4.65006E-002,1.08505E+001,2.13117E-002,4.31684E-001,0,1.64561E+002,-7.24905E+000,9.97654E-001,1.24964E+002,-3.81289E+001,9.96517E-001,2.30749E-001,-9.69127E-002,-4.69434E-004,2.30750E-001,-9.69134E-002,-8.20861E-002,2.31733E-001,1.25899E+000,-3.81557E-002,0.00000E+000,2.71410E-002,9.09864E-001,0.00000E+000,-8.59350E-003,-7.60146E-002,1.00000E+000,38
1029,1307,1.70934E+001,-1.49969E+000,7.75628E-002,1.08679E+001,-3.16330E-001,1.25647E-002,1.08725E+001,1.80872E-002,4.87078E-001,0,1.64692E+002,-6.32402E+000,9.97780E-001,1.25287E+002,-3.72095E+001,9.95647E-001,2.30143E-001,-9.69299E-002,-6.77379E-004,2.30144E-001,-9.69313E-002,-1.18661E-001,2.31095E-001,1.25824E+000,-3.81658E-002,0.00000E+000,2.69159E-002,9.09861E-001,0.00000E+000,-1.05540E-002,-7.60412E-002,1.00000E+000,38
1029,1297,1.71107E+001,-2.07169E+000,1.77476E-001,1.08919E+001,-2.46594E-001,7.56989E-002,1.08950E+001,1.78948E-002,4.48232E-001,0,1.64799E+002,-5.32512E+000,9.96933E-001,1.25663E+002,-3.63091E+001,9.95983E-001,2.29530E-001,-9.69458E-002,-8.84939E-004,2.29533E-001,-9.69482E-002,-1.55303E-001,2.30453E-001,1.25750E+000,-3.81735E-002,0.00000E+000,2.66904E-002,9.09859E-001,0.00000E+000,-1.25183E-002,-7.60612E-002,1.00000E+000,38
819,1317,-3.72901E-001,-1.18994E+000,1.11851E-001,7.09549E+000,-5.21952E-001,1.36537E-001,7.11597E+000,2.56044E-002,4.68532E-001,0,1.08973E+002,-9.31626E+000,9.93251E-001,6.48027E+001,-4.47321E+001,9.92129E-001,2.44589E-001,-1.02956E-001,-2.16047E-003,2.44603E-001,-1.02969E-001,-3.56154E-001,2.45619E-001,1.27710E+000,-3.48099E-003,0.00000E+000,-1.67023E-003,9.05996E-001,0.00000E+000,1.71154E-003,-9.21782E-002,1.00000E+000,38
819,1327,-3.69112E-001,-6.19778E-001,3.76996E-002,7.09233E+000,-5.89212E-001,9.08427E-002,7.11735E+000,2.55637E-002,4.99272E-001,0,1.09085E+002,-1.03127E+001,9.95000E-001,6.47933E+001,-4.57565E+001,9.94160E-001,2.44683E-001,-1.02959E-001,-2.29896E-003,2.44698E-001,-1.02974E-001,-3.78875E-001,2.45718E-001,1.27722E+000,-3.47973E-003,0.00000E+000,-1.76326E-003,9.05995E-001,0.00000E+000,-2.57629E-004,-9.21994E-002,1.00000E+000,38
819,1337,-3.48301E-001,-3.90459E-002,-5.11048E-003,7.09835E+000,-6.52240E-001,3.74031E-002,7.12835E+000,2.13366E-002,5.12749E-001,0,1.09352E+002,-1.12082E+001,9.94662E-001,6.51204E+001,-4.66920E+001,9.94098E-001,2.44773E-001,-1.02966E-001,-2.43770E-003,2.44790E-001,-1.02983E-001,-4.01626E-001,2.45814E-001,1.27733E+000,-3.47704E-003,0.00000E+000,-1.85678E-003,9.05992E-001,0.00000E+000,-2.23720E-003,-9.22444E-002,1.00000E+000,38
819,1307,-3.78269E-001,-1.75889E+000,2.01048E-001,7.09401E+000,-4.56850E-001,1.82123E-001,7.11104E+000,2.36652E-002,4.73992E-001,0,1.08787E+002,-8.35111E+000,9.95044E-001,6.48223E+001,-4.37028E+001,9.93968E-001,2.44492E-001,-1.02954E-001,-2.02229E-003,2.44504E-001,-1.02966E-001,-3.33471E-001,2.45516E-001,1.27698E+000,-3.48171E-003,0.00000E+000,-1.57753E-003,9.05996E-001,0.00000E+000,3.67384E-003,-9.21662E-002,1.00000E+000,38
819,1347,-3.18149E-001,5.52051E-001,-1.72423E-002,7.10831E+000,-7.08848E-001,-1.23276E-002,7.14358E+000,2.05864E-002,5.06948E-001,0,1.09659E+002,-1.20045E+001,9.96530E-001,6.56638E+001,-4.75443E+001,9.96780E-001,2.44859E-001,-1.02975E-001,-2.57660E-003,2.44878E-001,-1.02994E-001,-4.24390E-001,2.45905E-001,1.27745E+000,-3.47337E-003,0.00000E+000,-1.95058E-003,9.05990E-001,0.00000E+000,-4.22263E-003,-9.23057E-002,1.00000E+000,38
819,1357,-2.90786E-001,1.13013E+000,1.29852E-002,7.10802E+000,-7.83720E-001,-5.69235E-002,7.15133E+000,2.60320E-002,5.05542E-001,0,1.09787E+002,-1.31030E+001,9.95191E-001,6.62587E+001,-4.86917E+001,9.95300E-001,2.44942E-001,-1.02987E-001,-2.71569E-003,2.44963E-001,-1.03008E-001,-4.47175E-001,2.45993E-001,1.27757E+000,-3.46836E-003,0.00000E+000,-2.04473E-003,9.05986E-001,0.00000E+000,-6.21555E-003,-9.23897E-002,1.00000E+000,38
1039,1337,1.78821E+001,2.87299E-001,-9.23681E-002,1.09637E+001,-4.68543E-001,-1.16380E-001,1.09743E+001,1.64958E-002,4.70463E-001,0,1.66502E+002,-8.56470E+000,9.97247E-001,1.27471E+002,-3.90467E+001,9.95886E-001,2.32030E-001,-9.63638E-002,-5.33596E-004,2.32031E-001,-9.63647E-002,-9.30976E-002,2.33138E-001,1.26059E+000,-3.79378E-002,0.00000E+000,2.64250E-002,9.10284E-001,0.00000E+000,-2.49691E-003,-7.47024E-002,1.00000E+000,38
1039,1347,1.78767E+001,8.63946E-001,-8.77814E-002,1.09357E+001,-5.41813E-001,-1.43579E-001,1.09501E+001,1.67547E-002,4.05113E-001,0,1.66174E+002,-9.67597E+000,9.98298E-001,1.27459E+002,-4.01542E+001,9.97593E-001,2.32731E-001,-9.63496E-002,-4.02561E-004,2.32732E-001,-9.63501E-002,-7.00892E-002,2.33876E-001,1.26147E+000,-3.79072E-002,0.00000E+000,2.64984E-002,9.10286E-001,0.00000E+000,-6.01925E-004,-7.46370E-002,1.00000E+000,38
1039,1317,1.78995E+001,-8.88272E-001,-1.16833E-002,1.10094E+001,-3.50994E-001,-4.54986E-002,1.10151E+001,1.82338E-002,4.19067E-001,0,1.66924E+002,-6.79827E+000,9.97098E-001,1.27749E+002,-3.74706E+001,9.95509E-001,2.30616E-001,-9.63865E-002,-7.87433E-004,2.30618E-001,-9.63884E-002,-1.37969E-001,2.31650E-001,1.25881E+000,-3.79761E-002,0.00000E+000,2.62785E-002,9.10280E-001,0.00000E+000,-6.28510E-003,-7.47841E-002,1.00000E+000,38
1039,1327,1.78923E+001,-3.05570E-001,-5.63819E-002,1.09900E+001,-4.11826E-001,-7.72168E-002,1.09980E+001,1.52799E-002,4.08574E-001,0,1.66756E+002,-7.73183E+000,9.97575E-001,1.27627E+002,-3.83451E+001,9.96527E-001,2.31322E-001,-9.63759E-002,-6.61850E-004,2.31324E-001,-9.63772E-002,-1.15719E-001,2.32393E-001,1.25970E+000,-3.79596E-002,0.00000E+000,2.63515E-002,9.10282E-001,0.00000E+000,-4.39789E-003,-7.47488E-002,1.00000E+000,38
1039,1307,1.79165E+001,-1.47511E+000,5.84774E-002,1.10357E+001,-2.95739E-001,-6.22799E-004,1.10397E+001,1.91079E-002,4.35241E-001,0,1.67145E+002,-5.98812E+000,9.96546E-001,1.28068E+002,-3.67118E+001,9.95400E-001,2.29905E-001,-9.63962E-002,-9.11638E-004,2.29908E-001,-9.63988E-002,-1.60074E-001,2.30904E-001,1.25793E+000,-3.79888E-002,0.00000E+000,2.62055E-002,9.10279E-001,0.00000E+000,-8.17111E-003,-7.48111E-002,1.00000E+000,38
1039,1297,1.79368E+001,-2.05382E+000,1.60438E-001,1.10621E+001,-2.33219E-001,6.20892E-002,1.10647E+001,1.94433E-002,4.13634E-001,0,1.67289E+002,-5.10184E+000,9.94779E-001,1.28491E+002,-3.59130E+001,9.94854E-001,2.29191E-001,-9.64049E-002,-1.03437E-003,2.29194E-001,-9.64081E-002,-1.82018E-001,2.30154E-001,1.25705E+000,-3.79971E-002,0.00000E+000,2.61325E-002,9.10279E-001,0.00000E+000,-1.00580E-002,-7.48289E-002,1.00000E+000,38
1049,1337,1.87196E+001,3.12366E-001,-1.00416E-001,1.11432E+001,-4.48292E-001,-1.27151E-001,1.11530E+001,2.26047E-002,4.41128E-001,0,1.69118E+002,-8.27103E+000,9.98599E-001,1.30499E+002,-3.85466E+001,9.97562E-001,2.32043E-001,-9.62953E-002,-1.26027E-003,2.32048E-001,-9.63001E-002,-2.19916E-001,2.33163E-001,1.26062E+000,-3.76188E-002,0.00000E+000,2.47623E-002,9.10277E-001,0.00000E+000,-1.11471E-003,-7.29826E-002,1.00000E+000,38
1049,1347,1.87255E+001,8.94227E-001,-8.14099E-002,1.11240E+001,-5.20280E-001,-1.49463E-001,1.11371E+001,1.78537E-002,4.27977E-001,0,1.68898E+002,-9.36586E+000,9.98246E-001,1.30684E+002,-3.95762E+001,9.96823E-001,2.32849E-001,-9.62955E-002,-1.23539E-003,2.32854E-001,-9.63001E-002,-2.15046E-001,2.34011E-001,1.26164E+000,-3.75799E-002,0.00000E+000,2.46634E-002,9.10273E-001,0.00000E+000,3.23984E-004,-7.29279E-002,1.00000E+000,38
1049,1307,1.87488E+001,-1.44765E+000,6.52605E-002,1.12084E+001,-2.73881E-001,-4.39126E-003,1.12117E+001,2.34686E-002,3.64024E-001,0,1.69624E+002,-5.65525E+000,9.97149E-001,1.31040E+002,-3.62335E+001,9.96028E-001,2.29625E-001,-9.62949E-002,-1.31203E-003,2.29630E-001,-9.63002E-002,-2.30646E-001,2.30623E-001,1.25757E+000,-3.76747E-002,0.00000E+000,2.50567E-002,9.10282E-001,0.00000E+000,-5.40061E-003,-7.30613E-002,1.00000E+000,38
1049,1317,1.87288E+001,-8.63898E-001,-7.03274E-003,1.11787E+001,-3.33072E-001,-5.26829E-002,1.11838E+001,1.87663E-002,4.13286E-001,0,1.69369E+002,-6.54482E+000,9.96565E-001,1.30672E+002,-3.70017E+001,9.94794E-001,2.30432E-001,-9.62950E-002,-1.29604E-003,2.30438E-001,-9.63002E-002,-2.27273E-001,2.31471E-001,1.25858E+000,-3.76596E-002,0.00000E+000,2.49587E-002,9.10281E-001,0.00000E+000,-3.97437E-003,-7.30401E-002,1.00000E+000,38
1049,1327,1.87210E+001,-2.88321E-001,-6.05202E-002,1.11617E+001,-4.00679E-001,-7.96340E-002,1.11692E+001,1.24280E-002,3.88183E-001,0,1.69225E+002,-7.56578E+000,9.97808E-001,1.30523E+002,-3.79733E+001,9.95999E-001,2.31238E-001,-9.62951E-002,-1.28052E-003,2.31243E-001,-9.63002E-002,-2.23999E-001,2.32317E-001,1.25960E+000,-3.76454E-002,0.00000E+000,2.48607E-002,9.10279E-001,0.00000E+000,-2.54714E-003,-7.30201E-002,1.00000E+000,38
809,1347,-1.16114E+000,5.37114E-001,-2.22744E-002,6.91366E+000,-7.16287E-001,-1.29565E-002,6.95068E+000,1.69159E-002,4.97870E-001,0,1.06747E+002,-1.20995E+001,9.97864E-001,6.26537E+001,-4.78854E+001,9.98068E-001,2.43466E-001,-1.02577E-001,-2.17579E-003,2.43479E-001,-1.02590E-001,-3.60237E-001,2.44481E-001,1.27567E+000,-3.81601E-003,0.00000E+000,-9.61548E-004,9.06178E-001,0.00000E+000,-4.38807E-003,-9.02102E-002,1.00000E+000,38
809,1357,-1.13356E+000,1.12227E+000,1.72646E-002,6.91310E+000,-7.84944E-001,-5.17528E-002,6.95771E+000,2.02085E-002,4.88878E-001,0,1.06849E+002,-1.31011E+001,9.96833E-001,6.32774E+001,-4.89498E+001,9.96473E-001,2.43725E-001,-1.02600E-001,-2.43061E-003,2.43742E-001,-1.02617E-001,-4.02093E-001,2.44753E-001,1.27602E+000,-3.80127E-003,0.00000E+000,-1.29434E-003,9.06164E-001,0.00000E+000,-6.20357E-003,-9.02883E-002,1.00000E+000,38
809,1327,-1.20032E+000,-6.35415E-001,2.38121E-002,6.90854E+000,-6.00867E-001,7.86083E-002,6.93507E+000,1.54328E-002,5.28709E-001,0,1.06380E+002,-1.04286E+001,9.97694E-001,6.19419E+001,-4.60649E+001,9.96667E-001,2.42942E-001,-1.02548E-001,-1.66671E-003,2.42950E-001,-1.02556E-001,-2.76398E-001,2.43931E-001,1.27499E+000,-3.83388E-003,0.00000E+000,-3.01858E-004,9.06196E-001,0.00000E+000,-7.89195E-004,-9.01157E-002,1.00000E+000,38
809,1337,-1.17901E+000,-5.35416E-002,6.16285E-004,6.91476E+000,-6.61380E-001,4.24318E-002,6.94644E+000,1.45590E-002,5.12830E-001,0,1.06592E+002,-1.13308E+001,9.97470E-001,6.23231E+001,-4.70417E+001,9.97699E-001,2.43205E-001,-1.02561E-001,-1.92125E-003,2.43216E-001,-1.02571E-001,-3.18351E-001,2.44207E-001,1.27533E+000,-3.82596E-003,0.00000E+000,-6.31258E-004,9.06188E-001,0.00000E+000,-2.58621E-003,-9.01576E-002,1.00000E+000,38
809,1307,-1.21062E+000,-1.75857E+000,2.12902E-001,6.90904E+000,-4.51612E-001,1.95915E-001,6.92655E+000,2.88512E-002,5.71323E-001,0,1.05975E+002,-8.31717E+000,9.89591E-001,6.20164E+001,-4.37824E+001,9.88571E-001,2.42408E-001,-1.02537E-001,-1.15594E-003,2.42412E-001,-1.02541E-001,-1.91999E-001,2.43369E-001,1.27432E+000,-3.83958E-003,0.00000E+000,3.54301E-004,9.06201E-001,0.00000E+000,2.79041E-003,-9.00855E-002,1.00000E+000,38
809,1317,-1.20262E+000,-1.19480E+000,1.07098E-001,6.91335E+000,-5.22836E-001,1.34657E-001,6.93440E+000,2.52652E-002,5.34840E-001,0,1.06257E+002,-9.30740E+000,9.96147E-001,6.19974E+001,-4.48735E+001,9.95128E-001,2.42677E-001,-1.02541E-001,-1.41143E-003,2.42683E-001,-1.02547E-001,-2.34250E-001,2.43651E-001,1.27465E+000,-3.83763E-003,0.00000E+000,2.65149E-005,9.06199E-001,0.00000E+000,1.00221E-003,-9.00958E-002,1.00000E+000,38
1049,1297,1.87585E+001,-2.03950E+000,1.50963E-001,1.12266E+001,-2.23684E-001,5.23019E-002,1.12290E+001,1.96276E-002,3.63580E-001,0,1.69677E+002,-4.94138E+000,9.95358E-001,1.31271E+002,-3.55963E+001,9.93640E-001,2.28815E-001,-9.62948E-002,-1.32742E-003,2.28821E-001,-9.63002E-002,-2.33932E-001,2.29774E-001,1.25656E+000,-3.76879E-002,0.00000E+000,2.51546E-002,9.10283E-001,0.00000E+000,-6.82576E-003,-7.30801E-002,1.00000E+000,38
799,1337,-2.01110E+000,-6.20108E-002,-3.46863E-003,6.73030E+000,-6.63271E-001,4.22837E-002,6.76303E+000,1.56073E-002,4.98694E-001,0,1.03829E+002,-1.13309E+001,9.97531E-001,5.94889E+001,-4.72846E+001,9.97724E-001,2.41118E-001,-1.02125E-001,-1.35821E-003,2.41123E-001,-1.02130E-001,-2.26714E-001,2.42061E-001,1.27267E+000,-4.32353E-003,0.00000E+000,7.90850E-004,9.06410E-001,0.00000E+000,-2.98606E-003,-8.80200E-002,1.00000E+000,38
799,1347,-1.99108E+000,5.24048E-001,-1.92253E-002,6.73185E+000,-7.22657E-001,-4.17003E-003,6.77053E+000,1.79849E-002,4.95589E-001,0,1.03997E+002,-1.21891E+001,9.96724E-001,5.98694E+001,-4.82105E+001,9.96753E-001,2.41450E-001,-1.02147E-001,-1.71651E-003,2.41458E-001,-1.02156E-001,-2.86223E-001,2.42409E-001,1.27310E+000,-4.31127E-003,0.00000E+000,2.42882E-004,9.06394E-001,0.00000E+000,-4.52056E-003,-8.80637E-002,1.00000E+000,38
799,1357,-1.95779E+000,1.11881E+000,1.65341E-002,6.73707E+000,-7.81380E-001,-4.76538E-002,6.78239E+000,1.85989E-002,4.94492E-001,0,1.04199E+002,-1.30338E+001,9.95791E-001,6.05767E+001,-4.91155E+001,9.95638E-001,2.41781E-001,-1.02181E-001,-2.07505E-003,2.41794E-001,-1.02193E-001,-3.45637E-001,2.42756E-001,1.27353E+000,-4.29265E-003,0.00000E+000,-3.08974E-004,9.06371E-001,0.00000E+000,-6.06594E-003,-8.81301E-002,1.00000E+000,38
799,1327,-2.02144E+000,-6.49436E-001,4.69118E-002,6.73449E+000,-6.07749E-001,1.03402E-001,6.76265E+000,2.39280E-002,5.10110E-001,0,1.03698E+002,-1.05782E+001,9.98007E-001,5.93384E+001,-4.64510E+001,9.96951E-001,2.40784E-001,-1.02106E-001,-9.99573E-004,2.40787E-001,-1.02109E-001,-1.67024E-001,2.41710E-001,1.27224E+000,-4.33319E-003,0.00000E+000,1.33791E-003,9.06422E-001,0.00000E+000,-1.45412E-003,-8.79855E-002,1.00000E+000,38
1059,1327,1.95517E+001,-2.74028E-001,-5.42592E-002,1.13342E+001,-3.92886E-001,-7.52178E-002,1.13412E+001,1.87854E-002,3.98575E-001,0,1.71676E+002,-7.48383E+000,9.98230E-001,1.33472E+002,-3.76547E+001,9.96889E-001,2.31406E-001,-9.66979E-002,-1.62051E-003,2.31414E-001,-9.67059E-002,-2.82975E-001,2.32452E-001,1.25985E+000,-3.65104E-002,0.00000E+000,2.32976E-002,9.09858E-001,0.00000E+000,-9.39847E-004,-7.15876E-002,1.00000E+000,38
1059,1337,1.95540E+001,3.31846E-001,-9.08028E-002,1.13188E+001,-4.35725E-001,-1.21006E-001,1.13279E+001,1.53103E-002,4.08511E-001,0,1.71607E+002,-8.10049E+000,9.98897E-001,1.33511E+002,-3.81743E+001,9.98325E-001,2.32236E-001,-9.67052E-002,-1.66467E-003,2.32245E-001,-9.67137E-002,-2.89946E-001,2.33323E-001,1.26090E+000,-3.64822E-002,0.00000E+000,2.31136E-002,9.09853E-001,0.00000E+000,-1.49085E-005,-7.15628E-002,1.00000E+000,38
1059,1347,1.95629E+001,9.16501E-001,-7.57682E-002,1.13022E+001,-5.04306E-001,-1.48315E-001,1.13144E+001,2.08816E-002,3.90252E-001,0,1.71445E+002,-9.14597E+000,9.98688E-001,1.33734E+002,-3.91526E+001,9.97027E-001,2.33067E-001,-9.67142E-002,-1.70423E-003,2.33076E-001,-9.67230E-002,-2.96081E-001,2.34196E-001,1.26195E+000,-3.64414E-002,0.00000E+000,2.29290E-002,9.09846E-001,0.00000E+000,9.12802E-004,-7.15269E-002,1.00000E+000,38
1059,1297,1.95813E+001,-2.01756E+000,1.35105E-001,1.13938E+001,-2.04850E-001,4.47104E-002,1.13958E+001,1.89468E-002,3.07549E-001,0,1.72090E+002,-4.64787E+000,9.96212E-001,1.34062E+002,-3.51507E+001,9.93037E-001,2.28913E-001,-9.66805E-002,-1.47474E-003,2.28920E-001,-9.66872E-002,-2.59507E-001,2.29838E-001,1.25671E+000,-3.65587E-002,0.00000E+000,2.38477E-002,9.09867E-001,0.00000E+000,-3.70468E-003,-7.16301E-002,1.00000E+000,38
1059,1307,1.95728E+001,-1.43119E+000,5.57049E-002,1.13767E+001,-2.59843E-001,-5.71706E-003,1.13797E+001,2.02939E-002,3.20692E-001,0,1.72034E+002,-5.46998E+000,9.97652E-001,1.33860E+002,-3.58780E+001,9.96641E-001,2.29743E-001,-9.66860E-002,-1.52398E-003,2.29750E-001,-9.66931E-002,-2.67485E-001,2.30707E-001,1.25775E+000,-3.65448E-002,0.00000E+000,2.36649E-002,9.09864E-001,0.00000E+000,-2.78599E-003,-7.16180E-002,1.00000E+000,38
1059,1317,1.95501E+001,-8.53861E-001,-3.10971E-002,1.13448E+001,-3.26285E-001,-6.61753E-002,1.13497E+001,2.03962E-002,4.15433E-001,0,1.71798E+002,-6.45311E+000,9.97379E-001,1.33426E+002,-3.66902E+001,9.94891E-001,2.30574E-001,-9.66917E-002,-1.57305E-003,2.30582E-001,-9.66992E-002,-2.75391E-001,2.31579E-001,1.25880E+000,-3.65299E-002,0.00000E+000,2.34815E-002,9.09862E-001,0.00000E+000,-1.86414E-003,-7.16048E-002,1.00000E+000,38
799,1307,-2.02794E+000,-1.76731E+000,2.25597E-001,6.73749E+000,-4.54711E-001,2.04413E-001,6.75591E+000,3.68529E-002,5.40123E-001,0,1.03385E+002,-8.36323E+000,9.92669E-001,5.94498E+001,-4.40661E+001,9.92405E-001,2.40112E-001,-1.02091E-001,-2.81819E-004,2.40112E-001,-1.02091E-001,-4.71855E-002,2.41006E-001,1.27139E+000,-4.33954E-003,0.00000E+000,2.42531E-003,9.06430E-001,0.00000E+000,1.59096E-003,-8.79629E-002,1.00000E+000,38
799,1317,-2.02718E+000,-1.20590E+000,1.15141E-001,6.73729E+000,-5.26486E-001,1.51983E-001,6.75953E+000,3.07341E-002,5.55191E-001,0,1.03571E+002,-9.40144E+000,9.95342E-001,5.93065E+001,-4.51612E+001,9.94267E-001,2.40449E-001,-1.02094E-001,-6.41154E-004,2.40450E-001,-1.02096E-001,-1.07243E-001,2.41359E-001,1.27181E+000,-4.33887E-003,0.00000E+000,1.88238E-003,9.06429E-001,0.00000E+000,7.05716E-005,-8.79653E-002,1.00000E+000,38
789,1327,-2.84367E+000,-6.54672E-001,4.49875E-002,6.55959E+000,-6.06189E-001,1.06714E-001,6.58841E+000,2.32363E-002,5.17427E-001,0,1.01068E+002,-1.05494E+001,9.97148E-001,5.66668E+001,-4.66350E+001,9.96349E-001,2.38685E-001,-1.01642E-001,-6.38752E-004,2.38686E-001,-1.01643E-001,-1.07537E-001,2.39560E-001,1.26957E+000,-5.06432E-003,0.00000E+000,2.58159E-003,9.06692E-001,0.00000E+000,-2.16634E-003,-8.60863E-002,1.00000E+000,38
789,1337,-2.83008E+000,-6.18223E-002,1.40723E-003,6.55811E+000,-6.56546E-001,4.90623E-002,6.59108E+000,1.88462E-002,4.94914E-001,0,1.01225E+002,-1.12237E+001,9.96298E-001,5.68848E+001,-4.74067E+001,9.96266E-001,2.39150E-001,-1.01666E-001,-1.08326E-003,2.39153E-001,-1.01669E-001,-1.82108E-001,2.40046E-001,1.27017E+000,-5.05046E-003,0.00000E+000,1.84697E-003,9.06675E-001,0.00000E+000,-3.40047E-003,-8.61151E-002,1.00000E+000,38
789,1347,-2.80575E+000,5.23521E-001,-1.30007E-002,6.56369E+000,-7.17679E-001,1.74070E-003,6.60281E+000,1.99956E-002,5.25675E-001,0,1.01457E+002,-1.21098E+001,9.95443E-001,5.73359E+001,-4.83311E+001,9.94674E-001,2.39614E-001,-1.01695E-001,-1.52785E-003,2.39621E-001,-1.01702E-001,-2.56475E-001,2.40531E-001,1.27076E+000,-5.03322E-003,0.00000E+000,1.11011E-003,9.06653E-001,0.00000E+000,-4.63837E-003,-8.61509E-002,1.00000E+000,38
789,1357,-2.78149E+000,1.11295E+000,1.57919E-002,6.56139E+000,-7.80546E-001,-4.21760E-002,6.60779E+000,1.85188E-002,5.28049E-001,0,1.01548E+002,-1.30182E+001,9.94555E-001,5.78891E+001,-4.93045E+001,9.93899E-001,2.40078E-001,-1.01735E-001,-1.97189E-003,2.40089E-001,-1.01746E-001,-3.30521E-001,2.41017E-001,1.27136E+000,-5.00882E-003,0.00000E+000,3.69767E-004,9.06623E-001,0.00000E+000,-5.88213E-003,-8.62015E-002,1.00000E+000,38
1069,1327,2.03823E+001,-2.60256E-001,-6.61189E-002,1.15072E+001,-3.85796E-001,-8.42320E-002,1.15139E+001,1.99390E-002,4.23802E-001,0,1.74184E+002,-7.37822E+000,9.97913E-001,1.36395E+002,-3.72973E+001,9.96079E-001,2.31656E-001,-9.67700E-002,-1.97275E-003,2.31668E-001,-9.67818E-002,-3.44141E-001,2.32711E-001,1.26019E+000,-3.56663E-002,0.00000E+000,2.19630E-002,9.09760E-001,0.00000E+000,1.55832E-004,-7.05719E-002,1.00000E+000,38
1069,1337,2.03768E+001,3.40310E-001,-8.90709E-002,1.14847E+001,-4.32106E-001,-1.12769E-001,1.14934E+001,1.27578E-002,3.85522E-001,0,1.73946E+002,-8.08534E+000,9.98482E-001,1.36333E+002,-3.79524E+001,9.97478E-001,2.32419E-001,-9.67814E-002,-2.06018E-003,2.32432E-001,-9.67943E-002,-3.58546E-001,2.33511E-001,1.26115E+000,-3.56414E-002,0.00000E+000,2.17374E-002,9.09755E-001,0.00000E+000,5.64615E-004,-7.05614E-002,1.00000E+000,38
1069,1347,2.03817E+001,9.30886E-001,-8.79487E-002,1.14657E+001,-4.94684E-001,-1.46227E-001,1.14773E+001,1.37370E-002,4.14269E-001,0,1.73773E+002,-9.03596E+000,9.98651E-001,1.36469E+002,-3.87834E+001,9.97612E-001,2.33186E-001,-9.67951E-002,-2.14427E-003,2.33200E-001,-9.68090E-002,-3.72297E-001,2.34317E-001,1.26212E+000,-3.56063E-002,0.00000E+000,2.15104E-002,9.09746E-001,0.00000E+000,9.75984E-004,-7.05465E-002,1.00000E+000,38
789,1307,-2.84075E+000,-1.77854E+000,2.24081E-001,6.57221E+000,-4.59777E-001,2.09755E-001,6.59161E+000,2.40508E-002,5.27125E-001,0,1.00901E+002,-8.42745E+000,9.95250E-001,5.69246E+001,-4.43487E+001,9.91993E-001,2.37756E-001,-1.01621E-001,2.51285E-004,2.37757E-001,-1.01621E-001,4.24234E-002,2.38590E-001,1.26839E+000,-5.07329E-003,0.00000E+000,4.04066E-003,9.06703E-001,0.00000E+000,2.84854E-004,-8.60677E-002,1.00000E+000,38
789,1317,-2.84512E+000,-1.22192E+000,1.37005E-001,6.56409E+000,-5.37360E-001,1.66291E-001,6.58814E+000,2.48662E-002,5.30790E-001,0,1.00933E+002,-9.58075E+000,9.95466E-001,5.67557E+001,-4.55757E+001,9.91844E-001,2.38221E-001,-1.01630E-001,-1.93746E-004,2.38222E-001,-1.01630E-001,-3.26638E-002,2.39075E-001,1.26898E+000,-5.06981E-003,0.00000E+000,3.31176E-003,9.06698E-001,0.00000E+000,-9.39686E-004,-8.60749E-002,1.00000E+000,38
1069,1297,2.03892E+001,-1.99854E+000,1.16424E-001,1.15475E+001,-1.89145E-001,4.18512E-002,1.15492E+001,2.44514E-002,3.46283E-001,0,1.74283E+002,-4.43889E+000,9.93865E-001,1.36622E+002,-3.46992E+001,9.89304E-001,2.29363E-001,-9.67413E-002,-1.70074E-003,2.29372E-001,-9.67502E-002,-2.98805E-001,2.30305E-001,1.25730E+000,-3.57157E-002,0.00000E+000,2.26398E-002,9.09772E-001,0.00000E+000,-1.07041E-003,-7.05929E-002,1.00000E+000,38
1069,1307,2.03869E+001,-1.41585E+000,3.09078E-002,1.15377E+001,-2.47158E-001,-9.74349E-003,1.15404E+001,1.67317E-002,3.09013E-001,0,1.74346E+002,-5.28416E+000,9.97591E-001,1.36508E+002,-3.54929E+001,9.95638E-001,2.30125E-001,-9.67497E-002,-1.79301E-003,2.30135E-001,-9.67595E-002,-3.14273E-001,2.31104E-001,1.25826E+000,-3.57046E-002,0.00000E+000,2.24153E-002,9.09769E-001,0.00000E+000,-6.63650E-004,-7.05882E-002,1.00000E+000,38
1069,1317,2.03864E+001,-8.30660E-001,-2.49021E-002,1.15243E+001,-3.08932E-001,-5.38077E-002,1.15286E+001,1.67604E-002,4.03982E-001,0,1.74317E+002,-6.22021E+000,9.98363E-001,1.36468E+002,-3.62451E+001,9.96441E-001,2.30891E-001,-9.67598E-002,-1.88292E-003,2.30902E-001,-9.67706E-002,-3.29249E-001,2.31907E-001,1.25922E+000,-3.56856E-002,0.00000E+000,2.21892E-002,9.09765E-001,0.00000E+000,-2.53981E-004,-7.05801E-002,1.00000E+000,38
779,1327,-3.65817E+000,-6.52648E-001,5.36614E-002,6.39099E+000,-5.99988E-001,1.15760E-001,6.42014E+000,3.20510E-002,5.70080E-001,0,9.85088E+001,-1.04551E+001,9.96849E-001,5.41464E+001,-4.67065E+001,9.95608E-001,2.36508E-001,-1.00872E-001,-5.94799E-004,2.36509E-001,-1.00873E-001,-1.01012E-001,2.37360E-001,1.26681E+000,-6.15216E-003,0.00000E+000,3.46245E-003,9.07271E-001,0.00000E+000,-2.40991E-003,-8.45781E-002,1.00000E+000,38
779,1337,-3.64239E+000,-7.83487E-002,5.36097E-003,6.39218E+000,-6.67570E-001,5.50456E-002,6.42718E+000,1.81467E-002,5.19281E-001,0,9.87220E+001,-1.13897E+001,9.95473E-001,5.43839E+001,-4.77699E+001,9.95219E-001,2.37204E-001,-1.00904E-001,-1.16656E-003,2.37208E-001,-1.00908E-001,-1.97683E-001,2.38087E-001,1.26769E+000,-6.13212E-003,0.00000E+000,2.46182E-003,9.07248E-001,0.00000E+000,-3.33360E-003,-8.45990E-002,1.00000E+000,38
779,1347,-3.62598E+000,5.13943E-001,-1.12489E-002,6.38946E+000,-7.20812E-001,2.58376E-003,6.42999E+000,2.23280E-002,5.08213E-001,0,9.88385E+001,-1.21367E+001,9.93654E-001,5.47107E+001,-4.86063E+001,9.92764E-001,2.37900E-001,-1.00943E-001,-1.73775E-003,2.37909E-001,-1.00952E-001,-2.93830E-001,2.38815E-001,1.26858E+000,-6.10584E-003,0.00000E+000,1.45800E-003,9.07218E-001,0.00000E+000,-4.26025E-003,-8.46264E-002,1.00000E+000,38
779,1357,-3.60508E+000,1.10809E+000,1.61855E-002,6.38475E+000,-7.78534E-001,-3.89232E-002,6.43216E+000,1.81519E-002,5.30148E-001,0,9.88834E+001,-1.29742E+001,9.94599E-001,5.52122E+001,-4.94965E+001,9.94162E-001,2.38599E-001,-1.00994E-001,-2.30922E-003,2.38614E-001,-1.01009E-001,-3.89586E-001,2.39548E-001,1.26947E+000,-6.07069E-003,0.00000E+000,4.47806E-004,9.07179E-001,0.00000E+000,-5.19277E-003,-8.46630E-002,1.00000E+000,38
779,1317,-3.64787E+000,-1.21118E+000,1.37971E-001,6.40705E+000,-5.20785E-001,1.66788E-001,6.43034E+000,3.05884E-002,5.35368E-001,0,9.85777E+001,-9.31499E+000,9.97710E-001,5.44003E+001,-4.55166E+001,9.96079E-001,2.35812E-001,-1.00856E-001,-1.92364E-005,2.35812E-001,-1.00856E-001,-3.27374E-003,2.36632E-001,1.26592E+000,-6.16011E-003,0.00000E+000,4.46147E-003,9.07280E-001,0.00000E+000,-1.48770E-003,-8.45698E-002,1.00000E+000,38
1079,1337,2.12057E+001,3.57145E-001,-1.06983E-001,1.16556E+001,-4.21687E-001,-1.27008E-001,1.16639E+001,2.19392E-002,3.79318E-001,0,1.76438E+002,-7.90812E+000,9.96916E-001,1.39224E+002,-3.75485E+001,9.97075E-001,2.32990E-001,-9.70661E-002,-2.39948E-003,2.33008E-001,-9.70836E-002,-4.16506E-001,2.34084E-001,1.26190E+000,-3.47490E-002,0.00000E+000,2.04325E-002,9.09494E-001,0.00000E+000,8.49724E-004,-7.00419E-002,1.00000E+000,38
1079,1347,2.12170E+001,9.47839E-001,-9.46692E-002,1.16428E+001,-4.84328E-001,-1.49670E-001,1.16538E+001,1.23921E-002,4.29686E-001,0,1.76316E+002,-8.89735E+000,9.98738E-001,1.39476E+002,-3.83889E+001,9.98704E-001,2.33684E-001,-9.70876E-002,-2.54866E-003,2.33703E-001,-9.71073E-002,-4.41441E-001,2.34813E-001,1.26278E+000,-3.47169E-002,0.00000E+000,2.01221E-002,9.09483E-001,0.00000E+000,7.49553E-004,-7.00456E-002,1.00000E+000,38
1079,1297,2.12232E+001,-1.97391E+000,1.25150E-001,1.17229E+001,-1.70430E-001,5.04467E-002,1.17243E+001,2.34802E-002,4.34005E-001,0,1.76745E+002,-4.22973E+000,9.95748E-001,1.39635E+002,-3.41915E+001,9.93166E-001,2.30227E-001,-9.70042E-002,-1.78271E-003,2.30237E-001,-9.70140E-002,-3.12127E-001,2.31184E-001,1.25841E+000,-3.48155E-002,0.00000E+000,2.16659E-002,9.09518E-001,0.00000E+000,1.24782E-003,-7.00343E-002,1.00000E+000,38
1079,1307,2.12128E+001,-1.40255E+000,2.74291E-002,1.17065E+001,-2.39788E-001,-7.35011E-003,1.17089E+001,1.90777E-002,3.47845E-001,0,1.76740E+002,-5.20213E+000,9.97797E-001,1.39377E+002,-3.51586E+001,9.96275E-001,2.30916E-001,-9.70165E-002,-1.93946E-003,2.30927E-001,-9.70279E-002,-3.38843E-001,2.31906E-001,1.25928E+000,-3.48072E-002,0.00000E+000,2.13590E-002,9.09515E-001,0.00000E+000,1.14875E-003,-7.00353E-002,1.00000E+000,38
1079,1327,2.12095E+001,-2.44765E-001,-8.04318E-002,1.16760E+001,-3.76484E-001,-9.69580E-002,1.16825E+001,2.37164E-002,3.83839E-001,0,1.76639E+002,-7.20850E+000,9.97428E-001,1.39268E+002,-3.69412E+001,9.96749E-001,2.32300E-001,-9.70486E-002,-2.24733E-003,2.32315E-001,-9.70640E-002,-3.90938E-001,2.33359E-001,1.26103E+000,-3.47710E-002,0.00000E+000,2.07410E-002,9.09502E-001,0.00000E+000,9.49292E-004,-7.00394E-002,1.00000E+000,38
1079,1317,2.12079E+001,-8.12517E-001,-3.36498E-002,1.16887E+001,-2.97087E-001,-5.59553E-002,1.16926E+001,1.84136E-002,3.94658E-001,0,1.76664E+002,-6.03222E+000,9.97570E-001,1.39260E+002,-3.58472E+001,9.96670E-001,2.31609E-001,-9.70322E-002,-2.09388E-003,2.31622E-001,-9.70455E-002,-3.65032E-001,2.32633E-001,1.26016E+000,-3.47901E-002,0.00000E+000,2.10498E-002,9.09509E-001,0.00000E+000,1.04897E-003,-7.00372E-002,1.00000E+000,38
779,1307,-3.66440E+000,-1.79547E+000,2.33767E-001,6.39400E+000,-4.72324E-001,2.17953E-001,6.41513E+000,2.13359E-002,5.45823E-001,0,9.82056E+001,-8.61959E+000,9.97089E-001,5.42637E+001,-4.47288E+001,9.94783E-001,2.35118E-001,-1.00844E-001,5.53801E-004,2.35119E-001,-1.00845E-001,9.44462E-002,2.35910E-001,1.26504E+000,-6.16494E-003,0.00000E+000,5.45393E-003,9.07285E-001,0.00000E+000,-5.71545E-004,-8.45647E-002,1.00000E+000,38
1089,1337,2.20330E+001,3.78896E-001,-1.14454E-001,1.18245E+001,-4.06983E-001,-1.30572E-001,1.18322E+001,1.91908E-002,4.62293E-001,0,1.78853E+002,-7.72273E+000,9.96288E-001,1.42113E+002,-3.70472E+001,9.96010E-001,2.34168E-001,-9.74706E-002,-2.48963E-003,2.34187E-001,-9.74893E-002,-4.30090E-001,2.35278E-001,1.26343E+000,-3.33952E-002,0.00000E+000,1.92214E-002,9.09092E-001,0.00000E+000,1.47391E-003,-6.90872E-002,1.00000E+000,38
1089,1347,2.20411E+001,9.67646E-001,-1.07503E-001,1.18084E+001,-4.70738E-001,-1.58160E-001,1.18188E+001,1.31927E-002,4.26844E-001,0,1.78702E+002,-8.69116E+000,9.98164E-001,1.42304E+002,-3.79474E+001,9.97570E-001,2.34949E-001,-9.74978E-002,-2.68580E-003,2.34971E-001,-9.75195E-002,-4.62845E-001,2.36099E-001,1.26442E+000,-3.33589E-002,0.00000E+000,1.88304E-002,9.09078E-001,0.00000E+000,1.20227E-003,-6.90971E-002,1.00000E+000,38
769,1347,-4.44507E+000,5.02828E-001,-7.60153E-003,6.21671E+000,-7.25619E-001,9.34938E-003,6.25892E+000,1.87047E-002,4.98748E-001,0,9.62216E+001,-1.21963E+001,9.94240E-001,5.21130E+001,-4.89053E+001,9.94222E-001,2.35584E-001,-1.00216E-001,-1.80257E-003,2.35593E-001,-1.00225E-001,-3.07552E-001,2.36466E-001,1.26564E+000,-6.98503E-003,0.00000E+000,1.94905E-003,9.07769E-001,0.00000E+000,-3.95416E-003,-8.31866E-002,1.00000E+000,38
769,1357,-4.42009E+000,1.10139E+000,1.54816E-002,6.21665E+000,-7.78525E-001,-3.47377E-002,6.26530E+000,1.80286E-002,5.29838E-001,0,9.63445E+001,-1.29565E+001,9.95808E-001,5.26700E+001,-4.97148E+001,9.95723E-001,2.36150E-001,-1.00265E-001,-2.36524E-003,2.36166E-001,-1.00282E-001,-4.02804E-001,2.37059E-001,1.26636E+000,-6.95727E-003,0.00000E+000,9.53095E-004,9.07731E-001,0.00000E+000,-4.80897E-003,-8.32195E-002,1.00000E+000,38
769,1327,-4.47161E+000,-6.61976E-001,6.63555E-002,6.22072E+000,-6.04338E-001,1.16571E-001,6.25109E+000,2.26731E-002,5.77852E-001,0,9.59474E+001,-1.05241E+001,9.96590E-001,5.16561E+001,-4.69842E+001,9.95089E-001,2.34456E-001,-1.00151E-001,-6.77704E-004,2.34458E-001,-1.00152E-001,-1.16045E-001,2.35285E-001,1.26420E+000,-7.01894E-003,0.00000E+000,3.92564E-003,9.07816E-001,0.00000E+000,-2.25770E-003,-8.31465E-002,1.00000E+000,38
769,1337,-4.46302E+000,-9.53258E-002,7.96609E-003,6.21728E+000,-6.78819E-001,5.84309E-002,6.25450E+000,1.64452E-002,5.12548E-001,0,9.60850E+001,-1.15434E+001,9.95686E-001,5.17577E+001,-4.81539E+001,9.95452E-001,2.35020E-001,-1.00178E-001,-1.24086E-003,2.35025E-001,-1.00182E-001,-2.12098E-001,2.35875E-001,1.26492E+000,-7.00558E-003,0.00000E+000,2.93852E-003,9.07797E-001,0.00000E+000,-3.10492E-003,-8.31623E-002,1.00000E+000,38
1089,1327,2.20335E+001,-2.15135E-001,-1.01093E-001,1.18433E+001,-3.50316E-001,-1.07188E-001,1.18490E+001,2.04729E-002,3.88306E-001,0,1.79055E+002,-6.82999E+000,9.96338E-001,1.42087E+002,-3.63301E+001,9.95364E-001,2.33386E-001,-9.74472E-002,-2.29007E-003,2.33402E-001,-9.74631E-002,-3.96583E-001,2.34456E-001,1.26244E+000,-3.34227E-002,0.00000E+000,1.96124E-002,9.09103E-001,0.00000E+000,1.74551E-003,-6.90796E-002,1.00000E+000,38
1089,1317,2.20393E+001,-8.04662E-001,-4.52594E-002,1.18621E+001,-2.94119E-001,-6.33478E-002,1.18659E+001,1.87701E-002,4.21218E-001,0,1.79164E+002,-6.01565E+000,9.97576E-001,1.42208E+002,-3.55837E+001,9.97221E-001,2.32607E-001,-9.74275E-002,-2.08848E-003,2.32620E-001,-9.74407E-002,-3.62552E-001,2.33639E-001,1.26146E+000,-3.34422E-002,0.00000E+000,2.00013E-002,9.09111E-001,0.00000E+000,2.01567E-003,-6.90743E-002,1.00000E+000,38
1089,1297,2.20561E+001,-1.95171E+000,1.23684E-001,1.18971E+001,-1.54829E-001,4.96672E-002,1.18982E+001,1.68080E-002,4.52924E-001,0,1.79221E+002,-4.00263E+000,9.97803E-001,1.42622E+002,-3.37343E+001,9.97484E-001,2.31051E-001,-9.73929E-002,-1.68172E-003,2.31059E-001,-9.74015E-002,-2.93359E-001,2.32006E-001,1.25949E+000,-3.34697E-002,0.00000E+000,2.07773E-002,9.09122E-001,0.00000E+000,2.55479E-003,-6.90667E-002,1.00000E+000,38
1089,1307,2.20443E+001,-1.38369E+000,1.95839E-002,1.18787E+001,-2.28065E-001,-1.58464E-002,1.18809E+001,1.61118E-002,4.22566E-001,0,1.79221E+002,-5.04430E+000,9.98213E-001,1.42331E+002,-3.47102E+001,9.98285E-001,2.31828E-001,-9.74085E-002,-1.88623E-003,2.31839E-001,-9.74193E-002,-3.28240E-001,2.32821E-001,1.26047E+000,-3.34598E-002,0.00000E+000,2.03900E-002,9.09118E-001,0.00000E+000,2.28572E-003,-6.90694E-002,1.00000E+000,38
769,1317,-4.48113E+000,-1.22282E+000,1.37939E-001,6.21923E+000,-5.29363E-001,1.67351E-001,6.24396E+000,2.65123E-002,5.41562E-001,0,9.57526E+001,-9.39256E+000,9.97752E-001,5.15743E+001,-4.58042E+001,9.97317E-001,2.33894E-001,-1.00130E-001,-1.16254E-004,2.33894E-001,-1.00130E-001,-1.99413E-002,2.34699E-001,1.26349E+000,-7.02787E-003,0.00000E+000,4.90674E-003,9.07828E-001,0.00000E+000,-1.41564E-003,-8.31360E-002,1.00000E+000,38
1099,1327,2.28549E+001,-1.97863E-001,-1.07458E-001,1.20075E+001,-3.38344E-001,-1.03471E-001,1.20127E+001,2.30835E-002,4.27831E-001,0,1.81368E+002,-6.68967E+000,9.92675E-001,1.44890E+002,-3.59251E+001,9.89779E-001,2.34693E-001,-9.77846E-002,-2.42507E-003,2.34711E-001,-9.78023E-002,-4.17882E-001,2.35795E-001,1.26412E+000,-3.24376E-002,0.00000E+000,1.85813E-002,9.08819E-001,0.00000E+000,2.35596E-003,-6.90989E-002,1.00000E+000,38
1099,1337,2.28642E+001,4.01156E-001,-1.15048E-001,1.19966E+001,-3.90462E-001,-1.28022E-001,1.20037E+001,2.25379E-002,4.48190E-001,0,1.81286E+002,-7.49779E+000,9.93765E-001,1.45077E+002,-3.66013E+001,9.93537E-001,2.35636E-001,-9.78086E-002,-2.61818E-003,2.35657E-001,-9.78291E-002,-4.49845E-001,2.36785E-001,1.26532E+000,-3.24011E-002,0.00000E+000,1.81915E-002,9.08808E-001,0.00000E+000,2.10341E-003,-6.91066E-002,1.00000E+000,38
1099,1347,2.28760E+001,9.96755E-001,-1.01781E-001,1.19820E+001,-4.49200E-001,-1.57662E-001,1.19915E+001,1.73609E-002,4.44701E-001,0,1.81161E+002,-8.39583E+000,9.96167E-001,1.45334E+002,-3.73915E+001,9.95782E-001,2.36580E-001,-9.78367E-002,-2.80735E-003,2.36603E-001,-9.78603E-002,-4.80941E-001,2.37778E-001,1.26651E+000,-3.23533E-002,0.00000E+000,1.78009E-002,9.08792E-001,0.00000E+000,1.85028E-003,-6.91167E-002,1.00000E+000,38
759,1347,-5.25483E+000,5.00638E-001,-6.14304E-003,6.05298E+000,-7.21774E-001,1.45356E-002,6.09588E+000,1.66534E-002,5.04118E-001,0,9.37423E+001,-1.21212E+001,9.94397E-001,4.96611E+001,-4.90536E+001,9.94159E-001,2.33308E-001,-9.96152E-002,-1.76150E-003,2.33318E-001,-9.96246E-002,-3.03141E-001,2.34145E-001,1.26276E+000,-7.65750E-003,0.00000E+000,2.48016E-003,9.08249E-001,0.00000E+000,-3.47040E-003,-8.23232E-002,1.00000E+000,38
759,1357,-5.23584E+000,1.09173E+000,1.22821E-002,6.04744E+000,-7.81567E-001,-3.26587E-002,6.09783E+000,1.80606E-002,5.30932E-001,0,9.37925E+001,-1.29802E+001,9.95094E-001,5.01154E+001,-4.99726E+001,9.94634E-001,2.33613E-001,-9.96506E-002,-2.16895E-003,2.33627E-001,-9.96647E-002,-3.72872E-001,2.34464E-001,1.26315E+000,-7.64286E-003,0.00000E+000,1.77379E-003,9.08222E-001,0.00000E+000,-4.24051E-003,-8.23522E-002,1.00000E+000,38
1099,1297,2.28800E+001,-1.94250E+000,9.49974E-002,1.20634E+001,-1.50728E-001,2.89828E-002,1.20644E+001,1.58390E-002,4.81030E-001,0,1.81663E+002,-3.92126E+000,9.96588E-001,1.45429E+002,-3.34178E+001,9.95406E-001,2.31878E-001,-9.77319E-002,-1.82919E-003,2.31888E-001,-9.77420E-002,-3.17953E-001,2.32838E-001,1.26057E+000,-3.24939E-002,0.00000E+000,1.97429E-002,9.08838E-001,0.00000E+000,3.10857E-003,-6.90870E-002,1.00000E+000,38
1099,1307,2.28739E+001,-1.36275E+000,1.46339E-002,1.20508E+001,-2.12853E-001,-1.26846E-002,1.20527E+001,1.86600E-002,4.49437E-001,0,1.81651E+002,-4.83738E+000,9.97268E-001,1.45266E+002,-3.42601E+001,9.96742E-001,2.32816E-001,-9.77470E-002,-2.03007E-003,2.32828E-001,-9.77595E-002,-3.51850E-001,2.33822E-001,1.26175E+000,-3.24818E-002,0.00000E+000,1.93564E-002,9.08834E-001,0.00000E+000,2.85815E-003,-6.90895E-002,1.00000E+000,38
1099,1317,2.28618E+001,-7.83776E-001,-6.50653E-002,1.20282E+001,-2.77966E-001,-6.97959E-002,1.20316E+001,2.42956E-002,4.45218E-001,0,1.81546E+002,-5.77923E+000,9.95365E-001,1.45009E+002,-3.51028E+001,9.93423E-001,2.33754E-001,-9.77647E-002,-2.22855E-003,2.33769E-001,-9.77797E-002,-3.85133E-001,2.34808E-001,1.26293E+000,-3.24627E-002,0.00000E+000,1.89692E-002,9.08828E-001,0.00000E+000,2.60731E-003,-6.90936E-002,1.00000E+000,38
759,1327,-5.29286E+000,-6.76272E-001,6.08114E-002,6.04443E+000,-6.12697E-001,1.10503E-001,6.07641E+000,1.97115E-002,5.26233E-001,0,9.33148E+001,-1.05997E+001,9.96178E-001,4.90069E+001,-4.73301E+001,9.96716E-001,2.32701E-001,-9.95689E-002,-9.47745E-004,2.32704E-001,-9.95716E-002,-1.63425E-001,2.33509E-001,1.26198E+000,-7.67512E-003,0.00000E+000,3.88328E-003,9.08281E-001,0.00000E+000,-1.94069E-003,-8.22884E-002,1.00000E+000,38
759,1337,-5.27362E+000,-8.68062E-002,1.56418E-002,6.05145E+000,-6.64625E-001,6.40862E-002,6.08818E+000,1.61867E-002,5.27660E-001,0,9.35680E+001,-1.13241E+001,9.94973E-001,4.93087E+001,-4.81439E+001,9.94973E-001,2.33005E-001,-9.95889E-002,-1.35476E-003,2.33011E-001,-9.95945E-002,-2.33379E-001,2.33827E-001,1.26237E+000,-7.66782E-003,0.00000E+000,3.18248E-003,9.08267E-001,0.00000E+000,-2.70472E-003,-8.23028E-002,1.00000E+000,38
759,1317,-5.29525E+000,-1.24350E+000,1.43334E-001,6.04907E+000,-5.44488E-001,1.67417E-001,6.07584E+000,2.45799E-002,5.54482E-001,0,9.31974E+001,-9.62891E+000,9.96720E-001,4.90601E+001,-4.62368E+001,9.96965E-001,2.32399E-001,-9.95552E-002,-5.42155E-004,2.32399E-001,-9.95561E-002,-9.35766E-002,2.33193E-001,1.26160E+000,-7.67934E-003,0.00000E+000,4.57957E-003,9.08288E-001,0.00000E+000,-1.18157E-003,-8.22800E-002,1.00000E+000,38
749,1317,-6.09842E+000,-1.24666E+000,1.61426E-001,5.88824E+000,-5.44382E-001,1.73921E-001,5.91591E+000,1.84064E-002,5.69298E-001,0,9.07561E+001,-9.62269E+000,9.96900E-001,4.67551E+001,-4.64242E+001,9.95924E-001,2.30863E-001,-9.90089E-002,-7.94505E-004,2.30865E-001,-9.90108E-002,-1.37997E-001,2.31642E-001,1.25966E+000,-7.69040E-003,0.00000E+000,4.12118E-003,9.08741E-001,0.00000E+000,-1.02343E-003,-8.16625E-002,1.00000E+000,38
749,1327,-6.09575E+000,-6.75549E-001,6.41360E-002,5.88549E+000,-6.07947E-001,1.10354E-001,5.91784E+000,1.56830E-002,5.22974E-001,0,9.09222E+001,-1.04879E+001,9.95546E-001,4.66700E+001,-4.74372E+001,9.95697E-001,2.30942E-001,-9.90174E-002,-1.09898E-003,2.30946E-001,-9.90211E-002,-1.90830E-001,2.31726E-001,1.25977E+000,-7.68954E-003,0.00000E+000,3.60467E-003,9.08737E-001,0.00000E+000,-1.64999E-003,-8.16678E-002,1.00000E+000,38
749,1337,-6.08634E+000,-8.93308E-002,1.64024E-002,5.88302E+000,-6.62086E-001,6.24243E-002,5.92048E+000,1.55858E-002,5.69359E-001,0,9.10336E+001,-1.12747E+001,9.95578E-001,4.68139E+001,-4.82764E+001,9.95651E-001,2.31022E-001,-9.90321E-002,-1.40467E-003,2.31028E-001,-9.90381E-002,-2.43839E-001,2.31810E-001,1.25987E+000,-7.68766E-003,0.00000E+000,3.08543E-003,9.08727E-001,0.00000E+000,-2.27987E-003,-8.16794E-002,1.00000E+000,38
749,1347,-6.07195E+000,4.94740E-001,-9.51731E-003,5.88101E+000,-7.21403E-001,1.24227E-002,5.92510E+000,1.74879E-002,5.14174E-001,0,9.11552E+001,-1.20946E+001,9.95788E-001,4.70889E+001,-4.92473E+001,9.95814E-001,2.31100E-001,-9.90509E-002,-1.71077E-003,2.31109E-001,-9.90598E-002,-2.96882E-001,2.31893E-001,1.25997E+000,-7.68508E-003,0.00000E+000,2.56506E-003,9.08714E-001,0.00000E+000,-2.91111E-003,-8.16954E-002,1.00000E+000,38
1109,1297,2.37104E+001,-1.92497E+000,8.91555E-002,1.22377E+001,-1.36123E-001,3.80174E-002,1.22385E+001,1.69008E-002,5.00104E-001,0,1.84098E+002,-3.75718E+000,9.95290E-001,1.48381E+002,-3.30244E+001,9.92747E-001,2.32963E-001,-9.84138E-002,-1.84133E-003,2.32973E-001,-9.84241E-002,-3.18356E-001,2.33905E-001,1.26198E+000,-3.07911E-002,0.00000E+000,1.83963E-002,9.08235E-001,0.00000E+000,4.16601E-003,-6.89142E-002,1.00000E+000,38
1109,1307,2.37012E+001,-1.34435E+000,1.48014E-003,1.22219E+001,-1.97299E-001,-1.07597E-002,1.22235E+001,1.96083E-002,4.24412E-001,0,1.84069E+002,-4.62638E+000,9.95915E-001,1.48158E+002,-3.38582E+001,9.95161E-001,2.33953E-001,-9.84255E-002,-1.99921E-003,2.33965E-001,-9.84375E-002,-3.44610E-001,2.34942E-001,1.26323E+000,-3.07783E-002,0.00000E+000,1.81061E-002,9.08232E-001,0.00000E+000,3.63989E-003,-6.89196E-002,1.00000E+000,38
1109,1317,2.36919E+001,-7.62520E-001,-6.43558E-002,1.22022E+001,-2.59891E-001,-5.32754E-002,1.22051E+001,2.28152E-002,4.13047E-001,0,1.83950E+002,-5.55521E+000,9.94052E-001,1.47967E+002,-3.46880E+001,9.92560E-001,2.34943E-001,-9.84392E-002,-2.15469E-003,2.34957E-001,-9.84531E-002,-3.70289E-001,2.35982E-001,1.26448E+000,-3.07583E-002,0.00000E+000,1.78151E-002,9.08227E-001,0.00000E+000,3.11243E-003,-6.89280E-002,1.00000E+000,38
749,1357,-6.04779E+000,1.08487E+000,1.64605E-002,5.88114E+000,-7.81362E-001,-2.57139E-002,5.93288E+000,2.10540E-002,5.22195E-001,0,9.12647E+001,-1.29728E+001,9.95726E-001,4.76435E+001,-5.02084E+001,9.95389E-001,2.31179E-001,-9.90769E-002,-2.01831E-003,2.31192E-001,-9.90892E-002,-3.50136E-001,2.31976E-001,1.26007E+000,-7.68129E-003,0.00000E+000,2.04147E-003,9.08695E-001,0.00000E+000,-3.54626E-003,-8.17188E-002,1.00000E+000,38
1109,1327,2.36848E+001,-1.79884E-001,-1.09768E-001,1.21798E+001,-3.24648E-001,-9.51224E-002,1.21845E+001,2.04552E-002,4.13513E-001,0,1.83780E+002,-6.52244E+000,9.92210E-001,1.47837E+002,-3.55441E+001,9.90603E-001,2.35935E-001,-9.84554E-002,-2.30705E-003,2.35951E-001,-9.84713E-002,-3.95274E-001,2.37023E-001,1.26574E+000,-3.07292E-002,0.00000E+000,1.75233E-002,9.08220E-001,0.00000E+000,2.58356E-003,-6.89403E-002,1.00000E+000,38
1109,1337,2.36865E+001,4.18629E-001,-1.27182E-001,1.21610E+001,-3.77891E-001,-1.30756E-001,1.21675E+001,2.13272E-002,4.59083E-001,0,1.83624E+002,-7.33243E+000,9.95517E-001,1.47890E+002,-3.61931E+001,9.95260E-001,2.36930E-001,-9.84745E-002,-2.45623E-003,2.36948E-001,-9.84925E-002,-4.19558E-001,2.38069E-001,1.26700E+000,-3.06898E-002,0.00000E+000,1.72303E-002,9.08211E-001,0.00000E+000,2.05224E-003,-6.89569E-002,1.00000E+000,38
1109,1347,2.37061E+001,1.01358E+000,-9.34186E-002,1.21505E+001,-4.39813E-001,-1.53811E-001,1.21595E+001,1.96532E-002,4.53012E-001,0,1.83530E+002,-8.28975E+000,9.96402E-001,1.48297E+002,-3.70375E+001,9.95192E-001,2.37927E-001,-9.84986E-002,-2.59917E-003,2.37947E-001,-9.85187E-002,-4.42622E-001,2.39117E-001,1.26826E+000,-3.06326E-002,0.00000E+000,1.69360E-002,9.08198E-001,0.00000E+000,1.51874E-003,-6.89811E-002,1.00000E+000,38
739,1337,-6.89488E+000,-1.04191E-001,1.73115E-002,5.71851E+000,-6.71185E-001,6.16615E-002,5.75809E+000,1.81366E-002,5.53574E-001,0,8.85568E+001,-1.13898E+001,9.95124E-001,4.43873E+001,-4.86276E+001,9.94960E-001,2.28924E-001,-9.81219E-002,-1.57568E-003,2.28932E-001,-9.81295E-002,-2.76038E-001,2.29708E-001,1.25723E+000,-7.81641E-003,0.00000E+000,2.85702E-003,9.09558E-001,0.00000E+000,-2.00079E-003,-8.17101E-002,1.00000E+000,38
739,1347,-6.88777E+000,4.84491E-001,-5.30995E-003,5.70967E+000,-7.25569E-001,1.65408E-002,5.75561E+000,1.37680E-002,5.39596E-001,0,8.85558E+001,-1.21610E+001,9.97564E-001,4.45604E+001,-4.95171E+001,9.97586E-001,2.28736E-001,-9.81417E-002,-1.91021E-003,2.28747E-001,-9.81529E-002,-3.34810E-001,2.29512E-001,1.25699E+000,-7.82218E-003,0.00000E+000,2.29654E-003,9.09545E-001,0.00000E+000,-2.70021E-003,-8.17273E-002,1.00000E+000,38
739,1357,-6.86374E+000,1.07897E+000,1.81925E-002,5.71026E+000,-7.80529E-001,-2.21119E-002,5.76340E+000,1.55683E-002,5.20372E-001,0,8.86725E+001,-1.29482E+001,9.96385E-001,4.51103E+001,-5.04212E+001,9.96790E-001,2.28545E-001,-9.81692E-002,-2.24770E-003,2.28561E-001,-9.81846E-002,-3.94153E-001,2.29315E-001,1.25676E+000,-7.83065E-003,0.00000E+000,1.73289E-003,9.09524E-001,0.00000E+000,-3.40359E-003,-8.17526E-002,1.00000E+000,38
739,1327,-6.90698E+000,-6.83423E-001,6.67117E-002,5.71814E+000,-6.10036E-001,1.11075E-001,5.75167E+000,1.69542E-002,4.89969E-001,0,8.83959E+001,-1.04926E+001,9.97280E-001,4.42073E+001,-4.76913E+001,9.97528E-001,2.29112E-001,-9.81063E-002,-1.24237E-003,2.29117E-001,-9.81110E-002,-2.17534E-001,2.29902E-001,1.25746E+000,-7.81216E-003,0.00000E+000,3.41652E-003,9.09569E-001,0.00000E+000,-1.30260E-003,-8.16974E-002,1.00000E+000,38
1119,1297,2.45361E+001,-1.90889E+000,7.98478E-002,1.24068E+001,-1.23163E-001,4.38671E-002,1.24075E+001,1.81141E-002,4.31922E-001,0,1.86467E+002,-3.56477E+000,9.97325E-001,1.51259E+002,-3.26905E+001,9.96411E-001,2.34390E-001,-9.83803E-002,-2.06114E-003,2.34403E-001,-9.83930E-002,-3.54866E-001,2.35407E-001,1.26382E+000,-2.94089E-002,0.00000E+000,1.69509E-002,9.08320E-001,0.00000E+000,4.44632E-003,-6.93178E-002,1.00000E+000,38
1119,1307,2.45291E+001,-1.32994E+000,9.69559E-004,1.23917E+001,-1.87134E-001,-1.75825E-003,1.23932E+001,1.70811E-002,4.05044E-001,0,1.86435E+002,-4.50694E+000,9.96971E-001,1.51082E+002,-3.35428E+001,9.96921E-001,2.35252E-001,-9.83877E-002,-2.15433E-003,2.35266E-001,-9.84016E-002,-3.69942E-001,2.36311E-001,1.26491E+000,-2.93955E-002,0.00000E+000,1.67954E-002,9.08318E-001,0.00000E+000,3.72928E-003,-6.93267E-002,1.00000E+000,38
1119,1317,2.45271E+001,-7.46784E-001,-6.80336E-002,1.23785E+001,-2.48645E-001,-5.05781E-002,1.23811E+001,1.85069E-002,4.01164E-001,0,1.86437E+002,-5.41764E+000,9.95488E-001,1.50999E+002,-3.43387E+001,9.95779E-001,2.36113E-001,-9.83962E-002,-2.24563E-003,2.36128E-001,-9.84112E-002,-3.84616E-001,2.37216E-001,1.26600E+000,-2.93767E-002,0.00000E+000,1.66398E-002,9.08315E-001,0.00000E+000,3.01118E-003,-6.93391E-002,1.00000E+000,38
1119,1327,2.45216E+001,-1.61315E-001,-1.10677E-001,1.23570E+001,-3.11010E-001,-9.27238E-002,1.23612E+001,1.70794E-002,4.00603E-001,0,1.86280E+002,-6.35145E+000,9.95271E-001,1.50901E+002,-3.51555E+001,9.95553E-001,2.36976E-001,-9.84062E-002,-2.33416E-003,2.36992E-001,-9.84225E-002,-3.98735E-001,2.38123E-001,1.26709E+000,-2.93499E-002,0.00000E+000,1.64836E-002,9.08311E-001,0.00000E+000,2.29090E-003,-6.93568E-002,1.00000E+000,38
1119,1337,2.45230E+001,4.28283E-001,-1.26721E-001,1.23369E+001,-3.74097E-001,-1.29558E-001,1.23433E+001,1.52248E-002,4.57058E-001,0,1.86115E+002,-7.31064E+000,9.97572E-001,1.50948E+002,-3.59390E+001,9.96894E-001,2.37842E-001,-9.84180E-002,-2.41988E-003,2.37860E-001,-9.84354E-002,-4.12298E-001,2.39034E-001,1.26818E+000,-2.93145E-002,0.00000E+000,1.63266E-002,9.08306E-001,0.00000E+000,1.56669E-003,-6.93802E-002,1.00000E+000,38
1119,1347,2.45375E+001,1.02152E+000,-1.00385E-001,1.23220E+001,-4.37064E-001,-1.57129E-001,1.23307E+001,2.21418E-002,4.16179E-001,0,1.85974E+002,-8.26419E+000,9.97249E-001,1.51262E+002,-3.68098E+001,9.96117E-001,2.38709E-001,-9.84325E-002,-2.50071E-003,2.38728E-001,-9.84510E-002,-4.24953E-001,2.39946E-001,1.26928E+000,-2.92657E-002,0.00000E+000,1.61693E-002,9.08299E-001,0.00000E+000,8.40822E-004,-6.94124E-002,1.00000E+000,38
739,1317,-6.90348E+000,-1.25054E+000,1.56616E-001,5.72672E+000,-5.43226E-001,1.65753E-001,5.75481E+000,2.03775E-002,5.55834E-001,0,8.83474E+001,-9.56355E+000,9.97135E-001,4.43704E+001,-4.65887E+001,9.96635E-001,2.29297E-001,-9.80974E-002,-9.12078E-004,2.29300E-001,-9.80999E-002,-1.59617E-001,2.30095E-001,1.25769E+000,-7.81031E-003,0.00000E+000,3.97252E-003,9.09573E-001,0.00000E+000,-6.08772E-004,-8.16919E-002,1.00000E+000,38
1129,1297,2.53593E+001,-1.88334E+000,7.99244E-002,1.25718E+001,-1.01299E-001,5.42936E-002,1.25723E+001,1.80614E-002,4.02888E-001,0,1.88743E+002,-3.26661E+000,9.98286E-001,1.54114E+002,-3.22104E+001,9.97462E-001,2.35465E-001,-9.85607E-002,-2.41568E-003,2.35482E-001,-9.85782E-002,-4.14336E-001,2.36519E-001,1.26521E+000,-2.81744E-002,0.00000E+000,1.54135E-002,9.08210E-001,0.00000E+000,4.01370E-003,-6.96940E-002,1.00000E+000,38
1129,1307,2.53515E+001,-1.31746E+000,-1.17083E-002,1.25558E+001,-1.78486E-001,-4.79520E-003,1.25570E+001,2.44665E-002,3.61987E-001,0,1.88759E+002,-4.37918E+000,9.97852E-001,1.53909E+002,-3.32438E+001,9.95072E-001,2.36355E-001,-9.85621E-002,-2.42251E-003,2.36372E-001,-9.85797E-002,-4.14400E-001,2.37454E-001,1.26633E+000,-2.81600E-002,0.00000E+000,1.54256E-002,9.08210E-001,0.00000E+000,3.16653E-003,-6.97049E-002,1.00000E+000,38
1129,1317,2.53561E+001,-7.37275E-001,-7.48467E-002,1.25485E+001,-2.43381E-001,-4.93257E-002,1.25510E+001,1.46508E-002,3.82607E-001,0,1.88835E+002,-5.36496E+000,9.97798E-001,1.53936E+002,-3.40838E+001,9.96037E-001,2.37245E-001,-9.85638E-002,-2.42713E-003,2.37263E-001,-9.85813E-002,-4.14089E-001,2.38390E-001,1.26746E+000,-2.81398E-002,0.00000E+000,1.54376E-002,9.08210E-001,0.00000E+000,2.31779E-003,-6.97201E-002,1.00000E+000,38
729,1347,-7.68195E+000,4.67075E-001,8.03572E-003,5.55840E+000,-7.38322E-001,2.36697E-002,5.60727E+000,1.25065E-002,5.49021E-001,0,8.62548E+001,-1.23549E+001,9.98550E-001,4.23920E+001,-4.99223E+001,9.98257E-001,2.26320E-001,-9.73986E-002,-1.73679E-003,2.26330E-001,-9.74079E-002,-3.07387E-001,2.27060E-001,1.25396E+000,-7.21587E-003,0.00000E+000,2.20149E-003,9.10159E-001,0.00000E+000,-2.79790E-003,-8.08875E-002,1.00000E+000,38
729,1357,-7.66797E+000,1.06994E+000,2.02490E-002,5.55028E+000,-7.83962E-001,-2.01690E-002,5.60541E+000,1.48893E-002,5.33935E-001,0,8.62509E+001,-1.29830E+001,9.97115E-001,4.27629E+001,-5.06740E+001,9.97553E-001,2.25803E-001,-9.74186E-002,-2.00467E-003,2.25816E-001,-9.74310E-002,-3.55338E-001,2.26522E-001,1.25332E+000,-7.23766E-003,0.00000E+000,1.79794E-003,9.10145E-001,0.00000E+000,-3.78687E-003,-8.09210E-002,1.00000E+000,38
1129,1327,2.53572E+001,-1.47539E-001,-1.13570E-001,1.25340E+001,-3.00834E-001,-8.53400E-002,1.25379E+001,1.82590E-002,3.90199E-001,0,1.88758E+002,-6.25104E+000,9.97359E-001,1.53946E+002,-3.48363E+001,9.96768E-001,2.38136E-001,-9.85657E-002,-2.42926E-003,2.38153E-001,-9.85832E-002,-4.13353E-001,2.39326E-001,1.26858E+000,-2.81129E-002,0.00000E+000,1.54497E-002,9.08210E-001,0.00000E+000,1.46754E-003,-6.97404E-002,1.00000E+000,38
729,1337,-7.70216E+000,-1.10865E-001,2.75828E-002,5.55518E+000,-6.71908E-001,7.19666E-002,5.59613E+000,1.65134E-002,5.47547E-001,0,8.60584E+001,-1.14034E+001,9.96371E-001,4.20112E+001,-4.88681E+001,9.96036E-001,2.26834E-001,-9.73826E-002,-1.47186E-003,2.26841E-001,-9.73893E-002,-2.60101E-001,2.27595E-001,1.25460E+000,-7.19909E-003,0.00000E+000,2.60362E-003,9.10169E-001,0.00000E+000,-1.81239E-003,-8.08617E-002,1.00000E+000,38
729,1327,-7.71193E+000,-6.88614E-001,7.45081E-002,5.55615E+000,-6.11227E-001,1.14306E-001,5.59084E+000,1.69051E-002,5.20998E-001,0,8.59399E+001,-1.05004E+001,9.96101E-001,4.18605E+001,-4.78828E+001,9.96236E-001,2.27344E-001,-9.73716E-002,-1.21085E-003,2.27349E-001,-9.73761E-002,-2.13649E-001,2.28126E-001,1.25524E+000,-7.18846E-003,0.00000E+000,3.00350E-003,9.10176E-001,0.00000E+000,-8.32418E-004,-8.08454E-002,1.00000E+000,38
1129,1337,2.53723E+001,4.43167E-001,-1.11095E-001,1.25218E+001,-3.67757E-001,-1.27189E-001,1.25278E+001,2.13733E-002,4.71073E-001,0,1.88721E+002,-7.25224E+000,9.96479E-001,1.54232E+002,-3.56280E+001,9.96587E-001,2.39035E-001,-9.85683E-002,-2.42387E-003,2.39052E-001,-9.85857E-002,-4.11335E-001,2.40272E-001,1.26972E+000,-2.80661E-002,0.00000E+000,1.54619E-002,9.08211E-001,0.00000E+000,6.07284E-004,-6.97758E-002,1.00000E+000,38
729,1317,-7.71299E+000,-1.25990E+000,1.50952E-001,5.56153E+000,-5.47062E-001,1.63113E-001,5.59075E+000,1.84088E-002,5.45213E-001,0,8.58639E+001,-9.58905E+000,9.96486E-001,4.19193E+001,-4.68351E+001,9.95937E-001,2.27851E-001,-9.73638E-002,-9.52081E-004,2.27854E-001,-9.73666E-002,-1.67734E-001,2.28655E-001,1.25588E+000,-7.18206E-003,0.00000E+000,3.40252E-003,9.10180E-001,0.00000E+000,1.45448E-004,-8.08356E-002,1.00000E+000,38
1129,1347,2.53761E+001,1.04293E+000,-1.01429E-001,1.24987E+001,-4.22904E-001,-1.59828E-001,1.25069E+001,2.49865E-002,4.74755E-001,0,1.88482E+002,-8.09415E+000,9.95691E-001,1.54352E+002,-3.63382E+001,9.94662E-001,2.39928E-001,-9.85710E-002,-2.41891E-003,2.39946E-001,-9.85882E-002,-4.09407E-001,2.41213E-001,1.27086E+000,-2.80202E-002,0.00000E+000,1.54741E-002,9.08211E-001,0.00000E+000,-2.49555E-004,-6.98104E-002,1.00000E+000,38
719,1347,-8.49357E+000,4.69694E-001,9.16933E-003,5.39073E+000,-7.29565E-001,2.62985E-002,5.43994E+000,1.88006E-002,5.44262E-001,0,8.37060E+001,-1.21998E+001,9.96995E-001,3.99351E+001,-5.00021E+001,9.96989E-001,2.24406E-001,-9.69479E-002,-1.56832E-003,2.24414E-001,-9.69556E-002,-2.79615E-001,2.25104E-001,1.25157E+000,-6.23048E-003,0.00000E+000,1.79439E-003,9.10450E-001,0.00000E+000,-2.60031E-003,-7.92403E-002,1.00000E+000,38
719,1357,-8.48302E+000,1.05939E+000,2.25819E-002,5.37953E+000,-7.88656E-001,-1.55041E-002,5.43706E+000,1.66640E-002,5.40290E-001,0,8.36517E+001,-1.30370E+001,9.97162E-001,4.02557E+001,-5.09559E+001,9.97244E-001,2.23600E-001,-9.69600E-002,-1.74342E-003,2.23609E-001,-9.69695E-002,-3.11601E-001,2.24264E-001,1.25056E+000,-6.26392E-003,0.00000E+000,1.58950E-003,9.10443E-001,0.00000E+000,-3.85882E-003,-7.92822E-002,1.00000E+000,38
719,1337,-8.51086E+000,-1.11576E-001,3.11319E-002,5.38948E+000,-6.67692E-001,7.27536E-002,5.43116E+000,2.11454E-002,5.66024E-001,0,8.35467E+001,-1.13216E+001,9.94568E-001,3.96033E+001,-4.89905E+001,9.93341E-001,2.25206E-001,-9.69387E-002,-1.39766E-003,2.25212E-001,-9.69448E-002,-2.48577E-001,2.25937E-001,1.25257E+000,-6.20582E-003,0.00000E+000,1.99816E-003,9.10455E-001,0.00000E+000,-1.34869E-003,-7.92094E-002,1.00000E+000,38
719,1327,-8.51568E+000,-6.89231E-001,7.88457E-002,5.39498E+000,-6.07457E-001,1.14226E-001,5.43028E+000,1.52572E-002,5.62137E-001,0,8.35017E+001,-1.04348E+001,9.94461E-001,3.95301E+001,-4.79913E+001,9.93885E-001,2.26000E-001,-9.69323E-002,-1.23129E-003,2.26004E-001,-9.69370E-002,-2.18455E-001,2.26764E-001,1.25356E+000,-6.18990E-003,0.00000E+000,2.20093E-003,9.10458E-001,0.00000E+000,-1.03205E-004,-7.91894E-002,1.00000E+000,38
719,1317,-8.51915E+000,-1.26267E+000,1.64737E-001,5.39682E+000,-5.45989E-001,1.66708E-001,5.42693E+000,2.00410E-002,5.37639E-001,0,8.33609E+001,-9.55645E+000,9.94193E-001,3.95763E+001,-4.70194E+001,9.93346E-001,2.26790E-001,-9.69283E-002,-1.06825E-003,2.26793E-001,-9.69319E-002,-1.89070E-001,2.27589E-001,1.25455E+000,-6.18166E-003,0.00000E+000,2.40335E-003,9.10460E-001,0.00000E+000,1.14011E-003,-7.91791E-002,1.00000E+000,38
1139,1297,2.62092E+001,-1.87524E+000,8.25781E-002,1.27616E+001,-9.65573E-002,6.14578E-002,1.27621E+001,1.15028E-002,3.46694E-001,0,1.91403E+002,-3.23184E+000,9.98997E-001,1.57395E+002,-3.20176E+001,9.98411E-001,2.36340E-001,-9.88353E-002,-2.69274E-003,2.36362E-001,-9.88569E-002,-4.60264E-001,2.37413E-001,1.26634E+000,-2.68951E-002,0.00000E+000,1.40366E-002,9.08023E-001,0.00000E+000,2.86837E-003,-7.02862E-002,1.00000E+000,38
1139,1307,2.61967E+001,-1.31160E+000,-2.51375E-002,1.27419E+001,-1.76028E-001,-8.97445E-003,1.27432E+001,1.68461E-002,2.98851E-001,0,1.91415E+002,-4.34467E+000,9.98334E-001,1.57094E+002,-3.30536E+001,9.97155E-001,2.37357E-001,-9.88334E-002,-2.64714E-003,2.37378E-001,-9.88542E-002,-4.51107E-001,2.38480E-001,1.26762E+000,-2.68808E-002,0.00000E+000,1.41424E-002,9.08024E-001,0.00000E+000,2.05174E-003,-7.02953E-002,1.00000E+000,38
1139,1337,2.62042E+001,4.67984E-001,-1.18268E-001,1.26924E+001,-3.48869E-001,-1.32354E-001,1.26979E+001,2.11545E-002,4.90759E-001,0,1.91143E+002,-6.99245E+000,9.95298E-001,1.57216E+002,-3.51119E+001,9.94485E-001,2.40419E-001,-9.88243E-002,-2.48330E-003,2.40437E-001,-9.88425E-002,-4.19381E-001,2.41701E-001,1.27151E+000,-2.67689E-002,0.00000E+000,1.44620E-002,9.08034E-001,0.00000E+000,-4.16808E-004,-7.03665E-002,1.00000E+000,38
1139,1347,2.62252E+001,1.05949E+000,-8.97373E-002,1.26823E+001,-4.15433E-001,-1.62607E-001,1.26902E+001,2.18197E-002,5.10364E-001,0,1.91085E+002,-8.01711E+000,9.94847E-001,1.57629E+002,-3.59807E+001,9.93701E-001,2.41443E-001,-9.88202E-002,-2.41954E-003,2.41460E-001,-9.88374E-002,-4.07391E-001,2.42780E-001,1.27281E+000,-2.67080E-002,0.00000E+000,1.45692E-002,9.08039E-001,0.00000E+000,-1.24522E-003,-7.04052E-002,1.00000E+000,38
1139,1327,2.62001E+001,-1.33534E-001,-1.20120E-001,1.27157E+001,-2.94294E-001,-9.07253E-002,1.27194E+001,2.06122E-002,4.30195E-001,0,1.91348E+002,-6.16555E+000,9.96361E-001,1.57103E+002,-3.44795E+001,9.94594E-001,2.39395E-001,-9.88281E-002,-2.54427E-003,2.39414E-001,-9.88473E-002,-4.30973E-001,2.40623E-001,1.27021E+000,-2.68224E-002,0.00000E+000,1.43549E-002,9.08029E-001,0.00000E+000,4.10246E-004,-7.03325E-002,1.00000E+000,38
1139,1317,2.61873E+001,-7.28227E-001,-8.95193E-002,1.27218E+001,-2.38056E-001,-5.02947E-002,1.27242E+001,1.72415E-002,3.66237E-001,0,1.91288E+002,-5.30419E+000,9.98529E-001,1.56901E+002,-3.38177E+001,9.96915E-001,2.38374E-001,-9.88311E-002,-2.59886E-003,2.38394E-001,-9.88512E-002,-4.41547E-001,2.39549E-001,1.26891E+000,-2.68596E-002,0.00000E+000,1.42483E-002,9.08026E-001,0.00000E+000,1.23327E-003,-7.03088E-002,1.00000E+000,38
709,1347,-9.31179E+000,4.70764E-001,3.09398E-003,5.21613E+000,-7.22270E-001,2.20783E-002,5.26595E+000,1.78799E-002,5.48426E-001,0,8.10671E+001,-1.20564E+001,9.96311E-001,3.73640E+001,-5.00868E+001,9.96368E-001,2.22594E-001,-9.55271E-002,-1.73530E-003,2.22604E-001,-9.55366E-002,-3.12526E-001,2.23347E-001,1.24931E+000,-5.34562E-003,0.00000E+000,8.38029E-004,9.11661E-001,0.00000E+000,-2.38483E-003,-7.80522E-002,1.00000E+000,38
709,1357,-9.29493E+000,1.06191E+000,1.48478E-002,5.21202E+000,-7.78359E-001,-1.83452E-002,5.26985E+000,1.72790E-002,5.36055E-001,0,8.11174E+001,-1.28600E+001,9.97110E-001,3.77795E+001,-5.10199E+001,9.97286E-001,2.21672E-001,-9.55463E-002,-2.02212E-003,2.21685E-001,-9.55592E-002,-3.65213E-001,2.22386E-001,1.24816E+000,-5.38242E-003,0.00000E+000,4.30332E-004,9.11648E-001,0.00000E+000,-3.68211E-003,-7.80938E-002,1.00000E+000,38
709,1337,-9.31233E+000,-1.20737E-001,3.22179E-002,5.23000E+000,-6.71956E-001,6.76904E-002,5.27342E+000,1.68167E-002,5.30351E-001,0,8.11472E+001,-1.13399E+001,9.95920E-001,3.73047E+001,-4.92638E+001,9.95234E-001,2.23509E-001,-9.55134E-002,-1.45439E-003,2.23516E-001,-9.55200E-002,-2.61198E-001,2.24301E-001,1.25045E+000,-5.32030E-003,0.00000E+000,1.24384E-003,9.11670E-001,0.00000E+000,-1.09354E-003,-7.80235E-002,1.00000E+000,38
709,1317,-9.31922E+000,-1.26389E+000,1.82584E-001,5.23699E+000,-5.44311E-001,1.69852E-001,5.26794E+000,2.09697E-002,5.44516E-001,0,8.09300E+001,-9.51675E+000,9.96217E-001,3.73440E+001,-4.71808E+001,9.96226E-001,2.25321E-001,-9.54980E-002,-9.06177E-004,2.25324E-001,-9.55006E-002,-1.61834E-001,2.26193E-001,1.25272E+000,-5.29578E-003,0.00000E+000,2.05086E-003,9.11679E-001,0.00000E+000,1.47438E-003,-7.79958E-002,1.00000E+000,38
709,1327,-9.31317E+000,-6.93373E-001,9.08737E-002,5.23729E+000,-6.08314E-001,1.08809E-001,5.27362E+000,2.31147E-002,5.61531E-001,0,8.11286E+001,-1.04210E+001,9.96444E-001,3.73210E+001,-4.81910E+001,9.95668E-001,2.24417E-001,-9.55047E-002,-1.17924E-003,2.24421E-001,-9.55091E-002,-2.11189E-001,2.25248E-001,1.25158E+000,-5.30595E-003,0.00000E+000,1.64763E-003,9.11675E-001,0.00000E+000,1.91294E-004,-7.80073E-002,1.00000E+000,38
1149,1297,2.70418E+001,-1.86921E+000,6.46878E-002,1.29357E+001,-9.52707E-002,5.60261E-002,1.29361E+001,2.87079E-002,3.80894E-001,0,1.93879E+002,-3.22796E+000,9.97271E-001,1.60382E+002,-3.17703E+001,9.94499E-001,2.37041E-001,-9.89987E-002,-2.92938E-003,2.37067E-001,-9.90242E-002,-4.99417E-001,2.38135E-001,1.26725E+000,-2.56881E-002,0.00000E+000,1.28106E-002,9.07952E-001,0.00000E+000,1.45619E-003,-7.11595E-002,1.00000E+000,38
1149,1307,2.70489E+001,-1.28363E+000,-1.54500E-002,1.29342E+001,-1.52795E-001,8.16050E-003,1.29351E+001,1.86058E-002,3.55375E-001,0,1.94060E+002,-4.08120E+000,9.97839E-001,1.60426E+002,-3.25093E+001,9.96360E-001,2.38200E-001,-9.89971E-002,-2.88666E-003,2.38225E-001,-9.90218E-002,-4.90447E-001,2.39352E-001,1.26871E+000,-2.56689E-002,0.00000E+000,1.29015E-002,9.07953E-001,0.00000E+000,7.15106E-004,-7.11693E-002,1.00000E+000,38
1149,1317,2.70433E+001,-7.02766E-001,-8.01189E-002,1.29157E+001,-2.19063E-001,-4.20892E-002,1.29176E+001,1.72310E-002,3.88888E-001,0,1.93993E+002,-5.06703E+000,9.97629E-001,1.60293E+002,-3.33268E+001,9.96007E-001,2.39362E-001,-9.89951E-002,-2.83998E-003,2.39386E-001,-9.90190E-002,-4.80864E-001,2.40573E-001,1.27019E+000,-2.56396E-002,0.00000E+000,1.29928E-002,9.07955E-001,0.00000E+000,-2.94174E-005,-7.11840E-002,1.00000E+000,38
1149,1327,2.70367E+001,-1.09262E-001,-1.25522E-001,1.28917E+001,-2.73598E-001,-9.08432E-002,1.28949E+001,1.90027E-002,3.67258E-001,0,1.93825E+002,-5.87417E+000,9.96957E-001,1.60172E+002,-3.40183E+001,9.94973E-001,2.40522E-001,-9.89928E-002,-2.78963E-003,2.40545E-001,-9.90158E-002,-4.70730E-001,2.41794E-001,1.27166E+000,-2.56005E-002,0.00000E+000,1.30840E-002,9.07957E-001,0.00000E+000,-7.73799E-004,-7.12038E-002,1.00000E+000,38
1149,1337,2.70483E+001,4.75718E-001,-1.33477E-001,1.28774E+001,-3.46058E-001,-1.35573E-001,1.28827E+001,2.83932E-002,4.84980E-001,0,1.93776E+002,-6.96629E+000,9.96495E-001,1.60384E+002,-3.48545E+001,9.95847E-001,2.41693E-001,-9.89899E-002,-2.73171E-003,2.41715E-001,-9.90118E-002,-4.59377E-001,2.43028E-001,1.27315E+000,-2.55425E-002,0.00000E+000,1.31764E-002,9.07961E-001,0.00000E+000,-1.52676E-003,-7.12331E-002,1.00000E+000,38
1149,1347,2.70762E+001,1.07018E+000,-9.09221E-002,1.28701E+001,-4.12800E-001,-1.66905E-001,1.28778E+001,2.57357E-002,4.95368E-001,0,1.93759E+002,-7.97726E+000,9.96893E-001,1.60922E+002,-3.57106E+001,9.96039E-001,2.42865E-001,-9.89862E-002,-2.66593E-003,2.42886E-001,-9.90070E-002,-4.46786E-001,2.44263E-001,1.27465E+000,-2.54639E-002,0.00000E+000,1.32689E-002,9.07966E-001,0.00000E+000,-2.28157E-003,-7.12727E-002,1.00000E+000,38
699,1347,-1.01024E+001,4.64261E-001,1.76948E-002,5.06732E+000,-7.25008E-001,3.07949E-002,5.11902E+000,1.87530E-002,5.71851E-001,0,7.87865E+001,-1.20915E+001,9.97334E-001,3.52746E+001,-5.03198E+001,9.97300E-001,2.20617E-001,-9.42867E-002,-1.52679E-003,2.20624E-001,-9.42941E-002,-2.77787E-001,2.21398E-001,1.24684E+000,-3.69027E-003,0.00000E+000,8.42585E-006,9.12700E-001,0.00000E+000,-2.12440E-003,-7.67408E-002,1.00000E+000,38
699,1357,-1.00892E+001,1.04743E+000,3.18473E-002,5.06004E+000,-7.88583E-001,-5.49366E-003,5.12112E+000,1.87055E-002,5.62646E-001,0,7.87773E+001,-1.30223E+001,9.97126E-001,3.56403E+001,-5.13820E+001,9.96954E-001,2.19671E-001,-9.43031E-002,-1.78711E-003,2.19681E-001,-9.43132E-002,-3.26108E-001,2.20411E-001,1.24567E+000,-3.72704E-003,0.00000E+000,-3.64554E-004,9.12689E-001,0.00000E+000,-3.25798E-003,-7.67763E-002,1.00000E+000,38
699,1337,-1.01167E+001,-1.32512E-001,3.82599E-002,5.06744E+000,-6.78807E-001,6.88707E-002,5.11316E+000,1.37431E-002,5.39397E-001,0,7.86784E+001,-1.14327E+001,9.97310E-001,3.49789E+001,-4.95664E+001,9.97398E-001,2.21559E-001,-9.42748E-002,-1.27140E-003,2.21564E-001,-9.42799E-002,-2.30641E-001,2.22382E-001,1.24802E+000,-3.66420E-003,0.00000E+000,3.80514E-004,9.12708E-001,0.00000E+000,-9.93522E-004,-7.67157E-002,1.00000E+000,38
699,1317,-1.01271E+001,-1.26527E+000,1.98480E-001,5.06857E+000,-5.43863E-001,1.68838E-001,5.10046E+000,1.94261E-002,5.95052E-001,0,7.83752E+001,-9.49689E+000,9.97336E-001,3.49932E+001,-4.73201E+001,9.97363E-001,2.23418E-001,-9.42639E-002,-7.77647E-004,2.23420E-001,-9.42658E-002,-1.40252E-001,2.24326E-001,1.25034E+000,-3.64334E-003,0.00000E+000,1.11786E-003,9.12715E-001,0.00000E+000,1.24747E-003,-7.66955E-002,1.00000E+000,38
699,1327,-1.01217E+001,-6.95445E-001,1.00279E-001,5.06992E+000,-6.08552E-001,1.10430E-001,5.10750E+000,1.48945E-002,6.66500E-001,0,7.85824E+001,-1.04215E+001,9.97469E-001,3.49419E+001,-4.83021E+001,9.96518E-001,2.22487E-001,-9.42681E-002,-1.02379E-003,2.22491E-001,-9.42714E-002,-1.85184E-001,2.23352E-001,1.24918E+000,-3.65071E-003,0.00000E+000,7.48421E-004,9.12713E-001,0.00000E+000,1.24646E-004,-7.67026E-002,1.00000E+000,38
1159,1307,2.78753E+001,-1.27737E+000,-4.49996E-002,1.31015E+001,-1.50627E-001,-9.06089E-003,1.31024E+001,2.26848E-002,4.01367E-001,0,1.96482E+002,-4.05817E+000,9.93748E-001,1.63306E+002,-3.22262E+001,9.91898E-001,2.39090E-001,-9.94596E-002,-2.96998E-003,2.39116E-001,-9.94857E-002,-5.02585E-001,2.40237E-001,1.26987E+000,-2.45322E-002,0.00000E+000,1.20069E-002,9.07585E-001,0.00000E+000,-6.97714E-004,-7.17598E-002,1.00000E+000,38
1159,1317,2.78817E+001,-6.83892E-001,-9.41464E-002,1.30948E+001,-2.05119E-001,-4.38852E-002,1.30965E+001,2.35773E-002,4.27796E-001,0,1.96522E+002,-4.88627E+000,9.94393E-001,1.63382E+002,-3.28815E+001,9.94746E-001,2.40352E-001,-9.94643E-002,-3.01003E-003,2.40379E-001,-9.94910E-002,-5.07462E-001,2.41564E-001,1.27147E+000,-2.45000E-002,0.00000E+000,1.19387E-002,9.07584E-001,0.00000E+000,-1.49132E-003,-7.17757E-002,1.00000E+000,38
1159,1327,2.78930E+001,-9.65863E-002,-1.14392E-001,1.30862E+001,-2.68568E-001,-7.68363E-002,1.30892E+001,1.64729E-002,4.15302E-001,0,1.96518E+002,-5.85424E+000,9.97240E-001,1.63572E+002,-3.37159E+001,9.96550E-001,2.41615E-001,-9.94703E-002,-3.04395E-003,2.41642E-001,-9.94975E-002,-5.11271E-001,2.42893E-001,1.27308E+000,-2.44514E-002,0.00000E+000,1.18704E-002,9.07582E-001,0.00000E+000,-2.28646E-003,-7.17998E-002,1.00000E+000,38
1159,1297,2.78763E+001,-1.85660E+000,3.59503E-002,1.31118E+001,-8.68186E-002,4.26365E-002,1.31121E+001,2.13743E-002,4.29428E-001,0,1.96413E+002,-3.10810E+000,9.95571E-001,1.63388E+002,-3.13904E+001,9.91009E-001,2.37833E-001,-9.94557E-002,-2.92674E-003,2.37858E-001,-9.94811E-002,-4.97119E-001,2.38916E-001,1.26827E+000,-2.45551E-002,0.00000E+000,1.20746E-002,9.07586E-001,0.00000E+000,9.09068E-005,-7.17485E-002,1.00000E+000,38
1159,1337,2.79171E+001,4.88399E-001,-1.05798E-001,1.30807E+001,-3.41511E-001,-1.18910E-001,1.30857E+001,2.18055E-002,4.44169E-001,0,1.96585E+002,-6.94519E+000,9.98690E-001,1.64001E+002,-3.46303E+001,9.98495E-001,2.42885E-001,-9.94782E-002,-3.06944E-003,2.42912E-001,-9.95057E-002,-5.13628E-001,2.44231E-001,1.27470E+000,-2.43795E-002,0.00000E+000,1.18015E-002,9.07579E-001,0.00000E+000,-3.08775E-003,-7.18353E-002,1.00000E+000,38
1159,1347,2.79319E+001,1.08438E+000,-8.55140E-002,1.30629E+001,-4.03894E-001,-1.61703E-001,1.30701E+001,2.23951E-002,4.25726E-001,0,1.96461E+002,-7.87263E+000,9.97598E-001,1.64300E+002,-3.54280E+001,9.97053E-001,2.44151E-001,-9.94866E-002,-3.09218E-003,2.44179E-001,-9.95144E-002,-5.15513E-001,2.45567E-001,1.27632E+000,-2.43002E-002,0.00000E+000,1.17327E-002,9.07576E-001,0.00000E+000,-3.88870E-003,-7.18745E-002,1.00000E+000,38
689,1347,-1.09017E+001,4.50439E-001,1.65161E-002,4.90893E+000,-7.35178E-001,2.12319E-002,4.96372E+000,1.56510E-002,5.83315E-001,0,7.64102E+001,-1.21983E+001,9.98035E-001,3.30146E+001,-5.06385E+001,9.97457E-001,2.18492E-001,-9.31934E-002,-1.50130E-003,2.18500E-001,-9.32006E-002,-2.75969E-001,2.19284E-001,1.24420E+000,-2.33715E-003,0.00000E+000,-9.27223E-004,9.13642E-001,0.00000E+000,-2.12124E-003,-7.59390E-002,1.00000E+000,38
689,1357,-1.08930E+001,1.03139E+000,1.84747E-002,4.89948E+000,-7.98480E-001,-1.54908E-002,4.96414E+000,1.76338E-002,5.48730E-001,0,7.63701E+001,-1.31188E+001,9.97519E-001,3.32807E+001,-5.17230E+001,9.97615E-001,2.17298E-001,-9.32097E-002,-1.80190E-003,2.17308E-001,-9.32202E-002,-3.32478E-001,2.18038E-001,1.24272E+000,-2.37838E-003,0.00000E+000,-1.38233E-003,9.13630E-001,0.00000E+000,-3.11905E-003,-7.59667E-002,1.00000E+000,38
689,1337,-1.09084E+001,-1.23340E-001,4.29451E-002,4.91751E+000,-6.64565E-001,7.04774E-002,4.96271E+000,1.69230E-002,5.49681E-001,0,7.63947E+001,-1.11979E+001,9.98254E-001,3.28550E+001,-4.95416E+001,9.98292E-001,2.19687E-001,-9.31794E-002,-1.20279E-003,2.19692E-001,-9.31840E-002,-2.20265E-001,2.20533E-001,1.24569E+000,-2.30226E-003,0.00000E+000,-4.71231E-004,9.13653E-001,0.00000E+000,-1.12149E-003,-7.59155E-002,1.00000E+000,38
1169,1327,2.87302E+001,-8.63088E-002,-1.21514E-001,1.32617E+001,-2.63924E-001,-7.89413E-002,1.32646E+001,1.56546E-002,4.32895E-001,0,1.98991E+002,-5.81390E+000,9.98056E-001,1.66655E+002,-3.34285E+001,9.97649E-001,2.42347E-001,-9.98380E-002,-3.01900E-003,2.42373E-001,-9.98647E-002,-5.05452E-001,2.43621E-001,1.27404E+000,-2.32571E-002,0.00000E+000,1.11516E-002,9.07285E-001,0.00000E+000,-3.79990E-003,-7.22105E-002,1.00000E+000,38
1169,1337,2.87577E+001,5.10122E-001,-1.02818E-001,1.32576E+001,-3.25744E-001,-1.18343E-001,1.32622E+001,1.94103E-002,4.33254E-001,0,1.99060E+002,-6.74271E+000,9.98575E-001,1.67149E+002,-3.41996E+001,9.98076E-001,2.43590E-001,-9.98504E-002,-3.07706E-003,2.43618E-001,-9.98780E-002,-5.13287E-001,2.44931E-001,1.27563E+000,-2.31816E-002,0.00000E+000,1.10231E-002,9.07279E-001,0.00000E+000,-4.61908E-003,-7.22494E-002,1.00000E+000,38
1169,1347,2.87863E+001,1.10115E+000,-7.27523E-002,1.32515E+001,-3.94736E-001,-1.58842E-001,1.32583E+001,1.96913E-002,4.10431E-001,0,1.99100E+002,-7.77195E+000,9.97138E-001,1.67674E+002,-3.50952E+001,9.97010E-001,2.44834E-001,-9.98637E-002,-3.13253E-003,2.44862E-001,-9.98921E-002,-5.20633E-001,2.46241E-001,1.27722E+000,-2.30986E-002,0.00000E+000,1.08945E-002,9.07272E-001,0.00000E+000,-5.43960E-003,-7.22921E-002,1.00000E+000,38
689,1327,-1.09323E+001,-7.04404E-001,9.17996E-002,4.90327E+000,-6.09555E-001,1.11134E-001,4.94226E+000,1.81529E-002,6.20293E-001,0,7.60498E+001,-1.04133E+001,9.96698E-001,3.24899E+001,-4.85568E+001,9.96353E-001,2.20868E-001,-9.31703E-002,-9.12223E-004,2.20870E-001,-9.31729E-002,-1.66432E-001,2.21768E-001,1.24716E+000,-2.28027E-003,0.00000E+000,-1.96020E-005,9.13660E-001,0.00000E+000,-1.31298E-004,-7.59007E-002,1.00000E+000,38
1169,1317,2.87235E+001,-6.73727E-001,-9.49319E-002,1.32747E+001,-1.98198E-001,-4.14514E-002,1.32762E+001,2.93721E-002,3.67270E-001,0,1.99039E+002,-4.81933E+000,9.96440E-001,1.66546E+002,-3.26498E+001,9.96665E-001,2.41105E-001,-9.98291E-002,-2.95050E-003,2.41131E-001,-9.98546E-002,-4.95797E-001,2.42314E-001,1.27245E+000,-2.33042E-002,0.00000E+000,1.12795E-002,9.07289E-001,0.00000E+000,-2.98387E-003,-7.21862E-002,1.00000E+000,38
1169,1307,2.87163E+001,-1.26566E+000,-4.54573E-002,1.32821E+001,-1.44719E-001,-4.37830E-004,1.32828E+001,2.28290E-002,4.14700E-001,0,1.98985E+002,-4.00000E+000,9.96511E-001,1.66458E+002,-3.19360E+001,9.95350E-001,2.39874E-001,-9.98217E-002,-2.87834E-003,2.39899E-001,-9.98461E-002,-4.85437E-001,2.41019E-001,1.27088E+000,-2.33394E-002,0.00000E+000,1.14061E-002,9.07292E-001,0.00000E+000,-2.17619E-003,-7.21681E-002,1.00000E+000,38
1169,1297,2.87192E+001,-1.84486E+000,4.30089E-002,1.32935E+001,-7.98253E-002,5.50275E-002,1.32938E+001,1.79193E-002,4.52647E-001,0,1.98914E+002,-3.06607E+000,9.97110E-001,1.66581E+002,-3.11122E+001,9.94258E-001,2.38641E-001,-9.98161E-002,-2.80059E-003,2.38664E-001,-9.98392E-002,-4.74056E-001,2.39723E-001,1.26932E+000,-2.33599E-002,0.00000E+000,1.15328E-002,9.07293E-001,0.00000E+000,-1.36846E-003,-7.21575E-002,1.00000E+000,38
689,1317,-1.09370E+001,-1.27403E+000,1.87432E-001,4.90235E+000,-5.46472E-001,1.66275E-001,4.93552E+000,2.10888E-002,5.68510E-001,0,7.58608E+001,-9.49401E+000,9.96082E-001,3.25451E+001,-4.75546E+001,9.94452E-001,2.22044E-001,-9.31662E-002,-6.27418E-004,2.22045E-001,-9.31674E-002,-1.14045E-001,2.23000E-001,1.24863E+000,-2.27144E-003,0.00000E+000,4.31243E-004,9.13662E-001,0.00000E+000,8.57170E-004,-7.58947E-002,1.00000E+000,38
679,1347,-1.17114E+001,4.45328E-001,1.57204E-002,4.74160E+000,-7.31858E-001,2.19636E-002,4.79780E+000,2.54664E-002,5.79565E-001,0,7.38586E+001,-1.21612E+001,9.96668E-001,3.06034E+001,-5.08332E+001,9.96187E-001,2.16285E-001,-9.21739E-002,-1.51002E-003,2.16292E-001,-9.21813E-002,-2.80476E-001,2.17077E-001,1.24146E+000,-8.25841E-004,0.00000E+000,-2.04564E-003,9.14513E-001,0.00000E+000,-2.15943E-003,-7.50758E-002,1.00000E+000,38
679,1357,-1.16820E+001,1.02724E+000,1.34669E-002,4.75445E+000,-7.95305E-001,-1.07726E-002,4.82052E+000,1.27650E-002,5.76182E-001,0,7.41537E+001,-1.30721E+001,9.97782E-001,3.11774E+001,-5.18770E+001,9.97788E-001,2.14728E-001,-9.21967E-002,-1.98457E-003,2.14741E-001,-9.22095E-002,-3.70452E-001,2.15454E-001,1.23953E+000,-8.74703E-004,0.00000E+000,-2.82075E-003,9.14493E-001,0.00000E+000,-3.13647E-003,-7.51006E-002,1.00000E+000,38
1179,1297,2.95501E+001,-1.83892E+000,1.70783E-002,1.34672E+001,-7.62836E-002,5.25526E-002,1.34675E+001,2.82458E-002,5.02137E-001,0,2.01364E+002,-3.05484E+000,9.98181E-001,1.69545E+002,-3.08424E+001,9.95996E-001,2.39156E-001,-9.99991E-002,-2.89114E-003,2.39180E-001,-1.00024E-001,-4.88374E-001,2.40245E-001,1.26999E+000,-2.25798E-002,0.00000E+000,1.09212E-002,9.07185E-001,0.00000E+000,-3.20484E-003,-7.28876E-002,1.00000E+000,38
1179,1307,2.95586E+001,-1.25750E+000,-5.58067E-002,1.34648E+001,-1.38272E-001,2.78159E-003,1.34655E+001,1.42992E-002,3.52341E-001,0,2.01539E+002,-3.93850E+000,9.98500E-001,1.69623E+002,-3.17177E+001,9.97031E-001,2.40272E-001,-9.99995E-002,-2.87860E-003,2.40296E-001,-1.00024E-001,-4.84660E-001,2.41417E-001,1.27141E+000,-2.25557E-002,0.00000E+000,1.09490E-002,9.07185E-001,0.00000E+000,-3.81747E-003,-7.28980E-002,1.00000E+000,38
1179,1317,2.95606E+001,-6.65918E-001,-1.40765E-001,1.34568E+001,-1.91167E-001,-5.50315E-002,1.34582E+001,3.15204E-002,3.29453E-001,0,2.01664E+002,-4.70248E+000,9.98435E-001,1.69584E+002,-3.23459E+001,9.97926E-001,2.41389E-001,-9.99998E-002,-2.86692E-003,2.41413E-001,-1.00024E-001,-4.81114E-001,2.42592E-001,1.27283E+000,-2.25337E-002,0.00000E+000,1.09769E-002,9.07186E-001,0.00000E+000,-4.43132E-003,-7.29074E-002,1.00000E+000,38
1179,1337,2.96035E+001,5.15743E-001,-1.19777E-001,1.34398E+001,-3.25440E-001,-1.35327E-001,1.34444E+001,1.60020E-002,4.14194E-001,0,2.01690E+002,-6.73990E+000,9.98113E-001,1.70356E+002,-3.39785E+001,9.96950E-001,2.43650E-001,-1.00001E-001,-2.81080E-003,2.43673E-001,-1.00024E-001,-4.68593E-001,2.44971E-001,1.27572E+000,-2.24039E-002,0.00000E+000,1.10334E-002,9.07188E-001,0.00000E+000,-5.67666E-003,-7.29634E-002,1.00000E+000,38
1179,1347,2.96479E+001,1.11523E+000,-8.02624E-002,1.34468E+001,-3.88826E-001,-1.75721E-001,1.34535E+001,1.58656E-002,4.17531E-001,0,2.01918E+002,-7.68005E+000,9.98312E-001,1.71138E+002,-3.47469E+001,9.97819E-001,2.44783E-001,-1.00002E-001,-2.77672E-003,2.44805E-001,-1.00024E-001,-4.61392E-001,2.46165E-001,1.27717E+000,-2.23229E-002,0.00000E+000,1.10618E-002,9.07190E-001,0.00000E+000,-6.30249E-003,-7.29983E-002,1.00000E+000,38
679,1327,-1.17334E+001,-7.12009E-001,9.82888E-002,4.74359E+000,-6.11408E-001,1.15646E-001,4.78423E+000,2.21710E-002,5.76974E-001,0,7.36088E+001,-1.04200E+001,9.95658E-001,3.02280E+001,-4.88203E+001,9.94641E-001,2.19365E-001,-9.21402E-002,-5.78784E-004,2.19366E-001,-9.21413E-002,-1.06456E-001,2.20299E-001,1.24529E+000,-7.54705E-004,0.00000E+000,-5.06692E-004,9.14542E-001,0.00000E+000,-2.19587E-004,-7.50397E-002,1.00000E+000,38
679,1337,-1.17198E+001,-1.30037E-001,4.24763E-002,4.74859E+000,-6.65502E-001,7.28931E-002,4.79555E+000,2.71016E-002,6.05963E-001,0,7.38161E+001,-1.12204E+001,9.96772E-001,3.04181E+001,-4.97298E+001,9.95841E-001,2.17830E-001,-9.21525E-002,-1.03935E-003,2.17834E-001,-9.21560E-002,-1.92105E-001,2.18692E-001,1.24338E+000,-7.80431E-004,0.00000E+000,-1.27436E-003,9.14531E-001,0.00000E+000,-1.18724E-003,-7.50528E-002,1.00000E+000,38
1179,1327,2.95731E+001,-8.47961E-002,-1.32931E-001,1.34434E+001,-2.65110E-001,-8.18703E-002,1.34463E+001,2.11026E-002,4.38949E-001,0,2.01559E+002,-5.89368E+000,9.98394E-001,1.69825E+002,-3.32732E+001,9.96231E-001,2.42517E-001,-1.00000E-001,-2.84219E-003,2.42541E-001,-1.00024E-001,-4.75394E-001,2.43778E-001,1.27427E+000,-2.24777E-002,0.00000E+000,1.10051E-002,9.07187E-001,0.00000E+000,-5.05205E-003,-7.29316E-002,1.00000E+000,38
679,1317,-1.17386E+001,-1.28200E+000,1.98438E-001,4.74236E+000,-5.48973E-001,1.75966E-001,4.77727E+000,1.81363E-002,6.13274E-001,0,7.34013E+001,-9.56465E+000,9.96488E-001,3.02896E+001,-4.77871E+001,9.95257E-001,2.20891E-001,-9.21344E-002,-1.25180E-004,2.20891E-001,-9.21344E-002,-2.29127E-002,2.21901E-001,1.24719E+000,-7.43083E-004,0.00000E+000,2.58904E-004,9.14546E-001,0.00000E+000,7.45449E-004,-7.50339E-002,1.00000E+000,38
669,1327,-1.25267E+001,-7.29841E-001,1.09546E-001,4.59219E+000,-6.22431E-001,1.28894E-001,4.63597E+000,1.47357E-002,5.73552E-001,0,7.12707E+001,-1.06187E+001,9.98583E-001,2.81043E+001,-4.92304E+001,9.98359E-001,2.17743E-001,-9.12745E-002,-1.82072E-004,2.17743E-001,-9.12746E-002,-3.37585E-002,2.18689E-001,1.24327E+000,1.76598E-003,0.00000E+000,-1.59928E-003,9.15269E-001,0.00000E+000,-4.65402E-004,-7.41049E-002,1.00000E+000,38
669,1337,-1.25176E+001,-1.39550E-001,4.55805E-002,4.59224E+000,-6.70168E-001,7.56677E-002,4.64150E+000,1.58242E-002,5.98170E-001,0,7.14286E+001,-1.12643E+001,9.97375E-001,2.82043E+001,-4.99994E+001,9.97375E-001,2.15774E-001,-9.12881E-002,-7.42529E-004,2.15775E-001,-9.12899E-002,-1.38550E-001,2.16625E-001,1.24082E+000,1.73175E-003,0.00000E+000,-2.55579E-003,9.15255E-001,0.00000E+000,-1.35638E-003,-7.41174E-002,1.00000E+000,38
669,1347,-1.25034E+001,4.37702E-001,1.14192E-002,4.59443E+000,-7.31856E-001,3.57372E-002,4.65249E+000,1.42175E-002,5.67451E-001,0,7.15823E+001,-1.21539E+001,9.96994E-001,2.84591E+001,-5.10610E+001,9.96930E-001,2.13800E-001,-9.13062E-002,-1.30735E-003,2.13806E-001,-9.13118E-002,-2.45500E-001,2.14562E-001,1.23838E+000,1.68665E-003,0.00000E+000,-3.51185E-003,9.15237E-001,0.00000E+000,-2.24695E-003,-7.41339E-002,1.00000E+000,38
669,1357,-1.24776E+001,1.03081E+000,1.96198E-002,4.60088E+000,-7.84150E-001,-3.78639E-003,4.66723E+000,1.48266E-002,5.56745E-001,0,7.17914E+001,-1.29055E+001,9.97018E-001,2.90112E+001,-5.19615E+001,9.96880E-001,2.11811E-001,-9.13366E-002,-1.88661E-003,2.11823E-001,-9.13483E-002,-3.56557E-001,2.12489E-001,1.23592E+000,1.61342E-003,0.00000E+000,-4.47299E-003,9.15209E-001,0.00000E+000,-3.14225E-003,-7.41606E-002,1.00000E+000,38
1189,1337,3.04566E+001,5.25106E-001,-1.40774E-001,1.36283E+001,-3.23645E-001,-1.58033E-001,1.36330E+001,2.09575E-002,4.27438E-001,0,2.04431E+002,-6.68841E+000,9.98368E-001,1.73676E+002,-3.36736E+001,9.97407E-001,2.43133E-001,-1.00385E-001,-2.50767E-003,2.43151E-001,-1.00404E-001,-4.18228E-001,2.44377E-001,1.27508E+000,-2.16465E-002,0.00000E+000,1.11033E-002,9.06851E-001,0.00000E+000,-6.30789E-003,-7.31751E-002,1.00000E+000,38
669,1317,-1.25271E+001,-1.29307E+000,2.15134E-001,4.59438E+000,-5.53705E-001,1.87832E-001,4.63143E+000,1.79467E-002,5.96282E-001,0,7.11189E+001,-9.66689E+000,9.98214E-001,2.82547E+001,-4.81088E+001,9.98533E-001,2.19696E-001,-9.12714E-002,3.65641E-004,2.19697E-001,-9.12718E-002,6.73693E-002,2.20741E-001,1.24570E+000,1.77610E-003,0.00000E+000,-6.47934E-004,9.15272E-001,0.00000E+000,4.20777E-004,-7.41013E-002,1.00000E+000,38
1189,1297,3.04045E+001,-1.83245E+000,2.55262E-002,1.36539E+001,-7.59814E-002,4.44373E-002,1.36542E+001,1.94925E-002,4.64067E-001,0,2.04007E+002,-3.06841E+000,9.97740E-001,1.72928E+002,-3.06790E+001,9.96003E-001,2.39512E-001,-1.00379E-001,-2.51676E-003,2.39531E-001,-1.00398E-001,-4.24222E-001,2.40572E-001,1.27046E+000,-2.17826E-002,0.00000E+000,1.11684E-002,9.06853E-001,0.00000E+000,-5.21575E-003,-7.31430E-002,1.00000E+000,38
1189,1307,3.03965E+001,-1.25472E+000,-6.98163E-002,1.36394E+001,-1.42320E-001,-9.78925E-003,1.36401E+001,1.71993E-002,4.36123E-001,0,2.04033E+002,-4.02273E+000,9.96359E-001,1.72718E+002,-3.15028E+001,9.96517E-001,2.40413E-001,-1.00380E-001,-2.52295E-003,2.40431E-001,-1.00399E-001,-4.24140E-001,2.41518E-001,1.27161E+000,-2.17709E-002,0.00000E+000,1.11522E-002,9.06853E-001,0.00000E+000,-5.48692E-003,-7.31457E-002,1.00000E+000,38
1189,1317,3.04178E+001,-6.49904E-001,-1.17345E-001,1.36412E+001,-1.90243E-001,-6.66823E-002,1.36426E+001,2.05087E-002,4.66380E-001,0,2.04281E+002,-4.69801E+000,9.98095E-001,1.73029E+002,-3.19762E+001,9.98373E-001,2.41320E-001,-1.00382E-001,-2.52058E-003,2.41339E-001,-1.00400E-001,-4.22615E-001,2.42471E-001,1.27276E+000,-2.17367E-002,0.00000E+000,1.11359E-002,9.06852E-001,0.00000E+000,-5.76055E-003,-7.31538E-002,1.00000E+000,38
1189,1327,3.04331E+001,-7.01160E-002,-1.46039E-001,1.36328E+001,-2.63372E-001,-1.20830E-001,1.36359E+001,2.53369E-002,4.47925E-001,0,2.04371E+002,-5.77293E+000,9.98570E-001,1.73267E+002,-3.29062E+001,9.97764E-001,2.42226E-001,-1.00383E-001,-2.51554E-003,2.42244E-001,-1.00402E-001,-4.20653E-001,2.43423E-001,1.27392E+000,-2.16954E-002,0.00000E+000,1.11196E-002,9.06852E-001,0.00000E+000,-6.03387E-003,-7.31636E-002,1.00000E+000,38
659,1327,-1.33160E+001,-7.13020E-001,1.15555E-001,4.44298E+000,-6.01072E-001,1.30167E-001,4.48535E+000,2.35992E-002,5.72638E-001,0,6.89881E+001,-1.02660E+001,9.98123E-001,2.60389E+001,-4.90947E+001,9.96459E-001,2.15785E-001,-9.06920E-002,-1.14252E-004,2.15785E-001,-9.06921E-002,-2.13594E-002,2.16697E-001,1.24083E+000,4.35131E-003,0.00000E+000,-3.35357E-003,9.15771E-001,0.00000E+000,-7.81297E-004,-7.37173E-002,1.00000E+000,38
659,1337,-1.32819E+001,-1.59056E-001,7.19157E-002,4.46819E+000,-6.85073E-001,9.70611E-002,4.52144E+000,3.56405E-002,6.37837E-001,0,6.94880E+001,-1.15453E+001,9.97513E-001,2.65696E+001,-5.04444E+001,9.97413E-001,2.13618E-001,-9.07033E-002,-6.76143E-004,2.13619E-001,-9.07048E-002,-1.27299E-001,2.14427E-001,1.23814E+000,4.31398E-003,0.00000E+000,-4.32255E-003,9.15757E-001,0.00000E+000,-1.56515E-003,-7.37282E-002,1.00000E+000,38
659,1347,-1.32780E+001,4.31813E-001,3.79403E-002,4.46003E+000,-7.32844E-001,5.63697E-002,4.52019E+000,2.14928E-002,6.01375E-001,0,6.94783E+001,-1.22150E+001,9.98141E-001,2.66710E+001,-5.13038E+001,9.98317E-001,2.11447E-001,-9.07193E-002,-1.24274E-003,2.11453E-001,-9.07244E-002,-2.35638E-001,2.12161E-001,1.23546E+000,4.26430E-003,0.00000E+000,-5.29059E-003,9.15739E-001,0.00000E+000,-2.34825E-003,-7.37427E-002,1.00000E+000,38
659,1357,-1.32644E+001,1.03112E+000,3.21282E-002,4.45502E+000,-7.78139E-001,6.03335E-003,4.52247E+000,1.49674E-002,5.73454E-001,0,6.95383E+001,-1.28244E+001,9.97639E-001,2.70014E+001,-5.20912E+001,9.97659E-001,2.09260E-001,-9.07463E-002,-1.82339E-003,2.09271E-001,-9.07573E-002,-3.48216E-001,2.09884E-001,1.23277E+000,4.18702E-003,0.00000E+000,-6.26336E-003,9.15711E-001,0.00000E+000,-3.13516E-003,-7.37653E-002,1.00000E+000,38
1199,1307,3.12419E+001,-1.24568E+000,-6.90610E-002,1.38179E+001,-1.41343E-001,-1.95122E-002,1.38187E+001,2.23894E-002,4.35165E-001,0,2.06563E+002,-4.00260E+000,9.96642E-001,1.75955E+002,-3.12642E+001,9.96014E-001,2.40292E-001,-1.00281E-001,-2.05983E-003,2.40304E-001,-1.00294E-001,-3.46515E-001,2.41396E-001,1.27147E+000,-2.06846E-002,0.00000E+000,1.13085E-002,9.06932E-001,0.00000E+000,-6.55342E-003,-7.30373E-002,1.00000E+000,38
1199,1317,3.12524E+001,-6.55543E-001,-1.20143E-001,1.38111E+001,-2.01048E-001,-7.06503E-002,1.38128E+001,1.98035E-002,4.41982E-001,0,2.06670E+002,-4.88591E+000,9.95356E-001,1.76090E+002,-3.19695E+001,9.94158E-001,2.41059E-001,-1.00283E-001,-2.06887E-003,2.41071E-001,-1.00296E-001,-3.47253E-001,2.42202E-001,1.27245E+000,-2.06589E-002,0.00000E+000,1.12620E-002,9.06930E-001,0.00000E+000,-6.55226E-003,-7.30373E-002,1.00000E+000,38
1199,1327,3.12717E+001,-6.12973E-002,-1.58970E-001,1.38105E+001,-2.57728E-001,-1.20305E-001,1.38134E+001,2.02667E-002,4.32258E-001,0,2.06854E+002,-5.72718E+000,9.96921E-001,1.76378E+002,-3.26459E+001,9.95704E-001,2.41826E-001,-1.00286E-001,-2.07639E-003,2.41839E-001,-1.00298E-001,-3.47730E-001,2.43008E-001,1.27343E+000,-2.06293E-002,0.00000E+000,1.12154E-002,9.06929E-001,0.00000E+000,-6.55109E-003,-7.30373E-002,1.00000E+000,38
659,1317,-1.33299E+001,-1.29364E+000,1.90520E-001,4.43413E+000,-5.48795E-001,1.72484E-001,4.47129E+000,1.75807E-002,5.81242E-001,0,6.87211E+001,-9.51359E+000,9.96653E-001,2.58973E+001,-4.81824E+001,9.94476E-001,2.17934E-001,-9.06870E-002,4.37988E-004,2.17935E-001,-9.06877E-002,8.13127E-002,2.18954E-001,1.24350E+000,4.37239E-003,0.00000E+000,-2.38976E-003,9.15778E-001,0.00000E+000,-1.62339E-006,-7.37111E-002,1.00000E+000,38
1199,1337,3.13056E+001,5.36002E-001,-1.41961E-001,1.38096E+001,-3.21207E-001,-1.71212E-001,1.38144E+001,1.56059E-002,4.51261E-001,0,2.07016E+002,-6.66178E+000,9.98273E-001,1.76963E+002,-3.33843E+001,9.97061E-001,2.42600E-001,-1.00289E-001,-2.07575E-003,2.42613E-001,-1.00301E-001,-3.46835E-001,2.43822E-001,1.27442E+000,-2.05777E-002,0.00000E+000,1.11684E-002,9.06927E-001,0.00000E+000,-6.54991E-003,-7.30372E-002,1.00000E+000,38
1199,1297,3.12464E+001,-1.81559E+000,1.49297E-002,1.38297E+001,-6.65321E-002,2.59993E-002,1.38299E+001,1.68017E-002,4.25587E-001,0,2.06528E+002,-2.88132E+000,9.96436E-001,1.76096E+002,-3.03151E+001,9.95214E-001,2.39527E-001,-1.00280E-001,-2.04524E-003,2.39539E-001,-1.00292E-001,-3.44837E-001,2.40593E-001,1.27050E+000,-2.06955E-002,0.00000E+000,1.13549E-002,9.06932E-001,0.00000E+000,-6.55458E-003,-7.30373E-002,1.00000E+000,38
649,1347,-1.40793E+001,4.37446E-001,2.59653E-002,4.29883E+000,-7.22507E-001,4.01081E-002,4.35931E+000,2.07618E-002,6.23117E-001,0,6.70579E+001,-1.19996E+001,9.97127E-001,2.43789E+001,-5.12958E+001,9.95964E-001,2.08878E-001,-8.99322E-002,-1.07239E-003,2.08882E-001,-8.99360E-002,-2.05624E-001,2.09552E-001,1.23228E+000,7.20503E-003,0.00000E+000,-7.14591E-003,9.16414E-001,0.00000E+000,-2.59697E-003,-7.32468E-002,1.00000E+000,38
649,1357,-1.40596E+001,1.02691E+000,3.55815E-002,4.30051E+000,-7.76588E-001,7.72620E-003,4.37008E+000,1.39643E-002,5.76191E-001,0,6.71729E+001,-1.27848E+001,9.98038E-001,2.48436E+001,-5.22787E+001,9.97426E-001,2.06345E-001,-8.99546E-002,-1.63178E-003,2.06354E-001,-8.99636E-002,-3.15527E-001,2.06917E-001,1.22917E+000,7.11871E-003,0.00000E+000,-8.08004E-003,9.16388E-001,0.00000E+000,-3.37870E-003,-7.32685E-002,1.00000E+000,38
649,1337,-1.40992E+001,-1.45721E-001,6.46064E-002,4.29066E+000,-6.65512E-001,8.44231E-002,4.34278E+000,2.27697E-002,5.62656E-001,0,6.68015E+001,-1.11725E+001,9.97612E-001,2.40460E+001,-5.03770E+001,9.96867E-001,2.11401E-001,-8.99197E-002,-5.25967E-004,2.11402E-001,-8.99206E-002,-1.00012E-001,2.12186E-001,1.23539E+000,7.26120E-003,0.00000E+000,-6.21264E-003,9.16431E-001,0.00000E+000,-1.81595E-003,-7.32327E-002,1.00000E+000,38
649,1327,-1.41225E+001,-7.06589E-001,9.99339E-002,4.27584E+000,-5.90825E-001,1.07109E-001,4.31780E+000,1.75010E-002,5.28911E-001,0,6.64955E+001,-1.00040E+001,9.98671E-001,2.36570E+001,-4.90965E+001,9.98253E-001,2.13904E-001,-8.99121E-002,1.13337E-005,2.13904E-001,-8.99121E-002,2.13738E-003,2.14807E-001,1.23848E+000,7.30191E-003,0.00000E+000,-5.28402E-003,9.16443E-001,0.00000E+000,-1.03884E-003,-7.32225E-002,1.00000E+000,38
1209,1307,3.20864E+001,-1.22969E+000,-7.30865E-002,1.39957E+001,-1.32156E-001,-3.14053E-002,1.39964E+001,1.65514E-002,4.56214E-001,0,2.09082E+002,-3.87718E+000,9.97645E-001,1.79176E+002,-3.08966E+001,9.96271E-001,2.39652E-001,-9.98042E-002,-1.56024E-003,2.39660E-001,-9.98113E-002,-2.63340E-001,2.40772E-001,1.27068E+000,-1.95214E-002,0.00000E+000,1.14377E-002,9.07360E-001,0.00000E+000,-6.83447E-003,-7.30178E-002,1.00000E+000,38
1209,1317,3.20948E+001,-6.48969E-001,-1.30047E-001,1.39886E+001,-2.00472E-001,-8.13918E-002,1.39902E+001,1.88587E-002,4.34628E-001,0,2.09187E+002,-4.88168E+000,9.97468E-001,1.79270E+002,-3.17483E+001,9.94766E-001,2.40462E-001,-9.98059E-002,-1.56740E-003,2.40469E-001,-9.98131E-002,-2.63918E-001,2.41622E-001,1.27171E+000,-1.94971E-002,0.00000E+000,1.13878E-002,9.07359E-001,0.00000E+000,-6.71477E-003,-7.30149E-002,1.00000E+000,38
1209,1327,3.21264E+001,-4.65322E-002,-1.54693E-001,1.39955E+001,-2.51238E-001,-1.34520E-001,1.39984E+001,1.88559E-002,3.86471E-001,0,2.09489E+002,-5.61590E+000,9.97852E-001,1.79768E+002,-3.23445E+001,9.96282E-001,2.41273E-001,-9.98082E-002,-1.56913E-003,2.41280E-001,-9.98154E-002,-2.63580E-001,2.42475E-001,1.27274E+000,-1.94584E-002,0.00000E+000,1.13377E-002,9.07357E-001,0.00000E+000,-6.59468E-003,-7.30104E-002,1.00000E+000,38
1209,1337,3.21612E+001,5.49435E-001,-1.18709E-001,1.39950E+001,-3.17533E-001,-1.67470E-001,1.39996E+001,1.78463E-002,4.58073E-001,0,2.09581E+002,-6.64280E+000,9.97486E-001,1.80387E+002,-3.31180E+001,9.95994E-001,2.42092E-001,-9.98112E-002,-1.56472E-003,2.42099E-001,-9.98184E-002,-2.62207E-001,2.43337E-001,1.27378E+000,-1.94032E-002,0.00000E+000,1.12871E-002,9.07354E-001,0.00000E+000,-6.47335E-003,-7.30040E-002,1.00000E+000,38
1209,1297,3.20924E+001,-1.80294E+000,8.47849E-003,1.40109E+001,-5.89649E-002,1.85563E-002,1.40110E+001,1.49853E-002,4.08603E-001,0,2.09082E+002,-2.77910E+000,9.97513E-001,1.79337E+002,-3.00147E+001,9.95759E-001,2.38844E-001,-9.98029E-002,-1.54931E-003,2.38851E-001,-9.98100E-002,-2.62121E-001,2.39922E-001,1.26965E+000,-1.95359E-002,0.00000E+000,1.14876E-002,9.07361E-001,0.00000E+000,-6.95396E-003,-7.30194E-002,1.00000E+000,38
649,1317,-1.41258E+001,-1.28901E+000,1.89007E-001,4.27618E+000,-5.41585E-001,1.56067E-001,4.31316E+000,1.46739E-002,5.74207E-001,0,6.63530E+001,-9.33496E+000,9.97898E-001,2.37154E+001,-4.82205E+001,9.97412E-001,2.16393E-001,-8.99120E-002,5.37772E-004,2.16394E-001,-8.99130E-002,1.00592E-001,2.17422E-001,1.24157E+000,7.31971E-003,0.00000E+000,-4.35801E-003,9.16448E-001,0.00000E+000,-2.63892E-004,-7.32180E-002,1.00000E+000,38
639,1347,-1.48767E+001,4.45020E-001,2.17309E-002,4.14221E+000,-7.08700E-001,3.76366E-002,4.20257E+000,2.12670E-002,5.90944E-001,0,6.46655E+001,-1.17444E+001,9.96147E-001,2.21738E+001,-5.13015E+001,9.95285E-001,2.06527E-001,-8.89057E-002,-9.37112E-004,2.06530E-001,-8.89086E-002,-1.81740E-001,2.07194E-001,1.22936E+000,1.05631E-002,0.00000E+000,-9.38094E-003,9.17286E-001,0.00000E+000,-3.01315E-003,-7.25343E-002,1.00000E+000,38
639,1357,-1.48547E+001,1.03865E+000,3.26342E-002,4.14613E+000,-7.59236E-001,5.48245E-003,4.21508E+000,1.40985E-002,5.84421E-001,0,6.48132E+001,-1.24846E+001,9.97538E-001,2.26793E+001,-5.22046E+001,9.97318E-001,2.03758E-001,-8.89245E-002,-1.47529E-003,2.03765E-001,-8.89320E-002,-2.88794E-001,2.04313E-001,1.22597E+000,1.04691E-002,0.00000E+000,-1.02751E-002,9.17261E-001,0.00000E+000,-3.85589E-003,-7.25576E-002,1.00000E+000,38
639,1317,-1.49105E+001,-1.30238E+000,2.10633E-001,4.12940E+000,-5.53576E-001,1.64494E-001,4.16958E+000,1.89935E-002,6.29281E-001,0,6.40902E+001,-9.52167E+000,9.97758E-001,2.17709E+001,-4.85518E+001,9.96626E-001,2.14716E-001,-8.88992E-002,5.94416E-004,2.14717E-001,-8.89003E-002,1.12173E-001,2.15772E-001,1.23947E+000,1.06727E-002,0.00000E+000,-6.71952E-003,9.17315E-001,0.00000E+000,-5.04635E-004,-7.25070E-002,1.00000E+000,38
639,1327,-1.49044E+001,-7.29733E-001,1.23976E-001,4.13326E+000,-6.09215E-001,1.25709E-001,4.17980E+000,1.41404E-002,5.76612E-001,0,6.42709E+001,-1.03423E+001,9.98198E-001,2.17584E+001,-4.95891E+001,9.97301E-001,2.12011E-001,-8.88943E-002,9.69833E-005,2.12011E-001,-8.88943E-002,1.84667E-002,2.12930E-001,1.23612E+000,1.06609E-002,0.00000E+000,-7.60141E-003,9.17312E-001,0.00000E+000,-1.33586E-003,-7.25100E-002,1.00000E+000,38
639,1337,-1.48960E+001,-1.40162E-001,5.56604E-002,4.13499E+000,-6.55427E-001,8.04596E-002,4.18738E+000,1.81368E-002,6.17830E-001,0,6.44303E+001,-1.09867E+001,9.97016E-001,2.18347E+001,-5.03578E+001,9.96291E-001,2.09274E-001,-8.88958E-002,-4.14117E-004,2.09274E-001,-8.88964E-002,-7.95759E-002,2.10062E-001,1.23274E+000,1.06263E-002,0.00000E+000,-8.49106E-003,9.17303E-001,0.00000E+000,-2.17439E-003,-7.25186E-002,1.00000E+000,38
1219,1317,3.29471E+001,-6.38412E-001,-1.26745E-001,1.41718E+001,-2.00233E-001,-9.26675E-002,1.41735E+001,2.26418E-002,4.80958E-001,0,2.11782E+002,-4.87309E+000,9.97494E-001,1.82627E+002,-3.14662E+001,9.95020E-001,2.39566E-001,-9.98183E-002,-8.85166E-004,2.39568E-001,-9.98206E-002,-1.49435E-001,2.40674E-001,1.27059E+000,-1.77950E-002,0.00000E+000,1.14442E-002,9.07267E-001,0.00000E+000,-6.72089E-003,-7.18304E-002,1.00000E+000,38
1219,1327,3.29744E+001,-3.66403E-002,-1.53178E-001,1.41763E+001,-2.49618E-001,-1.39607E-001,1.41792E+001,1.15159E-002,3.97908E-001,0,2.12025E+002,-5.60050E+000,9.98948E-001,1.83054E+002,-3.20853E+001,9.97924E-001,2.40365E-001,-9.98196E-002,-8.79939E-004,2.40367E-001,-9.98219E-002,-1.48203E-001,2.41514E-001,1.27161E+000,-1.77599E-002,0.00000E+000,1.13889E-002,9.07265E-001,0.00000E+000,-6.26282E-003,-7.18146E-002,1.00000E+000,38
1219,1337,3.30114E+001,5.65238E-001,-1.25511E-001,1.41771E+001,-3.10573E-001,-1.83418E-001,1.41817E+001,1.77980E-002,4.71083E-001,0,2.12181E+002,-6.52468E+000,9.97935E-001,1.83695E+002,-3.27458E+001,9.95856E-001,2.41174E-001,-9.98215E-002,-8.66895E-004,2.41176E-001,-9.98237E-002,-1.45659E-001,2.42365E-001,1.27263E+000,-1.77041E-002,0.00000E+000,1.13328E-002,9.07262E-001,0.00000E+000,-5.79863E-003,-7.17894E-002,1.00000E+000,38
1219,1297,3.29425E+001,-1.79095E+000,3.28986E-003,1.41946E+001,-5.40631E-002,8.23555E-003,1.41947E+001,1.62284E-002,3.87271E-001,0,2.11679E+002,-2.68836E+000,9.97680E-001,1.82649E+002,-2.97292E+001,9.95644E-001,2.37963E-001,-9.98164E-002,-8.84951E-004,2.37966E-001,-9.98188E-002,-1.50108E-001,2.38992E-001,1.26857E+000,-1.78374E-002,0.00000E+000,1.15550E-002,9.07270E-001,0.00000E+000,-7.63737E-003,-7.18496E-002,1.00000E+000,38
1219,1307,3.29418E+001,-1.21544E+000,-6.54126E-002,1.41821E+001,-1.26682E-001,-3.84134E-002,1.41827E+001,2.10134E-002,4.11942E-001,0,2.11701E+002,-3.77290E+000,9.97611E-001,1.82586E+002,-3.06128E+001,9.95057E-001,2.38764E-001,-9.98173E-002,-8.86200E-004,2.38766E-001,-9.98196E-002,-1.49964E-001,2.39832E-001,1.26958E+000,-1.78192E-002,0.00000E+000,1.14997E-002,9.07269E-001,0.00000E+000,-7.17968E-003,-7.18414E-002,1.00000E+000,38
629,1347,-1.56652E+001,4.36973E-001,1.79459E-002,3.99449E+000,-7.10380E-001,3.82811E-002,4.05735E+000,1.91451E-002,5.79896E-001,0,6.24040E+001,-1.17467E+001,9.95349E-001,2.01071E+001,-5.15366E+001,9.94805E-001,2.04568E-001,-8.92612E-002,-9.19813E-004,2.04571E-001,-8.92641E-002,-1.79358E-001,2.05123E-001,1.22692E+000,1.40029E-002,0.00000E+000,-1.19250E-002,9.16911E-001,0.00000E+000,-2.92129E-003,-7.22444E-002,1.00000E+000,38
629,1357,-1.56356E+001,1.03108E+000,3.20551E-002,4.00594E+000,-7.60529E-001,7.50131E-003,4.07750E+000,1.62429E-002,5.69607E-001,0,6.26644E+001,-1.24820E+001,9.95938E-001,2.07407E+001,-5.24421E+001,9.95692E-001,2.01910E-001,-8.92703E-002,-1.22809E-003,2.01916E-001,-8.92754E-002,-2.41647E-001,2.02366E-001,1.22367E+000,1.39126E-002,0.00000E+000,-1.24092E-002,9.16897E-001,0.00000E+000,-3.63973E-003,-7.22644E-002,1.00000E+000,38
629,1327,-1.56913E+001,-7.28633E-001,1.20600E-001,3.98659E+000,-6.02340E-001,1.24644E-001,4.03377E+000,1.56285E-002,5.67512E-001,0,6.20297E+001,-1.02113E+001,9.96580E-001,1.97192E+001,-4.96795E+001,9.96416E-001,2.09835E-001,-8.92589E-002,-3.42772E-004,2.09835E-001,-8.92593E-002,-6.56629E-002,2.10613E-001,1.23340E+000,1.40933E-002,0.00000E+000,-1.09610E-002,9.16924E-001,0.00000E+000,-1.49124E-003,-7.22244E-002,1.00000E+000,38
629,1337,-1.56779E+001,-1.47833E-001,5.34055E-002,3.99339E+000,-6.57020E-001,8.00519E-002,4.04787E+000,1.83563E-002,6.17816E-001,0,6.22674E+001,-1.09969E+001,9.96440E-001,1.98738E+001,-5.05822E+001,9.95843E-001,2.07206E-001,-8.92579E-002,-6.26247E-004,2.07207E-001,-8.92592E-002,-1.21030E-001,2.07868E-001,1.23016E+000,1.40604E-002,0.00000E+000,-1.14429E-002,9.16919E-001,0.00000E+000,-2.20610E-003,-7.22317E-002,1.00000E+000,38
1229,1317,3.37973E+001,-6.15323E-001,-1.50058E-001,1.43555E+001,-1.83525E-001,-1.18874E-001,1.43572E+001,2.58531E-002,4.53810E-001,0,2.14441E+002,-4.58036E+000,9.97284E-001,1.85925E+002,-3.09682E+001,9.94951E-001,2.38942E-001,-9.92913E-002,-1.85714E-004,2.38942E-001,-9.92914E-002,-3.14595E-002,2.40075E-001,1.26982E+000,-1.61402E-002,0.00000E+000,1.15454E-002,9.07669E-001,0.00000E+000,-6.39314E-003,-7.06793E-002,1.00000E+000,38
1229,1327,3.38193E+001,-2.97899E-002,-1.53874E-001,1.43541E+001,-2.52437E-001,-1.44516E-001,1.43571E+001,1.50287E-002,4.63111E-001,0,2.14515E+002,-5.65285E+000,9.98083E-001,1.86292E+002,-3.18424E+001,9.96924E-001,2.39660E-001,-9.92884E-002,-1.38439E-004,2.39660E-001,-9.92884E-002,-2.34016E-002,2.40831E-001,1.27073E+000,-1.61080E-002,0.00000E+000,1.15637E-002,9.07670E-001,0.00000E+000,-5.80331E-003,-7.06584E-002,1.00000E+000,38
1229,1337,3.38601E+001,5.77700E-001,-1.35719E-001,1.43615E+001,-3.02770E-001,-1.86702E-001,1.43659E+001,1.60185E-002,4.16979E-001,0,2.14762E+002,-6.41738E+000,9.97156E-001,1.86980E+002,-3.24520E+001,9.96152E-001,2.40379E-001,-9.92844E-002,-8.58121E-005,2.40379E-001,-9.92845E-002,-1.44751E-002,2.41588E-001,1.27164E+000,-1.60618E-002,0.00000E+000,1.15820E-002,9.07671E-001,0.00000E+000,-5.21250E-003,-7.06285E-002,1.00000E+000,38
629,1317,-1.57058E+001,-1.29886E+000,2.17370E-001,3.97408E+000,-5.44101E-001,1.72437E-001,4.01486E+000,1.71353E-002,6.04397E-001,0,6.16892E+001,-9.36979E+000,9.97154E-001,1.96323E+001,-4.86337E+001,9.96549E-001,2.12436E-001,-8.92637E-002,-7.05571E-005,2.12436E-001,-8.92637E-002,-1.33995E-002,2.13336E-001,1.23661E+000,1.41035E-002,0.00000E+000,-1.04828E-002,9.16926E-001,0.00000E+000,-7.81802E-004,-7.22222E-002,1.00000E+000,38
1229,1297,3.37926E+001,-1.77486E+000,8.22675E-004,1.43777E+001,-4.53630E-002,7.66521E-004,1.43778E+001,1.86869E-002,4.47738E-001,0,2.14249E+002,-2.58114E+000,9.96351E-001,1.85967E+002,-2.93451E+001,9.93332E-001,2.37509E-001,-9.92954E-002,-2.69534E-004,2.37509E-001,-9.92956E-002,-4.58520E-002,2.38569E-001,1.26801E+000,-1.61776E-002,0.00000E+000,1.15090E-002,9.07668E-001,0.00000E+000,-7.56670E-003,-7.07035E-002,1.00000E+000,38
1229,1307,3.38029E+001,-1.19136E+000,-7.15330E-002,1.43777E+001,-1.08930E-001,-4.42372E-002,1.43781E+001,2.82786E-002,4.44268E-001,0,2.14448E+002,-3.52839E+000,9.95317E-001,1.86075E+002,-3.01078E+001,9.93675E-001,2.38224E-001,-9.92937E-002,-2.29311E-004,2.38225E-001,-9.92938E-002,-3.89269E-002,2.39321E-001,1.26891E+000,-1.61632E-002,0.00000E+000,1.15272E-002,9.07669E-001,0.00000E+000,-6.98090E-003,-7.06942E-002,1.00000E+000,38
619,1327,-1.64831E+001,-7.29339E-001,1.22534E-001,3.83445E+000,-5.97512E-001,1.27569E-001,3.88282E+000,1.27302E-002,5.57276E-001,0,5.96892E+001,-1.01193E+001,9.96750E-001,1.76259E+001,-4.98105E+001,9.97166E-001,2.08161E-001,-8.84542E-002,-6.21850E-004,2.08163E-001,-8.84555E-002,-1.20119E-001,2.08943E-001,1.23129E+000,1.77411E-002,0.00000E+000,-1.42004E-002,9.17626E-001,0.00000E+000,-1.63232E-003,-7.23473E-002,1.00000E+000,38
619,1337,-1.64642E+001,-1.47604E-001,5.86785E-002,3.84596E+000,-6.51651E-001,8.17098E-002,3.90163E+000,1.54080E-002,6.18699E-001,0,6.00020E+001,-1.09004E+001,9.94718E-001,1.78727E+001,-5.07018E+001,9.94744E-001,2.05371E-001,-8.84528E-002,-7.90876E-004,2.05373E-001,-8.84549E-002,-1.54220E-001,2.06029E-001,1.22786E+000,1.77027E-002,0.00000E+000,-1.44789E-002,9.17623E-001,0.00000E+000,-2.28668E-003,-7.23546E-002,1.00000E+000,38
619,1347,-1.64445E+001,4.41124E-001,1.92366E-002,3.85549E+000,-6.99891E-001,4.31728E-002,3.91873E+000,1.81250E-002,5.91502E-001,0,6.02597E+001,-1.15826E+001,9.94497E-001,1.82045E+001,-5.15830E+001,9.94234E-001,2.02573E-001,-8.84530E-002,-9.65896E-004,2.02576E-001,-8.84562E-002,-1.90158E-001,2.03118E-001,1.22443E+000,1.76493E-002,0.00000E+000,-1.47573E-002,9.17618E-001,0.00000E+000,-2.94065E-003,-7.23648E-002,1.00000E+000,38
619,1357,-1.64161E+001,1.03490E+000,2.44274E-002,3.86687E+000,-7.49222E-001,9.18016E-003,3.93879E+000,1.66309E-002,5.68579E-001,0,6.05284E+001,-1.22925E+001,9.96520E-001,1.87961E+001,-5.24825E+001,9.96454E-001,1.99755E-001,-8.84567E-002,-1.15608E-003,1.99760E-001,-8.84614E-002,-2.29821E-001,2.00195E-001,1.22099E+000,1.75603E-002,0.00000E+000,-1.50369E-002,9.17611E-001,0.00000E+000,-3.59735E-003,-7.23818E-002,1.00000E+000,38
619,1317,-1.64933E+001,-1.29548E+000,2.19895E-001,3.82634E+000,-5.33743E-001,1.76456E-001,3.86742E+000,2.10429E-002,5.92005E-001,0,5.94139E+001,-9.21815E+000,9.95826E-001,1.76087E+001,-4.87016E+001,9.95294E-001,2.10929E-001,-8.84582E-002,-4.64560E-004,2.10930E-001,-8.84589E-002,-8.89056E-002,2.11842E-001,1.23470E+000,1.77522E-002,0.00000E+000,-1.39232E-002,9.17627E-001,0.00000E+000,-9.81362E-004,-7.23452E-002,1.00000E+000,38
1239,1307,3.46421E+001,-1.18141E+000,-8.21568E-002,1.45515E+001,-1.03692E-001,-5.16260E-002,1.45520E+001,2.86923E-002,4.42559E-001,0,2.16883E+002,-3.47035E+000,9.94910E-001,1.89218E+002,-2.98324E+001,9.92820E-001,2.37458E-001,-9.84510E-002,4.70366E-005,2.37458E-001,-9.84510E-002,8.02299E-003,2.38610E-001,1.26796E+000,-1.50832E-002,0.00000E+000,1.12885E-002,9.08432E-001,0.00000E+000,-7.02467E-003,-7.06210E-002,1.00000E+000,38
1239,1317,3.46529E+001,-5.86985E-001,-1.43260E-001,1.45460E+001,-1.59087E-001,-1.07539E-001,1.45473E+001,2.77524E-002,4.20870E-001,0,2.17034E+002,-4.27067E+000,9.95691E-001,1.89345E+002,-3.04568E+001,9.94742E-001,2.38264E-001,-9.84406E-002,1.99175E-004,2.38264E-001,-9.84408E-002,3.38929E-002,2.39459E-001,1.26897E+000,-1.50578E-002,0.00000E+000,1.14750E-002,9.08437E-001,0.00000E+000,-5.96391E-003,-7.05945E-002,1.00000E+000,38
1239,1327,3.46722E+001,-6.07755E-003,-1.41999E-001,1.45372E+001,-2.37560E-001,-1.45431E-001,1.45398E+001,2.12371E-002,4.82753E-001,0,2.17047E+002,-5.45464E+000,9.96542E-001,1.89674E+002,-3.13869E+001,9.95696E-001,2.39076E-001,-9.84252E-002,3.59763E-004,2.39076E-001,-9.84256E-002,6.10749E-002,2.40316E-001,1.27000E+000,-1.50142E-002,0.00000E+000,1.16634E-002,9.08445E-001,0.00000E+000,-4.89206E-003,-7.05489E-002,1.00000E+000,38
1239,1337,3.46961E+001,5.97869E-001,-1.34833E-001,1.45312E+001,-2.88694E-001,-1.84712E-001,1.45352E+001,1.79010E-002,4.05900E-001,0,2.17091E+002,-6.23643E+000,9.95759E-001,1.90083E+002,-3.20433E+001,9.93596E-001,2.39880E-001,-9.84090E-002,5.20231E-004,2.39881E-001,-9.84098E-002,8.81109E-002,2.41166E-001,1.27101E+000,-1.49678E-002,0.00000E+000,1.18505E-002,9.08453E-001,0.00000E+000,-3.82796E-003,-7.05004E-002,1.00000E+000,38
1239,1297,3.46372E+001,-1.76368E+000,-4.03865E-003,1.45561E+001,-3.92697E-002,-4.88920E-003,1.45562E+001,1.79391E-002,4.64369E-001,0,2.16740E+002,-2.52205E+000,9.96295E-001,1.89202E+002,-2.90551E+001,9.94101E-001,2.36653E-001,-9.84583E-002,-1.00719E-004,2.36653E-001,-9.84584E-002,-1.72204E-002,2.37762E-001,1.26694E+000,-1.50978E-002,0.00000E+000,1.11025E-002,9.08429E-001,0.00000E+000,-8.08300E-003,-7.06364E-002,1.00000E+000,38
609,1347,-1.72246E+001,4.37945E-001,2.16741E-002,3.71434E+000,-6.97965E-001,4.37983E-002,3.77960E+000,2.32582E-002,6.17591E-001,0,5.80926E+001,-1.15432E+001,9.93897E-001,1.62967E+001,-5.17376E+001,9.93597E-001,2.00646E-001,-8.66807E-002,-1.22853E-003,2.00651E-001,-8.66859E-002,-2.44975E-001,2.01268E-001,1.22202E+000,2.11060E-002,0.00000E+000,-1.79045E-002,9.19119E-001,0.00000E+000,-2.67643E-003,-7.12800E-002,1.00000E+000,38
609,1357,-1.71991E+001,1.04036E+000,2.04271E-002,3.72391E+000,-7.37537E-001,8.72217E-003,3.79626E+000,1.84540E-002,5.88186E-001,0,5.83338E+001,-1.20957E+001,9.96246E-001,1.68297E+001,-5.24958E+001,9.95912E-001,1.97745E-001,-8.66821E-002,-1.36025E-003,1.97752E-001,-8.66886E-002,-2.74003E-001,1.98252E-001,1.21849E+000,2.10204E-002,0.00000E+000,-1.80788E-002,9.19115E-001,0.00000E+000,-3.46550E-003,-7.12991E-002,1.00000E+000,38
609,1317,-1.72872E+001,-1.30198E+000,2.11765E-001,3.67109E+000,-5.34678E-001,1.66520E-001,3.71356E+000,2.00102E-002,6.13460E-001,0,5.70592E+001,-9.21451E+000,9.96751E-001,1.54584E+001,-4.88830E+001,9.95761E-001,2.09256E-001,-8.66868E-002,-8.96218E-004,2.09259E-001,-8.66895E-002,-1.73509E-001,2.10282E-001,1.23258E+000,2.12104E-002,0.00000E+000,-1.73837E-002,9.19125E-001,0.00000E+000,-3.18752E-004,-7.12567E-002,1.00000E+000,38
609,1327,-1.72708E+001,-7.38163E-001,1.22296E-001,3.68589E+000,-6.01821E-001,1.28418E-001,3.73690E+000,1.43470E-002,6.07326E-001,0,5.74093E+001,-1.01810E+001,9.97399E-001,1.55909E+001,-5.00313E+001,9.96969E-001,2.06399E-001,-8.66829E-002,-9.96420E-004,2.06403E-001,-8.66863E-002,-1.94791E-001,2.07282E-001,1.22907E+000,2.12017E-002,0.00000E+000,-1.75571E-002,9.19124E-001,0.00000E+000,-1.10358E-003,-7.12586E-002,1.00000E+000,38
609,1337,-1.72481E+001,-1.47330E-001,6.26500E-002,3.70132E+000,-6.45163E-001,8.62967E-002,3.75812E+000,1.84871E-002,5.93693E-001,0,5.77694E+001,-1.07875E+001,9.94830E-001,1.59118E+001,-5.08306E+001,9.94629E-001,2.03532E-001,-8.66812E-002,-1.10881E-003,2.03536E-001,-8.66854E-002,-2.18905E-001,2.04280E-001,1.22555E+000,2.11625E-002,0.00000E+000,-1.77305E-002,9.19122E-001,0.00000E+000,-1.88864E-003,-7.12673E-002,1.00000E+000,38
1249,1297,3.54876E+001,-1.74391E+000,-3.41695E-004,1.47382E+001,-2.65713E-002,-7.66057E-003,1.47382E+001,2.02088E-002,4.77208E-001,0,2.19262E+002,-2.34916E+000,9.96897E-001,1.92542E+002,-2.86511E+001,9.94880E-001,2.35375E-001,-9.75738E-002,9.61535E-005,2.35375E-001,-9.75738E-002,1.65467E-002,2.36518E-001,1.26535E+000,-1.34015E-002,0.00000E+000,1.03155E-002,9.09241E-001,0.00000E+000,-8.68795E-003,-7.06149E-002,1.00000E+000,38
1249,1307,3.54835E+001,-1.16982E+000,-9.50361E-002,1.47271E+001,-9.75127E-002,-6.15285E-002,1.47275E+001,2.50921E-002,4.39113E-001,0,2.19349E+002,-3.38228E+000,9.96568E-001,1.92399E+002,-2.95276E+001,9.94453E-001,2.36420E-001,-9.75576E-002,4.75659E-004,2.36420E-001,-9.75583E-002,8.16018E-002,2.37620E-001,1.26666E+000,-1.33875E-002,0.00000E+000,1.08908E-002,9.09248E-001,0.00000E+000,-7.02996E-003,-7.05971E-002,1.00000E+000,38
1249,1317,3.54899E+001,-5.83572E-001,-1.46952E-001,1.47181E+001,-1.60404E-001,-1.04419E-001,1.47193E+001,2.48363E-002,4.17576E-001,0,2.19398E+002,-4.33064E+000,9.93762E-001,1.92466E+002,-3.02980E+001,9.92503E-001,2.37464E-001,-9.75316E-002,8.62701E-004,2.37466E-001,-9.75338E-002,1.47550E-001,2.38724E-001,1.26797E+000,-1.33564E-002,0.00000E+000,1.14679E-002,9.09261E-001,0.00000E+000,-5.36678E-003,-7.05578E-002,1.00000E+000,38
1249,1327,3.55038E+001,1.83229E-002,-1.61129E-001,1.47064E+001,-2.14757E-001,-1.47530E-001,1.47087E+001,2.40022E-002,4.54410E-001,0,2.19387E+002,-5.15283E+000,9.93979E-001,1.92693E+002,-3.08790E+001,9.93373E-001,2.38511E-001,-9.74936E-002,1.26001E-003,2.38516E-001,-9.74983E-002,2.14854E-001,2.39835E-001,1.26929E+000,-1.33050E-002,0.00000E+000,1.20491E-002,9.09284E-001,0.00000E+000,-3.69174E-003,-7.04927E-002,1.00000E+000,38
1249,1337,3.55321E+001,6.21901E-001,-1.44211E-001,1.47018E+001,-2.70243E-001,-1.87231E-001,1.47055E+001,1.91984E-002,4.14415E-001,0,2.19451E+002,-5.98439E+000,9.96885E-001,1.93179E+002,-3.15421E+001,9.96366E-001,2.39555E-001,-9.74471E-002,1.66322E-003,2.39564E-001,-9.74553E-002,2.82765E-001,2.40947E-001,1.27062E+000,-1.32389E-002,0.00000E+000,1.26312E-002,9.09313E-001,0.00000E+000,-2.01412E-003,-7.04089E-002,1.00000E+000,38
1259,1327,3.63456E+001,3.15003E-002,-1.71246E-001,1.48818E+001,-2.06206E-001,-1.54171E-001,1.48841E+001,1.91940E-002,4.33586E-001,0,2.21832E+002,-5.04708E+000,9.97345E-001,1.95887E+002,-3.05609E+001,9.96835E-001,2.38239E-001,-9.69542E-002,2.02294E-003,2.38252E-001,-9.69664E-002,3.45771E-001,2.39622E-001,1.26896E+000,-1.23991E-002,0.00000E+000,1.26939E-002,9.09742E-001,0.00000E+000,-1.68222E-003,-7.01051E-002,1.00000E+000,38
1259,1337,3.63752E+001,6.32688E-001,-1.47611E-001,1.48779E+001,-2.64863E-001,-1.88792E-001,1.48814E+001,1.80841E-002,4.03584E-001,0,2.21884E+002,-5.93908E+000,9.98097E-001,1.96397E+002,-3.12694E+001,9.98090E-001,2.39370E-001,-9.68882E-002,2.57641E-003,2.39390E-001,-9.69079E-002,4.38965E-001,2.40832E-001,1.27040E+000,-1.23257E-002,0.00000E+000,1.35042E-002,9.09784E-001,0.00000E+000,7.18331E-004,-6.99826E-002,1.00000E+000,38
599,1347,-1.79954E+001,4.51025E-001,3.34962E-002,3.58159E+000,-6.79756E-001,5.08248E-002,3.64588E+000,2.34733E-002,6.47682E-001,0,5.60313E+001,-1.12739E+001,9.96263E-001,1.45671E+001,-5.16598E+001,9.96484E-001,1.99647E-001,-8.65614E-002,-9.64871E-004,1.99650E-001,-8.65647E-002,-1.93154E-001,2.00237E-001,1.22075E+000,2.37269E-002,0.00000E+000,-1.94180E-002,9.19111E-001,0.00000E+000,-2.40295E-003,-6.99329E-002,1.00000E+000,38
599,1357,-1.79654E+001,1.03767E+000,2.72431E-002,3.59622E+000,-7.34775E-001,1.35374E-002,3.67054E+000,1.52689E-002,6.13518E-001,0,5.63616E+001,-1.20567E+001,9.96971E-001,1.51511E+001,-5.26531E+001,9.96842E-001,1.96934E-001,-8.65602E-002,-7.70929E-004,1.96936E-001,-8.65623E-002,-1.55808E-001,1.97416E-001,1.21745E+000,2.36502E-002,0.00000E+000,-1.89948E-002,9.19121E-001,0.00000E+000,-3.23076E-003,-6.99521E-002,1.00000E+000,38
1259,1287,3.63339E+001,-2.30728E+000,8.48736E-002,1.49213E+001,5.02498E-002,2.47142E-002,1.49214E+001,2.04005E-002,4.29571E-001,0,2.21624E+002,-1.19934E+000,9.95486E-001,1.95884E+002,-2.75343E+001,9.91707E-001,2.33680E-001,-9.70810E-002,-1.07374E-004,2.33680E-001,-9.70810E-002,-1.85998E-002,2.34791E-001,1.26325E+000,-1.25113E-002,0.00000E+000,9.48052E-003,9.09679E-001,0.00000E+000,-1.12008E-002,-7.02921E-002,1.00000E+000,38
1259,1297,3.63273E+001,-1.73260E+000,-2.68437E-002,1.49133E+001,-1.89511E-002,-2.49929E-002,1.49133E+001,1.88898E-002,4.47703E-001,0,2.21749E+002,-2.22002E+000,9.96037E-001,1.95685E+002,-2.83366E+001,9.93105E-001,2.34827E-001,-9.70682E-002,4.14402E-004,2.34828E-001,-9.70687E-002,7.15388E-002,2.36000E-001,1.26467E+000,-1.25082E-002,0.00000E+000,1.02814E-002,9.09681E-001,0.00000E+000,-8.82847E-003,-7.02869E-002,1.00000E+000,38
1259,1307,3.63260E+001,-1.15205E+000,-1.10144E-001,1.49037E+001,-8.51140E-002,-7.20770E-002,1.49041E+001,1.88016E-002,4.35561E-001,0,2.21826E+002,-3.19597E+000,9.96492E-001,1.95600E+002,-2.91218E+001,9.95065E-001,2.35970E-001,-9.70440E-002,9.42655E-004,2.35972E-001,-9.70466E-002,1.62184E-001,2.37208E-001,1.26610E+000,-1.24900E-002,0.00000E+000,1.10836E-002,9.09691E-001,0.00000E+000,-6.45224E-003,-7.02566E-002,1.00000E+000,38
599,1327,-1.80535E+001,-7.17495E-001,1.33550E-001,3.54067E+000,-5.77074E-001,1.32501E-001,3.58983E+000,1.60837E-002,6.26638E-001,0,5.51609E+001,-9.79125E+000,9.97410E-001,1.36801E+001,-4.98383E+001,9.96665E-001,2.05027E-001,-8.65556E-002,-1.37771E-003,2.05034E-001,-8.65621E-002,-2.70711E-001,2.05860E-001,1.22733E+000,2.38130E-002,0.00000E+000,-2.02611E-002,9.19100E-001,0.00000E+000,-7.53555E-004,-6.99113E-002,1.00000E+000,38
599,1337,-1.80285E+001,-1.38320E-001,6.20322E-002,3.55990E+000,-6.30529E-001,8.71375E-002,3.61636E+000,1.52872E-002,6.20693E-001,0,5.55921E+001,-1.05545E+001,9.96785E-001,1.39986E+001,-5.07893E+001,9.97026E-001,2.02347E-001,-8.65602E-002,-1.16616E-003,2.02352E-001,-8.65649E-002,-2.31267E-001,2.03054E-001,1.22405E+000,2.37842E-002,0.00000E+000,-1.98405E-002,9.19103E-001,0.00000E+000,-1.57640E-003,-6.99185E-002,1.00000E+000,38
1259,1317,3.63324E+001,-5.64246E-001,-1.55736E-001,1.48942E+001,-1.47432E-001,-1.09784E-001,1.48954E+001,1.97158E-002,4.46835E-001,0,2.21846E+002,-4.15434E+000,9.97105E-001,1.95673E+002,-2.98637E+001,9.95892E-001,2.37107E-001,-9.70071E-002,1.47814E-003,2.37113E-001,-9.70137E-002,2.53474E-001,2.38414E-001,1.26752E+000,-1.24553E-002,0.00000E+000,1.18875E-002,9.09711E-001,0.00000E+000,-4.07067E-003,-7.01987E-002,1.00000E+000,38
599,1317,-1.80802E+001,-1.29698E+000,2.24459E-001,3.51531E+000,-5.26575E-001,1.71015E-001,3.55864E+000,2.00653E-002,5.90358E-001,0,5.46501E+001,-9.05407E+000,9.97085E-001,1.33910E+001,-4.89542E+001,9.96834E-001,2.07698E-001,-8.65483E-002,-1.59766E-003,2.07706E-001,-8.65570E-002,-3.11085E-001,2.08664E-001,1.23061E+000,2.38200E-002,0.00000E+000,-2.06816E-002,9.19099E-001,0.00000E+000,6.89675E-005,-6.99096E-002,1.00000E+000,38
589,1347,-1.87782E+001,4.64102E-001,3.49452E-002,3.43721E+000,-6.61059E-001,5.20023E-002,3.50059E+000,1.63269E-002,6.29916E-001,0,5.38024E+001,-1.09551E+001,9.97013E-001,1.26312E+001,-5.15854E+001,9.96974E-001,1.98743E-001,-8.61295E-002,-2.12419E-004,1.98744E-001,-8.61297E-002,-4.27232E-002,1.99331E-001,1.21957E+000,2.74708E-002,0.00000E+000,-2.08615E-002,9.19391E-001,0.00000E+000,-2.32786E-003,-6.86070E-002,1.00000E+000,38
589,1357,-1.87419E+001,1.04961E+000,3.41964E-002,3.45772E+000,-7.18223E-001,1.69006E-002,3.53156E+000,1.29442E-002,6.15390E-001,0,5.42182E+001,-1.17757E+001,9.97475E-001,1.33279E+001,-5.25996E+001,9.97864E-001,1.95961E-001,-8.61291E-002,-1.78728E-005,1.95961E-001,-8.61291E-002,-3.63018E-003,1.96438E-001,1.21618E+000,2.73904E-002,0.00000E+000,-2.04562E-002,9.19401E-001,0.00000E+000,-2.97213E-003,-6.86223E-002,1.00000E+000,38
589,1337,-1.88054E+001,-1.31475E-001,6.89008E-002,3.42034E+000,-6.18777E-001,8.80029E-002,3.47697E+000,1.13622E-002,6.16644E-001,0,5.34406E+001,-1.03570E+001,9.98384E-001,1.21656E+001,-5.08125E+001,9.98313E-001,2.01509E-001,-8.61267E-002,-4.17186E-004,2.01510E-001,-8.61273E-002,-8.31013E-002,2.02216E-001,1.22294E+000,2.75238E-002,0.00000E+000,-2.12656E-002,9.19385E-001,0.00000E+000,-1.68547E-003,-6.85969E-002,1.00000E+000,38
589,1327,-1.88216E+001,-6.93369E-001,1.44104E-001,3.41003E+000,-5.48850E-001,1.38392E-001,3.45669E+000,2.03431E-002,6.77106E-001,0,5.31320E+001,-9.36340E+000,9.98388E-001,1.19963E+001,-4.95734E+001,9.97248E-001,2.04251E-001,-8.61213E-002,-6.29695E-004,2.04252E-001,-8.61226E-002,-1.24250E-001,2.05087E-001,1.22630E+000,2.75539E-002,0.00000E+000,-2.16674E-002,9.19381E-001,0.00000E+000,-1.04668E-003,-6.85912E-002,1.00000E+000,38
1269,1327,3.71951E+001,4.89070E-002,-1.67689E-001,1.50639E+001,-1.95532E-001,-1.48677E-001,1.50659E+001,1.67609E-002,4.24296E-001,0,2.24315E+002,-4.91370E+000,9.97725E-001,1.99218E+002,-3.02008E+001,9.97076E-001,2.38084E-001,-9.61461E-002,2.68913E-003,2.38106E-001,-9.61678E-002,4.60947E-001,2.39567E-001,1.26877E+000,-1.12631E-002,0.00000E+000,1.30762E-002,9.10318E-001,0.00000E+000,-8.97614E-004,-6.75822E-002,1.00000E+000,38
1269,1337,3.72348E+001,6.40470E-001,-1.40770E-001,1.50689E+001,-2.63870E-001,-1.83328E-001,1.50723E+001,1.58265E-002,3.98604E-001,0,2.24502E+002,-5.96751E+000,9.97621E-001,1.99887E+002,-3.10617E+001,9.96374E-001,2.39346E-001,-9.60626E-002,3.37129E-003,2.39379E-001,-9.60965E-002,5.75820E-001,2.40925E-001,1.27038E+000,-1.11783E-002,0.00000E+000,1.41168E-002,9.10373E-001,0.00000E+000,1.60631E-003,-6.74503E-002,1.00000E+000,38
589,1317,-1.88546E+001,-1.27396E+000,2.41572E-001,3.37813E+000,-4.99445E-001,1.81732E-001,3.41968E+000,1.69064E-002,5.81898E-001,0,5.25070E+001,-8.63044E+000,9.95748E-001,1.16321E+001,-4.87482E+001,9.94832E-001,2.06988E-001,-8.61129E-002,-8.52065E-004,2.06991E-001,-8.61154E-002,-1.66561E-001,2.07961E-001,1.22966E+000,2.75595E-002,0.00000E+000,-2.20698E-002,9.19380E-001,0.00000E+000,-4.07038E-004,-6.85901E-002,1.00000E+000,38
1269,1317,3.71865E+001,-5.45206E-001,-1.51706E-001,1.50789E+001,-1.35032E-001,-1.12106E-001,1.50799E+001,1.70454E-002,4.07721E-001,0,2.24396E+002,-3.97861E+000,9.97404E-001,1.99080E+002,-2.94950E+001,9.96567E-001,2.36818E-001,-9.62072E-002,2.01899E-003,2.36831E-001,-9.62194E-002,3.47343E-001,2.38213E-001,1.26717E+000,-1.13210E-002,0.00000E+000,1.20394E-002,9.10281E-001,0.00000E+000,-3.39208E-003,-6.76722E-002,1.00000E+000,38
1269,1307,3.71773E+001,-1.13506E+000,-1.00085E-001,1.50856E+001,-7.49815E-002,-6.83470E-002,1.50860E+001,1.76992E-002,4.24781E-001,0,2.24309E+002,-3.07298E+000,9.96304E-001,1.98968E+002,-2.87856E+001,9.95351E-001,2.35550E-001,-9.62523E-002,1.35827E-003,2.35555E-001,-9.62579E-002,2.34541E-001,2.36862E-001,1.26557E+000,-1.13600E-002,0.00000E+000,1.10071E-002,9.10255E-001,0.00000E+000,-5.87601E-003,-6.77330E-002,1.00000E+000,38
1269,1297,3.71676E+001,-1.72313E+000,-4.20100E-002,1.50868E+001,-1.50863E-002,-3.71800E-002,1.50868E+001,1.83545E-002,4.25770E-001,0,2.24186E+002,-2.14697E+000,9.95786E-001,1.98855E+002,-2.80714E+001,9.94677E-001,2.34273E-001,-9.62867E-002,7.02539E-004,2.34275E-001,-9.62882E-002,1.21770E-001,2.35509E-001,1.26398E+000,-1.13866E-002,0.00000E+000,9.97577E-003,9.10238E-001,0.00000E+000,-8.35755E-003,-6.77744E-002,1.00000E+000,38
1269,1287,3.71807E+001,-2.30085E+000,8.52225E-002,1.50991E+001,4.98267E-002,1.97228E-002,1.50992E+001,2.30435E-002,3.84802E-001,0,2.24088E+002,-1.19034E+000,9.96400E-001,1.99172E+002,-2.73621E+001,9.94603E-001,2.32993E-001,-9.62972E-002,5.99535E-005,2.32993E-001,-9.62973E-002,1.04318E-002,2.34158E-001,1.26239E+000,-1.13847E-002,0.00000E+000,8.94818E-003,9.10239E-001,0.00000E+000,-1.08301E-002,-6.77714E-002,1.00000E+000,38
579,1347,-1.95521E+001,4.71448E-001,4.32224E-002,3.30059E+000,-6.48961E-001,5.57743E-002,3.36424E+000,1.38177E-002,6.24001E-001,0,5.16859E+001,-1.07489E+001,9.97139E-001,1.08545E+001,-5.16069E+001,9.97494E-001,1.97152E-001,-8.53944E-002,6.70778E-004,1.97154E-001,-8.53960E-002,1.36022E-001,1.97741E-001,1.21754E+000,3.13818E-002,0.00000E+000,-2.21686E-002,9.19991E-001,0.00000E+000,-3.00729E-003,-6.78795E-002,1.00000E+000,38
579,1357,-1.95078E+001,1.06824E+000,4.29254E-002,3.32907E+000,-6.95175E-001,1.92573E-002,3.40094E+000,1.38935E-002,6.34280E-001,0,5.22269E+001,-1.14040E+001,9.98281E-001,1.16805E+001,-5.24376E+001,9.98545E-001,1.94146E-001,-8.53951E-002,9.44598E-004,1.94149E-001,-8.53983E-002,1.93606E-001,1.94617E-001,1.21389E+000,3.12947E-002,0.00000E+000,-2.16181E-002,9.20004E-001,0.00000E+000,-3.76257E-003,-6.78975E-002,1.00000E+000,38
579,1337,-1.95873E+001,-1.20491E-001,7.99928E-002,3.27568E+000,-6.03279E-001,9.45589E-002,3.33211E+000,1.43848E-002,6.10233E-001,0,5.11908E+001,-1.01023E+001,9.96435E-001,1.02767E+001,-5.07835E+001,9.96938E-001,2.00138E-001,-8.53890E-002,3.85816E-004,2.00139E-001,-8.53895E-002,7.74201E-002,2.00855E-001,1.22118E+000,3.14381E-002,0.00000E+000,-2.27172E-002,9.19982E-001,0.00000E+000,-2.25462E-003,-6.78678E-002,1.00000E+000,38
579,1327,-1.96171E+001,-6.86594E-001,1.37914E-001,3.25226E+000,-5.37771E-001,1.31374E-001,3.29904E+000,1.44936E-002,6.65380E-001,0,5.07162E+001,-9.13513E+000,9.98033E-001,9.84841E+000,-4.95745E+001,9.97231E-001,2.03096E-001,-8.53804E-002,9.45452E-005,2.03096E-001,-8.53805E-002,1.87781E-002,2.03952E-001,1.22479E+000,3.14733E-002,0.00000E+000,-2.32625E-002,9.19977E-001,0.00000E+000,-1.50652E-003,-6.78606E-002,1.00000E+000,38
579,1317,-1.96380E+001,-1.25705E+000,2.38892E-001,3.23264E+000,-4.79765E-001,1.79844E-001,3.27299E+000,2.10947E-002,6.41380E-001,0,5.02680E+001,-8.29271E+000,9.95578E-001,9.68159E+000,-4.85620E+001,9.94509E-001,2.06043E-001,-8.53676E-002,-2.07495E-004,2.06043E-001,-8.53677E-002,-4.07968E-002,2.07049E-001,1.22841E+000,3.14803E-002,0.00000E+000,-2.38076E-002,9.19976E-001,0.00000E+000,-7.58702E-004,-6.78591E-002,1.00000E+000,38
1279,1317,3.80277E+001,-5.38233E-001,-1.51664E-001,1.52536E+001,-1.32338E-001,-1.05935E-001,1.52545E+001,1.41114E-002,3.79962E-001,0,2.26768E+002,-3.98204E+000,9.97295E-001,2.02285E+002,-2.93015E+001,9.95718E-001,2.36308E-001,-9.50495E-002,2.46834E-003,2.36327E-001,-9.50679E-002,4.26774E-001,2.37827E-001,1.26653E+000,-9.98054E-003,0.00000E+000,1.18790E-002,9.11180E-001,0.00000E+000,-2.66227E-003,-6.50324E-002,1.00000E+000,38
1279,1327,3.80548E+001,6.25028E-002,-1.65008E-001,1.52554E+001,-1.88700E-001,-1.45304E-001,1.52572E+001,2.45629E-002,4.24198E-001,0,2.26942E+002,-4.84289E+000,9.95856E-001,2.02714E+002,-2.98925E+001,9.95527E-001,2.37769E-001,-9.49743E-002,3.26445E-003,2.37801E-001,-9.50063E-002,5.62041E-001,2.39396E-001,1.26839E+000,-9.90919E-003,0.00000E+000,1.31360E-002,9.11228E-001,0.00000E+000,1.17550E-005,-6.49294E-002,1.00000E+000,38
1279,1337,3.80902E+001,6.52806E-001,-1.41949E-001,1.52560E+001,-2.59852E-001,-1.83327E-001,1.52593E+001,1.94506E-002,4.14220E-001,0,2.27081E+002,-5.91908E+000,9.97064E-001,2.03309E+002,-3.07557E+001,9.96442E-001,2.39223E-001,-9.48760E-002,4.07212E-003,2.39272E-001,-9.49256E-002,6.98203E-001,2.40968E-001,1.27025E+000,-9.81116E-003,0.00000E+000,1.43968E-002,9.11295E-001,0.00000E+000,2.69373E-003,-6.47880E-002,1.00000E+000,38
1279,1307,3.80089E+001,-1.12776E+000,-1.13513E-001,1.52520E+001,-7.19503E-002,-7.11323E-002,1.52524E+001,1.55037E-002,4.28591E-001,0,2.26600E+002,-3.05258E+000,9.97274E-001,2.02009E+002,-2.85448E+001,9.95193E-001,2.34849E-001,-9.51049E-002,1.68627E-003,2.34858E-001,-9.51135E-002,2.92807E-001,2.36267E-001,1.26470E+000,-1.00292E-002,0.00000E+000,1.06318E-002,9.11147E-001,0.00000E+000,-5.31522E-003,-6.51026E-002,1.00000E+000,38
1279,1297,3.80085E+001,-1.70176E+000,-2.42062E-002,1.52591E+001,1.52527E-003,-2.15989E-002,1.52591E+001,2.95046E-002,3.62769E-001,0,2.26468E+002,-1.94234E+000,9.95301E-001,2.02074E+002,-2.77125E+001,9.94049E-001,2.33380E-001,-9.51364E-002,9.14246E-004,2.33382E-001,-9.51390E-002,1.59450E-001,2.34705E-001,1.26286E+000,-1.00504E-002,0.00000E+000,9.38461E-003,9.11133E-001,0.00000E+000,-7.96837E-003,-6.51331E-002,1.00000E+000,38
1279,1287,3.80173E+001,-2.30540E+000,7.42454E-002,1.52710E+001,4.22782E-002,2.10969E-002,1.52711E+001,2.74049E-002,3.06021E-001,0,2.26445E+002,-1.30731E+000,9.95807E-001,2.02291E+002,-2.73552E+001,9.93443E-001,2.31904E-001,-9.51568E-002,1.48917E-004,2.31904E-001,-9.51568E-002,2.60878E-002,2.33144E-001,1.26102E+000,-1.00593E-002,0.00000E+000,8.14116E-003,9.11127E-001,0.00000E+000,-1.06135E-002,-6.51459E-002,1.00000E+000,38
569,1347,-2.03249E+001,4.90785E-001,5.36894E-002,3.16508E+000,-6.24967E-001,6.34120E-002,3.22682E+000,1.47996E-002,6.48765E-001,0,4.95713E+001,-1.03754E+001,9.96700E-001,9.11197E+000,-5.14341E+001,9.96574E-001,1.96109E-001,-8.45428E-002,1.39753E-003,1.96116E-001,-8.45497E-002,2.85300E-001,1.96736E-001,1.21616E+000,3.54256E-002,0.00000E+000,-2.38937E-002,9.20710E-001,0.00000E+000,-3.24834E-003,-6.75108E-002,1.00000E+000,38
569,1357,-2.02843E+001,1.07767E+000,4.35843E-002,3.19122E+000,-6.78743E-001,2.47492E-002,3.26270E+000,1.37244E-002,6.33548E-001,0,5.00837E+001,-1.11466E+001,9.97670E-001,9.85039E+000,-5.24108E+001,9.97479E-001,1.92917E-001,-8.45480E-002,1.83067E-003,1.92929E-001,-8.45601E-002,3.78006E-001,1.93419E-001,1.21229E+000,3.53417E-002,0.00000E+000,-2.30445E-002,9.20728E-001,0.00000E+000,-4.30977E-003,-6.75338E-002,1.00000E+000,38
569,1327,-2.03915E+001,-6.84716E-001,1.42417E-001,3.11595E+000,-5.30528E-001,1.39252E-001,3.16386E+000,2.25285E-002,6.70552E-001,0,4.85943E+001,-9.01893E+000,9.98146E-001,8.05860E+000,-4.96624E+001,9.97688E-001,2.02434E-001,-8.45170E-002,5.09339E-004,2.02435E-001,-8.45179E-002,1.01700E-001,2.03351E-001,1.22387E+000,3.55272E-002,0.00000E+000,-2.55857E-002,9.20687E-001,0.00000E+000,-1.13340E-003,-6.74829E-002,1.00000E+000,38
569,1337,-2.03608E+001,-9.87847E-002,8.77356E-002,3.13867E+000,-5.77910E-001,9.57236E-002,3.19286E+000,1.41502E-002,6.34947E-001,0,4.90693E+001,-9.68879E+000,9.96948E-001,8.51446E+000,-5.05662E+001,9.96927E-001,1.99284E-001,-8.45310E-002,9.54136E-004,1.99287E-001,-8.45342E-002,1.92616E-001,2.00049E-001,1.22002E+000,3.54809E-002,0.00000E+000,-2.47413E-002,9.20697E-001,0.00000E+000,-2.18885E-003,-6.74957E-002,1.00000E+000,38
1289,1327,3.88917E+001,6.78496E-002,-1.68589E-001,1.54265E+001,-1.87846E-001,-1.37370E-001,1.54282E+001,2.22030E-002,4.07928E-001,0,2.29252E+002,-4.87292E+000,9.94958E-001,2.05849E+002,-2.97099E+001,9.93938E-001,2.37495E-001,-9.34064E-002,3.86475E-003,2.37540E-001,-9.34516E-002,6.69061E-001,2.39333E-001,1.26806E+000,-8.09205E-003,0.00000E+000,1.29117E-002,9.12498E-001,0.00000E+000,1.03834E-003,-6.20285E-002,1.00000E+000,38
1289,1337,3.89297E+001,6.68810E-001,-1.44956E-001,1.54296E+001,-2.48783E-001,-1.74138E-001,1.54326E+001,2.09172E-002,4.18062E-001,0,2.29418E+002,-5.80297E+000,9.96694E-001,2.06482E+002,-3.03966E+001,9.95968E-001,2.39254E-001,-9.32968E-002,4.78126E-003,2.39323E-001,-9.33655E-002,8.23545E-001,2.41241E-001,1.27031E+000,-7.97326E-003,0.00000E+000,1.43534E-002,9.12575E-001,0.00000E+000,4.00236E-003,-6.18722E-002,1.00000E+000,38
569,1317,-2.04225E+001,-1.24503E+000,2.40353E-001,3.08469E+000,-4.62714E-001,1.75430E-001,3.12413E+000,2.34740E-002,6.42672E-001,0,4.79941E+001,-8.01081E+000,9.96360E-001,7.73245E+000,-4.84891E+001,9.94710E-001,2.05570E-001,-8.44924E-002,4.63429E-005,2.05570E-001,-8.44924E-002,9.15407E-003,2.06652E-001,1.22771E+000,3.55258E-002,0.00000E+000,-2.64295E-002,9.20688E-001,0.00000E+000,-7.86306E-005,-6.74833E-002,1.00000E+000,38
1289,1317,3.88664E+001,-5.32398E-001,-1.50220E-001,1.54241E+001,-1.34590E-001,-1.01879E-001,1.54250E+001,2.16770E-002,4.50271E-001,0,2.29083E+002,-4.05355E+000,9.97449E-001,2.05453E+002,-2.90804E+001,9.94621E-001,2.35738E-001,-9.34835E-002,2.96966E-003,2.35765E-001,-9.35103E-002,5.16766E-001,2.37438E-001,1.26583E+000,-8.17043E-003,0.00000E+000,1.14819E-002,9.12448E-001,0.00000E+000,-1.90139E-003,-6.21317E-002,1.00000E+000,38
1289,1287,3.88502E+001,-2.27897E+000,5.88837E-002,1.54370E+001,6.30737E-002,1.18073E-002,1.54371E+001,2.83485E-002,4.07007E-001,0,2.28741E+002,-1.03129E+000,9.96009E-001,2.05353E+002,-2.67672E+001,9.92756E-001,2.30403E-001,-9.36021E-002,3.40261E-004,2.30404E-001,-9.36024E-002,6.01702E-002,2.31750E-001,1.25915E+000,-8.26983E-003,0.00000E+000,7.20564E-003,9.12385E-001,0.00000E+000,-1.06932E-002,-6.22625E-002,1.00000E+000,38
1289,1297,3.88344E+001,-1.69410E+000,-6.16679E-002,1.54145E+001,3.76179E-003,-6.60007E-002,1.54147E+001,3.55581E-002,3.79002E-001,0,2.28769E+002,-1.86745E+000,9.96133E-001,2.05005E+002,-2.74108E+001,9.91514E-001,2.32186E-001,-9.35718E-002,1.20911E-003,2.32190E-001,-9.35763E-002,2.12660E-001,2.33642E-001,1.26136E+000,-8.24710E-003,0.00000E+000,8.62416E-003,9.12399E-001,0.00000E+000,-7.77674E-003,-6.22326E-002,1.00000E+000,38
1289,1307,3.88553E+001,-1.11954E+000,-1.14462E-001,1.54290E+001,-7.06977E-002,-7.45493E-002,1.54293E+001,1.87546E-002,4.42194E-001,0,2.29038E+002,-3.05164E+000,9.98365E-001,2.05296E+002,-2.83103E+001,9.96656E-001,2.33969E-001,-9.35411E-002,2.08366E-003,2.33982E-001,-9.35543E-002,3.64504E-001,2.35542E-001,1.26360E+000,-8.22522E-003,0.00000E+000,1.00535E-002,9.12413E-001,0.00000E+000,-4.83801E-003,-6.22038E-002,1.00000E+000,38
559,1327,-2.11558E+001,-6.74855E-001,1.43694E-001,2.98839E+000,-5.16922E-001,1.38292E-001,3.03592E+000,3.80793E-002,7.57066E-001,0,4.66276E+001,-8.81309E+000,9.98554E-001,6.42023E+000,-4.95792E+001,9.97605E-001,2.01718E-001,-8.42308E-002,1.20949E-003,2.01723E-001,-8.42359E-002,2.42340E-001,2.02634E-001,1.22286E+000,3.98606E-002,0.00000E+000,-2.75776E-002,9.20833E-001,0.00000E+000,-8.35289E-004,-6.64785E-002,1.00000E+000,38
559,1337,-2.11354E+001,-8.62617E-002,8.55005E-002,3.00108E+000,-5.60490E-001,9.27478E-002,3.05438E+000,1.19645E-002,6.47800E-001,0,4.69496E+001,-9.39073E+000,9.98786E-001,6.70885E+000,-5.04748E+001,9.98578E-001,1.98656E-001,-8.42429E-002,1.53670E-003,1.98665E-001,-8.42512E-002,3.11216E-001,1.99427E-001,1.21913E+000,3.98178E-002,0.00000E+000,-2.69523E-002,9.20841E-001,0.00000E+000,-2.07842E-003,-6.64927E-002,1.00000E+000,38
559,1347,-2.11052E+001,5.04638E-001,4.99322E-002,3.02186E+000,-6.04459E-001,5.83000E-002,3.08227E+000,1.79689E-002,6.25177E-001,0,4.73677E+001,-1.00299E+001,9.96802E-001,7.21639E+000,-5.13400E+001,9.96121E-001,1.95576E-001,-8.42532E-002,1.86098E-003,1.95588E-001,-8.42656E-002,3.81019E-001,1.96211E-001,1.21538E+000,3.97646E-002,0.00000E+000,-2.63253E-002,9.20850E-001,0.00000E+000,-3.32470E-003,-6.65104E-002,1.00000E+000,38
559,1357,-2.10599E+001,1.09194E+000,4.37211E-002,3.05343E+000,-6.56739E-001,2.72736E-002,3.12338E+000,1.58258E-002,6.15620E-001,0,4.79450E+001,-1.08033E+001,9.96757E-001,8.03873E+000,-5.23171E+001,9.96749E-001,1.92473E-001,-8.42596E-002,2.17732E-003,1.92490E-001,-8.42768E-002,4.50764E-001,1.92985E-001,1.21163E+000,3.96877E-002,0.00000E+000,-2.56962E-002,9.20862E-001,0.00000E+000,-4.57538E-003,-6.65360E-002,1.00000E+000,38
559,1317,-2.11948E+001,-1.22330E+000,2.49736E-001,2.94862E+000,-4.37859E-001,1.79844E-001,2.98637E+000,3.37369E-002,6.70034E-001,0,4.58778E+001,-7.60893E+000,9.98154E-001,6.00001E+000,-4.82695E+001,9.97139E-001,2.04768E-001,-8.42112E-002,8.63889E-004,2.04771E-001,-8.42138E-002,1.71281E-001,2.05843E-001,1.22660E+000,3.98567E-002,0.00000E+000,-2.82033E-002,9.20834E-001,0.00000E+000,4.08425E-004,-6.64798E-002,1.00000E+000,38
1299,1327,3.97337E+001,8.43870E-002,-1.62800E-001,1.55980E+001,-1.78738E-001,-1.35033E-001,1.55996E+001,2.80500E-002,4.17965E-001,0,2.31576E+002,-4.76707E+000,9.94710E-001,2.09076E+002,-2.93604E+001,9.93490E-001,2.37335E-001,-9.16274E-002,4.44044E-003,2.37395E-001,-9.16873E-002,7.73209E-001,2.39435E-001,1.26788E+000,-5.47102E-003,0.00000E+000,1.20953E-002,9.13963E-001,0.00000E+000,1.59240E-003,-5.88153E-002,1.00000E+000,38
1299,1337,3.97912E+001,6.81200E-001,-1.39210E-001,1.56193E+001,-2.45482E-001,-1.76393E-001,1.56222E+001,2.55171E-002,4.50081E-001,0,2.32030E+002,-5.77842E+000,9.94542E-001,2.10015E+002,-3.00970E+001,9.93437E-001,2.39447E-001,-9.15059E-002,5.45320E-003,2.39537E-001,-9.15957E-002,9.43736E-001,2.41736E-001,1.27058E+000,-5.32239E-003,0.00000E+000,1.36991E-002,9.14051E-001,0.00000E+000,4.72339E-003,-5.86433E-002,1.00000E+000,38
1299,1287,3.96971E+001,-2.27138E+000,6.22218E-002,1.56121E+001,6.18344E-002,5.44530E-003,1.56122E+001,2.04899E-002,4.84305E-001,0,2.31155E+002,-1.07137E+000,9.96919E-001,2.08655E+002,-2.65233E+001,9.95337E-001,2.28835E-001,-9.18247E-002,5.75873E-004,2.28836E-001,-9.18257E-002,1.02897E-001,2.30318E-001,1.25719E+000,-5.67865E-003,0.00000E+000,5.76203E-003,9.13840E-001,0.00000E+000,-1.07714E-002,-5.90555E-002,1.00000E+000,38
1299,1297,3.97011E+001,-1.69295E+000,-1.34111E-002,1.56109E+001,-3.66050E-003,-2.20663E-002,1.56109E+001,2.15068E-002,4.71350E-001,0,2.31277E+002,-2.11430E+000,9.97986E-001,2.08662E+002,-2.73525E+001,9.95716E-001,2.30972E-001,-9.17991E-002,1.52663E-003,2.30979E-001,-9.18063E-002,2.70987E-001,2.32593E-001,1.25985E+000,-5.65714E-003,0.00000E+000,7.33739E-003,9.13853E-001,0.00000E+000,-7.69598E-003,-5.90307E-002,1.00000E+000,38
1299,1307,3.97108E+001,-1.11369E+000,-1.30456E-001,1.56100E+001,-7.39572E-002,-1.10252E-001,1.56105E+001,5.14149E-002,3.26597E-001,0,2.31667E+002,-2.99337E+000,9.96968E-001,2.08720E+002,-2.81437E+001,9.91545E-001,2.33108E-001,-9.17564E-002,2.49151E-003,2.33128E-001,-9.17755E-002,4.39388E-001,2.34878E-001,1.26252E+000,-5.61369E-003,0.00000E+000,8.92318E-003,9.13879E-001,0.00000E+000,-4.60019E-003,-5.89804E-002,1.00000E+000,38
1299,1317,3.97325E+001,-5.10823E-001,-1.37011E-001,1.56162E+001,-1.22027E-001,-1.05838E-001,1.56171E+001,3.62102E-002,4.51552E-001,0,2.31727E+002,-3.88151E+000,9.94960E-001,2.09067E+002,-2.86716E+001,9.93051E-001,2.35229E-001,-9.16982E-002,3.46342E-003,2.35266E-001,-9.17349E-002,6.06891E-001,2.37159E-001,1.26520E+000,-5.55033E-003,0.00000E+000,1.05093E-002,9.13916E-001,0.00000E+000,-1.50384E-003,-5.89071E-002,1.00000E+000,38
559,1307,-2.12301E+001,-1.79501E+000,3.62091E-001,2.91092E+000,-3.83203E-001,2.16662E-001,2.94402E+000,1.71967E-002,6.53074E-001,0,4.51776E+001,-6.81883E+000,9.96388E-001,5.65073E+000,-4.72929E+001,9.95554E-001,2.07807E-001,-8.41899E-002,5.14996E-004,2.07808E-001,-8.41908E-002,1.01052E-001,2.09051E-001,1.23033E+000,3.98428E-002,0.00000E+000,-2.88288E-002,9.20836E-001,0.00000E+000,1.65195E-003,-6.64844E-002,1.00000E+000,38
549,1347,-2.18699E+001,5.22129E-001,4.86983E-002,2.89382E+000,-5.82600E-001,5.58636E-002,2.95242E+000,1.58638E-002,6.49027E-001,0,4.53917E+001,-9.65948E+000,9.96668E-001,5.57226E+000,-5.11699E+001,9.95945E-001,1.95076E-001,-8.38147E-002,2.40098E-003,1.95097E-001,-8.38354E-002,4.93213E-001,1.95738E-001,1.21464E+000,4.38348E-002,0.00000E+000,-2.84315E-002,9.21119E-001,0.00000E+000,-3.23636E-003,-6.52849E-002,1.00000E+000,38
549,1357,-2.18255E+001,1.12034E+000,4.71498E-002,2.92386E+000,-6.24781E-001,2.42168E-002,2.98996E+000,1.71971E-002,6.34641E-001,0,4.59433E+001,-1.02663E+001,9.96681E-001,6.39988E+000,-5.19948E+001,9.96556E-001,1.92110E-001,-8.38220E-002,2.70576E-003,1.92136E-001,-8.38486E-002,5.61765E-001,1.92654E-001,1.21105E+000,4.37580E-002,0.00000E+000,-2.78236E-002,9.21132E-001,0.00000E+000,-4.60026E-003,-6.53141E-002,1.00000E+000,38
549,1327,-2.19648E+001,-6.47173E-001,1.58248E-001,2.81409E+000,-4.84857E-001,1.40628E-001,2.85901E+000,2.92833E-002,7.20368E-001,0,4.39120E+001,-8.28833E+000,9.97195E-001,4.15075E+000,-4.93190E+001,9.95262E-001,2.00949E-001,-8.37883E-002,1.76616E-003,2.00960E-001,-8.37993E-002,3.55375E-001,2.01881E-001,1.22178E+000,4.39158E-002,0.00000E+000,-2.96422E-002,9.21105E-001,0.00000E+000,-5.20396E-004,-6.52541E-002,1.00000E+000,38
549,1337,-2.19064E+001,-6.32740E-002,8.78340E-002,2.86640E+000,-5.31221E-001,9.18443E-002,2.91666E+000,1.24393E-002,6.51280E-001,0,4.48638E+001,-8.93428E+000,9.98236E-001,4.98107E+000,-5.02372E+001,9.97900E-001,1.98029E-001,-8.38028E-002,2.08536E-003,1.98044E-001,-8.38182E-002,4.23918E-001,1.98821E-001,1.21822E+000,4.38834E-002,0.00000E+000,-2.90391E-002,9.21111E-001,0.00000E+000,-1.87331E-003,-6.52665E-002,1.00000E+000,38
1309,1317,4.05578E+001,-5.11157E-001,-1.65398E-001,1.57750E+001,-1.26160E-001,-1.22414E-001,1.57759E+001,2.94193E-002,4.25656E-001,0,2.33958E+002,-3.93471E+000,9.94583E-001,2.12006E+002,-2.85313E+001,9.93078E-001,2.35162E-001,-9.02534E-002,4.10876E-003,2.35213E-001,-9.03053E-002,7.23274E-001,2.37317E-001,1.26513E+000,-1.91171E-003,0.00000E+000,9.10367E-003,9.15095E-001,0.00000E+000,-1.64302E-003,-5.57911E-002,1.00000E+000,38
1309,1327,4.05843E+001,8.95176E-002,-1.89503E-001,1.57794E+001,-1.79381E-001,-1.59662E-001,1.57812E+001,3.41328E-002,4.07680E-001,0,2.34168E+002,-4.75618E+000,9.93562E-001,2.12414E+002,-2.91259E+001,9.91226E-001,2.37658E-001,-9.01846E-002,5.02529E-003,2.37735E-001,-9.02616E-002,8.77976E-001,2.40019E-001,1.26830E+000,-1.80433E-003,0.00000E+000,1.05711E-002,9.15145E-001,0.00000E+000,1.49590E-003,-5.56848E-002,1.00000E+000,38
1309,1337,4.06370E+001,6.95356E-001,-1.48978E-001,1.57968E+001,-2.36433E-001,-1.79217E-001,1.57996E+001,3.53341E-002,4.57648E-001,0,2.34465E+002,-5.67925E+000,9.95553E-001,2.13288E+002,-2.97496E+001,9.94476E-001,2.40158E-001,-9.00799E-002,5.97208E-003,2.40266E-001,-9.01879E-002,1.03569E+000,2.42742E-001,1.27150E+000,-1.63412E-003,0.00000E+000,1.20513E-002,9.15224E-001,0.00000E+000,4.66204E-003,-5.55163E-002,1.00000E+000,38
549,1317,-2.19762E+001,-1.20885E+000,2.69745E-001,2.80318E+000,-4.19663E-001,1.94995E-001,2.84112E+000,2.50168E-002,7.67830E-001,0,4.35860E+001,-7.37948E+000,9.97797E-001,4.16594E+000,-4.81506E+001,9.96818E-001,2.03858E-001,-8.37689E-002,1.43537E-003,2.03865E-001,-8.37761E-002,2.85919E-001,2.04940E-001,1.22534E+000,4.39181E-002,0.00000E+000,-3.02453E-002,9.21105E-001,0.00000E+000,8.32598E-004,-6.52533E-002,1.00000E+000,38
549,1307,-2.20035E+001,-1.77879E+000,3.57393E-001,2.77434E+000,-3.62607E-001,2.12740E-001,2.80602E+000,1.70208E-002,6.73020E-001,0,4.30748E+001,-6.47207E+000,9.97119E-001,3.86626E+000,-4.71304E+001,9.96446E-001,2.06762E-001,-8.37477E-002,1.10021E-003,2.06766E-001,-8.37519E-002,2.16984E-001,2.08005E-001,1.22891E+000,4.39097E-002,0.00000E+000,-3.08497E-002,9.21106E-001,0.00000E+000,2.18849E-003,-6.52564E-002,1.00000E+000,38
1309,1287,4.05437E+001,-2.27181E+000,5.72279E-002,1.57855E+001,5.55903E-002,-1.25698E-002,1.57856E+001,1.74513E-002,4.77082E-001,0,2.33592E+002,-1.17489E+000,9.97270E-001,2.11949E+002,-2.64290E+001,9.95382E-001,2.27600E-001,-9.03404E-002,1.44342E-003,2.27607E-001,-9.03469E-002,2.60110E-001,2.29213E-001,1.25566E+000,-2.03161E-003,0.00000E+000,4.72033E-003,9.15040E-001,0.00000E+000,-1.10190E-002,-5.59097E-002,1.00000E+000,38
1309,1297,4.05452E+001,-1.69939E+000,-3.42501E-002,1.57836E+001,-1.76144E-002,-4.91943E-002,1.57837E+001,2.45196E-002,4.35632E-001,0,2.33753E+002,-2.26608E+000,9.96736E-001,2.11903E+002,-2.73307E+001,9.94074E-001,2.30136E-001,-9.03253E-002,2.32279E-003,2.30152E-001,-9.03422E-002,4.15267E-001,2.31918E-001,1.25881E+000,-2.01453E-003,0.00000E+000,6.18005E-003,9.15048E-001,0.00000E+000,-7.89666E-003,-5.58928E-002,1.00000E+000,38
1309,1307,4.05463E+001,-1.09878E+000,-1.18608E-001,1.57798E+001,-6.10225E-002,-8.39552E-002,1.57802E+001,2.76921E-002,3.73156E-001,0,2.33861E+002,-2.93305E+000,9.96435E-001,2.11857E+002,-2.78181E+001,9.95507E-001,2.32646E-001,-9.03054E-002,3.20151E-003,2.32678E-001,-9.03371E-002,5.67916E-001,2.34607E-001,1.26196E+000,-1.99080E-003,0.00000E+000,7.63533E-003,9.15059E-001,0.00000E+000,-4.78382E-003,-5.58693E-002,1.00000E+000,38
539,1347,-2.26407E+001,5.44347E-001,5.05903E-002,2.75918E+000,-5.54649E-001,5.54652E-002,2.81492E+000,1.43203E-002,6.34953E-001,0,4.33024E+001,-9.20157E+000,9.97137E-001,3.85202E+000,-5.09543E+001,9.97116E-001,1.94627E-001,-8.31443E-002,2.56270E-003,1.94650E-001,-8.31680E-002,5.28547E-001,1.95336E-001,1.21396E+000,4.74432E-002,0.00000E+000,-3.09033E-002,9.21576E-001,0.00000E+000,-3.17799E-003,-6.39004E-002,1.00000E+000,38
539,1357,-2.25952E+001,1.14635E+000,4.39398E-002,2.79143E+000,-5.92343E-001,2.47010E-002,2.85369E+000,1.27661E-002,6.42006E-001,0,4.38859E+001,-9.74468E+000,9.98071E-001,4.68344E+000,-5.17010E+001,9.97947E-001,1.91870E-001,-8.31523E-002,2.81542E-003,1.91899E-001,-8.31811E-002,5.86458E-001,1.92464E-001,1.21063E+000,4.73775E-002,0.00000E+000,-3.03978E-002,9.21586E-001,0.00000E+000,-4.62563E-003,-6.39290E-002,1.00000E+000,38
539,1327,-2.27169E+001,-6.19325E-001,1.43869E-001,2.69848E+000,-4.49499E-001,1.26709E-001,2.73860E+000,1.60173E-002,6.39613E-001,0,4.21553E+001,-7.68106E+000,9.94414E-001,2.66870E+000,-4.90088E+001,9.94714E-001,2.00093E-001,-8.31206E-002,2.03773E-003,2.00108E-001,-8.31353E-002,4.12216E-001,2.01059E-001,1.22060E+000,4.75196E-002,0.00000E+000,-3.19113E-002,9.21565E-001,0.00000E+000,-2.91166E-004,-6.38672E-002,1.00000E+000,38
539,1337,-2.26783E+001,-3.58128E-002,8.70349E-002,2.73056E+000,-4.98302E-001,8.83877E-002,2.77706E+000,1.48999E-002,6.29502E-001,0,4.27627E+001,-8.38742E+000,9.96562E-001,3.23797E+000,-4.99373E+001,9.96434E-001,1.97371E-001,-8.31333E-002,2.30182E-003,1.97390E-001,-8.31522E-002,4.70127E-001,1.98204E-001,1.21729E+000,4.74873E-002,0.00000E+000,-3.14084E-002,9.21569E-001,0.00000E+000,-1.73148E-003,-6.38813E-002,1.00000E+000,38
1319,1297,4.13625E+001,-1.69059E+000,-6.71663E-002,1.59340E+001,-1.09599E-002,-7.07008E-002,1.59342E+001,2.18707E-002,3.69183E-001,0,2.35873E+002,-2.14260E+000,9.97267E-001,2.14719E+002,-2.70638E+001,9.95163E-001,2.29529E-001,-8.87511E-002,3.38285E-003,2.29565E-001,-8.87870E-002,6.08878E-001,2.31519E-001,1.25806E+000,2.55761E-003,0.00000E+000,4.82608E-003,9.16333E-001,0.00000E+000,-8.08975E-003,-5.24320E-002,1.00000E+000,38
1319,1307,4.13794E+001,-1.10210E+000,-1.34433E-001,1.59427E+001,-6.92854E-002,-1.00012E-001,1.59432E+001,2.69307E-002,3.46106E-001,0,2.36141E+002,-3.05499E+000,9.96719E-001,2.14936E+002,-2.77537E+001,9.96130E-001,2.32445E-001,-8.87276E-002,4.25150E-003,2.32501E-001,-8.87839E-002,7.58273E-001,2.34654E-001,1.26171E+000,2.60354E-003,0.00000E+000,6.26079E-003,9.16351E-001,0.00000E+000,-4.82361E-003,-5.23909E-002,1.00000E+000,38
539,1307,-2.27794E+001,-1.76709E+000,3.43326E-001,2.63433E+000,-3.44909E-001,1.96242E-001,2.66405E+000,1.25646E-002,6.54755E-001,0,4.09477E+001,-6.15575E+000,9.97399E-001,2.01893E+000,-4.70372E+001,9.97158E-001,2.05494E-001,-8.30853E-002,1.48323E-003,2.05501E-001,-8.30929E-002,2.94477E-001,2.06751E-001,1.22721E+000,4.75114E-002,0.00000E+000,-3.29146E-002,9.21566E-001,0.00000E+000,2.58215E-003,-6.38708E-002,1.00000E+000,38
539,1317,-2.27494E+001,-1.20223E+000,2.36880E-001,2.66674E+000,-4.04839E-001,1.64549E-001,2.70231E+000,1.49439E-002,6.81309E-001,0,4.15517E+001,-7.06300E+000,9.95928E-001,2.30237E+000,-4.81310E+001,9.95350E-001,2.02800E-001,-8.31040E-002,1.76309E-003,2.02811E-001,-8.31149E-002,3.53310E-001,2.03908E-001,1.22391E+000,4.75232E-002,0.00000E+000,-3.24133E-002,9.21564E-001,0.00000E+000,1.14646E-003,-6.38657E-002,1.00000E+000,38
1319,1287,4.13742E+001,-2.28063E+000,3.77206E-002,1.59467E+001,4.19719E-002,-2.93027E-002,1.59468E+001,2.30445E-002,4.29237E-001,0,2.35853E+002,-1.35390E+000,9.96510E-001,2.14983E+002,-2.64568E+001,9.95864E-001,2.26602E-001,-8.87547E-002,2.53174E-003,2.26623E-001,-8.87750E-002,4.59941E-001,2.28387E-001,1.25442E+000,2.55128E-003,0.00000E+000,3.39580E-003,9.16330E-001,0.00000E+000,-1.13458E-002,-5.24376E-002,1.00000E+000,38
529,1327,-2.34846E+001,-6.00905E-001,1.50332E-001,2.56593E+000,-4.25759E-001,1.28141E-001,2.60417E+000,1.43202E-002,6.41811E-001,0,4.00931E+001,-7.30866E+000,9.94077E-001,1.01377E+000,-4.88488E+001,9.94567E-001,1.99439E-001,-8.17394E-002,2.50183E-003,1.99461E-001,-8.17617E-002,5.09744E-001,2.00537E-001,1.21970E+000,4.99854E-002,0.00000E+000,-3.30264E-002,9.22712E-001,0.00000E+000,5.94724E-004,-6.22638E-002,1.00000E+000,38
529,1307,-2.35488E+001,-1.74599E+000,3.44979E-001,2.49961E+000,-3.19194E-001,1.89390E-001,2.52702E+000,1.69448E-002,6.32515E-001,0,3.88729E+001,-5.72483E+000,9.97766E-001,3.28029E-001,-4.68342E+001,9.96976E-001,2.04123E-001,-8.17436E-002,2.46103E-003,2.04144E-001,-8.17648E-002,4.93212E-001,2.05486E-001,1.22544E+000,4.99757E-002,0.00000E+000,-3.31123E-002,9.22712E-001,0.00000E+000,4.00176E-003,-6.22696E-002,1.00000E+000,38
529,1317,-2.35189E+001,-1.17972E+000,2.33939E-001,2.53332E+000,-3.76692E-001,1.62302E-001,2.56631E+000,1.44665E-002,6.05185E-001,0,3.94854E+001,-6.56884E+000,9.97151E-001,5.94803E-001,-4.79256E+001,9.96795E-001,2.01787E-001,-8.17413E-002,2.48593E-003,2.01808E-001,-8.17631E-002,5.02310E-001,2.03015E-001,1.22257E+000,4.99922E-002,0.00000E+000,-3.30694E-002,9.22712E-001,0.00000E+000,2.29918E-003,-6.22598E-002,1.00000E+000,38
