Coordinates.Image X [Pixel],Coordinates.Image Y [Pixel],coor.X [mm],coor.Y [mm],coor.Z [mm],disp.Horizontal Displacement U [mm],disp.Vertical Displacement V [mm],disp.Out-Of-Plane: W [mm],disp.Displacement Magnitude [mm],stats.Sigma [mm],stats.Epipolar Distance [Pixel],stats.Shape Index [-],SameCamera.Horizontal: u [Pixel],SameCamera.Vertical: v [Pixel],SameCamera.Correlation Value 2D [-],CrossCamera.Horizontal: q [Pixel],CrossCamera.Vertical: r [Pixel],CrossCamera.Correlation Value Persp [-],strain.Strain-global frame: Exx [ ],strain.Strain-global frame: Eyy [ ],strain.Strain-global frame: Exy [ ],strain.Maximum Principal Strain: EI [ ],strain.Minimum Principal Strain: EII [ ],strain.Shear Angle Gamma [deg],strain.Von Mises Equivalent Strain [ ],defgradient.F[0,0] [-],defgradient.F[0,1] [-],defgradient.F[0,2] [-],defgradient.F[1,0] [-],defgradient.F[1,1] [-],defgradient.F[1,2] [-],defgradient.F[2,0] [-],defgradient.F[2,1] [-],defgradient.F[2,2] [-],ext.Current Image [#]
929,1317,3.74094E+000,-1.08216E+000,6.57557E-002,4.07701E+000,-4.65801E-001,1.52476E-001,4.10636E+000,1.02727E-002,4.91429E-001,0,6.20606E+001,-8.09153E+000,9.99246E-001,1.82336E+001,-4.24167E+001,9.98106E-001,1.13684E-001,-4.72149E-002,1.96053E-004,1.13684E-001,-4.72152E-002,6.98139E-002,1.14227E-001,1.12036E+000,-1.70028E-002,0.00000E+000,1.59334E-002,9.57069E-001,0.00000E+000,-1.42822E-002,-8.32743E-002,1.00000E+000,17
919,1307,3.00850E+000,-1.70502E+000,1.28781E-001,4.01113E+000,-4.39388E-001,2.20298E-001,4.04113E+000,1.23451E-002,5.05776E-001,0,6.08699E+001,-7.79954E+000,9.98718E-001,1.69484E+001,-4.22643E+001,9.96151E-001,1.16125E-001,-4.69228E-002,-2.28939E-004,1.16125E-001,-4.69231E-002,-8.04502E-002,1.16835E-001,1.12311E+000,-1.52287E-002,0.00000E+000,1.34894E-002,9.57445E-001,0.00000E+000,-1.29502E-002,-8.40643E-002,1.00000E+000,17
919,1317,2.99734E+000,-1.10451E+000,2.53376E-002,3.99715E+000,-4.73876E-001,1.67766E-001,4.02863E+000,1.37372E-002,4.77913E-001,0,6.08428E+001,-8.24574E+000,9.98278E-001,1.66505E+001,-4.27796E+001,9.95680E-001,1.14344E-001,-4.69301E-002,-4.51765E-004,1.14345E-001,-4.69314E-002,-1.60497E-001,1.14955E-001,1.12109E+000,-1.52377E-002,0.00000E+000,1.29683E-002,9.57443E-001,0.00000E+000,-1.13963E-002,-8.40574E-002,1.00000E+000,17
919,1327,3.00455E+000,-4.93473E-001,-2.05545E-002,3.98723E+000,-5.09905E-001,1.06743E-001,4.02112E+000,1.12984E-002,5.22689E-001,0,6.08978E+001,-8.69271E+000,9.99097E-001,1.67634E+001,-4.32169E+001,9.97058E-001,1.12538E-001,-4.69467E-002,-6.96806E-004,1.12541E-001,-4.69497E-002,-2.50326E-001,1.13054E-001,1.11905E+000,-1.52913E-002,0.00000E+000,1.24415E-002,9.57429E-001,0.00000E+000,-9.82509E-003,-8.40161E-002,1.00000E+000,17
929,1307,3.74815E+000,-1.68347E+000,1.55032E-001,4.09141E+000,-4.28836E-001,2.10732E-001,4.11921E+000,1.03717E-002,5.16303E-001,0,6.20751E+001,-7.62055E+000,9.99307E-001,1.84390E+001,-4.18866E+001,9.98362E-001,1.15504E-001,-4.72115E-002,2.84120E-004,1.15505E-001,-4.72120E-002,1.00044E-001,1.16144E-001,1.12244E+000,-1.69796E-002,0.00000E+000,1.62124E-002,9.57072E-001,0.00000E+000,-1.62441E-002,-8.32963E-002,1.00000E+000,17
929,1327,3.74176E+000,-4.70052E-001,7.70100E-003,4.06440E+000,-4.96036E-001,9.66010E-002,4.09569E+000,9.24293E-003,4.63315E-001,0,6.20587E+001,-8.46259E+000,9.99355E-001,1.82217E+001,-4.28476E+001,9.98597E-001,1.11852E-001,-4.72196E-002,9.87296E-005,1.11852E-001,-4.72197E-002,3.55613E-002,1.12303E-001,1.11829E+000,-1.70462E-002,0.00000E+000,1.56536E-002,9.57063E-001,0.00000E+000,-1.23146E-002,-8.32333E-002,1.00000E+000,17
939,1307,4.48073E+000,-1.66473E+000,1.44034E-001,4.16965E+000,-4.16997E-001,1.89341E-001,4.19473E+000,1.12258E-002,5.27701E-001,0,6.32915E+001,-7.40470E+000,9.99309E-001,1.97435E+001,-4.14738E+001,9.98554E-001,1.14748E-001,-4.68758E-002,6.92551E-004,1.14751E-001,-4.68787E-002,2.45504E-001,1.15389E-001,1.12160E+000,-1.89881E-002,0.00000E+000,1.88807E-002,9.57243E-001,0.00000E+000,-1.86151E-002,-8.19237E-002,1.00000E+000,17
939,1317,4.47457E+000,-1.06293E+000,6.17672E-002,4.15551E+000,-4.53420E-001,1.34672E-001,4.18234E+000,1.13426E-002,4.63018E-001,0,6.32694E+001,-7.86726E+000,9.99078E-001,1.95702E+001,-4.20293E+001,9.97856E-001,1.13092E-001,-4.68778E-002,6.34747E-004,1.13094E-001,-4.68803E-002,2.27340E-001,1.13644E-001,1.11970E+000,-1.90118E-002,0.00000E+000,1.86420E-002,9.57240E-001,0.00000E+000,-1.63875E-002,-8.18959E-002,1.00000E+000,17
939,1327,4.47615E+000,-4.45760E-001,9.34925E-003,4.14199E+000,-4.81860E-001,7.76360E-002,4.17065E+000,8.57664E-003,4.79533E-001,0,6.32573E+001,-8.19851E+000,9.99065E-001,1.95821E+001,-4.23699E+001,9.98439E-001,1.11416E-001,-4.68805E-002,5.67151E-004,1.11418E-001,-4.68825E-002,2.05278E-001,1.11883E-001,1.11779E+000,-1.90565E-002,0.00000E+000,1.84014E-002,9.57235E-001,0.00000E+000,-1.41426E-002,-8.18434E-002,1.00000E+000,17
919,1337,3.01857E+000,1.26920E-001,-4.01599E-002,3.97921E+000,-5.38104E-001,4.89353E-002,4.01573E+000,9.48361E-003,4.93354E-001,0,6.09649E+001,-9.01815E+000,9.98895E-001,1.70410E+001,-4.36044E+001,9.98084E-001,1.10727E-001,-4.69663E-002,-9.48829E-004,1.10732E-001,-4.69721E-002,-3.44729E-001,1.11156E-001,1.11701E+000,-1.53603E-002,0.00000E+000,1.19147E-002,9.57411E-001,0.00000E+000,-8.25431E-003,-8.39629E-002,1.00000E+000,17
929,1337,3.75121E+000,1.45476E-001,-2.44475E-002,4.05423E+000,-5.28458E-001,3.83456E-002,4.08870E+000,8.90246E-003,4.80359E-001,0,6.20989E+001,-8.86272E+000,9.99473E-001,1.83992E+001,-4.32592E+001,9.98966E-001,1.10003E-001,-4.72255E-002,-8.04306E-006,1.10003E-001,-4.72255E-002,-2.93098E-003,1.10368E-001,1.11620E+000,-1.71094E-002,0.00000E+000,1.53724E-002,9.57054E-001,0.00000E+000,-1.03365E-002,-8.31734E-002,1.00000E+000,17
939,1337,4.48333E+000,1.70101E-001,-2.06369E-002,4.13042E+000,-5.12930E-001,2.61239E-002,4.16223E+000,7.98916E-003,4.86427E-001,0,6.32543E+001,-8.59676E+000,9.99353E-001,1.97285E+001,-4.27850E+001,9.98972E-001,1.09731E-001,-4.68837E-002,4.94474E-004,1.09733E-001,-4.68852E-002,1.80895E-001,1.10119E-001,1.11588E+000,-1.91120E-002,0.00000E+000,1.81608E-002,9.57228E-001,0.00000E+000,-1.18975E-002,-8.17782E-002,1.00000E+000,17
949,1317,5.21229E+000,-1.03563E+000,6.71861E-002,4.23628E+000,-4.35679E-001,1.20455E-001,4.26032E+000,1.48865E-002,4.91396E-001,0,6.44964E+001,-7.56770E+000,9.98498E-001,2.09951E+001,-4.15085E+001,9.96838E-001,1.12474E-001,-4.64733E-002,9.92727E-004,1.12480E-001,-4.64795E-002,3.57831E-001,1.13043E-001,1.11900E+000,-2.08499E-002,0.00000E+000,2.09946E-002,9.57438E-001,0.00000E+000,-1.78635E-002,-7.99930E-002,1.00000E+000,17
949,1327,5.21073E+000,-4.21542E-001,9.01841E-003,4.22070E+000,-4.65300E-001,6.29800E-002,4.24674E+000,1.35517E-002,4.75744E-001,0,6.44569E+001,-7.92164E+000,9.98695E-001,2.09456E+001,-4.18993E+001,9.97685E-001,1.11045E-001,-4.64737E-002,9.58680E-004,1.11050E-001,-4.64795E-002,3.48693E-001,1.11541E-001,1.11736E+000,-2.08857E-002,0.00000E+000,2.07941E-002,9.57433E-001,0.00000E+000,-1.53745E-002,-7.99387E-002,1.00000E+000,17
949,1337,5.21637E+000,1.94105E-001,-2.00607E-002,4.20808E+000,-4.96636E-001,1.53389E-002,4.23732E+000,1.00256E-002,4.82128E-001,0,6.44263E+001,-8.32866E+000,9.99018E-001,2.10691E+001,-4.23184E+001,9.98417E-001,1.09603E-001,-4.64741E-002,9.19502E-004,1.09609E-001,-4.64795E-002,3.37532E-001,1.10030E-001,1.11571E+000,-2.09324E-002,0.00000E+000,2.05931E-002,9.57428E-001,0.00000E+000,-1.28784E-002,-7.98679E-002,1.00000E+000,17
949,1307,5.22024E+000,-1.64262E+000,1.48731E-001,4.25192E+000,-4.03655E-001,1.72624E-001,4.27452E+000,1.17317E-002,5.23398E-001,0,6.45499E+001,-7.16405E+000,9.99001E-001,2.11937E+001,-4.10494E+001,9.98003E-001,1.13889E-001,-4.64730E-002,1.01943E-003,1.13895E-001,-4.64795E-002,3.64213E-001,1.14535E-001,1.12063E+000,-2.08302E-002,0.00000E+000,2.11943E-002,9.57440E-001,0.00000E+000,-2.03427E-002,-8.00228E-002,1.00000E+000,17
909,1317,2.27034E+000,-1.12042E+000,2.10491E-002,3.92186E+000,-4.81978E-001,1.65785E-001,3.95485E+000,1.33376E-002,4.56703E-001,0,5.97443E+001,-8.37725E+000,9.97506E-001,1.54070E+001,-4.31221E+001,9.95325E-001,1.15034E-001,-4.72864E-002,-1.15355E-003,1.15042E-001,-4.72946E-002,-4.07151E-001,1.15647E-001,1.12186E+000,-1.33281E-002,0.00000E+000,9.74532E-003,9.57152E-001,0.00000E+000,-8.29142E-003,-8.42540E-002,1.00000E+000,17
909,1327,2.28095E+000,-5.04562E-001,-2.26148E-002,3.91584E+000,-5.13732E-001,1.08760E-001,3.95089E+000,1.02759E-002,4.90371E-001,0,5.98429E+001,-8.74540E+000,9.98281E-001,1.55787E+001,-4.34965E+001,9.97545E-001,1.13298E-001,-4.73009E-002,-1.38432E-003,1.13310E-001,-4.73128E-002,-4.93824E-001,1.13822E-001,1.11991E+000,-1.33777E-002,0.00000E+000,9.28352E-003,9.57140E-001,0.00000E+000,-7.27684E-003,-8.42283E-002,1.00000E+000,17
909,1337,2.29379E+000,1.19239E-001,-4.09502E-002,3.90653E+000,-5.41432E-001,5.12452E-002,3.94420E+000,1.11967E-002,5.34806E-001,0,5.98878E+001,-9.05385E+000,9.98820E-001,1.58422E+001,-4.37992E+001,9.98248E-001,1.11552E-001,-4.73187E-002,-1.62318E-003,1.11569E-001,-4.73353E-002,-5.85306E-001,1.11995E-001,1.11795E+000,-1.34437E-002,0.00000E+000,8.82028E-003,9.57124E-001,0.00000E+000,-6.25907E-003,-8.41940E-002,1.00000E+000,17
909,1307,2.27784E+000,-1.72033E+000,1.30213E-001,3.93114E+000,-4.47084E-001,2.19344E-001,3.96256E+000,1.36469E-002,4.40518E-001,0,5.96967E+001,-7.91535E+000,9.97773E-001,1.56620E+001,-4.26305E+001,9.93858E-001,1.16746E-001,-4.72810E-002,-9.44814E-004,1.16751E-001,-4.72864E-002,-3.30016E-001,1.17451E-001,1.12379E+000,-1.33226E-002,0.00000E+000,1.02015E-002,9.57153E-001,0.00000E+000,-9.29368E-003,-8.42569E-002,1.00000E+000,17
919,1347,3.04004E+000,7.56686E-001,-4.32034E-002,3.97539E+000,-5.60886E-001,-7.21980E-003,4.01477E+000,1.42892E-002,5.10365E-001,0,6.10865E+001,-9.26241E+000,9.99405E-001,1.74710E+001,-4.38619E+001,9.98878E-001,1.08902E-001,-4.69881E-002,-1.20664E-003,1.08911E-001,-4.69975E-002,-4.43455E-001,1.09251E-001,1.11496E+000,-1.54394E-002,0.00000E+000,1.13857E-002,9.57391E-001,0.00000E+000,-6.67660E-003,-8.39020E-002,1.00000E+000,17
929,1347,3.76832E+000,7.70309E-001,-2.63115E-002,4.04656E+000,-5.55178E-001,-1.34476E-002,4.08449E+000,8.06885E-003,4.79933E-001,0,6.21497E+001,-9.18094E+000,9.99489E-001,1.87621E+001,-4.36034E+001,9.99112E-001,1.08141E-001,-4.72325E-002,-1.22740E-004,1.08141E-001,-4.72326E-002,-4.52619E-002,1.08429E-001,1.11410E+000,-1.71893E-002,0.00000E+000,1.50903E-002,9.57044E-001,0.00000E+000,-8.35290E-003,-8.30978E-002,1.00000E+000,17
939,1347,4.50108E+000,7.95680E-001,-1.57639E-002,4.12369E+000,-5.39005E-001,-1.66226E-002,4.15880E+000,1.21037E-002,5.03865E-001,0,6.32896E+001,-8.93149E+000,9.99299E-001,2.01140E+001,-4.31220E+001,9.98422E-001,1.08032E-001,-4.68874E-002,4.13749E-004,1.08033E-001,-4.68885E-002,1.53020E-001,1.08346E-001,1.11396E+000,-1.91845E-002,0.00000E+000,1.79191E-002,9.57219E-001,0.00000E+000,-9.64301E-003,-8.16931E-002,1.00000E+000,17
949,1347,5.23773E+000,8.18045E-001,-8.73265E-003,4.20292E+000,-5.26726E-001,-2.92747E-002,4.23590E+000,9.88810E-003,5.00431E-001,0,6.44928E+001,-8.70815E+000,9.98860E-001,2.15219E+001,-4.26925E+001,9.97997E-001,1.08145E-001,-4.64747E-002,8.70517E-004,1.08150E-001,-4.64796E-002,3.22565E-001,1.08505E-001,1.11406E+000,-2.10002E-002,0.00000E+000,2.03907E-002,9.57419E-001,0.00000E+000,-1.03659E-002,-7.97650E-002,1.00000E+000,17
959,1317,5.94273E+000,-1.01525E+000,5.18353E-002,4.31121E+000,-4.22370E-001,9.41061E-002,4.33288E+000,1.33747E-002,4.89372E-001,0,6.56782E+001,-7.31460E+000,9.98793E-001,2.22672E+001,-4.10664E+001,9.97691E-001,1.11931E-001,-4.60273E-002,1.07353E-003,1.11939E-001,-4.60346E-002,3.89375E-001,1.12525E-001,1.11837E+000,-2.27560E-002,0.00000E+000,2.28183E-002,9.57674E-001,0.00000E+000,-1.86469E-002,-7.79596E-002,1.00000E+000,17
959,1327,5.94223E+000,-4.00632E-001,-6.51693E-003,4.29837E+000,-4.50701E-001,4.45207E-002,4.32217E+000,1.85803E-002,4.82421E-001,0,6.56551E+001,-7.66791E+000,9.99464E-001,2.22335E+001,-4.14421E+001,9.98465E-001,1.10698E-001,-4.60235E-002,1.09497E-003,1.10706E-001,-4.60312E-002,4.00284E-001,1.11228E-001,1.11694E+000,-2.27835E-002,0.00000E+000,2.27127E-002,9.57672E-001,0.00000E+000,-1.60550E-002,-7.79096E-002,1.00000E+000,17
959,1337,5.95107E+000,2.14881E-001,-2.27513E-002,4.28658E+000,-4.84702E-001,-1.97401E-004,4.31390E+000,1.45561E-002,4.74327E-001,0,6.56274E+001,-8.10231E+000,9.98826E-001,2.24322E+001,-4.18962E+001,9.98170E-001,1.09449E-001,-4.60185E-002,1.10824E-003,1.09457E-001,-4.60264E-002,4.08401E-001,1.09918E-001,1.11551E+000,-2.28295E-002,0.00000E+000,2.26065E-002,9.57668E-001,0.00000E+000,-1.34479E-002,-7.78261E-002,1.00000E+000,17
959,1307,5.94930E+000,-1.62062E+000,1.35095E-001,4.32635E+000,-3.87101E-001,1.51526E-001,4.34628E+000,1.02548E-002,5.08089E-001,0,6.57038E+001,-6.87914E+000,9.98930E-001,2.24480E+001,-4.05948E+001,9.98092E-001,1.13154E-001,-4.60305E-002,1.04824E-003,1.13161E-001,-4.60374E-002,3.77274E-001,1.13814E-001,1.11979E+000,-2.27370E-002,0.00000E+000,2.29237E-002,9.57675E-001,0.00000E+000,-2.12347E-002,-7.79943E-002,1.00000E+000,17
959,1347,5.96782E+000,8.35090E-001,-2.23505E-002,4.27871E+000,-5.16284E-001,-4.63701E-002,4.31000E+000,1.02941E-002,4.86870E-001,0,6.56608E+001,-8.51533E+000,9.98764E-001,2.27886E+001,-4.23056E+001,9.98440E-001,1.08191E-001,-4.60130E-002,1.11722E-003,1.08199E-001,-4.60211E-002,4.15085E-001,1.08600E-001,1.11407E+000,-2.28843E-002,0.00000E+000,2.25001E-002,9.57664E-001,0.00000E+000,-1.08370E-002,-7.77263E-002,1.00000E+000,17
909,1347,2.31632E+000,7.45262E-001,-3.36481E-002,3.90186E+000,-5.67460E-001,-4.56038E-003,3.94291E+000,1.31279E-002,5.14275E-001,0,5.99939E+001,-9.35670E+000,9.99332E-001,1.63124E+001,-4.41575E+001,9.98092E-001,1.09806E-001,-4.73395E-002,-1.86851E-003,1.09828E-001,-4.73617E-002,-6.81137E-001,1.10174E-001,1.11599E+000,-1.35246E-002,0.00000E+000,8.35786E-003,9.57105E-001,0.00000E+000,-5.24314E-003,-8.41520E-002,1.00000E+000,17
899,1327,1.55774E+000,-5.06440E-001,1.05871E-002,3.83630E+000,-5.15556E-001,1.08288E-001,3.87231E+000,7.28756E-003,4.90261E-001,0,5.86642E+001,-8.74918E+000,9.98770E-001,1.44841E+001,-4.36941E+001,9.98585E-001,1.13845E-001,-4.75557E-002,-1.96392E-003,1.13869E-001,-4.75796E-002,-6.97035E-001,1.14380E-001,1.12053E+000,-1.15468E-002,0.00000E+000,6.41007E-003,9.56962E-001,0.00000E+000,-4.72935E-003,-8.47689E-002,1.00000E+000,17
899,1337,1.57303E+000,1.12830E-001,-2.77347E-002,3.83332E+000,-5.43391E-001,4.79803E-002,3.87193E+000,1.13601E-002,5.08016E-001,0,5.88164E+001,-9.06736E+000,9.99435E-001,1.47413E+001,-4.40386E+001,9.99202E-001,1.12280E-001,-4.75675E-002,-2.15423E-003,1.12309E-001,-4.75965E-002,-7.71976E-001,1.12743E-001,1.11878E+000,-1.15955E-002,0.00000E+000,6.06824E-003,9.56953E-001,0.00000E+000,-4.30440E-003,-8.47571E-002,1.00000E+000,17
899,1347,1.60017E+000,7.37442E-001,-1.86521E-002,3.83344E+000,-5.71006E-001,-6.18956E-003,3.87573E+000,9.94043E-003,4.98926E-001,0,5.89898E+001,-9.39909E+000,9.99347E-001,1.52882E+001,-4.44182E+001,9.98893E-001,1.10707E-001,-4.75835E-002,-2.35554E-003,1.10743E-001,-4.76186E-002,-8.52370E-001,1.11104E-001,1.11702E+000,-1.16674E-002,0.00000E+000,5.72521E-003,9.56939E-001,0.00000E+000,-3.87796E-003,-8.47397E-002,1.00000E+000,17
899,1317,1.55348E+000,-1.11676E+000,7.58672E-002,3.84471E+000,-4.82582E-001,1.69120E-001,3.87856E+000,9.83708E-003,4.93765E-001,0,5.85877E+001,-8.36468E+000,9.98527E-001,1.44587E+001,-4.32587E+001,9.97455E-001,1.15403E-001,-4.75466E-002,-1.78081E-003,1.15422E-001,-4.75661E-002,-6.26062E-001,1.16015E-001,1.12228E+000,-1.15130E-002,0.00000E+000,6.75086E-003,9.56969E-001,0.00000E+000,-5.15301E-003,-8.47771E-002,1.00000E+000,17
899,1307,1.55320E+000,-1.71946E+000,1.64338E-001,3.85142E+000,-4.46344E-001,2.26556E-001,3.88381E+000,1.02191E-002,4.48794E-001,0,5.84921E+001,-7.88855E+000,9.98574E-001,1.45480E+001,-4.27787E+001,9.96274E-001,1.16951E-001,-4.75403E-002,-1.60505E-003,1.16967E-001,-4.75560E-002,-5.59000E-001,1.17646E-001,1.12402E+000,-1.14941E-002,0.00000E+000,7.09032E-003,9.56973E-001,0.00000E+000,-5.57501E-003,-8.47817E-002,1.00000E+000,17
889,1327,8.32771E-001,-5.13690E-001,2.04206E-002,3.75936E+000,-5.19109E-001,1.06555E-001,3.79653E+000,6.25583E-003,5.05539E-001,0,5.75312E+001,-8.79268E+000,9.99157E-001,1.33145E+001,-4.39169E+001,9.98996E-001,1.14457E-001,-4.69593E-002,-2.57701E-003,1.14498E-001,-4.70005E-002,-9.14416E-001,1.15108E-001,1.12123E+000,-9.97470E-003,0.00000E+000,3.68604E-003,9.57619E-001,0.00000E+000,-2.06368E-003,-8.56312E-002,1.00000E+000,17
889,1337,8.43557E-001,1.06382E-001,-1.59323E-002,3.75315E+000,-5.44517E-001,5.34543E-002,3.79282E+000,1.01781E-002,5.13091E-001,0,5.76087E+001,-9.09354E+000,9.99377E-001,1.35076E+001,-4.42609E+001,9.99167E-001,1.12958E-001,-4.69605E-002,-2.61878E-003,1.13001E-001,-4.70034E-002,-9.37925E-001,1.13532E-001,1.11955E+000,-1.00180E-002,0.00000E+000,3.70186E-003,9.57619E-001,0.00000E+000,-2.62878E-003,-8.56458E-002,1.00000E+000,17
889,1347,8.71438E-001,7.29059E-001,-8.57229E-003,3.75478E+000,-5.73333E-001,2.14470E-004,3.79830E+000,8.78213E-003,4.89579E-001,0,5.78021E+001,-9.44062E+000,9.99162E-001,1.40636E+001,-4.46757E+001,9.98898E-001,1.11450E-001,-4.69622E-002,-2.67112E-003,1.11495E-001,-4.70072E-002,-9.65750E-001,1.11950E-001,1.11786E+000,-1.00846E-002,0.00000E+000,3.71775E-003,9.57620E-001,0.00000E+000,-3.19658E-003,-8.56682E-002,1.00000E+000,17
969,1297,6.70279E+000,-2.19967E+000,2.30173E-001,4.42518E+000,-3.36361E-001,1.76449E-001,4.44145E+000,1.47478E-002,4.69084E-001,0,6.70565E+001,-6.12370E+000,9.99275E-001,2.42175E+001,-3.96757E+001,9.97972E-001,1.13426E-001,-4.57964E-002,9.50262E-004,1.13432E-001,-4.58020E-002,3.41932E-001,1.14130E-001,1.12013E+000,-2.43852E-002,0.00000E+000,2.43145E-002,9.57703E-001,0.00000E+000,-2.42578E-002,-7.57020E-002,1.00000E+000,17
969,1307,6.68143E+000,-1.60414E+000,1.21424E-001,4.40182E+000,-3.78269E-001,1.23445E-001,4.41976E+000,2.32339E-002,4.73888E-001,0,6.68987E+001,-6.67099E+000,9.98970E-001,2.37540E+001,-4.02345E+001,9.97219E-001,1.12408E-001,-4.57923E-002,1.01526E-003,1.12414E-001,-4.57988E-002,3.67681E-001,1.13055E-001,1.11892E+000,-2.43890E-002,0.00000E+000,2.42675E-002,9.57703E-001,0.00000E+000,-2.15604E-002,-7.56936E-002,1.00000E+000,17
969,1317,6.67788E+000,-9.98491E-001,5.07597E-002,4.38863E+000,-4.13482E-001,7.41631E-002,4.40869E+000,9.52847E-003,4.61936E-001,0,6.68750E+001,-7.13682E+000,9.99516E-001,2.36460E+001,-4.07231E+001,9.98803E-001,1.11380E-001,-4.57864E-002,1.07400E-003,1.11387E-001,-4.57937E-002,3.91508E-001,1.11972E-001,1.11772E+000,-2.44071E-002,0.00000E+000,2.42205E-002,9.57703E-001,0.00000E+000,-1.88593E-002,-7.56528E-002,1.00000E+000,17
889,1317,8.25266E-001,-1.12278E+000,8.71642E-002,3.76395E+000,-4.85529E-001,1.66700E-001,3.79879E+000,8.74947E-003,5.14469E-001,0,5.73995E+001,-8.39803E+000,9.99154E-001,1.32424E+001,-4.34614E+001,9.98646E-001,1.15950E-001,-4.69584E-002,-2.54084E-003,1.15990E-001,-4.69980E-002,-8.93335E-001,1.16683E-001,1.12290E+000,-9.94379E-003,0.00000E+000,3.67026E-003,9.57618E-001,0.00000E+000,-1.49969E-003,-8.56208E-002,1.00000E+000,17
969,1327,6.67604E+000,-3.81406E-001,7.66885E-004,4.37375E+000,-4.39856E-001,3.02672E-002,4.39592E+000,1.11640E-002,4.99173E-001,0,6.68008E+001,-7.49610E+000,9.99299E-001,2.36086E+001,-4.10552E+001,9.98965E-001,1.10341E-001,-4.57796E-002,1.12981E-003,1.10349E-001,-4.57878E-002,4.14607E-001,1.10880E-001,1.11651E+000,-2.44318E-002,0.00000E+000,2.41733E-002,9.57702E-001,0.00000E+000,-1.61520E-002,-7.55977E-002,1.00000E+000,17
889,1307,8.21721E-001,-1.72599E+000,1.77982E-001,3.76670E+000,-4.50607E-001,2.23484E-001,3.80013E+000,1.18572E-002,4.73653E-001,0,5.72467E+001,-7.94021E+000,9.98815E-001,1.32871E+001,-4.29906E+001,9.96780E-001,1.17435E-001,-4.69578E-002,-2.51129E-003,1.17473E-001,-4.69962E-002,-8.74986E-001,1.18253E-001,1.12457E+000,-9.92751E-003,0.00000E+000,3.65454E-003,9.57618E-001,0.00000E+000,-9.38069E-004,-8.56153E-002,1.00000E+000,17
969,1337,6.68258E+000,2.31141E-001,-2.85560E-002,4.36171E+000,-4.73872E-001,-1.78481E-002,4.38742E+000,1.18955E-002,4.40544E-001,0,6.67838E+001,-7.92583E+000,9.99030E-001,2.37434E+001,-4.15505E+001,9.98691E-001,1.09292E-001,-4.57715E-002,1.18085E-003,1.09301E-001,-4.57805E-002,4.36291E-001,1.09779E-001,1.11530E+000,-2.44669E-002,0.00000E+000,2.41261E-002,9.57700E-001,0.00000E+000,-1.34395E-002,-7.55190E-002,1.00000E+000,17
969,1347,6.69316E+000,8.62679E-001,-3.28225E-002,4.34893E+000,-4.95028E-001,-6.20397E-002,4.37745E+000,1.01751E-002,4.73736E-001,0,6.67337E+001,-8.16642E+000,9.98981E-001,2.39947E+001,-4.17633E+001,9.98435E-001,1.08227E-001,-4.57622E-002,1.22797E-003,1.08236E-001,-4.57719E-002,4.56862E-001,1.08665E-001,1.11408E+000,-2.45111E-002,0.00000E+000,2.40785E-002,9.57699E-001,0.00000E+000,-1.07078E-002,-7.54201E-002,1.00000E+000,17
879,1327,1.11298E-001,-5.16734E-001,3.75456E-002,3.68538E+000,-5.18267E-001,1.11430E-001,3.72331E+000,9.06000E-003,5.13087E-001,0,5.64185E+001,-8.78373E+000,9.99181E-001,1.22210E+001,-4.40941E+001,9.98909E-001,1.15042E-001,-4.71371E-002,-2.95932E-003,1.15096E-001,-4.71911E-002,-1.04502E+000,1.15716E-001,1.12190E+000,-8.62457E-003,0.00000E+000,1.64746E-003,9.57414E-001,0.00000E+000,-1.40309E-004,-8.51189E-002,1.00000E+000,17
879,1337,1.21684E-001,9.89517E-002,-9.38817E-003,3.67943E+000,-5.47171E-001,5.01952E-002,3.72023E+000,8.87158E-003,5.10874E-001,0,5.65272E+001,-9.12078E+000,9.98780E-001,1.23840E+001,-4.44898E+001,9.98675E-001,1.13675E-001,-4.71356E-002,-2.95348E-003,1.13729E-001,-4.71898E-002,-1.05184E+000,1.14276E-001,1.12036E+000,-8.66258E-003,0.00000E+000,1.78765E-003,9.57418E-001,0.00000E+000,-1.20710E-003,-8.51454E-002,1.00000E+000,17
879,1347,1.45463E-001,7.24834E-001,-6.26055E-003,3.67847E+000,-5.73042E-001,-9.56499E-004,3.72283E+000,1.08630E-002,5.29134E-001,0,5.66727E+001,-9.42544E+000,9.98747E-001,1.28691E+001,-4.48274E+001,9.98556E-001,1.12295E-001,-4.71334E-002,-2.95618E-003,1.12350E-001,-4.71882E-002,-1.06191E+000,1.12828E-001,1.11882E+000,-8.71998E-003,0.00000E+000,1.92881E-003,9.57423E-001,0.00000E+000,-2.28137E-003,-8.51853E-002,1.00000E+000,17
879,1307,9.18990E-002,-1.72706E+000,1.95635E-001,3.68267E+000,-4.49553E-001,2.21664E-001,3.71662E+000,1.26922E-002,4.82720E-001,0,5.60037E+001,-7.90816E+000,9.98438E-001,1.20669E+001,-4.31346E+001,9.97035E-001,1.17757E-001,-4.71389E-002,-2.98728E-003,1.17811E-001,-4.71930E-002,-1.03753E+000,1.18585E-001,1.12495E+000,-8.58535E-003,0.00000E+000,1.36820E-003,9.57411E-001,0.00000E+000,1.98484E-003,-8.50916E-002,1.00000E+000,17
879,1317,1.00435E-001,-1.12528E+000,1.04720E-001,3.68632E+000,-4.83782E-001,1.71066E-001,3.72186E+000,8.95705E-003,4.56037E-001,0,5.62335E+001,-8.35129E+000,9.99200E-001,1.20986E+001,-4.36623E+001,9.98607E-001,1.16406E-001,-4.71383E-002,-2.96984E-003,1.16460E-001,-4.71922E-002,-1.03999E+000,1.17155E-001,1.12343E+000,-8.59698E-003,0.00000E+000,1.50731E-003,9.57412E-001,0.00000E+000,9.26278E-004,-8.50997E-002,1.00000E+000,17
979,1307,7.43466E+000,-1.58387E+000,1.34685E-001,4.49469E+000,-3.67694E-001,1.08144E-001,4.51101E+000,1.37028E-002,4.64475E-001,0,6.83099E+001,-6.47757E+000,9.99633E-001,2.54464E+001,-3.98578E+001,9.99393E-001,1.11759E-001,-4.55040E-002,9.69216E-004,1.11765E-001,-4.55100E-002,3.53098E-001,1.12404E-001,1.11815E+000,-2.57232E-002,0.00000E+000,2.52233E-002,9.57762E-001,0.00000E+000,-2.06699E-002,-7.29887E-002,1.00000E+000,17
979,1317,7.41889E+000,-9.72973E-001,5.61757E-002,4.47082E+000,-3.97267E-001,5.82109E-002,4.48882E+000,7.98052E-003,4.63933E-001,0,6.81262E+001,-6.85357E+000,9.99375E-001,2.51342E+001,-4.02429E+001,9.98940E-001,1.10996E-001,-4.54962E-002,1.06215E-003,1.11004E-001,-4.55034E-002,3.88855E-001,1.11602E-001,1.11725E+000,-2.57347E-002,0.00000E+000,2.52495E-002,9.57762E-001,0.00000E+000,-1.81239E-002,-7.29564E-002,1.00000E+000,17
979,1327,7.41106E+000,-3.59958E-001,-1.07529E-003,4.45075E+000,-4.26934E-001,1.10475E-002,4.47119E+000,9.13795E-003,4.71408E-001,0,6.79875E+001,-7.24827E+000,9.98697E-001,2.49883E+001,-4.06363E+001,9.97942E-001,1.10226E-001,-4.54869E-002,1.15246E-003,1.10235E-001,-4.54954E-002,4.24025E-001,1.10793E-001,1.11634E+000,-2.57520E-002,0.00000E+000,2.52757E-002,9.57763E-001,0.00000E+000,-1.55744E-002,-7.29076E-002,1.00000E+000,17
979,1337,7.41323E+000,2.58990E-001,-3.37476E-002,4.43651E+000,-4.53713E-001,-3.00678E-002,4.45975E+000,1.23819E-002,4.71242E-001,0,6.79122E+001,-7.60397E+000,9.97967E-001,2.50482E+001,-4.09951E+001,9.97435E-001,1.09447E-001,-4.54762E-002,1.24018E-003,1.09457E-001,-4.54862E-002,4.58621E-001,1.09976E-001,1.11544E+000,-2.57752E-002,0.00000E+000,2.53020E-002,9.57763E-001,0.00000E+000,-1.30183E-002,-7.28421E-002,1.00000E+000,17
979,1347,7.42296E+000,8.88294E-001,-3.01072E-002,4.42136E+000,-4.76848E-001,-7.24540E-002,4.44759E+000,1.27098E-002,4.72635E-001,0,6.78203E+001,-7.88469E+000,9.97334E-001,2.53006E+001,-4.12742E+001,9.96687E-001,1.08656E-001,-4.54627E-002,1.32292E-003,1.08667E-001,-4.54740E-002,4.91765E-001,1.09148E-001,1.11452E+000,-2.58104E-002,0.00000E+000,2.53285E-002,9.57764E-001,0.00000E+000,-1.04466E-002,-7.27428E-002,1.00000E+000,17
979,1297,7.43799E+000,-2.17954E+000,2.19704E-001,4.50454E+000,-3.23449E-001,1.57408E-001,4.51888E+000,1.20567E-002,4.87013E-001,0,6.82760E+001,-5.88920E+000,9.99404E-001,2.55815E+001,-3.92413E+001,9.98771E-001,1.12514E-001,-4.55113E-002,8.75109E-004,1.12519E-001,-4.55161E-002,3.17279E-001,1.13200E-001,1.11905E+000,-2.57140E-002,0.00000E+000,2.51971E-002,9.57762E-001,0.00000E+000,-2.32159E-002,-7.30147E-002,1.00000E+000,17
869,1317,-6.33317E-001,-1.12606E+000,1.04042E-001,3.60096E+000,-4.80546E-001,1.64915E-001,3.63662E+000,7.40170E-003,4.71018E-001,0,5.49823E+001,-8.27416E+000,9.99298E-001,1.07804E+001,-4.37625E+001,9.98400E-001,1.16612E-001,-4.73795E-002,-3.08175E-003,1.16670E-001,-4.74374E-002,-1.07620E+000,1.17346E-001,1.12368E+000,-7.12963E-003,0.00000E+000,-7.74032E-005,9.57131E-001,0.00000E+000,2.52368E-003,-8.44575E-002,1.00000E+000,17
869,1327,-6.21021E-001,-5.17607E-001,3.95817E-002,3.60192E+000,-5.13684E-001,1.09632E-001,3.64002E+000,9.51206E-003,5.25098E-001,0,5.51806E+001,-8.70884E+000,9.98951E-001,1.09312E+001,-4.42047E+001,9.98458E-001,1.15465E-001,-4.73784E-002,-3.06508E-003,1.15523E-001,-4.74360E-002,-1.07793E+000,1.16136E-001,1.12238E+000,-7.15197E-003,0.00000E+000,9.64714E-005,9.57134E-001,0.00000E+000,1.08126E-003,-8.44825E-002,1.00000E+000,17
869,1337,-6.05672E-001,9.45590E-002,-1.55798E-003,3.60047E+000,-5.46867E-001,5.13463E-002,3.64212E+000,9.99688E-003,5.26234E-001,0,5.53484E+001,-9.11213E+000,9.98446E-001,1.11838E+001,-4.46667E+001,9.98242E-001,1.14311E-001,-4.73767E-002,-3.05310E-003,1.14369E-001,-4.74343E-002,-1.08138E+000,1.14922E-001,1.12109E+000,-7.18493E-003,0.00000E+000,2.70896E-004,9.57138E-001,0.00000E+000,-3.65731E-004,-8.45193E-002,1.00000E+000,17
869,1347,-5.84860E-001,7.19801E-001,-1.36916E-002,3.59927E+000,-5.70043E-001,-3.05934E-003,3.64414E+000,1.29344E-002,5.18515E-001,0,5.55008E+001,-9.37542E+000,9.98872E-001,1.15898E+001,-4.49959E+001,9.98560E-001,1.13152E-001,-4.73746E-002,-3.04564E-003,1.13210E-001,-4.74324E-002,-1.08654E+000,1.13704E-001,1.11979E+000,-7.22798E-003,0.00000E+000,4.45703E-004,9.57144E-001,0.00000E+000,-1.81590E-003,-8.45673E-002,1.00000E+000,17
869,1307,-6.37416E-001,-1.72727E+000,2.02465E-001,3.60120E+000,-4.45711E-001,2.20611E-001,3.63538E+000,1.04369E-002,5.07585E-001,0,5.47961E+001,-7.84746E+000,9.98587E-001,1.08350E+001,-4.32345E+001,9.97760E-001,1.17749E-001,-4.73801E-002,-3.10430E-003,1.17808E-001,-4.74385E-002,-1.07661E+000,1.18549E-001,1.12496E+000,-7.12086E-003,0.00000E+000,-2.50374E-004,9.57130E-001,0.00000E+000,3.95862E-003,-8.44477E-002,1.00000E+000,17
989,1307,8.16121E+000,-1.55259E+000,1.20613E-001,4.56444E+000,-3.43392E-001,8.34644E-002,4.57810E+000,1.14317E-002,4.99049E-001,0,6.93987E+001,-6.07419E+000,9.99039E-001,2.66759E+001,-3.92344E+001,9.98445E-001,1.11170E-001,-4.54083E-002,8.53112E-004,1.11174E-001,-4.54130E-002,3.12162E-001,1.11793E-001,1.11743E+000,-2.65435E-002,0.00000E+000,2.55505E-002,9.57671E-001,0.00000E+000,-1.88910E-002,-7.05101E-002,1.00000E+000,17
989,1317,8.14239E+000,-9.40035E-001,3.83023E-002,4.53864E+000,-3.72449E-001,3.52493E-002,4.55403E+000,1.13084E-002,5.46825E-001,0,6.91816E+001,-6.44347E+000,9.99302E-001,2.63087E+001,-3.95599E+001,9.98624E-001,1.10655E-001,-4.53982E-002,9.87122E-004,1.10661E-001,-4.54044E-002,3.62408E-001,1.11253E-001,1.11682E+000,-2.65503E-002,0.00000E+000,2.56636E-002,9.57673E-001,0.00000E+000,-1.65065E-002,-7.04841E-002,1.00000E+000,17
989,1327,8.14449E+000,-3.28789E-001,-6.70198E-003,4.52643E+000,-4.06187E-001,-8.25446E-003,4.54463E+000,1.46104E-002,5.31765E-001,0,6.91509E+001,-6.88602E+000,9.98763E-001,2.63408E+001,-4.00152E+001,9.97522E-001,1.10134E-001,-4.53847E-002,1.11812E-003,1.10142E-001,-4.53927E-002,4.11908E-001,1.10707E-001,1.11620E+000,-2.65640E-002,0.00000E+000,2.57769E-002,9.57675E-001,0.00000E+000,-1.41184E-002,-7.04309E-002,1.00000E+000,17
989,1297,8.17665E+000,-2.15735E+000,2.15693E-001,4.58559E+000,-3.07979E-001,1.38879E-001,4.59802E+000,1.07921E-002,4.85833E-001,0,6.95163E+001,-5.62794E+000,9.98899E-001,2.70173E+001,-3.87980E+001,9.98012E-001,1.11678E-001,-4.54179E-002,7.18628E-004,1.11681E-001,-4.54212E-002,2.62090E-001,1.12327E-001,1.11805E+000,-2.65380E-002,0.00000E+000,2.54376E-002,9.57670E-001,0.00000E+000,-2.12717E-002,-7.05313E-002,1.00000E+000,17
989,1337,8.14673E+000,2.86668E-001,-2.70564E-002,4.50939E+000,-4.36349E-001,-4.93816E-002,4.53073E+000,1.10556E-002,4.60622E-001,0,6.90334E+001,-7.29143E+000,9.97791E-001,2.64256E+001,-4.04887E+001,9.97640E-001,1.09607E-001,-4.53689E-002,1.24658E-003,1.09618E-001,-4.53790E-002,4.60830E-001,1.10157E-001,1.11558E+000,-2.65826E-002,0.00000E+000,2.58900E-002,9.57678E-001,0.00000E+000,-1.17340E-002,-7.03593E-002,1.00000E+000,17
989,1347,8.15580E+000,9.14301E-001,-2.37982E-002,4.49568E+000,-4.58993E-001,-8.21605E-002,4.51980E+000,1.15775E-002,4.61128E-001,0,6.89315E+001,-7.60065E+000,9.98895E-001,2.66649E+001,-4.07919E+001,9.98872E-001,1.09072E-001,-4.53516E-002,1.37400E-003,1.09084E-001,-4.53638E-002,5.09739E-001,1.09598E-001,1.11496E+000,-2.66045E-002,0.00000E+000,2.60037E-002,9.57682E-001,0.00000E+000,-9.33659E-003,-7.02746E-002,1.00000E+000,17
859,1327,-1.34998E+000,-5.16774E-001,3.72126E-002,3.52121E+000,-5.08165E-001,1.02528E-001,3.55916E+000,8.94942E-003,5.26691E-001,0,5.39998E+001,-8.59320E+000,9.98639E-001,9.68788E+000,-4.42843E+001,9.98132E-001,1.15712E-001,-4.74925E-002,-3.01406E-003,1.15768E-001,-4.75482E-002,-1.05766E+000,1.16381E-001,1.12267E+000,-5.88035E-003,0.00000E+000,-9.26441E-004,9.56972E-001,0.00000E+000,1.62928E-003,-8.38297E-002,1.00000E+000,17
859,1337,-1.33197E+000,9.69012E-002,-1.25910E-003,3.52271E+000,-5.38782E-001,4.75672E-002,3.56399E+000,1.01889E-002,5.38198E-001,0,5.42002E+001,-8.98072E+000,9.98476E-001,9.98850E+000,-4.47251E+001,9.98127E-001,1.14825E-001,-4.74926E-002,-3.02815E-003,1.14882E-001,-4.75491E-002,-1.06840E+000,1.15448E-001,1.12167E+000,-5.90529E-003,0.00000E+000,-7.91562E-004,9.56975E-001,0.00000E+000,-7.87681E-005,-8.38724E-002,1.00000E+000,17
859,1347,-1.31018E+000,7.16063E-001,-5.02161E-003,3.52203E+000,-5.68314E-001,-1.56201E-003,3.56759E+000,1.39300E-002,5.10601E-001,0,5.43440E+001,-9.34364E+000,9.99099E-001,1.04293E+001,-4.51780E+001,9.98775E-001,1.13931E-001,-4.74928E-002,-3.04632E-003,1.13988E-001,-4.75503E-002,-1.08075E+000,1.14509E-001,1.12067E+000,-5.93915E-003,0.00000E+000,-6.56157E-004,9.56980E-001,0.00000E+000,-1.79348E-003,-8.39304E-002,1.00000E+000,17
859,1307,-1.36803E+000,-1.72546E+000,2.05017E-001,3.51841E+000,-4.41465E-001,2.17357E-001,3.55266E+000,1.31710E-002,6.02488E-001,0,5.35735E+001,-7.78150E+000,9.98728E-001,9.57783E+000,-4.32596E+001,9.98306E-001,1.17465E-001,-4.74924E-002,-2.99779E-003,1.17519E-001,-4.75469E-002,-1.04079E+000,1.18230E-001,1.12465E+000,-5.85700E-003,0.00000E+000,-1.19461E-003,9.56969E-001,0.00000E+000,5.02525E-003,-8.37897E-002,1.00000E+000,17
859,1317,-1.35944E+000,-1.12911E+000,1.01897E-001,3.52266E+000,-4.80579E-001,1.56663E-001,3.55874E+000,1.00844E-002,5.09954E-001,0,5.38451E+001,-8.24230E+000,9.98784E-001,9.58031E+000,-4.38819E+001,9.97437E-001,1.16592E-001,-4.74924E-002,-3.00374E-003,1.16647E-001,-4.75474E-002,-1.04839E+000,1.17309E-001,1.12366E+000,-5.86376E-003,0.00000E+000,-1.06078E-003,9.56970E-001,0.00000E+000,3.33042E-003,-8.38013E-002,1.00000E+000,17
999,1337,8.87629E+000,3.09425E-001,-3.46759E-002,4.58396E+000,-4.18028E-001,-5.62545E-002,4.60333E+000,9.65471E-003,3.97679E-001,0,7.01386E+001,-6.99693E+000,9.99469E-001,2.77169E+001,-4.00538E+001,9.98853E-001,1.09620E-001,-4.53445E-002,1.08366E-003,1.09627E-001,-4.53521E-002,4.00643E-001,1.10170E-001,1.11557E+000,-2.70580E-002,0.00000E+000,2.58463E-002,9.57535E-001,0.00000E+000,-9.98047E-003,-6.78741E-002,1.00000E+000,17
999,1347,8.88989E+000,9.39159E-001,-2.24947E-002,4.57233E+000,-4.41717E-001,-8.98923E-002,4.59450E+000,8.49527E-003,4.15006E-001,0,7.00709E+001,-7.30657E+000,9.99598E-001,2.80425E+001,-4.03335E+001,9.99026E-001,1.09330E-001,-4.53261E-002,1.21760E-003,1.09340E-001,-4.53357E-002,4.51051E-001,1.09869E-001,1.11522E+000,-2.70712E-002,0.00000E+000,2.59827E-002,9.57541E-001,0.00000E+000,-7.84694E-003,-6.77914E-002,1.00000E+000,17
999,1307,8.89254E+000,-1.52668E+000,1.11406E-001,4.63853E+000,-3.24511E-001,6.38730E-002,4.65031E+000,7.32438E-003,4.89193E-001,0,7.05367E+001,-5.74306E+000,9.99323E-001,2.79932E+001,-3.87258E+001,9.99014E-001,1.10454E-001,-4.53828E-002,6.76142E-004,1.10457E-001,-4.53857E-002,2.48588E-001,1.11040E-001,1.11658E+000,-2.70379E-002,0.00000E+000,2.54411E-002,9.57527E-001,0.00000E+000,-1.63197E-002,-6.79998E-002,1.00000E+000,17
999,1317,8.87948E+000,-9.15559E-001,3.76754E-002,4.61810E+000,-3.54635E-001,2.27503E-002,4.63175E+000,1.21409E-002,5.23759E-001,0,7.03774E+001,-6.15110E+000,9.98775E-001,2.77323E+001,-3.90961E+001,9.96432E-001,1.10180E-001,-4.53725E-002,8.13310E-004,1.10185E-001,-4.53767E-002,2.99561E-001,1.10754E-001,1.11624E+000,-2.70417E-002,0.00000E+000,2.55761E-002,9.57529E-001,0.00000E+000,-1.42073E-002,-6.79756E-002,1.00000E+000,17
999,1327,8.87773E+000,-3.09216E-001,-1.19563E-002,4.60350E+000,-3.91968E-001,-1.85600E-002,4.62019E+000,1.41802E-002,5.00875E-001,0,7.03058E+001,-6.65877E+000,9.99016E-001,2.76943E+001,-3.96199E+001,9.97482E-001,1.09902E-001,-4.53596E-002,9.49247E-004,1.09908E-001,-4.53654E-002,3.50280E-001,1.10464E-001,1.11590E+000,-2.70485E-002,0.00000E+000,2.57113E-002,9.57531E-001,0.00000E+000,-1.20928E-002,-6.79334E-002,1.00000E+000,17
999,1297,8.91009E+000,-2.13708E+000,2.08331E-001,4.66141E+000,-2.94948E-001,1.19232E-001,4.67225E+000,8.41056E-003,4.90872E-001,0,7.06810E+001,-5.39201E+000,9.98722E-001,2.83694E+001,-3.83748E+001,9.97111E-001,1.10723E-001,-4.53922E-002,5.38528E-004,1.10724E-001,-4.53941E-002,1.97642E-001,1.11321E-001,1.11691E+000,-2.70351E-002,0.00000E+000,2.53061E-002,9.57526E-001,0.00000E+000,-1.84300E-002,-6.80173E-002,1.00000E+000,17
849,1337,-2.05949E+000,9.59387E-002,3.55069E-003,3.44247E+000,-5.36452E-001,4.44251E-002,3.48430E+000,1.28462E-002,5.57795E-001,0,5.30114E+001,-8.91457E+000,9.98968E-001,8.78880E+000,-4.48409E+001,9.98474E-001,1.15136E-001,-4.73841E-002,-2.77783E-003,1.15184E-001,-4.74316E-002,-9.78929E-001,1.15780E-001,1.12202E+000,-4.78136E-003,0.00000E+000,-1.25983E-003,9.56992E-001,0.00000E+000,-1.49678E-004,-8.27978E-002,1.00000E+000,17
849,1347,-2.04236E+000,7.11167E-001,-4.56483E-003,3.43995E+000,-5.66704E-001,3.61663E-003,3.48632E+000,1.15173E-002,5.06239E-001,0,5.31009E+001,-9.31246E+000,9.99111E-001,9.14849E+000,-4.53594E+001,9.98847E-001,1.14535E-001,-4.73847E-002,-2.79651E-003,1.14584E-001,-4.74330E-002,-9.89157E-001,1.15148E-001,1.12135E+000,-4.80133E-003,0.00000E+000,-1.14032E-003,9.56995E-001,0.00000E+000,-1.87383E-003,-8.28490E-002,1.00000E+000,17
849,1357,-2.01241E+000,1.33940E+000,3.04978E-002,3.43980E+000,-5.93541E-001,-4.46850E-002,3.49092E+000,9.38957E-003,5.05092E-001,0,5.32437E+001,-9.63648E+000,9.99225E-001,9.80907E+000,-4.57490E+001,9.99113E-001,1.13926E-001,-4.73856E-002,-2.82010E-003,1.13975E-001,-4.74349E-002,-1.00126E+000,1.14507E-001,1.12067E+000,-4.83184E-003,0.00000E+000,-1.01965E-003,9.57001E-001,0.00000E+000,-3.61487E-003,-8.29272E-002,1.00000E+000,17
849,1327,-2.07230E+000,-5.14199E-001,4.05903E-002,3.44489E+000,-5.02711E-001,9.23673E-002,3.48260E+000,1.22588E-002,5.41201E-001,0,5.28934E+001,-8.47063E+000,9.99176E-001,8.56493E+000,-4.43424E+001,9.98706E-001,1.15733E-001,-4.73836E-002,-2.76121E-003,1.15780E-001,-4.74304E-002,-9.69520E-001,1.16408E-001,1.12270E+000,-4.76583E-003,0.00000E+000,-1.37930E-003,9.56989E-001,0.00000E+000,1.57397E-003,-8.27580E-002,1.00000E+000,17
1009,1337,9.61189E+000,3.42335E-001,-4.18121E-002,4.66578E+000,-3.91907E-001,-5.49893E-002,4.68254E+000,1.22890E-002,4.47151E-001,0,7.13213E+001,-6.60432E+000,9.99477E-001,2.91078E+001,-3.94060E+001,9.99286E-001,1.09549E-001,-4.52935E-002,8.23423E-004,1.09553E-001,-4.52978E-002,3.04677E-001,1.10099E-001,1.11547E+000,-2.72527E-002,0.00000E+000,2.53920E-002,9.57464E-001,0.00000E+000,-8.25975E-003,-6.58674E-002,1.00000E+000,17
1009,1347,9.62094E+000,9.55773E-001,-2.61497E-002,4.64737E+000,-4.31505E-001,-9.42554E-002,4.66831E+000,8.30247E-003,4.10108E-001,0,7.11760E+001,-7.14935E+000,9.99792E-001,2.93657E+001,-3.99716E+001,9.99500E-001,1.09451E-001,-4.52780E-002,9.34250E-004,1.09457E-001,-4.52837E-002,3.45933E-001,1.09999E-001,1.11535E+000,-2.72577E-002,0.00000E+000,2.55000E-002,9.57469E-001,0.00000E+000,-6.49296E-003,-6.57930E-002,1.00000E+000,17
1009,1297,9.63948E+000,-2.11590E+000,2.00391E-001,4.73429E+000,-2.79016E-001,1.05854E-001,4.74369E+000,1.04046E-002,4.14306E-001,0,7.17778E+001,-5.10006E+000,9.98255E-001,2.96628E+001,-3.79777E+001,9.96786E-001,1.09904E-001,-4.53306E-002,3.76724E-004,1.09905E-001,-4.53315E-002,1.39044E-001,1.10465E-001,1.11594E+000,-2.72451E-002,0.00000E+000,2.49633E-002,9.57457E-001,0.00000E+000,-1.52748E-002,-6.59786E-002,1.00000E+000,17
1009,1307,9.62516E+000,-1.50335E+000,1.10099E-001,4.71461E+000,-3.05903E-001,5.71766E-002,4.72487E+000,1.02379E-002,4.34582E-001,0,7.16585E+001,-5.44727E+000,9.98943E-001,2.93503E+001,-3.82963E+001,9.98682E-001,1.09820E-001,-4.53231E-002,4.88607E-004,1.09822E-001,-4.53246E-002,1.80445E-001,1.10378E-001,1.11582E+000,-2.72461E-002,0.00000E+000,2.50702E-002,9.57458E-001,0.00000E+000,-1.35259E-002,-6.59640E-002,1.00000E+000,17
1009,1317,9.61734E+000,-8.92646E-001,4.04801E-002,4.69908E+000,-3.36538E-001,1.89398E-002,4.71116E+000,1.03057E-002,4.71011E-001,0,7.15642E+001,-5.87613E+000,9.99281E-001,2.91786E+001,-3.86786E+001,9.98707E-001,1.09733E-001,-4.53147E-002,6.00427E-004,1.09735E-001,-4.53170E-002,2.21875E-001,1.10288E-001,1.11571E+000,-2.72476E-002,0.00000E+000,2.51773E-002,9.57460E-001,0.00000E+000,-1.17739E-002,-6.59431E-002,1.00000E+000,17
849,1317,-2.08781E+000,-1.12094E+000,1.06308E-001,3.44156E+000,-4.68480E-001,1.54120E-001,3.47672E+000,1.34352E-002,5.98405E-001,0,5.26402E+001,-8.07504E+000,9.98852E-001,8.36709E+000,-4.38178E+001,9.97763E-001,1.16325E-001,-4.73833E-002,-2.74605E-003,1.16372E-001,-4.74293E-002,-9.60718E-001,1.17032E-001,1.12337E+000,-4.75338E-003,0.00000E+000,-1.49841E-003,9.56987E-001,0.00000E+000,3.29240E-003,-8.27260E-002,1.00000E+000,17
1009,1327,9.61375E+000,-2.77949E-001,-2.67578E-003,4.68086E+000,-3.67468E-001,-2.30764E-002,4.69532E+000,1.04622E-002,4.53078E-001,0,7.14378E+001,-6.27511E+000,9.99414E-001,2.91255E+001,-3.90835E+001,9.99202E-001,1.09642E-001,-4.53038E-002,7.11981E-004,1.09646E-001,-4.53071E-002,2.63268E-001,1.10195E-001,1.11559E+000,-2.72502E-002,0.00000E+000,2.52847E-002,9.57462E-001,0.00000E+000,-1.00162E-002,-6.59033E-002,1.00000E+000,17
849,1307,-2.10063E+000,-1.72417E+000,2.03211E-001,3.43308E+000,-4.35494E-001,2.08749E-001,3.46689E+000,1.51320E-002,5.66069E-001,0,5.23267E+001,-7.64800E+000,9.98646E-001,8.28529E+000,-4.33496E+001,9.97948E-001,1.16912E-001,-4.73831E-002,-2.73441E-003,1.16958E-001,-4.74286E-002,-9.53238E-001,1.17652E-001,1.12403E+000,-4.74882E-003,0.00000E+000,-1.61710E-003,9.56986E-001,0.00000E+000,5.00474E-003,-8.27144E-002,1.00000E+000,17
839,1337,-2.78772E+000,8.93389E-002,2.94242E-002,3.36086E+000,-5.38018E-001,6.08311E-002,3.40419E+000,2.53668E-002,5.35573E-001,0,5.17378E+001,-8.96191E+000,9.98989E-001,7.63194E+000,-4.51106E+001,9.98335E-001,1.15222E-001,-4.74148E-002,-2.40325E-003,1.15258E-001,-4.74503E-002,-8.46402E-001,1.15855E-001,1.12212E+000,-3.88882E-003,0.00000E+000,-1.26218E-003,9.56844E-001,0.00000E+000,-6.17797E-004,-8.12986E-002,1.00000E+000,17
839,1347,-2.77202E+000,7.04431E-001,-2.51828E-003,3.35900E+000,-5.67158E-001,5.69889E-003,3.40655E+000,9.66754E-003,5.00562E-001,0,5.18835E+001,-9.31335E+000,9.99171E-001,7.91441E+000,-4.55731E+001,9.98813E-001,1.14773E-001,-4.74153E-002,-2.41815E-003,1.14809E-001,-4.74513E-002,-8.54002E-001,1.15383E-001,1.12162E+000,-3.90225E-003,0.00000E+000,-1.14162E-003,9.56847E-001,0.00000E+000,-2.37814E-003,-8.13457E-002,1.00000E+000,17
839,1357,-2.74083E+000,1.33578E+000,2.88291E-002,3.36122E+000,-5.89906E-001,-4.20004E-002,3.41286E+000,7.67050E-003,4.91114E-001,0,5.20594E+001,-9.57299E+000,9.99386E-001,8.58848E+000,-4.59122E+001,9.99153E-001,1.14315E-001,-4.74160E-002,-2.43712E-003,1.14352E-001,-4.74528E-002,-8.63124E-001,1.14902E-001,1.12111E+000,-3.92432E-003,0.00000E+000,-1.01988E-003,9.56852E-001,0.00000E+000,-4.15573E-003,-8.14231E-002,1.00000E+000,17
1019,1337,1.03513E+001,3.70127E-001,-2.91328E-002,4.74485E+000,-3.74383E-001,-6.05073E-002,4.75998E+000,1.11311E-002,4.87998E-001,0,7.24835E+001,-6.33125E+000,9.99283E-001,3.05998E+001,-3.88849E+001,9.99207E-001,1.09439E-001,-4.52556E-002,5.65581E-004,1.09441E-001,-4.52577E-002,2.09476E-001,1.09985E-001,1.11533E+000,-2.73835E-002,0.00000E+000,2.48924E-002,9.57423E-001,0.00000E+000,-6.45158E-003,-6.44752E-002,1.00000E+000,17
1019,1347,1.03522E+001,9.83171E-001,-3.04690E-002,4.72390E+000,-4.11529E-001,-9.15872E-002,4.74268E+000,9.78771E-003,4.55776E-001,0,7.22743E+001,-6.84987E+000,9.99526E-001,3.06965E+001,-3.94163E+001,9.99398E-001,1.09472E-001,-4.52429E-002,6.74262E-004,1.09475E-001,-4.52459E-002,2.49693E-001,1.10023E-001,1.11536E+000,-2.73824E-002,0.00000E+000,2.50041E-002,9.57427E-001,0.00000E+000,-4.90579E-003,-6.44234E-002,1.00000E+000,17
839,1327,-2.81201E+000,-5.14106E-001,3.97292E-002,3.35616E+000,-4.95223E-001,1.04127E-001,3.39410E+000,2.20157E-002,5.81443E-001,0,5.15258E+001,-8.38808E+000,9.99422E-001,7.16807E+000,-4.44194E+001,9.98461E-001,1.15669E-001,-4.74142E-002,-2.38775E-003,1.15704E-001,-4.74492E-002,-8.38644E-001,1.16326E-001,1.12262E+000,-3.87386E-003,0.00000E+000,-1.38299E-003,9.56840E-001,0.00000E+000,1.14633E-003,-8.12461E-002,1.00000E+000,17
1019,1327,1.03473E+001,-2.55721E-001,-8.54016E-003,4.75908E+000,-3.51497E-001,-2.58585E-002,4.77212E+000,1.08564E-002,4.53199E-001,0,7.25806E+001,-6.02194E+000,9.99191E-001,3.04905E+001,-3.86305E+001,9.98999E-001,1.09403E-001,-4.52671E-002,4.56901E-004,1.09405E-001,-4.52684E-002,1.69251E-001,1.09946E-001,1.11530E+000,-2.73843E-002,0.00000E+000,2.47807E-002,9.57420E-001,0.00000E+000,-7.99662E-003,-6.45186E-002,1.00000E+000,17
1019,1317,1.03519E+001,-8.72896E-001,4.20167E-002,4.77481E+000,-3.24053E-001,7.45636E-003,4.78580E+000,1.17771E-002,4.47284E-001,0,7.26981E+001,-5.66175E+000,9.99370E-001,3.05752E+001,-3.82935E+001,9.98677E-001,1.09365E-001,-4.52761E-002,3.48591E-004,1.09366E-001,-4.52769E-002,1.29154E-001,1.09904E-001,1.11527E+000,-2.73848E-002,0.00000E+000,2.46693E-002,9.57418E-001,0.00000E+000,-9.53725E-003,-6.45449E-002,1.00000E+000,17
839,1317,-2.81932E+000,-1.12022E+000,1.08622E-001,3.35681E+000,-4.61993E-001,1.48762E-001,3.39171E+000,1.13729E-002,5.58123E-001,0,5.13880E+001,-7.95394E+000,9.98884E-001,7.10460E+000,-4.39292E+001,9.97129E-001,1.16111E-001,-4.74140E-002,-2.37624E-003,1.16145E-001,-4.74485E-002,-8.32351E-001,1.16792E-001,1.12313E+000,-3.86771E-003,0.00000E+000,-1.50320E-003,9.56838E-001,0.00000E+000,2.90159E-003,-8.12245E-002,1.00000E+000,17
1019,1297,1.03685E+001,-2.09155E+000,1.86967E-001,4.80768E+000,-2.59604E-001,9.30616E-002,4.81559E+000,1.10281E-002,4.23638E-001,0,7.28784E+001,-4.79073E+000,9.99304E-001,3.09434E+001,-3.74771E+001,9.98579E-001,1.09283E-001,-4.52922E-002,1.32573E-004,1.09283E-001,-4.52923E-002,4.91405E-002,1.09815E-001,1.11521E+000,-2.73856E-002,0.00000E+000,2.44472E-002,9.57416E-001,0.00000E+000,-1.26082E-002,-6.45837E-002,1.00000E+000,17
1019,1307,1.03546E+001,-1.48152E+000,1.01991E-001,4.78764E+000,-2.91283E-001,4.66097E-002,4.79672E+000,1.46033E-002,4.67169E-001,0,7.27481E+001,-5.20338E+000,9.99414E-001,3.06481E+001,-3.78325E+001,9.98612E-001,1.09325E-001,-4.52848E-002,2.40705E-004,1.09326E-001,-4.52852E-002,8.92006E-002,1.09861E-001,1.11524E+000,-2.73853E-002,0.00000E+000,2.45584E-002,9.57417E-001,0.00000E+000,-1.10708E-002,-6.45690E-002,1.00000E+000,17
839,1307,-2.82584E+000,-1.72094E+000,2.04666E-001,3.35412E+000,-4.26680E-001,2.00209E-001,3.38707E+000,9.78870E-003,5.40226E-001,0,5.11739E+001,-7.49793E+000,9.98514E-001,7.11897E+000,-4.34107E+001,9.97105E-001,1.16548E-001,-4.74139E-002,-2.36616E-003,1.16582E-001,-4.74480E-002,-8.26615E-001,1.17252E-001,1.12362E+000,-3.86469E-003,0.00000E+000,-1.62303E-003,9.56838E-001,0.00000E+000,4.65135E-003,-8.12140E-002,1.00000E+000,17
829,1337,-3.51942E+000,8.70950E-002,1.33746E-002,3.27858E+000,-5.32391E-001,5.11056E-002,3.32192E+000,1.76628E-002,5.37516E-001,0,5.05358E+001,-8.86023E+000,9.98505E-001,6.32763E+000,-4.52105E+001,9.97712E-001,1.14968E-001,-4.73476E-002,-1.98241E-003,1.14992E-001,-4.73718E-002,-6.99632E-001,1.15585E-001,1.12184E+000,-3.19560E-003,0.00000E+000,-1.00259E-003,9.56785E-001,0.00000E+000,-1.15171E-003,-7.97112E-002,1.00000E+000,17
829,1347,-3.49822E+000,7.03981E-001,5.22838E-003,3.27981E+000,-5.62873E-001,7.23566E-003,3.32776E+000,8.47220E-003,5.17122E-001,0,5.06910E+001,-9.24123E+000,9.98599E-001,6.75297E+000,-4.56910E+001,9.98384E-001,1.14624E-001,-4.73516E-002,-2.05136E-003,1.14650E-001,-4.73776E-002,-7.25474E-001,1.15224E-001,1.12146E+000,-3.20724E-003,0.00000E+000,-9.83233E-004,9.56785E-001,0.00000E+000,-3.00493E-003,-7.97678E-002,1.00000E+000,17
829,1357,-3.46951E+000,1.33296E+000,3.16555E-002,3.28120E+000,-5.86876E-001,-3.83574E-002,3.33349E+000,8.22023E-003,5.16104E-001,0,5.08478E+001,-9.52686E+000,9.99165E-001,7.37871E+000,-4.60539E+001,9.99151E-001,1.14275E-001,-4.73570E-002,-2.12269E-003,1.14303E-001,-4.73849E-002,-7.52282E-001,1.14858E-001,1.12107E+000,-3.22314E-003,0.00000E+000,-9.63775E-004,9.56786E-001,0.00000E+000,-4.86771E-003,-7.98450E-002,1.00000E+000,17
1029,1337,1.10730E+001,3.85870E-001,-4.12251E-002,4.81164E+000,-3.63126E-001,-6.54933E-002,4.82577E+000,9.96267E-003,4.67481E-001,0,7.34624E+001,-6.15675E+000,9.98928E-001,3.17719E+001,-3.85288E+001,9.98618E-001,1.09468E-001,-4.50724E-002,3.60302E-004,1.09469E-001,-4.50732E-002,1.33581E-001,1.10036E-001,1.11535E+000,-2.73577E-002,0.00000E+000,2.43583E-002,9.57540E-001,0.00000E+000,-4.52362E-003,-6.33323E-002,1.00000E+000,17
1029,1347,1.10775E+001,1.01112E+000,-4.01436E-002,4.79323E+000,-3.89873E-001,-9.79722E-002,4.81006E+000,9.38710E-003,4.83450E-001,0,7.32929E+001,-6.52059E+000,9.99203E-001,3.19290E+001,-3.88504E+001,9.98741E-001,1.09623E-001,-4.50588E-002,4.77904E-004,1.09625E-001,-4.50603E-002,1.77018E-001,1.10202E-001,1.11552E+000,-2.73517E-002,0.00000E+000,2.44892E-002,9.57544E-001,0.00000E+000,-3.09682E-003,-6.32823E-002,1.00000E+000,17
1029,1327,1.10776E+001,-2.34833E-001,-1.11036E-002,4.83196E+000,-3.35947E-001,-3.28920E-002,4.84373E+000,1.06074E-002,4.43709E-001,0,7.36548E+001,-5.79190E+000,9.99044E-001,3.18164E+001,-3.82108E+001,9.98720E-001,1.09311E-001,-4.50834E-002,2.43741E-004,1.09312E-001,-4.50838E-002,9.04518E-002,1.09869E-001,1.11518E+000,-2.73618E-002,0.00000E+000,2.42278E-002,9.57536E-001,0.00000E+000,-5.94630E-003,-6.33666E-002,1.00000E+000,17
829,1327,-3.53895E+000,-5.17615E-001,3.90012E-002,3.27465E+000,-4.93604E-001,9.07674E-002,3.31289E+000,1.66368E-002,5.58609E-001,0,5.03471E+001,-8.33196E+000,9.99142E-001,5.97250E+000,-4.45821E+001,9.98596E-001,1.15307E-001,-4.73444E-002,-1.91494E-003,1.15329E-001,-4.73669E-002,-6.74434E-001,1.15941E-001,1.12222E+000,-3.18650E-003,0.00000E+000,-1.02188E-003,9.56784E-001,0.00000E+000,6.94311E-004,-7.96670E-002,1.00000E+000,17
829,1307,-3.54359E+000,-1.72798E+000,2.23004E-001,3.28230E+000,-4.28830E-001,2.09054E-001,3.31679E+000,1.18337E-002,4.91284E-001,0,5.00774E+001,-7.53330E+000,9.98814E-001,6.11077E+000,-4.36764E+001,9.97052E-001,1.15971E-001,-4.73417E-002,-1.78557E-003,1.15990E-001,-4.73612E-002,-6.26340E-001,1.16638E-001,1.12297E+000,-3.17925E-003,0.00000E+000,-1.06026E-003,9.56784E-001,0.00000E+000,4.36921E-003,-7.96318E-002,1.00000E+000,17
829,1317,-3.54595E+000,-1.12380E+000,1.15435E-001,3.27688E+000,-4.60298E-001,1.49669E-001,3.31244E+000,1.35314E-002,5.12299E-001,0,5.01900E+001,-7.90756E+000,9.98889E-001,5.93210E+000,-4.41188E+001,9.98015E-001,1.15641E-001,-4.73425E-002,-1.84936E-003,1.15662E-001,-4.73634E-002,-6.50018E-001,1.16292E-001,1.12260E+000,-3.18109E-003,0.00000E+000,-1.04110E-003,9.56784E-001,0.00000E+000,2.53452E-003,-7.96407E-002,1.00000E+000,17
1029,1317,1.10830E+001,-8.54268E-001,3.54212E-002,4.84871E+000,-3.12213E-001,-2.40768E-003,4.85875E+000,1.19331E-002,4.40961E-001,0,7.37990E+001,-5.45568E+000,9.99316E-001,3.19045E+001,-3.79000E+001,9.98653E-001,1.09153E-001,-4.50929E-002,1.28189E-004,1.09153E-001,-4.50930E-002,4.76165E-002,1.09701E-001,1.11502E+000,-2.73647E-002,0.00000E+000,2.40979E-002,9.57534E-001,0.00000E+000,-7.36156E-003,-6.33915E-002,1.00000E+000,17
1029,1307,1.10917E+001,-1.46332E+000,1.07762E-001,4.86623E+000,-2.79966E-001,4.27644E-002,4.87447E+000,1.09084E-002,4.88912E-001,0,7.38962E+001,-5.04169E+000,9.99414E-001,3.20951E+001,-3.74591E+001,9.97524E-001,1.08993E-001,-4.51015E-002,1.30462E-005,1.08993E-001,-4.51015E-002,4.85085E-003,1.09532E-001,1.11485E+000,-2.73670E-002,0.00000E+000,2.39683E-002,9.57532E-001,0.00000E+000,-8.77448E-003,-6.34107E-002,1.00000E+000,17
1029,1297,1.11033E+001,-2.06974E+000,1.90522E-001,4.88444E+000,-2.44649E-001,8.87450E-002,4.89137E+000,9.80957E-003,4.77216E-001,0,7.39980E+001,-4.57991E+000,9.99282E-001,3.23507E+001,-3.70290E+001,9.97958E-001,1.08831E-001,-4.51094E-002,-1.02111E-004,1.08831E-001,-4.51094E-002,-3.80052E-002,1.09360E-001,1.11468E+000,-2.73687E-002,0.00000E+000,2.38384E-002,9.57531E-001,0.00000E+000,-1.01899E-002,-6.34252E-002,1.00000E+000,17
819,1317,-4.26943E+000,-1.13267E+000,1.23437E-001,3.19896E+000,-4.64681E-001,1.48124E-001,3.23592E+000,1.32129E-002,4.99828E-001,0,4.90303E+001,-7.96358E+000,9.98647E-001,4.81441E+000,-4.43757E+001,9.97193E-001,1.14837E-001,-4.71308E-002,-1.42681E-003,1.14850E-001,-4.71434E-002,-5.04679E-001,1.15462E-001,1.12169E+000,-2.81788E-003,0.00000E+000,-4.84044E-004,9.56853E-001,0.00000E+000,1.87869E-003,-7.78799E-002,1.00000E+000,17
819,1327,-4.26522E+000,-5.27826E-001,4.76570E-002,3.19623E+000,-4.97260E-001,1.00800E-001,3.23625E+000,1.32212E-002,5.12960E-001,0,4.91427E+001,-8.38960E+000,9.98979E-001,4.81315E+000,-4.48799E+001,9.97782E-001,1.14592E-001,-4.71333E-002,-1.53443E-003,1.14606E-001,-4.71479E-002,-5.43551E-001,1.15204E-001,1.12141E+000,-2.82089E-003,0.00000E+000,-5.61083E-004,9.56853E-001,0.00000E+000,1.77471E-004,-7.78983E-002,1.00000E+000,17
819,1337,-4.24795E+000,8.56399E-002,9.89138E-003,3.19870E+000,-5.27555E-001,5.24050E-002,3.24234E+000,1.04144E-002,5.45328E-001,0,4.93336E+001,-8.77773E+000,9.98664E-001,5.10654E+000,-4.53225E+001,9.98266E-001,1.14341E-001,-4.71385E-002,-1.64424E-003,1.14358E-001,-4.71552E-002,-5.83324E-001,1.14942E-001,1.12113E+000,-2.82726E-003,0.00000E+000,-6.38595E-004,9.56851E-001,0.00000E+000,-1.53421E-003,-7.79374E-002,1.00000E+000,17
819,1307,-4.27413E+000,-1.73353E+000,2.12251E-001,3.19814E+000,-4.31497E-001,1.93325E-001,3.23291E+000,1.27920E-002,5.31395E-001,0,4.88678E+001,-7.52623E+000,9.98848E-001,4.84025E+000,-4.38152E+001,9.97290E-001,1.15079E-001,-4.71292E-002,-1.32021E-003,1.15090E-001,-4.71400E-002,-4.66286E-001,1.15716E-001,1.12197E+000,-2.81618E-003,0.00000E+000,-4.07300E-004,9.56854E-001,0.00000E+000,3.57339E-003,-7.78695E-002,1.00000E+000,17
819,1347,-4.22324E+000,7.07105E-001,5.65345E-003,3.20322E+000,-5.53793E-001,1.05681E-002,3.25076E+000,9.27735E-003,5.33814E-001,0,4.95307E+001,-9.09756E+000,9.99198E-001,5.59752E+000,-4.57378E+001,9.99146E-001,1.14087E-001,-4.71453E-002,-1.75555E-003,1.14106E-001,-4.71644E-002,-6.23757E-001,1.14676E-001,1.12085E+000,-2.83595E-003,0.00000E+000,-7.16383E-004,9.56848E-001,0.00000E+000,-3.25197E-003,-7.79906E-002,1.00000E+000,17
819,1357,-4.19689E+000,1.32583E+000,3.89720E-002,3.20192E+000,-5.88020E-001,-3.09367E-002,3.25561E+000,1.12274E-002,5.32787E-001,0,4.96354E+001,-9.55411E+000,9.98952E-001,6.20385E+000,-4.62760E+001,9.98943E-001,1.13828E-001,-4.71546E-002,-1.86891E-003,1.13850E-001,-4.71763E-002,-6.65048E-001,1.14405E-001,1.12057E+000,-2.84783E-003,0.00000E+000,-7.94528E-004,9.56845E-001,0.00000E+000,-4.97760E-003,-7.80633E-002,1.00000E+000,17
1039,1337,1.18055E+001,4.08599E-001,-4.55472E-002,4.88711E+000,-3.47242E-001,-6.95591E-002,4.89992E+000,9.31653E-003,4.65935E-001,0,7.45649E+001,-5.90302E+000,9.99149E-001,3.31309E+001,-3.80710E+001,9.98290E-001,1.09505E-001,-4.47910E-002,3.03949E-005,1.09505E-001,-4.47910E-002,1.12867E-002,1.10107E-001,1.11539E+000,-2.73113E-002,0.00000E+000,2.35795E-002,9.57776E-001,0.00000E+000,-2.68884E-003,-6.25039E-002,1.00000E+000,17
1039,1347,1.18086E+001,1.02428E+000,-4.22758E-002,4.86756E+000,-3.81477E-001,-9.80737E-002,4.88347E+000,8.99132E-003,4.24083E-001,0,7.43676E+001,-6.39409E+000,9.99547E-001,3.32671E+001,-3.85729E+001,9.99074E-001,1.09766E-001,-4.47820E-002,1.14127E-004,1.09766E-001,-4.47821E-002,4.23102E-002,1.10384E-001,1.11568E+000,-2.73013E-002,0.00000E+000,2.36467E-002,9.57778E-001,0.00000E+000,-1.36513E-003,-6.24581E-002,1.00000E+000,17
1039,1317,1.18118E+001,-8.27684E-001,2.92795E-002,4.92173E+000,-2.90405E-001,-4.53582E-003,4.93029E+000,9.17787E-003,4.43675E-001,0,7.48541E+001,-5.13245E+000,9.99262E-001,3.32066E+001,-3.73802E+001,9.98569E-001,1.08977E-001,-4.48051E-002,-1.33831E-004,1.08978E-001,-4.48052E-002,-4.98623E-002,1.09550E-001,1.11481E+000,-2.73239E-002,0.00000E+000,2.34452E-002,9.57773E-001,0.00000E+000,-5.33320E-003,-6.25611E-002,1.00000E+000,17
1039,1327,1.18087E+001,-2.14213E-001,-1.62158E-002,4.90639E+000,-3.20468E-001,-3.70507E-002,4.91699E+000,8.41177E-003,4.15537E-001,0,7.47414E+001,-5.55165E+000,9.99333E-001,3.31537E+001,-3.77991E+001,9.98604E-001,1.09241E-001,-4.47985E-002,-5.23581E-005,1.09241E-001,-4.47985E-002,-1.94749E-002,1.09828E-001,1.11510E+000,-2.73185E-002,0.00000E+000,2.35121E-002,9.57774E-001,0.00000E+000,-4.01603E-003,-6.25364E-002,1.00000E+000,17
1039,1307,1.18215E+001,-1.44296E+000,8.98101E-002,4.94069E+000,-2.63582E-001,3.07099E-002,4.94781E+000,9.68304E-003,4.60931E-001,0,7.50107E+001,-4.77005E+000,9.99243E-001,3.33884E+001,-3.70274E+001,9.98291E-001,1.08712E-001,-4.48109E-002,-2.14743E-004,1.08713E-001,-4.48112E-002,-8.01431E-002,1.09270E-001,1.11452E+000,-2.73281E-002,0.00000E+000,2.33784E-002,9.57772E-001,0.00000E+000,-6.64922E-003,-6.25801E-002,1.00000E+000,17
1039,1297,1.18347E+001,-2.05302E+000,1.74498E-001,4.96006E+000,-2.32417E-001,7.61500E-002,4.96609E+000,9.68389E-003,4.44156E-001,0,7.51321E+001,-4.36284E+000,9.98856E-001,3.36732E+001,-3.66621E+001,9.98184E-001,1.08445E-001,-4.48161E-002,-2.95091E-004,1.08446E-001,-4.48166E-002,-1.10317E-001,1.08988E-001,1.11423E+000,-2.73308E-002,0.00000E+000,2.33115E-002,9.57771E-001,0.00000E+000,-7.96549E-003,-6.25925E-002,1.00000E+000,17
1049,1337,1.25440E+001,4.30699E-001,-4.72339E-002,4.96757E+000,-3.29959E-001,-7.39695E-002,4.97907E+000,1.32218E-002,4.54254E-001,0,7.57414E+001,-5.66114E+000,9.99636E-001,3.45932E+001,-3.76330E+001,9.98846E-001,1.09470E-001,-4.47118E-002,-4.32412E-004,1.09472E-001,-4.47130E-002,-1.60687E-001,1.10082E-001,1.11535E+000,-2.72390E-002,0.00000E+000,2.25515E-002,9.57805E-001,0.00000E+000,-1.33778E-003,-6.13259E-002,1.00000E+000,17
1049,1347,1.25523E+001,1.05093E+000,-3.39079E-002,4.95074E+000,-3.63576E-001,-1.01961E-001,4.96512E+000,1.10549E-002,4.55310E-001,0,7.55821E+001,-6.13067E+000,9.99542E-001,3.48273E+001,-3.80632E+001,9.98372E-001,1.09848E-001,-4.47076E-002,-3.87387E-004,1.09849E-001,-4.47086E-002,-1.43608E-001,1.10481E-001,1.11578E+000,-2.72229E-002,0.00000E+000,2.25584E-002,9.57805E-001,0.00000E+000,-3.62949E-004,-6.12888E-002,1.00000E+000,17
1049,1307,1.25593E+001,-1.41837E+000,1.03110E-001,5.01885E+000,-2.44596E-001,3.34582E-002,5.02492E+000,1.28199E-002,4.01444E-001,0,7.61215E+001,-4.48617E+000,9.99357E-001,3.48696E+001,-3.66118E+001,9.98364E-001,1.08339E-001,-4.47202E-002,-5.55758E-004,1.08341E-001,-4.47222E-002,-2.08037E-001,1.08889E-001,1.11410E+000,-2.72622E-002,0.00000E+000,2.25309E-002,9.57805E-001,0.00000E+000,-4.23893E-003,-6.13794E-002,1.00000E+000,17
1049,1317,1.25477E+001,-8.04210E-001,4.15802E-002,4.99753E+000,-2.73384E-001,-4.06993E-003,5.00501E+000,1.14469E-002,4.13016E-001,0,7.59391E+001,-4.88199E+000,9.98901E-001,3.46549E+001,-3.69644E+001,9.97423E-001,1.08717E-001,-4.47176E-002,-5.15317E-004,1.08718E-001,-4.47194E-002,-1.92428E-001,1.09287E-001,1.11452E+000,-2.72559E-002,0.00000E+000,2.25377E-002,9.57805E-001,0.00000E+000,-3.27367E-003,-6.13650E-002,1.00000E+000,17
1049,1327,1.25416E+001,-1.94549E-001,-1.58078E-002,4.98231E+000,-3.06907E-001,-3.49216E-002,4.99187E+000,7.31533E-003,4.02673E-001,0,7.58265E+001,-5.34656E+000,9.99343E-001,3.45329E+001,-3.74064E+001,9.98018E-001,1.09093E-001,-4.47151E-002,-4.75062E-004,1.09095E-001,-4.47166E-002,-1.76965E-001,1.09684E-001,1.11493E+000,-2.72500E-002,0.00000E+000,2.25446E-002,9.57805E-001,0.00000E+000,-2.30779E-003,-6.13514E-002,1.00000E+000,17
809,1347,-4.95722E+000,6.94737E-001,6.20213E-004,3.11757E+000,-5.58664E-001,9.93808E-003,3.16725E+000,8.04134E-003,5.16084E-001,0,4.82463E+001,-9.16415E+000,9.99509E-001,4.29267E+000,-4.60300E+001,9.99371E-001,1.13458E-001,-4.69293E-002,-1.48329E-003,1.13471E-001,-4.69430E-002,-5.29822E-001,1.14033E-001,1.12015E+000,-2.71090E-003,0.00000E+000,-2.86764E-004,9.56937E-001,0.00000E+000,-3.48774E-003,-7.63942E-002,1.00000E+000,17
809,1357,-4.93058E+000,1.31853E+000,3.95730E-002,3.11608E+000,-5.88682E-001,-2.94445E-002,3.17133E+000,9.77103E-003,5.25255E-001,0,4.83389E+001,-9.55595E+000,9.99353E-001,4.92050E+000,-4.64991E+001,9.98760E-001,1.13315E-001,-4.69448E-002,-1.66284E-003,1.13332E-001,-4.69621E-002,-5.94410E-001,1.13885E-001,1.12000E+000,-2.71744E-003,0.00000E+000,-5.07124E-004,9.56928E-001,0.00000E+000,-5.10467E-003,-7.64638E-002,1.00000E+000,17
809,1327,-4.99443E+000,-5.39177E-001,3.70144E-002,3.11443E+000,-5.04629E-001,9.18107E-002,3.15638E+000,9.37225E-003,5.36091E-001,0,4.79461E+001,-8.45698E+000,9.99302E-001,3.56571E+000,-4.51200E+001,9.97904E-001,1.13733E-001,-4.69100E-002,-1.13036E-003,1.13741E-001,-4.69179E-002,-4.03133E-001,1.14320E-001,1.12045E+000,-2.70297E-003,0.00000E+000,1.49548E-004,9.56949E-001,0.00000E+000,-2.86230E-004,-7.63099E-002,1.00000E+000,17
809,1337,-4.97500E+000,7.51419E-002,1.30171E-002,3.11876E+000,-5.32696E-001,5.48326E-002,3.16441E+000,6.99147E-003,5.35835E-001,0,4.81278E+001,-8.84240E+000,9.99361E-001,3.92704E+000,-4.55969E+001,9.99309E-001,1.13597E-001,-4.69186E-002,-1.30631E-003,1.13607E-001,-4.69292E-002,-4.66245E-001,1.14178E-001,1.12030E+000,-2.70648E-003,0.00000E+000,-6.82681E-005,9.56944E-001,0.00000E+000,-1.88449E-003,-7.63473E-002,1.00000E+000,17
809,1307,-5.00417E+000,-1.73663E+000,2.11415E-001,3.11549E+000,-4.29672E-001,1.94427E-001,3.15098E+000,1.48841E-002,5.87602E-001,0,4.76254E+001,-7.51072E+000,9.97207E-001,3.60619E+000,-4.39290E+001,9.95788E-001,1.13995E-001,-4.69030E-002,-7.82329E-004,1.13999E-001,-4.69068E-002,-2.78578E-001,1.14593E-001,1.12075E+000,-2.70044E-003,0.00000E+000,5.82977E-004,9.56952E-001,0.00000E+000,2.89413E-003,-7.62830E-002,1.00000E+000,17
809,1317,-4.99778E+000,-1.13802E+000,1.17844E-001,3.11820E+000,-4.66058E-001,1.45403E-001,3.15619E+000,1.39236E-002,5.56501E-001,0,4.78291E+001,-7.96948E+000,9.99072E-001,3.59376E+000,-4.45155E+001,9.97685E-001,1.13865E-001,-4.69056E-002,-9.55967E-004,1.13871E-001,-4.69113E-002,-3.40673E-001,1.14458E-001,1.12060E+000,-2.70130E-003,0.00000E+000,3.66497E-004,9.56951E-001,0.00000E+000,1.30567E-003,-7.62922E-002,1.00000E+000,17
1049,1297,1.25650E+001,-2.03620E+000,1.73134E-001,5.03312E+000,-2.20384E-001,7.44731E-002,5.03849E+000,1.07694E-002,3.85668E-001,0,7.61852E+001,-4.16300E+000,9.98867E-001,3.50085E+001,-3.63377E+001,9.97152E-001,1.07961E-001,-4.47227E-002,-5.95873E-004,1.07963E-001,-4.47250E-002,-2.23602E-001,1.08491E-001,1.11368E+000,-2.72677E-002,0.00000E+000,2.25240E-002,9.57805E-001,0.00000E+000,-5.20337E-003,-6.13921E-002,1.00000E+000,17
799,1337,-5.70379E+000,6.67417E-002,1.12102E-002,3.03760E+000,-5.34518E-001,5.69625E-002,3.08480E+000,7.54833E-003,5.22464E-001,0,4.69018E+001,-8.86148E+000,9.99398E-001,2.71377E+000,-4.58305E+001,9.99304E-001,1.12559E-001,-4.66920E-002,-9.32746E-004,1.12565E-001,-4.66974E-002,-3.35571E-001,1.13107E-001,1.11914E+000,-2.64986E-003,0.00000E+000,6.19938E-004,9.57042E-001,0.00000E+000,-2.17135E-003,-7.47084E-002,1.00000E+000,17
799,1347,-5.68538E+000,6.85051E-001,6.58488E-004,3.03755E+000,-5.61654E-001,1.57137E-002,3.08908E+000,8.94975E-003,5.24197E-001,0,4.70262E+001,-9.21457E+000,9.99116E-001,3.09446E+000,-4.62784E+001,9.98975E-001,1.12482E-001,-4.67059E-002,-1.16534E-003,1.12491E-001,-4.67144E-002,-4.19406E-001,1.13028E-001,1.11906E+000,-2.65218E-003,0.00000E+000,2.76161E-004,9.57032E-001,0.00000E+000,-3.57483E-003,-7.47484E-002,1.00000E+000,17
799,1357,-5.65482E+000,1.31324E+000,3.79997E-002,3.04003E+000,-5.86947E-001,-2.61882E-002,3.09629E+000,9.14482E-003,5.18062E-001,0,4.71859E+001,-9.52337E+000,9.99000E-001,3.78211E+000,-4.66850E+001,9.98546E-001,1.12403E-001,-4.67266E-002,-1.40046E-003,1.12415E-001,-4.67389E-002,-5.04194E-001,1.12945E-001,1.11897E+000,-2.65571E-003,0.00000E+000,-7.03980E-005,9.57017E-001,0.00000E+000,-4.98966E-003,-7.48093E-002,1.00000E+000,17
799,1327,-5.71701E+000,-5.50669E-001,4.55434E-002,3.03893E+000,-5.08981E-001,1.02033E-001,3.08295E+000,1.53511E-002,5.26485E-001,0,4.67833E+001,-8.55353E+000,9.99430E-001,2.47185E+000,-4.54191E+001,9.98048E-001,1.12634E-001,-4.66808E-002,-7.00914E-004,1.12637E-001,-4.66839E-002,-2.52070E-001,1.13185E-001,1.11922E+000,-2.64803E-003,0.00000E+000,9.63003E-004,9.57050E-001,0.00000E+000,-7.70776E-004,-7.46768E-002,1.00000E+000,17
1059,1327,1.32749E+001,-1.77168E-001,-1.50031E-002,5.05737E+000,-2.96025E-001,-3.59618E-002,5.06616E+000,1.13194E-002,4.05754E-001,0,7.69088E+001,-5.18597E+000,9.99480E-001,3.59233E+001,-3.70421E+001,9.98329E-001,1.09074E-001,-4.48487E-002,-7.44853E-004,1.09078E-001,-4.48523E-002,-2.77253E-001,1.09649E-001,1.11492E+000,-2.67474E-002,0.00000E+000,2.15089E-002,9.57647E-001,0.00000E+000,-8.44720E-004,-6.04477E-002,1.00000E+000,17
1059,1337,1.32799E+001,4.51349E-001,-3.89860E-002,5.04464E+000,-3.16221E-001,-6.91893E-002,5.05502E+000,9.17279E-003,4.42662E-001,0,7.68320E+001,-5.46367E+000,9.99655E-001,3.60360E+001,-3.72399E+001,9.99115E-001,1.09519E-001,-4.48477E-002,-7.23196E-004,1.09522E-001,-4.48511E-002,-2.68419E-001,1.10118E-001,1.11542E+000,-2.67340E-002,0.00000E+000,2.14961E-002,9.57646E-001,0.00000E+000,-2.78348E-004,-6.04324E-002,1.00000E+000,17
1059,1347,1.32906E+001,1.07199E+000,-2.88316E-002,5.02983E+000,-3.48815E-001,-1.01378E-001,5.04292E+000,1.27116E-002,4.30973E-001,0,7.67187E+001,-5.91787E+000,9.99591E-001,3.62998E+001,-3.76614E+001,9.98584E-001,1.09964E-001,-4.48464E-002,-6.98893E-004,1.09968E-001,-4.48495E-002,-2.58655E-001,1.10588E-001,1.11592E+000,-2.67147E-002,0.00000E+000,2.14833E-002,9.57646E-001,0.00000E+000,2.90044E-004,-6.04105E-002,1.00000E+000,17
1059,1297,1.32942E+001,-2.01684E+000,1.64269E-001,5.10672E+000,-2.04130E-001,7.38735E-002,5.11134E+000,1.03029E-002,3.53363E-001,0,7.72406E+001,-3.92123E+000,9.99036E-001,3.63182E+001,-3.59451E+001,9.97115E-001,1.07742E-001,-4.48512E-002,-8.02057E-004,1.07746E-001,-4.48554E-002,-3.01146E-001,1.08248E-001,1.11344E+000,-2.67703E-002,0.00000E+000,2.15470E-002,9.57647E-001,0.00000E+000,-2.53678E-003,-6.04738E-002,1.00000E+000,17
1059,1307,1.32886E+001,-1.40258E+000,9.54359E-002,5.09254E+000,-2.31229E-001,3.40139E-002,5.09790E+000,1.18724E-002,3.42195E-001,0,7.71760E+001,-4.29251E+000,9.99414E-001,3.61833E+001,-3.62888E+001,9.98363E-001,1.08185E-001,-4.48504E-002,-7.83495E-004,1.08189E-001,-4.48544E-002,-2.93327E-001,1.08714E-001,1.11393E+000,-2.67637E-002,0.00000E+000,2.15343E-002,9.57647E-001,0.00000E+000,-1.97460E-003,-6.04663E-002,1.00000E+000,17
1059,1317,1.32777E+001,-7.89798E-001,3.48899E-002,5.07235E+000,-2.62223E-001,-1.88364E-004,5.07912E+000,1.26130E-002,4.01296E-001,0,7.70006E+001,-4.73922E+000,9.99193E-001,3.59802E+001,-3.66392E+001,9.97298E-001,1.08629E-001,-4.48496E-002,-7.64674E-004,1.08633E-001,-4.48534E-002,-2.85454E-001,1.09181E-001,1.11443E+000,-2.67566E-002,0.00000E+000,2.15216E-002,9.57647E-001,0.00000E+000,-1.41047E-003,-6.04583E-002,1.00000E+000,17
799,1307,-5.72523E+000,-1.74436E+000,2.21834E-001,3.04020E+000,-4.31768E-001,2.00649E-001,3.07726E+000,1.88445E-002,5.67773E-001,0,4.64795E+001,-7.55489E+000,9.98037E-001,2.54203E+000,-4.41752E+001,9.97711E-001,1.12776E-001,-4.66722E-002,-2.41746E-004,1.12776E-001,-4.66725E-002,-8.68685E-002,1.13333E-001,1.11938E+000,-2.64683E-003,0.00000E+000,1.64422E-003,9.57055E-001,0.00000E+000,2.01031E-003,-7.46560E-002,1.00000E+000,17
799,1317,-5.72522E+000,-1.14878E+000,1.09071E-001,3.03925E+000,-4.69369E-001,1.45913E-001,3.07873E+000,1.63788E-002,5.70133E-001,0,4.66451E+001,-8.03148E+000,9.98818E-001,2.38269E+000,-4.47536E+001,9.97475E-001,1.12706E-001,-4.66738E-002,-4.70699E-004,1.12707E-001,-4.66752E-002,-1.69210E-001,1.13260E-001,1.11930E+000,-2.64695E-003,0.00000E+000,1.30423E-003,9.57054E-001,0.00000E+000,6.22284E-004,-7.46582E-002,1.00000E+000,17
789,1327,-6.43993E+000,-5.56531E-001,4.69999E-002,2.96334E+000,-5.08048E-001,1.08727E-001,3.00854E+000,1.26760E-002,5.55373E-001,0,4.56274E+001,-8.56646E+000,9.99357E-001,1.36088E+000,-4.55971E+001,9.98369E-001,1.11551E-001,-4.64453E-002,-4.14148E-004,1.11552E-001,-4.64463E-002,-1.50185E-001,1.12071E-001,1.11801E+000,-2.70287E-003,0.00000E+000,1.58754E-003,9.57166E-001,0.00000E+000,-1.14651E-003,-7.31386E-002,1.00000E+000,17
789,1337,-6.42630E+000,6.41163E-002,1.55112E-002,2.96190E+000,-5.30608E-001,6.31663E-002,3.00971E+000,8.84474E-003,5.18185E-001,0,4.57436E+001,-8.80994E+000,9.99206E-001,1.61787E+000,-4.59832E+001,9.98960E-001,1.11553E-001,-4.64594E-002,-6.92723E-004,1.11556E-001,-4.64624E-002,-2.51177E-001,1.12073E-001,1.11801E+000,-2.70276E-003,0.00000E+000,1.13511E-003,9.57155E-001,0.00000E+000,-2.31978E-003,-7.31661E-002,1.00000E+000,17
789,1347,-6.40516E+000,6.82377E-001,7.52770E-003,2.96428E+000,-5.58823E-001,2.22691E-002,3.01657E+000,9.89926E-003,5.41874E-001,0,4.59039E+001,-9.17745E+000,9.98864E-001,2.04806E+000,-4.64280E+001,9.98411E-001,1.11553E-001,-4.64766E-002,-9.72291E-004,1.11559E-001,-4.64825E-002,-3.52499E-001,1.12075E-001,1.11802E+000,-2.70264E-003,0.00000E+000,6.81123E-004,9.57142E-001,0.00000E+000,-3.49706E-003,-7.32002E-002,1.00000E+000,17
789,1357,-6.37986E+000,1.30640E+000,3.65011E-002,2.96302E+000,-5.87099E-001,-2.14669E-002,3.02070E+000,9.10059E-003,5.43816E-001,0,4.60125E+001,-9.53202E+000,9.98677E-001,2.63549E+000,-4.68790E+001,9.98185E-001,1.11552E-001,-4.65004E-002,-1.25346E-003,1.11562E-001,-4.65103E-002,-4.54354E-001,1.12074E-001,1.11802E+000,-2.70245E-003,0.00000E+000,2.24629E-004,9.57123E-001,0.00000E+000,-4.68085E-003,-7.32486E-002,1.00000E+000,17
1069,1327,1.40097E+001,-1.61307E-001,-2.43160E-002,5.13454E+000,-2.86847E-001,-4.24291E-002,5.14272E+000,1.22541E-002,4.32699E-001,0,7.80426E+001,-5.03915E+000,9.99364E-001,3.73217E+001,-3.66672E+001,9.97810E-001,1.09071E-001,-4.48283E-002,-1.00303E-003,1.09077E-001,-4.48348E-002,-3.73402E-001,1.09651E-001,1.11493E+000,-2.62963E-002,0.00000E+000,2.05700E-002,9.57650E-001,0.00000E+000,1.74954E-004,-5.98247E-002,1.00000E+000,17
1069,1337,1.40091E+001,4.64958E-001,-4.51823E-002,5.11707E+000,-3.07458E-001,-6.88802E-002,5.12676E+000,8.03548E-003,3.93764E-001,0,7.78706E+001,-5.32365E+000,9.99430E-001,3.73534E+001,-3.69436E+001,9.98621E-001,1.09512E-001,-4.48286E-002,-9.95443E-004,1.09518E-001,-4.48350E-002,-3.69517E-001,1.10116E-001,1.11543E+000,-2.62836E-002,0.00000E+000,2.05542E-002,9.57650E-001,0.00000E+000,3.41361E-004,-5.98204E-002,1.00000E+000,17
1069,1347,1.40174E+001,1.08680E+000,-4.46913E-002,5.10146E+000,-3.38766E-001,-1.02970E-001,5.11373E+000,8.11101E-003,4.11866E-001,0,7.77540E+001,-5.75609E+000,9.99557E-001,3.75599E+001,-3.73087E+001,9.98890E-001,1.09956E-001,-4.48290E-002,-9.85532E-004,1.09962E-001,-4.48352E-002,-3.64789E-001,1.10585E-001,1.11592E+000,-2.62656E-002,0.00000E+000,2.05382E-002,9.57649E-001,0.00000E+000,5.08901E-004,-5.98143E-002,1.00000E+000,17
789,1307,-6.44355E+000,-1.75176E+000,2.21997E-001,2.96941E+000,-4.33004E-001,2.07671E-001,3.00799E+000,1.38523E-002,5.52802E-001,0,4.53999E+001,-7.57461E+000,9.98779E-001,1.49949E+000,-4.43919E+001,9.96207E-001,1.11543E-001,-4.64343E-002,1.38555E-004,1.11543E-001,-4.64344E-002,5.02516E-002,1.12063E-001,1.11800E+000,-2.70294E-003,0.00000E+000,2.48521E-003,9.57172E-001,0.00000E+000,1.18133E-003,-7.31209E-002,1.00000E+000,17
789,1317,-6.44233E+000,-1.15906E+000,1.27068E-001,2.96687E+000,-4.74501E-001,1.56354E-001,3.00864E+000,1.53404E-002,5.50008E-001,0,4.55290E+001,-8.12890E+000,9.98665E-001,1.40156E+000,-4.50569E+001,9.95559E-001,1.11548E-001,-4.64389E-002,-1.37523E-004,1.11548E-001,-4.64390E-002,-4.98746E-002,1.12067E-001,1.11800E+000,-2.70291E-003,0.00000E+000,2.03681E-003,9.57170E-001,0.00000E+000,1.85420E-005,-7.31278E-002,1.00000E+000,17
1069,1297,1.40157E+001,-2.00004E+000,1.46233E-001,5.17401E+000,-1.90650E-001,7.16609E-002,5.17802E+000,1.29290E-002,3.72437E-001,0,7.82071E+001,-3.72468E+000,9.98447E-001,3.74959E+001,-3.55483E+001,9.96392E-001,1.07746E-001,-4.48276E-002,-1.02010E-003,1.07753E-001,-4.48344E-002,-3.83053E-001,1.08257E-001,1.11346E+000,-2.63216E-002,0.00000E+000,2.06174E-002,9.57651E-001,0.00000E+000,-3.24021E-004,-5.98332E-002,1.00000E+000,17
1069,1307,1.40116E+001,-1.38811E+000,7.09031E-002,5.16242E+000,-2.19411E-001,3.02518E-002,5.16717E+000,9.64668E-003,3.39605E-001,0,7.81902E+001,-4.11076E+000,9.99337E-001,3.73723E+001,-3.59227E+001,9.97978E-001,1.08186E-001,-4.48278E-002,-1.01563E-003,1.08192E-001,-4.48345E-002,-3.80279E-001,1.08720E-001,1.11395E+000,-2.63159E-002,0.00000E+000,2.06016E-002,9.57651E-001,0.00000E+000,-1.58546E-004,-5.98313E-002,1.00000E+000,17
1069,1317,1.40121E+001,-7.70337E-001,2.43441E-002,5.15000E+000,-2.48610E-001,-4.56156E-003,5.15600E+000,1.08832E-002,4.22061E-001,0,7.81319E+001,-4.52731E+000,9.99503E-001,3.73710E+001,-3.62108E+001,9.97743E-001,1.08628E-001,-4.48280E-002,-1.00936E-003,1.08635E-001,-4.48347E-002,-3.76843E-001,1.09185E-001,1.11444E+000,-2.63062E-002,0.00000E+000,2.05858E-002,9.57651E-001,0.00000E+000,8.17342E-006,-5.98280E-002,1.00000E+000,17
779,1327,-7.15746E+000,-5.56789E-001,5.90635E-002,2.89170E+000,-5.04129E-001,1.21162E-001,2.93781E+000,1.86507E-002,5.77316E-001,0,4.45124E+001,-8.51283E+000,9.99229E-001,3.65055E-001,-4.57146E+001,9.97936E-001,1.10400E-001,-4.61065E-002,-3.42146E-004,1.10401E-001,-4.61073E-002,-1.25256E-001,1.10899E-001,1.11672E+000,-2.96400E-003,0.00000E+000,1.96698E-003,9.57411E-001,0.00000E+000,-1.38600E-003,-7.20061E-002,1.00000E+000,17
779,1337,-7.14393E+000,5.23885E-002,1.65773E-002,2.89065E+000,-5.36833E-001,6.62619E-002,2.94082E+000,8.58071E-003,5.31627E-001,0,4.46656E+001,-8.90281E+000,9.98980E-001,5.91542E-001,-4.62598E+001,9.98659E-001,1.10540E-001,-4.61233E-002,-6.75544E-004,1.10543E-001,-4.61262E-002,-2.47057E-001,1.11046E-001,1.11688E+000,-2.96039E-003,0.00000E+000,1.38746E-003,9.57398E-001,0.00000E+000,-2.30822E-003,-7.20270E-002,1.00000E+000,17
779,1347,-7.12657E+000,6.74100E-001,6.85314E-003,2.88886E+000,-5.60655E-001,2.06858E-002,2.94283E+000,1.06570E-002,5.29280E-001,0,4.47735E+001,-9.19526E+000,9.98581E-001,9.61447E-001,-4.66630E+001,9.97990E-001,1.10680E-001,-4.61445E-002,-1.00970E-003,1.10687E-001,-4.61510E-002,-3.68872E-001,1.11194E-001,1.11704E+000,-2.95566E-003,0.00000E+000,8.05813E-004,9.57380E-001,0.00000E+000,-3.23381E-003,-7.20545E-002,1.00000E+000,17
779,1357,-7.10370E+000,1.29956E+000,3.38914E-002,2.88613E+000,-5.87057E-001,-2.12173E-002,2.94531E+000,8.40732E-003,5.38184E-001,0,4.48528E+001,-9.52243E+000,9.98762E-001,1.50932E+000,-4.70860E+001,9.98409E-001,1.10820E-001,-4.61724E-002,-1.34554E-003,1.10831E-001,-4.61839E-002,-4.91019E-001,1.11343E-001,1.11720E+000,-2.94933E-003,0.00000E+000,2.20112E-004,9.57357E-001,0.00000E+000,-4.16586E-003,-7.20913E-002,1.00000E+000,17
779,1317,-7.15915E+000,-1.15667E+000,1.32611E-001,2.89576E+000,-4.66281E-001,1.61429E-001,2.93750E+000,1.88208E-002,5.40462E-001,0,4.44443E+001,-8.00729E+000,9.99388E-001,4.01312E-001,-4.51332E+001,9.97909E-001,1.10259E-001,-4.60988E-002,-8.63065E-006,1.10259E-001,-4.60988E-002,-3.16262E-003,1.10751E-001,1.11656E+000,-2.96543E-003,0.00000E+000,2.54506E-003,9.57416E-001,0.00000E+000,-4.66091E-004,-7.19978E-002,1.00000E+000,17
1079,1337,1.47439E+001,4.82280E-001,-5.65562E-002,5.19378E+000,-2.96552E-001,-7.65808E-002,5.20280E+000,1.07134E-002,4.25095E-001,0,7.90006E+001,-5.15611E+000,9.99131E-001,3.87502E+001,-3.65377E+001,9.99131E-001,1.09702E-001,-4.49192E-002,-1.23630E-003,1.09712E-001,-4.49291E-002,-4.58080E-001,1.10309E-001,1.11565E+000,-2.57824E-002,0.00000E+000,1.96330E-002,9.57567E-001,0.00000E+000,7.73347E-004,-5.95392E-002,1.00000E+000,17
1079,1347,1.47543E+001,1.10647E+000,-4.81993E-002,5.18007E+000,-3.25694E-001,-1.03201E-001,5.19133E+000,6.23759E-003,4.48559E-001,0,7.88845E+001,-5.57665E+000,9.99678E-001,3.90029E+001,-3.68793E+001,9.99548E-001,1.10151E-001,-4.49218E-002,-1.24591E-003,1.10161E-001,-4.49319E-002,-4.60297E-001,1.10782E-001,1.11615E+000,-2.57641E-002,0.00000E+000,1.95973E-002,9.57565E-001,0.00000E+000,6.23888E-004,-5.95447E-002,1.00000E+000,17
1079,1297,1.47518E+001,-1.97828E+000,1.52247E-001,5.25153E+000,-1.74804E-001,7.75443E-002,5.25501E+000,1.22436E-002,4.26923E-001,0,7.92922E+001,-3.52247E+000,9.98926E-001,3.89468E+001,-3.51063E+001,9.97450E-001,1.07919E-001,-4.49118E-002,-1.18274E-003,1.07928E-001,-4.49209E-002,-4.43370E-001,1.08432E-001,1.11366E+000,-2.58204E-002,0.00000E+000,1.97744E-002,9.57569E-001,0.00000E+000,1.36686E-003,-5.95279E-002,1.00000E+000,17
1079,1307,1.47430E+001,-1.37130E+000,6.74345E-002,5.23661E+000,-2.08539E-001,3.26554E-002,5.24086E+000,1.07940E-002,3.56052E-001,0,7.92422E+001,-3.94913E+000,9.99376E-001,3.87332E+001,-3.55552E+001,9.98170E-001,1.08363E-001,-4.49132E-002,-1.19816E-003,1.08372E-001,-4.49225E-002,-4.47846E-001,1.08899E-001,1.11416E+000,-2.58156E-002,0.00000E+000,1.97392E-002,9.57569E-001,0.00000E+000,1.21922E-003,-5.95293E-002,1.00000E+000,17
1079,1327,1.47422E+001,-1.45156E-001,-3.48977E-002,5.20865E+000,-2.76874E-001,-5.14239E-002,5.21626E+000,1.26501E-002,4.30312E-001,0,7.91377E+001,-4.87051E+000,9.99335E-001,3.86866E+001,-3.63001E+001,9.98809E-001,1.09256E-001,-4.49171E-002,-1.22426E-003,1.09266E-001,-4.49268E-002,-4.54936E-001,1.09839E-001,1.11515E+000,-2.57950E-002,0.00000E+000,1.96683E-002,9.57568E-001,0.00000E+000,9.21832E-004,-5.95355E-002,1.00000E+000,17
1079,1317,1.47405E+001,-7.52139E-001,1.12658E-002,5.22137E+000,-2.36708E-001,-1.10397E-002,5.22674E+000,1.06707E-002,4.08691E-001,0,7.91754E+001,-4.31198E+000,9.99275E-001,3.86698E+001,-3.58145E+001,9.98549E-001,1.08810E-001,-4.49151E-002,-1.21148E-003,1.08819E-001,-4.49246E-002,-4.51500E-001,1.09369E-001,1.11466E+000,-2.58059E-002,0.00000E+000,1.97037E-002,9.57568E-001,0.00000E+000,1.07046E-003,-5.95322E-002,1.00000E+000,17
779,1307,-7.16661E+000,-1.76483E+000,2.21952E-001,2.89180E+000,-4.41676E-001,2.06138E-001,2.93259E+000,1.28768E-002,5.58906E-001,0,4.42415E+001,-7.69236E+000,9.99223E-001,3.86940E-001,-4.46857E+001,9.97264E-001,1.10117E-001,-4.60933E-002,3.22862E-004,1.10118E-001,-4.60940E-002,1.18420E-001,1.10604E-001,1.11641E+000,-2.96630E-003,0.00000E+000,3.11921E-003,9.57419E-001,0.00000E+000,4.47579E-004,-7.19928E-002,1.00000E+000,17
1089,1337,1.54759E+001,5.02379E-001,-6.22367E-002,5.26739E+000,-2.83500E-001,-7.83555E-002,5.27559E+000,9.73186E-003,4.84156E-001,0,8.00591E+001,-4.97214E+000,9.98980E-001,4.01199E+001,-3.60881E+001,9.98739E-001,1.10241E-001,-4.50508E-002,-1.37254E-003,1.10253E-001,-4.50629E-002,-5.06352E-001,1.10864E-001,1.11627E+000,-2.50792E-002,0.00000E+000,1.87384E-002,9.57449E-001,0.00000E+000,1.08947E-003,-5.93660E-002,1.00000E+000,17
1089,1347,1.54862E+001,1.12578E+000,-5.69007E-002,5.25352E+000,-3.12604E-001,-1.07557E-001,5.26391E+000,7.46251E-003,4.51933E-001,0,7.99510E+001,-5.37428E+000,9.99496E-001,4.03638E+001,-3.64614E+001,9.98845E-001,1.10790E-001,-4.50561E-002,-1.40261E-003,1.10802E-001,-4.50687E-002,-5.15607E-001,1.11443E-001,1.11688E+000,-2.50568E-002,0.00000E+000,1.86705E-002,9.57446E-001,0.00000E+000,7.19363E-004,-5.93795E-002,1.00000E+000,17
769,1347,-7.84782E+000,6.65454E-001,7.62294E-003,2.81396E+000,-5.62993E-001,2.45739E-002,2.86983E+000,8.49978E-003,5.28099E-001,0,4.36332E+001,-9.22818E+000,9.98691E-001,-1.14592E-001,-4.69012E+001,9.98405E-001,1.09537E-001,-4.58301E-002,-9.71123E-004,1.09543E-001,-4.58361E-002,-3.58109E-001,1.10028E-001,1.11576E+000,-3.06714E-003,0.00000E+000,9.49483E-004,9.57619E-001,0.00000E+000,-2.84762E-003,-7.11448E-002,1.00000E+000,17
769,1357,-7.82360E+000,1.29301E+000,3.33700E-002,2.81313E+000,-5.86907E-001,-1.68492E-002,2.87375E+000,8.21188E-003,5.40276E-001,0,4.37393E+001,-9.51801E+000,9.99050E-001,4.53280E-001,-4.72893E+001,9.98804E-001,1.09637E-001,-4.58552E-002,-1.28054E-003,1.09648E-001,-4.58657E-002,-4.71809E-001,1.10135E-001,1.11588E+000,-3.06271E-003,0.00000E+000,4.05780E-004,9.57598E-001,0.00000E+000,-3.64074E-003,-7.11753E-002,1.00000E+000,17
769,1327,-7.87667E+000,-5.65000E-001,6.56252E-002,2.81566E+000,-5.07362E-001,1.15840E-001,2.86335E+000,1.39255E-002,5.75491E-001,0,4.33833E+001,-8.55911E+000,9.98990E-001,-6.66834E-001,-4.59550E+001,9.97251E-001,1.09336E-001,-4.57981E-002,-3.56224E-004,1.09337E-001,-4.57989E-002,-1.31563E-001,1.09816E-001,1.11553E+000,-3.07256E-003,0.00000E+000,2.02751E-003,9.57645E-001,0.00000E+000,-1.27507E-003,-7.11075E-002,1.00000E+000,17
769,1337,-7.86557E+000,4.06572E-002,1.71003E-002,2.81473E+000,-5.42836E-001,6.75651E-002,2.86739E+000,7.98553E-003,5.22863E-001,0,4.35192E+001,-8.98308E+000,9.98887E-001,-4.93147E-001,-4.65470E+001,9.98620E-001,1.09437E-001,-4.58110E-002,-6.63454E-004,1.09440E-001,-4.58139E-002,-2.44848E-001,1.09922E-001,1.11565E+000,-3.07042E-003,0.00000E+000,1.48931E-003,9.57635E-001,0.00000E+000,-2.06017E-003,-7.11222E-002,1.00000E+000,17
1089,1327,1.54724E+001,-1.20530E-001,-4.63653E-002,5.28215E+000,-2.55712E-001,-5.24601E-002,5.28860E+000,1.13624E-002,4.27533E-001,0,8.01892E+001,-4.56923E+000,9.98969E-001,4.00191E+001,-3.58006E+001,9.98174E-001,1.09692E-001,-4.50463E-002,-1.34008E-003,1.09704E-001,-4.50579E-002,-4.96149E-001,1.10285E-001,1.11566E+000,-2.50963E-002,0.00000E+000,1.88063E-002,9.57451E-001,0.00000E+000,1.45938E-003,-5.93557E-002,1.00000E+000,17
1089,1317,1.54753E+001,-7.39319E-001,4.92897E-004,5.29810E+000,-2.28776E-001,-1.75955E-002,5.30306E+000,9.90528E-003,4.55741E-001,0,8.02994E+001,-4.21582E+000,9.99384E-001,4.00744E+001,-3.54756E+001,9.98970E-001,1.09146E-001,-4.50425E-002,-1.30565E-003,1.09157E-001,-4.50536E-002,-4.85130E-001,1.09710E-001,1.11505E+000,-2.51084E-002,0.00000E+000,1.88738E-002,9.57452E-001,0.00000E+000,1.82721E-003,-5.93484E-002,1.00000E+000,17
1089,1297,1.54872E+001,-1.95754E+000,1.49573E-001,5.32817E+000,-1.60663E-001,7.55567E-002,5.33112E+000,9.14453E-003,4.54279E-001,0,8.03924E+001,-3.30428E+000,9.99496E-001,4.03769E+001,-3.46752E+001,9.98822E-001,1.08054E-001,-4.50360E-002,-1.23386E-003,1.08064E-001,-4.50460E-002,-4.61744E-001,1.08561E-001,1.11383E+000,-2.51254E-002,0.00000E+000,1.90084E-002,9.57454E-001,0.00000E+000,2.56106E-003,-5.93381E-002,1.00000E+000,17
1089,1307,1.54788E+001,-1.35280E+000,6.09313E-002,5.31325E+000,-1.97177E-001,2.55010E-002,5.31697E+000,9.05335E-003,4.34665E-001,0,8.03638E+001,-3.78663E+000,9.99570E-001,4.01623E+001,-3.51233E+001,9.99067E-001,1.08599E-001,-4.50389E-002,-1.27073E-003,1.08610E-001,-4.50494E-002,-4.73847E-001,1.09134E-001,1.11444E+000,-2.51193E-002,0.00000E+000,1.89412E-002,9.57453E-001,0.00000E+000,2.19486E-003,-5.93418E-002,1.00000E+000,17
769,1317,-7.88420E+000,-1.16455E+000,1.33145E-001,2.81616E+000,-4.71095E-001,1.62557E-001,2.85991E+000,1.57715E-002,5.48170E-001,0,4.32434E+001,-8.04281E+000,9.99457E-001,-7.35289E-001,-4.53498E+001,9.98546E-001,1.09235E-001,-4.57888E-002,-5.06883E-005,1.09235E-001,-4.57888E-002,-1.87340E-002,1.09710E-001,1.11542E+000,-3.07398E-003,0.00000E+000,2.56222E-003,9.57652E-001,0.00000E+000,-4.95061E-004,-7.10977E-002,1.00000E+000,17
1099,1327,1.62035E+001,-1.04114E-001,-5.37446E-002,5.35607E+000,-2.44595E-001,-4.97571E-002,5.36189E+000,1.20129E-002,4.58958E-001,0,8.12349E+001,-4.42093E+000,9.98263E-001,4.13772E+001,-3.54200E+001,9.96566E-001,1.10129E-001,-4.51500E-002,-1.46769E-003,1.10143E-001,-4.51638E-002,-5.41493E-001,1.10736E-001,1.11616E+000,-2.44635E-002,0.00000E+000,1.79940E-002,9.57376E-001,0.00000E+000,1.71751E-003,-5.95190E-002,1.00000E+000,17
1099,1337,1.62124E+001,5.22483E-001,-6.35943E-002,5.34481E+000,-2.69136E-001,-7.65690E-002,5.35213E+000,1.15796E-002,4.79584E-001,0,8.11591E+001,-4.76713E+000,9.98450E-001,4.15703E+001,-3.56793E+001,9.97698E-001,1.10798E-001,-4.51548E-002,-1.49804E-003,1.10812E-001,-4.51692E-002,-5.50299E-001,1.11441E-001,1.11691E+000,-2.44407E-002,0.00000E+000,1.79296E-002,9.57375E-001,0.00000E+000,1.23409E-003,-5.95338E-002,1.00000E+000,17
1099,1347,1.62254E+001,1.14990E+000,-5.15643E-002,5.33147E+000,-2.96056E-001,-1.07445E-001,5.34076E+000,9.43079E-003,4.75334E-001,0,8.10633E+001,-5.14072E+000,9.99029E-001,4.18668E+001,-3.59894E+001,9.98223E-001,1.11468E-001,-4.51605E-002,-1.52537E-003,1.11483E-001,-4.51754E-002,-5.57921E-001,1.12148E-001,1.11766E+000,-2.44108E-002,0.00000E+000,1.78649E-002,9.57372E-001,0.00000E+000,7.49408E-004,-5.95531E-002,1.00000E+000,17
759,1347,-8.56528E+000,6.60934E-001,7.70211E-003,2.74253E+000,-5.61479E-001,2.83808E-002,2.79956E+000,7.97993E-003,5.36474E-001,0,4.25443E+001,-9.20081E+000,9.98625E-001,-1.12888E+000,-4.70693E+001,9.98272E-001,1.08423E-001,-4.55485E-002,-8.81212E-004,1.08428E-001,-4.55535E-002,-3.27901E-001,1.08888E-001,1.11452E+000,-3.01663E-003,0.00000E+000,1.05618E-003,9.57833E-001,0.00000E+000,-2.49192E-003,-7.03186E-002,1.00000E+000,17
759,1357,-8.54382E+000,1.28514E+000,3.32402E-002,2.73946E+000,-5.88162E-001,-1.17007E-002,2.80191E+000,8.37400E-003,5.55473E-001,0,4.26119E+001,-9.54179E+000,9.98943E-001,-6.02547E-001,-4.75071E+001,9.98432E-001,1.08389E-001,-4.55654E-002,-1.09621E-003,1.08397E-001,-4.55732E-002,-4.07938E-001,1.08853E-001,1.11448E+000,-3.01796E-003,0.00000E+000,6.94376E-004,9.57819E-001,0.00000E+000,-3.22847E-003,-7.03463E-002,1.00000E+000,17
1099,1297,1.62181E+001,-1.94406E+000,1.34695E-001,5.40162E+000,-1.52288E-001,6.86809E-002,5.40421E+000,8.71705E-003,4.92635E-001,0,8.14649E+001,-3.17741E+000,9.99130E-001,4.17188E+001,-3.43260E+001,9.98011E-001,1.08132E-001,-4.51396E-002,-1.36289E-003,1.08144E-001,-4.51517E-002,-5.09419E-001,1.08634E-001,1.11394E+000,-2.44987E-002,0.00000E+000,1.81860E-002,9.57380E-001,0.00000E+000,3.15717E-003,-5.94962E-002,1.00000E+000,17
1099,1307,1.62131E+001,-1.33316E+000,5.54509E-002,5.38998E+000,-1.83266E-001,2.81324E-002,5.39317E+000,9.99856E-003,4.61579E-001,0,8.14487E+001,-3.58335E+000,9.99370E-001,4.15734E+001,-3.47022E+001,9.98623E-001,1.08797E-001,-4.51425E-002,-1.39960E-003,1.08810E-001,-4.51553E-002,-5.20867E-001,1.09333E-001,1.11468E+000,-2.44912E-002,0.00000E+000,1.81222E-002,9.57379E-001,0.00000E+000,2.67827E-003,-5.95011E-002,1.00000E+000,17
1099,1317,1.62070E+001,-7.19949E-001,-9.02876E-003,5.37342E+000,-2.14139E-001,-1.37594E-002,5.37770E+000,1.22497E-002,4.71668E-001,0,8.13603E+001,-4.00597E+000,9.98946E-001,4.14378E+001,-3.50540E+001,9.98038E-001,1.09463E-001,-4.51460E-002,-1.43444E-003,1.09476E-001,-4.51593E-002,-5.31520E-001,1.10034E-001,1.11542E+000,-2.44792E-002,0.00000E+000,1.80582E-002,9.57378E-001,0.00000E+000,2.19841E-003,-5.95088E-002,1.00000E+000,17
759,1327,-8.59919E+000,-5.75675E-001,6.32962E-002,2.73810E+000,-5.12100E-001,1.12988E-001,2.78787E+000,9.54593E-003,5.50427E-001,0,4.22230E+001,-8.61209E+000,9.99065E-001,-1.76775E+000,-4.62265E+001,9.99014E-001,1.08489E-001,-4.55272E-002,-4.55097E-004,1.08490E-001,-4.55285E-002,-1.69299E-001,1.08956E-001,1.11459E+000,-3.01502E-003,0.00000E+000,1.77418E-003,9.57849E-001,0.00000E+000,-1.03024E-003,-7.02851E-002,1.00000E+000,17
759,1337,-8.58317E+000,4.20763E-002,2.38394E-002,2.74190E+000,-5.35742E-001,7.22838E-002,2.79469E+000,7.94371E-003,5.50271E-001,0,4.24044E+001,-8.89124E+000,9.98618E-001,-1.49280E+000,-4.66268E+001,9.98521E-001,1.08456E-001,-4.55362E-002,-6.67801E-004,1.08459E-001,-4.55391E-002,-2.48461E-001,1.08923E-001,1.11455E+000,-3.01569E-003,0.00000E+000,1.41566E-003,9.57843E-001,0.00000E+000,-1.76010E-003,-7.02990E-002,1.00000E+000,17
759,1317,-8.60507E+000,-1.17795E+000,1.33183E-001,2.73925E+000,-4.78936E-001,1.57266E-001,2.78524E+000,1.35484E-002,5.79286E-001,0,4.21018E+001,-8.17568E+000,9.99179E-001,-1.80590E+000,-4.56382E+001,9.98680E-001,1.08521E-001,-4.55215E-002,-2.44003E-004,1.08521E-001,-4.55219E-002,-9.07563E-002,1.08989E-001,1.11462E+000,-3.01463E-003,0.00000E+000,2.13022E-003,9.57853E-001,0.00000E+000,-3.05435E-004,-7.02771E-002,1.00000E+000,17
749,1317,-9.31613E+000,-1.18038E+000,1.52688E-001,2.67054E+000,-4.78111E-001,1.65184E-001,2.71802E+000,1.02474E-002,6.07382E-001,0,4.10425E+001,-8.18029E+000,9.99117E-001,-2.66856E+000,-4.57996E+001,9.98326E-001,1.07867E-001,-4.53165E-002,-3.69036E-004,1.07868E-001,-4.53174E-002,-1.38031E-001,1.08326E-001,1.11390E+000,-2.68099E-003,0.00000E+000,1.59512E-003,9.57991E-001,0.00000E+000,-1.29238E-004,-6.93693E-002,1.00000E+000,17
749,1327,-9.31167E+000,-5.77578E-001,6.80982E-002,2.66957E+000,-5.09976E-001,1.14317E-001,2.72025E+000,7.65297E-003,5.57828E-001,0,4.11857E+001,-8.56198E+000,9.98897E-001,-2.69012E+000,-4.63608E+001,9.98667E-001,1.07709E-001,-4.53194E-002,-5.08944E-004,1.07711E-001,-4.53211E-002,-1.90552E-001,1.08161E-001,1.11372E+000,-2.68248E-003,0.00000E+000,1.36868E-003,9.57989E-001,0.00000E+000,-7.39852E-004,-6.93745E-002,1.00000E+000,17
749,1337,-9.30097E+000,3.84295E-002,2.70770E-002,2.66839E+000,-5.34326E-001,7.30989E-002,2.72234E+000,7.54438E-003,5.86189E-001,0,4.12910E+001,-8.87502E+000,9.98857E-001,-2.50075E+000,-4.67731E+001,9.98805E-001,1.07550E-001,-4.53251E-002,-6.50475E-004,1.07553E-001,-4.53279E-002,-2.43784E-001,1.07995E-001,1.11355E+000,-2.68574E-003,0.00000E+000,1.14090E-003,9.57984E-001,0.00000E+000,-1.35409E-003,-6.93859E-002,1.00000E+000,17
749,1347,-9.28543E+000,6.54725E-001,6.52741E-003,2.66753E+000,-5.61418E-001,2.84675E-002,2.72612E+000,8.16688E-003,5.45833E-001,0,4.14101E+001,-9.19725E+000,9.99001E-001,-2.18348E+000,-4.72607E+001,9.98810E-001,1.07391E-001,-4.53327E-002,-7.92941E-004,1.07395E-001,-4.53369E-002,-2.97469E-001,1.07828E-001,1.11337E+000,-2.69024E-003,0.00000E+000,9.12525E-004,9.57979E-001,0.00000E+000,-1.96996E-003,-6.94015E-002,1.00000E+000,17
1109,1297,1.69497E+001,-1.92954E+000,1.21882E-001,5.47694E+000,-1.40697E-001,7.07439E-002,5.47920E+000,9.07116E-003,4.89888E-001,0,8.25297E+001,-3.01882E+000,9.98752E-001,4.30782E+001,-3.39857E+001,9.97115E-001,1.08379E-001,-4.53919E-002,-1.44693E-003,1.08392E-001,-4.54055E-002,-5.39072E-001,1.08867E-001,1.11424E+000,-2.35206E-002,0.00000E+000,1.71427E-002,9.57179E-001,0.00000E+000,3.74316E-003,-5.98806E-002,1.00000E+000,17
1109,1307,1.69438E+001,-1.31717E+000,4.53858E-002,5.46445E+000,-1.70122E-001,3.31459E-002,5.46719E+000,9.97692E-003,4.44377E-001,0,8.24899E+001,-3.40445E+000,9.99066E-001,4.29248E+001,-3.43504E+001,9.98328E-001,1.09096E-001,-4.53933E-002,-1.46043E-003,1.09109E-001,-4.54071E-002,-5.41571E-001,1.09619E-001,1.11503E+000,-2.35124E-002,0.00000E+000,1.71350E-002,9.57179E-001,0.00000E+000,3.04622E-003,-5.98877E-002,1.00000E+000,17
1109,1317,1.69386E+001,-7.02720E-001,-1.60132E-002,5.44893E+000,-2.00090E-001,-4.93273E-003,5.45260E+000,1.10308E-002,4.46256E-001,0,8.24035E+001,-3.81445E+000,9.98659E-001,4.28094E+001,-3.46918E+001,9.97932E-001,1.09813E-001,-4.53950E-002,-1.47195E-003,1.09827E-001,-4.54090E-002,-5.43310E-001,1.10374E-001,1.11583E+000,-2.34997E-002,0.00000E+000,1.71272E-002,9.57179E-001,0.00000E+000,2.34735E-003,-5.98989E-002,1.00000E+000,17
749,1357,-9.26134E+000,1.27797E+000,3.40308E-002,2.66760E+000,-5.88265E-001,-8.14359E-003,2.73171E+000,9.73783E-003,5.60299E-001,0,4.15154E+001,-9.55202E+000,9.99080E-001,-1.60964E+000,-4.77213E+001,9.98738E-001,1.07229E-001,-4.53437E-002,-9.37333E-004,1.07235E-001,-4.53494E-002,-3.51979E-001,1.07659E-001,1.11319E+000,-2.69681E-003,0.00000E+000,6.82561E-004,9.57970E-001,0.00000E+000,-2.59009E-003,-6.94244E-002,1.00000E+000,17
1109,1327,1.69373E+001,-8.71902E-002,-5.78868E-002,5.43235E+000,-2.31954E-001,-4.32413E-002,5.43747E+000,1.00922E-002,4.46069E-001,0,8.22990E+001,-4.25068E+000,9.98184E-001,4.27862E+001,-3.50605E+001,9.97166E-001,1.10532E-001,-4.53971E-002,-1.48094E-003,1.10546E-001,-4.54112E-002,-5.44103E-001,1.11131E-001,1.11663E+000,-2.34810E-002,0.00000E+000,1.71195E-002,9.57179E-001,0.00000E+000,1.64641E-003,-5.99152E-002,1.00000E+000,17
1109,1337,1.69436E+001,5.39792E-001,-7.00366E-002,5.41809E+000,-2.56727E-001,-7.36112E-002,5.42467E+000,1.05034E-002,4.70072E-001,0,8.21920E+001,-4.59102E+000,9.99024E-001,4.29344E+001,-3.53058E+001,9.98369E-001,1.11253E-001,-4.53996E-002,-1.48718E-003,1.11267E-001,-4.54138E-002,-5.43871E-001,1.11892E-001,1.11744E+000,-2.34560E-002,0.00000E+000,1.71117E-002,9.57178E-001,0.00000E+000,9.42029E-004,-5.99372E-002,1.00000E+000,17
1109,1347,1.69618E+001,1.16761E+000,-4.75110E-002,5.40625E+000,-2.85780E-001,-1.07903E-001,5.41487E+000,1.08691E-002,4.73168E-001,0,8.21308E+001,-4.99009E+000,9.99054E-001,4.33263E+001,-3.56271E+001,9.97892E-001,1.11977E-001,-4.54028E-002,-1.48848E-003,1.11991E-001,-4.54169E-002,-5.41835E-001,1.12655E-001,1.11825E+000,-2.34195E-002,0.00000E+000,1.71038E-002,9.57178E-001,0.00000E+000,2.34362E-004,-5.99691E-002,1.00000E+000,17
739,1337,-1.00167E+001,2.81087E-002,2.59963E-002,2.59666E+000,-5.38886E-001,7.03463E-002,2.65292E+000,8.86917E-003,5.75584E-001,0,4.02162E+001,-8.93028E+000,9.98721E-001,-3.48513E+000,-4.70357E+001,9.98521E-001,1.06576E-001,-4.49703E-002,-7.30525E-004,1.06580E-001,-4.49738E-002,-2.76184E-001,1.07011E-001,1.11246E+000,-2.40747E-003,0.00000E+000,7.43262E-004,9.58289E-001,0.00000E+000,-1.23938E-003,-6.88376E-002,1.00000E+000,17
739,1347,-1.00041E+001,6.46503E-001,8.76521E-003,2.59332E+000,-5.63557E-001,3.06159E-002,2.65402E+000,6.57256E-003,5.47648E-001,0,4.02808E+001,-9.22945E+000,9.99444E-001,-3.20268E+000,-4.74943E+001,9.99218E-001,1.06255E-001,-4.49775E-002,-8.71968E-004,1.06260E-001,-4.49825E-002,-3.30338E-001,1.06676E-001,1.11211E+000,-2.41625E-003,0.00000E+000,5.22926E-004,9.58283E-001,0.00000E+000,-1.89284E-003,-6.88538E-002,1.00000E+000,17
739,1357,-9.98089E+000,1.27157E+000,3.48909E-002,2.59311E+000,-5.87932E-001,-5.41343E-003,2.65893E+000,7.14371E-003,5.34352E-001,0,4.03790E+001,-9.53488E+000,9.99212E-001,-2.64288E+000,-4.79396E+001,9.99127E-001,1.05932E-001,-4.49878E-002,-1.01616E-003,1.05939E-001,-4.49947E-002,-3.85756E-001,1.06338E-001,1.11175E+000,-2.42914E-003,0.00000E+000,3.01171E-004,9.58275E-001,0.00000E+000,-2.55051E-003,-6.88774E-002,1.00000E+000,17
739,1327,-1.00287E+001,-5.83703E-001,6.89023E-002,2.59643E+000,-5.10316E-001,1.13266E-001,2.64853E+000,8.53194E-003,5.23084E-001,0,4.00836E+001,-8.54718E+000,9.99315E-001,-3.68862E+000,-4.65733E+001,9.99134E-001,1.06896E-001,-4.49649E-002,-5.90437E-004,1.06898E-001,-4.49672E-002,-2.22763E-001,1.07346E-001,1.11282E+000,-2.40100E-003,0.00000E+000,9.63112E-004,9.58293E-001,0.00000E+000,-5.87363E-004,-6.88257E-002,1.00000E+000,17
1119,1297,1.76797E+001,-1.91448E+000,1.11262E-001,5.55035E+000,-1.28758E-001,7.52814E-002,5.55235E+000,9.58695E-003,4.55624E-001,0,8.35543E+001,-2.84104E+000,9.99310E-001,4.44220E+001,-3.36576E+001,9.98583E-001,1.08792E-001,-4.52732E-002,-1.60161E-003,1.08809E-001,-4.52898E-002,-5.95541E-001,1.09317E-001,1.11472E+000,-2.25893E-002,0.00000E+000,1.60490E-002,9.57351E-001,0.00000E+000,3.57735E-003,-6.05577E-002,1.00000E+000,17
1119,1307,1.76750E+001,-1.30361E+000,3.69396E-002,5.53769E+000,-1.60808E-001,3.42117E-002,5.54013E+000,8.33746E-003,4.44542E-001,0,8.35262E+001,-3.27548E+000,9.99259E-001,4.42921E+001,-3.40313E+001,9.99080E-001,1.09485E-001,-4.52722E-002,-1.57506E-003,1.09502E-001,-4.52882E-002,-5.83051E-001,1.10045E-001,1.11549E+000,-2.25797E-002,0.00000E+000,1.61224E-002,9.57352E-001,0.00000E+000,2.81159E-003,-6.05673E-002,1.00000E+000,17
1119,1317,1.76741E+001,-6.87927E-001,-1.90992E-002,5.52552E+000,-1.89787E-001,-1.64368E-003,5.52878E+000,8.66797E-003,4.29362E-001,0,8.34816E+001,-3.67399E+000,9.98886E-001,4.42509E+001,-3.43713E+001,9.98936E-001,1.10179E-001,-4.52710E-002,-1.54684E-003,1.10194E-001,-4.52864E-002,-5.70059E-001,1.10775E-001,1.11626E+000,-2.25664E-002,0.00000E+000,1.61959E-002,9.57354E-001,0.00000E+000,2.04456E-003,-6.05805E-002,1.00000E+000,17
1119,1327,1.76741E+001,-6.99011E-002,-5.79737E-002,5.50941E+000,-2.19596E-001,-4.00207E-002,5.51393E+000,8.27443E-003,4.09483E-001,0,8.33839E+001,-4.07274E+000,9.98761E-001,4.42532E+001,-3.47159E+001,9.98663E-001,1.10873E-001,-4.52696E-002,-1.51607E-003,1.10888E-001,-4.52844E-002,-5.56244E-001,1.11507E-001,1.11703E+000,-2.25475E-002,0.00000E+000,1.62697E-002,9.57355E-001,0.00000E+000,1.27501E-003,-6.05994E-002,1.00000E+000,17
1119,1337,1.76803E+001,5.52870E-001,-7.37642E-002,5.49419E+000,-2.49510E-001,-7.66013E-002,5.50039E+000,7.91054E-003,4.62223E-001,0,8.32886E+001,-4.48806E+000,9.99334E-001,4.43906E+001,-3.50025E+001,9.98721E-001,1.11570E-001,-4.52680E-002,-1.48249E-003,1.11584E-001,-4.52820E-002,-5.41516E-001,1.12242E-001,1.11781E+000,-2.25223E-002,0.00000E+000,1.63439E-002,9.57358E-001,0.00000E+000,5.01031E-004,-6.06244E-002,1.00000E+000,17
1119,1347,1.76959E+001,1.18093E+000,-5.11498E-002,5.48029E+000,-2.77655E-001,-1.07893E-001,5.48838E+000,1.19043E-002,4.58652E-001,0,8.31857E+001,-4.88388E+000,9.99180E-001,4.47403E+001,-3.53224E+001,9.98565E-001,1.12268E-001,-4.52660E-002,-1.44472E-003,1.12281E-001,-4.52792E-002,-5.25392E-001,1.12979E-001,1.11859E+000,-2.24878E-002,0.00000E+000,1.64183E-002,9.57361E-001,0.00000E+000,-2.75058E-004,-6.06587E-002,1.00000E+000,17
739,1317,-1.00298E+001,-1.18481E+000,1.53870E-001,2.60039E+000,-4.77496E-001,1.63007E-001,2.64889E+000,1.07796E-002,5.73906E-001,0,3.99910E+001,-8.14453E+000,9.99221E-001,-3.61384E+000,-4.59838E+001,9.98692E-001,1.07212E-001,-4.49623E-002,-4.52951E-004,1.07214E-001,-4.49636E-002,-1.70540E-001,1.07677E-001,1.11317E+000,-2.39819E-003,0.00000E+000,1.18143E-003,9.58294E-001,0.00000E+000,6.01143E-005,-6.88206E-002,1.00000E+000,17
1129,1297,1.84092E+001,-1.89462E+000,1.06634E-001,5.62169E+000,-1.12582E-001,8.10029E-002,5.62340E+000,1.05009E-002,4.17124E-001,0,8.45385E+001,-2.60043E+000,9.99546E-001,4.57735E+001,-3.32701E+001,9.98646E-001,1.09043E-001,-4.52501E-002,-1.77432E-003,1.09063E-001,-4.52705E-002,-6.58765E-001,1.09586E-001,1.11501E+000,-2.16506E-002,0.00000E+000,1.49537E-002,9.57413E-001,0.00000E+000,2.79669E-003,-6.09012E-002,1.00000E+000,17
1129,1307,1.84048E+001,-1.28959E+000,3.19064E-002,5.60900E+000,-1.50613E-001,3.88195E-002,5.61116E+000,1.49570E-002,3.85712E-001,0,8.45176E+001,-3.11764E+000,9.99411E-001,4.56457E+001,-3.37419E+001,9.97282E-001,1.09796E-001,-4.52464E-002,-1.70192E-003,1.09815E-001,-4.52651E-002,-6.28843E-001,1.10378E-001,1.11585E+000,-2.16398E-002,0.00000E+000,1.51127E-002,9.57415E-001,0.00000E+000,2.05131E-003,-6.09108E-002,1.00000E+000,17
1129,1317,1.84081E+001,-6.76312E-001,-2.57356E-002,5.60064E+000,-1.82418E-001,-2.14551E-004,5.60361E+000,9.02557E-003,3.92676E-001,0,8.45443E+001,-3.56506E+000,9.99399E-001,4.56680E+001,-3.41027E+001,9.97568E-001,1.10550E-001,-4.52420E-002,-1.62750E-003,1.10567E-001,-4.52590E-002,-5.98460E-001,1.11171E-001,1.11669E+000,-2.16247E-002,0.00000E+000,1.52719E-002,9.57418E-001,0.00000E+000,1.30442E-003,-6.09242E-002,1.00000E+000,17
729,1347,-1.07129E+001,6.35386E-001,1.67671E-002,2.52742E+000,-5.70012E-001,3.24011E-002,2.59111E+000,5.81796E-003,5.57143E-001,0,3.92806E+001,-9.32536E+000,9.99649E-001,-4.05110E+000,-4.77799E+001,9.99540E-001,1.05069E-001,-4.46221E-002,-7.52951E-004,1.05073E-001,-4.46259E-002,-2.88189E-001,1.05469E-001,1.11079E+000,-1.71112E-003,0.00000E+000,1.47773E-004,9.58567E-001,0.00000E+000,-1.90371E-003,-6.79906E-002,1.00000E+000,17
729,1357,-1.06948E+001,1.26474E+000,3.66994E-002,2.52345E+000,-5.89154E-001,-3.71860E-003,2.59131E+000,6.75411E-003,5.45729E-001,0,3.93192E+001,-9.54646E+000,9.99341E-001,-3.58302E+000,-4.81473E+001,9.99418E-001,1.04511E-001,-4.46292E-002,-8.64461E-004,1.04516E-001,-4.46342E-002,-3.32088E-001,1.04886E-001,1.11017E+000,-1.73207E-003,0.00000E+000,6.25865E-006,9.58563E-001,0.00000E+000,-2.73038E-003,-6.80186E-002,1.00000E+000,17
1129,1327,1.84117E+001,-5.57630E-002,-6.36548E-002,5.58857E+000,-2.09058E-001,-3.54252E-002,5.59259E+000,1.01810E-002,4.03751E-001,0,8.44951E+001,-3.94679E+000,9.99348E-001,4.57271E+001,-3.43926E+001,9.98536E-001,1.11303E-001,-4.52369E-002,-1.55078E-003,1.11319E-001,-4.52522E-002,-5.67531E-001,1.11966E-001,1.11753E+000,-2.16047E-002,0.00000E+000,1.54315E-002,9.57421E-001,0.00000E+000,5.56035E-004,-6.09421E-002,1.00000E+000,17
729,1337,-1.07316E+001,2.18405E-002,3.05911E-002,2.52575E+000,-5.39203E-001,7.49749E-002,2.58375E+000,7.91433E-003,5.56504E-001,0,3.91296E+001,-8.93101E+000,9.99095E-001,-4.43517E+000,-4.72525E+001,9.98887E-001,1.05624E-001,-4.46166E-002,-6.44053E-004,1.05627E-001,-4.46194E-002,-2.45610E-001,1.06050E-001,1.11140E+000,-1.69500E-003,0.00000E+000,2.88717E-004,9.58571E-001,0.00000E+000,-1.08037E-003,-6.79690E-002,1.00000E+000,17
729,1327,-1.07429E+001,-5.87698E-001,7.45480E-002,2.52517E+000,-5.10311E-001,1.14346E-001,2.57876E+000,8.55872E-003,5.46692E-001,0,3.90024E+001,-8.53998E+000,9.99005E-001,-4.62621E+000,-4.67341E+001,9.98723E-001,1.06174E-001,-4.46130E-002,-5.38470E-004,1.06176E-001,-4.46150E-002,-2.04603E-001,1.06626E-001,1.11201E+000,-1.68478E-003,0.00000E+000,4.28774E-004,9.58573E-001,0.00000E+000,-2.62208E-004,-6.79553E-002,1.00000E+000,17
1129,1337,1.84261E+001,5.70478E-001,-6.26375E-002,5.57557E+000,-2.40446E-001,-7.87319E-002,5.58130E+000,9.76818E-003,4.76674E-001,0,8.44559E+001,-4.36104E+000,9.99287E-001,4.60195E+001,-3.46497E+001,9.99023E-001,1.12065E-001,-4.52295E-002,-1.46669E-003,1.12079E-001,-4.52432E-002,-5.34191E-001,1.12770E-001,1.11838E+000,-2.15697E-002,0.00000E+000,1.55931E-002,9.57428E-001,0.00000E+000,-2.01631E-004,-6.09732E-002,1.00000E+000,17
729,1317,-1.07477E+001,-1.19107E+000,1.48678E-001,2.52679E+000,-4.78229E-001,1.60839E-001,2.57667E+000,9.91219E-003,5.70348E-001,0,3.88850E+001,-8.13815E+000,9.99081E-001,-4.63713E+000,-4.61686E+001,9.98317E-001,1.06722E-001,-4.46108E-002,-4.34984E-004,1.06723E-001,-4.46120E-002,-1.64687E-001,1.07200E-001,1.11262E+000,-1.67862E-003,0.00000E+000,5.68465E-004,9.58575E-001,0.00000E+000,5.53810E-004,-6.79471E-002,1.00000E+000,17
1129,1347,1.84350E+001,1.20099E+000,-5.06009E-002,5.55761E+000,-2.64841E-001,-1.09000E-001,5.56498E+000,1.27237E-002,4.73848E-001,0,8.42894E+001,-4.69920E+000,9.98914E-001,4.62450E+001,-3.49073E+001,9.98441E-001,1.12823E-001,-4.52224E-002,-1.38327E-003,1.12835E-001,-4.52345E-002,-5.01425E-001,1.13571E-001,1.11923E+000,-2.15356E-002,0.00000E+000,1.57540E-002,9.57435E-001,0.00000E+000,-9.56271E-004,-6.10036E-002,1.00000E+000,17
719,1347,-1.14301E+001,6.34026E-001,1.50827E-002,2.45416E+000,-5.65233E-001,3.22119E-002,2.51862E+000,9.12311E-003,5.64360E-001,0,3.81681E+001,-9.24499E+000,9.99294E-001,-5.04721E+000,-4.78968E+001,9.99153E-001,1.04216E-001,-4.44323E-002,-7.01872E-004,1.04219E-001,-4.44356E-002,-2.70525E-001,1.04595E-001,1.10984E+000,-9.29326E-004,0.00000E+000,-4.37850E-004,9.58678E-001,0.00000E+000,-1.73367E-003,-6.68820E-002,1.00000E+000,17
719,1357,-1.14122E+001,1.25714E+000,3.73732E-002,2.45030E+000,-5.90907E-001,-7.12775E-004,2.52055E+000,7.78917E-003,5.65099E-001,0,3.82005E+001,-9.57135E+000,9.99277E-001,-4.57564E+000,-4.83612E+001,9.99276E-001,1.03448E-001,-4.44359E-002,-7.68852E-004,1.03451E-001,-4.44399E-002,-2.97873E-001,1.03793E-001,1.10899E+000,-9.57686E-004,0.00000E+000,-4.76116E-004,9.58676E-001,0.00000E+000,-2.75479E-003,-6.69161E-002,1.00000E+000,17
719,1337,-1.14470E+001,1.92506E-002,2.97076E-002,2.45339E+000,-5.36865E-001,7.13293E-002,2.51245E+000,1.03946E-002,5.81080E-001,0,3.80422E+001,-8.88432E+000,9.98621E-001,-5.40236E+000,-4.73794E+001,9.98092E-001,1.04978E-001,-4.44296E-002,-6.38609E-004,1.04981E-001,-4.44323E-002,-2.44891E-001,1.05393E-001,1.11069E+000,-9.08397E-004,0.00000E+000,-3.99817E-004,9.58679E-001,0.00000E+000,-7.18737E-004,-6.68569E-002,1.00000E+000,17
719,1327,-1.14560E+001,-5.89374E-001,7.94176E-002,2.45467E+000,-5.07601E-001,1.14798E-001,2.50923E+000,7.60649E-003,5.81564E-001,0,3.79325E+001,-8.50090E+000,9.98514E-001,-5.54358E+000,-4.68520E+001,9.98169E-001,1.05735E-001,-4.44278E-002,-5.79004E-004,1.05737E-001,-4.44301E-002,-2.20919E-001,1.06185E-001,1.11153E+000,-8.94891E-004,0.00000E+000,-3.61993E-004,9.58679E-001,0.00000E+000,2.90618E-004,-6.68406E-002,1.00000E+000,17
719,1317,-1.14620E+001,-1.19343E+000,1.58149E-001,2.45400E+000,-4.76744E-001,1.60120E-001,2.50500E+000,9.75957E-003,5.67672E-001,0,3.77840E+001,-8.10403E+000,9.98623E-001,-5.55966E+000,-4.63236E+001,9.97945E-001,1.06488E-001,-4.44269E-002,-5.22453E-004,1.06490E-001,-4.44287E-002,-1.98349E-001,1.06976E-001,1.11237E+000,-8.87892E-004,0.00000E+000,-3.24255E-004,9.58680E-001,0.00000E+000,1.29768E-003,-6.68322E-002,1.00000E+000,17
1139,1297,1.91522E+001,-1.88371E+000,1.11124E-001,5.70461E+000,-1.05025E-001,9.00040E-002,5.70629E+000,7.64716E-003,3.67630E-001,0,8.56842E+001,-2.51347E+000,9.99739E-001,4.73524E+001,-3.30449E+001,9.98752E-001,1.09247E-001,-4.53323E-002,-1.87701E-003,1.09270E-001,-4.53551E-002,-6.95586E-001,1.09794E-001,1.11525E+000,-2.06891E-002,0.00000E+000,1.39907E-002,9.57372E-001,0.00000E+000,1.72206E-003,-6.12686E-002,1.00000E+000,17
1139,1307,1.91461E+001,-1.27954E+000,2.63920E-002,5.69134E+000,-1.43968E-001,4.25551E-002,5.69332E+000,9.52720E-003,3.37387E-001,0,8.56774E+001,-3.02690E+000,9.99572E-001,4.71821E+001,-3.35067E+001,9.98604E-001,1.10103E-001,-4.53279E-002,-1.78655E-003,1.10123E-001,-4.53484E-002,-6.58455E-001,1.10693E-001,1.11621E+000,-2.06785E-002,0.00000E+000,1.41794E-002,9.57374E-001,0.00000E+000,1.04607E-003,-6.12762E-002,1.00000E+000,17
1139,1337,1.91616E+001,5.91770E-001,-6.18965E-002,5.64987E+000,-2.25083E-001,-7.59824E-002,5.65486E+000,1.10635E-002,4.90276E-001,0,8.54964E+001,-4.15287E+000,9.99012E-001,4.74736E+001,-3.42189E+001,9.97956E-001,1.12681E-001,-4.53061E-002,-1.49076E-003,1.12695E-001,-4.53201E-002,-5.40574E-001,1.13412E-001,1.11909E+000,-2.05955E-002,0.00000E+000,1.47502E-002,9.57390E-001,0.00000E+000,-9.98710E-004,-6.13351E-002,1.00000E+000,17
1139,1347,1.91819E+001,1.21883E+000,-3.30245E-002,5.63899E+000,-2.56093E-001,-1.05894E-001,5.64580E+000,1.17408E-002,4.84701E-001,0,8.54349E+001,-4.58605E+000,9.98795E-001,4.79015E+001,-3.45660E+001,9.97400E-001,1.13544E-001,-4.52959E-002,-1.38394E-003,1.13557E-001,-4.53080E-002,-4.99154E-001,1.14326E-001,1.12006E+000,-2.05504E-002,0.00000E+000,1.49419E-002,9.57399E-001,0.00000E+000,-1.68537E-003,-6.13671E-002,1.00000E+000,17
1139,1327,1.91511E+001,-4.01577E-002,-7.02735E-002,5.66669E+000,-2.00917E-001,-4.08790E-002,5.67040E+000,1.10574E-002,4.50533E-001,0,8.56267E+001,-3.82297E+000,9.99166E-001,4.72307E+001,-3.40181E+001,9.97598E-001,1.11818E-001,-4.53153E-002,-1.59508E-003,1.11835E-001,-4.53315E-002,-5.81536E-001,1.12501E-001,1.11812E+000,-2.06351E-002,0.00000E+000,1.45589E-002,9.57382E-001,0.00000E+000,-3.13323E-004,-6.13069E-002,1.00000E+000,17
1139,1317,1.91411E+001,-6.64670E-001,-4.00158E-002,5.67559E+000,-1.74498E-001,-7.91218E-004,5.67827E+000,1.08737E-002,3.88515E-001,0,8.56110E+001,-3.45550E+000,9.99558E-001,4.70591E+001,-3.38010E+001,9.98134E-001,1.10959E-001,-4.53226E-002,-1.69367E-003,1.10977E-001,-4.53409E-002,-6.20835E-001,1.11594E-001,1.11716E+000,-2.06627E-002,0.00000E+000,1.43686E-002,9.57377E-001,0.00000E+000,3.68411E-004,-6.12874E-002,1.00000E+000,17
709,1347,-1.21506E+001,6.32594E-001,1.39971E-002,2.37736E+000,-5.60440E-001,3.29814E-002,2.44275E+000,8.95721E-003,5.60378E-001,0,3.69964E+001,-9.16113E+000,9.99115E-001,-6.08605E+000,-4.80224E+001,9.98952E-001,1.03400E-001,-4.37442E-002,-7.67559E-004,1.03404E-001,-4.37482E-002,-2.98866E-001,1.03811E-001,1.10894E+000,-5.06913E-005,0.00000E+000,-1.32781E-003,9.59281E-001,0.00000E+000,-1.63774E-003,-6.60077E-002,1.00000E+000,17
709,1357,-1.21301E+001,1.25443E+000,3.08164E-002,2.37682E+000,-5.85831E-001,-2.37664E-003,2.44796E+000,8.00223E-003,5.49476E-001,0,3.70870E+001,-9.48579E+000,9.99308E-001,-5.58828E+000,-4.85014E+001,9.99332E-001,1.02516E-001,-4.37493E-002,-8.62452E-004,1.02521E-001,-4.37544E-002,-3.37828E-001,1.02887E-001,1.10796E+000,-8.21127E-005,0.00000E+000,-1.41808E-003,9.59278E-001,0.00000E+000,-2.66498E-003,-6.60407E-002,1.00000E+000,17
709,1337,-1.21595E+001,1.41082E-002,3.65461E-002,2.38279E+000,-5.37111E-001,7.20186E-002,2.44363E+000,8.38434E-003,5.53915E-001,0,3.69684E+001,-8.86911E+000,9.98900E-001,-6.30197E+000,-4.75878E+001,9.98549E-001,1.04277E-001,-4.37407E-002,-6.77550E-004,1.04280E-001,-4.37438E-002,-2.62264E-001,1.04730E-001,1.10991E+000,-2.90680E-005,0.00000E+000,-1.23801E-003,9.59283E-001,0.00000E+000,-6.15930E-004,-6.59849E-002,1.00000E+000,17
709,1317,-1.21712E+001,-1.19355E+000,1.77912E-001,2.38504E+000,-4.73972E-001,1.65180E-001,2.43729E+000,1.03762E-002,5.90371E-001,0,3.67233E+001,-8.07126E+000,9.99125E-001,-6.37193E+000,-4.64530E+001,9.98702E-001,1.06014E-001,-4.37374E-002,-5.08655E-004,1.06016E-001,-4.37391E-002,-1.94611E-001,1.06555E-001,1.11184E+000,-8.10182E-006,0.00000E+000,-1.05958E-003,9.59285E-001,0.00000E+000,1.41453E-003,-6.59629E-002,1.00000E+000,17
709,1327,-1.21642E+001,-5.90430E-001,9.84691E-002,2.38623E+000,-5.05371E-001,1.16405E-001,2.44194E+000,1.16100E-002,5.94310E-001,0,3.68887E+001,-8.47313E+000,9.99091E-001,-6.34368E+000,-4.70012E+001,9.98566E-001,1.05147E-001,-4.37388E-002,-5.92227E-004,1.05150E-001,-4.37411E-002,-2.27902E-001,1.05643E-001,1.11087E+000,-1.67981E-005,0.00000E+000,-1.14873E-003,9.59284E-001,0.00000E+000,4.00113E-004,-6.59720E-002,1.00000E+000,17
1149,1297,1.98862E+001,-1.87344E+000,9.79691E-002,5.78001E+000,-9.95016E-002,8.93074E-002,5.78156E+000,1.72295E-002,4.04403E-001,0,8.67546E+001,-2.44084E+000,9.99235E-001,4.87658E+001,-3.27503E+001,9.96628E-001,1.09475E-001,-4.54276E-002,-1.95728E-003,1.09499E-001,-4.54524E-002,-7.23810E-001,1.10024E-001,1.11552E+000,-1.97852E-002,0.00000E+000,1.31336E-002,9.57323E-001,0.00000E+000,4.23539E-004,-6.17589E-002,1.00000E+000,17
1149,1307,1.98892E+001,-1.25858E+000,2.42555E-002,5.77457E+000,-1.27749E-001,4.78660E-002,5.77619E+000,1.08169E-002,3.80132E-001,0,8.68378E+001,-2.82147E+000,9.99422E-001,4.87570E+001,-3.30639E+001,9.98113E-001,1.10421E-001,-4.54241E-002,-1.88377E-003,1.10444E-001,-4.54469E-002,-6.92424E-001,1.11019E-001,1.11658E+000,-1.97713E-002,0.00000E+000,1.32811E-002,9.57325E-001,0.00000E+000,-1.62133E-004,-6.17666E-002,1.00000E+000,17
1149,1317,1.98868E+001,-6.44730E-001,-3.80186E-002,5.75916E+000,-1.61027E-001,1.11344E-005,5.76141E+000,9.60021E-003,4.06708E-001,0,8.67946E+001,-3.26686E+000,9.99384E-001,4.86810E+001,-3.33933E+001,9.98052E-001,1.11371E-001,-4.54198E-002,-1.80678E-003,1.11392E-001,-4.54406E-002,-6.60131E-001,1.12020E-001,1.11764E+000,-1.97502E-002,0.00000E+000,1.34294E-002,9.57328E-001,0.00000E+000,-7.50676E-004,-6.17783E-002,1.00000E+000,17
1149,1327,1.98895E+001,-2.13337E-002,-7.43385E-002,5.74447E+000,-1.85670E-001,-3.96593E-002,5.74761E+000,9.86397E-003,3.85883E-001,0,8.67232E+001,-3.60026E+000,9.99229E-001,4.87279E+001,-3.36552E+001,9.97677E-001,1.12320E-001,-4.54147E-002,-1.72673E-003,1.12339E-001,-4.54336E-002,-6.27120E-001,1.13021E-001,1.11870E+000,-1.97220E-002,0.00000E+000,1.35776E-002,9.57332E-001,0.00000E+000,-1.33926E-003,-6.17939E-002,1.00000E+000,17
1149,1337,1.99011E+001,6.02984E-001,-7.36225E-002,5.73020E+000,-2.18792E-001,-7.57192E-002,5.73488E+000,1.51171E-002,4.70851E-001,0,8.66407E+001,-4.05667E+000,9.99268E-001,4.89730E+001,-3.39328E+001,9.98241E-001,1.13279E-001,-4.54080E-002,-1.63992E-003,1.13296E-001,-4.54249E-002,-5.92029E-001,1.14034E-001,1.11977E+000,-1.96803E-002,0.00000E+000,1.37276E-002,9.57337E-001,0.00000E+000,-1.93490E-003,-6.18170E-002,1.00000E+000,17
1149,1347,1.99282E+001,1.23374E+000,-3.03377E-002,5.72209E+000,-2.49243E-001,-1.06321E-001,5.72850E+000,1.47771E-002,4.62970E-001,0,8.66207E+001,-4.46889E+000,9.99289E-001,4.95276E+001,-3.42533E+001,9.97961E-001,1.14239E-001,-4.53996E-002,-1.54645E-003,1.14254E-001,-4.54146E-002,-5.54969E-001,1.15051E-001,1.12085E+000,-1.96238E-002,0.00000E+000,1.38781E-002,9.57345E-001,0.00000E+000,-2.53232E-003,-6.18484E-002,1.00000E+000,17
699,1347,-1.28566E+001,6.28802E-001,2.12626E-002,2.31309E+000,-5.60467E-001,3.43627E-002,2.38027E+000,8.70592E-003,6.02063E-001,0,3.60166E+001,-9.15835E+000,9.99391E-001,-6.87815E+000,-4.81778E+001,9.99304E-001,1.02492E-001,-4.30596E-002,-6.88423E-004,1.02495E-001,-4.30628E-002,-2.70987E-001,1.02930E-001,1.10793E+000,1.10813E-003,0.00000E+000,-2.18786E-003,9.59873E-001,0.00000E+000,-1.47501E-003,-6.49904E-002,1.00000E+000,17
699,1357,-1.28391E+001,1.24519E+000,3.54676E-002,2.31013E+000,-5.90828E-001,-1.87329E-003,2.38449E+000,8.51014E-003,5.87755E-001,0,3.60730E+001,-9.55668E+000,9.99316E-001,-6.43168E+000,-4.87390E+001,9.99205E-001,1.01513E-001,-4.30611E-002,-7.28670E-004,1.01517E-001,-4.30648E-002,-2.88768E-001,1.01905E-001,1.10685E+000,1.07421E-003,0.00000E+000,-2.18158E-003,9.59873E-001,0.00000E+000,-2.36310E-003,-6.50183E-002,1.00000E+000,17
699,1337,-1.28731E+001,7.14096E-003,4.24436E-002,2.31102E+000,-5.39153E-001,7.30544E-002,2.37421E+000,7.31779E-003,5.78076E-001,0,3.58747E+001,-8.90639E+000,9.99239E-001,-7.21533E+000,-4.77969E+001,9.99024E-001,1.03466E-001,-4.30585E-002,-6.52732E-004,1.03469E-001,-4.30614E-002,-2.55232E-001,1.03953E-001,1.10901E+000,1.13218E-003,0.00000E+000,-2.19412E-003,9.59873E-001,0.00000E+000,-5.89568E-004,-6.49707E-002,1.00000E+000,17
699,1317,-1.28854E+001,-1.19319E+000,1.93277E-001,2.31030E+000,-4.71780E-001,1.63635E-001,2.36365E+000,1.11068E-002,6.31989E-001,0,3.55907E+001,-8.03054E+000,9.99253E-001,-7.26718E+000,-4.65570E+001,9.98714E-001,1.05390E-001,-4.30578E-002,-5.94846E-004,1.05392E-001,-4.30601E-002,-2.29586E-001,1.05978E-001,1.11114E+000,1.15147E-003,0.00000E+000,-2.20652E-003,9.59873E-001,0.00000E+000,1.16352E-003,-6.49549E-002,1.00000E+000,17
699,1327,-1.28800E+001,-5.90576E-001,1.03252E-001,2.31158E+000,-5.03682E-001,1.13402E-001,2.36853E+000,9.27325E-003,6.82730E-001,0,3.57615E+001,-8.43710E+000,9.99203E-001,-7.29296E+000,-4.70694E+001,9.97911E-001,1.04427E-001,-4.30580E-002,-6.22565E-004,1.04430E-001,-4.30606E-002,-2.41852E-001,1.04963E-001,1.11007E+000,1.14465E-003,0.00000E+000,-2.20031E-003,9.59873E-001,0.00000E+000,2.85312E-004,-6.49605E-002,1.00000E+000,17
1159,1307,2.06210E+001,-1.24931E+000,5.81690E-003,5.84721E+000,-1.22565E-001,4.17556E-002,5.84864E+000,1.09592E-002,3.71587E-001,0,8.78872E+001,-2.73396E+000,9.98589E-001,5.01318E+001,-3.27945E+001,9.97517E-001,1.10874E-001,-4.56806E-002,-1.90940E-003,1.10897E-001,-4.57039E-002,-6.98663E-001,1.11466E-001,1.11710E+000,-1.89370E-002,0.00000E+000,1.25782E-002,9.57120E-001,0.00000E+000,-1.33975E-003,-6.22862E-002,1.00000E+000,17
1159,1317,2.06243E+001,-6.28730E-001,-5.24144E-002,5.83741E+000,-1.49957E-001,-2.15315E-003,5.83934E+000,1.07539E-002,4.30782E-001,0,8.79115E+001,-3.10538E+000,9.98895E-001,5.01522E+001,-3.30095E+001,9.98639E-001,1.11881E-001,-4.56806E-002,-1.89165E-003,1.11904E-001,-4.57033E-002,-6.87747E-001,1.12528E-001,1.11822E+000,-1.89144E-002,0.00000E+000,1.26131E-002,9.57121E-001,0.00000E+000,-1.95500E-003,-6.22986E-002,1.00000E+000,17
1159,1327,2.06342E+001,-7.68787E-003,-7.55166E-002,5.82738E+000,-1.79670E-001,-3.79606E-002,5.83027E+000,7.67700E-003,4.19785E-001,0,8.78959E+001,-3.51345E+000,9.99452E-001,5.03307E+001,-3.33293E+001,9.98855E-001,1.12889E-001,-4.56806E-002,-1.86884E-003,1.12911E-001,-4.57026E-002,-6.75139E-001,1.13592E-001,1.11935E+000,-1.88802E-002,0.00000E+000,1.26480E-002,9.57122E-001,0.00000E+000,-2.57168E-003,-6.23172E-002,1.00000E+000,17
1159,1297,2.06200E+001,-1.86147E+000,7.43715E-002,5.85552E+000,-9.16878E-002,8.10576E-002,5.85679E+000,1.24852E-002,4.26640E-001,0,8.78541E+001,-2.31302E+000,9.98741E-001,5.01645E+001,-3.24144E+001,9.95375E-001,1.09871E-001,-4.56806E-002,-1.92425E-003,1.09895E-001,-4.57044E-002,-7.08630E-001,1.10412E-001,1.11598E+000,-1.89531E-002,0.00000E+000,1.25436E-002,9.57120E-001,0.00000E+000,-7.28501E-004,-6.22774E-002,1.00000E+000,17
1159,1337,2.06562E+001,6.16358E-001,-6.27723E-002,5.81986E+000,-2.13552E-001,-7.58840E-002,5.82427E+000,1.08182E-002,4.43260E-001,0,8.79202E+001,-3.97576E+000,9.99711E-001,5.07552E+001,-3.36654E+001,9.99432E-001,1.13904E-001,-4.56806E-002,-1.83881E-003,1.13925E-001,-4.57017E-002,-6.60073E-001,1.14665E-001,1.12049E+000,-1.88298E-002,0.00000E+000,1.26832E-002,9.57124E-001,0.00000E+000,-3.19346E-003,-6.23448E-002,1.00000E+000,17
1159,1347,2.06753E+001,1.24718E+000,-3.83757E-002,5.80629E+000,-2.41089E-001,-1.14565E-001,5.81243E+000,1.21462E-002,4.39521E-001,0,8.78516E+001,-4.35002E+000,9.99356E-001,5.11528E+001,-3.39403E+001,9.98738E-001,1.14917E-001,-4.56806E-002,-1.80656E-003,1.14937E-001,-4.57009E-002,-6.44412E-001,1.15738E-001,1.12163E+000,-1.87741E-002,0.00000E+000,1.27184E-002,9.57125E-001,0.00000E+000,-3.81508E-003,-6.23752E-002,1.00000E+000,17
689,1347,-1.35667E+001,6.21725E-001,2.48968E-002,2.24386E+000,-5.63892E-001,2.96126E-002,2.31382E+000,8.36918E-003,6.14858E-001,0,3.49767E+001,-9.18372E+000,9.99596E-001,-7.73905E+000,-4.83910E+001,9.98901E-001,1.01531E-001,-4.26236E-002,-6.76930E-004,1.01534E-001,-4.26268E-002,-2.69045E-001,1.01968E-001,1.10686E+000,2.23210E-003,0.00000E+000,-3.14131E-003,9.60238E-001,0.00000E+000,-1.45091E-003,-6.41651E-002,1.00000E+000,17
689,1357,-1.35521E+001,1.23667E+000,3.10217E-002,2.24032E+000,-5.93205E-001,-2.94374E-003,2.31753E+000,8.41885E-003,5.88419E-001,0,3.50137E+001,-9.57611E+000,9.99405E-001,-7.35755E+000,-4.89648E+001,9.99318E-001,1.00401E-001,-4.26260E-002,-7.38761E-004,1.00405E-001,-4.26298E-002,-2.95932E-001,1.00785E-001,1.10562E+000,2.19729E-003,0.00000E+000,-3.18169E-003,9.60237E-001,0.00000E+000,-2.27355E-003,-6.41880E-002,1.00000E+000,17
689,1337,-1.35815E+001,9.41886E-003,4.44662E-002,2.24443E+000,-5.31806E-001,7.19984E-002,2.30770E+000,9.03034E-003,5.81221E-001,0,3.48634E+001,-8.78072E+000,9.99414E-001,-8.05193E+000,-4.78654E+001,9.99389E-001,1.02661E-001,-4.26216E-002,-6.17480E-004,1.02663E-001,-4.26242E-002,-2.43513E-001,1.03155E-001,1.10811E+000,2.26155E-003,0.00000E+000,-3.10087E-003,9.60239E-001,0.00000E+000,-6.26913E-004,-6.41457E-002,1.00000E+000,17
1169,1327,2.13704E+001,4.67530E-003,-8.75638E-002,5.90195E+000,-1.72940E-001,-4.49910E-002,5.90465E+000,7.25995E-003,4.54574E-001,0,8.89759E+001,-3.42216E+000,9.99654E-001,5.17885E+001,-3.30001E+001,9.99195E-001,1.13295E-001,-4.59060E-002,-1.83458E-003,1.13316E-001,-4.59271E-002,-6.60141E-001,1.13992E-001,1.11983E+000,-1.79349E-002,0.00000E+000,1.19770E-002,9.56939E-001,0.00000E+000,-3.85805E-003,-6.26995E-002,1.00000E+000,17
1169,1337,2.13957E+001,6.34353E-001,-6.48282E-002,5.89556E+000,-2.01513E-001,-8.03535E-002,5.89955E+000,9.90489E-003,4.53637E-001,0,8.90041E+001,-3.81224E+000,9.99725E-001,5.22770E+001,-3.32811E+001,9.99220E-001,1.14305E-001,-4.59097E-002,-1.83338E-003,1.14326E-001,-4.59307E-002,-6.55535E-001,1.15060E-001,1.12096E+000,-1.78811E-002,0.00000E+000,1.19507E-002,9.56937E-001,0.00000E+000,-4.40565E-003,-6.27255E-002,1.00000E+000,17
1169,1347,2.14215E+001,1.26282E+000,-3.15555E-002,5.88662E+000,-2.33066E-001,-1.17646E-001,5.89240E+000,9.67770E-003,4.34706E-001,0,8.90001E+001,-4.24002E+000,9.99310E-001,5.27910E+001,-3.36177E+001,9.98960E-001,1.15316E-001,-4.59136E-002,-1.82994E-003,1.15337E-001,-4.59344E-002,-6.50190E-001,1.16130E-001,1.12210E+000,-1.78219E-002,0.00000E+000,1.19244E-002,9.56936E-001,0.00000E+000,-4.95425E-003,-6.27540E-002,1.00000E+000,17
689,1327,-1.35989E+001,-5.98593E-001,9.08459E-002,2.23665E+000,-5.03744E-001,1.10180E-001,2.29532E+000,1.00945E-002,6.45830E-001,0,3.46308E+001,-8.42224E+000,9.98976E-001,-8.33192E+000,-4.72848E+001,9.98565E-001,1.03777E-001,-4.26204E-002,-5.63423E-004,1.03779E-001,-4.26226E-002,-2.20503E-001,1.04330E-001,1.10935E+000,2.28013E-003,0.00000E+000,-3.06083E-003,9.60239E-001,0.00000E+000,1.88733E-004,-6.41334E-002,1.00000E+000,17
1169,1317,2.13608E+001,-6.19172E-001,-5.87815E-002,5.91197E+000,-1.43643E-001,-5.30109E-003,5.91372E+000,1.25867E-002,3.74545E-001,0,8.89752E+001,-3.02068E+000,9.99316E-001,5.16240E+001,-3.27834E+001,9.99115E-001,1.12288E-001,-4.59034E-002,-1.82703E-003,1.12309E-001,-4.59245E-002,-6.61618E-001,1.12929E-001,1.11870E+000,-1.79685E-002,0.00000E+000,1.20031E-002,9.56939E-001,0.00000E+000,-3.31291E-003,-6.26833E-002,1.00000E+000,17
1169,1307,2.13557E+001,-1.23753E+000,-1.06003E-002,5.92155E+000,-1.16593E-001,3.44192E-002,5.92279E+000,1.12746E-002,4.13902E-001,0,8.89644E+001,-2.63833E+000,9.99268E-001,5.15611E+001,-3.24651E+001,9.98527E-001,1.11290E-001,-4.59012E-002,-1.81596E-003,1.11311E-001,-4.59222E-002,-6.61795E-001,1.11877E-001,1.11758E+000,-1.79936E-002,0.00000E+000,1.20290E-002,9.56940E-001,0.00000E+000,-2.77350E-003,-6.26712E-002,1.00000E+000,17
1169,1297,2.13586E+001,-1.84953E+000,7.04109E-002,5.93289E+000,-8.44996E-002,8.24295E-002,5.93406E+000,1.05137E-002,4.53477E-001,0,8.89401E+001,-2.23048E+000,9.99280E-001,5.16737E+001,-3.21182E+001,9.96723E-001,1.10291E-001,-4.58996E-002,-1.80032E-003,1.10312E-001,-4.59204E-002,-6.60299E-001,1.10826E-001,1.11646E+000,-1.80083E-002,0.00000E+000,1.20548E-002,9.56940E-001,0.00000E+000,-2.23424E-003,-6.26641E-002,1.00000E+000,17
689,1317,-1.36048E+001,-1.19952E+000,1.78355E-001,2.23460E+000,-4.71960E-001,1.57197E-001,2.28930E+000,1.11999E-002,6.19356E-001,0,3.44583E+001,-7.99983E+000,9.99048E-001,-8.32090E+000,-4.67276E+001,9.97782E-001,1.04889E-001,-4.26201E-002,-5.14471E-004,1.04891E-001,-4.26219E-002,-1.99829E-001,1.05502E-001,1.11059E+000,2.28760E-003,0.00000E+000,-3.02089E-003,9.60239E-001,0.00000E+000,1.00248E-003,-6.41285E-002,1.00000E+000,17
679,1347,-1.42850E+001,6.15440E-001,1.87910E-002,2.16804E+000,-5.61746E-001,2.50341E-002,2.23977E+000,1.29061E-002,6.24809E-001,0,3.38313E+001,-9.17226E+000,9.99132E-001,-8.74512E+000,-4.85735E+001,9.98821E-001,1.00536E-001,-4.22449E-002,-7.28424E-004,1.00540E-001,-4.22486E-002,-2.92295E-001,1.00966E-001,1.10576E+000,3.39924E-003,0.00000E+000,-4.24921E-003,9.60553E-001,0.00000E+000,-1.53469E-003,-6.34473E-002,1.00000E+000,17
679,1357,-1.42593E+001,1.23173E+000,2.74215E-002,2.17718E+000,-5.90815E-001,3.18202E-003,2.25592E+000,6.45464E-003,6.06173E-001,0,3.40352E+001,-9.55111E+000,9.99424E-001,-8.18515E+000,-4.91283E+001,9.99300E-001,9.91855E-002,-4.22508E-002,-8.80561E-004,9.91910E-002,-4.22563E-002,-3.56696E-001,9.95524E-002,1.10427E+000,3.36135E-003,0.00000E+000,-4.45757E-003,9.60548E-001,0.00000E+000,-2.44544E-003,-6.34704E-002,1.00000E+000,17
1179,1297,2.20904E+001,-1.84173E+000,4.91616E-002,6.00755E+000,-7.90894E-002,8.46360E-002,6.00866E+000,1.75237E-002,4.81157E-001,0,8.99847E+001,-2.17456E+000,9.99530E-001,5.30527E+001,-3.18498E+001,9.97336E-001,1.10631E-001,-4.60370E-002,-1.72085E-003,1.10650E-001,-4.60559E-002,-6.29240E-001,1.11167E-001,1.11686E+000,-1.72132E-002,0.00000E+000,1.16094E-002,9.56846E-001,0.00000E+000,-3.67943E-003,-6.31835E-002,1.00000E+000,17
1179,1307,2.20945E+001,-1.23021E+000,-2.15457E-002,6.00070E+000,-1.10977E-001,3.70426E-002,6.00184E+000,8.32581E-003,3.43151E-001,0,9.00738E+001,-2.56776E+000,9.99564E-001,5.30665E+001,-3.22726E+001,9.98399E-001,1.11585E-001,-4.60375E-002,-1.71363E-003,1.11603E-001,-4.60561E-002,-6.22808E-001,1.12169E-001,1.11792E+000,-1.71950E-002,0.00000E+000,1.16182E-002,9.56846E-001,0.00000E+000,-4.08589E-003,-6.31904E-002,1.00000E+000,17
1179,1317,2.20975E+001,-6.10413E-001,-9.32561E-002,5.99370E+000,-1.35661E-001,-7.52221E-003,5.99524E+000,1.84180E-002,3.45657E-001,0,9.01461E+001,-2.90140E+000,9.99606E-001,5.30605E+001,-3.24950E+001,9.98826E-001,1.12539E-001,-4.60379E-002,-1.70714E-003,1.12557E-001,-4.60563E-002,-6.16719E-001,1.13174E-001,1.11899E+000,-1.71785E-002,0.00000E+000,1.16269E-002,9.56846E-001,0.00000E+000,-4.49313E-003,-6.31967E-002,1.00000E+000,17
1179,1337,2.21379E+001,6.44417E-001,-7.62085E-002,5.97419E+000,-1.96766E-001,-9.17584E-002,5.97813E+000,8.82451E-003,4.37136E-001,0,9.01610E+001,-3.73735E+000,9.99563E-001,5.38312E+001,-3.30123E+001,9.98437E-001,1.14472E-001,-4.60396E-002,-1.66579E-003,1.14489E-001,-4.60569E-002,-5.94531E-001,1.15216E-001,1.12116E+000,-1.70809E-002,0.00000E+000,1.16447E-002,9.56847E-001,0.00000E+000,-5.32027E-003,-6.32338E-002,1.00000E+000,17
1179,1347,2.21723E+001,1.27835E+000,-3.28695E-002,5.97116E+000,-2.25704E-001,-1.28328E-001,5.97681E+000,8.54346E-003,4.33375E-001,0,9.02404E+001,-4.11631E+000,9.99589E-001,5.44923E+001,-3.32761E+001,9.99002E-001,1.15442E-001,-4.60407E-002,-1.63987E-003,1.15459E-001,-4.60573E-002,-5.81763E-001,1.16243E-001,1.12226E+000,-1.70201E-002,0.00000E+000,1.16536E-002,9.56848E-001,0.00000E+000,-5.73611E-003,-6.32570E-002,1.00000E+000,17
679,1327,-1.43111E+001,-6.03889E-001,9.59626E-002,2.16594E+000,-5.03287E-001,1.13320E-001,2.22653E+000,1.20658E-002,6.11064E-001,0,3.35447E+001,-8.40568E+000,9.98792E-001,-9.21607E+000,-4.74943E+001,9.97955E-001,1.03209E-001,-4.22367E-002,-4.35718E-004,1.03210E-001,-4.22380E-002,-1.71642E-001,1.03775E-001,1.10872E+000,3.45443E-003,0.00000E+000,-3.83572E-003,9.60561E-001,0.00000E+000,2.72732E-004,-6.34135E-002,1.00000E+000,17
679,1337,-1.42983E+001,4.41290E-003,4.32043E-002,2.17005E+000,-5.31051E-001,7.36211E-002,2.23530E+000,1.29343E-002,5.92272E-001,0,3.37242E+001,-8.76468E+000,9.99080E-001,-9.02404E+000,-4.80362E+001,9.98943E-001,1.01877E-001,-4.22394E-002,-5.78252E-004,1.01880E-001,-4.22417E-002,-2.29888E-001,1.02373E-001,1.10724E+000,3.43446E-003,0.00000E+000,-4.04192E-003,9.60558E-001,0.00000E+000,-6.28561E-004,-6.34257E-002,1.00000E+000,17
1179,1327,2.21124E+001,1.17805E-002,-9.63085E-002,5.98270E+000,-1.68534E-001,-4.52481E-002,5.98525E+000,1.30647E-002,4.16287E-001,0,9.01218E+001,-3.38381E+000,9.99549E-001,5.33444E+001,-3.27957E+001,9.97752E-001,1.13503E-001,-4.60387E-002,-1.68936E-003,1.13521E-001,-4.60566E-002,-6.06607E-001,1.14191E-001,1.12008E+000,-1.71363E-002,0.00000E+000,1.16358E-002,9.56847E-001,0.00000E+000,-4.90532E-003,-6.32127E-002,1.00000E+000,17
679,1317,-1.43181E+001,-1.20492E+000,1.80686E-001,2.16287E+000,-4.71892E-001,1.58214E-001,2.21939E+000,9.93391E-003,6.37527E-001,0,3.33636E+001,-8.00898E+000,9.99215E-001,-9.22903E+000,-4.69044E+001,9.97873E-001,1.04533E-001,-4.22359E-002,-2.98550E-004,1.04534E-001,-4.22365E-002,-1.16548E-001,1.05173E-001,1.11019E+000,3.46346E-003,0.00000E+000,-3.63019E-003,9.60562E-001,0.00000E+000,1.17115E-003,-6.34080E-002,1.00000E+000,17
669,1327,-1.50187E+001,-6.14253E-001,1.01246E-001,2.10010E+000,-5.06843E-001,1.20594E-001,2.16376E+000,9.52831E-003,5.82227E-001,0,3.25231E+001,-8.47270E+000,9.99553E-001,-1.00264E+001,-4.77784E+001,9.98860E-001,1.02509E-001,-4.19003E-002,-2.62067E-004,1.02509E-001,-4.19008E-002,-1.03977E-001,1.03077E-001,1.10794E+000,5.13295E-003,0.00000E+000,-4.95279E-003,9.60820E-001,0.00000E+000,2.39586E-004,-6.24290E-002,1.00000E+000,17
669,1337,-1.50084E+001,6.88908E-004,5.08184E-002,2.10140E+000,-5.29930E-001,8.09055E-002,2.16870E+000,7.71581E-003,6.21020E-001,0,3.26564E+001,-8.75845E+000,9.99354E-001,-9.86390E+000,-4.81970E+001,9.99236E-001,1.00943E-001,-4.19039E-002,-4.65152E-004,1.00944E-001,-4.19054E-002,-1.86570E-001,1.01428E-001,1.10620E+000,5.10857E-003,0.00000E+000,-5.27270E-003,9.60815E-001,0.00000E+000,-7.09488E-004,-6.24424E-002,1.00000E+000,17
669,1347,-1.49930E+001,6.10315E-001,2.03174E-002,2.10490E+000,-5.59243E-001,4.46354E-002,2.17838E+000,6.77182E-003,5.91515E-001,0,3.28147E+001,-9.13967E+000,9.99301E-001,-9.56911E+000,-4.87750E+001,9.99143E-001,9.93733E-002,-4.19092E-002,-6.71759E-004,9.93765E-002,-4.19124E-002,-2.72417E-001,9.97813E-002,1.10447E+000,5.07646E-003,0.00000E+000,-5.59256E-003,9.60809E-001,0.00000E+000,-1.65841E-003,-6.24600E-002,1.00000E+000,17
669,1357,-1.49685E+001,1.23174E+000,2.91201E-002,2.10994E+000,-5.83226E-001,5.71390E-003,2.18907E+000,7.13147E-003,5.83604E-001,0,3.29998E+001,-9.44040E+000,9.99197E-001,-9.02462E+000,-4.92481E+001,9.99203E-001,9.77908E-002,-4.19189E-002,-8.88670E-004,9.77965E-002,-4.19246E-002,-3.64429E-001,9.81275E-002,1.10273E+000,5.02434E-003,0.00000E+000,-5.91436E-003,9.60800E-001,0.00000E+000,-2.61310E-003,-6.24885E-002,1.00000E+000,17
1189,1337,2.28852E+001,6.56301E-001,-8.50588E-002,6.05690E+000,-1.92450E-001,-1.02318E-001,6.06082E+000,1.12560E-002,4.17685E-001,0,9.13740E+001,-3.63983E+000,9.99629E-001,5.54728E+001,-3.27219E+001,9.98803E-001,1.14375E-001,-4.62221E-002,-1.48570E-003,1.14389E-001,-4.62359E-002,-5.29989E-001,1.15086E-001,1.12107E+000,-1.63566E-002,0.00000E+000,1.14000E-002,9.56680E-001,0.00000E+000,-5.75016E-003,-6.33226E-002,1.00000E+000,17
669,1317,-1.50242E+001,-1.21133E+000,1.93033E-001,2.09726E+000,-4.71963E-001,1.65731E-001,2.15609E+000,1.18083E-002,5.87316E-001,0,3.23444E+001,-8.02242E+000,9.99551E-001,-9.99561E+000,-4.71513E+001,9.98686E-001,1.04062E-001,-4.19006E-002,-6.78986E-005,1.04062E-001,-4.19006E-002,-2.66528E-002,1.04717E-001,1.10966E+000,5.14017E-003,0.00000E+000,-4.63482E-003,9.60821E-001,0.00000E+000,1.18292E-003,-6.24251E-002,1.00000E+000,17
1189,1297,2.28389E+001,-1.83021E+000,6.08949E-002,6.08829E+000,-7.37389E-002,7.98060E-002,6.08926E+000,1.27063E-002,4.47013E-001,0,9.11381E+001,-2.10352E+000,9.99477E-001,5.47480E+001,-3.16232E+001,9.96851E-001,1.10923E-001,-4.62132E-002,-1.45517E-003,1.10936E-001,-4.62267E-002,-5.30532E-001,1.11449E-001,1.11720E+000,-1.64708E-002,0.00000E+000,1.15704E-002,9.56686E-001,0.00000E+000,-5.18353E-003,-6.33059E-002,1.00000E+000,17
1189,1307,2.28330E+001,-1.22038E+000,-3.06640E-002,6.07587E+000,-1.07989E-001,2.93631E-002,6.07691E+000,9.07504E-003,4.03981E-001,0,9.11610E+001,-2.52795E+000,9.99216E-001,5.45731E+001,-3.19799E+001,9.98349E-001,1.11781E-001,-4.62144E-002,-1.47093E-003,1.11795E-001,-4.62281E-002,-5.33360E-001,1.12351E-001,1.11816E+000,-1.64610E-002,0.00000E+000,1.15281E-002,9.56685E-001,0.00000E+000,-5.32411E-003,-6.33073E-002,1.00000E+000,17
1189,1317,2.28505E+001,-5.89246E-001,-6.52692E-002,6.07377E+000,-1.29584E-001,-1.46062E-002,6.07517E+000,1.01481E-002,4.36130E-001,0,9.12962E+001,-2.78832E+000,9.99582E-001,5.48493E+001,-3.20886E+001,9.99354E-001,1.12646E-001,-4.62167E-002,-1.47850E-003,1.12660E-001,-4.62305E-002,-5.33178E-001,1.13262E-001,1.11913E+000,-1.64323E-002,0.00000E+000,1.14854E-002,9.56684E-001,0.00000E+000,-5.46608E-003,-6.33115E-002,1.00000E+000,17
1189,1327,2.28660E+001,2.94390E-002,-8.44800E-002,6.06565E+000,-1.63817E-001,-5.92707E-002,6.06815E+000,1.32657E-002,4.50675E-001,0,9.13461E+001,-3.26638E+000,9.99604E-001,5.51174E+001,-3.24352E+001,9.99164E-001,1.13510E-001,-4.62192E-002,-1.48346E-003,1.13523E-001,-4.62330E-002,-5.32066E-001,1.14173E-001,1.12010E+000,-1.63976E-002,0.00000E+000,1.14428E-002,9.56682E-001,0.00000E+000,-5.60792E-003,-6.33166E-002,1.00000E+000,17
659,1327,-1.57261E+001,-6.05970E-001,1.04987E-001,2.03296E+000,-4.94022E-001,1.19599E-001,2.09554E+000,1.43189E-002,5.71241E-001,0,3.14982E+001,-8.25367E+000,9.99442E-001,-1.08269E+001,-4.77639E+001,9.97868E-001,1.01623E-001,-4.16630E-002,-2.23103E-004,1.01624E-001,-4.16633E-002,-8.92120E-002,1.02171E-001,1.10694E+000,6.88637E-003,0.00000E+000,-6.39009E-003,9.60995E-001,0.00000E+000,8.25048E-005,-6.16909E-002,1.00000E+000,17
659,1337,-1.57010E+001,-7.47343E-003,6.98376E-002,2.04908E+000,-5.33490E-001,9.49830E-002,2.11952E+000,1.87114E-002,6.77239E-001,0,3.18236E+001,-8.86379E+000,9.99295E-001,-1.04002E+001,-4.84345E+001,9.98879E-001,9.99530E-002,-4.16662E-002,-4.46099E-004,9.99544E-002,-4.16676E-002,-1.80479E-001,1.00414E-001,1.10510E+000,6.86057E-003,0.00000E+000,-6.75056E-003,9.60990E-001,0.00000E+000,-8.70345E-004,-6.17042E-002,1.00000E+000,17
659,1347,-1.56894E+001,6.09126E-001,3.40403E-002,2.04863E+000,-5.55531E-001,5.24698E-002,2.12327E+000,9.59698E-003,6.33818E-001,0,3.19352E+001,-9.11321E+000,9.99572E-001,-1.01772E+001,-4.89036E+001,9.99561E-001,9.82801E-002,-4.16714E-002,-6.72875E-004,9.82833E-002,-4.16746E-002,-2.75465E-001,9.86608E-002,1.10325E+000,6.82625E-003,0.00000E+000,-7.11080E-003,9.60984E-001,0.00000E+000,-1.82258E-003,-6.17219E-002,1.00000E+000,17
659,1357,-1.56718E+001,1.23172E+000,3.69094E-002,2.04759E+000,-5.77535E-001,1.08146E-002,2.12751E+000,6.58079E-003,5.91058E-001,0,3.20322E+001,-9.36028E+000,9.99423E-001,-9.75173E+000,-4.93661E+001,9.99530E-001,9.65939E-002,-4.16809E-002,-9.09553E-004,9.65999E-002,-4.16869E-002,-3.76862E-001,9.69012E-002,1.10140E+000,6.77287E-003,0.00000E+000,-7.47305E-003,9.60973E-001,0.00000E+000,-2.78014E-003,-6.17495E-002,1.00000E+000,17
1199,1307,2.35763E+001,-1.20804E+000,-3.31058E-002,6.15229E+000,-1.03701E-001,1.64431E-002,6.15318E+000,1.21050E-002,4.32539E-001,0,9.22831E+001,-2.44872E+000,9.99283E-001,5.61690E+001,-3.16780E+001,9.98089E-001,1.11862E-001,-4.61937E-002,-1.15396E-003,1.11870E-001,-4.62021E-002,-4.18285E-001,1.12434E-001,1.11827E+000,-1.55399E-002,0.00000E+000,1.14023E-002,9.56695E-001,0.00000E+000,-6.20268E-003,-6.31303E-002,1.00000E+000,17
1199,1317,2.35875E+001,-5.86692E-001,-7.75732E-002,6.14629E+000,-1.32196E-001,-2.80808E-002,6.14777E+000,1.07306E-002,4.22817E-001,0,9.23681E+001,-2.82053E+000,9.98853E-001,5.63322E+001,-3.19373E+001,9.97511E-001,1.12660E-001,-4.61964E-002,-1.17255E-003,1.12668E-001,-4.62050E-002,-4.22880E-001,1.13274E-001,1.11916E+000,-1.55165E-002,0.00000E+000,1.13281E-002,9.56693E-001,0.00000E+000,-6.07153E-003,-6.31268E-002,1.00000E+000,17
1199,1327,2.36036E+001,3.89398E-002,-1.04610E-001,6.14240E+000,-1.57491E-001,-6.59448E-002,6.14478E+000,1.16237E-002,3.93679E-001,0,9.24543E+001,-3.15727E+000,9.99136E-001,5.65978E+001,-3.21788E+001,9.98129E-001,1.13458E-001,-4.61993E-002,-1.18953E-003,1.13466E-001,-4.62082E-002,-4.26852E-001,1.14115E-001,1.12005E+000,-1.54893E-002,0.00000E+000,1.12538E-002,9.56691E-001,0.00000E+000,-5.94026E-003,-6.31228E-002,1.00000E+000,17
659,1317,-1.57399E+001,-1.21361E+000,1.76025E-001,2.02414E+000,-4.68771E-001,1.57990E-001,2.08371E+000,1.20208E-002,5.95699E-001,0,3.12499E+001,-7.93536E+000,9.98806E-001,-1.09845E+001,-4.72448E+001,9.95668E-001,1.03280E-001,-4.16623E-002,-6.42586E-006,1.03280E-001,-4.16623E-002,-2.54015E-003,1.03921E-001,1.10878E+000,6.90095E-003,0.00000E+000,-6.03169E-003,9.60998E-001,0.00000E+000,1.02987E-003,-6.16834E-002,1.00000E+000,17
1199,1337,2.36347E+001,6.70294E-001,-7.65567E-002,6.13866E+000,-1.86915E-001,-1.05808E-001,6.14241E+000,9.61486E-003,4.24258E-001,0,9.25399E+001,-3.56165E+000,9.99482E-001,5.71783E+001,-3.24243E+001,9.98334E-001,1.14263E-001,-4.62038E-002,-1.19800E-003,1.14272E-001,-4.62128E-002,-4.27721E-001,1.14966E-001,1.12096E+000,-1.54421E-002,0.00000E+000,1.11787E-002,9.56687E-001,0.00000E+000,-5.80753E-003,-6.31159E-002,1.00000E+000,17
1199,1297,2.35794E+001,-1.81527E+000,5.10800E-002,6.16267E+000,-6.62141E-002,6.21497E-002,6.16334E+000,9.51752E-003,4.36007E-001,0,9.22469E+001,-1.94493E+000,9.99129E-001,5.62896E+001,-3.12870E+001,9.97533E-001,1.11068E-001,-4.61921E-002,-1.12958E-003,1.11076E-001,-4.62002E-002,-4.11520E-001,1.11598E-001,1.11738E+000,-1.55500E-002,0.00000E+000,1.14761E-002,9.56696E-001,0.00000E+000,-6.33317E-003,-6.31317E-002,1.00000E+000,17
649,1347,-1.64029E+001,6.11778E-001,3.06025E-002,1.97527E+000,-5.48175E-001,4.47453E-002,2.05041E+000,1.00757E-002,6.64184E-001,0,3.08308E+001,-8.97960E+000,9.99415E-001,-1.10871E+001,-4.89443E+001,9.98544E-001,9.70777E-002,-4.13532E-002,-6.10206E-004,9.70804E-002,-4.13559E-002,-2.52554E-001,9.74342E-002,1.10192E+000,8.77378E-003,0.00000E+000,-8.67982E-003,9.61238E-001,0.00000E+000,-2.05486E-003,-6.10793E-002,1.00000E+000,17
649,1357,-1.63808E+001,1.23077E+000,4.20465E-002,1.97934E+000,-5.72726E-001,1.41912E-002,2.06059E+000,6.89283E-003,5.95724E-001,0,3.09770E+001,-9.28640E+000,9.99545E-001,-1.05680E+001,-4.94949E+001,9.99171E-001,9.52048E-002,-4.13616E-002,-8.46033E-004,9.52100E-002,-4.13668E-002,-3.54931E-001,9.54821E-002,1.09986E+000,8.71653E-003,0.00000E+000,-9.04267E-003,9.61228E-001,0.00000E+000,-3.00016E-003,-6.11056E-002,1.00000E+000,17
649,1337,-1.64225E+001,-1.43321E-003,6.06350E-002,1.96737E+000,-5.21225E-001,8.04517E-002,2.03684E+000,1.11593E-002,6.16607E-001,0,3.06076E+001,-8.62046E+000,9.99443E-001,-1.14490E+001,-4.84554E+001,9.98802E-001,9.89431E-002,-4.13490E-002,-3.83875E-004,9.89441E-002,-4.13500E-002,-1.56775E-001,9.93876E-002,1.10397E+000,8.81106E-003,0.00000E+000,-8.31757E-003,9.61245E-001,0.00000E+000,-1.11108E-003,-6.10622E-002,1.00000E+000,17
649,1327,-1.64400E+001,-6.00297E-001,1.05193E-001,1.95829E+000,-4.84533E-001,1.12368E-001,2.02047E+000,8.86682E-003,6.01935E-001,0,3.03724E+001,-8.08808E+000,9.99636E-001,-1.17353E+001,-4.77623E+001,9.99391E-001,1.00794E-001,-4.13468E-002,-1.63363E-004,1.00794E-001,-4.13470E-002,-6.58501E-002,1.01334E-001,1.10601E+000,8.83809E-003,0.00000E+000,-7.95725E-003,9.61250E-001,0.00000E+000,-1.72345E-004,-6.10498E-002,1.00000E+000,17
1209,1307,2.43210E+001,-1.19262E+000,-3.56038E-002,6.23028E+000,-9.50831E-002,6.07746E-003,6.23101E+000,9.44793E-003,4.52503E-001,0,9.34158E+001,-2.31854E+000,9.99340E-001,5.77907E+001,-3.13326E+001,9.98203E-001,1.11685E-001,-4.59283E-002,-8.02996E-004,1.11690E-001,-4.59324E-002,-2.91895E-001,1.12275E-001,1.11809E+000,-1.45388E-002,0.00000E+000,1.12448E-002,9.56925E-001,0.00000E+000,-6.52973E-003,-6.27034E-002,1.00000E+000,17
1209,1317,2.43300E+001,-5.76783E-001,-8.38961E-002,6.22379E+000,-1.28286E-001,-3.52405E-002,6.22522E+000,1.08462E-002,4.22829E-001,0,9.34850E+001,-2.76041E+000,9.99297E-001,5.79131E+001,-3.16778E+001,9.97495E-001,1.12517E-001,-4.59298E-002,-8.09379E-004,1.12521E-001,-4.59339E-002,-2.92668E-001,1.13151E-001,1.11901E+000,-1.45168E-002,0.00000E+000,1.11828E-002,9.56924E-001,0.00000E+000,-6.18632E-003,-6.26952E-002,1.00000E+000,17
1209,1327,2.43548E+001,5.35188E-002,-9.43482E-002,6.22393E+000,-1.51187E-001,-7.41755E-002,6.22621E+000,1.04455E-002,3.81088E-001,0,9.36314E+001,-3.06080E+000,9.99402E-001,5.83388E+001,-3.18869E+001,9.98371E-001,1.13351E-001,-4.59319E-002,-8.10102E-004,1.13355E-001,-4.59360E-002,-2.91393E-001,1.14032E-001,1.11995E+000,-1.44818E-002,0.00000E+000,1.11205E-002,9.56921E-001,0.00000E+000,-5.84160E-003,-6.26823E-002,1.00000E+000,17
1209,1337,2.43868E+001,6.84375E-001,-6.39494E-002,6.22055E+000,-1.82593E-001,-1.12711E-001,6.22425E+000,1.07554E-002,4.39377E-001,0,9.37183E+001,-3.49615E+000,9.99399E-001,5.89337E+001,-3.21301E+001,9.97567E-001,1.14193E-001,-4.59347E-002,-8.04407E-004,1.14197E-001,-4.59388E-002,-2.87818E-001,1.14922E-001,1.12089E+000,-1.44318E-002,0.00000E+000,1.10576E-002,9.56918E-001,0.00000E+000,-5.49310E-003,-6.26638E-002,1.00000E+000,17
1209,1297,2.43227E+001,-1.80243E+000,4.32792E-002,6.24114E+000,-5.84522E-002,5.33569E-002,6.24164E+000,9.14659E-003,4.12817E-001,0,9.33810E+001,-1.81759E+000,9.99293E-001,5.78815E+001,-3.09936E+001,9.97509E-001,1.10855E-001,-4.59271E-002,-7.92675E-004,1.10859E-001,-4.59312E-002,-2.89672E-001,1.11400E-001,1.11716E+000,-1.45519E-002,0.00000E+000,1.13066E-002,9.56926E-001,0.00000E+000,-6.87239E-003,-6.27082E-002,1.00000E+000,17
649,1317,-1.64470E+001,-1.20825E+000,1.83225E-001,1.95500E+000,-4.60825E-001,1.50285E-001,2.01419E+000,7.56556E-003,6.08976E-001,0,3.02124E+001,-7.78564E+000,9.99394E-001,-1.17675E+001,-4.72685E+001,9.99151E-001,1.02634E-001,-4.13478E-002,4.95667E-005,1.02634E-001,-4.13478E-002,1.97244E-002,1.03278E-001,1.10805E+000,8.84992E-003,0.00000E+000,-7.59812E-003,9.61252E-001,0.00000E+000,7.63275E-004,-6.10444E-002,1.00000E+000,17
639,1347,-1.71120E+001,6.15623E-001,2.71712E-002,1.90686E+000,-5.38097E-001,4.30769E-002,1.98180E+000,1.04867E-002,6.20679E-001,0,2.97851E+001,-8.79036E+000,9.99148E-001,-1.19262E+001,-4.90031E+001,9.98365E-001,9.59461E-002,-4.09359E-002,-5.63235E-004,9.59484E-002,-4.09382E-002,-2.35753E-001,9.62918E-002,1.10065E+000,1.09099E-002,0.00000E+000,-1.04500E-002,9.61578E-001,0.00000E+000,-2.27743E-003,-6.03353E-002,1.00000E+000,17
639,1357,-1.70877E+001,1.23626E+000,4.02634E-002,1.91315E+000,-5.61621E-001,1.31117E-002,1.99392E+000,6.78074E-003,6.01221E-001,0,2.99633E+001,-9.09696E+000,9.99440E-001,-1.13665E+001,-4.95091E+001,9.99187E-001,9.39315E-002,-4.09433E-002,-7.94827E-004,9.39362E-002,-4.09480E-002,-3.37633E-001,9.41931E-002,1.09844E+000,1.08484E-002,0.00000E+000,-1.08043E-002,9.61568E-001,0.00000E+000,-3.26082E-003,-6.03627E-002,1.00000E+000,17
639,1317,-1.71513E+001,-1.21112E+000,2.03430E-001,1.88856E+000,-4.62316E-001,1.57291E-001,1.95067E+000,1.04761E-002,6.98577E-001,0,2.91774E+001,-7.83262E+000,9.99348E-001,-1.24685E+001,-4.74080E+001,9.98475E-001,1.01904E-001,-4.09349E-002,7.44968E-005,1.01904E-001,-4.09349E-002,2.98822E-002,1.02559E-001,1.10722E+000,1.09817E-002,0.00000E+000,-9.39654E-003,9.61590E-001,0.00000E+000,6.46184E-004,-6.03034E-002,1.00000E+000,17
639,1327,-1.71429E+001,-6.10442E-001,1.19818E-001,1.89475E+000,-4.89924E-001,1.21551E-001,1.96083E+000,7.87962E-003,6.07110E-001,0,2.93775E+001,-8.19090E+000,9.99475E-001,-1.24314E+001,-4.80458E+001,9.98790E-001,9.99361E-002,-4.09322E-002,-1.29452E-004,9.99363E-002,-4.09323E-002,-5.26525E-002,1.00479E-001,1.10505E+000,1.09739E-002,0.00000E+000,-9.74543E-003,9.61588E-001,0.00000E+000,-3.22078E-004,-6.03069E-002,1.00000E+000,17
639,1337,-1.71314E+001,2.37570E-003,5.47660E-002,1.89961E+000,-5.12889E-001,7.95652E-002,1.96924E+000,8.77603E-003,6.47101E-001,0,2.95710E+001,-8.46764E+000,9.99360E-001,-1.22926E+001,-4.84707E+001,9.98785E-001,9.79446E-002,-4.09323E-002,-3.41999E-004,9.79454E-002,-4.09331E-002,-1.41096E-001,9.83844E-002,1.10285E+000,1.09513E-002,0.00000E+000,-1.00975E-002,9.61585E-001,0.00000E+000,-1.29933E-003,-6.03169E-002,1.00000E+000,17
1219,1317,2.50813E+001,-5.61263E-001,-7.62550E-002,6.30603E+000,-1.23084E-001,-4.21780E-002,6.30737E+000,1.30598E-002,4.89808E-001,0,9.46661E+001,-2.67909E+000,9.99339E-001,5.96567E+001,-3.13273E+001,9.97420E-001,1.12230E-001,-4.58882E-002,-3.90478E-004,1.12231E-001,-4.58892E-002,-1.41493E-001,1.12850E-001,1.11870E+000,-1.34070E-002,0.00000E+000,1.10231E-002,9.56926E-001,0.00000E+000,-5.87917E-003,-6.20402E-002,1.00000E+000,17
1219,1327,2.51022E+001,6.61292E-002,-9.33271E-002,6.30409E+000,-1.46848E-001,-7.97563E-002,6.30630E+000,6.81566E-003,4.14172E-001,0,9.47788E+001,-2.99662E+000,9.99711E-001,6.00084E+001,-3.15831E+001,9.98824E-001,1.13023E-001,-4.58892E-002,-3.83099E-004,1.13024E-001,-4.58902E-002,-1.38125E-001,1.13687E-001,1.11959E+000,-1.33763E-002,0.00000E+000,1.09703E-002,9.56924E-001,0.00000E+000,-5.34514E-003,-6.20217E-002,1.00000E+000,17
1219,1337,2.51363E+001,6.99948E-001,-6.01800E-002,6.30202E+000,-1.75863E-001,-1.18088E-001,6.30558E+000,9.37521E-003,4.57125E-001,0,9.48835E+001,-3.38961E+000,9.99451E-001,6.06398E+001,-3.17923E+001,9.98316E-001,1.13826E-001,-4.58907E-002,-3.67804E-004,1.13827E-001,-4.58916E-002,-1.31943E-001,1.14536E-001,1.12049E+000,-1.33274E-002,0.00000E+000,1.09168E-002,9.56921E-001,0.00000E+000,-4.80356E-003,-6.19922E-002,1.00000E+000,17
1219,1297,2.50705E+001,-1.78898E+000,4.07412E-002,6.32258E+000,-5.20920E-002,4.56869E-002,6.32295E+000,1.03066E-002,3.95957E-001,0,9.45528E+001,-1.69615E+000,9.99272E-001,5.95566E+001,-3.06985E+001,9.97303E-001,1.10641E-001,-4.58868E-002,-3.94474E-004,1.10642E-001,-4.58878E-002,-1.44393E-001,1.11177E-001,1.11693E+000,-1.34441E-002,0.00000E+000,1.11288E-002,9.56928E-001,0.00000E+000,-6.94707E-003,-6.20626E-002,1.00000E+000,17
1219,1307,2.50743E+001,-1.17668E+000,-2.24253E-002,6.31461E+000,-8.79299E-002,4.57393E-003,6.31522E+000,1.28868E-002,4.51252E-001,0,9.46044E+001,-2.20506E+000,9.99262E-001,5.95740E+001,-3.10228E+001,9.96929E-001,1.11435E-001,-4.58875E-002,-3.93630E-004,1.11436E-001,-4.58884E-002,-1.43356E-001,1.12013E-001,1.11782E+000,-1.34282E-002,0.00000E+000,1.10760E-002,9.56927E-001,0.00000E+000,-6.41382E-003,-6.20530E-002,1.00000E+000,17
629,1347,-1.78176E+001,6.12236E-001,2.21863E-002,1.84211E+000,-5.35117E-001,4.25215E-002,1.91873E+000,9.49524E-003,6.00625E-001,0,2.87939E+001,-8.72343E+000,9.98929E-001,-1.27122E+001,-4.91575E+001,9.98395E-001,9.50059E-002,-4.12182E-002,-5.51921E-004,9.50081E-002,-4.12204E-002,-2.32133E-001,9.52848E-002,1.09959E+000,1.31225E-002,0.00000E+000,-1.23661E-002,9.61236E-001,0.00000E+000,-2.23617E-003,-5.95125E-002,1.00000E+000,17
629,1357,-1.77903E+001,1.23323E+000,3.73299E-002,1.85120E+000,-5.58381E-001,1.27761E-002,1.93363E+000,7.87261E-003,5.85605E-001,0,2.90146E+001,-9.02825E+000,9.99069E-001,-1.20998E+001,-4.96617E+001,9.98801E-001,9.30734E-002,-4.12205E-002,-6.40755E-004,9.30765E-002,-4.12236E-002,-2.73367E-001,9.32785E-002,1.09747E+000,1.30633E-002,0.00000E+000,-1.24545E-002,9.61234E-001,0.00000E+000,-3.16311E-003,-5.95384E-002,1.00000E+000,17
629,1327,-1.78490E+001,-6.09131E-001,1.14877E-001,1.82889E+000,-4.82838E-001,1.18921E-001,1.89529E+000,7.84201E-003,5.89932E-001,0,2.83750E+001,-8.05903E+000,9.99238E-001,-1.32252E+001,-4.81234E+001,9.98647E-001,9.88342E-002,-4.12177E-002,-4.01891E-004,9.88353E-002,-4.12189E-002,-1.64414E-001,9.92877E-002,1.10381E+000,1.31817E-002,0.00000E+000,-1.21902E-002,9.61239E-001,0.00000E+000,-3.93064E-004,-5.94866E-002,1.00000E+000,17
629,1337,-1.78340E+001,-3.95368E-004,5.34953E-002,1.83724E+000,-5.09582E-001,8.01417E-002,1.90829E+000,8.56262E-003,6.32816E-001,0,2.86143E+001,-8.40632E+000,9.99156E-001,-1.30236E+001,-4.86187E+001,9.98814E-001,9.69234E-002,-4.12174E-002,-4.73246E-004,9.69250E-002,-4.12190E-002,-1.96282E-001,9.72852E-002,1.10170E+000,1.31601E-002,0.00000E+000,-1.22781E-002,9.61238E-001,0.00000E+000,-1.31414E-003,-5.94960E-002,1.00000E+000,17
1229,1317,2.58322E+001,-5.42704E-001,-7.82484E-002,6.39033E+000,-1.10905E-001,-4.70645E-002,6.39146E+000,1.20241E-002,4.76078E-001,0,9.58674E+001,-2.49087E+000,9.99333E-001,6.13824E+001,-3.09491E+001,9.98664E-001,1.12046E-001,-4.56690E-002,7.95316E-005,1.12046E-001,-4.56690E-002,2.88928E-002,1.12682E-001,1.11851E+000,-1.22828E-002,0.00000E+000,1.09298E-002,9.57092E-001,0.00000E+000,-5.23613E-003,-6.12942E-002,1.00000E+000,17
1229,1327,2.58481E+001,7.77772E-002,-9.69607E-002,6.38296E+000,-1.44869E-001,-8.76027E-002,6.38520E+000,8.56915E-003,4.92818E-001,0,9.59158E+001,-2.95963E+000,9.99468E-001,6.16538E+001,-3.12615E+001,9.98460E-001,1.12793E-001,-4.56681E-002,1.06779E-004,1.12793E-001,-4.56681E-002,3.86085E-002,1.13472E-001,1.11934E+000,-1.22532E-002,0.00000E+000,1.09068E-002,9.57091E-001,0.00000E+000,-4.51720E-003,-6.12686E-002,1.00000E+000,17
1229,1337,2.58822E+001,7.12649E-001,-7.44053E-002,6.38359E+000,-1.67822E-001,-1.25389E-001,6.38703E+000,8.90788E-003,4.42008E-001,0,9.60591E+001,-3.27107E+000,9.99326E-001,6.22668E+001,-3.14761E+001,9.98113E-001,1.13542E-001,-4.56668E-002,1.39670E-004,1.13542E-001,-4.56670E-002,5.02642E-002,1.14263E-001,1.12018E+000,-1.22108E-002,0.00000E+000,1.08839E-002,9.57090E-001,0.00000E+000,-3.79668E-003,-6.12321E-002,1.00000E+000,17
629,1317,-1.78611E+001,-1.20837E+000,2.05180E-001,1.81875E+000,-4.53610E-001,1.60247E-001,1.88130E+000,9.07407E-003,6.64891E-001,0,2.80983E+001,-7.68781E+000,9.99314E-001,-1.32992E+001,-4.74847E+001,9.98536E-001,1.00725E-001,-4.12190E-002,-3.37750E-004,1.00726E-001,-4.12198E-002,-1.36332E-001,1.01277E-001,1.10589E+000,1.31885E-002,0.00000E+000,-1.21031E-002,9.61239E-001,0.00000E+000,5.20545E-004,-5.94836E-002,1.00000E+000,17
1229,1297,2.58185E+001,-1.77402E+000,3.98396E-002,6.40364E+000,-4.45261E-002,3.97835E-002,6.40392E+000,1.08532E-002,4.43431E-001,0,9.57094E+001,-1.58708E+000,9.99075E-001,6.12392E+001,-3.03515E+001,9.96407E-001,1.10556E-001,-4.56703E-002,3.62052E-005,1.10556E-001,-4.56703E-002,1.32782E-002,1.11111E-001,1.11685E+000,-1.23172E-002,0.00000E+000,1.09754E-002,9.57093E-001,0.00000E+000,-6.66580E-003,-6.13238E-002,1.00000E+000,17
1229,1307,2.58282E+001,-1.15758E+000,-2.28321E-002,6.40296E+000,-7.51427E-002,4.46364E-003,6.40340E+000,1.51560E-002,4.58504E-001,0,9.58459E+001,-2.01858E+000,9.98968E-001,6.13509E+001,-3.06301E+001,9.97137E-001,1.11300E-001,-4.56697E-002,5.61136E-005,1.11300E-001,-4.56697E-002,2.04821E-002,1.11895E-001,1.11768E+000,-1.23039E-002,0.00000E+000,1.09526E-002,9.57092E-001,0.00000E+000,-5.95228E-003,-6.13124E-002,1.00000E+000,17
619,1327,-1.85564E+001,-6.09515E-001,1.11642E-001,1.76109E+000,-4.77688E-001,1.16676E-001,1.82845E+000,6.15834E-003,5.86071E-001,0,2.73399E+001,-7.96427E+000,9.99288E-001,-1.40302E+001,-4.82243E+001,9.99090E-001,9.79518E-002,-4.08286E-002,-5.88685E-004,9.79543E-002,-4.08311E-002,-2.43034E-001,9.84049E-002,1.10280E+000,1.54845E-002,0.00000E+000,-1.45614E-002,9.61538E-001,0.00000E+000,-4.82736E-004,-5.87498E-002,1.00000E+000,17
619,1337,-1.85389E+001,4.98512E-004,5.65414E-002,1.77124E+000,-5.03549E-001,7.95727E-002,1.84314E+000,7.29798E-003,6.32619E-001,0,2.76015E+001,-8.30428E+000,9.98799E-001,-1.37719E+001,-4.87132E+001,9.98603E-001,9.59926E-002,-4.08286E-002,-5.88660E-004,9.59952E-002,-4.08311E-002,-2.46504E-001,9.63512E-002,1.10065E+000,1.54601E-002,0.00000E+000,-1.45200E-002,9.61539E-001,0.00000E+000,-1.30574E-003,-5.87591E-002,1.00000E+000,17
619,1347,-1.85197E+001,6.14473E-001,2.19132E-002,1.78030E+000,-5.26542E-001,4.58495E-002,1.85710E+000,9.04652E-003,6.13348E-001,0,2.78351E+001,-8.59638E+000,9.98687E-001,-1.34257E+001,-4.92193E+001,9.98365E-001,9.40293E-002,-4.08286E-002,-5.92916E-004,9.40319E-002,-4.08312E-002,-2.51900E-001,9.43027E-002,1.09849E+000,1.54262E-002,0.00000E+000,-1.44787E-002,9.61539E-001,0.00000E+000,-2.12854E-003,-5.87720E-002,1.00000E+000,17
619,1357,-1.84924E+001,1.23538E+000,3.04263E-002,1.79052E+000,-5.48738E-001,1.51791E-002,1.87278E+000,7.93644E-003,5.96221E-001,0,2.80757E+001,-8.88278E+000,9.99188E-001,-1.28311E+001,-4.97131E+001,9.99042E-001,9.20511E-002,-4.08286E-002,-6.07389E-004,9.20539E-002,-4.08314E-002,-2.61890E-001,9.22492E-002,1.09632E+000,1.53697E-002,0.00000E+000,-1.44371E-002,9.61541E-001,0.00000E+000,-2.95549E-003,-5.87935E-002,1.00000E+000,17
619,1317,-1.85661E+001,-1.20582E+000,2.03608E-001,1.75349E+000,-4.44078E-001,1.60169E-001,1.81593E+000,1.06910E-002,6.16925E-001,0,2.70969E+001,-7.53198E+000,9.99143E-001,-1.40603E+001,-4.75638E+001,9.98409E-001,9.98949E-002,-4.08286E-002,-5.96396E-004,9.98974E-002,-4.08312E-002,-2.42818E-001,1.00451E-001,1.10495E+000,1.54916E-002,0.00000E+000,-1.46025E-002,9.61538E-001,0.00000E+000,3.35442E-004,-5.87470E-002,1.00000E+000,17
1239,1307,2.65672E+001,-1.14811E+000,-3.74415E-002,6.47666E+000,-7.03937E-002,-6.91076E-003,6.47704E+000,1.54779E-002,4.55274E-001,0,9.69172E+001,-1.94250E+000,9.98865E-001,6.28773E+001,-3.03639E+001,9.97461E-001,1.10976E-001,-4.52615E-002,2.62362E-004,1.10976E-001,-4.52619E-002,9.62138E-002,1.11603E-001,1.11732E+000,-1.14255E-002,0.00000E+000,1.05920E-002,9.57442E-001,0.00000E+000,-5.77177E-003,-6.05374E-002,1.00000E+000,17
1239,1317,2.65791E+001,-5.25069E-001,-8.84412E-002,6.47223E+000,-9.71711E-002,-5.27208E-002,6.47318E+000,1.36045E-002,4.22582E-001,0,9.70350E+001,-2.27943E+000,9.99083E-001,6.30398E+001,-3.05878E+001,9.98382E-001,1.11764E-001,-4.52565E-002,3.45544E-004,1.11765E-001,-4.52573E-002,1.26086E-001,1.12437E-001,1.11820E+000,-1.14035E-002,0.00000E+000,1.06637E-002,9.57444E-001,0.00000E+000,-4.70697E-003,-6.05107E-002,1.00000E+000,17
1239,1327,2.65991E+001,9.66281E-002,-8.85799E-002,6.46411E+000,-1.34854E-001,-9.20117E-002,6.46617E+000,1.11839E-002,4.90164E-001,0,9.70656E+001,-2.79957E+000,9.99139E-001,6.33986E+001,-3.08948E+001,9.98345E-001,1.12560E-001,-4.52491E-002,4.36532E-004,1.12561E-001,-4.52503E-002,1.58491E-001,1.13279E-001,1.11909E+000,-1.13657E-002,0.00000E+000,1.07361E-002,9.57447E-001,0.00000E+000,-3.63031E-003,-6.04647E-002,1.00000E+000,17
1239,1337,2.66244E+001,7.29734E-001,-7.23461E-002,6.45942E+000,-1.56829E-001,-1.22225E-001,6.46248E+000,9.77138E-003,4.24088E-001,0,9.71017E+001,-3.11964E+000,9.98886E-001,6.38629E+001,-3.11302E+001,9.97212E-001,1.13347E-001,-4.52413E-002,5.27938E-004,1.13349E-001,-4.52430E-002,1.90734E-001,1.14115E-001,1.11997E+000,-1.13256E-002,0.00000E+000,1.08080E-002,9.57450E-001,0.00000E+000,-2.56132E-003,-6.04159E-002,1.00000E+000,17
1239,1297,2.65629E+001,-1.76276E+000,3.55960E-002,6.48175E+000,-3.83470E-002,3.47455E-002,6.48196E+000,9.86203E-003,4.59523E-001,0,9.68181E+001,-1.51196E+000,9.99110E-001,6.28645E+001,-3.00710E+001,9.97336E-001,1.10188E-001,-4.52649E-002,1.83461E-004,1.10188E-001,-4.52651E-002,6.76185E-002,1.10771E-001,1.11645E+000,-1.14382E-002,0.00000E+000,1.05205E-002,9.57441E-001,0.00000E+000,-6.83370E-003,-6.05528E-002,1.00000E+000,17
609,1347,-1.92206E+001,6.15935E-001,2.48191E-002,1.71835E+000,-5.19975E-001,4.69433E-002,1.79591E+000,1.13527E-002,6.39078E-001,0,2.68792E+001,-8.49557E+000,9.98584E-001,-1.41074E+001,-4.92933E+001,9.98221E-001,9.31264E-002,-3.99724E-002,-8.02183E-004,9.31312E-002,-3.99773E-002,-3.45303E-001,9.34414E-002,1.09747E+000,1.75280E-002,0.00000E+000,-1.67609E-002,9.62263E-001,0.00000E+000,-1.86581E-003,-5.76417E-002,1.00000E+000,17
609,1357,-1.91951E+001,1.24031E+000,2.81497E-002,1.72787E+000,-5.37596E-001,1.64447E-002,1.80965E+000,8.83299E-003,6.22759E-001,0,2.71072E+001,-8.71261E+000,9.99151E-001,-1.35524E+001,-4.97244E+001,9.98844E-001,9.11431E-002,-3.99721E-002,-7.86578E-004,9.11479E-002,-3.99768E-002,-3.43709E-001,9.13767E-002,1.09529E+000,1.74751E-002,0.00000E+000,-1.66645E-002,9.62266E-001,0.00000E+000,-2.77548E-003,-5.76639E-002,1.00000E+000,17
609,1317,-1.92747E+001,-1.20606E+000,1.99458E-001,1.68358E+000,-4.38756E-001,1.54213E-001,1.74663E+000,1.13983E-002,6.20801E-001,0,2.60379E+001,-7.44044E+000,9.99265E-001,-1.48813E+001,-4.76554E+001,9.98049E-001,9.90154E-002,-3.99715E-002,-8.90930E-004,9.90211E-002,-3.99772E-002,-3.67255E-001,9.96311E-002,1.10394E+000,1.75928E-002,0.00000E+000,-1.70488E-002,9.62260E-001,0.00000E+000,8.48956E-004,-5.76145E-002,1.00000E+000,17
609,1327,-1.92609E+001,-6.10470E-001,1.09215E-001,1.69578E+000,-4.74128E-001,1.15337E-001,1.76459E+000,8.00429E-003,6.26738E-001,0,2.63404E+001,-7.90347E+000,9.99216E-001,-1.47845E+001,-4.83133E+001,9.98590E-001,9.70612E-002,-3.99722E-002,-8.54204E-004,9.70665E-002,-3.99775E-002,-3.57137E-001,9.75680E-002,1.10179E+000,1.75873E-002,0.00000E+000,-1.69531E-002,9.62261E-001,0.00000E+000,-5.41703E-005,-5.76169E-002,1.00000E+000,17
609,1337,-1.92415E+001,2.14084E-003,5.65573E-002,1.70790E+000,-4.95692E-001,8.02041E-002,1.78019E+000,9.43967E-003,6.21983E-001,0,2.66256E+001,-8.17878E+000,9.98693E-001,-1.44885E+001,-4.87948E+001,9.98250E-001,9.51000E-002,-3.99724E-002,-8.25863E-004,9.51051E-002,-3.99775E-002,-3.50302E-001,9.55064E-002,1.09963E+000,1.75630E-002,0.00000E+000,-1.68572E-002,9.62262E-001,0.00000E+000,-9.58236E-004,-5.76270E-002,1.00000E+000,17
1249,1297,2.73107E+001,-1.74537E+000,4.08675E-002,6.56127E+000,-2.80290E-002,3.35486E-002,6.56141E+000,1.13818E-002,5.09246E-001,0,9.79268E+001,-1.38038E+000,9.99236E-001,6.45605E+001,-2.96986E+001,9.97688E-001,1.09512E-001,-4.47085E-002,3.55874E-004,1.09513E-001,-4.47093E-002,1.32213E-001,1.10126E-001,1.11571E+000,-1.01784E-002,0.00000E+000,9.81073E-003,9.57949E-001,0.00000E+000,-7.31993E-003,-5.99837E-002,1.00000E+000,17
1249,1307,2.73095E+001,-1.13507E+000,-4.39093E-002,6.55309E+000,-6.27608E-002,-1.04018E-002,6.55340E+000,1.48678E-002,4.73381E-001,0,9.79937E+001,-1.84026E+000,9.99134E-001,6.44708E+001,-3.00487E+001,9.97227E-001,1.10429E-001,-4.46998E-002,5.77332E-004,1.10432E-001,-4.47020E-002,2.13229E-001,1.11097E-001,1.11673E+000,-1.01675E-002,0.00000E+000,1.01350E-002,9.57952E-001,0.00000E+000,-5.86018E-003,-5.99680E-002,1.00000E+000,17
1249,1317,2.73181E+001,-5.17109E-001,-9.70702E-002,6.54630E+000,-9.39411E-002,-5.45366E-002,6.54720E+000,1.28689E-002,4.11098E-001,0,9.80732E+001,-2.23935E+000,9.98612E-001,6.45784E+001,-3.03604E+001,9.97358E-001,1.11347E-001,-4.46856E-002,8.05376E-004,1.11351E-001,-4.46897E-002,2.95727E-001,1.12071E-001,1.11775E+000,-1.01433E-002,0.00000E+000,1.04605E-002,9.57960E-001,0.00000E+000,-4.39510E-003,-5.99333E-002,1.00000E+000,17
1249,1327,2.73375E+001,1.13859E-001,-1.06722E-001,6.54012E+000,-1.19221E-001,-9.31225E-002,6.54187E+000,1.12290E-002,4.42673E-001,0,9.81275E+001,-2.58302E+000,9.98751E-001,6.49134E+001,-3.05188E+001,9.98224E-001,1.12268E-001,-4.46646E-002,1.04202E-003,1.12275E-001,-4.46715E-002,3.80415E-001,1.13053E-001,1.11877E+000,-1.01033E-002,0.00000E+000,1.07885E-002,9.57973E-001,0.00000E+000,-2.91867E-003,-5.98757E-002,1.00000E+000,17
1249,1337,2.73648E+001,7.47957E-001,-8.26699E-002,6.53456E+000,-1.44187E-001,-1.25689E-001,6.53736E+000,8.89170E-003,4.29110E-001,0,9.81598E+001,-2.93503E+000,9.99337E-001,6.54187E+001,-3.07280E+001,9.98853E-001,1.13188E-001,-4.46387E-002,1.28398E-003,1.13199E-001,-4.46492E-002,4.66081E-001,1.14037E-001,1.11980E+000,-1.00519E-002,0.00000E+000,1.11171E-002,9.57989E-001,0.00000E+000,-1.43930E-003,-5.98017E-002,1.00000E+000,17
1259,1327,2.80802E+001,1.26346E-001,-1.10687E-001,6.61639E+000,-1.11361E-001,-9.36113E-002,6.61799E+000,9.43689E-003,4.04451E-001,0,9.91891E+001,-2.47549E+000,9.99409E-001,6.65194E+001,-3.02428E+001,9.98829E-001,1.12086E-001,-4.43959E-002,1.62416E-003,1.12103E-001,-4.44128E-002,5.94599E-001,1.12906E-001,1.11857E+000,-9.16483E-003,0.00000E+000,1.10360E-002,9.58178E-001,0.00000E+000,-1.64214E-003,-5.89797E-002,1.00000E+000,17
1259,1337,2.81094E+001,7.58344E-001,-8.78372E-002,6.61204E+000,-1.39207E-001,-1.29019E-001,6.61477E+000,8.57262E-003,3.99277E-001,0,9.92526E+001,-2.86538E+000,9.99608E-001,6.70498E+001,-3.04760E+001,9.99354E-001,1.13010E-001,-4.43589E-002,1.95535E-003,1.13035E-001,-4.43832E-002,7.11767E-001,1.13900E-001,1.11961E+000,-9.11196E-003,0.00000E+000,1.15155E-002,9.58202E-001,0.00000E+000,2.21302E-004,-5.88846E-002,1.00000E+000,17
599,1347,-1.99164E+001,6.25863E-001,3.14032E-002,1.66059E+000,-5.04917E-001,4.87318E-002,1.73634E+000,1.05055E-002,6.57148E-001,0,2.59835E+001,-8.26727E+000,9.99183E-001,-1.46940E+001,-4.92488E+001,9.99107E-001,9.26933E-002,-4.01018E-002,-5.66482E-004,9.26957E-002,-4.01042E-002,-2.44408E-001,9.29757E-002,1.09696E+000,1.92887E-002,0.00000E+000,-1.78706E-002,9.62054E-001,0.00000E+000,-1.55303E-003,-5.64592E-002,1.00000E+000,17
599,1357,-1.98890E+001,1.24252E+000,3.33088E-002,1.67268E+000,-5.29926E-001,1.96031E-002,1.75473E+000,7.13238E-003,6.38812E-001,0,2.62496E+001,-8.59793E+000,9.99383E-001,-1.41141E+001,-4.97977E+001,9.99159E-001,9.08369E-002,-4.00994E-002,-3.47835E-004,9.08378E-002,-4.01003E-002,-1.52206E-001,9.10452E-002,1.09493E+000,1.92412E-002,0.00000E+000,-1.73865E-002,9.62065E-001,0.00000E+000,-2.52265E-003,-5.64819E-002,1.00000E+000,17
1259,1287,2.80557E+001,-2.34490E+000,1.23078E-001,6.64310E+000,1.26258E-002,6.29189E-002,6.64341E+000,1.26402E-002,4.24749E-001,0,9.89346E+001,-7.85404E-001,9.98880E-001,6.62766E+001,-2.91490E+001,9.94978E-001,1.08380E-001,-4.44655E-002,3.67655E-004,1.08381E-001,-4.44664E-002,1.37818E-001,1.08961E-001,1.11447E+000,-9.24556E-003,0.00000E+000,9.13695E-003,9.58140E-001,0.00000E+000,-9.02136E-003,-5.91250E-002,1.00000E+000,17
1259,1297,2.80500E+001,-1.73558E+000,1.99080E-002,6.63599E+000,-2.19290E-002,2.17588E-002,6.63606E+000,1.06844E-002,4.71246E-001,0,9.90116E+001,-1.26568E+000,9.98894E-001,6.60921E+001,-2.94332E+001,9.96574E-001,1.09310E-001,-4.44589E-002,6.72797E-004,1.09313E-001,-4.44618E-002,2.50684E-001,1.09945E-001,1.11550E+000,-9.24332E-003,0.00000E+000,9.60990E-003,9.58141E-001,0.00000E+000,-7.18357E-003,-5.91209E-002,1.00000E+000,17
1259,1307,2.80529E+001,-1.12032E+000,-5.51780E-002,6.63060E+000,-5.33833E-002,-1.71106E-002,6.63084E+000,1.06881E-002,4.58720E-001,0,9.90974E+001,-1.68613E+000,9.99108E-001,6.60801E+001,-2.97131E+001,9.97447E-001,1.10237E-001,-4.44458E-002,9.83341E-004,1.10243E-001,-4.44520E-002,3.64218E-001,1.10930E-001,1.11652E+000,-9.23025E-003,0.00000E+000,1.00838E-002,9.58147E-001,0.00000E+000,-5.34194E-003,-5.90974E-002,1.00000E+000,17
599,1327,-1.99624E+001,-5.96741E-001,1.18242E-001,1.63175E+000,-4.56320E-001,1.17194E-001,1.69840E+000,8.58628E-003,6.27006E-001,0,2.53468E+001,-7.61767E+000,9.99272E-001,-1.54503E+001,-4.82213E+001,9.98631E-001,9.63750E-002,-4.00972E-002,-1.02022E-003,9.63827E-002,-4.01049E-002,-4.28293E-001,9.68339E-002,1.10100E+000,1.93422E-002,0.00000E+000,-1.88344E-002,9.62041E-001,0.00000E+000,3.77263E-004,-5.64337E-002,1.00000E+000,17
599,1337,-1.99428E+001,9.23464E-003,5.41152E-002,1.64561E+000,-4.82975E-001,7.92205E-002,1.71685E+000,7.62701E-003,6.34686E-001,0,2.56679E+001,-7.97447E+000,9.99144E-001,-1.51863E+001,-4.87757E+001,9.99072E-001,9.45413E-002,-4.01015E-002,-7.90032E-004,9.45459E-002,-4.01061E-002,-3.36174E-001,9.49074E-002,1.09899E+000,1.93243E-002,0.00000E+000,-1.83537E-002,9.62045E-001,0.00000E+000,-5.85372E-004,-5.64423E-002,1.00000E+000,17
1259,1317,2.80631E+001,-4.99980E-001,-9.65198E-002,6.62494E+000,-8.31661E-002,-5.05672E-002,6.62565E+000,1.03784E-002,4.44451E-001,0,9.91493E+001,-2.10198E+000,9.99345E-001,6.62272E+001,-2.99878E+001,9.98212E-001,1.11162E-001,-4.44255E-002,1.29989E-003,1.11173E-001,-4.44363E-002,4.78644E-001,1.11916E-001,1.11755E+000,-9.20527E-003,0.00000E+000,1.05591E-002,9.58159E-001,0.00000E+000,-3.49528E-003,-5.90525E-002,1.00000E+000,17
599,1317,-1.99809E+001,-1.19986E+000,2.04311E-001,1.61469E+000,-4.29456E-001,1.50866E-001,1.67762E+000,1.09552E-002,6.07539E-001,0,2.49852E+001,-7.25946E+000,9.99209E-001,-1.56312E+001,-4.76755E+001,9.98731E-001,9.82024E-002,-4.00900E-002,-1.25615E-003,9.82138E-002,-4.01014E-002,-5.20377E-001,9.87628E-002,1.10302E+000,1.93467E-002,0.00000E+000,-1.93145E-002,9.62040E-001,0.00000E+000,1.33898E-003,-5.64316E-002,1.00000E+000,17
589,1347,-2.06186E+001,6.34540E-001,3.38173E-002,1.59678E+000,-4.90621E-001,5.08744E-002,1.67123E+000,7.98651E-003,6.47460E-001,0,2.49917E+001,-8.03414E+000,9.99206E-001,-1.53859E+001,-4.92294E+001,9.99121E-001,9.22919E-002,-3.99521E-002,-6.04894E-005,9.22919E-002,-3.99521E-002,-2.62075E-002,9.25686E-002,1.09648E+000,2.15830E-002,0.00000E+000,-1.89151E-002,9.62118E-001,0.00000E+000,-1.54478E-003,-5.53537E-002,1.00000E+000,17
589,1357,-2.05879E+001,1.25183E+000,4.04166E-002,1.61174E+000,-5.16008E-001,2.31208E-002,1.69248E+000,6.19856E-003,6.42339E-001,0,2.52986E+001,-8.36947E+000,9.99337E-001,-1.47407E+001,-4.97739E+001,9.99392E-001,9.04291E-002,-3.99502E-002,1.59499E-004,9.04293E-002,-3.99504E-002,7.00924E-002,9.06334E-002,1.09444E+000,2.15342E-002,0.00000E+000,-1.84349E-002,9.62130E-001,0.00000E+000,-2.46210E-003,-5.53757E-002,1.00000E+000,17
589,1337,-2.06424E+001,1.64704E-002,6.19985E-002,1.58337E+000,-4.70832E-001,8.11005E-002,1.65388E+000,6.25561E-003,6.25838E-001,0,2.47020E+001,-7.78033E+000,9.99463E-001,-1.58231E+001,-4.87874E+001,9.99440E-001,9.41433E-002,-3.99503E-002,-2.87064E-004,9.41439E-002,-3.99510E-002,-1.22656E-001,9.45023E-002,1.09851E+000,2.16152E-002,0.00000E+000,-1.93935E-002,9.62111E-001,0.00000E+000,-6.30735E-004,-5.53392E-002,1.00000E+000,17
589,1327,-2.06584E+001,-5.81065E-001,1.24460E-001,1.57327E+000,-4.36546E-001,1.18747E-001,1.63703E+000,1.15850E-002,6.86457E-001,0,2.44393E+001,-7.32603E+000,9.99538E-001,-1.60350E+001,-4.80633E+001,9.98733E-001,9.59788E-002,-3.99455E-002,-5.18344E-004,9.59807E-002,-3.99475E-002,-2.18492E-001,9.64290E-002,1.10052E+000,2.16336E-002,0.00000E+000,-1.98690E-002,9.62106E-001,0.00000E+000,2.77661E-004,-5.53310E-002,1.00000E+000,17
1269,1327,2.88293E+001,1.40894E-001,-1.07847E-001,6.69809E+000,-1.03546E-001,-8.88347E-002,6.69948E+000,8.69864E-003,4.07611E-001,0,1.00307E+002,-2.37287E+000,9.99481E-001,6.82377E+001,-2.99286E+001,9.98752E-001,1.11965E-001,-4.39487E-002,2.10670E-003,1.11994E-001,-4.39772E-002,7.73987E-001,1.12851E-001,1.11845E+000,-8.23320E-003,0.00000E+000,1.11289E-002,9.58494E-001,0.00000E+000,-8.69328E-004,-5.69462E-002,1.00000E+000,17
1269,1337,2.88629E+001,7.68733E-001,-8.16884E-002,6.69701E+000,-1.35607E-001,-1.24247E-001,6.69954E+000,8.69401E-003,3.94315E-001,0,1.00421E+002,-2.83455E+000,9.99388E-001,6.88380E+001,-3.02359E+001,9.98357E-001,1.12931E-001,-4.39026E-002,2.50644E-003,1.12971E-001,-4.39427E-002,9.15363E-001,1.13895E-001,1.11953E+000,-8.17606E-003,0.00000E+000,1.17378E-002,9.58526E-001,0.00000E+000,1.05403E-003,-5.68448E-002,1.00000E+000,17
589,1317,-2.06801E+001,-1.18645E+000,2.19133E-001,1.55261E+000,-4.11936E-001,1.59293E-001,1.61420E+000,9.23288E-003,5.98548E-001,0,2.40045E+001,-6.99013E+000,9.98930E-001,-1.62403E+001,-4.76029E+001,9.97768E-001,9.78110E-002,-3.99373E-002,-7.56378E-004,9.78151E-002,-3.99415E-002,-3.14599E-001,9.83615E-002,1.10254E+000,2.16371E-002,0.00000E+000,-2.03448E-002,9.62105E-001,0.00000E+000,1.18672E-003,-5.53294E-002,1.00000E+000,17
1269,1317,2.88135E+001,-4.84732E-001,-9.53957E-002,6.70595E+000,-7.45582E-002,-5.57958E-002,6.70660E+000,8.98689E-003,4.07793E-001,0,1.00296E+002,-1.96140E+000,9.99424E-001,6.79660E+001,-2.96800E+001,9.98497E-001,1.10999E-001,-4.39822E-002,1.71632E-003,1.11018E-001,-4.40012E-002,6.34411E-001,1.11811E-001,1.11737E+000,-8.27218E-003,0.00000E+000,1.05227E-002,9.58472E-001,0.00000E+000,-2.78412E-003,-5.70154E-002,1.00000E+000,17
1269,1307,2.88019E+001,-1.10609E+000,-5.08493E-002,6.71022E+000,-4.60136E-002,-1.91114E-002,6.71040E+000,9.62073E-003,4.46526E-001,0,1.00209E+002,-1.57550E+000,9.99033E-001,6.78000E+001,-2.94176E+001,9.98020E-001,1.10033E-001,-4.40067E-002,1.33309E-003,1.10045E-001,-4.40182E-002,4.95798E-001,1.10776E-001,1.11630E+000,-8.29850E-003,0.00000E+000,9.91941E-003,9.58457E-001,0.00000E+000,-4.68992E-003,-5.70621E-002,1.00000E+000,17
1269,1297,2.87940E+001,-1.72524E+000,1.01337E-002,6.71316E+000,-1.71995E-002,1.49637E-002,6.71320E+000,1.06472E-002,4.42129E-001,0,1.00110E+002,-1.17167E+000,9.98990E-001,6.77151E+001,-2.91784E+001,9.97537E-001,1.09063E-001,-4.40252E-002,9.53898E-004,1.09069E-001,-4.40312E-002,3.56993E-001,1.09741E-001,1.11522E+000,-8.31641E-003,0.00000E+000,9.31685E-003,9.58447E-001,0.00000E+000,-6.59328E-003,-5.70939E-002,1.00000E+000,17
1269,1287,2.88022E+001,-2.33552E+000,1.20200E-001,6.72058E+000,1.51533E-002,5.47004E-002,6.72082E+000,1.55166E-002,4.23361E-001,0,1.00041E+002,-7.30451E-001,9.99149E-001,6.79471E+001,-2.89112E+001,9.96127E-001,1.08092E-001,-4.40303E-002,5.84838E-004,1.08095E-001,-4.40325E-002,2.20270E-001,1.08711E-001,1.11416E+000,-8.31509E-003,0.00000E+000,8.71692E-003,9.58448E-001,0.00000E+000,-8.48833E-003,-5.70915E-002,1.00000E+000,17
579,1347,-2.13167E+001,6.41834E-001,4.05691E-002,1.53602E+000,-4.78575E-001,5.31210E-002,1.60972E+000,6.66580E-003,6.48215E-001,0,2.40466E+001,-7.83836E+000,9.99236E-001,-1.59975E+001,-4.92351E+001,9.99367E-001,9.14552E-002,-3.97102E-002,4.46671E-004,9.14567E-002,-3.97118E-002,1.95112E-001,9.17202E-002,1.09551E+000,2.38584E-002,0.00000E+000,-1.99327E-002,9.62284E-001,0.00000E+000,-1.93432E-003,-5.44720E-002,1.00000E+000,17
579,1357,-2.12803E+001,1.26414E+000,4.68960E-002,1.55658E+000,-4.99271E-001,2.32280E-002,1.63485E+000,6.24449E-003,6.64059E-001,0,2.44451E+001,-8.10264E+000,9.99600E-001,-1.52628E+001,-4.96927E+001,9.99667E-001,8.94719E-002,-3.97088E-002,6.89387E-004,8.94756E-002,-3.97125E-002,3.05754E-001,8.96635E-002,1.09335E+000,2.38062E-002,0.00000E+000,-1.94077E-002,9.62296E-001,0.00000E+000,-2.94767E-003,-5.44964E-002,1.00000E+000,17
579,1337,-2.13446E+001,2.63692E-002,7.29878E-002,1.51834E+000,-4.56419E-001,8.75539E-002,1.58787E+000,6.69250E-003,6.23568E-001,0,2.36789E+001,-7.55448E+000,9.99102E-001,-1.64853E+001,-4.87623E+001,9.99273E-001,9.34249E-002,-3.97074E-002,1.96767E-004,9.34252E-002,-3.97077E-002,8.46819E-002,9.37747E-002,1.09767E+000,2.38922E-002,0.00000E+000,-2.04555E-002,9.62276E-001,0.00000E+000,-9.25198E-004,-5.44561E-002,1.00000E+000,17
579,1327,-2.13677E+001,-5.73217E-001,1.26515E-001,1.50164E+000,-4.24395E-001,1.19974E-001,1.56507E+000,7.97694E-003,6.71608E-001,0,2.33281E+001,-7.10830E+000,9.99508E-001,-1.68328E+001,-4.80557E+001,9.98747E-001,9.53765E-002,-3.97017E-002,-5.69992E-005,9.53765E-002,-3.97017E-002,-2.41772E-002,9.58213E-002,1.09981E+000,2.39134E-002,0.00000E+000,-2.09749E-002,9.62270E-001,0.00000E+000,7.73154E-005,-5.44462E-002,1.00000E+000,17
579,1317,-2.13833E+001,-1.17250E+000,2.19735E-001,1.48737E+000,-3.95213E-001,1.60687E-001,1.54734E+000,1.15099E-002,6.88992E-001,0,2.29924E+001,-6.73136E+000,9.98914E-001,-1.69466E+001,-4.74434E+001,9.97572E-001,9.73208E-002,-3.96920E-002,-3.17932E-004,9.73216E-002,-3.96928E-002,-1.32951E-001,9.78709E-002,1.10195E+000,2.39177E-002,0.00000E+000,-2.14937E-002,9.62269E-001,0.00000E+000,1.07879E-003,-5.44442E-002,1.00000E+000,17
1279,1317,2.95564E+001,-4.76625E-001,-9.93039E-002,6.78219E+000,-7.07299E-002,-5.35744E-002,6.78277E+000,8.00999E-003,3.91494E-001,0,1.01343E+002,-1.92835E+000,9.99278E-001,6.95815E+001,-2.94632E+001,9.97930E-001,1.10646E-001,-4.33458E-002,2.04698E-003,1.10673E-001,-4.33730E-002,7.61439E-001,1.11532E-001,1.11698E+000,-7.32332E-003,0.00000E+000,1.03180E-002,9.58979E-001,0.00000E+000,-2.15975E-003,-5.50254E-002,1.00000E+000,17
1279,1327,2.95820E+001,1.54250E-001,-1.06125E-001,6.78252E+000,-9.69528E-002,-8.64204E-002,6.78376E+000,1.21490E-002,4.20951E-001,0,1.01473E+002,-2.29193E+000,9.99095E-001,7.00134E+001,-2.96251E+001,9.98535E-001,1.11711E-001,-4.33039E-002,2.51583E-003,1.11752E-001,-4.33447E-002,9.29560E-001,1.12685E-001,1.11817E+000,-7.27741E-003,0.00000E+000,1.10624E-002,9.59007E-001,0.00000E+000,-3.56854E-005,-5.49435E-002,1.00000E+000,17
1279,1337,2.96141E+001,7.82767E-001,-7.94390E-002,6.77983E+000,-1.29890E-001,-1.20817E-001,6.78215E+000,9.39731E-003,4.24874E-001,0,1.01559E+002,-2.75680E+000,9.99339E-001,7.05888E+001,-2.99133E+001,9.98820E-001,1.12774E-001,-4.32488E-002,2.99344E-003,1.12831E-001,-4.33062E-002,1.09873E+000,1.13842E-001,1.11937E+000,-7.21433E-003,0.00000E+000,1.18096E-002,9.59047E-001,0.00000E+000,2.09589E-003,-5.48310E-002,1.00000E+000,17
1279,1307,2.95395E+001,-1.09679E+000,-6.17644E-002,6.78260E+000,-4.09714E-002,-1.93837E-002,6.78275E+000,9.52587E-003,4.50433E-001,0,1.01209E+002,-1.51443E+000,9.99188E-001,6.93264E+001,-2.91591E+001,9.97258E-001,1.09584E-001,-4.33765E-002,1.58803E-003,1.09600E-001,-4.33930E-002,5.94757E-001,1.10389E-001,1.11580E+000,-7.35464E-003,0.00000E+000,9.57968E-003,9.58959E-001,0.00000E+000,-4.26608E-003,-5.50812E-002,1.00000E+000,17
1279,1297,2.95388E+001,-1.71169E+000,1.68893E-002,6.78931E+000,-8.41105E-003,1.94966E-002,6.78935E+000,1.66855E-002,3.67262E-001,0,1.01140E+002,-1.04130E+000,9.99002E-001,6.93767E+001,-2.89320E+001,9.97722E-001,1.08516E-001,-4.33936E-002,1.13700E-003,1.08525E-001,-4.34021E-002,4.28808E-001,1.09247E-001,1.11462E+000,-7.36824E-003,0.00000E+000,8.84179E-003,9.58951E-001,0.00000E+000,-6.37133E-003,-5.51055E-002,1.00000E+000,17
1279,1287,2.95401E+001,-2.33561E+000,1.02056E-001,6.79380E+000,1.20606E-002,4.89078E-002,6.79399E+000,1.54914E-002,3.22673E-001,0,1.01079E+002,-7.38867E-001,9.99110E-001,6.94676E+001,-2.88392E+001,9.96893E-001,1.07446E-001,-4.34044E-002,6.90834E-004,1.07449E-001,-4.34076E-002,2.62384E-001,1.08108E-001,1.11344E+000,-7.37394E-003,0.00000E+000,8.10634E-003,9.58947E-001,0.00000E+000,-8.46963E-003,-5.51157E-002,1.00000E+000,17
569,1347,-2.20131E+001,6.55459E-001,4.59532E-002,1.47688E+000,-4.60293E-001,5.56758E-002,1.54795E+000,6.94209E-003,6.65210E-001,0,2.31236E+001,-7.54876E+000,9.99190E-001,-1.65801E+001,-4.91326E+001,9.99134E-001,9.09800E-002,-3.93657E-002,8.81490E-004,9.09860E-002,-3.93717E-002,3.87451E-001,9.12601E-002,1.09494E+000,2.62264E-002,0.00000E+000,-2.11827E-002,9.62548E-001,0.00000E+000,-2.06336E-003,-5.36771E-002,1.00000E+000,17
569,1357,-2.19791E+001,1.27170E+000,4.48582E-002,1.49643E+000,-4.84711E-001,2.60231E-002,1.57319E+000,6.90416E-003,6.63989E-001,0,2.35066E+001,-7.87900E+000,9.99415E-001,-1.59049E+001,-4.96778E+001,9.99172E-001,8.89344E-002,-3.93664E-002,1.18618E-003,8.89454E-002,-3.93773E-002,5.29655E-001,8.91398E-002,1.09271E+000,2.61774E-002,0.00000E+000,-2.05375E-002,9.62562E-001,0.00000E+000,-3.26712E-003,-5.37035E-002,1.00000E+000,17
569,1327,-2.20664E+001,-5.68266E-001,1.25453E-001,1.44105E+000,-4.14077E-001,1.22288E-001,1.50434E+000,1.21388E-002,6.96824E-001,0,2.23862E+001,-6.95093E+000,9.99592E-001,-1.74727E+001,-4.80647E+001,9.99114E-001,9.50349E-002,-3.93536E-002,2.57939E-004,9.50354E-002,-3.93541E-002,1.09970E-001,9.55018E-002,1.09938E+000,2.62858E-002,0.00000E+000,-2.24672E-002,9.62531E-001,0.00000E+000,3.33366E-004,-5.36451E-002,1.00000E+000,17
569,1337,-2.20414E+001,4.08939E-002,7.70458E-002,1.45806E+000,-4.38232E-001,8.50339E-002,1.52486E+000,6.42459E-003,6.38791E-001,0,2.27514E+001,-7.25007E+000,9.99288E-001,-1.70786E+001,-4.86421E+001,9.99274E-001,9.30145E-002,-3.93604E-002,5.70185E-004,9.30169E-002,-3.93629E-002,2.46787E-001,9.33821E-002,1.09717E+000,2.62587E-002,0.00000E+000,-2.18262E-002,9.62538E-001,0.00000E+000,-8.62592E-004,-5.36597E-002,1.00000E+000,17
1289,1327,3.03207E+001,1.61523E-001,-1.15018E-001,6.85541E+000,-9.41732E-002,-8.37989E-002,6.85657E+000,1.13583E-002,4.25068E-001,0,1.02469E+002,-2.27456E+000,9.98804E-001,7.15598E+001,-2.93992E+001,9.97755E-001,1.11408E-001,-4.24107E-002,2.90640E-003,1.11463E-001,-4.24656E-002,1.08208E+000,1.12511E-001,1.11784E+000,-6.12975E-003,0.00000E+000,1.08061E-002,9.59751E-001,0.00000E+000,7.09204E-004,-5.26497E-002,1.00000E+000,17
1289,1337,3.03548E+001,7.95180E-001,-8.87830E-002,6.85470E+000,-1.22414E-001,-1.17965E-001,6.85681E+000,1.08708E-002,4.38775E-001,0,1.02582E+002,-2.66898E+000,9.99215E-001,7.21641E+001,-2.95998E+001,9.98310E-001,1.12626E-001,-4.23493E-002,3.44435E-003,1.12703E-001,-4.24258E-002,1.27257E+000,1.13844E-001,1.11922E+000,-6.05736E-003,0.00000E+000,1.16549E-002,9.59796E-001,0.00000E+000,3.08383E-003,-5.25244E-002,1.00000E+000,17
569,1317,-2.20867E+001,-1.16180E+000,2.21300E-001,1.42050E+000,-3.79487E-001,1.56377E-001,1.47861E+000,1.32849E-002,6.87191E-001,0,2.19683E+001,-6.47865E+000,9.99085E-001,-1.76486E+001,-4.73820E+001,9.97658E-001,9.70456E-002,-3.93391E-002,-6.60446E-005,9.70456E-002,-3.93392E-002,-2.77456E-002,9.76233E-002,1.10160E+000,2.62852E-002,0.00000E+000,-2.31071E-002,9.62531E-001,0.00000E+000,1.52725E-003,-5.36454E-002,1.00000E+000,17
1289,1317,3.02983E+001,-4.66054E-001,-9.94636E-002,6.85597E+000,-6.82464E-002,-5.11227E-002,6.85650E+000,1.30493E-002,4.68726E-001,0,1.02350E+002,-1.91183E+000,9.99348E-001,7.11906E+001,-2.91700E+001,9.96906E-001,1.10193E-001,-4.24535E-002,2.38329E-003,1.10231E-001,-4.24907E-002,8.94276E-001,1.11190E-001,1.11648E+000,-6.17752E-003,0.00000E+000,9.96473E-003,9.59722E-001,0.00000E+000,-1.64437E-003,-5.27324E-002,1.00000E+000,17
1289,1287,3.02799E+001,-2.31639E+000,9.47845E-002,6.86668E+000,2.56530E-002,4.77081E-002,6.86689E+000,1.60261E-002,3.99371E-001,0,1.02082E+002,-5.62331E-001,9.99106E-001,7.10356E+001,-2.84012E+001,9.96659E-001,1.06518E-001,-4.25190E-002,8.54882E-004,1.06523E-001,-4.25239E-002,3.28637E-001,1.07242E-001,1.11242E+000,-6.23809E-003,0.00000E+000,7.45055E-003,9.59684E-001,0.00000E+000,-8.67767E-003,-5.28372E-002,1.00000E+000,17
1289,1297,3.02830E+001,-1.70254E+000,2.26994E-002,6.86311E+000,-4.66862E-003,1.83666E-002,6.86314E+000,1.70095E-002,3.09111E-001,0,1.02158E+002,-9.84618E-001,9.99148E-001,7.10311E+001,-2.87438E+001,9.97613E-001,1.07744E-001,-4.25023E-002,1.35922E-003,1.07756E-001,-4.25146E-002,5.18276E-001,1.08552E-001,1.11377E+000,-6.22424E-003,0.00000E+000,8.28441E-003,9.59693E-001,0.00000E+000,-6.34498E-003,-5.28132E-002,1.00000E+000,17
1289,1307,3.02857E+001,-1.08704E+000,-6.47407E-002,6.85941E+000,-3.81899E-002,-2.48276E-002,6.85956E+000,1.15179E-002,4.68246E-001,0,1.02293E+002,-1.47176E+000,9.99678E-001,7.09995E+001,-2.89031E+001,9.97707E-001,1.08973E-001,-4.24855E-002,1.86694E-003,1.08996E-001,-4.25085E-002,7.06112E-001,1.09871E-001,1.11513E+000,-6.21091E-003,0.00000E+000,9.12463E-003,9.59701E-001,0.00000E+000,-3.99450E-003,-5.27902E-002,1.00000E+000,17
559,1327,-2.27576E+001,-5.58531E-001,1.16649E-001,1.38658E+000,-4.00597E-001,1.11247E-001,1.44757E+000,2.21488E-002,8.15017E-001,0,2.15720E+001,-6.74969E+000,9.99657E-001,-1.80174E+001,-4.79366E+001,9.98917E-001,9.46559E-002,-3.92496E-002,6.89940E-004,9.46595E-002,-3.92531E-002,2.95202E-001,9.51178E-002,1.09891E+000,2.87547E-002,0.00000E+000,-2.38083E-002,9.62537E-001,0.00000E+000,4.39971E-004,-5.24322E-002,1.00000E+000,17
559,1337,-2.27383E+001,5.17773E-002,7.22690E-002,1.39827E+000,-4.22451E-001,7.95163E-002,1.46286E+000,6.15436E-003,6.48631E-001,0,2.18390E+001,-6.98016E+000,9.99651E-001,-1.76960E+001,-4.85615E+001,9.99550E-001,9.26827E-002,-3.92562E-002,9.42057E-004,9.26894E-002,-3.92629E-002,4.09070E-001,9.30494E-002,1.09674E+000,2.87295E-002,0.00000E+000,-2.32856E-002,9.62543E-001,0.00000E+000,-8.34589E-004,-5.24471E-002,1.00000E+000,17
559,1347,-2.27130E+001,6.66298E-001,4.64926E-002,1.41408E+000,-4.42799E-001,5.48604E-002,1.48281E+000,8.20968E-003,6.34080E-001,0,2.21510E+001,-7.26684E+000,9.99341E-001,-1.72270E+001,-4.90869E+001,9.98997E-001,9.06982E-002,-3.92613E-002,1.19227E-003,9.07091E-002,-3.92723E-002,5.25581E-001,9.09806E-002,1.09457E+000,2.86982E-002,0.00000E+000,-2.27614E-002,9.62551E-001,0.00000E+000,-2.11271E-003,-5.24655E-002,1.00000E+000,17
559,1357,-2.26777E+001,1.28144E+000,4.23603E-002,1.43571E+000,-4.67238E-001,2.59128E-002,1.51005E+000,7.10420E-003,6.37060E-001,0,2.25647E+001,-7.60622E+000,9.99305E-001,-1.65400E+001,-4.96419E+001,9.99260E-001,8.86995E-002,-3.92634E-002,1.43741E-003,8.87156E-002,-3.92796E-002,6.43496E-001,8.89092E-002,1.09239E+000,2.86531E-002,0.00000E+000,-2.22350E-002,9.62562E-001,0.00000E+000,-3.39606E-003,-5.24920E-002,1.00000E+000,17
559,1317,-2.27837E+001,-1.14861E+000,2.22461E-001,1.35977E+000,-3.63162E-001,1.52569E-001,1.41567E+000,2.12164E-002,7.18955E-001,0,2.10375E+001,-6.20370E+000,9.99456E-001,-1.82492E+001,-4.72640E+001,9.98558E-001,9.66216E-002,-3.92369E-002,4.25863E-004,9.66229E-002,-3.92382E-002,1.79598E-001,9.71892E-002,1.10107E+000,2.87526E-002,0.00000E+000,-2.43307E-002,9.62538E-001,0.00000E+000,1.71367E-003,-5.24335E-002,1.00000E+000,17
1299,1327,3.10673E+001,1.74986E-001,-1.15392E-001,6.93165E+000,-8.81389E-002,-8.76246E-002,6.93277E+000,1.46068E-002,4.53464E-001,0,1.03534E+002,-2.19445E+000,9.98956E-001,7.32450E+001,-2.90832E+001,9.97873E-001,1.11175E-001,-4.13938E-002,3.28182E-003,1.11245E-001,-4.14644E-002,1.23170E+000,1.12440E-001,1.11759E+000,-4.64142E-003,0.00000E+000,1.02347E-002,9.60602E-001,0.00000E+000,1.39752E-003,-4.99169E-002,1.00000E+000,17
1299,1337,3.11105E+001,8.08891E-001,-7.75346E-002,6.93850E+000,-1.17791E-001,-1.14718E-001,6.94045E+000,1.37566E-002,4.88926E-001,0,1.03730E+002,-2.62690E+000,9.98856E-001,7.40027E+001,-2.92924E+001,9.97502E-001,1.12559E-001,-4.13263E-002,3.86562E-003,1.12656E-001,-4.14233E-002,1.43806E+000,1.13963E-001,1.11915E+000,-4.55561E-003,0.00000E+000,1.11564E-002,9.60653E-001,0.00000E+000,4.02776E-003,-4.97724E-002,1.00000E+000,17
1299,1287,3.10278E+001,-2.30476E+000,1.01100E-001,6.94277E+000,2.84536E-002,4.43233E-002,6.94297E+000,1.18692E-002,4.79874E-001,0,1.03141E+002,-5.33508E-001,9.99294E-001,7.27495E+001,-2.81076E+001,9.97324E-001,1.05620E-001,-4.15038E-002,1.07181E-003,1.05628E-001,-4.15116E-002,4.17373E-001,1.06431E-001,1.11143E+000,-4.76126E-003,0.00000E+000,6.59981E-003,9.60531E-001,0.00000E+000,-8.97523E-003,-5.01187E-002,1.00000E+000,17
1299,1297,3.10311E+001,-1.69457E+000,2.30815E-002,6.94084E+000,-5.27638E-003,1.44263E-002,6.94085E+000,1.29404E-002,4.76155E-001,0,1.03247E+002,-1.04598E+000,9.99550E-001,7.27405E+001,-2.84498E+001,9.97439E-001,1.07015E-001,-4.14893E-002,1.61395E-003,1.07033E-001,-4.15068E-002,6.22592E-001,1.07927E-001,1.11296E+000,-4.74886E-003,0.00000E+000,7.50358E-003,9.60538E-001,0.00000E+000,-6.39615E-003,-5.00978E-002,1.00000E+000,17
1299,1307,3.10452E+001,-1.07016E+000,-3.20949E-002,6.94441E+000,-3.04312E-002,-1.18911E-002,6.94449E+000,2.36668E-002,5.16789E-001,0,1.03412E+002,-1.41339E+000,9.99427E-001,7.29302E+001,-2.85968E+001,9.97685E-001,1.08410E-001,-4.14654E-002,2.16526E-003,1.08442E-001,-4.14967E-002,8.27525E-001,1.09432E-001,1.11451E+000,-4.72377E-003,0.00000E+000,8.41361E-003,9.60553E-001,0.00000E+000,-3.79921E-003,-5.00556E-002,1.00000E+000,17
1299,1317,3.10532E+001,-4.50232E-001,-8.58914E-002,6.93695E+000,-6.14356E-002,-5.47189E-002,6.93744E+000,1.84308E-002,4.84484E-001,0,1.03481E+002,-1.81654E+000,9.99094E-001,7.30252E+001,-2.88545E+001,9.97635E-001,1.09797E-001,-4.14331E-002,2.72164E-003,1.09846E-001,-4.14820E-002,1.03069E+000,1.10937E-001,1.11605E+000,-4.68720E-003,0.00000E+000,9.32405E-003,9.60575E-001,0.00000E+000,-1.20109E-003,-4.99940E-002,1.00000E+000,17
559,1307,-2.28043E+001,-1.74581E+000,3.32547E-001,1.33671E+000,-3.34005E-001,1.87118E-001,1.39046E+000,9.73991E-003,6.86128E-001,0,2.05806E+001,-5.81085E+000,9.98935E-001,-1.83861E+001,-4.66760E+001,9.98149E-001,9.85807E-002,-3.92228E-002,1.59514E-004,9.85809E-002,-3.92230E-002,6.63226E-002,9.92639E-002,1.10323E+000,2.87448E-002,0.00000E+000,-2.48529E-002,9.62540E-001,0.00000E+000,2.98687E-003,-5.24381E-002,1.00000E+000,17
549,1347,-2.34052E+001,6.80840E-001,4.49056E-002,1.35856E+000,-4.23889E-001,5.20709E-002,1.42410E+000,7.13182E-003,6.79213E-001,0,2.12960E+001,-6.96185E+000,9.99263E-001,-1.77582E+001,-4.89411E+001,9.99047E-001,9.04405E-002,-3.90792E-002,1.52843E-003,9.04586E-002,-3.90972E-002,6.76009E-001,9.07353E-002,1.09423E+000,3.10389E-002,0.00000E+000,-2.41879E-002,9.62631E-001,0.00000E+000,-1.98839E-003,-5.12221E-002,1.00000E+000,17
549,1357,-2.33701E+001,1.30112E+000,4.53768E-002,1.37928E+000,-4.43995E-001,2.24438E-002,1.44916E+000,7.67581E-003,6.70782E-001,0,2.16957E+001,-7.22196E+000,9.99225E-001,-1.70575E+001,-4.94351E+001,9.99220E-001,8.85102E-002,-3.90816E-002,1.76430E-003,8.85346E-002,-3.91060E-002,7.92066E-001,8.87349E-002,1.09212E+000,3.09934E-002,0.00000E+000,-2.36832E-002,9.62642E-001,0.00000E+000,-3.26420E-003,-5.12498E-002,1.00000E+000,17
549,1327,-2.34693E+001,-5.38769E-001,1.38104E-001,1.30967E+000,-3.76454E-001,1.20484E-001,1.36802E+000,1.70047E-002,7.74117E-001,0,2.03502E+001,-6.37449E+000,9.99138E-001,-1.87736E+001,-4.78017E+001,9.97600E-001,9.42636E-002,-3.90648E-002,1.04031E-003,9.42717E-002,-3.90729E-002,4.47022E-001,9.47304E-002,1.09841E+000,3.10872E-002,0.00000E+000,-2.51921E-002,9.62619E-001,0.00000E+000,5.49730E-004,-5.11929E-002,1.00000E+000,17
549,1337,-2.34336E+001,6.86973E-002,7.97922E-002,1.33923E+000,-3.99250E-001,8.38026E-002,1.39999E+000,5.98390E-003,6.56052E-001,0,2.09100E+001,-6.64209E+000,9.99513E-001,-1.82470E+001,-4.84162E+001,9.99508E-001,9.23624E-002,-3.90730E-002,1.28545E-003,9.23750E-002,-3.90856E-002,5.60288E-001,9.27383E-002,1.09633E+000,3.10678E-002,0.00000E+000,-2.46920E-002,9.62624E-001,0.00000E+000,-7.14332E-004,-5.12046E-002,1.00000E+000,17
1309,1317,3.17914E+001,-4.45900E-001,-1.03302E-001,7.00861E+000,-6.09031E-002,-6.03177E-002,7.00913E+000,1.48699E-002,4.45799E-001,0,1.04490E+002,-1.80126E+000,9.98870E-001,7.45622E+001,-2.86792E+001,9.97701E-001,1.09715E-001,-4.05687E-002,3.11515E-003,1.09779E-001,-4.06332E-002,1.18698E+000,1.11006E-001,1.11597E+000,-2.81451E-003,0.00000E+000,8.46606E-003,9.61283E-001,0.00000E+000,-9.26219E-004,-4.71479E-002,1.00000E+000,17
1309,1327,3.18155E+001,1.83607E-001,-1.20298E-001,7.01056E+000,-8.52916E-002,-9.04571E-002,7.01166E+000,1.76057E-002,4.31837E-001,0,1.04636E+002,-2.15452E+000,9.98703E-001,7.49540E+001,-2.88573E+001,9.97126E-001,1.11250E-001,-4.05287E-002,3.64953E-003,1.11338E-001,-4.06164E-002,1.37662E+000,1.12686E-001,1.11769E+000,-2.75614E-003,0.00000E+000,9.32138E-003,9.61312E-001,0.00000E+000,1.77288E-003,-4.70563E-002,1.00000E+000,17
1309,1337,3.18554E+001,8.19837E-001,-8.61167E-002,7.01519E+000,-1.11952E-001,-1.16355E-001,7.01704E+000,1.65832E-002,4.61928E-001,0,1.04794E+002,-2.54431E+000,9.99112E-001,7.56523E+001,-2.90238E+001,9.98258E-001,1.12789E-001,-4.04683E-002,4.20314E-003,1.12905E-001,-4.05835E-002,1.56978E+000,1.14382E-001,1.11942E+000,-2.66360E-003,0.00000E+000,1.01847E-002,9.61358E-001,0.00000E+000,4.49731E-003,-4.69111E-002,1.00000E+000,17
549,1317,-2.34833E+001,-1.13515E+000,2.32154E-001,1.29610E+000,-3.45960E-001,1.57404E-001,1.35068E+000,1.43589E-002,7.69066E-001,0,2.00372E+001,-5.95250E+000,9.99314E-001,-1.88584E+001,-4.71516E+001,9.98394E-001,9.61577E-002,-3.90527E-002,7.87516E-004,9.61623E-002,-3.90572E-002,3.33697E-001,9.67252E-002,1.10049E+000,3.10887E-002,0.00000E+000,-2.56919E-002,9.62619E-001,0.00000E+000,1.81285E-003,-5.11919E-002,1.00000E+000,17
549,1307,-2.35023E+001,-1.73270E+000,3.25287E-001,1.27555E+000,-3.16514E-001,1.80635E-001,1.32659E+000,1.01768E-002,7.13573E-001,0,1.96491E+001,-5.51981E+000,9.98956E-001,-1.90216E+001,-4.65423E+001,9.98347E-001,9.80498E-002,-3.90390E-002,5.31639E-004,9.80519E-002,-3.90411E-002,2.22192E-001,9.87274E-002,1.10258E+000,3.10841E-002,0.00000E+000,-2.61926E-002,9.62620E-001,0.00000E+000,3.07832E-003,-5.11948E-002,1.00000E+000,17
1309,1287,3.17759E+001,-2.30118E+000,1.00935E-001,7.01777E+000,2.62240E-002,3.11371E-002,7.01789E+000,1.08756E-002,4.65620E-001,0,1.04225E+002,-5.67726E-001,9.99308E-001,7.44630E+001,-2.79729E+001,9.97121E-001,1.05071E-001,-4.06211E-002,1.56677E-003,1.05088E-001,-4.06380E-002,6.16064E-001,1.05983E-001,1.11083E+000,-2.87963E-003,0.00000E+000,5.91316E-003,9.61251E-001,0.00000E+000,-8.98221E-003,-4.72501E-002,1.00000E+000,17
1309,1297,3.17772E+001,-1.69122E+000,1.54027E-002,7.01555E+000,-9.44001E-003,4.58473E-004,7.01556E+000,1.46650E-002,4.92231E-001,0,1.04333E+002,-1.08665E+000,9.99233E-001,7.44135E+001,-2.82862E+001,9.96911E-001,1.06627E-001,-4.06114E-002,2.07692E-003,1.06656E-001,-4.06407E-002,8.07990E-001,1.07658E-001,1.11254E+000,-2.87037E-003,0.00000E+000,6.76309E-003,9.61255E-001,0.00000E+000,-6.30015E-003,-4.72356E-002,1.00000E+000,17
1309,1307,3.17771E+001,-1.06873E+000,-6.76987E-002,7.01058E+000,-3.09718E-002,-3.30454E-002,7.01073E+000,1.50971E-002,3.91501E-001,0,1.04406E+002,-1.35651E+000,9.99222E-001,7.43467E+001,-2.84731E+001,9.98304E-001,1.08169E-001,-4.05991E-002,2.58702E-003,1.08213E-001,-4.06441E-002,9.95954E-001,1.09324E-001,1.11425E+000,-2.85750E-003,0.00000E+000,7.61050E-003,9.61262E-001,0.00000E+000,-3.62605E-003,-4.72154E-002,1.00000E+000,17
539,1347,-2.41015E+001,6.97532E-001,4.78593E-002,1.29843E+000,-4.01463E-001,5.27341E-002,1.36010E+000,6.54112E-003,6.68880E-001,0,2.03580E+001,-6.60452E+000,9.99355E-001,-1.83320E+001,-4.88006E+001,9.99272E-001,9.02500E-002,-3.88495E-002,1.71461E-003,9.02727E-002,-3.88722E-002,7.60785E-001,9.05620E-002,1.09396E+000,3.31195E-002,0.00000E+000,-2.56772E-002,9.62755E-001,0.00000E+000,-1.84136E-003,-5.00070E-002,1.00000E+000,17
539,1357,-2.40665E+001,1.31894E+000,4.37629E-002,1.32009E+000,-4.19761E-001,2.45241E-002,1.38544E+000,6.34104E-003,6.80043E-001,0,2.07684E+001,-6.84319E+000,9.99511E-001,-1.76462E+001,-4.92597E+001,9.99375E-001,8.84464E-002,-3.88531E-002,1.93186E-003,8.84757E-002,-3.88824E-002,8.69235E-001,8.86916E-002,1.09199E+000,3.30803E-002,0.00000E+000,-2.52146E-002,9.62764E-001,0.00000E+000,-3.12722E-003,-5.00327E-002,1.00000E+000,17
539,1327,-2.41585E+001,-5.22553E-001,1.27249E-001,1.25694E+000,-3.52727E-001,1.10090E-001,1.31012E+000,7.98594E-003,6.58755E-001,0,1.95570E+001,-5.94748E+000,9.98668E-001,-1.92819E+001,-4.76864E+001,9.98395E-001,9.38279E-002,-3.88351E-002,1.26741E-003,9.38401E-002,-3.88472E-002,5.47312E-001,9.43019E-002,1.09787E+000,3.31653E-002,0.00000E+000,-2.65988E-002,9.62744E-001,0.00000E+000,7.20809E-004,-4.99770E-002,1.00000E+000,17
539,1337,-2.41301E+001,8.70471E-002,7.82139E-002,1.27877E+000,-3.75443E-001,7.95666E-002,1.33512E+000,7.05903E-003,6.48667E-001,0,1.99791E+001,-6.25319E+000,9.99132E-001,-1.88375E+001,-4.82371E+001,9.99101E-001,9.20456E-002,-3.88431E-002,1.49200E-003,9.20626E-002,-3.88601E-002,6.53000E-001,9.24343E-002,1.09592E+000,3.31459E-002,0.00000E+000,-2.61391E-002,9.62749E-001,0.00000E+000,-5.57307E-004,-4.99897E-002,1.00000E+000,17
1319,1297,3.25086E+001,-1.68572E+000,-1.19580E-002,7.08004E+000,-6.08564E-003,-1.54925E-002,7.08006E+000,1.22964E-002,3.57330E-001,0,1.05276E+002,-9.77107E-001,9.99253E-001,7.58380E+001,-2.81240E+001,9.97735E-001,1.06269E-001,-3.96923E-002,2.60670E-003,1.06315E-001,-3.97388E-002,1.02281E+000,1.07438E-001,1.11215E+000,-6.22527E-004,0.00000E+000,5.84425E-003,9.62008E-001,0.00000E+000,-6.58228E-003,-4.40425E-002,1.00000E+000,17
1319,1307,3.25175E+001,-1.06786E+000,-8.09580E-002,7.08084E+000,-3.50480E-002,-4.65361E-002,7.08108E+000,1.43693E-002,3.32860E-001,0,1.05425E+002,-1.38989E+000,9.99189E-001,7.59295E+001,-2.83724E+001,9.98450E-001,1.07987E-001,-3.96768E-002,3.11301E-003,1.08052E-001,-3.97424E-002,1.20718E+000,1.09304E-001,1.11405E+000,-5.98599E-004,0.00000E+000,6.67823E-003,9.62018E-001,0.00000E+000,-3.70841E-003,-4.40062E-002,1.00000E+000,17
539,1307,-2.41997E+001,-1.72126E+000,3.16889E-001,1.21407E+000,-2.99085E-001,1.69805E-001,1.26184E+000,7.00891E-003,6.69257E-001,0,1.87221E+001,-5.21587E+000,9.99260E-001,-1.96478E+001,-4.64679E+001,9.98758E-001,9.73640E-002,-3.88100E-002,8.00964E-004,9.73687E-002,-3.88147E-002,3.36993E-001,9.80334E-002,1.10176E+000,3.31609E-002,0.00000E+000,-2.75150E-002,9.62745E-001,0.00000E+000,3.26787E-003,-4.99799E-002,1.00000E+000,17
539,1317,-2.41808E+001,-1.12690E+000,2.13132E-001,1.23534E+000,-3.29518E-001,1.40802E-001,1.28626E+000,7.73901E-003,6.81410E-001,0,1.91360E+001,-5.64946E+000,9.99009E-001,-1.95199E+001,-4.71269E+001,9.98366E-001,9.56001E-002,-3.88235E-002,1.03592E-003,9.56081E-002,-3.88315E-002,4.41508E-001,9.61678E-002,1.09982E+000,3.31676E-002,0.00000E+000,-2.70574E-002,9.62744E-001,0.00000E+000,1.99549E-003,-4.99755E-002,1.00000E+000,17
1319,1287,3.25148E+001,-2.30232E+000,8.52375E-002,7.08734E+000,2.02794E-002,1.82143E-002,7.08739E+000,1.27270E-002,4.26977E-001,0,1.05231E+002,-6.28685E-001,9.99154E-001,7.60172E+001,-2.78920E+001,9.98091E-001,1.04545E-001,-3.96967E-002,2.11126E-003,1.04576E-001,-3.97276E-002,8.38397E-001,1.05577E-001,1.11026E+000,-6.25794E-004,0.00000E+000,5.01317E-003,9.62006E-001,0.00000E+000,-9.44617E-003,-4.40474E-002,1.00000E+000,17
529,1327,-2.48528E+001,-5.08154E-001,1.27718E-001,1.19781E+000,-3.33008E-001,1.05527E-001,1.24771E+000,7.27194E-003,6.60937E-001,0,1.86480E+001,-5.63377E+000,9.98581E-001,-1.98297E+001,-4.75656E+001,9.98191E-001,9.34691E-002,-3.83245E-002,1.51464E-003,9.34865E-002,-3.83419E-002,6.58356E-001,9.39885E-002,1.09743E+000,3.46592E-002,0.00000E+000,-2.74828E-002,9.63150E-001,0.00000E+000,1.31894E-003,-4.86590E-002,1.00000E+000,17
529,1307,-2.48946E+001,-1.70636E+000,3.19495E-001,1.15378E+000,-2.79567E-001,1.63907E-001,1.19843E+000,9.25611E-003,6.37026E-001,0,1.77991E+001,-4.88792E+000,9.99355E-001,-2.01962E+001,-4.63572E+001,9.98914E-001,9.65830E-002,-3.83114E-002,1.25993E-003,9.65948E-002,-3.83232E-002,5.35086E-001,9.72790E-002,1.10086E+000,3.46538E-002,0.00000E+000,-2.80064E-002,9.63151E-001,0.00000E+000,4.12020E-003,-4.86635E-002,1.00000E+000,17
529,1317,-2.48765E+001,-1.11149E+000,2.09188E-001,1.17571E+000,-3.08454E-001,1.37551E-001,1.22326E+000,7.41743E-003,6.41857E-001,0,1.82165E+001,-5.29180E+000,9.99414E-001,-2.01011E+001,-4.70002E+001,9.98765E-001,9.50299E-002,-3.83188E-002,1.39024E-003,9.50444E-002,-3.83333E-002,5.97256E-001,9.56349E-002,1.09915E+000,3.46635E-002,0.00000E+000,-2.77449E-002,9.63150E-001,0.00000E+000,2.72090E-003,-4.86555E-002,1.00000E+000,17
