Coordinates.Image X [Pixel],Coordinates.Image Y [Pixel],coor.X [mm],coor.Y [mm],coor.Z [mm],disp.Horizontal Displacement U [mm],disp.Vertical Displacement V [mm],disp.Out-Of-Plane: W [mm],disp.Displacement Magnitude [mm],stats.Sigma [mm],stats.Epipolar Distance [Pixel],stats.Shape Index [-],SameCamera.Horizontal: u [Pixel],SameCamera.Vertical: v [Pixel],SameCamera.Correlation Value 2D [-],CrossCamera.Horizontal: q [Pixel],CrossCamera.Vertical: r [Pixel],CrossCamera.Correlation Value Persp [-],strain.Strain-global frame: Exx [ ],strain.Strain-global frame: Eyy [ ],strain.Strain-global frame: Exy [ ],strain.Maximum Principal Strain: EI [ ],strain.Minimum Principal Strain: EII [ ],strain.Shear Angle Gamma [deg],strain.Von Mises Equivalent Strain [ ],defgradient.F[0,0] [-],defgradient.F[0,1] [-],defgradient.F[0,2] [-],defgradient.F[1,0] [-],defgradient.F[1,1] [-],defgradient.F[1,2] [-],defgradient.F[2,0] [-],defgradient.F[2,1] [-],defgradient.F[2,2] [-],ext.Current Image [#]
929,1317,1.59504E+000,-9.12914E-001,2.36790E-002,1.93111E+000,-2.96554E-001,1.10400E-001,1.95687E+000,7.20624E-003,4.96537E-001,0,2.93295E+001,-5.09396E+000,9.99754E-001,-1.49808E+001,-3.99915E+001,9.98734E-001,5.41682E-002,-2.25737E-002,4.57313E-004,5.41709E-002,-2.25765E-002,3.41415E-001,5.44205E-002,1.05565E+000,-1.20631E-002,0.00000E+000,1.27803E-002,9.79691E-001,0.00000E+000,-1.15479E-002,-6.53615E-002,1.00000E+000,8
919,1307,9.00401E-001,-1.55222E+000,6.93519E-002,1.90302E+000,-2.86587E-001,1.60869E-001,1.93119E+000,9.16180E-003,5.11515E-001,0,2.87547E+001,-5.03593E+000,9.99652E-001,-1.57130E+001,-4.00472E+001,9.96921E-001,5.55136E-002,-2.23137E-002,2.36454E-004,5.55143E-002,-2.23144E-002,1.74074E-001,5.58689E-002,1.05708E+000,-1.08659E-002,0.00000E+000,1.11680E-002,9.80015E-001,0.00000E+000,-1.04437E-002,-6.61566E-002,1.00000E+000,8
919,1317,8.93848E-001,-9.34741E-001,-2.31485E-002,1.89366E+000,-3.04104E-001,1.19280E-001,1.92163E+000,9.55850E-003,4.75402E-001,0,2.87538E+001,-5.22715E+000,9.99592E-001,-1.59142E+001,-4.03315E+001,9.96812E-001,5.43638E-002,-2.23191E-002,4.54805E-005,5.43639E-002,-2.23191E-002,3.39820E-002,5.46531E-002,1.05585E+000,-1.08714E-002,0.00000E+000,1.07403E-002,9.80013E-001,0.00000E+000,-9.35530E-003,-6.61517E-002,1.00000E+000,8
919,1327,9.03715E-001,-3.05736E-001,-5.83348E-002,1.88640E+000,-3.22168E-001,6.89628E-002,1.91495E+000,8.53538E-003,5.21177E-001,0,2.88100E+001,-5.40864E+000,9.99722E-001,-1.57315E+001,-4.05185E+001,9.97663E-001,5.31968E-002,-2.23327E-002,-1.60803E-004,5.31971E-002,-2.23330E-002,-1.21982E-001,5.34246E-002,1.05461E+000,-1.09042E-002,0.00000E+000,1.03069E-002,9.80001E-001,0.00000E+000,-8.25267E-003,-6.61226E-002,1.00000E+000,8
929,1307,1.59692E+000,-1.53273E+000,9.95050E-002,1.94017E+000,-2.78091E-001,1.55205E-001,1.96614E+000,6.99404E-003,5.29684E-001,0,2.93149E+001,-4.89605E+000,9.99763E-001,-1.48898E+001,-3.97106E+001,9.99019E-001,5.53527E-002,-2.25694E-002,5.64306E-004,5.53568E-002,-2.25735E-002,4.14902E-001,5.56698E-002,1.05692E+000,-1.20488E-002,0.00000E+000,1.30522E-002,9.79694E-001,0.00000E+000,-1.29335E-002,-6.53771E-002,1.00000E+000,8
929,1327,1.59978E+000,-2.86417E-001,-2.65948E-002,1.92242E+000,-3.12401E-001,6.23052E-002,1.94863E+000,6.04953E-003,4.63477E-001,0,2.93577E+001,-5.24551E+000,9.99807E-001,-1.49115E+001,-4.02239E+001,9.99197E-001,5.29760E-002,-2.25799E-002,3.44052E-004,5.29776E-002,-2.25815E-002,2.60896E-001,5.31693E-002,1.05438E+000,-1.20898E-002,0.00000E+000,1.25075E-002,9.79685E-001,0.00000E+000,-1.01571E-002,-6.53323E-002,1.00000E+000,8
939,1307,2.28812E+000,-1.51602E+000,9.48570E-002,1.97704E+000,-2.68286E-001,1.40164E-001,2.00008E+000,7.70525E-003,5.34023E-001,0,2.99030E+001,-4.71679E+000,9.99809E-001,-1.42232E+001,-3.93506E+001,9.98977E-001,5.51299E-002,-2.23732E-002,8.56916E-004,5.51393E-002,-2.23826E-002,6.33390E-001,5.54637E-002,1.05670E+000,-1.32965E-002,0.00000E+000,1.49053E-002,9.79807E-001,0.00000E+000,-1.50517E-002,-6.44742E-002,1.00000E+000,8
939,1317,2.28739E+000,-8.96619E-001,2.35573E-002,1.96832E+000,-2.87106E-001,9.64622E-002,1.99149E+000,7.94988E-003,4.74786E-001,0,2.99200E+001,-4.92170E+000,9.99742E-001,-1.42864E+001,-3.96589E+001,9.98477E-001,5.40310E-002,-2.23774E-002,7.60718E-004,5.40386E-002,-2.23850E-002,5.70358E-001,5.43029E-002,1.05552E+000,-1.33113E-002,0.00000E+000,1.46383E-002,9.79803E-001,0.00000E+000,-1.33799E-002,-6.44533E-002,1.00000E+000,8
939,1327,2.29252E+000,-2.65483E-001,-2.02936E-002,1.95836E+000,-3.01582E-001,4.79932E-002,1.98203E+000,5.26860E-003,4.99419E-001,0,2.99303E+001,-5.04820E+000,9.99753E-001,-1.41970E+001,-3.98030E+001,9.99159E-001,5.29188E-002,-2.23835E-002,6.57470E-004,5.29245E-002,-2.23892E-002,5.00203E-001,5.31331E-002,1.05432E+000,-1.33394E-002,0.00000E+000,1.43691E-002,9.79797E-001,0.00000E+000,-1.16938E-002,-6.44136E-002,1.00000E+000,8
919,1337,9.20657E-001,3.29184E-001,-6.60443E-002,1.88130E+000,-3.35840E-001,2.30510E-002,1.91118E+000,6.18499E-003,4.89546E-001,0,2.88815E+001,-5.52363E+000,9.99674E-001,-1.53761E+001,-4.07137E+001,9.98850E-001,5.20267E-002,-2.23490E-002,-3.71673E-004,5.20286E-002,-2.23508E-002,-2.86311E-001,5.22002E-002,1.05337E+000,-1.09464E-002,0.00000E+000,9.87337E-003,9.79987E-001,0.00000E+000,-7.14967E-003,-6.60851E-002,1.00000E+000,8
929,1337,1.61193E+000,3.46990E-001,-4.69585E-002,1.91495E+000,-3.26944E-001,1.58346E-002,1.94272E+000,5.69219E-003,4.68112E-001,0,2.93969E+001,-5.37775E+000,9.99837E-001,-1.46603E+001,-4.03963E+001,9.99451E-001,5.17732E-002,-2.25879E-002,2.24300E-004,5.17739E-002,-2.25885E-002,1.72823E-001,5.19138E-002,1.05310E+000,-1.21288E-002,0.00000E+000,1.22329E-002,9.79677E-001,0.00000E+000,-8.75788E-003,-6.52897E-002,1.00000E+000,8
939,1337,2.30305E+000,3.66937E-001,-4.22100E-002,1.95014E+000,-3.16094E-001,4.55074E-003,1.97559E+000,4.78034E-003,4.92487E-001,0,2.99490E+001,-5.19020E+000,9.99835E-001,-1.39754E+001,-3.99918E+001,9.99472E-001,5.18020E-002,-2.23905E-002,5.50831E-004,5.18061E-002,-2.23946E-002,4.25353E-001,5.19642E-002,1.05313E+000,-1.33744E-002,0.00000E+000,1.40997E-002,9.79789E-001,0.00000E+000,-1.00069E-002,-6.43642E-002,1.00000E+000,8
949,1317,2.98082E+000,-8.75190E-001,2.63430E-002,2.00481E+000,-2.75242E-001,7.96120E-002,2.02518E+000,9.27555E-003,5.02059E-001,0,3.05078E+001,-4.70125E+000,9.99544E-001,-1.35644E+001,-3.92287E+001,9.98527E-001,5.38926E-002,-2.21887E-002,9.96084E-004,5.39056E-002,-2.22018E-002,7.49966E-001,5.41840E-002,1.05537E+000,-1.44334E-002,0.00000E+000,1.62075E-002,9.79879E-001,0.00000E+000,-1.47254E-002,-6.30538E-002,1.00000E+000,8
949,1327,2.98433E+000,-2.45719E-001,-1.76014E-002,1.99430E+000,-2.89477E-001,3.63602E-002,2.01552E+000,7.87896E-003,4.88212E-001,0,3.04933E+001,-4.83765E+000,9.99605E-001,-1.35011E+001,-3.94161E+001,9.99163E-001,5.29199E-002,-2.21924E-002,9.27689E-004,5.29313E-002,-2.22039E-002,7.07498E-001,5.31596E-002,1.05432E+000,-1.44565E-002,0.00000E+000,1.59846E-002,9.79874E-001,0.00000E+000,-1.27374E-002,-6.30102E-002,1.00000E+000,8
949,1337,2.99359E+000,3.86797E-001,-3.83595E-002,1.98530E+000,-3.03945E-001,-2.95976E-003,2.00844E+000,6.54837E-003,4.96133E-001,0,3.04874E+001,-4.99180E+000,9.99730E-001,-1.32977E+001,-3.95971E+001,9.99041E-001,5.19391E-002,-2.21968E-002,8.55651E-004,5.19490E-002,-2.22067E-002,6.61171E-001,5.21308E-002,1.05326E+000,-1.44867E-002,0.00000E+000,1.57610E-002,9.79868E-001,0.00000E+000,-1.07428E-002,-6.29532E-002,1.00000E+000,8
949,1307,2.98369E+000,-1.49765E+000,9.78090E-002,2.01536E+000,-2.58686E-001,1.21702E-001,2.03554E+000,7.42073E-003,5.32202E-001,0,3.05239E+001,-4.52609E+000,9.99710E-001,-1.34682E+001,-3.89839E+001,9.98899E-001,5.48559E-002,-2.21861E-002,1.05923E-003,5.48705E-002,-2.22006E-002,7.87550E-001,5.52024E-002,1.05642E+000,-1.44207E-002,0.00000E+000,1.64293E-002,9.79882E-001,0.00000E+000,-1.67041E-002,-6.30777E-002,1.00000E+000,8
909,1317,2.08147E-001,-9.50003E-001,-3.03057E-002,1.85967E+000,-3.11560E-001,1.14431E-001,1.88906E+000,9.13503E-003,4.51824E-001,0,2.82725E+001,-5.34622E+000,9.99437E-001,-1.65155E+001,-4.06547E+001,9.96716E-001,5.46250E-002,-2.23908E-002,-3.89550E-004,5.46270E-002,-2.23927E-002,-2.89795E-001,5.49217E-002,1.05612E+000,-9.57265E-003,0.00000E+000,8.53099E-003,9.79977E-001,0.00000E+000,-6.94406E-003,-6.63829E-002,1.00000E+000,8
909,1327,2.19891E-001,-3.17648E-001,-6.08751E-002,1.85478E+000,-3.26818E-001,7.04994E-002,1.88467E+000,7.26249E-003,5.04693E-001,0,2.83420E+001,-5.48583E+000,9.99476E-001,-1.62920E+001,-4.07976E+001,9.98152E-001,5.35088E-002,-2.24030E-002,-5.88087E-004,5.35134E-002,-2.24076E-002,-4.43834E-001,5.37485E-002,1.05494E+000,-9.60281E-003,0.00000E+000,8.13300E-003,9.79967E-001,0.00000E+000,-6.21995E-003,-6.63645E-002,1.00000E+000,8
909,1337,2.36603E-001,3.20537E-001,-6.77874E-002,1.84934E+000,-3.40134E-001,2.44080E-002,1.88051E+000,7.48387E-003,5.44064E-001,0,2.84078E+001,-5.58391E+000,9.99605E-001,-1.59368E+001,-4.09103E+001,9.98875E-001,5.23866E-002,-2.24182E-002,-7.92096E-004,5.23949E-002,-2.24266E-002,-6.06605E-001,5.25756E-002,1.05375E+000,-9.64292E-003,0.00000E+000,7.73347E-003,9.79953E-001,0.00000E+000,-5.49306E-003,-6.63399E-002,1.00000E+000,8
909,1307,2.13714E-001,-1.56651E+000,7.14579E-002,1.86702E+000,-2.93260E-001,1.60588E-001,1.89672E+000,9.32552E-003,4.32986E-001,0,2.82279E+001,-5.13588E+000,9.99484E-001,-1.63074E+001,-4.04009E+001,9.95935E-001,5.57240E-002,-2.23866E-002,-2.06197E-004,5.57246E-002,-2.23872E-002,-1.51248E-001,5.60820E-002,1.05729E+000,-9.56926E-003,0.00000E+000,8.92341E-003,9.79978E-001,0.00000E+000,-7.65802E-003,-6.63850E-002,1.00000E+000,8
919,1347,9.41888E-001,9.71123E-001,-6.24234E-002,1.87723E+000,-3.46448E-001,-2.64398E-002,1.90912E+000,9.53729E-003,5.05693E-001,0,2.89788E+001,-5.58319E+000,9.99832E-001,-1.49282E+001,-4.08041E+001,9.99304E-001,5.08484E-002,-2.23671E-002,-5.86518E-004,5.08531E-002,-2.23718E-002,-4.58948E-001,5.09753E-002,1.05212E+000,-1.09948E-002,0.00000E+000,9.43777E-003,9.79970E-001,0.00000E+000,-6.04137E-003,-6.60421E-002,1.00000E+000,8
929,1347,1.63114E+000,9.86640E-001,-4.10305E-002,1.90938E+000,-3.38847E-001,-2.81666E-002,1.93941E+000,5.29979E-003,4.72730E-001,0,2.94543E+001,-5.47610E+000,9.99828E-001,-1.42405E+001,-4.05320E+001,9.99506E-001,5.05630E-002,-2.25974E-002,9.92191E-005,5.05632E-002,-2.25975E-002,7.77035E-002,5.06581E-002,1.05182E+000,-1.21781E-002,0.00000E+000,1.19574E-002,9.79667E-001,0.00000E+000,-7.35391E-003,-6.52358E-002,1.00000E+000,8
939,1347,2.32114E+000,1.00713E+000,-3.12584E-002,1.94375E+000,-3.27560E-001,-3.21171E-002,1.97142E+000,8.57968E-003,5.20876E-001,0,2.99701E+001,-5.30702E+000,9.99733E-001,-1.35636E+001,-4.01171E+001,9.99028E-001,5.06756E-002,-2.23991E-002,4.38560E-004,5.06783E-002,-2.24017E-002,3.43846E-001,5.07917E-002,1.05193E+000,-1.34201E-002,0.00000E+000,1.38290E-002,9.79779E-001,0.00000E+000,-8.31159E-003,-6.42998E-002,1.00000E+000,8
949,1347,3.01484E+000,1.02707E+000,-2.07601E-002,1.98003E+000,-3.17698E-001,-4.13022E-002,2.00578E+000,6.87098E-003,5.24237E-001,0,3.05323E+001,-5.12646E+000,9.99601E-001,-1.28244E+001,-3.97340E+001,9.98731E-001,5.09461E-002,-2.22026E-002,7.76563E-004,5.09543E-002,-2.22108E-002,6.08174E-001,5.10937E-002,1.05220E+000,-1.45306E-002,0.00000E+000,1.55357E-002,9.79859E-001,0.00000E+000,-8.73321E-003,-6.28704E-002,1.00000E+000,8
959,1317,3.67055E+000,-8.57220E-001,1.94646E-002,2.03903E+000,-2.64341E-001,6.17353E-002,2.05702E+000,7.88230E-003,5.08307E-001,0,3.10652E+001,-4.50265E+000,9.99608E-001,-1.29174E+001,-3.88422E+001,9.99115E-001,5.38204E-002,-2.19802E-002,1.07172E-003,5.38355E-002,-2.19954E-002,8.09872E-001,5.41347E-002,1.05529E+000,-1.56001E-002,0.00000E+000,1.74596E-002,9.79971E-001,0.00000E+000,-1.53988E-002,-6.15380E-002,1.00000E+000,8
959,1327,3.67253E+000,-2.28476E-001,-2.96949E-002,2.02867E+000,-2.78545E-001,2.13427E-002,2.04781E+000,1.21484E-002,4.96249E-001,0,3.10448E+001,-4.64315E+000,9.99809E-001,-1.28896E+001,-3.90270E+001,9.99215E-001,5.29412E-002,-2.19812E-002,1.04211E-003,5.29557E-002,-2.19957E-002,7.96732E-001,5.32080E-002,1.05433E+000,-1.56186E-002,0.00000E+000,1.73028E-002,9.79968E-001,0.00000E+000,-1.32730E-002,-6.14968E-002,1.00000E+000,8
959,1337,3.68552E+000,4.05462E-001,-3.88810E-002,2.02103E+000,-2.94121E-001,-1.63271E-002,2.04239E+000,9.86152E-003,4.97391E-001,0,3.10546E+001,-4.80154E+000,9.99627E-001,-1.26045E+001,-3.92126E+001,9.98850E-001,5.20508E-002,-2.19826E-002,1.00636E-003,5.20644E-002,-2.19963E-002,7.78649E-001,5.22726E-002,1.05337E+000,-1.56498E-002,0.00000E+000,1.71448E-002,9.79963E-001,0.00000E+000,-1.11329E-002,-6.14277E-002,1.00000E+000,8
959,1307,3.67252E+000,-1.48004E+000,8.91300E-002,2.04958E+000,-2.46518E-001,1.05561E-001,2.06705E+000,6.23572E-003,5.08297E-001,0,3.10741E+001,-4.31046E+000,9.99663E-001,-1.28387E+001,-3.86160E+001,9.99151E-001,5.46926E-002,-2.19794E-002,1.09851E-003,5.47083E-002,-2.19951E-002,8.20676E-001,5.50572E-002,1.05625E+000,-1.55872E-002,0.00000E+000,1.76162E-002,9.79973E-001,0.00000E+000,-1.75202E-002,-6.15665E-002,1.00000E+000,8
959,1347,3.70495E+000,1.04313E+000,-3.09829E-002,2.01584E+000,-3.08244E-001,-5.50026E-002,2.04002E+000,6.09360E-003,5.00838E-001,0,3.11034E+001,-4.94591E+000,9.99643E-001,-1.21824E+001,-3.93792E+001,9.99332E-001,5.11534E-002,-2.19842E-002,9.67499E-004,5.11662E-002,-2.19970E-002,7.57760E-001,5.13334E-002,1.05240E+000,-1.56869E-002,0.00000E+000,1.69866E-002,9.79957E-001,0.00000E+000,-8.98863E-003,-6.13452E-002,1.00000E+000,8
909,1347,2.59380E-001,9.61502E-001,-4.93952E-002,1.84492E+000,-3.51220E-001,-2.03075E-002,1.87816E+000,9.25763E-003,5.05908E-001,0,2.84824E+001,-5.66098E+000,9.99772E-001,-1.54296E+001,-4.10769E+001,9.98681E-001,5.12638E-002,-2.24362E-002,-1.00026E-003,5.12773E-002,-2.24498E-002,-7.77434E-001,5.14094E-002,1.05257E+000,-9.69212E-003,0.00000E+000,7.33440E-003,9.79937E-001,0.00000E+000,-4.76699E-003,-6.63098E-002,1.00000E+000,8
899,1327,-4.58606E-001,-3.19893E-001,-2.46730E-002,1.81996E+000,-3.29009E-001,7.30275E-002,1.85090E+000,4.27845E-003,5.14669E-001,0,2.78177E+001,-5.51278E+000,9.99584E-001,-1.66761E+001,-4.09976E+001,9.99444E-001,5.37800E-002,-2.24866E-002,-9.94613E-004,5.37929E-002,-2.24996E-002,-7.47040E-001,5.40320E-002,1.05523E+000,-8.40666E-003,0.00000E+000,6.09206E-003,9.79933E-001,0.00000E+000,-4.08947E-003,-6.68912E-002,1.00000E+000,8
899,1337,-4.43032E-001,3.13622E-001,-5.27783E-002,1.81726E+000,-3.42600E-001,2.29368E-002,1.84941E+000,6.99608E-003,5.05883E-001,0,2.79390E+001,-5.60891E+000,9.99821E-001,-1.63863E+001,-4.11627E+001,9.99623E-001,5.27479E-002,-2.24968E-002,-1.15819E-003,5.27658E-002,-2.25146E-002,-8.81639E-001,5.29545E-002,1.05414E+000,-8.43703E-003,0.00000E+000,5.79008E-003,9.79925E-001,0.00000E+000,-3.81529E-003,-6.68836E-002,1.00000E+000,8
899,1347,-4.18923E-001,9.54308E-001,-3.30733E-002,1.81434E+000,-3.54141E-001,-2.06108E-002,1.84870E+000,5.77303E-003,4.90171E-001,0,2.80320E+001,-5.70146E+000,9.99834E-001,-1.58538E+001,-4.13271E+001,9.99485E-001,5.17101E-002,-2.25108E-002,-1.32932E-003,5.17339E-002,-2.25346E-002,-1.02575E+000,5.18768E-002,1.05304E+000,-8.48182E-003,0.00000E+000,5.48670E-003,9.79912E-001,0.00000E+000,-3.53985E-003,-6.68723E-002,1.00000E+000,8
899,1317,-4.65841E-001,-9.47019E-001,2.59255E-002,1.82538E+000,-3.12840E-001,1.19179E-001,1.85583E+000,5.65081E-003,5.15733E-001,0,2.77486E+001,-5.36615E+000,9.99630E-001,-1.67844E+001,-4.07870E+001,9.98918E-001,5.48069E-002,-2.24790E-002,-8.35998E-004,5.48160E-002,-2.24880E-002,-6.19669E-001,5.51096E-002,1.05631E+000,-8.38553E-003,0.00000E+000,6.39290E-003,9.79939E-001,0.00000E+000,-4.36260E-003,-6.68965E-002,1.00000E+000,8
899,1307,-4.67093E-001,-1.56773E+000,1.01401E-001,1.83113E+000,-2.94616E-001,1.63619E-001,1.86188E+000,6.35251E-003,4.72787E-001,0,2.76878E+001,-5.15372E+000,9.99617E-001,-1.67417E+001,-4.05524E+001,9.98117E-001,5.58281E-002,-2.24737E-002,-6.82495E-004,5.58340E-002,-2.24797E-002,-4.99351E-001,5.61859E-002,1.05739E+000,-8.37372E-003,0.00000E+000,6.69234E-003,9.79942E-001,0.00000E+000,-4.63447E-003,-6.68995E-002,1.00000E+000,8
889,1327,-1.14149E+000,-3.26618E-001,-1.34487E-002,1.78510E+000,-3.32036E-001,7.26854E-002,1.81717E+000,3.65265E-003,5.27210E-001,0,2.73033E+001,-5.55498E+000,9.99686E-001,-1.71810E+001,-4.12122E+001,9.99641E-001,5.41101E-002,-2.20604E-002,-1.40907E-003,5.41362E-002,-2.20864E-002,-1.05942E+000,5.44409E-002,1.05558E+000,-7.29585E-003,0.00000E+000,4.11353E-003,9.80413E-001,0.00000E+000,-1.92976E-003,-6.76816E-002,1.00000E+000,8
889,1337,-1.12942E+000,3.06776E-001,-4.21591E-002,1.78017E+000,-3.44122E-001,2.72275E-002,1.81333E+000,6.12380E-003,5.09969E-001,0,2.73740E+001,-5.64358E+000,9.99793E-001,-1.69457E+001,-4.13843E+001,9.99639E-001,5.30963E-002,-2.20627E-002,-1.46161E-003,5.31247E-002,-2.20911E-002,-1.11367E+000,5.33750E-002,1.05451E+000,-7.32352E-003,0.00000E+000,4.07472E-003,9.80412E-001,0.00000E+000,-2.40733E-003,-6.76939E-002,1.00000E+000,8
889,1347,-1.10462E+000,9.46325E-001,-2.33476E-002,1.77872E+000,-3.56067E-001,-1.45608E-002,1.81407E+000,5.00966E-003,4.81691E-001,0,2.74833E+001,-5.74215E+000,9.99766E-001,-1.64029E+001,-4.15724E+001,9.99548E-001,5.20752E-002,-2.20660E-002,-1.52148E-003,5.21064E-002,-2.20972E-002,-1.17513E+000,5.23062E-002,1.05343E+000,-7.36604E-003,0.00000E+000,4.03567E-003,9.80410E-001,0.00000E+000,-2.88776E-003,-6.77129E-002,1.00000E+000,8
969,1297,4.37705E+000,-2.07992E+000,1.76098E-001,2.09943E+000,-2.16609E-001,1.22374E-001,2.11412E+000,1.02575E-002,4.78009E-001,0,3.17444E+001,-3.87127E+000,9.99748E-001,-1.18578E+001,-3.79982E+001,9.98647E-001,5.52864E-002,-2.18977E-002,1.08452E-003,5.53017E-002,-2.19129E-002,8.04857E-001,5.56971E-002,1.05690E+000,-1.66099E-002,0.00000E+000,1.86390E-002,9.79943E-001,0.00000E+000,-1.98644E-002,-5.99659E-002,1.00000E+000,8
969,1307,4.36470E+000,-1.46212E+000,8.83555E-002,2.08508E+000,-2.36243E-001,9.03767E-002,2.10036E+000,1.60264E-002,4.99755E-001,0,3.16406E+001,-4.11549E+000,9.99614E-001,-1.21366E+001,-3.82522E+001,9.98017E-001,5.45222E-002,-2.18973E-002,1.08649E-003,5.45376E-002,-2.19127E-002,8.14378E-001,5.48872E-002,1.05605E+000,-1.66125E-002,0.00000E+000,1.85294E-002,9.79942E-001,0.00000E+000,-1.77017E-002,-5.99594E-002,1.00000E+000,8
969,1317,4.36467E+000,-8.39299E-001,2.54542E-002,2.07542E+000,-2.54290E-001,4.88577E-002,2.09151E+000,6.78194E-003,4.81502E-001,0,3.16382E+001,-4.31729E+000,9.99806E-001,-1.21707E+001,-3.85001E+001,9.99237E-001,5.37512E-002,-2.18967E-002,1.08368E-003,5.37667E-002,-2.19122E-002,8.20556E-001,5.40722E-002,1.05520E+000,-1.66253E-002,0.00000E+000,1.84197E-002,9.79941E-001,0.00000E+000,-1.55342E-002,-5.99266E-002,1.00000E+000,8
889,1317,-1.14979E+000,-9.52601E-001,3.92885E-002,1.78889E+000,-3.15352E-001,1.18825E-001,1.82035E+000,5.15852E-003,5.41167E-001,0,2.72098E+001,-5.40504E+000,9.99740E-001,-1.73012E+001,-4.09803E+001,9.99417E-001,5.51201E-002,-2.20586E-002,-1.36038E-003,5.51441E-002,-2.20826E-002,-1.00950E+000,5.55072E-002,1.05664E+000,-7.27605E-003,0.00000E+000,4.15225E-003,9.80414E-001,0.00000E+000,-1.45343E-003,-6.76727E-002,1.00000E+000,8
969,1327,4.36754E+000,-2.09034E-001,-1.97443E-002,2.06525E+000,-2.67485E-001,9.75602E-003,2.08252E+000,6.72436E-003,4.88327E-001,0,3.16166E+001,-4.45637E+000,9.99847E-001,-1.21211E+001,-3.86591E+001,9.99431E-001,5.29728E-002,-2.18960E-002,1.07860E-003,5.29883E-002,-2.19115E-002,8.25209E-001,5.32519E-002,1.05435E+000,-1.66428E-002,0.00000E+000,1.83096E-002,9.79938E-001,0.00000E+000,-1.33611E-002,-5.98821E-002,1.00000E+000,8
889,1307,-1.15331E+000,-1.57414E+000,1.16767E-001,1.79167E+000,-2.98751E-001,1.62268E-001,1.82364E+000,7.16457E-003,5.05436E-001,0,2.71080E+001,-5.21639E+000,9.99643E-001,-1.72888E+001,-4.07573E+001,9.98559E-001,5.61239E-002,-2.20575E-002,-1.31631E-003,5.61460E-002,-2.20796E-002,-9.64300E-001,5.65709E-002,1.05771E+000,-7.26557E-003,0.00000E+000,4.19077E-003,9.80414E-001,0.00000E+000,-9.79460E-004,-6.76680E-002,1.00000E+000,8
969,1337,4.37796E+000,4.20391E-001,-4.19553E-002,2.05710E+000,-2.84622E-001,-3.12473E-002,2.07693E+000,7.06718E-003,4.42643E-001,0,3.16321E+001,-4.63593E+000,9.99758E-001,-1.19053E+001,-3.89080E+001,9.99339E-001,5.21872E-002,-2.18951E-002,1.06990E-003,5.22027E-002,-2.19106E-002,8.27236E-001,5.24265E-002,1.05350E+000,-1.66677E-002,0.00000E+000,1.81993E-002,9.79935E-001,0.00000E+000,-1.11824E-002,-5.98185E-002,1.00000E+000,8
969,1347,4.39234E+000,1.06365E+000,-3.73045E-002,2.04810E+000,-2.94056E-001,-6.65217E-002,2.07017E+000,6.38238E-003,4.85664E-001,0,3.16107E+001,-4.70914E+000,9.99686E-001,-1.15694E+001,-3.89604E+001,9.99191E-001,5.13903E-002,-2.18941E-002,1.05796E-003,5.14056E-002,-2.19094E-002,8.26915E-001,5.15919E-002,1.05264E+000,-1.66991E-002,0.00000E+000,1.80881E-002,9.79931E-001,0.00000E+000,-8.98725E-003,-5.97385E-002,1.00000E+000,8
879,1327,-1.82330E+000,-3.31199E-001,4.92832E-004,1.75078E+000,-3.32732E-001,7.43771E-002,1.78367E+000,4.80325E-003,5.28105E-001,0,2.67890E+001,-5.56452E+000,9.99777E-001,-1.76583E+001,-4.14053E+001,9.99649E-001,5.45081E-002,-2.22057E-002,-1.67093E-003,5.45445E-002,-2.22421E-002,-1.24719E+000,5.48528E-002,1.05600E+000,-6.33102E-003,0.00000E+000,2.60176E-003,9.80256E-001,0.00000E+000,-3.52312E-004,-6.73739E-002,1.00000E+000,8
879,1337,-1.81131E+000,3.00131E-001,-3.15256E-002,1.74643E+000,-3.45992E-001,2.80577E-002,1.78060E+000,4.63170E-003,5.07403E-001,0,2.68710E+001,-5.67268E+000,9.99670E-001,-1.74313E+001,-4.16058E+001,9.99597E-001,5.35399E-002,-2.22063E-002,-1.69485E-003,5.35778E-002,-2.22442E-002,-1.28116E+000,5.38342E-002,1.05498E+000,-6.35643E-003,0.00000E+000,2.63779E-003,9.80257E-001,0.00000E+000,-1.16739E-003,-6.73942E-002,1.00000E+000,8
879,1347,-1.78898E+000,9.40464E-001,-2.05807E-002,1.74403E+000,-3.57412E-001,-1.52766E-002,1.78034E+000,6.04727E-003,5.17942E-001,0,2.69700E+001,-5.75709E+000,9.99660E-001,-1.69430E+001,-4.17473E+001,9.99457E-001,5.25624E-002,-2.22071E-002,-1.72502E-003,5.26022E-002,-2.22469E-002,-1.32094E+000,5.28101E-002,1.05395E+000,-6.39474E-003,0.00000E+000,2.67410E-003,9.80258E-001,0.00000E+000,-1.98906E-003,-6.74247E-002,1.00000E+000,8
879,1307,-1.83794E+000,-1.57624E+000,1.35991E-001,1.75283E+000,-2.98731E-001,1.62019E-001,1.78547E+000,7.55615E-003,5.12531E-001,0,2.65320E+001,-5.20808E+000,9.99547E-001,-1.77969E+001,-4.09168E+001,9.98683E-001,5.64301E-002,-2.22050E-002,-1.63487E-003,5.64641E-002,-2.22390E-002,-1.19053E+000,5.68865E-002,1.05804E+000,-6.30468E-003,0.00000E+000,2.53008E-003,9.80255E-001,0.00000E+000,1.26972E-003,-6.73529E-002,1.00000E+000,8
879,1317,-1.83231E+000,-9.57709E-001,5.38054E-002,1.75357E+000,-3.16216E-001,1.20152E-001,1.78590E+000,5.30438E-003,4.77568E-001,0,2.66825E+001,-5.39476E+000,9.99771E-001,-1.77880E+001,-4.12130E+001,9.99342E-001,5.54739E-002,-2.22053E-002,-1.65033E-003,5.55090E-002,-2.22403E-002,-1.21655E+000,5.58729E-002,1.05703E+000,-6.31254E-003,0.00000E+000,2.56577E-003,9.80255E-001,0.00000E+000,4.62129E-004,-6.73591E-002,1.00000E+000,8
979,1307,5.06802E+000,-1.44390E+000,9.61158E-002,2.12805E+000,-2.27728E-001,6.95751E-002,2.14133E+000,1.07046E-002,4.96669E-001,0,3.23399E+001,-3.93896E+000,9.99885E-001,-1.12403E+001,-3.78980E+001,9.99440E-001,5.43690E-002,-2.17842E-002,1.05013E-003,5.43835E-002,-2.17987E-002,7.89890E-001,5.47389E-002,1.05587E+000,-1.74600E-002,0.00000E+000,1.91778E-002,9.79928E-001,0.00000E+000,-1.70448E-002,-5.80237E-002,1.00000E+000,8
979,1317,5.06265E+000,-8.17872E-001,3.18298E-002,2.11458E+000,-2.42166E-001,3.38650E-002,2.12867E+000,5.06197E-003,4.78835E-001,0,3.22595E+001,-4.09146E+000,9.99791E-001,-1.13594E+001,-3.80923E+001,9.99461E-001,5.37515E-002,-2.17826E-002,1.06684E-003,5.37665E-002,-2.17977E-002,8.09030E-001,5.40863E-002,1.05518E+000,-1.74687E-002,0.00000E+000,1.91121E-002,9.79928E-001,0.00000E+000,-1.50053E-002,-5.79978E-002,1.00000E+000,8
979,1327,5.06248E+000,-1.90018E-001,-1.61129E-002,2.10216E+000,-2.56994E-001,-3.99012E-003,2.11782E+000,5.21141E-003,4.68170E-001,0,3.22012E+001,-4.25656E+000,9.99665E-001,-1.13636E+001,-3.82902E+001,9.99149E-001,5.31284E-002,-2.17807E-002,1.08141E-003,5.31440E-002,-2.17963E-002,8.26910E-001,5.34293E-002,1.05450E+000,-1.74819E-002,0.00000E+000,1.90462E-002,9.79926E-001,0.00000E+000,-1.29622E-002,-5.79585E-002,1.00000E+000,8
979,1337,5.06907E+000,4.42951E-001,-4.33028E-002,2.09235E+000,-2.69752E-001,-3.96229E-002,2.11004E+000,7.31898E-003,4.61441E-001,0,3.21727E+001,-4.39293E+000,9.99449E-001,-1.12184E+001,-3.84531E+001,9.98828E-001,5.24988E-002,-2.17784E-002,1.09380E-003,5.25150E-002,-2.17945E-002,8.43485E-001,5.27672E-002,1.05381E+000,-1.74997E-002,0.00000E+000,1.89801E-002,9.79925E-001,0.00000E+000,-1.09130E-002,-5.79057E-002,1.00000E+000,8
979,1347,5.08291E+000,1.08466E+000,-3.30878E-002,2.08130E+000,-2.80477E-001,-7.54347E-002,2.10147E+000,7.88600E-003,4.74654E-001,0,3.21226E+001,-4.49138E+000,9.99150E-001,-1.08810E+001,-3.85550E+001,9.98419E-001,5.18604E-002,-2.17755E-002,1.10186E-003,5.18769E-002,-2.17920E-002,8.57098E-001,5.20974E-002,1.05312E+000,-1.75266E-002,0.00000E+000,1.89136E-002,9.79922E-001,0.00000E+000,-8.84950E-003,-5.78254E-002,1.00000E+000,8
979,1297,5.07070E+000,-2.06044E+000,1.74613E-001,2.13725E+000,-2.04345E-001,1.12317E-001,2.14994E+000,9.00104E-003,4.97663E-001,0,3.23272E+001,-3.66160E+000,9.99777E-001,-1.11308E+001,-3.75963E+001,9.99049E-001,5.49819E-002,-2.17856E-002,1.03251E-003,5.49958E-002,-2.17995E-002,7.70434E-001,5.53880E-002,1.05655E+000,-1.74531E-002,0.00000E+000,1.92436E-002,9.79929E-001,0.00000E+000,-1.90839E-002,-5.80444E-002,1.00000E+000,8
869,1317,-2.52038E+000,-9.61866E-001,5.29773E-002,1.71389E+000,-3.16354E-001,1.13850E-001,1.74656E+000,4.87590E-003,4.93192E-001,0,2.61121E+001,-5.37533E+000,9.99778E-001,-1.83924E+001,-4.13597E+001,9.99078E-001,5.56884E-002,-2.23622E-002,-1.74333E-003,5.57273E-002,-2.24011E-002,-1.27890E+000,5.60831E-002,1.05726E+000,-5.26276E-003,0.00000E+000,1.32781E-003,9.80079E-001,0.00000E+000,1.77410E-003,-6.69782E-002,1.00000E+000,8
869,1327,-2.51083E+000,-3.35367E-001,2.19944E-003,1.71211E+000,-3.31443E-001,7.22500E-002,1.74539E+000,5.28340E-003,5.37275E-001,0,2.62193E+001,-5.54407E+000,9.99717E-001,-1.82480E+001,-4.15625E+001,9.99413E-001,5.48320E-002,-2.23625E-002,-1.76006E-003,5.48721E-002,-2.24026E-002,-1.30546E+000,5.51790E-002,1.05635E+000,-5.27854E-003,0.00000E+000,1.38489E-003,9.80080E-001,0.00000E+000,6.87057E-004,-6.69972E-002,1.00000E+000,8
869,1337,-2.49602E+000,2.94742E-001,-2.54109E-002,1.71012E+000,-3.46684E-001,2.74933E-002,1.74512E+000,5.40861E-003,5.32716E-001,0,2.63319E+001,-5.68601E+000,9.99615E-001,-1.79666E+001,-4.17847E+001,9.99350E-001,5.39704E-002,-2.23630E-002,-1.78037E-003,5.40119E-002,-2.24045E-002,-1.33538E+000,5.42726E-002,1.05544E+000,-5.30176E-003,0.00000E+000,1.44219E-003,9.80082E-001,0.00000E+000,-4.04178E-004,-6.70250E-002,1.00000E+000,8
869,1347,-2.47596E+000,9.33412E-001,-2.42333E-002,1.70817E+000,-3.56432E-001,-1.36010E-002,1.74502E+000,7.68401E-003,4.96140E-001,0,2.64302E+001,-5.74671E+000,9.99707E-001,-1.75346E+001,-4.19559E+001,9.99335E-001,5.31045E-002,-2.23636E-002,-1.80412E-003,5.31476E-002,-2.24067E-002,-1.36866E+000,5.33649E-002,1.05453E+000,-5.33205E-003,0.00000E+000,1.49965E-003,9.80083E-001,0.00000E+000,-1.49854E-003,-6.70613E-002,1.00000E+000,8
869,1307,-2.52375E+000,-1.57865E+000,1.44039E-001,1.71487E+000,-2.97096E-001,1.62186E-001,1.74796E+000,6.37191E-003,5.30842E-001,0,2.59673E+001,-5.18611E+000,9.99571E-001,-1.83449E+001,-4.10519E+001,9.98941E-001,5.65377E-002,-2.23620E-002,-1.73116E-003,5.65756E-002,-2.24000E-002,-1.25633E+000,5.69826E-002,1.05816E+000,-5.25649E-003,0.00000E+000,1.27108E-003,9.80079E-001,0.00000E+000,2.85452E-003,-6.69707E-002,1.00000E+000,8
989,1307,5.76001E+000,-1.41950E+000,9.25651E-002,2.16324E+000,-2.10297E-001,5.54161E-002,2.17414E+000,7.91913E-003,5.01486E-001,0,3.28953E+001,-3.64504E+000,9.99660E-001,-1.05384E+001,-3.74217E+001,9.98993E-001,5.41869E-002,-2.17589E-002,9.39567E-004,5.41985E-002,-2.17705E-002,7.08693E-001,5.45467E-002,1.05564E+000,-1.80581E-002,0.00000E+000,1.94189E-002,9.79840E-001,0.00000E+000,-1.57904E-002,-5.61041E-002,1.00000E+000,8
989,1317,5.75118E+000,-7.92524E-001,2.27302E-002,2.14743E+000,-2.24937E-001,1.96772E-002,2.15927E+000,7.64829E-003,5.46987E-001,0,3.27807E+001,-3.80567E+000,9.99774E-001,-1.07233E+001,-3.75565E+001,9.99146E-001,5.37116E-002,-2.17560E-002,9.82210E-004,5.37243E-002,-2.17688E-002,7.45536E-001,5.40453E-002,1.05511E+000,-1.80638E-002,0.00000E+000,1.94090E-002,9.79840E-001,0.00000E+000,-1.38562E-002,-5.60830E-002,1.00000E+000,8
989,1327,5.75581E+000,-1.64539E-001,-1.40665E-002,2.13775E+000,-2.41937E-001,-1.56190E-002,2.15145E+000,9.59885E-003,5.26842E-001,0,3.27562E+001,-3.99282E+000,9.99651E-001,-1.06302E+001,-3.77790E+001,9.98631E-001,5.32312E-002,-2.17520E-002,1.02206E-003,5.32452E-002,-2.17659E-002,7.80775E-001,5.35397E-002,1.05458E+000,-1.80757E-002,0.00000E+000,1.93990E-002,9.79839E-001,0.00000E+000,-1.19177E-002,-5.60396E-002,1.00000E+000,8
989,1297,5.76832E+000,-2.04134E+000,1.72260E-001,2.17726E+000,-1.91964E-001,9.54466E-002,2.18779E+000,7.48556E-003,5.00196E-001,0,3.29659E+001,-3.44834E+000,9.99604E-001,-1.03403E+001,-3.72066E+001,9.98736E-001,5.46575E-002,-2.17615E-002,8.96423E-004,5.46680E-002,-2.17720E-002,6.71977E-001,5.50440E-002,1.05617E+000,-1.80534E-002,0.00000E+000,1.94289E-002,9.79840E-001,0.00000E+000,-1.77213E-002,-5.61212E-002,1.00000E+000,8
989,1337,5.76321E+000,4.65637E-001,-3.25111E-002,2.12587E+000,-2.57380E-001,-5.48363E-002,2.14209E+000,6.53253E-003,4.59678E-001,0,3.27097E+001,-4.16561E+000,9.99377E-001,-1.04554E+001,-3.80327E+001,9.99002E-001,5.27475E-002,-2.17472E-002,1.05980E-003,5.27626E-002,-2.17623E-002,8.14897E-001,5.30315E-002,1.05405E+000,-1.80917E-002,0.00000E+000,1.93890E-002,9.79839E-001,0.00000E+000,-9.98134E-003,-5.59811E-002,1.00000E+000,8
989,1347,5.77599E+000,1.10510E+000,-2.73323E-002,2.11587E+000,-2.68190E-001,-8.56946E-002,2.13452E+000,6.83360E-003,4.60256E-001,0,3.26598E+001,-4.28503E+000,9.99735E-001,-1.01469E+001,-3.81634E+001,9.99454E-001,5.22570E-002,-2.17419E-002,1.09625E-003,5.22733E-002,-2.17581E-002,8.48558E-001,5.25172E-002,1.05352E+000,-1.81107E-002,0.00000E+000,1.93790E-002,9.79839E-001,0.00000E+000,-8.03368E-003,-5.59119E-002,1.00000E+000,8
859,1327,-3.19582E+000,-3.37940E-001,1.47811E-003,1.67537E+000,-3.29331E-001,6.67938E-002,1.70873E+000,5.34472E-003,5.43486E-001,0,2.56886E+001,-5.49260E+000,9.99528E-001,-1.87998E+001,-4.16910E+001,9.99258E-001,5.50554E-002,-2.24410E-002,-1.77734E-003,5.50962E-002,-2.24817E-002,-1.31313E+000,5.54059E-002,1.05659E+000,-4.35209E-003,0.00000E+000,4.62192E-004,9.79962E-001,0.00000E+000,1.19343E-003,-6.63548E-002,1.00000E+000,8
859,1337,-3.17965E+000,2.92210E-001,-2.19049E-002,1.67503E+000,-3.43473E-001,2.69215E-002,1.71010E+000,5.74892E-003,5.41691E-001,0,2.58099E+001,-5.64126E+000,9.99622E-001,-1.84865E+001,-4.19220E+001,9.99214E-001,5.43426E-002,-2.24418E-002,-1.80248E-003,5.43849E-002,-2.24841E-002,-1.34400E+000,5.46559E-002,1.05584E+000,-4.37100E-003,0.00000E+000,5.12087E-004,9.79964E-001,0.00000E+000,-2.24009E-005,-6.63853E-002,1.00000E+000,8
859,1347,-3.15892E+000,9.27923E-001,-1.72890E-002,1.67329E+000,-3.56454E-001,-1.38294E-002,1.71089E+000,8.26282E-003,4.95357E-001,0,2.59102E+001,-5.74740E+000,9.99793E-001,-1.80350E+001,-4.21529E+001,9.99388E-001,5.36244E-002,-2.24430E-002,-1.83092E-003,5.36685E-002,-2.24870E-002,-1.37803E+000,5.39027E-002,1.05508E+000,-4.39662E-003,0.00000E+000,5.62214E-004,9.79965E-001,0.00000E+000,-1.24389E-003,-6.64266E-002,1.00000E+000,8
859,1307,-3.20946E+000,-1.57794E+000,1.44595E-001,1.67698E+000,-2.93954E-001,1.56935E-001,1.70977E+000,8.91037E-003,6.30894E-001,0,2.54198E+001,-5.14066E+000,9.99545E-001,-1.89048E+001,-4.10824E+001,9.98935E-001,5.64653E-002,-2.24401E-002,-1.73681E-003,5.65035E-002,-2.24783E-002,-1.26034E+000,5.68954E-002,1.05809E+000,-4.33427E-003,0.00000E+000,3.63102E-004,9.79961E-001,0.00000E+000,3.60802E-003,-6.63260E-002,1.00000E+000,8
859,1317,-3.20473E+000,-9.63965E-001,5.50627E-002,1.67737E+000,-3.15430E-001,1.09828E-001,1.71030E+000,6.96720E-003,5.38358E-001,0,2.55814E+001,-5.34592E+000,9.99433E-001,-1.89283E+001,-4.14657E+001,9.98646E-001,5.57629E-002,-2.24404E-002,-1.75529E-003,5.58023E-002,-2.24798E-002,-1.28515E+000,5.61523E-002,1.05734E+000,-4.33948E-003,0.00000E+000,4.12533E-004,9.79961E-001,0.00000E+000,2.40349E-003,-6.63344E-002,1.00000E+000,8
999,1337,6.45324E+000,4.83863E-001,-3.50408E-002,2.16091E+000,-2.43590E-001,-5.66194E-002,2.17533E+000,6.67606E-003,4.20972E-001,0,3.32241E+001,-3.95892E+000,9.99836E-001,-9.78056E+000,-3.76712E+001,9.99225E-001,5.28605E-002,-2.17412E-002,9.27383E-004,5.28720E-002,-2.17527E-002,7.12105E-001,5.31479E-002,1.05415E+000,-1.84892E-002,0.00000E+000,1.94068E-002,9.79730E-001,0.00000E+000,-8.63573E-003,-5.38906E-002,1.00000E+000,8
999,1347,6.46945E+000,1.12584E+000,-2.21758E-002,2.15189E+000,-2.55039E-001,-8.95734E-002,2.16880E+000,5.72702E-003,4.30512E-001,0,3.31966E+001,-4.06557E+000,9.99881E-001,-9.40468E+000,-3.77736E+001,9.99355E-001,5.25183E-002,-2.17354E-002,9.68136E-004,5.25309E-002,-2.17480E-002,7.46866E-001,5.27892E-002,1.05378E+000,-1.85037E-002,0.00000E+000,1.94135E-002,9.79731E-001,0.00000E+000,-6.89065E-003,-5.38226E-002,1.00000E+000,8
999,1307,6.45252E+000,-1.39915E+000,8.76756E-002,2.19851E+000,-1.96984E-001,4.01422E-002,2.20768E+000,5.35335E-003,4.91155E-001,0,3.34571E+001,-3.40397E+000,9.99701E-001,-9.82789E+000,-3.70127E+001,9.99308E-001,5.38579E-002,-2.17527E-002,7.95992E-004,5.38662E-002,-2.17611E-002,6.03093E-001,5.41963E-002,1.05526E+000,-1.84671E-002,0.00000E+000,1.93868E-002,9.79730E-001,0.00000E+000,-1.38148E-002,-5.39937E-002,1.00000E+000,8
999,1317,6.44567E+000,-7.72884E-001,2.37624E-002,2.18429E+000,-2.11960E-001,8.83731E-003,2.19457E+000,9.22356E-003,5.21080E-001,0,3.33521E+001,-3.58455E+000,9.99468E-001,-9.97003E+000,-3.71771E+001,9.97255E-001,5.35287E-002,-2.17497E-002,8.41268E-004,5.35381E-002,-2.17591E-002,6.40197E-001,5.38498E-002,1.05489E+000,-1.84713E-002,0.00000E+000,1.93934E-002,9.79730E-001,0.00000E+000,-1.20899E-002,-5.39739E-002,1.00000E+000,8
999,1327,6.44849E+000,-1.48790E-001,-2.00012E-002,2.17425E+000,-2.31543E-001,-2.66048E-002,2.18671E+000,1.02481E-002,4.95298E-001,0,3.33250E+001,-3.81720E+000,9.99686E-001,-9.92078E+000,-3.74461E+001,9.98211E-001,5.31960E-002,-2.17459E-002,8.85088E-004,5.32065E-002,-2.17563E-002,6.76556E-001,5.35000E-002,1.05452E+000,-1.84787E-002,0.00000E+000,1.94001E-002,9.79730E-001,0.00000E+000,-1.03623E-002,-5.39393E-002,1.00000E+000,8
999,1297,6.46241E+000,-2.02345E+000,1.67982E-001,2.21373E+000,-1.81315E-001,7.88824E-002,2.22254E+000,5.76530E-003,5.08830E-001,0,3.35503E+001,-3.25259E+000,9.99436E-001,-9.60477E+000,-3.68290E+001,9.98429E-001,5.41835E-002,-2.17554E-002,7.50166E-004,5.41910E-002,-2.17628E-002,5.65925E-001,5.45397E-002,1.05563E+000,-1.84640E-002,0.00000E+000,1.93801E-002,9.79730E-001,0.00000E+000,-1.55377E-002,-5.40080E-002,1.00000E+000,8
849,1337,-3.86388E+000,2.89839E-001,-1.54847E-002,1.63808E+000,-3.42551E-001,2.53898E-002,1.67371E+000,7.42095E-003,5.67953E-001,0,2.52620E+001,-5.60932E+000,9.99727E-001,-1.90047E+001,-4.20549E+001,9.99378E-001,5.46110E-002,-2.24260E-002,-1.71009E-003,5.46490E-002,-2.24639E-002,-1.27104E+000,5.49364E-002,1.05613E+000,-3.54875E-003,0.00000E+000,-6.67669E-005,9.79924E-001,0.00000E+000,-3.56521E-005,-6.55352E-002,1.00000E+000,8
849,1347,-3.84711E+000,9.21615E-001,-1.98689E-002,1.63520E+000,-3.56256E-001,-1.16875E-002,1.67360E+000,6.59029E-003,5.02359E-001,0,2.53333E+001,-5.74264E+000,9.99767E-001,-1.86346E+001,-4.23386E+001,9.99538E-001,5.40389E-002,-2.24268E-002,-1.73234E-003,5.40781E-002,-2.24661E-002,-1.29715E+000,5.43353E-002,1.05552E+000,-3.56671E-003,0.00000E+000,-1.62376E-005,9.79926E-001,0.00000E+000,-1.21663E-003,-6.55704E-002,1.00000E+000,8
849,1357,-3.81825E+000,1.56501E+000,2.18719E-002,1.63396E+000,-3.67937E-001,-5.33108E-002,1.67573E+000,5.79027E-003,4.98866E-001,0,2.54406E+001,-5.83682E+000,9.99805E-001,-1.79658E+001,-4.25163E+001,9.99494E-001,5.34587E-002,-2.24281E-002,-1.75926E-003,5.34995E-002,-2.24688E-002,-1.32732E+000,5.37274E-002,1.05491E+000,-3.59408E-003,0.00000E+000,3.48526E-005,9.79928E-001,0.00000E+000,-2.41071E-003,-6.56239E-002,1.00000E+000,8
849,1327,-3.87710E+000,-3.38874E-001,8.45243E-003,1.64009E+000,-3.27386E-001,6.02295E-002,1.67353E+000,8.05067E-003,5.51732E-001,0,2.51826E+001,-5.43431E+000,9.99684E-001,-1.92718E+001,-4.18095E+001,9.99317E-001,5.51810E-002,-2.24253E-002,-1.68979E-003,5.52177E-002,-2.24621E-002,-1.24676E+000,5.55366E-002,1.05673E+000,-3.53478E-003,0.00000E+000,-1.17253E-004,9.79923E-001,0.00000E+000,1.14431E-003,-6.55079E-002,1.00000E+000,8
1009,1337,7.14663E+000,5.07771E-001,-4.36851E-002,2.20052E+000,-2.26472E-001,-5.68623E-002,2.21287E+000,8.51440E-003,4.64193E-001,0,3.38011E+001,-3.69268E+000,9.99837E-001,-9.06228E+000,-3.71671E+001,9.99458E-001,5.29053E-002,-2.17594E-002,7.59006E-004,5.29130E-002,-2.17671E-002,5.82362E-001,5.31894E-002,1.05418E+000,-1.87366E-002,0.00000E+000,1.92187E-002,9.79626E-001,0.00000E+000,-7.19437E-003,-5.21873E-002,1.00000E+000,8
1009,1347,7.16111E+000,1.14185E+000,-2.68017E-002,2.18754E+000,-2.45429E-001,-9.49074E-002,2.20331E+000,5.98422E-003,4.38882E-001,0,3.37340E+001,-3.91637E+000,9.99909E-001,-8.70781E+000,-3.74164E+001,9.99659E-001,5.26924E-002,-2.17540E-002,7.96826E-004,5.27009E-002,-2.17625E-002,6.13164E-001,5.29665E-002,1.05395E+000,-1.87465E-002,0.00000E+000,1.92305E-002,9.79626E-001,0.00000E+000,-5.72742E-003,-5.21253E-002,1.00000E+000,8
1009,1297,7.15348E+000,-2.00615E+000,1.60928E-001,2.24829E+000,-1.69264E-001,6.63906E-002,2.25563E+000,7.03041E-003,4.56361E-001,0,3.40910E+001,-3.02947E+000,9.99212E-001,-8.91752E+000,-3.64857E+001,9.98336E-001,5.37284E-002,-2.17714E-002,5.97086E-004,5.37331E-002,-2.17762E-002,4.53083E-001,5.40536E-002,1.05511E+000,-1.87219E-002,0.00000E+000,1.91722E-002,9.79625E-001,0.00000E+000,-1.30098E-002,-5.22798E-002,1.00000E+000,8
1009,1307,7.14525E+000,-1.38134E+000,8.45216E-002,2.23470E+000,-1.83886E-001,3.15988E-002,2.24248E+000,7.20390E-003,4.50196E-001,0,3.40094E+001,-3.19078E+000,9.99507E-001,-9.10672E+000,-3.66621E+001,9.99242E-001,5.35265E-002,-2.17691E-002,6.38313E-004,5.35319E-002,-2.17745E-002,4.85674E-001,5.38413E-002,1.05488E+000,-1.87238E-002,0.00000E+000,1.91838E-002,9.79625E-001,0.00000E+000,-1.15606E-002,-5.22677E-002,1.00000E+000,8
1009,1317,7.14158E+000,-7.54809E-001,2.10055E-002,2.22333E+000,-1.98701E-001,-5.34826E-004,2.23219E+000,7.09047E-003,4.76765E-001,0,3.39512E+001,-3.37071E+000,9.99743E-001,-9.19898E+000,-3.68228E+001,9.99200E-001,5.33220E-002,-2.17664E-002,6.79192E-004,5.33282E-002,-2.17726E-002,5.18197E-001,5.36265E-002,1.05465E+000,-1.87266E-002,0.00000E+000,1.91954E-002,9.79625E-001,0.00000E+000,-1.01086E-002,-5.22503E-002,1.00000E+000,8
849,1317,-3.88944E+000,-9.60916E-001,6.25592E-002,1.63993E+000,-3.08457E-001,1.10371E-001,1.67233E+000,8.88352E-003,6.12230E-001,0,2.50190E+001,-5.26281E+000,9.99556E-001,-1.94518E+001,-4.14898E+001,9.98925E-001,5.57473E-002,-2.24248E-002,-1.67086E-003,5.57830E-002,-2.24605E-002,-1.22390E+000,5.61343E-002,1.05733E+000,-3.52355E-003,0.00000E+000,-1.67567E-004,9.79922E-001,0.00000E+000,2.32026E-003,-6.54859E-002,1.00000E+000,8
1009,1327,7.14189E+000,-1.26611E-001,-1.75669E-002,2.20900E+000,-2.16129E-001,-3.79675E-002,2.21988E+000,7.44629E-003,4.61529E-001,0,3.38654E+001,-3.55994E+000,9.99788E-001,-9.17803E+000,-3.70330E+001,9.99449E-001,5.31147E-002,-2.17628E-002,7.19045E-004,5.31216E-002,-2.17697E-002,5.50141E-001,5.34089E-002,1.05442E+000,-1.87318E-002,0.00000E+000,1.92071E-002,9.79626E-001,0.00000E+000,-8.65086E-003,-5.22172E-002,1.00000E+000,8
849,1307,-3.89643E+000,-1.58034E+000,1.48301E-001,1.63728E+000,-2.91669E-001,1.53839E-001,1.67016E+000,1.00125E-002,5.76619E-001,0,2.48369E+001,-5.07257E+000,9.99529E-001,-1.94720E+001,-4.12448E+001,9.98788E-001,5.63093E-002,-2.24246E-002,-1.65533E-003,5.63441E-002,-2.24594E-002,-1.20390E+000,5.67289E-002,1.05793E+000,-3.51939E-003,0.00000E+000,-2.17652E-004,9.79922E-001,0.00000E+000,3.49086E-003,-6.54778E-002,1.00000E+000,8
839,1337,-4.54795E+000,2.83810E-001,7.46851E-004,1.60063E+000,-3.43546E-001,3.21537E-002,1.63740E+000,1.53482E-002,5.52001E-001,0,2.46798E+001,-5.63514E+000,9.99719E-001,-1.94927E+001,-4.22867E+001,9.99205E-001,5.47673E-002,-2.23836E-002,-1.54810E-003,5.47983E-002,-2.24146E-002,-1.14908E+000,5.50998E-002,1.05629E+000,-2.90730E-003,0.00000E+000,-3.25118E-004,9.79889E-001,0.00000E+000,-3.13496E-004,-6.43282E-002,1.00000E+000,8
839,1347,-4.53345E+000,9.15060E-001,-1.87640E-002,1.59758E+000,-3.56529E-001,-1.05468E-002,1.63691E+000,5.89721E-003,4.98529E-001,0,2.47658E+001,-5.74508E+000,9.99750E-001,-1.91930E+001,-4.25415E+001,9.99443E-001,5.42639E-002,-2.23845E-002,-1.57089E-003,5.42961E-002,-2.24166E-002,-1.17360E+000,5.45703E-002,1.05576E+000,-2.92152E-003,0.00000E+000,-2.80639E-004,9.79890E-001,0.00000E+000,-1.50032E-003,-6.43600E-002,1.00000E+000,8
839,1357,-4.50382E+000,1.55976E+000,1.91480E-002,1.59823E+000,-3.65926E-001,-5.16815E-002,1.64040E+000,4.72442E-003,4.95472E-001,0,2.48994E+001,-5.80703E+000,9.99799E-001,-1.85190E+001,-4.26920E+001,9.99580E-001,5.37532E-002,-2.23859E-002,-1.59824E-003,5.37868E-002,-2.24194E-002,-1.20199E+000,5.40343E-002,1.05523E+000,-2.94488E-003,0.00000E+000,-2.35662E-004,9.79892E-001,0.00000E+000,-2.70045E-003,-6.44122E-002,1.00000E+000,8
1019,1337,7.84396E+000,5.31305E-001,-3.19064E-002,2.23750E+000,-2.13205E-001,-6.32809E-002,2.24853E+000,7.42149E-003,5.17585E-001,0,3.43584E+001,-3.48363E+000,9.99729E-001,-8.23779E+000,-3.67083E+001,9.99548E-001,5.28938E-002,-2.17553E-002,5.73729E-004,5.28982E-002,-2.17597E-002,4.40322E-001,5.31746E-002,1.05416E+000,-1.89226E-002,0.00000E+000,1.89499E-002,9.79571E-001,0.00000E+000,-5.76932E-003,-5.09554E-002,1.00000E+000,8
1019,1347,7.85226E+000,1.16444E+000,-3.00466E-002,2.22394E+000,-2.30257E-001,-9.11648E-002,2.23768E+000,6.65138E-003,4.84349E-001,0,3.42486E+001,-3.68735E+000,9.99778E-001,-8.01149E+000,-3.69422E+001,9.99689E-001,5.27648E-002,-2.17502E-002,6.18925E-004,5.27699E-002,-2.17554E-002,4.75857E-001,5.30400E-002,1.05402E+000,-1.89274E-002,0.00000E+000,1.89826E-002,9.79572E-001,0.00000E+000,-4.51867E-003,-5.09134E-002,1.00000E+000,8
839,1327,-4.57006E+000,-3.42977E-001,2.51338E-003,1.59811E+000,-3.24094E-001,6.69108E-002,1.63201E+000,1.50029E-002,5.78030E-001,0,2.45315E+001,-5.40439E+000,9.99748E-001,-1.99514E+001,-4.19419E+001,9.99160E-001,5.52702E-002,-2.23826E-002,-1.52456E-003,5.53001E-002,-2.24125E-002,-1.12432E+000,5.56298E-002,1.05683E+000,-2.89145E-003,0.00000E+000,-3.69703E-004,9.79887E-001,0.00000E+000,8.76172E-004,-6.42927E-002,1.00000E+000,8
1019,1327,7.83604E+000,-1.06737E-001,-2.06876E-002,2.24785E+000,-2.02512E-001,-3.80060E-002,2.25728E+000,7.28809E-003,4.87182E-001,0,3.44296E+001,-3.35640E+000,9.99711E-001,-8.43219E+000,-3.66138E+001,9.99400E-001,5.30212E-002,-2.17598E-002,5.28137E-004,5.30249E-002,-2.17635E-002,4.04622E-001,5.33077E-002,1.05430E+000,-1.89186E-002,0.00000E+000,1.89171E-002,9.79570E-001,0.00000E+000,-7.01894E-003,-5.09906E-002,1.00000E+000,8
1019,1317,7.83654E+000,-7.37467E-001,2.67313E-002,2.25942E+000,-1.88623E-001,-7.82897E-003,2.26729E+000,8.70916E-003,4.66633E-001,0,3.44983E+001,-3.20404E+000,9.99746E-001,-8.42197E+000,-3.64813E+001,9.99057E-001,5.31465E-002,-2.17633E-002,4.81937E-004,5.31496E-002,-2.17664E-002,3.68596E-001,5.34388E-002,1.05444E+000,-1.89162E-002,0.00000E+000,1.88845E-002,9.79570E-001,0.00000E+000,-8.26419E-003,-5.10119E-002,1.00000E+000,8
839,1317,-4.57723E+000,-9.64960E-001,6.50066E-002,1.59890E+000,-3.06734E-001,1.05146E-001,1.63145E+000,7.11141E-003,5.45391E-001,0,2.44207E+001,-5.20782E+000,9.99633E-001,-2.00311E+001,-4.16833E+001,9.98628E-001,5.57682E-002,-2.23822E-002,-1.50554E-003,5.57972E-002,-2.24112E-002,-1.10324E+000,5.61558E-002,1.05735E+000,-2.88490E-003,0.00000E+000,-4.14000E-004,9.79887E-001,0.00000E+000,2.05812E-003,-6.42781E-002,1.00000E+000,8
1019,1297,7.84326E+000,-1.98913E+000,1.46179E-001,2.28248E+000,-1.57181E-001,5.22732E-002,2.28848E+000,8.10030E-003,4.38252E-001,0,3.46320E+001,-2.81168E+000,9.99698E-001,-8.26195E+000,-3.61136E+001,9.98961E-001,5.33916E-002,-2.17693E-002,3.89169E-004,5.33937E-002,-2.17713E-002,2.96656E-001,5.36957E-002,1.05472E+000,-1.89126E-002,0.00000E+000,1.88195E-002,9.79569E-001,0.00000E+000,-1.07457E-002,-5.10434E-002,1.00000E+000,8
1019,1307,7.83632E+000,-1.36273E+000,7.62325E-002,2.26937E+000,-1.72501E-001,2.08509E-002,2.27601E+000,1.16759E-002,4.93430E-001,0,3.45466E+001,-2.99666E+000,9.99710E-001,-8.41821E+000,-3.62465E+001,9.98828E-001,5.32697E-002,-2.17666E-002,4.35819E-004,5.32722E-002,-2.17691E-002,3.32765E-001,5.35679E-002,1.05458E+000,-1.89140E-002,0.00000E+000,1.88521E-002,9.79569E-001,0.00000E+000,-9.50362E-003,-5.10315E-002,1.00000E+000,8
839,1307,-4.58051E+000,-1.58217E+000,1.51411E-001,1.59945E+000,-2.87908E-001,1.46954E-001,1.63178E+000,6.27593E-003,4.98109E-001,0,2.42931E+001,-4.98272E+000,9.99584E-001,-1.99918E+001,-4.14091E+001,9.98389E-001,5.62627E-002,-2.23819E-002,-1.48815E-003,5.62909E-002,-2.24101E-002,-1.08366E+000,5.66791E-002,1.05788E+000,-2.88166E-003,0.00000E+000,-4.58134E-004,9.79887E-001,0.00000E+000,3.23575E-003,-6.42708E-002,1.00000E+000,8
829,1337,-5.23755E+000,2.77896E-001,-1.49015E-002,1.56046E+000,-3.41590E-001,2.28295E-002,1.59757E+000,1.03921E-002,5.59541E-001,0,2.41055E+001,-5.59930E+000,9.99581E-001,-2.01393E+001,-4.24364E+001,9.99073E-001,5.47084E-002,-2.23292E-002,-1.34928E-003,5.47320E-002,-2.23529E-002,-1.00310E+000,5.50372E-002,1.05623E+000,-2.36649E-003,0.00000E+000,-4.13013E-004,9.79872E-001,0.00000E+000,-6.79181E-004,-6.32141E-002,1.00000E+000,8
829,1347,-5.21663E+000,9.11670E-001,-1.49401E-002,1.56140E+000,-3.55184E-001,-1.29328E-002,1.60134E+000,4.70771E-003,5.15654E-001,0,2.42300E+001,-5.71561E+000,9.99592E-001,-1.96916E+001,-4.26909E+001,9.99405E-001,5.42442E-002,-2.23322E-002,-1.40424E-003,5.42700E-002,-2.23580E-002,-1.05021E+000,5.45496E-002,1.05574E+000,-2.38141E-003,0.00000E+000,-4.28211E-004,9.79871E-001,0.00000E+000,-1.93544E-003,-6.32524E-002,1.00000E+000,8
829,1357,-5.18890E+000,1.55508E+000,1.96212E-002,1.56181E+000,-3.64750E-001,-5.03917E-002,1.60463E+000,4.75121E-003,5.23813E-001,0,2.43481E+001,-5.79184E+000,9.99737E-001,-1.90530E+001,-4.28502E+001,9.99667E-001,5.37755E-002,-2.23363E-002,-1.46215E-003,5.38035E-002,-2.23644E-002,-1.10015E+000,5.40580E-002,1.05525E+000,-2.40178E-003,0.00000E+000,-4.43500E-004,9.79871E-001,0.00000E+000,-3.19932E-003,-6.33048E-002,1.00000E+000,8
1029,1337,8.52949E+000,5.46159E-001,-4.22692E-002,2.26813E+000,-2.02836E-001,-6.65374E-002,2.27815E+000,6.77891E-003,4.84604E-001,0,3.48102E+001,-3.31504E+000,9.99631E-001,-7.63770E+000,-3.63797E+001,9.99179E-001,5.29318E-002,-2.16613E-002,4.19663E-004,5.29341E-002,-2.16637E-002,3.22335E-001,5.32239E-002,1.05419E+000,-1.89825E-002,0.00000E+000,1.86248E-002,9.79622E-001,0.00000E+000,-4.22742E-003,-5.00245E-002,1.00000E+000,8
1029,1347,8.53964E+000,1.18542E+000,-3.78859E-002,2.25533E+000,-2.15574E-001,-9.57145E-002,2.26763E+000,6.27425E-003,4.99718E-001,0,3.47154E+001,-3.45784E+000,9.99714E-001,-7.37886E+000,-3.64985E+001,9.99239E-001,5.28905E-002,-2.16543E-002,4.83523E-004,5.28936E-002,-2.16575E-002,3.71619E-001,5.31819E-002,1.05415E+000,-1.89842E-002,0.00000E+000,1.86946E-002,9.79624E-001,0.00000E+000,-3.05141E-003,-4.99832E-002,1.00000E+000,8
1029,1327,8.52755E+000,-8.95679E-002,-2.08214E-002,2.28191E+000,-1.90682E-001,-4.26098E-002,2.29026E+000,7.31375E-003,4.65407E-001,0,3.49364E+001,-3.17739E+000,9.99655E-001,-7.71753E+000,-3.62672E+001,9.99212E-001,5.29716E-002,-2.16668E-002,3.55730E-004,5.29733E-002,-2.16685E-002,2.73066E-001,5.32646E-002,1.05424E+000,-1.89814E-002,0.00000E+000,1.85553E-002,9.79620E-001,0.00000E+000,-5.39929E-003,-5.00528E-002,1.00000E+000,8
829,1327,-5.25376E+000,-3.46349E-001,9.47874E-003,1.55984E+000,-3.22337E-001,6.12449E-002,1.59397E+000,9.76920E-003,5.74575E-001,0,2.39747E+001,-5.37814E+000,9.99713E-001,-2.04527E+001,-4.21046E+001,9.99433E-001,5.51687E-002,-2.23269E-002,-1.29611E-003,5.51903E-002,-2.23485E-002,-9.57913E-001,5.55218E-002,1.05672E+000,-2.35482E-003,0.00000E+000,-3.97882E-004,9.79872E-001,0.00000E+000,5.71518E-004,-6.31841E-002,1.00000E+000,8
829,1307,-5.26058E+000,-1.58821E+000,1.62620E-001,1.56531E+000,-2.89058E-001,1.48669E-001,1.59870E+000,7.92498E-003,4.77060E-001,0,2.37798E+001,-5.00543E+000,9.99627E-001,-2.04270E+001,-4.16264E+001,9.98167E-001,5.60787E-002,-2.23249E-002,-1.19702E-003,5.60969E-002,-2.23431E-002,-8.74484E-001,5.64824E-002,1.05769E+000,-2.34549E-003,0.00000E+000,-3.67798E-004,9.79873E-001,0.00000E+000,3.05836E-003,-6.31601E-002,1.00000E+000,8
829,1317,-5.26074E+000,-9.69324E-001,6.92701E-002,1.56209E+000,-3.05821E-001,1.03504E-001,1.59511E+000,8.31507E-003,5.28658E-001,0,2.38753E+001,-5.18780E+000,9.99602E-001,-2.05364E+001,-4.18602E+001,9.99139E-001,5.56254E-002,-2.23254E-002,-1.24539E-003,5.56453E-002,-2.23453E-002,-9.15081E-001,5.60036E-002,1.05720E+000,-2.34786E-003,0.00000E+000,-3.82812E-004,9.79873E-001,0.00000E+000,1.81729E-003,-6.31662E-002,1.00000E+000,8
1029,1317,8.52851E+000,-7.20868E-001,2.18294E-002,2.29426E+000,-1.78814E-001,-1.59995E-002,2.30127E+000,8.39591E-003,4.94037E-001,0,3.50297E+001,-3.04441E+000,9.99763E-001,-7.70961E+000,-3.61102E+001,9.99121E-001,5.30098E-002,-2.16714E-002,2.91966E-004,5.30109E-002,-2.16726E-002,2.23993E-001,5.33038E-002,1.05429E+000,-1.89806E-002,0.00000E+000,1.84861E-002,9.79619E-001,0.00000E+000,-6.56460E-003,-5.00733E-002,1.00000E+000,8
1029,1307,8.53257E+000,-1.34571E+000,8.53024E-002,2.30712E+000,-1.62349E-001,2.03042E-002,2.31291E+000,8.09819E-003,5.16041E-001,0,3.50937E+001,-2.85510E+000,9.99816E-001,-7.61105E+000,-3.59021E+001,9.98095E-001,5.30465E-002,-2.16755E-002,2.28199E-004,5.30472E-002,-2.16762E-002,1.74977E-001,5.33417E-002,1.05433E+000,-1.89799E-002,0.00000E+000,1.84171E-002,9.79618E-001,0.00000E+000,-7.72772E-003,-5.00892E-002,1.00000E+000,8
1029,1297,8.53880E+000,-1.96943E+000,1.54597E-001,2.31998E+000,-1.44336E-001,5.28199E-002,2.32507E+000,7.38385E-003,4.74073E-001,0,3.51699E+001,-2.62989E+000,9.99785E-001,-7.46652E+000,-3.57213E+001,9.98270E-001,5.30820E-002,-2.16792E-002,1.64228E-004,5.30824E-002,-2.16796E-002,1.25861E-001,5.33784E-002,1.05438E+000,-1.89794E-002,0.00000E+000,1.83479E-002,9.79617E-001,0.00000E+000,-8.89264E-003,-5.01012E-002,1.00000E+000,8
819,1317,-5.94284E+000,-9.76085E-001,7.78703E-002,1.52554E+000,-3.08094E-001,1.02557E-001,1.55972E+000,8.44951E-003,5.04033E-001,0,2.33318E+001,-5.21103E+000,9.99533E-001,-2.10055E+001,-4.20872E+001,9.98608E-001,5.52466E-002,-2.22056E-002,-9.99242E-004,5.52595E-002,-2.22185E-002,-7.39032E-001,5.56117E-002,1.05680E+000,-1.92286E-003,0.00000E+000,-2.67738E-004,9.79913E-001,0.00000E+000,1.44503E-003,-6.19164E-002,1.00000E+000,8
819,1327,-5.93751E+000,-3.54573E-001,1.31553E-002,1.52393E+000,-3.24006E-001,6.62984E-002,1.55941E+000,9.34163E-003,5.14595E-001,0,2.34220E+001,-5.39182E+000,9.99635E-001,-2.09591E+001,-4.23633E+001,9.98571E-001,5.48268E-002,-2.22072E-002,-1.07187E-003,5.48417E-002,-2.22221E-002,-7.97019E-001,5.51692E-002,1.05636E+000,-1.92770E-003,0.00000E+000,-3.33585E-004,9.79912E-001,0.00000E+000,2.68381E-004,-6.19292E-002,1.00000E+000,8
819,1337,-5.92132E+000,2.74982E-001,-1.34533E-002,1.52533E+000,-3.38213E-001,2.90604E-002,1.56265E+000,6.07234E-003,5.40971E-001,0,2.35589E+001,-5.54271E+000,9.99596E-001,-2.06498E+001,-4.25896E+001,9.99306E-001,5.44023E-002,-2.22106E-002,-1.14756E-003,5.44195E-002,-2.22277E-002,-8.57962E-001,5.47227E-002,1.05591E+000,-1.93793E-003,0.00000E+000,-3.99902E-004,9.79911E-001,0.00000E+000,-9.16649E-004,-6.19563E-002,1.00000E+000,8
819,1307,-5.94715E+000,-1.59244E+000,1.57558E-001,1.52512E+000,-2.90404E-001,1.38632E-001,1.55870E+000,8.49980E-003,5.26076E-001,0,2.32094E+001,-4.99968E+000,9.99630E-001,-2.09980E+001,-4.17474E+001,9.98430E-001,5.56632E-002,-2.22046E-002,-9.27917E-004,5.56743E-002,-2.22156E-002,-6.82640E-001,5.60514E-002,1.05724E+000,-1.92012E-003,0.00000E+000,-2.02168E-004,9.79914E-001,0.00000E+000,2.61673E-003,-6.19091E-002,1.00000E+000,8
819,1347,-5.89998E+000,9.09753E-001,-1.47969E-002,1.52648E+000,-3.51146E-001,-9.88225E-003,1.56638E+000,5.42804E-003,5.37548E-001,0,2.36955E+001,-5.65754E+000,9.99767E-001,-2.01974E+001,-4.28074E+001,9.99602E-001,5.39744E-002,-2.22151E-002,-1.22536E-003,5.39942E-002,-2.22348E-002,-9.21175E-001,5.42735E-002,1.05546E+000,-1.95187E-003,0.00000E+000,-4.66498E-004,9.79909E-001,0.00000E+000,-2.10667E-003,-6.19932E-002,1.00000E+000,8
819,1357,-5.87258E+000,1.54856E+000,2.35590E-002,1.52623E+000,-3.65291E-001,-4.63496E-002,1.57002E+000,6.08926E-003,5.32183E-001,0,2.38010E+001,-5.80357E+000,9.99774E-001,-1.95529E+001,-4.30546E+001,9.99547E-001,5.35426E-002,-2.22212E-002,-1.30605E-003,5.35652E-002,-2.22437E-002,-9.87296E-001,5.38209E-002,1.05501E+000,-1.97094E-003,0.00000E+000,-5.33460E-004,9.79906E-001,0.00000E+000,-3.30323E-003,-6.20436E-002,1.00000E+000,8
1039,1337,9.22250E+000,5.64074E-001,-5.02508E-002,2.30414E+000,-1.91768E-001,-7.42628E-002,2.31330E+000,6.33460E-003,5.11367E-001,0,3.53584E+001,-3.13578E+000,9.99761E-001,-6.91314E+000,-3.59783E+001,9.98838E-001,5.29446E-002,-2.15112E-002,1.97211E-004,5.29451E-002,-2.15117E-002,1.51757E-001,5.32541E-002,1.05420E+000,-1.90126E-002,0.00000E+000,1.81466E-002,9.79747E-001,0.00000E+000,-2.76026E-003,-4.94108E-002,1.00000E+000,8
1039,1347,9.23101E+000,1.19824E+000,-4.42231E-002,2.29001E+000,-2.07515E-001,-1.00021E-001,2.30157E+000,6.28112E-003,4.39453E-001,0,3.52331E+001,-3.32075E+000,9.99844E-001,-6.67825E+000,-3.62214E+001,9.99400E-001,5.29833E-002,-2.15053E-002,2.54285E-004,5.29842E-002,-2.15061E-002,1.95590E-001,5.32960E-002,1.05424E+000,-1.90112E-002,0.00000E+000,1.82051E-002,9.79749E-001,0.00000E+000,-1.69650E-003,-4.93740E-002,1.00000E+000,8
1039,1317,9.21919E+000,-7.01229E-001,1.76287E-002,2.32909E+000,-1.63951E-001,-1.61867E-002,2.33491E+000,5.52576E-003,4.74920E-001,0,3.55305E+001,-2.81623E+000,9.99796E-001,-7.01106E+000,-3.57170E+001,9.99337E-001,5.28639E-002,-2.15201E-002,8.36080E-005,5.28640E-002,-2.15202E-002,6.44006E-002,5.31673E-002,1.05412E+000,-1.90143E-002,0.00000E+000,1.80298E-002,9.79744E-001,0.00000E+000,-4.88375E-003,-4.94569E-002,1.00000E+000,8
1039,1327,9.21966E+000,-7.28168E-002,-2.45034E-002,2.31737E+000,-1.79072E-001,-4.53383E-002,2.32472E+000,6.02030E-003,4.51507E-001,0,3.54574E+001,-3.00149E+000,9.99798E-001,-6.99696E+000,-3.59154E+001,9.98960E-001,5.29046E-002,-2.15160E-002,1.40152E-004,5.29049E-002,-2.15163E-002,1.07901E-001,5.32110E-002,1.05416E+000,-1.90136E-002,0.00000E+000,1.80879E-002,9.79745E-001,0.00000E+000,-3.82620E-003,-4.94370E-002,1.00000E+000,8
1039,1307,9.22290E+000,-1.32916E+000,7.30153E-002,2.34212E+000,-1.49779E-001,1.39151E-002,2.34695E+000,6.20887E-003,4.86365E-001,0,3.56195E+001,-2.64824E+000,9.99777E-001,-6.93406E+000,-3.55464E+001,9.99077E-001,5.28220E-002,-2.15238E-002,2.71740E-005,5.28220E-002,-2.15238E-002,2.09421E-002,5.31226E-002,1.05408E+000,-1.90149E-002,0.00000E+000,1.79717E-002,9.79743E-001,0.00000E+000,-5.94011E-003,-4.94721E-002,1.00000E+000,8
1039,1297,9.23027E+000,-1.95421E+000,1.46188E-001,2.35560E+000,-1.33611E-001,4.78393E-002,2.35987E+000,6.30135E-003,4.59377E-001,0,3.56996E+001,-2.45610E+000,9.99664E-001,-6.76446E+000,-3.53888E+001,9.98909E-001,5.27791E-002,-2.15268E-002,-2.91881E-005,5.27791E-002,-2.15269E-002,-2.25064E-002,5.30769E-002,1.05404E+000,-1.90152E-002,0.00000E+000,1.79135E-002,9.79743E-001,0.00000E+000,-6.99637E-003,-4.94822E-002,1.00000E+000,8
1049,1337,9.91896E+000,5.80561E-001,-5.16932E-002,2.34253E+000,-1.80097E-001,-7.84288E-002,2.35075E+000,9.46983E-003,4.71420E-001,0,3.59286E+001,-2.96063E+000,9.99876E-001,-6.11790E+000,-3.56464E+001,9.99223E-001,5.29082E-002,-2.14638E-002,-9.65529E-005,5.29083E-002,-2.14640E-002,-7.43836E-002,5.32212E-002,1.05416E+000,-1.90347E-002,0.00000E+000,1.75374E-002,9.79764E-001,0.00000E+000,-1.61966E-003,-4.86015E-002,1.00000E+000,8
1049,1347,9.93122E+000,1.22007E+000,-3.41190E-002,2.32966E+000,-1.94440E-001,-1.02172E-001,2.33999E+000,7.92054E-003,4.69308E-001,0,3.58145E+001,-3.12834E+000,9.99826E-001,-5.80405E+000,-3.57958E+001,9.99004E-001,5.30476E-002,-2.14592E-002,-5.09738E-005,5.30477E-002,-2.14592E-002,-3.91988E-002,5.33690E-002,1.05431E+000,-1.90291E-002,0.00000E+000,1.75836E-002,9.79766E-001,0.00000E+000,-8.72879E-004,-4.85731E-002,1.00000E+000,8
1049,1307,9.91910E+000,-1.31030E+000,8.12488E-002,2.37869E+000,-1.36533E-001,1.15971E-002,2.38264E+000,8.99382E-003,4.38679E-001,0,3.61522E+001,-2.44222E+000,9.99785E-001,-6.12157E+000,-3.52074E+001,9.98978E-001,5.24903E-002,-2.14729E-002,-2.28172E-004,5.24910E-002,-2.14736E-002,-1.76752E-001,5.27794E-002,1.05372E+000,-1.90427E-002,0.00000E+000,1.73999E-002,9.79762E-001,0.00000E+000,-3.83972E-003,-4.86426E-002,1.00000E+000,8
1049,1317,9.91440E+000,-6.81767E-001,2.75740E-002,2.36427E+000,-1.50940E-001,-1.80762E-002,2.36915E+000,8.38653E-003,4.41615E-001,0,3.60413E+001,-2.61556E+000,9.99676E-001,-6.21099E+000,-3.53637E+001,9.98002E-001,5.26299E-002,-2.14701E-002,-1.84605E-004,5.26303E-002,-2.14706E-002,-1.42739E-001,5.29268E-002,1.05387E+000,-1.90406E-002,0.00000E+000,1.74457E-002,9.79762E-001,0.00000E+000,-3.10121E-003,-4.86315E-002,1.00000E+000,8
1049,1327,9.91276E+000,-5.53590E-002,-2.48832E-002,2.35350E+000,-1.67717E-001,-4.39970E-002,2.35987E+000,5.40424E-003,4.52917E-001,0,3.59734E+001,-2.83012E+000,9.99813E-001,-6.25095E+000,-3.55522E+001,9.98397E-001,5.27690E-002,-2.14675E-002,-1.41093E-004,5.27693E-002,-2.14678E-002,-1.08896E-001,5.30738E-002,1.05402E+000,-1.90385E-002,0.00000E+000,1.74914E-002,9.79763E-001,0.00000E+000,-2.36226E-003,-4.86210E-002,1.00000E+000,8
809,1347,-6.58770E+000,8.99943E-001,-1.85115E-002,1.48709E+000,-3.53457E-001,-9.19364E-003,1.52855E+000,5.37480E-003,5.28655E-001,0,2.31007E+001,-5.69764E+000,9.99832E-001,-2.07774E+001,-4.30530E+001,9.99601E-001,5.36656E-002,-2.21268E-002,-1.05816E-003,5.36804E-002,-2.21415E-002,-7.99717E-001,5.39539E-002,1.05513E+000,-1.63098E-003,0.00000E+000,-4.27919E-004,9.79930E-001,0.00000E+000,-2.26899E-003,-6.09164E-002,1.00000E+000,8
809,1357,-6.56075E+000,1.54117E+000,2.41433E-002,1.48590E+000,-3.66048E-001,-4.48742E-002,1.53098E+000,6.40187E-003,5.30833E-001,0,2.31880E+001,-5.81596E+000,9.99832E-001,-2.01263E+001,-4.32705E+001,9.99232E-001,5.32933E-002,-2.21360E-002,-1.17315E-003,5.33116E-002,-2.21543E-002,-8.90829E-001,5.35644E-002,1.05474E+000,-1.64772E-003,0.00000E+000,-5.70414E-004,9.79924E-001,0.00000E+000,-3.38575E-003,-6.09645E-002,1.00000E+000,8
809,1327,-6.62369E+000,-3.62672E-001,3.95512E-003,1.48517E+000,-3.28124E-001,5.87514E-002,1.52212E+000,6.83025E-003,5.63490E-001,0,2.28641E+001,-5.42986E+000,9.99747E-001,-2.15316E+001,-4.25385E+001,9.98435E-001,5.43977E-002,-2.21153E-002,-8.37026E-004,5.44069E-002,-2.21245E-002,-6.26696E-001,5.47220E-002,1.05590E+000,-1.61067E-003,0.00000E+000,-1.46151E-004,9.79938E-001,0.00000E+000,-6.07397E-005,-6.08582E-002,1.00000E+000,8
809,1337,-6.60602E+000,2.66512E-001,-1.39459E-002,1.48774E+000,-3.41326E-001,2.78696E-002,1.52665E+000,4.41461E-003,5.41973E-001,0,2.29985E+001,-5.57827E+000,9.99792E-001,-2.11766E+001,-4.28146E+001,9.99620E-001,5.40330E-002,-2.21204E-002,-9.46839E-004,5.40448E-002,-2.21322E-002,-7.12229E-001,5.43390E-002,1.05552E+000,-1.61967E-003,0.00000E+000,-2.86782E-004,9.79935E-001,0.00000E+000,-1.16289E-003,-6.08840E-002,1.00000E+000,8
809,1307,-6.63443E+000,-1.59582E+000,1.60084E-001,1.48523E+000,-2.88863E-001,1.43096E-001,1.51981E+000,9.53955E-003,5.64958E-001,0,2.25969E+001,-4.99186E+000,9.99177E-001,-2.15568E+001,-4.18766E+001,9.97560E-001,5.51185E-002,-2.21114E-002,-6.24217E-004,5.51235E-002,-2.21165E-002,-4.63058E-001,5.54810E-002,1.05667E+000,-1.60418E-003,0.00000E+000,1.33359E-004,9.79940E-001,0.00000E+000,2.12982E-003,-6.08396E-002,1.00000E+000,8
809,1317,-6.62825E+000,-9.80388E-001,7.52272E-002,1.48773E+000,-3.08426E-001,1.02786E-001,1.52283E+000,9.55816E-003,5.72670E-001,0,2.27642E+001,-5.21819E+000,9.99721E-001,-2.15491E+001,-4.22064E+001,9.98441E-001,5.47592E-002,-2.21128E-002,-7.29999E-004,5.47662E-002,-2.21198E-002,-5.44032E-001,5.51024E-002,1.05629E+000,-1.60641E-003,0.00000E+000,-6.21572E-006,9.79939E-001,0.00000E+000,1.03596E-003,-6.08460E-002,1.00000E+000,8
1049,1297,9.92156E+000,-1.93914E+000,1.45474E-001,2.38970E+000,-1.23322E-001,4.68125E-002,2.39334E+000,7.45071E-003,4.35087E-001,0,3.61912E+001,-2.29642E+000,9.99619E-001,-6.04628E+000,-3.50796E+001,9.98141E-001,5.23502E-002,-2.14754E-002,-2.71592E-004,5.23512E-002,-2.14764E-002,-2.10778E-001,5.26317E-002,1.05358E+000,-1.90447E-002,0.00000E+000,1.73543E-002,9.79761E-001,0.00000E+000,-4.57752E-003,-4.86523E-002,1.00000E+000,8
799,1337,-7.29133E+000,2.58636E-001,-1.84385E-002,1.45006E+000,-3.42624E-001,2.73139E-002,1.49024E+000,4.32991E-003,5.29818E-001,0,2.24335E+001,-5.58904E+000,9.99863E-001,-2.17185E+001,-4.30287E+001,9.99655E-001,5.35298E-002,-2.20128E-002,-7.29862E-004,5.35369E-002,-2.20198E-002,-5.53499E-001,5.38170E-002,1.05499E+000,-1.32430E-003,0.00000E+000,-1.20130E-004,9.79975E-001,0.00000E+000,-1.42895E-003,-5.97831E-002,1.00000E+000,8
799,1347,-7.27344E+000,8.92098E-001,-2.15394E-002,1.44949E+000,-3.54608E-001,-6.48413E-003,1.49225E+000,5.39530E-003,5.27435E-001,0,2.25263E+001,-5.71311E+000,9.99771E-001,-2.13208E+001,-4.32660E+001,9.99459E-001,5.32071E-002,-2.20207E-002,-8.70865E-004,5.32172E-002,-2.20308E-002,-6.63159E-001,5.34790E-002,1.05465E+000,-1.33397E-003,0.00000E+000,-3.29561E-004,9.79969E-001,0.00000E+000,-2.40995E-003,-5.98112E-002,1.00000E+000,8
799,1357,-7.24386E+000,1.53534E+000,2.33022E-002,1.45099E+000,-3.64857E-001,-4.08857E-002,1.49672E+000,5.34031E-003,5.30828E-001,0,2.26498E+001,-5.80231E+000,9.99788E-001,-2.06210E+001,-4.34580E+001,9.99239E-001,5.28802E-002,-2.20326E-002,-1.01556E-003,5.28940E-002,-2.20464E-002,-7.76544E-001,5.31375E-002,1.05431E+000,-1.34867E-003,0.00000E+000,-5.40923E-004,9.79960E-001,0.00000E+000,-3.40000E-003,-5.98538E-002,1.00000E+000,8
799,1327,-7.30534E+000,-3.71379E-001,1.13398E-002,1.45059E+000,-3.29692E-001,6.78299E-002,1.48913E+000,1.12050E-002,5.33667E-001,0,2.23181E+001,-5.47525E+000,9.99830E-001,-2.19885E+001,-4.27976E+001,9.98550E-001,5.38507E-002,-2.20065E-002,-5.90208E-004,5.38553E-002,-2.20111E-002,-4.45755E-001,5.41537E-002,1.05533E+000,-1.31667E-003,0.00000E+000,8.87703E-005,9.79980E-001,0.00000E+000,-4.50438E-004,-5.97610E-002,1.00000E+000,8
1059,1327,1.06054E+001,-3.88562E-002,-2.32623E-002,2.38783E+000,-1.57714E-001,-4.42209E-002,2.39344E+000,8.22539E-003,4.44108E-001,0,3.64671E+001,-2.67303E+000,9.99844E-001,-5.50520E+000,-3.52134E+001,9.98716E-001,5.26841E-002,-2.14985E-002,-3.38619E-004,5.26856E-002,-2.15001E-002,-2.61529E-001,5.29816E-002,1.05393E+000,-1.88479E-002,0.00000E+000,1.68679E-002,9.79711E-001,0.00000E+000,-1.08800E-003,-4.79507E-002,1.00000E+000,8
1059,1337,1.06129E+001,5.99752E-001,-4.25357E-002,2.37772E+000,-1.67818E-001,-7.27390E-002,2.38475E+000,6.51573E-003,4.59260E-001,0,3.64138E+001,-2.78121E+000,9.99883E-001,-5.33699E+000,-3.52827E+001,9.99373E-001,5.29015E-002,-2.14949E-002,-2.93376E-004,5.29026E-002,-2.14961E-002,-2.25936E-001,5.32112E-002,1.05416E+000,-1.88418E-002,0.00000E+000,1.69272E-002,9.79713E-001,0.00000E+000,-6.63683E-004,-4.79392E-002,1.00000E+000,8
1059,1347,1.06268E+001,1.23841E+000,-2.64301E-002,2.36601E+000,-1.82397E-001,-9.89768E-002,2.37509E+000,9.10994E-003,4.45838E-001,0,3.63267E+001,-2.95730E+000,9.99861E-001,-5.00398E+000,-3.54460E+001,9.99013E-001,5.31195E-002,-2.14903E-002,-2.46691E-004,5.31203E-002,-2.14912E-002,-1.89441E-001,5.34418E-002,1.05439E+000,-1.88329E-002,0.00000E+000,1.69867E-002,9.79715E-001,0.00000E+000,-2.37584E-004,-4.79227E-002,1.00000E+000,8
1059,1297,1.06119E+001,-1.92393E+000,1.35576E-001,2.42442E+000,-1.11220E-001,4.51809E-002,2.42739E+000,6.32837E-003,4.05414E-001,0,3.66936E+001,-2.11255E+000,9.99759E-001,-5.35717E+000,-3.47518E+001,9.98510E-001,5.20336E-002,-2.15065E-002,-4.70042E-004,5.20366E-002,-2.15095E-002,-3.66194E-001,5.22964E-002,1.05324E+000,-1.88585E-002,0.00000E+000,1.66910E-002,9.79708E-001,0.00000E+000,-2.35487E-003,-4.79703E-002,1.00000E+000,8
1059,1307,1.06096E+001,-1.29641E+000,7.24497E-002,2.41354E+000,-1.25058E-001,1.10278E-002,2.41681E+000,8.93330E-003,3.69804E-001,0,3.66538E+001,-2.26506E+000,9.99831E-001,-5.42746E+000,-3.49200E+001,9.98704E-001,5.22499E-002,-2.15040E-002,-4.26600E-004,5.22524E-002,-2.15065E-002,-3.31390E-001,5.25240E-002,1.05347E+000,-1.88555E-002,0.00000E+000,1.67498E-002,9.79709E-001,0.00000E+000,-1.93400E-003,-4.79646E-002,1.00000E+000,8
1059,1317,1.06045E+001,-6.69549E-001,1.41774E-002,2.39919E+000,-1.41973E-001,-2.09008E-002,2.40348E+000,9.57377E-003,4.07933E-001,0,3.65541E+001,-2.47541E+000,9.99781E-001,-5.53249E+000,-3.50731E+001,9.97779E-001,5.24668E-002,-2.15014E-002,-3.82909E-004,5.24688E-002,-2.15034E-002,-2.96590E-001,5.27524E-002,1.05370E+000,-1.88522E-002,0.00000E+000,1.68088E-002,9.79710E-001,0.00000E+000,-1.51165E-003,-4.79586E-002,1.00000E+000,8
799,1307,-7.31501E+000,-1.60387E+000,1.66705E-001,1.45042E+000,-2.91280E-001,1.45521E-001,1.48652E+000,1.19442E-002,5.46779E-001,0,2.20694E+001,-5.03824E+000,9.99409E-001,-2.19989E+001,-4.21144E+001,9.98743E-001,5.44838E-002,-2.20020E-002,-3.18057E-004,5.44851E-002,-2.20033E-002,-2.38252E-001,5.48200E-002,1.05600E+000,-1.31166E-003,0.00000E+000,5.03094E-004,9.79983E-001,0.00000E+000,1.49031E-003,-5.97465E-002,1.00000E+000,8
799,1317,-7.31415E+000,-9.88575E-001,6.78139E-002,1.45031E+000,-3.09159E-001,1.04656E-001,1.48658E+000,1.12854E-002,5.73979E-001,0,2.21974E+001,-5.24150E+000,9.99653E-001,-2.21088E+001,-4.24090E+001,9.98229E-001,5.41685E-002,-2.20027E-002,-4.52890E-004,5.41712E-002,-2.20054E-002,-3.40647E-001,5.44879E-002,1.05566E+000,-1.31219E-003,0.00000E+000,2.96402E-004,9.79982E-001,0.00000E+000,5.22134E-004,-5.97481E-002,1.00000E+000,8
789,1327,-7.98771E+000,-3.77137E-001,5.49460E-003,1.41555E+000,-3.28654E-001,6.72213E-002,1.45476E+000,8.81021E-003,5.61251E-001,0,2.17933E+001,-5.47441E+000,9.99825E-001,-2.24854E+001,-4.29543E+001,9.98874E-001,5.33122E-002,-2.18993E-002,-4.03145E-004,5.33143E-002,-2.19014E-002,-3.07102E-001,5.35964E-002,1.05476E+000,-1.06921E-003,0.00000E+000,2.42611E-004,9.80025E-001,0.00000E+000,-7.34646E-004,-5.87300E-002,1.00000E+000,8
789,1337,-7.97302E+000,2.54395E-001,-1.77284E-002,1.41517E+000,-3.40329E-001,2.99267E-002,1.45583E+000,4.78960E-003,5.30572E-001,0,2.18999E+001,-5.56209E+000,9.99833E-001,-2.21871E+001,-4.31913E+001,9.99575E-001,5.30383E-002,-2.19069E-002,-5.65764E-004,5.30426E-002,-2.19112E-002,-4.32495E-001,5.33090E-002,1.05447E+000,-1.07595E-003,0.00000E+000,-2.05502E-005,9.80019E-001,0.00000E+000,-1.58512E-003,-5.87499E-002,1.00000E+000,8
789,1347,-7.95375E+000,8.88591E-001,-1.70510E-002,1.41569E+000,-3.52610E-001,-2.30959E-003,1.45894E+000,5.71899E-003,5.53979E-001,0,2.20040E+001,-5.69296E+000,9.99719E-001,-2.17572E+001,-4.34143E+001,9.99291E-001,5.27626E-002,-2.19163E-002,-7.29807E-004,5.27697E-002,-2.19235E-002,-5.59857E-001,5.30205E-002,1.05418E+000,-1.08434E-003,0.00000E+000,-2.84725E-004,9.80011E-001,0.00000E+000,-2.43886E-003,-5.87747E-002,1.00000E+000,8
789,1357,-7.92742E+000,1.52890E+000,2.05355E-002,1.41546E+000,-3.64597E-001,-3.74325E-002,1.46214E+000,5.24737E-003,5.46228E-001,0,2.21033E+001,-5.80176E+000,9.99671E-001,-2.11237E+001,-4.36431E+001,9.99207E-001,5.24842E-002,-2.19296E-002,-8.96572E-004,5.24950E-002,-2.19404E-002,-6.90193E-001,5.27300E-002,1.05389E+000,-1.09622E-003,0.00000E+000,-5.50597E-004,9.80000E-001,0.00000E+000,-3.29809E-003,-5.88098E-002,1.00000E+000,8
1069,1327,1.12996E+001,-2.35732E-002,-2.55280E-002,2.42440E+000,-1.49113E-001,-4.36411E-002,2.42937E+000,9.00729E-003,4.59313E-001,0,3.69917E+001,-2.53882E+000,9.99819E-001,-4.73880E+000,-3.48730E+001,9.98281E-001,5.25975E-002,-2.14202E-002,-5.16661E-004,5.26011E-002,-2.14238E-002,-3.99913E-001,5.29016E-002,1.05384E+000,-1.86358E-002,0.00000E+000,1.62834E-002,9.79772E-001,0.00000E+000,-1.88285E-004,-4.74208E-002,1.00000E+000,8
1069,1337,1.13030E+001,6.13845E-001,-4.65894E-002,2.41097E+000,-1.58571E-001,-7.02874E-002,2.41720E+000,5.66764E-003,4.12767E-001,0,3.68820E+001,-2.63373E+000,9.99842E-001,-4.63859E+000,-3.49865E+001,9.98950E-001,5.28313E-002,-2.14171E-002,-4.76293E-004,5.28344E-002,-2.14202E-002,-3.67524E-001,5.31485E-002,1.05409E+000,-1.86294E-002,0.00000E+000,1.63483E-002,9.79774E-001,0.00000E+000,-9.64195E-005,-4.74185E-002,1.00000E+000,8
1069,1347,1.13152E+001,1.25165E+000,-4.30341E-002,2.39926E+000,-1.73923E-001,-1.01313E-001,2.40769E+000,5.63885E-003,4.13524E-001,0,3.68140E+001,-2.80545E+000,9.99846E-001,-4.35711E+000,-3.51266E+001,9.99267E-001,5.30668E-002,-2.14133E-002,-4.34427E-004,5.30693E-002,-2.14159E-002,-3.34179E-001,5.33975E-002,1.05434E+000,-1.86205E-002,0.00000E+000,1.64137E-002,9.79776E-001,0.00000E+000,-3.87771E-006,-4.74151E-002,1.00000E+000,8
789,1307,-7.99498E+000,-1.60939E+000,1.65040E-001,1.41798E+000,-2.90634E-001,1.50713E-001,1.45529E+000,9.91118E-003,5.42039E-001,0,2.15691E+001,-5.03401E+000,9.99563E-001,-2.24477E+001,-4.22889E+001,9.97405E-001,5.38524E-002,-2.18940E-002,-8.51863E-005,5.38525E-002,-2.18941E-002,-6.44361E-002,5.41651E-002,1.05533E+000,-1.06486E-003,0.00000E+000,7.64120E-004,9.80029E-001,0.00000E+000,9.50741E-004,-5.87171E-002,1.00000E+000,8
789,1317,-7.99156E+000,-9.96149E-001,8.02097E-002,1.41764E+000,-3.11589E-001,1.09496E-001,1.45560E+000,1.14753E-002,5.48650E-001,0,2.16939E+001,-5.28657E+000,9.99535E-001,-2.24835E+001,-4.26569E+001,9.96610E-001,5.35830E-002,-2.18961E-002,-2.43756E-004,5.35838E-002,-2.18969E-002,-1.85031E-001,5.38811E-002,1.05504E+000,-1.06655E-003,0.00000E+000,5.03653E-004,9.80027E-001,0.00000E+000,1.08979E-004,-5.87221E-002,1.00000E+000,8
1069,1297,1.12968E+001,-1.91028E+000,1.14874E-001,2.45512E+000,-1.00887E-001,4.03018E-002,2.45752E+000,7.72701E-003,4.14184E-001,0,3.71475E+001,-1.94867E+000,9.99624E-001,-4.76809E+000,-3.44068E+001,9.98307E-001,5.18960E-002,-2.14274E-002,-6.34639E-004,5.19015E-002,-2.14329E-002,-4.95865E-001,5.21631E-002,1.05310E+000,-1.86485E-002,0.00000E+000,1.60888E-002,9.79769E-001,0.00000E+000,-4.63618E-004,-4.74256E-002,1.00000E+000,8
1069,1307,1.12948E+001,-1.28399E+000,4.78509E-002,2.44564E+000,-1.15289E-001,7.19965E-003,2.44837E+000,7.08527E-003,3.65285E-001,0,3.71264E+001,-2.10837E+000,9.99788E-001,-4.84164E+000,-3.45902E+001,9.98488E-001,5.21287E-002,-2.14254E-002,-5.96155E-004,5.21335E-002,-2.14302E-002,-4.64341E-001,5.24077E-002,1.05335E+000,-1.86457E-002,0.00000E+000,1.61533E-002,9.79770E-001,0.00000E+000,-3.72336E-004,-4.74245E-002,1.00000E+000,8
1069,1317,1.12972E+001,-6.51891E-001,1.08431E-002,2.43512E+000,-1.30163E-001,-1.80625E-002,2.43866E+000,8.45499E-003,4.18464E-001,0,3.70593E+001,-2.29590E+000,9.99827E-001,-4.79082E+000,-3.46977E+001,9.98149E-001,5.23631E-002,-2.14228E-002,-5.56434E-004,5.23672E-002,-2.14270E-002,-4.32046E-001,5.26545E-002,1.05359E+000,-1.86408E-002,0.00000E+000,1.62183E-002,9.79771E-001,0.00000E+000,-2.80328E-004,-4.74227E-002,1.00000E+000,8
779,1327,-8.66565E+000,-3.78514E-001,1.34877E-002,1.38351E+000,-3.25855E-001,7.55864E-002,1.42338E+000,1.32990E-002,5.97688E-001,0,2.12863E+001,-5.44127E+000,9.99778E-001,-2.28743E+001,-4.30686E+001,9.98590E-001,5.27079E-002,-2.17254E-002,-3.55261E-004,5.27096E-002,-2.17271E-002,-2.73457E-001,5.29797E-002,1.05412E+000,-9.17819E-004,0.00000E+000,2.07246E-004,9.80146E-001,0.00000E+000,-9.30057E-004,-5.78719E-002,1.00000E+000,8
779,1337,-8.65187E+000,2.47079E-001,-1.41237E-002,1.38270E+000,-3.42143E-001,3.55609E-002,1.42485E+000,4.92598E-003,5.57340E-001,0,2.13952E+001,-5.60335E+000,9.99748E-001,-2.26013E+001,-4.33943E+001,9.99392E-001,5.25187E-002,-2.17334E-002,-5.29794E-004,5.25225E-002,-2.17372E-002,-4.08781E-001,5.27817E-002,1.05392E+000,-9.22327E-004,0.00000E+000,-8.83330E-005,9.80140E-001,0.00000E+000,-1.67174E-003,-5.78888E-002,1.00000E+000,8
779,1347,-8.63393E+000,8.81682E-001,-1.46384E-002,1.38151E+000,-3.53073E-001,-8.05708E-004,1.42591E+000,5.95683E-003,5.38622E-001,0,2.14842E+001,-5.70018E+000,9.99635E-001,-2.21930E+001,-4.36315E+001,9.99201E-001,5.23282E-002,-2.17438E-002,-7.05736E-004,5.23349E-002,-2.17505E-002,-5.45831E-001,5.25828E-002,1.05372E+000,-9.28240E-004,0.00000E+000,-3.85147E-004,9.80131E-001,0.00000E+000,-2.41652E-003,-5.79109E-002,1.00000E+000,8
779,1357,-8.60922E+000,1.52187E+000,1.86405E-002,1.38061E+000,-3.64755E-001,-3.64682E-002,1.42844E+000,4.68465E-003,5.34474E-001,0,2.15743E+001,-5.79910E+000,9.99637E-001,-2.15931E+001,-4.38528E+001,9.99406E-001,5.21355E-002,-2.17576E-002,-8.83990E-004,5.21461E-002,-2.17681E-002,-6.85305E-001,5.23825E-002,1.05352E+000,-9.36149E-004,0.00000E+000,-6.84247E-004,9.80119E-001,0.00000E+000,-3.16703E-003,-5.79405E-002,1.00000E+000,8
779,1317,-8.67162E+000,-9.98350E-001,8.36426E-002,1.38329E+000,-3.07959E-001,1.12460E-001,1.42161E+000,1.46296E-002,5.22925E-001,0,2.11683E+001,-5.22779E+000,9.99791E-001,-2.29163E+001,-4.28035E+001,9.98311E-001,5.28957E-002,-2.17221E-002,-1.82640E-004,5.28961E-002,-2.17225E-002,-1.40240E-001,5.31768E-002,1.05432E+000,-9.16038E-004,0.00000E+000,5.01787E-004,9.80149E-001,0.00000E+000,-1.90983E-004,-5.78652E-002,1.00000E+000,8
1079,1337,1.19975E+001,6.30131E-001,-5.58386E-002,2.44742E+000,-1.48700E-001,-7.58632E-002,2.45311E+000,6.11232E-003,4.42868E-001,0,3.74267E+001,-2.48013E+000,9.99819E-001,-3.87875E+000,-3.46061E+001,9.99520E-001,5.28157E-002,-2.13981E-002,-6.32012E-004,5.28211E-002,-2.14034E-002,-4.87890E-001,5.31366E-002,1.05408E+000,-1.83626E-002,0.00000E+000,1.57731E-002,9.79792E-001,0.00000E+000,4.09823E-004,-4.71924E-002,1.00000E+000,8
1079,1347,1.20101E+001,1.26886E+000,-4.81858E-002,2.43590E+000,-1.63304E-001,-1.03187E-001,2.44355E+000,4.11657E-003,4.71826E-001,0,3.73483E+001,-2.66441E+000,9.99905E-001,-3.58434E+000,-3.47252E+001,9.99706E-001,5.30727E-002,-2.13951E-002,-5.97108E-004,5.30775E-002,-2.13999E-002,-4.59377E-001,5.34082E-002,1.05435E+000,-1.83527E-002,0.00000E+000,1.58342E-002,9.79794E-001,0.00000E+000,2.74723E-004,-4.71974E-002,1.00000E+000,8
1079,1297,1.19914E+001,-1.89211E+000,1.18817E-001,2.49121E+000,-8.86293E-002,4.41142E-002,2.49317E+000,8.19608E-003,4.33002E-001,0,3.76483E+001,-1.77407E+000,9.99691E-001,-3.97805E+000,-3.40380E+001,9.98455E-001,5.17949E-002,-2.14061E-002,-7.61714E-004,5.18029E-002,-2.14140E-002,-5.96122E-001,5.20614E-002,1.05300E+000,-1.83831E-002,0.00000E+000,1.55307E-002,9.79787E-001,0.00000E+000,9.45820E-004,-4.71822E-002,1.00000E+000,8
1079,1307,1.19857E+001,-1.26847E+000,4.23119E-002,2.47934E+000,-1.05702E-001,7.53268E-003,2.48161E+000,8.05077E-003,3.91976E-001,0,3.76063E+001,-1.96159E+000,9.99793E-001,-4.12795E+000,-3.42371E+001,9.98524E-001,5.20489E-002,-2.14046E-002,-7.30663E-004,5.20562E-002,-2.14119E-002,-5.69862E-001,5.23284E-002,1.05327E+000,-1.83806E-002,0.00000E+000,1.55909E-002,9.79787E-001,0.00000E+000,8.12555E-004,-4.71834E-002,1.00000E+000,8
1079,1327,1.19929E+001,-7.40479E-003,-3.21790E-002,2.45934E+000,-1.39123E-001,-4.87052E-002,2.46376E+000,7.86824E-003,4.81493E-001,0,3.75109E+001,-2.38494E+000,9.99845E-001,-3.99060E+000,-3.45060E+001,9.99325E-001,5.25604E-002,-2.14004E-002,-6.65247E-004,5.25664E-002,-2.14064E-002,-5.15297E-001,5.28672E-002,1.05381E+000,-1.83694E-002,0.00000E+000,1.57124E-002,9.79790E-001,0.00000E+000,5.43962E-004,-4.71890E-002,1.00000E+000,8
1079,1317,1.19876E+001,-6.35280E-001,-6.43611E-004,2.46842E+000,-1.19849E-001,-2.29492E-002,2.47143E+000,7.37428E-003,4.54306E-001,0,3.75526E+001,-2.12744E+000,9.99804E-001,-4.09630E+000,-3.43087E+001,9.98962E-001,5.23048E-002,-2.14026E-002,-6.98092E-004,5.23114E-002,-2.14092E-002,-5.42590E-001,5.25978E-002,1.05354E+000,-1.83753E-002,0.00000E+000,1.56517E-002,9.79789E-001,0.00000E+000,6.78204E-004,-4.71861E-002,1.00000E+000,8
779,1307,-8.67652E+000,-1.61709E+000,1.69376E-001,1.38189E+000,-2.93942E-001,1.53561E-001,1.42113E+000,9.26694E-003,5.56340E-001,0,2.10197E+001,-5.08647E+000,9.99684E-001,-2.29019E+001,-4.25004E+001,9.98277E-001,5.30816E-002,-2.17199E-002,-1.15668E-005,5.30816E-002,-2.17200E-002,-8.85984E-003,5.33727E-002,1.05452E+000,-9.14957E-004,0.00000E+000,7.94253E-004,9.80151E-001,0.00000E+000,5.42885E-004,-5.78612E-002,1.00000E+000,8
1089,1337,1.26898E+001,6.46575E-001,-6.26317E-002,2.48128E+000,-1.39304E-001,-7.87506E-002,2.48643E+000,5.08135E-003,4.83480E-001,0,3.79217E+001,-2.33475E+000,9.99759E-001,-3.14423E+000,-3.42240E+001,9.99574E-001,5.29909E-002,-2.14109E-002,-7.31724E-004,5.29981E-002,-2.14181E-002,-5.63418E-001,5.33219E-002,1.05427E+000,-1.79779E-002,0.00000E+000,1.52024E-002,9.79786E-001,0.00000E+000,7.44506E-004,-4.71419E-002,1.00000E+000,8
1089,1347,1.27031E+001,1.28630E+000,-5.45121E-002,2.47036E+000,-1.52084E-001,-1.05169E-001,2.47727E+000,5.18344E-003,4.67549E-001,0,3.78491E+001,-2.48624E+000,9.99829E-001,-2.84034E+000,-3.43494E+001,9.99246E-001,5.33238E-002,-2.14090E-002,-7.05609E-004,5.33305E-002,-2.14157E-002,-5.40908E-001,5.36739E-002,1.05462E+000,-1.79650E-002,0.00000E+000,1.52501E-002,9.79787E-001,0.00000E+000,4.40433E-004,-4.71531E-002,1.00000E+000,8
769,1347,-9.31429E+000,8.75268E-001,-1.31850E-002,1.34749E+000,-3.53179E-001,3.76593E-003,1.39301E+000,4.85931E-003,5.42723E-001,0,2.09571E+001,-5.70748E+000,9.99647E-001,-2.26300E+001,-4.38294E+001,9.99291E-001,5.17733E-002,-2.16066E-002,-6.51982E-004,5.17791E-002,-2.16124E-002,-5.09021E-001,5.20141E-002,1.05314E+000,-6.55040E-004,0.00000E+000,-5.41192E-004,9.80219E-001,0.00000E+000,-2.30089E-003,-5.70906E-002,1.00000E+000,8
769,1357,-9.28912E+000,1.51569E+000,1.79562E-002,1.34761E+000,-3.64221E-001,-3.22631E-002,1.39634E+000,4.81264E-003,5.55199E-001,0,2.10634E+001,-5.80287E+000,9.99685E-001,-2.20263E+001,-4.40356E+001,9.99503E-001,5.15776E-002,-2.16185E-002,-8.11737E-004,5.15866E-002,-2.16275E-002,-6.35300E-001,5.18103E-002,1.05294E+000,-6.62899E-004,0.00000E+000,-8.08037E-004,9.80209E-001,0.00000E+000,-2.99316E-003,-5.71173E-002,1.00000E+000,8
769,1327,-9.34496E+000,-3.84196E-001,2.68556E-002,1.34738E+000,-3.26558E-001,7.70706E-002,1.38852E+000,1.02371E-002,5.59948E-001,0,2.07367E+001,-5.44958E+000,9.99723E-001,-2.32663E+001,-4.32981E+001,9.97826E-001,5.21594E-002,-2.15918E-002,-3.38481E-004,5.21610E-002,-2.15934E-002,-2.62952E-001,5.24177E-002,1.05354E+000,-6.45446E-004,0.00000E+000,-1.26865E-005,9.80231E-001,0.00000E+000,-9.29787E-004,-5.70580E-002,1.00000E+000,8
769,1337,-9.33263E+000,2.40031E-001,-1.22105E-002,1.34767E+000,-3.43462E-001,3.82543E-002,1.39127E+000,4.74701E-003,5.46965E-001,0,2.08590E+001,-5.61774E+000,9.99744E-001,-2.30447E+001,-4.36085E+001,9.99245E-001,5.19670E-002,-2.15977E-002,-4.94451E-004,5.19703E-002,-2.16010E-002,-3.85080E-001,5.22163E-002,1.05334E+000,-6.49227E-004,0.00000E+000,-2.76445E-004,9.80227E-001,0.00000E+000,-1.61405E-003,-5.70709E-002,1.00000E+000,8
1089,1327,1.26836E+001,9.19112E-003,-5.00974E-002,2.49340E+000,-1.25990E-001,-5.61922E-002,2.49722E+000,7.14375E-003,4.46739E-001,0,3.80245E+001,-2.17135E+000,9.99743E-001,-3.29942E+000,-3.41367E+001,9.98970E-001,5.26580E-002,-2.14124E-002,-7.56369E-004,5.26658E-002,-2.14201E-002,-5.84993E-001,5.29704E-002,1.05392E+000,-1.79876E-002,0.00000E+000,1.51547E-002,9.79784E-001,0.00000E+000,1.04828E-003,-4.71335E-002,1.00000E+000,8
1089,1317,1.26818E+001,-6.23333E-001,-1.00908E-002,2.50457E+000,-1.12790E-001,-2.81791E-002,2.50726E+000,7.11334E-003,4.68265E-001,0,3.80906E+001,-2.02532E+000,9.99794E-001,-3.33507E+000,-3.40069E+001,9.99244E-001,5.23269E-002,-2.14136E-002,-7.79564E-004,5.23352E-002,-2.14219E-002,-6.05624E-001,5.26213E-002,1.05357E+000,-1.79946E-002,0.00000E+000,1.51074E-002,9.79783E-001,0.00000E+000,1.35022E-003,-4.71275E-002,1.00000E+000,8
1089,1297,1.26864E+001,-1.87441E+000,1.18426E-001,2.52731E+000,-7.75385E-002,4.44098E-002,2.52889E+000,6.54116E-003,4.65679E-001,0,3.81618E+001,-1.60480E+000,9.99792E-001,-3.18803E+000,-3.36605E+001,9.99218E-001,5.16659E-002,-2.14157E-002,-8.23941E-004,5.16752E-002,-2.14250E-002,-6.45858E-001,5.19258E-002,1.05287E+000,-1.80044E-002,0.00000E+000,1.50129E-002,9.79782E-001,0.00000E+000,1.95244E-003,-4.71190E-002,1.00000E+000,8
1089,1307,1.26814E+001,-1.25286E+000,3.91079E-002,2.51586E+000,-9.72398E-002,3.67760E-003,2.51775E+000,7.12542E-003,4.66324E-001,0,3.81432E+001,-1.84315E+000,9.99824E-001,-3.33114E+000,-3.38635E+001,9.99169E-001,5.19958E-002,-2.14148E-002,-8.02435E-004,5.20046E-002,-2.14236E-002,-6.26187E-001,5.22726E-002,1.05322E+000,-1.80008E-002,0.00000E+000,1.50600E-002,9.79782E-001,0.00000E+000,1.65199E-003,-4.71220E-002,1.00000E+000,8
769,1317,-9.35327E+000,-1.00338E+000,8.42059E-002,1.34709E+000,-3.09918E-001,1.13618E-001,1.38694E+000,1.11041E-002,5.42946E-001,0,2.06204E+001,-5.22992E+000,9.99827E-001,-2.33774E+001,-4.29650E+001,9.99041E-001,5.23499E-002,-2.15878E-002,-1.84188E-004,5.23504E-002,-2.15883E-002,-1.42730E-001,5.26177E-002,1.05374E+000,-6.42921E-004,0.00000E+000,2.49243E-004,9.80235E-001,0.00000E+000,-2.50265E-004,-5.70495E-002,1.00000E+000,8
1099,1327,1.33753E+001,2.33134E-002,-5.83810E-002,2.52783E+000,-1.17168E-001,-5.43935E-002,2.53113E+000,7.37338E-003,4.69434E-001,0,3.85103E+001,-2.04614E+000,9.99482E-001,-2.57232E+000,-3.37980E+001,9.98400E-001,5.27565E-002,-2.14679E-002,-8.58768E-004,5.27664E-002,-2.14778E-002,-6.62788E-001,5.30696E-002,1.05403E+000,-1.76363E-002,0.00000E+000,1.46147E-002,9.79755E-001,0.00000E+000,1.27370E-003,-4.74910E-002,1.00000E+000,8
1099,1337,1.33856E+001,6.63464E-001,-6.38565E-002,2.51804E+000,-1.28154E-001,-7.68312E-002,2.52247E+000,6.98345E-003,4.80739E-001,0,3.84415E+001,-2.17418E+000,9.99476E-001,-2.34081E+000,-3.38686E+001,9.99018E-001,5.31809E-002,-2.14656E-002,-8.24804E-004,5.31900E-002,-2.14747E-002,-6.32985E-001,5.35176E-002,1.05448E+000,-1.76227E-002,0.00000E+000,1.46788E-002,9.79757E-001,0.00000E+000,9.05374E-004,-4.75022E-002,1.00000E+000,8
1099,1347,1.34017E+001,1.30596E+000,-4.79464E-002,2.50775E+000,-1.39998E-001,-1.03827E-001,2.51380E+000,6.35393E-003,4.73697E-001,0,3.83800E+001,-2.30909E+000,9.99620E-001,-1.97998E+000,-3.39622E+001,9.99023E-001,5.36062E-002,-2.14629E-002,-7.88777E-004,5.36144E-002,-2.14712E-002,-6.01938E-001,5.39673E-002,1.05492E+000,-1.76048E-002,0.00000E+000,1.47430E-002,9.79759E-001,0.00000E+000,5.35898E-004,-4.75169E-002,1.00000E+000,8
759,1347,-9.99227E+000,8.71037E-001,-1.23839E-002,1.31554E+000,-3.51376E-001,8.29478E-003,1.36168E+000,4.22185E-003,5.51416E-001,0,2.04612E+001,-5.68228E+000,9.99699E-001,-2.30275E+001,-4.39897E+001,9.99334E-001,5.12235E-002,-2.15155E-002,-5.81018E-004,5.12281E-002,-2.15201E-002,-4.57624E-001,5.14458E-002,1.05256E+000,-3.02580E-004,0.00000E+000,-7.40615E-004,9.80266E-001,0.00000E+000,-2.12174E-003,-5.63283E-002,1.00000E+000,8
759,1357,-9.96911E+000,1.50962E+000,1.69808E-002,1.31417E+000,-3.63682E-001,-2.79601E-002,1.36385E+000,4.76835E-003,5.72889E-001,0,2.05447E+001,-5.80304E+000,9.99717E-001,-2.24576E+001,-4.42179E+001,9.99347E-001,5.09577E-002,-2.15238E-002,-6.97568E-004,5.09644E-002,-2.15305E-002,-5.51351E-001,5.11683E-002,1.05228E+000,-3.13056E-004,0.00000E+000,-9.20939E-004,9.80259E-001,0.00000E+000,-2.81444E-003,-5.63544E-002,1.00000E+000,8
1099,1297,1.33776E+001,-1.86268E+000,1.05479E-001,2.56110E+000,-7.09082E-002,3.94643E-002,2.56239E+000,6.11109E-003,4.87627E-001,0,3.86612E+001,-1.49529E+000,9.99624E-001,-2.47467E+000,-3.33546E+001,9.98833E-001,5.14915E-002,-2.14725E-002,-9.50719E-004,5.15039E-002,-2.14848E-002,-7.46394E-001,5.17390E-002,1.05270E+000,-1.76575E-002,0.00000E+000,1.44242E-002,9.79752E-001,0.00000E+000,2.36982E-003,-4.74735E-002,1.00000E+000,8
1099,1307,1.33745E+001,-1.23704E+000,3.12113E-002,2.55144E+000,-8.71438E-002,3.89287E-003,2.55293E+000,7.18686E-003,4.64308E-001,0,3.86501E+001,-1.67321E+000,9.99730E-001,-2.57930E+000,-3.35150E+001,9.99102E-001,5.19125E-002,-2.14712E-002,-9.21307E-004,5.19241E-002,-2.14828E-002,-7.19177E-001,5.21811E-002,1.05314E+000,-1.76529E-002,0.00000E+000,1.44875E-002,9.79752E-001,0.00000E+000,2.00530E-003,-4.74773E-002,1.00000E+000,8
1099,1317,1.33740E+001,-6.07918E-001,-2.19799E-002,2.54045E+000,-1.02108E-001,-2.67106E-002,2.54264E+000,8.09146E-003,4.82840E-001,0,3.85985E+001,-1.86476E+000,9.99681E-001,-2.60500E+000,-3.36461E+001,9.98855E-001,5.23342E-002,-2.14697E-002,-8.90601E-004,5.23449E-002,-2.14804E-002,-6.91261E-001,5.26246E-002,1.05358E+000,-1.76458E-002,0.00000E+000,1.45510E-002,9.79753E-001,0.00000E+000,1.63995E-003,-4.74832E-002,1.00000E+000,8
759,1327,-1.00261E+001,-3.92549E-001,2.15543E-002,1.31121E+000,-3.28974E-001,7.12456E-002,1.35372E+000,5.78992E-003,5.42203E-001,0,2.02087E+001,-5.46823E+000,9.99765E-001,-2.37308E+001,-4.35189E+001,9.99463E-001,5.17487E-002,-2.15054E-002,-3.53924E-004,5.17504E-002,-2.15071E-002,-2.76813E-001,5.19956E-002,1.05311E+000,-2.89976E-004,0.00000E+000,-3.83157E-004,9.80274E-001,0.00000E+000,-7.48609E-004,-5.62969E-002,1.00000E+000,8
759,1337,-1.00112E+001,2.37543E-001,-8.01716E-003,1.31384E+000,-3.40275E-001,4.04272E-002,1.35779E+000,4.38934E-003,5.62030E-001,0,2.03410E+001,-5.57953E+000,9.99684E-001,-2.34441E+001,-4.37445E+001,9.99359E-001,5.14868E-002,-2.15096E-002,-4.66772E-004,5.14898E-002,-2.15126E-002,-3.66356E-001,5.17212E-002,1.05284E+000,-2.95201E-004,0.00000E+000,-5.61597E-004,9.80271E-001,0.00000E+000,-1.43406E-003,-5.63099E-002,1.00000E+000,8
759,1317,-1.00322E+001,-1.01041E+000,9.20090E-002,1.31212E+000,-3.11400E-001,1.16092E-001,1.35355E+000,9.00227E-003,5.65503E-001,0,2.00865E+001,-5.28116E+000,9.99756E-001,-2.37743E+001,-4.31714E+001,9.99189E-001,5.20080E-002,-2.15030E-002,-2.42963E-004,5.20088E-002,-2.15038E-002,-1.89367E-001,5.22678E-002,1.05338E+000,-2.86960E-004,0.00000E+000,-2.06059E-004,9.80276E-001,0.00000E+000,-6.83071E-005,-5.62894E-002,1.00000E+000,8
749,1317,-1.07066E+001,-1.01356E+000,1.01747E-001,1.28002E+000,-3.11287E-001,1.14242E-001,1.32227E+000,6.93095E-003,5.87104E-001,0,1.96085E+001,-5.27625E+000,9.99728E-001,-2.40921E+001,-4.33221E+001,9.98957E-001,5.17021E-002,-2.14792E-002,-2.85632E-004,5.17032E-002,-2.14803E-002,-2.23625E-001,5.19490E-002,1.05306E+000,1.97157E-004,0.00000E+000,-7.50496E-004,9.80256E-001,0.00000E+000,1.45797E-004,-5.55104E-002,1.00000E+000,8
749,1327,-1.07008E+001,-3.95981E-001,2.66965E-002,1.28043E+000,-3.28379E-001,7.29150E-002,1.32388E+000,4.72089E-003,5.62138E-001,0,1.97401E+001,-5.45341E+000,9.99716E-001,-2.40650E+001,-4.36669E+001,9.99242E-001,5.13766E-002,-2.14803E-002,-3.55199E-004,5.13783E-002,-2.14820E-002,-2.79325E-001,5.16075E-002,1.05272E+000,1.94228E-004,0.00000E+000,-8.49597E-004,9.80256E-001,0.00000E+000,-4.90690E-004,-5.55159E-002,1.00000E+000,8
749,1337,-1.06887E+001,2.32705E-001,-7.23555E-003,1.28064E+000,-3.40050E-001,3.87863E-002,1.32559E+000,4.38695E-003,5.90699E-001,0,1.98441E+001,-5.57751E+000,9.99666E-001,-2.38316E+001,-4.39026E+001,9.99491E-001,5.10483E-002,-2.14827E-002,-4.26867E-004,5.10508E-002,-2.14852E-002,-3.37187E-001,5.12635E-002,1.05237E+000,1.87845E-004,0.00000E+000,-9.49360E-004,9.80254E-001,0.00000E+000,-1.13143E-003,-5.55277E-002,1.00000E+000,8
749,1347,-1.06716E+001,8.64517E-001,-1.67312E-002,1.28139E+000,-3.51626E-001,5.20886E-003,1.32877E+000,4.39620E-003,5.56171E-001,0,1.99536E+001,-5.67902E+000,9.99749E-001,-2.34551E+001,-4.41764E+001,9.99555E-001,5.07185E-002,-2.14861E-002,-4.99912E-004,5.07220E-002,-2.14896E-002,-3.96664E-001,5.09186E-002,1.05203E+000,1.79046E-004,0.00000E+000,-1.04944E-003,9.80251E-001,0.00000E+000,-1.77419E-003,-5.55441E-002,1.00000E+000,8
1109,1297,1.40696E+001,-1.85048E+000,9.62535E-002,2.59691E+000,-6.16361E-002,4.51153E-002,2.59803E+000,6.30150E-003,4.68300E-001,0,3.91505E+001,-1.36630E+000,9.99502E-001,-1.73862E+000,-3.30700E+001,9.98308E-001,5.14361E-002,-2.15923E-002,-1.00510E-003,5.14500E-002,-2.16062E-002,-7.88371E-001,5.16693E-002,1.05265E+000,-1.70572E-002,0.00000E+000,1.37368E-002,9.79665E-001,0.00000E+000,2.82268E-003,-4.79251E-002,1.00000E+000,8
1109,1307,1.40657E+001,-1.22382E+000,2.40489E-002,2.58640E+000,-7.67712E-002,1.18091E-002,2.58757E+000,6.97160E-003,4.34231E-001,0,3.91186E+001,-1.53112E+000,9.99652E-001,-1.85228E+000,-3.32227E+001,9.98959E-001,5.19026E-002,-2.15903E-002,-9.60084E-004,5.19151E-002,-2.16029E-002,-7.48320E-001,5.21581E-002,1.05314E+000,-1.70521E-002,0.00000E+000,1.38374E-002,9.79666E-001,0.00000E+000,2.29917E-003,-4.79306E-002,1.00000E+000,8
1109,1317,1.40652E+001,-5.93758E-001,-2.94872E-002,2.57546E+000,-9.11284E-002,-1.84067E-002,2.57713E+000,6.78132E-003,4.60931E-001,0,3.90669E+001,-1.71506E+000,9.99666E-001,-1.87961E+000,-3.33328E+001,9.98908E-001,5.23699E-002,-2.15879E-002,-9.13612E-004,5.23812E-002,-2.15991E-002,-7.07639E-001,5.26489E-002,1.05363E+000,-1.70442E-002,0.00000E+000,1.39383E-002,9.79668E-001,0.00000E+000,1.77405E-003,-4.79390E-002,1.00000E+000,8
749,1357,-1.06471E+001,1.50272E+000,1.59154E-002,1.28183E+000,-3.63511E-001,-2.62589E-002,1.33263E+000,5.45146E-003,5.69500E-001,0,2.00503E+001,-5.80558E+000,9.99766E-001,-2.28546E+001,-4.44232E+001,9.99494E-001,5.03856E-002,-2.14912E-002,-5.75452E-004,5.03902E-002,-2.14958E-002,-4.58676E-001,5.05709E-002,1.05168E+000,1.66171E-004,0.00000E+000,-1.15030E-003,9.80248E-001,0.00000E+000,-2.42195E-003,-5.55680E-002,1.00000E+000,8
1109,1327,1.40687E+001,3.78128E-002,-6.29152E-002,2.56375E+000,-1.06951E-001,-4.82697E-002,2.56644E+000,5.79384E-003,4.54372E-001,0,3.90011E+001,-1.90518E+000,9.99529E-001,-1.80690E+000,-3.34805E+001,9.98808E-001,5.28383E-002,-2.15848E-002,-8.65321E-004,5.28484E-002,-2.15949E-002,-6.66061E-001,5.31417E-002,1.05412E+000,-1.70328E-002,0.00000E+000,1.40395E-002,9.79670E-001,0.00000E+000,1.24719E-003,-4.79513E-002,1.00000E+000,8
1109,1337,1.40786E+001,6.77720E-001,-7.19903E-002,2.55303E+000,-1.18800E-001,-7.55649E-002,2.55690E+000,6.80825E-003,4.87175E-001,0,3.89369E+001,-2.04327E+000,9.99634E-001,-1.59103E+000,-3.35346E+001,9.99169E-001,5.33086E-002,-2.15812E-002,-8.14947E-004,5.33174E-002,-2.15900E-002,-6.23392E-001,5.36377E-002,1.05462E+000,-1.70173E-002,0.00000E+000,1.41413E-002,9.79673E-001,0.00000E+000,7.17533E-004,-4.79678E-002,1.00000E+000,8
1109,1347,1.40984E+001,1.32207E+000,-4.31805E-002,2.54290E+000,-1.31325E-001,-1.03573E-001,2.54839E+000,7.31140E-003,4.82867E-001,0,3.88813E+001,-2.18420E+000,9.99627E-001,-1.15022E+000,-3.36247E+001,9.98843E-001,5.37808E-002,-2.15764E-002,-7.61070E-004,5.37885E-002,-2.15840E-002,-5.78580E-001,5.41368E-002,1.05512E+000,-1.69949E-002,0.00000E+000,1.42436E-002,9.79678E-001,0.00000E+000,1.85026E-004,-4.79918E-002,1.00000E+000,8
739,1337,-1.13660E+001,2.26324E-001,-6.47829E-003,1.24738E+000,-3.40671E-001,3.78717E-002,1.29362E+000,5.01511E-003,5.79145E-001,0,1.93438E+001,-5.57941E+000,9.99663E-001,-2.42121E+001,-4.41046E+001,9.99369E-001,5.05742E-002,-2.13682E-002,-4.78239E-004,5.05774E-002,-2.13714E-002,-3.80853E-001,5.07793E-002,1.05188E+000,5.83125E-004,0.00000E+000,-1.42516E-003,9.80333E-001,0.00000E+000,-1.00117E-003,-5.49188E-002,1.00000E+000,8
739,1347,-1.13503E+001,8.57888E-001,-1.69514E-002,1.24718E+000,-3.52172E-001,4.89928E-003,1.29596E+000,4.23359E-003,5.64893E-001,0,1.94362E+001,-5.68908E+000,9.99794E-001,-2.38585E+001,-4.43719E+001,9.99590E-001,5.01597E-002,-2.13713E-002,-5.48522E-004,5.01639E-002,-2.13755E-002,-4.39328E-001,5.03461E-002,1.05144E+000,5.72375E-004,0.00000E+000,-1.51481E-003,9.80330E-001,0.00000E+000,-1.71363E-003,-5.49364E-002,1.00000E+000,8
739,1357,-1.13267E+001,1.49698E+000,1.41601E-002,1.24730E+000,-3.62524E-001,-2.61443E-002,1.29918E+000,3.76585E-003,5.55639E-001,0,1.95257E+001,-5.78324E+000,9.99822E-001,-2.32734E+001,-4.46148E+001,9.99679E-001,4.97414E-002,-2.13759E-002,-6.21694E-004,4.97468E-002,-2.13813E-002,-5.00818E-001,4.99099E-002,1.05100E+000,5.56601E-004,0.00000E+000,-1.60513E-003,9.80327E-001,0.00000E+000,-2.43128E-003,-5.49623E-002,1.00000E+000,8
739,1327,-1.13782E+001,-4.00381E-001,2.79206E-002,1.24694E+000,-3.26995E-001,7.22841E-002,1.29113E+000,5.59281E-003,5.37264E-001,0,1.92355E+001,-5.42211E+000,9.99810E-001,-2.44459E+001,-4.38443E+001,9.99410E-001,5.09870E-002,-2.13659E-002,-4.09490E-004,5.09893E-002,-2.13682E-002,-3.24258E-001,5.12115E-002,1.05231E+000,5.91048E-004,0.00000E+000,-1.33574E-003,9.80334E-001,0.00000E+000,-2.90620E-004,-5.49058E-002,1.00000E+000,8
1119,1297,1.47594E+001,-1.83793E+000,8.53049E-002,2.63007E+000,-5.22057E-002,4.93242E-002,2.63105E+000,6.23179E-003,4.65738E-001,0,3.96040E+001,-1.23657E+000,9.99766E-001,-1.03727E+000,-3.27683E+001,9.99227E-001,5.14508E-002,-2.14743E-002,-1.08726E-003,5.14670E-002,-2.14905E-002,-8.53985E-001,5.16997E-002,1.05268E+000,-1.64553E-002,0.00000E+000,1.30185E-002,9.79809E-001,0.00000E+000,2.78935E-003,-4.83040E-002,1.00000E+000,8
1119,1307,1.47574E+001,-1.21091E+000,1.93743E-002,2.62010E+000,-6.81033E-002,1.66465E-002,2.62103E+000,4.98603E-003,4.52946E-001,0,3.95785E+001,-1.42382E+000,9.99777E-001,-1.10891E+000,-3.29163E+001,9.99588E-001,5.19267E-002,-2.14711E-002,-1.02282E-003,5.19410E-002,-2.14854E-002,-7.98229E-001,5.21985E-002,1.05318E+000,-1.64490E-002,0.00000E+000,1.31611E-002,9.79810E-001,0.00000E+000,2.16603E-003,-4.83118E-002,1.00000E+000,8
1119,1317,1.47589E+001,-5.80781E-001,-3.28356E-002,2.61034E+000,-8.26418E-002,-1.53800E-002,2.61169E+000,4.69025E-003,4.43977E-001,0,3.95520E+001,-1.59588E+000,9.99731E-001,-1.10244E+000,-3.30440E+001,9.99594E-001,5.24029E-002,-2.14674E-002,-9.57147E-004,5.24153E-002,-2.14798E-002,-7.42223E-001,5.26988E-002,1.05368E+000,-1.64403E-002,0.00000E+000,1.33039E-002,9.79813E-001,0.00000E+000,1.54153E-003,-4.83227E-002,1.00000E+000,8
1119,1327,1.47635E+001,5.21354E-002,-6.49809E-002,2.59884E+000,-9.75594E-002,-4.70279E-002,2.60110E+000,4.67298E-003,4.27248E-001,0,3.94961E+001,-1.76682E+000,9.99699E-001,-1.01150E+000,-3.31772E+001,9.99394E-001,5.28801E-002,-2.14628E-002,-8.89541E-004,5.28907E-002,-2.14735E-002,-6.85435E-001,5.32014E-002,1.05418E+000,-1.64280E-002,0.00000E+000,1.34472E-002,9.79816E-001,0.00000E+000,9.14743E-004,-4.83381E-002,1.00000E+000,8
1119,1337,1.47742E+001,6.90528E-001,-7.49585E-002,2.58812E+000,-1.11853E-001,-7.77956E-002,2.59171E+000,5.38625E-003,4.72637E-001,0,3.94464E+001,-1.93650E+000,9.99789E-001,-7.86498E-001,-3.32447E+001,9.99134E-001,5.33595E-002,-2.14573E-002,-8.19705E-004,5.33685E-002,-2.14663E-002,-6.27641E-001,5.37075E-002,1.05468E+000,-1.64117E-002,0.00000E+000,1.35915E-002,9.79821E-001,0.00000E+000,2.84092E-004,-4.83585E-002,1.00000E+000,8
1119,1347,1.47930E+001,1.33503E+000,-4.68049E-002,2.57747E+000,-1.23552E-001,-1.03549E-001,2.58251E+000,7.46275E-003,4.59160E-001,0,3.93749E+001,-2.07256E+000,9.99805E-001,-3.65350E-001,-3.33341E+001,9.99170E-001,5.38399E-002,-2.14504E-002,-7.46816E-004,5.38473E-002,-2.14578E-002,-5.68252E-001,5.42159E-002,1.05519E+000,-1.63893E-002,0.00000E+000,1.37362E-002,9.79827E-001,0.00000E+000,-3.48667E-004,-4.83864E-002,1.00000E+000,8
739,1317,-1.13831E+001,-1.01681E+000,1.05035E-001,1.24710E+000,-3.09496E-001,1.14171E-001,1.29000E+000,6.94061E-003,5.74444E-001,0,1.91119E+001,-5.24127E+000,9.99780E-001,-2.44529E+001,-4.34782E+001,9.99202E-001,5.13959E-002,-2.13650E-002,-3.43376E-004,5.13976E-002,-2.13666E-002,-2.70384E-001,5.16404E-002,1.05274E+000,5.94495E-004,0.00000E+000,-1.24701E-003,9.80335E-001,0.00000E+000,4.14436E-004,-5.49002E-002,1.00000E+000,8
1129,1297,1.54505E+001,-1.82344E+000,7.58186E-002,2.66294E+000,-4.14050E-002,5.01878E-002,2.66374E+000,7.88548E-003,4.53389E-001,0,4.00639E+001,-1.07573E+000,9.99846E-001,-3.08445E-001,-3.24446E+001,9.98896E-001,5.14147E-002,-2.13910E-002,-1.17826E-003,5.14337E-002,-2.14101E-002,-9.26933E-001,5.16736E-002,1.05265E+000,-1.58659E-002,0.00000E+000,1.23227E-002,9.79907E-001,0.00000E+000,2.18246E-003,-4.84621E-002,1.00000E+000,8
1129,1307,1.54490E+001,-1.19887E+000,1.04757E-002,2.65321E+000,-5.98941E-002,1.73888E-002,2.65394E+000,1.12842E-002,4.35399E-001,0,4.00441E+001,-1.30307E+000,9.99823E-001,-3.72026E-001,-3.26326E+001,9.97809E-001,5.19478E-002,-2.13870E-002,-1.09554E-003,5.19641E-002,-2.14033E-002,-8.55684E-001,5.22324E-002,1.05321E+000,-1.58587E-002,0.00000E+000,1.25004E-002,9.79910E-001,0.00000E+000,1.54481E-003,-4.84703E-002,1.00000E+000,8
1129,1317,1.54530E+001,-5.69449E-001,-3.74386E-002,2.64545E+000,-7.55547E-002,-1.19176E-002,2.64656E+000,6.68968E-003,4.21831E-001,0,4.00386E+001,-1.49702E+000,9.99822E-001,-3.19915E-001,-3.27809E+001,9.98087E-001,5.24813E-002,-2.13821E-002,-1.01129E-003,5.24952E-002,-2.13959E-002,-7.84260E-001,5.27933E-002,1.05377E+000,-1.58485E-002,0.00000E+000,1.26785E-002,9.79913E-001,0.00000E+000,9.05688E-004,-4.84819E-002,1.00000E+000,8
729,1347,-1.20244E+001,8.51976E-001,-8.53535E-003,1.21595E+000,-3.53422E-001,7.09867E-003,1.26629E+000,3.98464E-003,5.62342E-001,0,1.89569E+001,-5.70269E+000,9.99875E-001,-2.41648E+001,-4.45804E+001,9.99703E-001,4.95754E-002,-2.11470E-002,-4.75938E-004,4.95786E-002,-2.11502E-002,-3.85558E-001,4.97564E-002,1.05083E+000,1.21859E-003,0.00000E+000,-1.97537E-003,9.80490E-001,0.00000E+000,-1.73156E-003,-5.38188E-002,1.00000E+000,8
729,1357,-1.20032E+001,1.49226E+000,1.56163E-002,1.21507E+000,-3.61633E-001,-2.48017E-002,1.26799E+000,3.57191E-003,5.70392E-001,0,1.90325E+001,-5.76739E+000,9.99842E-001,-2.36318E+001,-4.47830E+001,9.99790E-001,4.90130E-002,-2.11506E-002,-5.40886E-004,4.90172E-002,-2.11548E-002,-4.41654E-001,4.91699E-002,1.05024E+000,1.19861E-003,0.00000E+000,-2.03697E-003,9.80488E-001,0.00000E+000,-2.63687E-003,-5.38495E-002,1.00000E+000,8
1129,1327,1.54586E+001,6.51088E-002,-6.82694E-002,2.63540E+000,-8.81867E-002,-4.00398E-002,2.63718E+000,7.59352E-003,4.05855E-001,0,3.99912E+001,-1.64983E+000,9.99765E-001,-2.11791E-001,-3.28893E+001,9.98836E-001,5.30154E-002,-2.13763E-002,-9.25315E-004,5.30269E-002,-2.13878E-002,-7.12521E-001,5.33562E-002,1.05433E+000,-1.58351E-002,0.00000E+000,1.28570E-002,9.79917E-001,0.00000E+000,2.65096E-004,-4.84972E-002,1.00000E+000,8
729,1337,-1.20429E+001,2.22135E-001,-8.83960E-004,1.21442E+000,-3.38908E-001,4.34999E-002,1.26157E+000,4.52439E-003,5.61978E-001,0,1.88276E+001,-5.55522E+000,9.99796E-001,-2.45692E+001,-4.42862E+001,9.99468E-001,5.01341E-002,-2.11443E-002,-4.13468E-004,5.01365E-002,-2.11467E-002,-3.32344E-001,5.03405E-002,1.05141E+000,1.23397E-003,0.00000E+000,-1.91406E-003,9.80492E-001,0.00000E+000,-8.30441E-004,-5.37952E-002,1.00000E+000,8
729,1327,-1.20546E+001,-4.02737E-001,3.48068E-002,1.21347E+000,-3.25350E-001,7.46048E-002,1.25854E+000,5.28117E-003,5.61169E-001,0,1.87216E+001,-5.39643E+000,9.99706E-001,-2.47926E+001,-4.39781E+001,9.99325E-001,5.06877E-002,-2.11426E-002,-3.54087E-004,5.06894E-002,-2.11444E-002,-2.82430E-001,5.09210E-002,1.05199E+000,1.24371E-003,0.00000E+000,-1.85318E-003,9.80493E-001,0.00000E+000,6.43624E-005,-5.37802E-002,1.00000E+000,8
1129,1337,1.54765E+001,7.08367E-001,-6.08711E-002,2.62591E+000,-1.02557E-001,-7.69656E-002,2.62904E+000,7.43914E-003,4.84858E-001,0,3.99818E+001,-1.80464E+000,9.99719E-001,1.55404E-001,-3.29007E+001,9.99171E-001,5.35557E-002,-2.13678E-002,-8.33641E-004,5.35650E-002,-2.13771E-002,-6.37399E-001,5.39274E-002,1.05490E+000,-1.58117E-002,0.00000E+000,1.30379E-002,9.79925E-001,0.00000E+000,-3.84017E-004,-4.85239E-002,1.00000E+000,8
729,1317,-1.20621E+001,-1.02173E+000,9.94389E-002,1.21246E+000,-3.08889E-001,1.11600E-001,1.25615E+000,6.90671E-003,5.65919E-001,0,1.85956E+001,-5.21474E+000,9.99721E-001,-2.48723E+001,-4.36394E+001,9.98782E-001,5.12385E-002,-2.11417E-002,-2.96726E-004,5.12397E-002,-2.11429E-002,-2.34881E-001,5.14998E-002,1.05257E+000,1.24959E-003,0.00000E+000,-1.79249E-003,9.80493E-001,0.00000E+000,9.56367E-004,-5.37711E-002,1.00000E+000,8
1129,1347,1.54910E+001,1.35236E+000,-4.72417E-002,2.61363E+000,-1.13474E-001,-1.05641E-001,2.61823E+000,8.32616E-003,4.78035E-001,0,3.98982E+001,-1.92303E+000,9.99724E-001,4.81862E-001,-3.29616E+001,9.99027E-001,5.40931E-002,-2.13595E-002,-7.42567E-004,5.41004E-002,-2.13668E-002,-5.63803E-001,5.44970E-002,1.05547E+000,-1.57888E-002,0.00000E+000,1.32181E-002,9.79932E-001,0.00000E+000,-1.03052E-003,-4.85499E-002,1.00000E+000,8
719,1347,-1.27022E+001,8.49323E-001,-9.37626E-003,1.18209E+000,-3.49936E-001,7.75288E-003,1.23283E+000,6.02701E-003,5.87980E-001,0,1.84396E+001,-5.65840E+000,9.99762E-001,-2.45473E+001,-4.47051E+001,9.99526E-001,4.92061E-002,-2.10181E-002,-4.51959E-004,4.92090E-002,-2.10210E-002,-3.68732E-001,4.93827E-002,1.05044E+000,1.86997E-003,0.00000E+000,-2.54975E-003,9.80563E-001,0.00000E+000,-1.48740E-003,-5.28211E-002,1.00000E+000,8
719,1357,-1.26806E+001,1.48636E+000,1.38387E-002,1.18193E+000,-3.61684E-001,-2.42473E-002,1.23627E+000,4.45966E-003,5.92734E-001,0,1.85272E+001,-5.76651E+000,9.99794E-001,-2.40098E+001,-4.49589E+001,9.99687E-001,4.85258E-002,-2.10205E-002,-5.02093E-004,4.85295E-002,-2.10242E-002,-4.13621E-001,4.86735E-002,1.04972E+000,1.84621E-003,0.00000E+000,-2.57416E-003,9.80562E-001,0.00000E+000,-2.50980E-003,-5.28552E-002,1.00000E+000,8
719,1337,-1.27194E+001,2.19373E-001,-2.33053E-004,1.18091E+000,-3.36743E-001,4.13886E-002,1.22868E+000,6.00681E-003,5.90624E-001,0,1.83246E+001,-5.52122E+000,9.99579E-001,-2.49291E+001,-4.44124E+001,9.99243E-001,4.98803E-002,-2.10163E-002,-4.05090E-004,4.98826E-002,-2.10186E-002,-3.27363E-001,5.00879E-002,1.05114E+000,1.88750E-003,0.00000E+000,-2.52551E-003,9.80564E-001,0.00000E+000,-4.71871E-004,-5.27959E-002,1.00000E+000,8
719,1327,-1.27305E+001,-4.04384E-001,3.97394E-002,1.18014E+000,-3.22611E-001,7.51200E-002,1.22575E+000,4.29991E-003,5.90308E-001,0,1.82142E+001,-5.35825E+000,9.99581E-001,-2.51323E+001,-4.40942E+001,9.99284E-001,5.05489E-002,-2.10152E-002,-3.61438E-004,5.05507E-002,-2.10170E-002,-2.89366E-001,5.07893E-002,1.05185E+000,1.89883E-003,0.00000E+000,-2.50141E-003,9.80564E-001,0.00000E+000,5.37400E-004,-5.27797E-002,1.00000E+000,8
719,1317,-1.27376E+001,-1.02365E+000,1.07137E-001,1.17833E+000,-3.06965E-001,1.09108E-001,1.22254E+000,6.02441E-003,5.70756E-001,0,1.80854E+001,-5.17794E+000,9.99616E-001,-2.51992E+001,-4.37758E+001,9.98927E-001,5.12140E-002,-2.10147E-002,-3.20496E-004,5.12155E-002,-2.10161E-002,-2.54228E-001,5.14892E-002,1.05255E+000,1.90470E-003,0.00000E+000,-2.47739E-003,9.80564E-001,0.00000E+000,1.54378E-003,-5.27712E-002,1.00000E+000,8
1139,1297,1.61492E+001,-1.81255E+000,7.66947E-002,2.70164E+000,-3.38725E-002,5.55743E-002,2.70243E+000,6.23487E-003,3.91218E-001,0,4.05944E+001,-9.68992E-001,9.99902E-001,5.61848E-001,-3.22228E+001,9.98851E-001,5.14001E-002,-2.13926E-002,-1.20818E-003,5.14201E-002,-2.14126E-002,-9.50619E-001,5.16590E-002,1.05264E+000,-1.52289E-002,0.00000E+000,1.17182E-002,9.79926E-001,0.00000E+000,1.21115E-003,-4.87111E-002,1.00000E+000,8
1139,1307,1.61461E+001,-1.18984E+000,-2.11024E-004,2.69140E+000,-5.42703E-002,1.59521E-002,2.69199E+000,7.29455E-003,3.74026E-001,0,4.05948E+001,-1.20413E+000,9.99871E-001,4.52876E-001,-3.24130E+001,9.98772E-001,5.20003E-002,-2.13887E-002,-1.12237E-003,5.20174E-002,-2.14059E-002,-8.75980E-001,5.22882E-002,1.05327E+000,-1.52217E-002,0.00000E+000,1.18980E-002,9.79928E-001,0.00000E+000,6.47513E-004,-4.87175E-002,1.00000E+000,8
1139,1337,1.61717E+001,7.25809E-001,-6.25556E-002,2.65989E+000,-9.10432E-002,-7.66415E-002,2.66255E+000,8.31285E-003,4.90456E-001,0,4.04614E+001,-1.64001E+000,9.99656E-001,9.62295E-001,-3.25322E+001,9.98337E-001,5.38127E-002,-2.13686E-002,-8.46920E-004,5.38222E-002,-2.13782E-002,-6.45330E-001,5.42001E-002,1.05518E+000,-1.51666E-002,0.00000E+000,1.24425E-002,9.79944E-001,0.00000E+000,-1.05896E-003,-4.87667E-002,1.00000E+000,8
1139,1347,1.61938E+001,1.36881E+000,-3.29453E-002,2.65091E+000,-1.06107E-001,-1.05815E-001,2.65514E+000,8.20753E-003,4.86277E-001,0,4.04300E+001,-1.81560E+000,9.99628E-001,1.43257E+000,-3.26404E+001,9.98183E-001,5.44203E-002,-2.13591E-002,-7.49043E-004,5.44277E-002,-2.13665E-002,-5.66268E-001,5.48449E-002,1.05582E+000,-1.51367E-002,0.00000E+000,1.26255E-002,9.79952E-001,0.00000E+000,-1.63254E-003,-4.87935E-002,1.00000E+000,8
1139,1327,1.61560E+001,8.04118E-002,-7.14901E-002,2.67156E+000,-8.03479E-002,-4.20956E-002,2.67310E+000,8.03803E-003,4.60508E-001,0,4.05132E+001,-1.53561E+000,9.99760E-001,6.28528E-001,-3.25273E+001,9.98158E-001,5.32056E-002,-2.13773E-002,-9.42960E-004,5.32175E-002,-2.13892E-002,-7.24242E-001,5.35577E-002,1.05454E+000,-1.51929E-002,0.00000E+000,1.22599E-002,9.79936E-001,0.00000E+000,-4.86605E-004,-4.87433E-002,1.00000E+000,8
1139,1317,1.61450E+001,-5.58794E-001,-5.40670E-002,2.67952E+000,-6.86227E-002,-1.48424E-002,2.68044E+000,8.45127E-003,4.14917E-001,0,4.05333E+001,-1.39007E+000,9.99826E-001,4.14252E-001,-3.24948E+001,9.98550E-001,5.26013E-002,-2.13840E-002,-1.03477E-003,5.26158E-002,-2.13985E-002,-8.01141E-001,5.29203E-002,1.05390E+000,-1.52112E-002,0.00000E+000,1.20784E-002,9.79931E-001,0.00000E+000,8.23340E-005,-4.87269E-002,1.00000E+000,8
709,1347,-1.33805E+001,8.47412E-001,-8.05408E-003,1.14738E+000,-3.45622E-001,1.09302E-002,1.19836E+000,5.32724E-003,5.75875E-001,0,1.79010E+001,-5.58838E+000,9.99732E-001,-2.49272E+001,-4.48422E+001,9.99557E-001,4.88570E-002,-2.07134E-002,-4.66591E-004,4.88601E-002,-2.07165E-002,-3.84246E-001,4.90479E-002,1.05007E+000,2.61211E-003,0.00000E+000,-3.28210E-003,9.80820E-001,0.00000E+000,-1.29549E-003,-5.20510E-002,1.00000E+000,8
709,1357,-1.33588E+001,1.48289E+000,1.08021E-002,1.14811E+000,-3.57375E-001,-2.23909E-002,1.20265E+000,4.49320E-003,5.55260E-001,0,1.80057E+001,-5.69461E+000,9.99800E-001,-2.43980E+001,-4.51248E+001,9.99742E-001,4.81115E-002,-2.07154E-002,-5.11679E-004,4.81153E-002,-2.07192E-002,-4.25922E-001,4.82695E-002,1.04929E+000,2.58699E-003,0.00000E+000,-3.29674E-003,9.80820E-001,0.00000E+000,-2.31798E-003,-5.20839E-002,1.00000E+000,8
709,1337,-1.33945E+001,2.16852E-001,6.04635E-003,1.14785E+000,-3.34367E-001,4.15188E-002,1.19628E+000,5.26000E-003,5.86425E-001,0,1.78213E+001,-5.47973E+000,9.99622E-001,-2.52468E+001,-4.45635E+001,9.99305E-001,4.95964E-002,-2.07121E-002,-4.25472E-004,4.95989E-002,-2.07146E-002,-3.46709E-001,4.98227E-002,1.05084E+000,2.62941E-003,0.00000E+000,-3.26755E-003,9.80820E-001,0.00000E+000,-2.79190E-004,-5.20283E-002,1.00000E+000,8
709,1317,-1.34097E+001,-1.02286E+000,1.24333E-001,1.14650E+000,-3.03285E-001,1.11601E-001,1.19118E+000,6.76032E-003,5.96659E-001,0,1.75949E+001,-5.13105E+000,9.99761E-001,-2.54418E+001,-4.38800E+001,9.99181E-001,5.10596E-002,-2.07110E-002,-3.52232E-004,5.10613E-002,-2.07127E-002,-2.81184E-001,5.13635E-002,1.05238E+000,2.64619E-003,0.00000E+000,-3.23867E-003,9.80821E-001,0.00000E+000,1.73854E-003,-5.20063E-002,1.00000E+000,8
709,1327,-1.34020E+001,-4.03786E-001,5.99171E-002,1.14851E+000,-3.18727E-001,7.78526E-002,1.19446E+000,7.15769E-003,6.03711E-001,0,1.77254E+001,-5.31162E+000,9.99738E-001,-2.53569E+001,-4.42160E+001,9.99281E-001,5.03294E-002,-2.07114E-002,-3.88137E-004,5.03316E-002,-2.07135E-002,-3.13027E-001,5.05934E-002,1.05161E+000,2.63923E-003,0.00000E+000,-3.25309E-003,9.80821E-001,0.00000E+000,7.30628E-004,-5.20154E-002,1.00000E+000,8
1149,1297,1.68406E+001,-1.80169E+000,5.97102E-002,2.73439E+000,-2.77512E-002,5.10485E-002,2.73501E+000,1.21747E-002,4.02015E-001,0,4.10731E+001,-8.60178E-001,9.99806E-001,1.28919E+000,-3.19279E+001,9.97442E-001,5.14229E-002,-2.14212E-002,-1.21998E-003,5.14433E-002,-2.14416E-002,-9.59220E-001,5.16801E-002,1.05267E+000,-1.46209E-002,0.00000E+000,1.11821E-002,9.79925E-001,0.00000E+000,1.06654E-004,-4.91407E-002,1.00000E+000,8
1149,1307,1.68433E+001,-1.17341E+000,-2.07947E-003,2.72863E+000,-4.25765E-002,2.15310E-002,2.72904E+000,7.69845E-003,3.94738E-001,0,4.11006E+001,-1.05125E+000,9.99860E-001,1.29658E+000,-3.20567E+001,9.98539E-001,5.20844E-002,-2.14181E-002,-1.15190E-003,5.21024E-002,-2.14362E-002,-8.97621E-001,5.23743E-002,1.05336E+000,-1.46117E-002,0.00000E+000,1.13202E-002,9.79927E-001,0.00000E+000,-3.56713E-004,-4.91468E-002,1.00000E+000,8
1149,1317,1.68455E+001,-5.41708E-001,-4.63447E-002,2.71784E+000,-5.80050E-002,-8.31500E-003,2.71847E+000,6.70886E-003,4.26121E-001,0,4.10524E+001,-1.24749E+000,9.99838E-001,1.32635E+000,-3.21520E+001,9.98593E-001,5.27487E-002,-2.14142E-002,-1.08126E-003,5.27644E-002,-2.14300E-002,-8.35110E-001,5.30734E-002,1.05406E+000,-1.45977E-002,0.00000E+000,1.14590E-002,9.79930E-001,0.00000E+000,-8.22514E-004,-4.91561E-002,1.00000E+000,8
1149,1327,1.68518E+001,9.45570E-002,-7.78412E-002,2.70681E+000,-6.97795E-002,-4.31620E-002,2.70805E+000,6.93664E-003,3.95921E-001,0,4.10163E+001,-1.37321E+000,9.99778E-001,1.44356E+000,-3.22363E+001,9.98289E-001,5.34125E-002,-2.14095E-002,-1.00844E-003,5.34261E-002,-2.14231E-002,-7.72035E-001,5.37742E-002,1.05477E+000,-1.45791E-002,0.00000E+000,1.15979E-002,9.79934E-001,0.00000E+000,-1.28850E-003,-4.91685E-002,1.00000E+000,8
1149,1337,1.68664E+001,7.36826E-001,-7.47233E-002,2.69543E+000,-8.49500E-002,-7.68200E-002,2.69786E+000,1.11293E-002,4.86227E-001,0,4.09686E+001,-1.54641E+000,9.99778E-001,1.74687E+000,-3.22451E+001,9.98506E-001,5.40839E-002,-2.14032E-002,-9.30611E-004,5.40954E-002,-2.14147E-002,-7.06203E-001,5.44851E-002,1.05547E+000,-1.45515E-002,0.00000E+000,1.17385E-002,9.79939E-001,0.00000E+000,-1.76039E-003,-4.91869E-002,1.00000E+000,8
1149,1347,1.68949E+001,1.38462E+000,-2.90963E-002,2.68881E+000,-9.83561E-002,-1.05080E-001,2.69266E+000,1.06201E-002,4.91123E-001,0,4.09678E+001,-1.69318E+000,9.99766E-001,2.34205E+000,-3.23078E+001,9.98525E-001,5.47571E-002,-2.13953E-002,-8.47999E-004,5.47665E-002,-2.14047E-002,-6.37915E-001,5.51999E-002,1.05619E+000,-1.45142E-002,0.00000E+000,1.18796E-002,9.79946E-001,0.00000E+000,-2.23401E-003,-4.92117E-002,1.00000E+000,8
699,1347,-1.40518E+001,8.45412E-001,-1.71347E-003,1.11784E+000,-3.43857E-001,1.13866E-002,1.16959E+000,5.08615E-003,5.94797E-001,0,1.74504E+001,-5.54795E+000,9.99834E-001,-2.51818E+001,-4.49754E+001,9.99686E-001,4.84617E-002,-2.02905E-002,-4.45834E-004,4.84646E-002,-2.02934E-002,-3.71523E-001,4.86775E-002,1.04965E+000,3.43137E-003,0.00000E+000,-4.01618E-003,9.81186E-001,0.00000E+000,-1.14842E-003,-5.11330E-002,1.00000E+000,8
699,1357,-1.40316E+001,1.47806E+000,1.62618E-002,1.11757E+000,-3.57954E-001,-2.10791E-002,1.17368E+000,4.58477E-003,5.90377E-001,0,1.75372E+001,-5.70105E+000,9.99828E-001,-2.46770E+001,-4.52936E+001,9.99696E-001,4.76564E-002,-2.02894E-002,-4.36585E-004,4.76592E-002,-2.02922E-002,-3.68134E-001,4.78339E-002,1.04881E+000,3.40491E-003,0.00000E+000,-3.93036E-003,9.81189E-001,0.00000E+000,-2.05774E-003,-5.11615E-002,1.00000E+000,8
699,1337,-1.40698E+001,2.12815E-001,1.09940E-002,1.11435E+000,-3.33479E-001,4.16048E-002,1.16392E+000,4.62754E-003,5.75585E-001,0,1.73110E+001,-5.45572E+000,9.99766E-001,-2.55685E+001,-4.47384E+001,9.99474E-001,4.92625E-002,-2.02912E-002,-4.58695E-004,4.92655E-002,-2.02943E-002,-3.77834E-001,4.95196E-002,1.05049E+000,3.45014E-003,0.00000E+000,-4.10169E-003,9.81184E-001,0.00000E+000,-2.42463E-004,-5.11128E-002,1.00000E+000,8
699,1317,-1.40847E+001,-1.02165E+000,1.39812E-001,1.11098E+000,-3.00240E-001,1.10170E-001,1.15610E+000,8.37819E-003,6.20732E-001,0,1.70580E+001,-5.07260E+000,9.99767E-001,-2.57284E+001,-4.39754E+001,9.98855E-001,5.08421E-002,-2.02917E-002,-4.94648E-004,5.08455E-002,-2.02951E-002,-3.98396E-001,5.11891E-002,1.05215E+000,3.46523E-003,0.00000E+000,-4.27081E-003,9.81182E-001,0.00000E+000,1.54941E-003,-5.10965E-002,1.00000E+000,8
699,1327,-1.40789E+001,-4.03154E-001,6.39199E-002,1.11276E+000,-3.16261E-001,7.40701E-002,1.15920E+000,7.26600E-003,6.74613E-001,0,1.71914E+001,-5.25711E+000,9.99711E-001,-2.57049E+001,-4.42748E+001,9.98141E-001,5.00517E-002,-2.02916E-002,-4.75589E-004,5.00549E-002,-2.02948E-002,-3.87352E-001,5.03523E-002,1.05132E+000,3.45988E-003,0.00000E+000,-4.18610E-003,9.81183E-001,0.00000E+000,6.51956E-004,-5.11022E-002,1.00000E+000,8
1159,1307,1.75355E+001,-1.16277E+000,-1.62843E-002,2.76169E+000,-3.60239E-002,1.96544E-002,2.76200E+000,6.87663E-003,3.73314E-001,0,4.15738E+001,-9.39561E-001,9.99543E-001,2.04579E+000,-3.17854E+001,9.98690E-001,5.22568E-002,-2.15322E-002,-1.13006E-003,5.22741E-002,-2.15495E-002,-8.77197E-001,5.25418E-002,1.05355E+000,-1.40262E-002,0.00000E+000,1.08647E-002,9.79841E-001,0.00000E+000,-1.36229E-003,-4.95674E-002,1.00000E+000,8
1159,1317,1.75405E+001,-5.27957E-001,-6.08293E-002,2.75356E+000,-4.91840E-002,-1.05680E-002,2.75402E+000,6.63999E-003,4.28426E-001,0,4.15667E+001,-1.10317E+000,9.99684E-001,2.11813E+000,-3.18179E+001,9.99251E-001,5.29712E-002,-2.15309E-002,-1.09870E-003,5.29874E-002,-2.15471E-002,-8.44707E-001,5.32943E-002,1.05431E+000,-1.40110E-002,0.00000E+000,1.09239E-002,9.79842E-001,0.00000E+000,-1.79818E-003,-4.95762E-002,1.00000E+000,8
1159,1327,1.75520E+001,1.08634E-001,-7.81293E-002,2.74516E+000,-6.33472E-002,-4.05733E-002,2.74619E+000,5.08978E-003,4.22627E-001,0,4.15525E+001,-1.27141E+000,9.99840E-001,2.33844E+000,-3.19136E+001,9.99276E-001,5.36867E-002,-2.15292E-002,-1.06366E-003,5.37018E-002,-2.15442E-002,-8.10025E-001,5.40502E-002,1.05506E+000,-1.39881E-002,0.00000E+000,1.09832E-002,9.79844E-001,0.00000E+000,-2.23530E-003,-4.95895E-002,1.00000E+000,8
1159,1297,1.75333E+001,-1.79045E+000,4.50892E-002,2.76877E+000,-2.06616E-002,5.17753E-002,2.76933E+000,8.84244E-003,4.41809E-001,0,4.15553E+001,-7.65409E-001,9.99620E-001,2.04522E+000,-3.16176E+001,9.96804E-001,5.15466E-002,-2.15332E-002,-1.15922E-003,5.15650E-002,-2.15516E-002,-9.08545E-001,5.17959E-002,1.05281E+000,-1.40371E-002,0.00000E+000,1.08060E-002,9.79840E-001,0.00000E+000,-9.29360E-004,-4.95611E-002,1.00000E+000,8
1159,1337,1.75745E+001,7.50582E-001,-6.33123E-002,2.73815E+000,-7.93277E-002,-7.64240E-002,2.74036E+000,7.62256E-003,4.63948E-001,0,4.15787E+001,-1.45620E+000,9.99904E-001,2.78461E+000,-3.19753E+001,9.99586E-001,5.44079E-002,-2.15269E-002,-1.02329E-003,5.44217E-002,-2.15407E-002,-7.71922E-001,5.48141E-002,1.05583E+000,-1.39543E-002,0.00000E+000,1.10431E-002,9.79847E-001,0.00000E+000,-2.67636E-003,-4.96090E-002,1.00000E+000,8
1159,1347,1.75966E+001,1.39775E+000,-3.16864E-002,2.72762E+000,-9.05217E-002,-1.07875E-001,2.73126E+000,8.02564E-003,4.55021E-001,0,4.15320E+001,-1.57774E+000,9.99766E-001,3.25322E+000,-3.20229E+001,9.99315E-001,5.51283E-002,-2.15245E-002,-9.81311E-004,5.51409E-002,-2.15370E-002,-7.33342E-001,5.55793E-002,1.05659E+000,-1.39170E-002,0.00000E+000,1.11030E-002,9.79850E-001,0.00000E+000,-3.11742E-003,-4.96306E-002,1.00000E+000,8
689,1347,-1.47245E+001,8.41944E-001,3.00397E-003,1.08607E+000,-3.43673E-001,7.71983E-003,1.13917E+000,6.02109E-003,6.20900E-001,0,1.69764E+001,-5.53048E+000,9.99848E-001,-2.54582E+001,-4.51244E+001,9.99284E-001,4.80533E-002,-2.01084E-002,-4.74232E-004,4.80566E-002,-2.01117E-002,-3.98606E-001,4.82689E-002,1.04922E+000,4.22242E-003,0.00000E+000,-4.81427E-003,9.81326E-001,0.00000E+000,-1.11880E-003,-5.04294E-002,1.00000E+000,8
689,1357,-1.47061E+001,1.47296E+000,1.10595E-002,1.08637E+000,-3.56914E-001,-2.29060E-002,1.14372E+000,5.26864E-003,5.73473E-001,0,1.70666E+001,-5.66096E+000,9.99796E-001,-2.50060E+001,-4.54693E+001,9.99661E-001,4.71843E-002,-2.01079E-002,-4.71869E-004,4.71876E-002,-2.01112E-002,-4.01746E-001,4.73587E-002,1.04831E+000,4.19701E-003,0.00000E+000,-4.74797E-003,9.81328E-001,0.00000E+000,-1.95555E-003,-5.04528E-002,1.00000E+000,8
689,1337,-1.47418E+001,2.12945E-001,1.43282E-002,1.08415E+000,-3.28280E-001,4.18605E-002,1.13354E+000,6.15949E-003,5.75422E-001,0,1.68498E+001,-5.36888E+000,9.99794E-001,-2.58376E+001,-4.48403E+001,9.99591E-001,4.89220E-002,-2.01089E-002,-4.78501E-004,4.89253E-002,-2.01122E-002,-3.97131E-001,4.91825E-002,1.05013E+000,4.24393E-003,0.00000E+000,-4.88065E-003,9.81324E-001,0.00000E+000,-2.80964E-004,-5.04096E-002,1.00000E+000,8
1169,1327,1.82477E+001,1.20099E-001,-9.07652E-002,2.77917E+000,-5.75156E-002,-4.81924E-002,2.78019E+000,4.87016E-003,4.48384E-001,0,4.20622E+001,-1.18184E+000,9.99905E-001,3.14657E+000,-3.16056E+001,9.99486E-001,5.39251E-002,-2.16541E-002,-1.01505E-003,5.39387E-002,-2.16677E-002,-7.69317E-001,5.42850E-002,1.05533E+000,-1.32942E-002,0.00000E+000,1.04800E-002,9.79739E-001,0.00000E+000,-3.22600E-003,-4.98175E-002,1.00000E+000,8
1169,1337,1.82726E+001,7.65525E-001,-6.59523E-002,2.77245E+000,-7.03409E-002,-8.14777E-002,2.77454E+000,6.97516E-003,4.55468E-001,0,4.20815E+001,-1.32235E+000,9.99902E-001,3.64453E+000,-3.16506E+001,9.99492E-001,5.46615E-002,-2.16546E-002,-9.97465E-004,5.46745E-002,-2.16676E-002,-7.48696E-001,5.50650E-002,1.05611E+000,-1.32573E-002,0.00000E+000,1.04879E-002,9.79739E-001,0.00000E+000,-3.57040E-003,-4.98339E-002,1.00000E+000,8
1169,1347,1.82994E+001,1.41221E+000,-2.54660E-002,2.76455E+000,-8.36711E-002,-1.11556E-001,2.76806E+000,5.74067E-003,4.43880E-001,0,4.20697E+001,-1.47430E+000,9.99808E-001,4.19937E+000,-3.17247E+001,9.99513E-001,5.53986E-002,-2.16551E-002,-9.78189E-004,5.54110E-002,-2.16675E-002,-7.27208E-001,5.58480E-002,1.05689E+000,-1.32166E-002,0.00000E+000,1.04959E-002,9.79740E-001,0.00000E+000,-3.91552E-003,-4.98519E-002,1.00000E+000,8
689,1327,-1.47579E+001,-4.09143E-001,4.99657E-002,1.07764E+000,-3.14293E-001,6.92996E-002,1.12467E+000,7.04941E-003,6.36605E-001,0,1.66698E+001,-5.21079E+000,9.99670E-001,-2.61320E+001,-4.44514E+001,9.98971E-001,4.97799E-002,-2.01092E-002,-4.86407E-004,4.97833E-002,-2.01126E-002,-3.98736E-001,5.00882E-002,1.05103E+000,4.25750E-003,0.00000E+000,-4.94632E-003,9.81323E-001,0.00000E+000,5.47836E-004,-5.03972E-002,1.00000E+000,8
1169,1317,1.82353E+001,-5.19215E-001,-6.88405E-002,2.78652E+000,-4.36869E-002,-1.53601E-002,2.78690E+000,8.01037E-003,3.48434E-001,0,4.20489E+001,-1.00946E+000,9.99789E-001,2.92292E+000,-3.16168E+001,9.99495E-001,5.31919E-002,-2.16538E-002,-1.02614E-003,5.32060E-002,-2.16678E-002,-7.85336E-001,5.35103E-002,1.05455E+000,-1.33174E-002,0.00000E+000,1.04721E-002,9.79739E-001,0.00000E+000,-2.88345E-003,-4.98073E-002,1.00000E+000,8
1169,1307,1.82290E+001,-1.15160E+000,-2.85872E-002,2.79484E+000,-3.06653E-002,1.64323E-002,2.79506E+000,7.14820E-003,4.05830E-001,0,4.20527E+001,-8.51292E-001,9.99754E-001,2.82349E+000,-3.14833E+001,9.99242E-001,5.24660E-002,-2.16535E-002,-1.03448E-003,5.24804E-002,-2.16679E-002,-7.99468E-001,5.27453E-002,1.05379E+000,-1.33346E-002,0.00000E+000,1.04642E-002,9.79738E-001,0.00000E+000,-2.54463E-003,-4.97997E-002,1.00000E+000,8
1169,1297,1.82298E+001,-1.77841E+000,4.06757E-002,2.80409E+000,-1.33777E-002,5.26943E-002,2.80461E+000,7.59126E-003,4.70321E-001,0,4.20490E+001,-6.75310E-001,9.99743E-001,2.88328E+000,-3.13222E+001,9.97792E-001,5.17399E-002,-2.16533E-002,-1.03946E-003,5.17546E-002,-2.16680E-002,-8.11258E-001,5.19824E-002,1.05302E+000,-1.33448E-002,0.00000E+000,1.04564E-002,9.79738E-001,0.00000E+000,-2.20607E-003,-4.97952E-002,1.00000E+000,8
689,1317,-1.47642E+001,-1.02582E+000,1.26923E-001,1.07522E+000,-2.98262E-001,1.05765E-001,1.12083E+000,7.65303E-003,6.19894E-001,0,1.65263E+001,-5.02274E+000,9.99713E-001,-2.61586E+001,-4.41065E+001,9.98543E-001,5.06337E-002,-2.01092E-002,-4.98120E-004,5.06372E-002,-2.01127E-002,-4.03408E-001,5.09927E-002,1.05193E+000,4.26298E-003,0.00000E+000,-5.01179E-003,9.81323E-001,0.00000E+000,1.37413E-003,-5.03921E-002,1.00000E+000,8
679,1347,-1.54008E+001,8.34641E-001,-1.41147E-003,1.05215E+000,-3.42545E-001,4.83166E-003,1.10652E+000,1.22743E-002,5.75450E-001,0,1.64661E+001,-5.51556E+000,9.99491E-001,-2.58115E+001,-4.53486E+001,9.98489E-001,4.76165E-002,-1.99619E-002,-5.26648E-004,4.76206E-002,-1.99660E-002,-4.46478E-001,4.78271E-002,1.04876E+000,5.03454E-003,0.00000E+000,-5.67867E-003,9.81435E-001,0.00000E+000,-1.11338E-003,-4.98216E-002,1.00000E+000,8
679,1357,-1.53791E+001,1.46893E+000,6.38853E-003,1.05735E+000,-3.53620E-001,-1.78510E-002,1.11506E+000,4.12376E-003,5.99566E-001,0,1.66096E+001,-5.62757E+000,9.99785E-001,-2.53074E+001,-4.56082E+001,9.99660E-001,4.66502E-002,-1.99629E-002,-5.60701E-004,4.66549E-002,-1.99676E-002,-4.82229E-001,4.68159E-002,1.04775E+000,5.00878E-003,0.00000E+000,-5.68619E-003,9.81435E-001,0.00000E+000,-1.92724E-003,-4.98423E-002,1.00000E+000,8
1179,1297,1.89202E+001,-1.77076E+000,1.69883E-002,2.83736E+000,-8.12269E-003,5.24627E-002,2.83785E+000,1.31810E-002,4.97754E-001,0,4.25181E+001,-6.10614E-001,9.99878E-001,3.59613E+000,-3.10550E+001,9.97830E-001,5.19118E-002,-2.17645E-002,-9.57529E-004,5.19242E-002,-2.17769E-002,-7.44473E-001,5.21487E-002,1.05321E+000,-1.27071E-002,0.00000E+000,1.00859E-002,9.79652E-001,0.00000E+000,-3.49755E-003,-5.01772E-002,1.00000E+000,8
1179,1307,1.89244E+001,-1.14465E+000,-4.10774E-002,2.83052E+000,-2.54206E-002,1.75109E-002,2.83068E+000,5.53468E-003,3.60685E-001,0,4.25528E+001,-7.89403E-001,9.99880E-001,3.63197E+000,-3.12846E+001,9.98983E-001,5.26402E-002,-2.17644E-002,-9.46023E-004,5.26522E-002,-2.17764E-002,-7.28334E-001,5.29136E-002,1.05398E+000,-1.26940E-002,0.00000E+000,1.00970E-002,9.79652E-001,0.00000E+000,-3.68826E-003,-5.01805E-002,1.00000E+000,8
1179,1317,1.89284E+001,-5.12159E-001,-1.01529E-001,2.82460E+000,-3.74081E-002,-1.57951E-002,2.82489E+000,1.33593E-002,3.43455E-001,0,4.25931E+001,-9.25244E-001,9.99872E-001,3.66275E+000,-3.13511E+001,9.99094E-001,5.33693E-002,-2.17644E-002,-9.35067E-004,5.33810E-002,-2.17760E-002,-7.12920E-001,5.36818E-002,1.05475E+000,-1.26820E-002,0.00000E+000,1.01081E-002,9.79653E-001,0.00000E+000,-3.87933E-003,-5.01835E-002,1.00000E+000,8
1179,1337,1.89723E+001,7.75960E-001,-7.36819E-002,2.80860E+000,-6.52235E-002,-8.92318E-002,2.81077E+000,5.93544E-003,4.28409E-001,0,4.26237E+001,-1.23787E+000,9.99872E-001,4.52601E+000,-3.13936E+001,9.99034E-001,5.48503E-002,-2.17641E-002,-8.91070E-004,5.48607E-002,-2.17744E-002,-6.66263E-001,5.52481E-002,1.05632E+000,-1.26115E-002,0.00000E+000,1.01308E-002,9.79654E-001,0.00000E+000,-4.26799E-003,-5.02010E-002,1.00000E+000,8
1179,1347,1.90052E+001,1.42671E+000,-2.62367E-002,2.80408E+000,-7.73447E-002,-1.21695E-001,2.80778E+000,5.63083E-003,4.43081E-001,0,4.26711E+001,-1.36057E+000,9.99857E-001,5.18395E+000,-3.14048E+001,9.99449E-001,5.55943E-002,-2.17639E-002,-8.64969E-004,5.56040E-002,-2.17736E-002,-6.40537E-001,5.60380E-002,1.05710E+000,-1.25675E-002,0.00000E+000,1.01422E-002,9.79654E-001,0.00000E+000,-4.46350E-003,-5.02119E-002,1.00000E+000,8
679,1327,-1.54316E+001,-4.12135E-001,5.67369E-002,1.04548E+000,-3.11533E-001,7.40944E-002,1.09343E+000,8.05492E-003,6.17975E-001,0,1.61661E+001,-5.17434E+000,9.99626E-001,-2.64142E+001,-4.46164E+001,9.98746E-001,4.95285E-002,-1.99606E-002,-4.65648E-004,4.95316E-002,-1.99637E-002,-3.83918E-001,4.98410E-002,1.05076E+000,5.07206E-003,0.00000E+000,-5.66375E-003,9.81436E-001,0.00000E+000,5.00903E-004,-4.97914E-002,1.00000E+000,8
679,1337,-1.54184E+001,2.10254E-001,1.23030E-002,1.05001E+000,-3.25210E-001,4.27199E-002,1.10005E+000,7.75002E-003,5.99344E-001,0,1.63258E+001,-5.32597E+000,9.99729E-001,-2.61889E+001,-4.49625E+001,9.99503E-001,4.85763E-002,-1.99610E-002,-4.93607E-004,4.85798E-002,-1.99646E-002,-4.12617E-001,4.88359E-002,1.04976E+000,5.05848E-003,0.00000E+000,-5.67119E-003,9.81436E-001,0.00000E+000,-3.03758E-004,-4.98023E-002,1.00000E+000,8
1179,1327,1.89468E+001,1.29573E-001,-9.90666E-002,2.81710E+000,-5.07413E-002,-4.80062E-002,2.81797E+000,9.52755E-003,4.25581E-001,0,4.25998E+001,-1.10923E+000,9.99856E-001,4.01923E+000,-3.13619E+001,9.98380E-001,5.41075E-002,-2.17642E-002,-9.15328E-004,5.41185E-002,-2.17753E-002,-6.91091E-001,5.44614E-002,1.05553E+000,-1.26515E-002,0.00000E+000,1.01194E-002,9.79653E-001,0.00000E+000,-4.07295E-003,-5.01910E-002,1.00000E+000,8
679,1317,-1.54394E+001,-1.02850E+000,1.29492E-001,1.04154E+000,-2.95473E-001,1.07020E-001,1.08792E+000,7.41756E-003,6.33308E-001,0,1.60095E+001,-4.99146E+000,9.99778E-001,-2.64768E+001,-4.42399E+001,9.98234E-001,5.04756E-002,-1.99606E-002,-4.41305E-004,5.04783E-002,-1.99633E-002,-3.58958E-001,5.08446E-002,1.05176E+000,5.07822E-003,0.00000E+000,-5.65634E-003,9.81436E-001,0.00000E+000,1.30253E-003,-4.97864E-002,1.00000E+000,8
669,1327,-1.61036E+001,-4.18136E-001,5.94094E-002,1.01527E+000,-3.10726E-001,7.87577E-002,1.06468E+000,7.84808E-003,6.00704E-001,0,1.56933E+001,-5.17693E+000,9.99817E-001,-2.66794E+001,-4.48180E+001,9.98900E-001,4.92116E-002,-1.98314E-002,-3.72990E-004,4.92136E-002,-1.98334E-002,-3.09516E-001,4.95213E-002,1.05042E+000,6.15519E-003,0.00000E+000,-6.49352E-003,9.81519E-001,0.00000E+000,4.99200E-004,-4.89998E-002,1.00000E+000,8
669,1337,-1.60921E+001,2.07282E-001,1.49892E-002,1.01775E+000,-3.23337E-001,4.50763E-002,1.06883E+000,5.09867E-003,6.31463E-001,0,1.58265E+001,-5.30271E+000,9.99771E-001,-2.64789E+001,-4.50951E+001,9.99563E-001,4.81405E-002,-1.98322E-002,-4.32617E-004,4.81433E-002,-1.98350E-002,-3.64643E-001,4.83912E-002,1.04930E+000,6.13933E-003,0.00000E+000,-6.56221E-003,9.81518E-001,0.00000E+000,-3.26792E-004,-4.90115E-002,1.00000E+000,8
669,1347,-1.60763E+001,8.32598E-001,-8.42757E-003,1.02154E+000,-3.36960E-001,1.58904E-002,1.07580E+000,4.37510E-003,5.99605E-001,0,1.59673E+001,-5.44805E+000,9.99793E-001,-2.61545E+001,-4.54517E+001,9.99498E-001,4.70674E-002,-1.98336E-002,-4.94668E-004,4.70710E-002,-1.98373E-002,-4.23616E-001,4.72644E-002,1.04818E+000,6.11845E-003,0.00000E+000,-6.63091E-003,9.81517E-001,0.00000E+000,-1.15294E-003,-4.90268E-002,1.00000E+000,8
669,1357,-1.60522E+001,1.46734E+000,8.19242E-003,1.02626E+000,-3.47627E-001,-1.52138E-002,1.08365E+000,4.48498E-003,5.88553E-001,0,1.61255E+001,-5.55211E+000,9.99684E-001,-2.55872E+001,-4.57426E+001,9.99652E-001,4.59848E-002,-1.98362E-002,-5.63321E-004,4.59897E-002,-1.98411E-002,-4.90311E-001,4.61336E-002,1.04704E+000,6.08456E-003,0.00000E+000,-6.70009E-003,9.81515E-001,0.00000E+000,-1.98484E-003,-4.90517E-002,1.00000E+000,8
1189,1337,1.96748E+001,7.88249E-001,-7.84841E-002,2.84649E+000,-6.05027E-002,-9.57432E-002,2.84874E+000,8.03273E-003,4.35143E-001,0,4.31865E+001,-1.14887E+000,9.99896E-001,5.45830E+000,-3.10974E+001,9.99107E-001,5.49306E-002,-2.18642E-002,-7.87459E-004,5.49387E-002,-2.18723E-002,-5.87432E-001,5.53176E-002,1.05641E+000,-1.20034E-002,0.00000E+000,9.79073E-003,9.79561E-001,0.00000E+000,-4.70057E-003,-5.02524E-002,1.00000E+000,8
669,1317,-1.61104E+001,-1.03245E+000,1.36347E-001,1.01103E+000,-2.93076E-001,1.09045E-001,1.05829E+000,1.05381E-002,5.84468E-001,0,1.55394E+001,-4.95854E+000,9.99847E-001,-2.67148E+001,-4.44326E+001,9.98350E-001,5.02735E-002,-1.98316E-002,-3.19024E-004,5.02749E-002,-1.98330E-002,-2.60726E-001,5.06467E-002,1.05154E+000,6.15990E-003,0.00000E+000,-6.42530E-003,9.81519E-001,0.00000E+000,1.31957E-003,-4.89963E-002,1.00000E+000,8
1189,1297,1.96245E+001,-1.75968E+000,3.15624E-002,2.87391E+000,-3.20345E-003,5.04735E-002,2.87435E+000,1.01195E-002,4.43555E-001,0,4.30386E+001,-5.36116E-001,9.99859E-001,4.59314E+000,-3.08555E+001,9.97120E-001,5.21241E-002,-2.18590E-002,-7.79419E-004,5.21323E-002,-2.18673E-002,-6.03527E-001,5.23573E-002,1.05345E+000,-1.20911E-002,0.00000E+000,9.91578E-003,9.79565E-001,0.00000E+000,-4.63074E-003,-5.02504E-002,1.00000E+000,8
1189,1307,1.96217E+001,-1.13291E+000,-5.02952E-002,2.86452E+000,-2.05186E-002,9.73184E-003,2.86461E+000,6.18456E-003,4.17408E-001,0,4.30603E+001,-7.11976E-001,9.99794E-001,4.48052E+000,-3.09680E+001,9.98825E-001,5.28206E-002,-2.18597E-002,-7.88104E-004,5.28289E-002,-2.18680E-002,-6.04555E-001,5.30891E-002,1.05418E+000,-1.20836E-002,0.00000E+000,9.88478E-003,9.79565E-001,0.00000E+000,-4.64805E-003,-5.02506E-002,1.00000E+000,8
1189,1317,1.96364E+001,-4.91092E-001,-7.71505E-002,2.85971E+000,-3.14298E-002,-2.64876E-002,2.86000E+000,6.86497E-003,4.67960E-001,0,4.31251E+001,-8.16106E-001,9.99858E-001,4.73181E+000,-3.09260E+001,9.99574E-001,5.35240E-002,-2.18610E-002,-7.90059E-004,5.35323E-002,-2.18693E-002,-6.00390E-001,5.38301E-002,1.05492E+000,-1.20615E-002,0.00000E+000,9.85345E-003,9.79564E-001,0.00000E+000,-4.66554E-003,-5.02511E-002,1.00000E+000,8
1189,1327,1.96527E+001,1.44784E-001,-8.85822E-002,2.85242E+000,-4.84713E-002,-6.33730E-002,2.85353E+000,9.42726E-003,4.44070E-001,0,4.31564E+001,-1.01123E+000,9.99893E-001,5.03275E+000,-3.10493E+001,9.99313E-001,5.42265E-002,-2.18625E-002,-7.89881E-004,5.42347E-002,-2.18707E-002,-5.94702E-001,5.45720E-002,1.05566E+000,-1.20349E-002,0.00000E+000,9.82214E-003,9.79563E-001,0.00000E+000,-4.68303E-003,-5.02517E-002,1.00000E+000,8
659,1327,-1.67760E+001,-4.15310E-001,6.20755E-002,9.83050E-001,-3.03362E-001,7.66878E-002,1.03165E+000,1.29011E-002,6.04675E-001,0,1.52052E+001,-5.05223E+000,9.99679E-001,-2.69442E+001,-4.48735E+001,9.97642E-001,4.87799E-002,-1.97106E-002,-3.60624E-004,4.87818E-002,-1.97125E-002,-3.01669E-001,4.90800E-002,1.04996E+000,7.24263E-003,0.00000E+000,-7.48329E-003,9.81597E-001,0.00000E+000,4.28732E-004,-4.82987E-002,1.00000E+000,8
659,1337,-1.67547E+001,2.03344E-001,2.63613E-002,9.95345E-001,-3.22673E-001,5.15067E-002,1.04761E+000,1.31163E-002,6.87220E-001,0,1.54690E+001,-5.32784E+000,9.99666E-001,-2.65715E+001,-4.52481E+001,9.99272E-001,4.76760E-002,-1.97115E-002,-4.32450E-004,4.76788E-002,-1.97143E-002,-3.67667E-001,4.79161E-002,1.04881E+000,7.22639E-003,0.00000E+000,-7.58006E-003,9.81596E-001,0.00000E+000,-3.41873E-004,-4.83095E-002,1.00000E+000,8
659,1347,-1.67411E+001,8.32608E-001,6.82208E-003,9.96964E-001,-3.32049E-001,2.52515E-002,1.05111E+000,6.20242E-003,6.53343E-001,0,1.55661E+001,-5.41573E+000,9.99875E-001,-2.62668E+001,-4.55558E+001,9.99713E-001,4.65706E-002,-1.97130E-002,-5.06832E-004,4.65745E-002,-1.97169E-002,-4.38073E-001,4.67566E-002,1.04765E+000,7.20480E-003,0.00000E+000,-7.67681E-003,9.81594E-001,0.00000E+000,-1.11226E-003,-4.83239E-002,1.00000E+000,8
659,1357,-1.67216E+001,1.46761E+000,1.65629E-002,9.97836E-001,-3.41646E-001,-9.53198E-003,1.05475E+000,3.77957E-003,6.17771E-001,0,1.56738E+001,-5.48365E+000,9.99808E-001,-2.57872E+001,-4.58426E+001,9.99827E-001,4.54562E-002,-1.97160E-002,-5.87376E-004,4.54615E-002,-1.97213E-002,-5.16333E-001,4.55941E-002,1.04648E+000,7.17122E-003,0.00000E+000,-7.77417E-003,9.81591E-001,0.00000E+000,-1.88756E-003,-4.83462E-002,1.00000E+000,8
1199,1307,2.03238E+001,-1.11932E+000,-5.01047E-002,2.89979E+000,-1.49797E-002,-5.55878E-004,2.89983E+000,8.79221E-003,4.49375E-001,0,4.35945E+001,-6.14797E-001,9.99790E-001,5.42318E+000,-3.06546E+001,9.98519E-001,5.29464E-002,-2.18663E-002,-6.05125E-004,5.29513E-002,-2.18712E-002,-4.63398E-001,5.32175E-002,1.05432E+000,-1.14028E-002,0.00000E+000,9.64063E-003,9.79552E-001,0.00000E+000,-5.27385E-003,-5.00684E-002,1.00000E+000,8
1199,1317,2.03351E+001,-4.84217E-001,-8.45946E-002,2.89385E+000,-2.97208E-002,-3.51022E-002,2.89421E+000,7.28431E-003,4.39098E-001,0,4.36392E+001,-7.79015E-001,9.99626E-001,5.60729E+000,-3.07295E+001,9.98467E-001,5.36245E-002,-2.18685E-002,-6.22836E-004,5.36296E-002,-2.18737E-002,-4.72662E-001,5.39322E-002,1.05504E+000,-1.13839E-002,0.00000E+000,9.57469E-003,9.79550E-001,0.00000E+000,-5.13977E-003,-5.00648E-002,1.00000E+000,8
1199,1327,2.03503E+001,1.54674E-001,-1.06347E-001,2.88906E+000,-4.17569E-002,-6.76815E-002,2.89016E+000,7.84990E-003,4.21878E-001,0,4.36913E+001,-9.12119E-001,9.99756E-001,5.87324E+000,-3.07785E+001,9.98800E-001,5.43028E-002,-2.18710E-002,-6.39176E-004,5.43082E-002,-2.18763E-002,-4.80725E-001,5.46490E-002,1.05575E+000,-1.13621E-002,0.00000E+000,9.50868E-003,9.79548E-001,0.00000E+000,-5.00555E-003,-5.00607E-002,1.00000E+000,8
659,1317,-1.67887E+001,-1.03598E+000,1.16725E-001,9.75334E-001,-2.91142E-001,9.86895E-002,1.02263E+000,1.05712E-002,6.17792E-001,0,1.50226E+001,-4.90186E+000,9.99399E-001,-2.71342E+001,-4.45229E+001,9.95538E-001,4.98750E-002,-1.97105E-002,-2.92562E-004,4.98763E-002,-1.97117E-002,-2.40886E-001,5.02400E-002,1.05112E+000,7.25181E-003,0.00000E+000,-7.38712E-003,9.81598E-001,0.00000E+000,1.19455E-003,-4.82926E-002,1.00000E+000,8
1199,1337,2.03812E+001,8.02706E-001,-7.11883E-002,2.88517E+000,-5.45033E-002,-1.00440E-001,2.88743E+000,7.62615E-003,4.50692E-001,0,4.37519E+001,-1.05858E+000,9.99847E-001,6.47483E+000,-3.07897E+001,9.98411E-001,5.49888E-002,-2.18748E-002,-6.48277E-004,5.49942E-002,-2.18803E-002,-4.83194E-001,5.53754E-002,1.05648E+000,-1.13242E-002,0.00000E+000,9.44186E-003,9.79545E-001,0.00000E+000,-4.86969E-003,-5.00536E-002,1.00000E+000,8
1199,1297,2.03245E+001,-1.74655E+000,2.28637E-002,2.90773E+000,2.50426E-003,3.39333E-002,2.90793E+000,6.74521E-003,4.56915E-001,0,4.35749E+001,-4.13889E-001,9.99716E-001,5.48739E+000,-3.05415E+001,9.98282E-001,5.22717E-002,-2.18650E-002,-5.82477E-004,5.22763E-002,-2.18696E-002,-4.50124E-001,5.25081E-002,1.05361E+000,-1.14109E-002,0.00000E+000,9.70617E-003,9.79553E-001,0.00000E+000,-5.40713E-003,-5.00699E-002,1.00000E+000,8
649,1347,-1.74157E+001,8.33562E-001,6.58802E-004,9.62396E-001,-3.26391E-001,1.48016E-002,1.01634E+000,6.21611E-003,6.55246E-001,0,1.50634E+001,-5.29233E+000,9.99831E-001,-2.65855E+001,-4.56261E+001,9.99266E-001,4.60391E-002,-1.96041E-002,-4.85913E-004,4.60427E-002,-1.96077E-002,-4.24092E-001,4.62111E-002,1.04708E+000,8.38025E-003,0.00000E+000,-8.73953E-003,9.81658E-001,0.00000E+000,-1.13686E-003,-4.76143E-002,1.00000E+000,8
649,1357,-1.73941E+001,1.46655E+000,1.58778E-002,9.66058E-001,-3.36953E-001,-1.19774E-002,1.02320E+000,4.40913E-003,6.00555E-001,0,1.51923E+001,-5.39147E+000,9.99834E-001,-2.60561E+001,-4.59667E+001,9.99601E-001,4.48612E-002,-1.96068E-002,-5.67390E-004,4.48662E-002,-1.96118E-002,-5.04215E-001,4.49843E-002,1.04585E+000,8.34592E-003,0.00000E+000,-8.84176E-003,9.81656E-001,0.00000E+000,-1.88012E-003,-4.76350E-002,1.00000E+000,8
649,1337,-1.74347E+001,2.07491E-001,2.43228E-002,9.55171E-001,-3.12301E-001,4.41396E-002,1.00590E+000,7.20664E-003,6.08966E-001,0,1.48696E+001,-5.12568E+000,9.99843E-001,-2.69597E+001,-4.53173E+001,9.99289E-001,4.72122E-002,-1.96028E-002,-4.10346E-004,4.72147E-002,-1.96053E-002,-3.51866E-001,4.74404E-002,1.04831E+000,8.40261E-003,0.00000E+000,-8.63754E-003,9.81660E-001,0.00000E+000,-3.95358E-004,-4.76008E-002,1.00000E+000,8
649,1327,-1.74497E+001,-4.13158E-001,6.18946E-002,9.48644E-001,-2.97393E-001,6.90695E-002,9.96564E-001,6.11876E-003,6.38268E-001,0,1.46979E+001,-4.94675E+000,9.99854E-001,-2.72332E+001,-4.49189E+001,9.99618E-001,4.83767E-002,-1.96021E-002,-3.38096E-004,4.83783E-002,-1.96038E-002,-2.84955E-001,4.86672E-002,1.04953E+000,8.41882E-003,0.00000E+000,-8.53614E-003,9.81662E-001,0.00000E+000,3.41896E-004,-4.75910E-002,1.00000E+000,8
1209,1307,2.10263E+001,-1.10597E+000,-5.19185E-002,2.93566E+000,-8.43270E-003,-1.02372E-002,2.93569E+000,6.50252E-003,4.76790E-001,0,4.41347E+001,-5.15321E-001,9.99801E-001,6.37262E+000,-3.03431E+001,9.98809E-001,5.29509E-002,-2.17546E-002,-3.87023E-004,5.29529E-002,-2.17566E-002,-2.96818E-001,5.32326E-002,1.05434E+000,-1.06523E-002,0.00000E+000,9.38142E-003,9.79641E-001,0.00000E+000,-5.48587E-003,-4.96084E-002,1.00000E+000,8
1209,1317,2.10363E+001,-4.73316E-001,-8.86997E-002,2.93008E+000,-2.48189E-002,-4.00441E-002,2.93046E+000,7.55675E-003,4.54976E-001,0,4.41683E+001,-7.10162E-001,9.99769E-001,6.53123E+000,-3.04554E+001,9.98430E-001,5.36582E-002,-2.17561E-002,-3.97462E-004,5.36603E-002,-2.17582E-002,-3.01959E-001,5.39789E-002,1.05508E+000,-1.06346E-002,0.00000E+000,9.32189E-003,9.79640E-001,0.00000E+000,-5.16434E-003,-4.96007E-002,1.00000E+000,8
1209,1327,2.10584E+001,1.69130E-001,-9.22010E-002,2.92752E+000,-3.55755E-002,-7.20282E-002,2.92862E+000,7.24355E-003,4.14591E-001,0,4.42497E+001,-8.22057E-001,9.99794E-001,6.93332E+000,-3.04985E+001,9.98965E-001,5.43680E-002,-2.17582E-002,-4.03077E-004,5.43701E-002,-2.17604E-002,-3.03361E-001,5.47298E-002,1.05583E+000,-1.06064E-002,0.00000E+000,9.26209E-003,9.79638E-001,0.00000E+000,-4.84136E-003,-4.95886E-002,1.00000E+000,8
1209,1337,2.10900E+001,8.16912E-001,-5.77703E-002,2.92381E+000,-5.00557E-002,-1.06531E-001,2.92618E+000,7.99895E-003,4.46741E-001,0,4.43212E+001,-9.76713E-001,9.99850E-001,7.54231E+000,-3.05091E+001,9.98007E-001,5.50855E-002,-2.17611E-002,-4.03254E-004,5.50876E-002,-2.17632E-002,-3.00650E-001,5.54905E-002,1.05659E+000,-1.05662E-002,0.00000E+000,9.20158E-003,9.79634E-001,0.00000E+000,-4.51457E-003,-4.95712E-002,1.00000E+000,8
1209,1297,2.10250E+001,-1.73459E+000,1.59310E-002,2.94343E+000,9.39005E-003,2.60088E-002,2.94356E+000,6.70753E-003,4.28115E-001,0,4.41055E+001,-2.92825E-001,9.99698E-001,6.39729E+000,-3.02705E+001,9.98296E-001,5.22448E-002,-2.17536E-002,-3.73225E-004,5.22467E-002,-2.17554E-002,-2.88973E-001,5.24896E-002,1.05359E+000,-1.06628E-002,0.00000E+000,9.44079E-003,9.79642E-001,0.00000E+000,-5.80653E-003,-4.96129E-002,1.00000E+000,8
649,1317,-1.74586E+001,-1.03123E+000,1.31015E-001,9.43402E-001,-2.83805E-001,9.80745E-002,9.90036E-001,4.94064E-003,6.34616E-001,0,1.45344E+001,-4.78287E+000,9.99784E-001,-2.73228E+001,-4.45651E+001,9.99529E-001,4.95346E-002,-1.96024E-002,-2.70441E-004,4.95356E-002,-1.96035E-002,-2.24117E-001,4.98933E-002,1.05075E+000,8.42592E-003,0.00000E+000,-8.43513E-003,9.81662E-001,0.00000E+000,1.07628E-003,-4.75867E-002,1.00000E+000,8
639,1347,-1.80883E+001,8.35297E-001,-1.94120E-003,9.30652E-001,-3.18424E-001,1.39645E-002,9.83718E-001,6.77178E-003,6.14023E-001,0,1.45771E+001,-5.14322E+000,9.99729E-001,-2.68568E+001,-4.57135E+001,9.99107E-001,4.55373E-002,-1.94191E-002,-4.78603E-004,4.55409E-002,-1.94227E-002,-4.22128E-001,4.57046E-002,1.04655E+000,9.63253E-003,0.00000E+000,-9.90425E-003,9.81791E-001,0.00000E+000,-1.13509E-003,-4.67889E-002,1.00000E+000,8
639,1357,-1.80646E+001,1.46906E+000,1.64817E-002,9.36291E-001,-3.28825E-001,-1.06701E-002,9.92412E-001,4.11331E-003,6.09066E-001,0,1.47305E+001,-5.25967E+000,9.99813E-001,-2.62860E+001,-4.60260E+001,9.99637E-001,4.43109E-002,-1.94218E-002,-5.63628E-004,4.43159E-002,-1.94268E-002,-5.06648E-001,4.44280E-002,1.04527E+000,9.59676E-003,0.00000E+000,-1.00136E-002,9.81788E-001,0.00000E+000,-1.89799E-003,-4.68102E-002,1.00000E+000,8
639,1317,-1.81279E+001,-1.02747E+000,1.50195E-001,9.11992E-001,-2.78670E-001,1.04056E-001,9.59278E-001,7.53631E-003,6.89492E-001,0,1.40366E+001,-4.70984E+000,9.99790E-001,-2.74836E+001,-4.46140E+001,9.98816E-001,4.91657E-002,-1.94185E-002,-2.57072E-004,4.91666E-002,-1.94195E-002,-2.14756E-001,4.95269E-002,1.05035E+000,9.67425E-003,0.00000E+000,-9.57953E-003,9.81794E-001,0.00000E+000,1.12997E-003,-4.67640E-002,1.00000E+000,8
639,1327,-1.81192E+001,-4.14610E-001,7.45215E-002,9.18420E-001,-2.94092E-001,7.62540E-002,9.67367E-001,5.58045E-003,6.17234E-001,0,1.42154E+001,-4.89902E+000,9.99840E-001,-2.74177E+001,-4.50740E+001,9.99089E-001,4.79668E-002,-1.94177E-002,-3.25965E-004,4.79684E-002,-1.94193E-002,-2.77154E-001,4.82572E-002,1.04909E+000,9.66973E-003,0.00000E+000,-9.68701E-003,9.81794E-001,0.00000E+000,3.80250E-004,-4.67667E-002,1.00000E+000,8
639,1337,-1.81067E+001,2.08798E-001,1.92769E-002,9.24330E-001,-3.06466E-001,4.40761E-002,9.74808E-001,5.25663E-003,6.59270E-001,0,1.43964E+001,-5.02789E+000,9.99841E-001,-2.72320E+001,-4.53585E+001,9.99391E-001,4.67541E-002,-1.94178E-002,-3.99634E-004,4.67565E-002,-1.94202E-002,-3.46011E-001,4.69794E-002,1.04782E+000,9.65656E-003,0.00000E+000,-9.79555E-003,9.81793E-001,0.00000E+000,-3.76831E-004,-4.67746E-002,1.00000E+000,8
1219,1317,2.17436E+001,-4.58108E-001,-8.02838E-002,2.96831E+000,-1.99289E-002,-4.62068E-002,2.96874E+000,9.07286E-003,5.02040E-001,0,4.47300E+001,-6.18849E-001,9.99796E-001,7.57418E+000,-3.01256E+001,9.98336E-001,5.36131E-002,-2.17491E-002,-1.29339E-004,5.36134E-002,-2.17493E-002,-9.83325E-002,5.39305E-002,1.05504E+000,-9.81165E-003,0.00000E+000,9.07091E-003,9.79622E-001,0.00000E+000,-4.91762E-003,-4.90366E-002,1.00000E+000,8
1219,1327,2.17634E+001,1.82087E-001,-9.07041E-002,2.96529E+000,-3.08903E-002,-7.71332E-002,2.96645E+000,5.15113E-003,4.22194E-001,0,4.48018E+001,-7.34450E-001,9.99869E-001,7.92636E+000,-3.02071E+001,9.99144E-001,5.43002E-002,-2.17505E-002,-1.30257E-004,5.43004E-002,-2.17507E-002,-9.81337E-002,5.46572E-002,1.05576E+000,-9.78647E-003,0.00000E+000,9.01657E-003,9.79620E-001,0.00000E+000,-4.44002E-003,-4.90200E-002,1.00000E+000,8
1219,1337,2.17968E+001,8.31290E-001,-5.29143E-002,2.96255E+000,-4.45212E-002,-1.10822E-001,2.96496E+000,6.25055E-003,4.45432E-001,0,4.48846E+001,-8.74642E-001,9.99852E-001,8.56737E+000,-3.02059E+001,9.98911E-001,5.49968E-002,-2.17525E-002,-1.24379E-004,5.49970E-002,-2.17527E-002,-9.28524E-002,5.53957E-002,1.05650E+000,-9.74646E-003,0.00000E+000,8.96140E-003,9.79617E-001,0.00000E+000,-3.95518E-003,-4.89936E-002,1.00000E+000,8
1219,1297,2.17291E+001,-1.72160E+000,1.72763E-002,2.98116E+000,1.52910E-002,2.22220E-002,2.98128E+000,7.18887E-003,4.09630E-001,0,4.46494E+001,-1.79505E-001,9.99790E-001,7.38056E+000,-2.99958E+001,9.98166E-001,5.22379E-002,-2.17471E-002,-1.18119E-004,5.22381E-002,-2.17473E-002,-9.14736E-002,5.24815E-002,1.05360E+000,-9.84204E-003,0.00000E+000,9.17949E-003,9.79624E-001,0.00000E+000,-5.87203E-003,-4.90567E-002,1.00000E+000,8
1219,1307,2.17349E+001,-1.09122E+000,-3.78451E-002,2.97527E+000,-2.47030E-003,-1.08459E-002,2.97530E+000,8.66835E-003,4.60341E-001,0,4.46941E+001,-4.07919E-001,9.99793E-001,7.44523E+000,-3.00657E+001,9.98037E-001,5.29249E-002,-2.17480E-002,-1.24726E-004,5.29251E-002,-2.17482E-002,-9.57006E-002,5.32043E-002,1.05432E+000,-9.82901E-003,0.00000E+000,9.12528E-003,9.79623E-001,0.00000E+000,-5.39553E-003,-4.90481E-002,1.00000E+000,8
629,1347,-1.87593E+001,8.34315E-001,-5.55803E-003,9.00401E-001,-3.13038E-001,1.47772E-002,9.53380E-001,5.78690E-003,6.02641E-001,0,1.41098E+001,-5.04980E+000,9.99727E-001,-2.71058E+001,-4.58256E+001,9.99180E-001,4.51048E-002,-1.96101E-002,-4.94202E-004,4.51085E-002,-1.96139E-002,-4.37511E-001,4.52361E-002,1.04608E+000,1.09386E-002,0.00000E+000,-1.11626E-002,9.81549E-001,0.00000E+000,-1.10233E-003,-4.58964E-002,1.00000E+000,8
629,1357,-1.87341E+001,1.46807E+000,1.50984E-002,9.07472E-001,-3.23542E-001,-9.45539E-003,9.63470E-001,4.80003E-003,5.98356E-001,0,1.42840E+001,-5.16875E+000,9.99750E-001,-2.65027E+001,-4.61442E+001,9.99406E-001,4.39469E-002,-1.96097E-002,-4.92169E-004,4.39507E-002,-1.96135E-002,-4.43651E-001,4.40353E-002,1.04487E+000,1.09047E-002,0.00000E+000,-1.11040E-002,9.81551E-001,0.00000E+000,-1.87240E-003,-4.59180E-002,1.00000E+000,8
629,1327,-1.87905E+001,-4.13604E-001,7.08858E-002,8.87388E-001,-2.87310E-001,7.49299E-002,9.35745E-001,5.12873E-003,5.96789E-001,0,1.37424E+001,-4.77677E+000,9.99809E-001,-2.76707E+001,-4.51565E+001,9.99095E-001,4.73984E-002,-1.96103E-002,-5.14213E-004,4.74024E-002,-1.96142E-002,-4.39644E-001,4.76367E-002,1.04848E+000,1.09726E-002,0.00000E+000,-1.12790E-002,9.81548E-001,0.00000E+000,4.27167E-004,-4.58748E-002,1.00000E+000,8
629,1337,-1.87762E+001,2.08356E-001,1.82068E-002,8.95087E-001,-3.00831E-001,4.48532E-002,9.45353E-001,4.91434E-003,6.37303E-001,0,1.39453E+001,-4.93007E+000,9.99767E-001,-2.74504E+001,-4.54711E+001,9.99481E-001,4.62535E-002,-1.96103E-002,-5.02037E-004,4.62574E-002,-1.96141E-002,-4.36694E-001,4.64350E-002,1.04728E+000,1.09602E-002,0.00000E+000,-1.12208E-002,9.81548E-001,0.00000E+000,-3.36948E-004,-4.58827E-002,1.00000E+000,8
1229,1317,2.24494E+001,-4.43925E-001,-7.88083E-002,3.00759E+000,-1.21269E-002,-4.76244E-002,3.00799E+000,7.69316E-003,4.84244E-001,0,4.52878E+001,-4.96213E-001,9.99827E-001,8.58566E+000,-2.98294E+001,9.99201E-001,5.35552E-002,-2.16968E-002,1.54482E-004,5.35555E-002,-2.16972E-002,1.17620E-001,5.38758E-002,1.05499E+000,-8.99840E-003,0.00000E+000,8.85245E-003,9.79650E-001,0.00000E+000,-4.50092E-003,-4.85243E-002,1.00000E+000,8
1229,1327,2.24680E+001,1.95429E-001,-9.27970E-002,3.00279E+000,-2.72180E-002,-8.34390E-002,3.00407E+000,6.14300E-003,5.00158E-001,0,4.53545E+001,-6.68092E-001,9.99819E-001,8.91164E+000,-2.98670E+001,9.98881E-001,5.42177E-002,-2.16976E-002,1.60436E-004,5.42181E-002,-2.16980E-002,1.21086E-001,5.45769E-002,1.05568E+000,-8.97358E-003,0.00000E+000,8.80552E-003,9.79648E-001,0.00000E+000,-3.86867E-003,-4.85018E-002,1.00000E+000,8
1229,1337,2.24994E+001,8.42854E-001,-6.49252E-002,3.00077E+000,-3.76160E-002,-1.15909E-001,3.00324E+000,6.51902E-003,4.41905E-001,0,4.54436E+001,-7.77014E-001,9.99784E-001,9.50286E+000,-2.99107E+001,9.98565E-001,5.48814E-002,-2.16987E-002,1.71390E-004,5.48817E-002,-2.16990E-002,1.28230E-001,5.52808E-002,1.05638E+000,-8.93809E-003,0.00000E+000,8.75846E-003,9.79646E-001,0.00000E+000,-3.23454E-003,-4.84696E-002,1.00000E+000,8
629,1317,-1.88002E+001,-1.02687E+000,1.51891E-001,8.79724E-001,-2.72108E-001,1.06957E-001,9.27036E-001,6.22671E-003,6.75306E-001,0,1.35334E+001,-4.61222E+000,9.99795E-001,-2.77367E+001,-4.47093E+001,9.98993E-001,4.85314E-002,-1.96101E-002,-5.30286E-004,4.85355E-002,-1.96142E-002,-4.45848E-001,4.88321E-002,1.04967E+000,1.09764E-002,0.00000E+000,-1.13366E-002,9.81547E-001,0.00000E+000,1.18466E-003,-4.58723E-002,1.00000E+000,8
1229,1297,2.24332E+001,-1.70803E+000,1.56673E-002,3.01837E+000,2.14713E-002,1.56111E-002,3.01849E+000,7.15879E-003,4.55004E-001,0,4.51959E+001,-8.27891E-002,9.99778E-001,8.36172E+000,-2.96740E+001,9.97792E-001,5.22359E-002,-2.16958E-002,1.52336E-004,5.22362E-002,-2.16961E-002,1.18057E-001,5.24851E-002,1.05360E+000,-9.02715E-003,0.00000E+000,8.94569E-003,9.79652E-001,0.00000E+000,-5.75731E-003,-4.85503E-002,1.00000E+000,8
1229,1307,2.24416E+001,-1.07590E+000,-3.71157E-002,3.01632E+000,6.53639E-003,-9.81989E-003,3.01634E+000,9.69620E-003,4.75388E-001,0,4.52675E+001,-2.78572E-001,9.99758E-001,8.46904E+000,-2.97350E+001,9.98285E-001,5.28946E-002,-2.16963E-002,1.51876E-004,5.28949E-002,-2.16966E-002,1.16660E-001,5.31786E-002,1.05429E+000,-9.01605E-003,0.00000E+000,8.89917E-003,9.79651E-001,0.00000E+000,-5.13042E-003,-4.85403E-002,1.00000E+000,8
619,1327,-1.94619E+001,-4.13797E-001,6.78458E-002,8.55653E-001,-2.81971E-001,7.28807E-002,9.03859E-001,4.25777E-003,5.89327E-001,0,1.32599E+001,-4.68134E+000,9.99768E-001,-2.79194E+001,-4.52524E+001,9.99361E-001,4.69602E-002,-1.94632E-002,-6.33486E-004,4.69662E-002,-1.94692E-002,-5.46369E-001,4.71944E-002,1.04801E+000,1.23009E-002,0.00000E+000,-1.27630E-002,9.81644E-001,0.00000E+000,4.75019E-004,-4.52028E-002,1.00000E+000,8
619,1337,-1.94464E+001,2.09226E-001,1.98990E-002,8.63750E-001,-2.94821E-001,4.29303E-002,9.13688E-001,4.30776E-003,6.24437E-001,0,1.34679E+001,-4.82261E+000,9.99605E-001,-2.76678E+001,-4.55652E+001,9.99446E-001,4.58096E-002,-1.94633E-002,-5.77796E-004,4.58147E-002,-1.94684E-002,-5.07130E-001,4.59865E-002,1.04680E+000,1.22872E-002,0.00000E+000,-1.26228E-002,9.81646E-001,0.00000E+000,-2.32309E-004,-4.52109E-002,1.00000E+000,8
619,1347,-1.94286E+001,8.35677E-001,-7.35386E-003,8.71407E-001,-3.05338E-001,1.65824E-002,9.23503E-001,4.77267E-003,6.12117E-001,0,1.36582E+001,-4.93483E+000,9.99707E-001,-2.73174E+001,-4.58951E+001,9.99445E-001,4.46570E-002,-1.94629E-002,-5.24633E-004,4.46613E-002,-1.94672E-002,-4.68756E-001,4.47835E-002,1.04560E+000,1.22681E-002,0.00000E+000,-1.24825E-002,9.81648E-001,0.00000E+000,-9.39721E-004,-4.52221E-002,1.00000E+000,8
619,1357,-1.94036E+001,1.46801E+000,5.42847E-003,8.79312E-001,-3.16110E-001,-9.81874E-003,9.34458E-001,4.44200E-003,6.03987E-001,0,1.38512E+001,-5.05250E+000,9.99826E-001,-2.67406E+001,-4.62220E+001,9.99590E-001,4.34956E-002,-1.94614E-002,-4.77172E-004,4.34992E-002,-1.94650E-002,-4.34231E-001,4.35791E-002,1.04439E+000,1.22364E-002,0.00000E+000,-1.23413E-002,9.81651E-001,0.00000E+000,-1.65129E-003,-4.52407E-002,1.00000E+000,8
619,1317,-1.94696E+001,-1.02525E+000,1.50780E-001,8.49957E-001,-2.63512E-001,1.07341E-001,8.96319E-001,6.75024E-003,6.36208E-001,0,1.30750E+001,-4.48011E+000,9.99716E-001,-2.79500E+001,-4.47953E+001,9.99223E-001,4.81014E-002,-1.94622E-002,-6.93368E-004,4.81085E-002,-1.94693E-002,-5.87912E-001,4.83989E-002,1.04921E+000,1.23049E-002,0.00000E+000,-1.29024E-002,9.81644E-001,0.00000E+000,1.17774E-003,-4.52004E-002,1.00000E+000,8
1239,1307,2.31406E+001,-1.06787E+000,-5.13896E-002,3.05009E+000,9.84436E-003,-2.08589E-002,3.05017E+000,9.41010E-003,4.60429E-001,0,4.57821E+001,-2.13513E-001,9.99736E-001,9.35477E+000,-2.95013E+001,9.98807E-001,5.27503E-002,-2.15264E-002,2.99864E-004,5.27515E-002,-2.15276E-002,2.31305E-001,5.30477E-002,1.05414E+000,-8.32006E-003,0.00000E+000,8.53735E-003,9.79791E-001,0.00000E+000,-4.99950E-003,-4.79122E-002,1.00000E+000,8
1239,1317,2.31531E+001,-4.30233E-001,-8.61955E-002,3.04622E+000,-2.33442E-003,-5.04750E-002,3.04664E+000,8.40440E-003,4.39213E-001,0,4.58405E+001,-3.48564E-001,9.99774E-001,9.55356E+000,-2.95354E+001,9.99117E-001,5.34334E-002,-2.15249E-002,3.33722E-004,5.34349E-002,-2.15264E-002,2.55080E-001,5.37700E-002,1.05486E+000,-8.30208E-003,0.00000E+000,8.53975E-003,9.79791E-001,0.00000E+000,-4.10462E-003,-4.78898E-002,1.00000E+000,8
1239,1327,2.31761E+001,2.11503E-001,-7.95952E-002,3.04112E+000,-1.99789E-002,-8.30269E-002,3.04232E+000,7.34067E-003,5.15261E-001,0,4.58897E+001,-5.63044E-001,9.99772E-001,9.97934E+000,-2.95493E+001,9.98963E-001,5.41233E-002,-2.15226E-002,3.74003E-004,5.41252E-002,-2.15245E-002,2.83268E-001,5.45017E-002,1.05559E+000,-8.27110E-003,0.00000E+000,8.54218E-003,9.79791E-001,0.00000E+000,-3.19900E-003,-4.78511E-002,1.00000E+000,8
1239,1337,2.32025E+001,8.57150E-001,-6.26830E-002,3.03756E+000,-2.94131E-002,-1.12562E-001,3.03979E+000,6.46199E-003,4.33871E-001,0,4.59457E+001,-6.67121E-001,9.99689E-001,1.04733E+001,-2.96072E+001,9.98311E-001,5.48072E-002,-2.15202E-002,4.14954E-004,5.48094E-002,-2.15224E-002,3.11476E-001,5.52287E-002,1.05631E+000,-8.23819E-003,0.00000E+000,8.54459E-003,9.79791E-001,0.00000E+000,-2.29971E-003,-4.78100E-002,1.00000E+000,8
1239,1297,2.31360E+001,-1.69698E+000,1.41433E-002,3.05486E+000,2.74373E-002,1.32927E-002,3.05502E+000,6.15954E-003,4.69881E-001,0,4.57141E+001,-1.00193E-002,9.99785E-001,9.32488E+000,-2.94072E+001,9.98641E-001,5.20680E-002,-2.15274E-002,2.69663E-004,5.20690E-002,-2.15284E-002,2.09935E-001,5.23284E-002,1.05343E+000,-8.33045E-003,0.00000E+000,8.53496E-003,9.79791E-001,0.00000E+000,-5.89151E-003,-4.79252E-002,1.00000E+000,8
609,1347,-2.00960E+001,8.36677E-001,-7.17149E-003,8.42934E-001,-2.99234E-001,1.49527E-002,8.94596E-001,6.29889E-003,6.25524E-001,0,1.32236E+001,-4.83244E+000,9.99655E-001,-2.74908E+001,-4.59725E+001,9.99320E-001,4.42556E-002,-1.90820E-002,-6.59325E-004,4.42625E-002,-1.90889E-002,-5.96345E-001,4.44017E-002,1.04516E+000,1.34509E-002,0.00000E+000,-1.38777E-002,9.81967E-001,0.00000E+000,-6.81770E-004,-4.44029E-002,1.00000E+000,8
609,1357,-2.00724E+001,1.47040E+000,1.26032E-003,8.50581E-001,-3.07502E-001,-1.04447E-002,9.04520E-001,5.21555E-003,6.15529E-001,0,1.34090E+001,-4.91380E+000,9.99757E-001,-2.69452E+001,-4.62713E+001,9.99492E-001,4.31048E-002,-1.90804E-002,-5.91900E-004,4.31105E-002,-1.90860E-002,-5.45294E-001,4.32047E-002,1.04396E+000,1.34214E-002,0.00000E+000,-1.37007E-002,9.81972E-001,0.00000E+000,-1.40507E-003,-4.44206E-002,1.00000E+000,8
609,1317,-2.01409E+001,-1.02456E+000,1.49441E-001,8.17385E-001,-2.57255E-001,1.04195E-001,8.63223E-001,8.80889E-003,6.38642E-001,0,1.25819E+001,-4.38314E+000,9.99716E-001,-2.81881E+001,-4.48747E+001,9.98485E-001,4.76743E-002,-1.90805E-002,-8.84942E-004,4.76860E-002,-1.90922E-002,-7.59370E-001,4.80005E-002,1.04874E+000,1.34869E-002,0.00000E+000,-1.44053E-002,9.81962E-001,0.00000E+000,1.47432E-003,-4.43811E-002,1.00000E+000,8
609,1327,-2.01317E+001,-4.13013E-001,6.55762E-002,8.24983E-001,-2.76671E-001,7.16987E-002,8.73089E-001,5.74935E-003,6.42120E-001,0,1.27911E+001,-4.60332E+000,9.99716E-001,-2.81394E+001,-4.53048E+001,9.98955E-001,4.65396E-002,-1.90821E-002,-8.05709E-004,4.65495E-002,-1.90920E-002,-7.03342E-001,4.67994E-002,1.04755E+000,1.34838E-002,0.00000E+000,-1.42299E-002,9.81963E-001,0.00000E+000,7.57475E-004,-4.43830E-002,1.00000E+000,8
609,1337,-2.01152E+001,2.09904E-001,1.82859E-002,8.34192E-001,-2.87929E-001,4.19327E-002,8.83480E-001,5.74546E-003,6.05593E-001,0,1.30150E+001,-4.70784E+000,9.99606E-001,-2.78687E+001,-4.56581E+001,9.99184E-001,4.54010E-002,-1.90824E-002,-7.31280E-004,4.54093E-002,-1.90907E-002,-6.49656E-001,4.56006E-002,1.04636E+000,1.34703E-002,0.00000E+000,-1.40542E-002,9.81965E-001,0.00000E+000,3.93867E-005,-4.43912E-002,1.00000E+000,8
1249,1297,2.38409E+001,-1.68265E+000,2.05793E-002,3.09149E+000,3.46880E-002,1.32604E-002,3.09171E+000,7.73015E-003,4.90950E-001,0,4.62231E+001,9.25065E-002,9.99748E-001,1.03374E+001,-2.91032E+001,9.98721E-001,5.17441E-002,-2.11770E-002,4.12518E-004,5.17464E-002,-2.11794E-002,3.24111E-001,5.20295E-002,1.05310E+000,-7.41435E-003,0.00000E+000,7.97657E-003,9.80111E-001,0.00000E+000,-6.11025E-003,-4.73214E-002,1.00000E+000,8
1249,1307,2.38417E+001,-1.05629E+000,-5.60985E-002,3.08530E+000,1.60120E-002,-2.25910E-002,3.08542E+000,9.86318E-003,4.73505E-001,0,4.62791E+001,-1.28745E-001,9.99761E-001,1.02902E+001,-2.92190E+001,9.98455E-001,5.24945E-002,-2.11730E-002,5.28591E-004,5.24983E-002,-2.11768E-002,4.11090E-001,5.28240E-002,1.05388E+000,-7.40590E-003,0.00000E+000,8.13745E-003,9.80113E-001,0.00000E+000,-4.95316E-003,-4.73089E-002,1.00000E+000,8
1249,1317,2.38526E+001,-4.22495E-001,-9.76905E-002,3.08077E+000,6.72813E-004,-5.51570E-002,3.08127E+000,8.62219E-003,4.29388E-001,0,4.63419E+001,-3.00396E-001,9.99596E-001,1.04533E+001,-2.93080E+001,9.98354E-001,5.32461E-002,-2.11662E-002,6.49960E-004,5.32517E-002,-2.11719E-002,5.00404E-001,5.36228E-002,1.05467E+000,-7.38722E-003,0.00000E+000,8.29901E-003,9.80117E-001,0.00000E+000,-3.79114E-003,-4.72814E-002,1.00000E+000,8
1249,1327,2.38746E+001,2.22588E-001,-9.97972E-002,3.07724E+000,-1.04921E-002,-8.61976E-002,3.07846E+000,7.64214E-003,4.64329E-001,0,4.64074E+001,-4.27775E-001,9.99627E-001,1.08490E+001,-2.92696E+001,9.98776E-001,5.40020E-002,-2.11559E-002,7.78039E-004,5.40100E-002,-2.11639E-002,5.93045E-001,5.44295E-002,1.05546E+000,-7.35623E-003,0.00000E+000,8.46194E-003,9.80123E-001,0.00000E+000,-2.61926E-003,-4.72357E-002,1.00000E+000,8
1249,1337,2.39029E+001,8.71028E-001,-7.09006E-002,3.07264E+000,-2.11153E-002,-1.13920E-001,3.07482E+000,5.44502E-003,4.39756E-001,0,4.64403E+001,-5.47412E-001,9.99834E-001,1.13885E+001,-2.92805E+001,9.99363E-001,5.47578E-002,-2.11431E-002,9.10496E-004,5.47687E-002,-2.11540E-002,6.87180E-001,5.52391E-002,1.05626E+000,-7.31637E-003,0.00000E+000,8.62527E-003,9.80131E-001,0.00000E+000,-1.44444E-003,-4.71769E-002,1.00000E+000,8
1259,1327,2.45766E+001,2.32975E-001,-1.07228E-001,3.11278E+000,-4.73120E-003,-9.01522E-002,3.11409E+000,6.82477E-003,4.31565E-001,0,4.69189E+001,-3.40939E-001,9.99787E-001,1.17962E+001,-2.90196E+001,9.99137E-001,5.39463E-002,-2.10134E-002,1.18278E-003,5.39649E-002,-2.10320E-002,9.03761E-001,5.44006E-002,1.05541E+000,-6.60149E-003,0.00000E+000,8.51186E-003,9.80224E-001,0.00000E+000,-1.65816E-003,-4.63795E-002,1.00000E+000,8
1259,1337,2.46064E+001,8.80067E-001,-7.74001E-002,3.10900E+000,-1.74844E-002,-1.18581E-001,3.11131E+000,6.04767E-003,4.03255E-001,0,4.69682E+001,-4.85431E-001,9.99914E-001,1.23579E+001,-2.90536E+001,9.99430E-001,5.47100E-002,-2.09948E-002,1.36355E-003,5.47345E-002,-2.10194E-002,1.03153E+000,5.52231E-002,1.05622E+000,-6.56034E-003,0.00000E+000,8.75896E-003,9.80236E-001,0.00000E+000,-2.32386E-004,-4.63067E-002,1.00000E+000,8
599,1347,-2.07608E+001,8.42080E-001,3.65498E-004,8.16145E-001,-2.88700E-001,1.76941E-002,8.65884E-001,6.27189E-003,6.36696E-001,0,1.28021E+001,-4.67701E+000,9.99748E-001,-2.75981E+001,-4.59992E+001,9.99588E-001,4.40490E-002,-1.92038E-002,-5.12107E-004,4.40532E-002,-1.92080E-002,-4.63837E-001,4.41732E-002,1.04493E+000,1.44760E-002,0.00000E+000,-1.45619E-002,9.81797E-001,0.00000E+000,-4.51224E-004,-4.34634E-002,1.00000E+000,8
599,1357,-2.07361E+001,1.47320E+000,7.53054E-003,8.25560E-001,-2.99246E-001,-6.17512E-003,8.78143E-001,4.59816E-003,6.36309E-001,0,1.30114E+001,-4.79809E+000,9.99785E-001,-2.70379E+001,-4.63322E+001,9.99564E-001,4.29681E-002,-1.92003E-002,-3.24818E-004,4.29698E-002,-1.92020E-002,-2.99349E-001,4.30506E-002,1.04381E+000,1.44494E-002,0.00000E+000,-1.41529E-002,9.81807E-001,0.00000E+000,-1.18262E-003,-4.34806E-002,1.00000E+000,8
1259,1287,2.45427E+001,-2.30049E+000,9.79826E-002,3.13005E+000,5.70372E-002,3.78231E-002,3.13080E+000,9.97715E-003,4.05634E-001,0,4.66574E+001,4.04365E-001,9.99597E-001,1.13547E+001,-2.88251E+001,9.95835E-001,5.08998E-002,-2.10470E-002,5.14246E-004,5.09035E-002,-2.10507E-002,4.09498E-001,5.11565E-002,1.05222E+000,-6.66428E-003,0.00000E+000,7.53482E-003,9.80204E-001,0.00000E+000,-7.29584E-003,-4.64906E-002,1.00000E+000,8
1259,1297,2.45396E+001,-1.67483E+000,2.11888E-003,3.12552E+000,3.88209E-002,3.96966E-003,3.12576E+000,7.42143E-003,4.45511E-001,0,4.67329E+001,1.81552E-001,9.99624E-001,1.12183E+001,-2.88811E+001,9.97795E-001,5.16619E-002,-2.10442E-002,6.74082E-004,5.16681E-002,-2.10504E-002,5.31147E-001,5.19625E-002,1.05302E+000,-6.66255E-003,0.00000E+000,7.77795E-003,9.80205E-001,0.00000E+000,-5.89294E-003,-4.64876E-002,1.00000E+000,8
1259,1307,2.45438E+001,-1.04418E+000,-6.53803E-002,3.12145E+000,2.27531E-002,-2.73129E-002,3.12165E+000,7.34826E-003,4.61286E-001,0,4.68013E+001,-1.40478E-002,9.99686E-001,1.12384E+001,-2.89313E+001,9.98419E-001,5.24233E-002,-2.10380E-002,8.38315E-004,5.24329E-002,-2.10475E-002,6.53727E-001,5.27715E-002,1.05381E+000,-6.65239E-003,0.00000E+000,8.02171E-003,9.80208E-001,0.00000E+000,-4.48641E-003,-4.64696E-002,1.00000E+000,8
599,1327,-2.07992E+001,-4.03864E-001,7.44537E-002,7.94967E-001,-2.63443E-001,7.34056E-002,8.40692E-001,5.43533E-003,6.42826E-001,0,1.23220E+001,-4.39267E+000,9.99789E-001,-2.82829E+001,-4.52787E+001,9.99233E-001,4.61936E-002,-1.92029E-002,-8.95514E-004,4.62059E-002,-1.92152E-002,-7.84389E-001,4.64234E-002,1.04718E+000,1.45058E-002,0.00000E+000,-1.53755E-002,9.81786E-001,0.00000E+000,1.00365E-003,-4.34440E-002,1.00000E+000,8
599,1337,-2.07831E+001,2.14788E-001,1.83088E-002,8.05313E-001,-2.77422E-001,4.34141E-002,8.52864E-001,4.65794E-003,6.17062E-001,0,1.25648E+001,-4.54657E+000,9.99765E-001,-2.80452E+001,-4.56749E+001,9.99504E-001,4.51254E-002,-1.92050E-002,-7.02073E-004,4.51331E-002,-1.92127E-002,-6.25200E-001,4.52989E-002,1.04606E+000,1.44958E-002,0.00000E+000,-1.49699E-002,9.81790E-001,0.00000E+000,2.78355E-004,-4.34505E-002,1.00000E+000,8
1259,1317,2.45553E+001,-4.08470E-001,-1.01273E-001,3.11714E+000,8.34386E-003,-5.53200E-002,3.11764E+000,7.30004E-003,4.71488E-001,0,4.68489E+001,-1.99290E-001,9.99771E-001,1.14190E+001,-2.89742E+001,9.98796E-001,5.31845E-002,-2.10281E-002,1.00741E-003,5.31982E-002,-2.10417E-002,7.77580E-001,5.35839E-002,1.05461E+000,-6.63296E-003,0.00000E+000,8.26627E-003,9.80214E-001,0.00000E+000,-3.07526E-003,-4.64352E-002,1.00000E+000,8
599,1317,-2.08119E+001,-1.02033E+000,1.53073E-001,7.83600E-001,-2.49926E-001,9.96286E-002,8.28503E-001,7.35753E-003,6.41342E-001,0,1.20726E+001,-4.24195E+000,9.99766E-001,-2.84021E+001,-4.49104E+001,9.99188E-001,4.72584E-002,-1.91981E-002,-1.09219E-003,4.72763E-002,-1.92161E-002,-9.41298E-001,4.75513E-002,1.04829E+000,1.45084E-002,0.00000E+000,-1.57805E-002,9.81786E-001,0.00000E+000,1.72787E-003,-4.34424E-002,1.00000E+000,8
589,1347,-2.14293E+001,8.47925E-001,9.46864E-004,7.86086E-001,-2.77236E-001,1.80039E-002,8.33735E-001,4.84308E-003,6.48192E-001,0,1.23352E+001,-4.49848E+000,9.99773E-001,-2.77768E+001,-4.60047E+001,9.99562E-001,4.38753E-002,-1.91884E-002,-2.26085E-004,4.38761E-002,-1.91892E-002,-2.05404E-001,4.39908E-002,1.04473E+000,1.57658E-002,0.00000E+000,-1.52160E-002,9.81768E-001,0.00000E+000,-3.97241E-004,-4.26449E-002,1.00000E+000,8
589,1357,-2.14030E+001,1.47957E+000,1.15107E-002,7.96647E-001,-2.88270E-001,-5.78518E-003,8.47219E-001,3.88261E-003,6.63932E-001,0,1.25620E+001,-4.62447E+000,9.99801E-001,-2.71813E+001,-4.63307E+001,9.99661E-001,4.28092E-002,-1.91849E-002,-3.36051E-005,4.28092E-002,-1.91849E-002,-3.10582E-002,4.28859E-002,1.04362E+000,1.57390E-002,0.00000E+000,-1.48002E-002,9.81778E-001,0.00000E+000,-1.08391E-003,-4.26614E-002,1.00000E+000,8
589,1337,-2.14493E+001,2.19488E-001,2.20268E-002,7.76455E-001,-2.67815E-001,4.11289E-002,8.22374E-001,4.20961E-003,6.16659E-001,0,1.21242E+001,-4.39061E+000,9.99817E-001,-2.81812E+001,-4.57084E+001,9.99652E-001,4.49351E-002,-1.91886E-002,-4.22012E-004,4.49379E-002,-1.91914E-002,-3.77054E-001,4.50970E-002,1.04584E+000,1.57835E-002,0.00000E+000,-1.56302E-002,9.81761E-001,0.00000E+000,2.86526E-004,-4.26339E-002,1.00000E+000,8
589,1327,-2.14635E+001,-3.94421E-001,8.11016E-002,7.68188E-001,-2.49902E-001,7.53889E-002,8.11324E-001,7.92651E-003,6.74559E-001,0,1.19025E+001,-4.18884E+000,9.99858E-001,-2.83797E+001,-4.52274E+001,9.99173E-001,4.59861E-002,-1.91861E-002,-6.20165E-004,4.59920E-002,-1.91920E-002,-5.45149E-001,4.62012E-002,1.04694E+000,1.57936E-002,0.00000E+000,-1.60415E-002,9.81757E-001,0.00000E+000,9.65706E-004,-4.26277E-002,1.00000E+000,8
1269,1327,2.52817E+001,2.44542E-001,-1.06315E-001,3.15051E+000,1.02506E-004,-8.73022E-002,3.15172E+000,6.08902E-003,4.29727E-001,0,4.74349E+001,-2.70262E-001,9.99857E-001,1.28082E+001,-2.87541E+001,9.99076E-001,5.38205E-002,-2.07916E-002,1.51615E-003,5.38513E-002,-2.08224E-002,1.16363E+000,5.43104E-002,1.05528E+000,-5.82606E-003,0.00000E+000,8.42267E-003,9.80372E-001,0.00000E+000,-1.10207E-003,-4.48059E-002,1.00000E+000,8
1269,1337,2.53141E+001,8.90052E-001,-7.46579E-002,3.14825E+000,-1.42872E-002,-1.17216E-001,3.15046E+000,6.29815E-003,4.04002E-001,0,4.75137E+001,-4.48688E-001,9.99834E-001,1.34106E+001,-2.88137E+001,9.98709E-001,5.45864E-002,-2.07695E-002,1.72432E-003,5.46258E-002,-2.08089E-002,1.31015E+000,5.51397E-002,1.05609E+000,-5.78340E-003,0.00000E+000,8.72401E-003,9.80388E-001,0.00000E+000,3.45319E-004,-4.47296E-002,1.00000E+000,8
589,1317,-2.14779E+001,-1.01223E+000,1.62794E-001,7.54801E-001,-2.37722E-001,1.02954E-001,7.98020E-001,6.17146E-003,6.20559E-001,0,1.16187E+001,-4.04205E+000,9.99670E-001,-2.85155E+001,-4.49107E+001,9.98638E-001,4.70354E-002,-1.91807E-002,-8.22174E-004,4.70456E-002,-1.91909E-002,-7.11269E-001,4.73108E-002,1.04804E+000,1.57956E-002,0.00000E+000,-1.64530E-002,9.81757E-001,0.00000E+000,1.64498E-003,-4.26265E-002,1.00000E+000,8
1269,1317,2.52625E+001,-3.95678E-001,-9.66811E-002,3.15488E+000,1.44961E-002,-5.70812E-002,3.15543E+000,6.36044E-003,4.37522E-001,0,4.73817E+001,-9.83078E-002,9.99830E-001,1.24699E+001,-2.87148E+001,9.98902E-001,5.30557E-002,-2.08075E-002,1.31521E-003,5.30791E-002,-2.08309E-002,1.01977E+000,5.34869E-002,1.05448E+000,-5.85515E-003,0.00000E+000,8.12291E-003,9.80361E-001,0.00000E+000,-2.54192E-003,-4.48579E-002,1.00000E+000,8
1269,1307,2.52501E+001,-1.03166E+000,-6.07191E-002,3.15846E+000,2.84191E-002,-2.89813E-002,3.15872E+000,6.66647E-003,4.52072E-001,0,4.73224E+001,7.47533E-002,9.99691E-001,1.22770E+001,-2.86653E+001,9.98648E-001,5.22922E-002,-2.08190E-002,1.11961E-003,5.23094E-002,-2.08361E-002,8.77140E-001,5.26686E-002,1.05368E+000,-5.87480E-003,0.00000E+000,7.82472E-003,9.80354E-001,0.00000E+000,-3.97422E-003,-4.48931E-002,1.00000E+000,8
1269,1297,2.52423E+001,-1.66559E+000,-5.86269E-003,3.16149E+000,4.24553E-002,-1.03273E-003,3.16178E+000,7.71522E-003,4.29993E-001,0,4.72533E+001,2.54435E-001,9.99664E-001,1.21826E+001,-2.86441E+001,9.98244E-001,5.15273E-002,-2.08275E-002,9.27221E-004,5.15391E-002,-2.08394E-002,7.34080E-001,5.18526E-002,1.05288E+000,-5.88816E-003,0.00000E+000,7.52702E-003,9.80349E-001,0.00000E+000,-5.40418E-003,-4.49170E-002,1.00000E+000,8
1269,1287,2.52474E+001,-2.29096E+000,9.61484E-002,3.16572E+000,5.97083E-002,3.06488E-002,3.16643E+000,1.23963E-002,4.06203E-001,0,4.71807E+001,4.64349E-001,9.99789E-001,1.23568E+001,-2.85902E+001,9.96354E-001,5.07635E-002,-2.08294E-002,7.42606E-004,5.07712E-002,-2.08371E-002,5.94222E-001,5.10422E-002,1.05208E+000,-5.88716E-003,0.00000E+000,7.23086E-003,9.80349E-001,0.00000E+000,-6.82670E-003,-4.49152E-002,1.00000E+000,8
579,1347,-2.20945E+001,8.53227E-001,4.11576E-003,7.58235E-001,-2.67182E-001,1.66676E-002,8.04105E-001,4.10617E-003,6.55738E-001,0,1.19070E+001,-4.33289E+000,9.99776E-001,-2.78933E+001,-4.60257E+001,9.99658E-001,4.34416E-002,-1.91969E-002,2.96103E-005,4.34416E-002,-1.91970E-002,2.70847E-002,4.35393E-002,1.04426E+000,1.69858E-002,0.00000E+000,-1.58527E-002,9.81729E-001,0.00000E+000,-7.15141E-004,-4.21605E-002,1.00000E+000,8
579,1357,-2.20658E+001,1.48600E+000,2.00056E-002,7.70989E-001,-2.77418E-001,-3.66244E-003,8.19389E-001,4.38431E-003,6.65822E-001,0,1.21586E+001,-4.44762E+000,9.99848E-001,-2.72441E+001,-4.63506E+001,9.99766E-001,4.23107E-002,-1.91938E-002,2.21024E-004,4.23115E-002,-1.91946E-002,2.05896E-001,4.23721E-002,1.04308E+000,1.69572E-002,0.00000E+000,-1.54331E-002,9.81739E-001,0.00000E+000,-1.56310E-003,-4.21810E-002,1.00000E+000,8
579,1337,-2.21169E+001,2.25975E-001,2.90885E-002,7.46102E-001,-2.56813E-001,4.36546E-002,7.90271E-001,4.06840E-003,6.22968E-001,0,1.16469E+001,-4.21756E+000,9.99705E-001,-2.83229E+001,-4.57187E+001,9.99657E-001,4.45649E-002,-1.91967E-002,-1.65610E-004,4.45653E-002,-1.91972E-002,-1.48815E-001,4.47075E-002,1.04543E+000,1.70044E-002,0.00000E+000,-1.62702E-002,9.81722E-001,0.00000E+000,1.28725E-004,-4.21471E-002,1.00000E+000,8
579,1327,-2.21347E+001,-3.89268E-001,7.79648E-002,7.34649E-001,-2.40445E-001,7.14243E-002,7.76289E-001,6.19924E-003,6.83071E-001,0,1.13932E+001,-4.01763E+000,9.99777E-001,-2.86091E+001,-4.52338E+001,9.99006E-001,4.56781E-002,-1.91942E-002,-3.62658E-004,4.56801E-002,-1.91962E-002,-3.20289E-001,4.58735E-002,1.04660E+000,1.70160E-002,0.00000E+000,-1.66849E-002,9.81718E-001,0.00000E+000,9.66686E-004,-4.21388E-002,1.00000E+000,8
579,1317,-2.21462E+001,-1.00247E+000,1.61473E-001,7.24488E-001,-2.25181E-001,1.02425E-001,7.65559E-001,7.84576E-003,6.97700E-001,0,1.11508E+001,-3.84136E+000,9.99660E-001,-2.86923E+001,-4.48138E+001,9.98464E-001,4.67874E-002,-1.91886E-002,-5.63693E-004,4.67922E-002,-1.91934E-002,-4.89482E-001,4.70432E-002,1.04776E+000,1.70184E-002,0.00000E+000,-1.70988E-002,9.81717E-001,0.00000E+000,1.80327E-003,-4.21370E-002,1.00000E+000,8
1279,1317,2.59641E+001,-3.87806E-001,-1.01689E-001,3.18994E+000,1.80889E-002,-5.59593E-002,3.19048E+000,6.16873E-003,4.01256E-001,0,4.78641E+001,-5.01881E-002,9.99704E-001,1.34232E+001,-2.85130E+001,9.98318E-001,5.28248E-002,-2.05107E-002,1.57250E-003,5.28585E-002,-2.05444E-002,1.22781E+000,5.32935E-002,1.05424E+000,-5.10130E-003,0.00000E+000,7.90996E-003,9.80590E-001,0.00000E+000,-2.11972E-003,-4.33668E-002,1.00000E+000,8
1279,1327,2.59893E+001,2.56937E-001,-1.00480E-001,3.18987E+000,5.73384E-003,-8.07753E-002,3.19090E+000,8.39519E-003,4.36828E-001,0,4.79585E+001,-2.02657E-001,9.99771E-001,1.38686E+001,-2.84821E+001,9.98892E-001,5.36239E-002,-2.04907E-002,1.81315E-003,5.36682E-002,-2.05350E-002,1.40057E+000,5.41589E-002,1.05508E+000,-5.06885E-003,0.00000E+000,8.28107E-003,9.80605E-001,0.00000E+000,-5.37661E-004,-4.33059E-002,1.00000E+000,8
1279,1337,2.60216E+001,9.04197E-001,-6.83450E-002,3.18735E+000,-8.45969E-003,-1.09723E-001,3.18925E+000,5.95612E-003,4.41941E-001,0,4.80300E+001,-3.74720E-001,9.99846E-001,1.44671E+001,-2.84988E+001,9.99252E-001,5.44230E-002,-2.04642E-002,2.06027E-003,5.44796E-002,-2.05208E-002,1.57472E+000,5.50293E-002,1.05592E+000,-5.02428E-003,0.00000E+000,8.65373E-003,9.80624E-001,0.00000E+000,1.05102E-003,-4.32221E-002,1.00000E+000,8
1279,1307,2.59488E+001,-1.02236E+000,-7.03738E-002,3.19186E+000,3.34584E-002,-2.79931E-002,3.19216E+000,7.13159E-003,4.43677E-001,0,4.77799E+001,1.45198E-001,9.99729E-001,1.31781E+001,-2.84193E+001,9.97886E-001,5.20296E-002,-2.05252E-002,1.33859E-003,5.20543E-002,-2.05499E-002,1.05659E+000,5.24371E-002,1.05340E+000,-5.12343E-003,0.00000E+000,7.54215E-003,9.80581E-001,0.00000E+000,-3.68771E-003,-4.34084E-002,1.00000E+000,8
1279,1297,2.59456E+001,-1.65479E+000,-1.12928E-003,3.19616E+000,4.84953E-002,1.47804E-003,3.19653E+000,1.14509E-002,3.67761E-001,0,4.77212E+001,3.47059E-001,9.99717E-001,1.31772E+001,-2.84336E+001,9.98550E-001,5.12321E-002,-2.05330E-002,1.11082E-003,5.12493E-002,-2.05501E-002,8.86572E-001,5.15832E-002,1.05257E+000,-5.13304E-003,0.00000E+000,7.17479E-003,9.80576E-001,0.00000E+000,-5.25382E-003,-4.34265E-002,1.00000E+000,8
1279,1287,2.59454E+001,-2.28823E+000,7.83161E-002,3.19903E+000,5.94424E-002,2.51676E-002,3.19968E+000,1.10756E-002,3.41715E-001,0,4.76647E+001,4.86467E-001,9.99725E-001,1.32357E+001,-2.84603E+001,9.97814E-001,5.04343E-002,-2.05377E-002,8.86459E-004,5.04454E-002,-2.05487E-002,7.15491E-001,5.07333E-002,1.05174E+000,-5.13707E-003,0.00000E+000,6.80875E-003,9.80575E-001,0.00000E+000,-6.81429E-003,-4.34341E-002,1.00000E+000,8
569,1347,-2.27590E+001,8.61880E-001,8.81690E-003,7.30897E-001,-2.53872E-001,1.85395E-002,7.73954E-001,4.23838E-003,6.65927E-001,0,1.14772E+001,-4.11974E+000,9.99775E-001,-2.79904E+001,-4.59974E+001,9.99548E-001,4.32174E-002,-1.91455E-002,2.64361E-004,4.32185E-002,-1.91466E-002,2.42875E-001,4.33119E-002,1.04401E+000,1.82624E-002,0.00000E+000,-1.65981E-002,9.81741E-001,0.00000E+000,-6.50050E-004,-4.15312E-002,1.00000E+000,8
569,1357,-2.27320E+001,1.49128E+000,1.58951E-002,7.43452E-001,-2.65130E-001,-2.93995E-003,7.89319E-001,4.24749E-003,6.65662E-001,0,1.17288E+001,-4.25838E+000,9.99817E-001,-2.73919E+001,-4.63619E+001,9.99596E-001,4.20644E-002,-1.91434E-002,4.70514E-004,4.20680E-002,-1.91470E-002,4.40407E-001,4.21244E-002,1.04281E+000,1.82358E-002,0.00000E+000,-1.61485E-002,9.81751E-001,0.00000E+000,-1.62685E-003,-4.15528E-002,1.00000E+000,8
569,1327,-2.28013E+001,-3.85269E-001,7.28377E-002,7.06116E-001,-2.31081E-001,6.96730E-002,7.46225E-001,8.57927E-003,6.73649E-001,0,1.09560E+001,-3.85166E+000,9.99862E-001,-2.87690E+001,-4.52621E+001,9.99435E-001,4.55040E-002,-1.91422E-002,-1.55553E-004,4.55044E-002,-1.91426E-002,-1.37865E-001,4.56948E-002,1.04640E+000,1.82946E-002,0.00000E+000,-1.74926E-002,9.81729E-001,0.00000E+000,1.29348E-003,-4.15050E-002,1.00000E+000,8
569,1337,-2.27816E+001,2.36094E-001,3.56153E-002,7.17832E-001,-2.43031E-001,4.36033E-002,7.59110E-001,3.55787E-003,6.50933E-001,0,1.12076E+001,-3.99769E+000,9.99819E-001,-2.84181E+001,-4.56612E+001,9.99705E-001,4.43643E-002,-1.91444E-002,5.46102E-005,4.43643E-002,-1.91444E-002,4.92678E-002,4.45028E-002,1.04520E+000,1.82799E-002,0.00000E+000,-1.70463E-002,9.81735E-001,0.00000E+000,3.23754E-004,-4.15170E-002,1.00000E+000,8
1289,1327,2.66883E+001,2.64828E-001,-1.10983E-001,3.22302E+000,9.13239E-003,-7.97634E-002,3.22402E+000,7.62896E-003,4.33444E-001,0,4.84131E+001,-1.62255E-001,9.99661E-001,1.47736E+001,-2.82503E+001,9.98531E-001,5.33814E-002,-2.00490E-002,2.08565E-003,5.34406E-002,-2.01082E-002,1.62563E+000,5.39832E-002,1.05483E+000,-4.25710E-003,0.00000E+000,8.04619E-003,9.80970E-001,0.00000E+000,-4.42143E-005,-4.16064E-002,1.00000E+000,8
1289,1337,2.67218E+001,9.13948E-001,-7.93088E-002,3.22169E+000,-3.64550E-003,-1.08491E-001,3.22352E+000,6.99436E-003,4.44919E-001,0,4.85014E+001,-3.11848E-001,9.99823E-001,1.53884E+001,-2.82322E+001,9.98906E-001,5.42437E-002,-2.00194E-002,2.36220E-003,5.43187E-002,-2.00945E-002,1.82004E+000,5.49279E-002,1.05574E+000,-4.20896E-003,0.00000E+000,8.46871E-003,9.80992E-001,0.00000E+000,1.73640E-003,-4.15126E-002,1.00000E+000,8
569,1317,-2.28141E+001,-9.95803E-001,1.61794E-001,6.93051E-001,-2.13487E-001,9.68702E-002,7.31628E-001,8.65169E-003,6.90118E-001,0,1.06776E+001,-3.64968E+000,9.99705E-001,-2.88557E+001,-4.48103E+001,9.98796E-001,4.66380E-002,-1.91348E-002,-3.72189E-004,4.66401E-002,-1.91369E-002,-3.24206E-001,4.68896E-002,1.04758E+000,1.82943E-002,0.00000E+000,-1.79377E-002,9.81729E-001,0.00000E+000,2.26056E-003,-4.15052E-002,1.00000E+000,8
1289,1317,2.66665E+001,-3.75349E-001,-1.01253E-001,3.22425E+000,2.24594E-002,-5.29126E-002,3.22477E+000,1.01024E-002,4.90582E-001,0,4.83259E+001,-5.91987E-003,9.99725E-001,1.43994E+001,-2.81892E+001,9.97644E-001,5.25234E-002,-2.00694E-002,1.81905E-003,5.25689E-002,-2.01150E-002,1.43453E+000,5.30494E-002,1.05392E+000,-4.28886E-003,0.00000E+000,7.62775E-003,9.80955E-001,0.00000E+000,-1.80765E-003,-4.16683E-002,1.00000E+000,8
1289,1287,2.66453E+001,-2.27426E+000,7.08709E-002,3.23207E+000,6.77826E-002,2.37946E-002,3.23287E+000,1.08063E-002,4.28967E-001,0,4.81225E+001,5.83717E-001,9.99736E-001,1.41634E+001,-2.81019E+001,9.97985E-001,4.99377E-002,-2.00998E-002,1.04820E-003,4.99534E-002,-2.01155E-002,8.57252E-001,5.02678E-002,1.05122E+000,-4.32915E-003,0.00000E+000,6.37844E-003,9.80937E-001,0.00000E+000,-7.07263E-003,-4.17469E-002,1.00000E+000,8
1289,1297,2.66503E+001,-1.64560E+000,6.47295E-003,3.23038E+000,5.22669E-002,2.14013E-003,3.23081E+000,1.14116E-002,3.34333E-001,0,4.81893E+001,3.94135E-001,9.99775E-001,1.41995E+001,-2.82399E+001,9.98476E-001,5.07991E-002,-2.00921E-002,1.30192E-003,5.08230E-002,-2.01160E-002,1.05177E+000,5.11895E-002,1.05212E+000,-4.31994E-003,0.00000E+000,6.79270E-003,9.80941E-001,0.00000E+000,-5.32679E-003,-4.17289E-002,1.00000E+000,8
1289,1307,2.66528E+001,-1.01262E+000,-7.11199E-002,3.22654E+000,3.62262E-002,-3.12068E-002,3.22690E+000,9.23448E-003,4.75801E-001,0,4.82725E+001,1.82266E-001,9.99852E-001,1.41786E+001,-2.81651E+001,9.98166E-001,5.16630E-002,-2.00845E-002,1.55730E-003,5.16968E-002,-2.01183E-002,1.24284E+000,5.21185E-002,1.05302E+000,-4.31107E-003,0.00000E+000,7.21012E-003,9.80945E-001,0.00000E+000,-3.56767E-003,-4.17116E-002,1.00000E+000,8
559,1327,-2.34635E+001,-3.74815E-001,6.98163E-002,6.80698E-001,-2.16882E-001,6.44139E-002,7.17312E-001,1.56848E-002,7.89679E-001,0,1.05745E+001,-3.65370E+000,9.99898E-001,-2.88499E+001,-4.51329E+001,9.99286E-001,4.53134E-002,-1.91463E-002,6.70025E-005,4.53135E-002,-1.91463E-002,5.95559E-002,4.54944E-002,1.04617E+000,1.96180E-002,0.00000E+000,-1.83047E-002,9.81673E-001,0.00000E+000,1.45705E-003,-4.05690E-002,1.00000E+000,8
559,1337,-2.34457E+001,2.43813E-001,3.34728E-002,6.90879E-001,-2.30415E-001,4.07201E-002,7.29427E-001,4.07130E-003,6.62309E-001,0,1.07962E+001,-3.78759E+000,9.99892E-001,-2.85245E+001,-4.56301E+001,9.99718E-001,4.41868E-002,-1.91488E-002,2.56995E-004,4.41878E-002,-1.91498E-002,2.32483E-001,4.43184E-002,1.04499E+000,1.96042E-002,0.00000E+000,-1.78986E-002,9.81678E-001,0.00000E+000,4.33330E-004,-4.05810E-002,1.00000E+000,8
559,1347,-2.34248E+001,8.68359E-001,9.88848E-003,7.02228E-001,-2.40738E-001,1.82563E-002,7.42572E-001,4.84386E-003,6.35884E-001,0,1.10317E+001,-3.91167E+000,9.99818E-001,-2.81130E+001,-4.60151E+001,9.99548E-001,4.30542E-002,-1.91502E-002,4.46013E-004,4.30574E-002,-1.91534E-002,4.10789E-001,4.31447E-002,1.04381E+000,1.95869E-002,0.00000E+000,-1.74914E-002,9.81684E-001,0.00000E+000,-5.93481E-004,-4.05960E-002,1.00000E+000,8
559,1357,-2.33974E+001,1.49686E+000,1.35174E-002,7.15916E-001,-2.51826E-001,-2.93012E-003,7.58920E-001,4.00008E-003,6.24325E-001,0,1.13002E+001,-4.04749E+000,9.99808E-001,-2.75181E+001,-4.63932E+001,9.99720E-001,4.19139E-002,-1.91493E-002,6.32354E-004,4.19205E-002,-1.91558E-002,5.93255E-001,4.19722E-002,1.04262E+000,1.95621E-002,0.00000E+000,-1.70822E-002,9.81692E-001,0.00000E+000,-1.62502E-003,-4.06175E-002,1.00000E+000,8
559,1317,-2.34783E+001,-9.86676E-001,1.61919E-001,6.65121E-001,-2.01231E-001,9.20276E-002,7.00962E-001,1.56272E-002,7.26266E-001,0,1.02567E+001,-3.44187E+000,9.99784E-001,-2.89576E+001,-4.47464E+001,9.99104E-001,4.64356E-002,-1.91389E-002,-1.29714E-004,4.64358E-002,-1.91392E-002,-1.13337E-001,4.66741E-002,1.04735E+000,1.96169E-002,0.00000E+000,-1.87100E-002,9.81673E-001,0.00000E+000,2.47906E-003,-4.05699E-002,1.00000E+000,8
1299,1327,2.73936E+001,2.75710E-001,-1.15006E-001,3.25798E+000,1.25851E-002,-8.72386E-002,3.25917E+000,9.03331E-003,4.42716E-001,0,4.89270E+001,-9.76419E-002,9.99738E-001,1.57913E+001,-2.79795E+001,9.99013E-001,5.31597E-002,-1.95535E-002,2.32368E-003,5.32339E-002,-1.96276E-002,1.82850E+000,5.38422E-002,1.05460E+000,-3.32555E-003,0.00000E+000,7.63783E-003,9.81381E-001,0.00000E+000,3.44989E-004,-3.96121E-002,1.00000E+000,8
1299,1337,2.74319E+001,9.26269E-001,-7.34313E-002,3.25996E+000,-4.12604E-004,-1.10615E-001,3.26184E+000,8.80841E-003,4.74268E-001,0,4.90427E+001,-2.61589E-001,9.99716E-001,1.64922E+001,-2.79491E+001,9.98676E-001,5.40859E-002,-1.95212E-002,2.61887E-003,5.41790E-002,-1.96143E-002,2.03510E+000,5.48622E-002,1.05558E+000,-3.27170E-003,0.00000E+000,8.08995E-003,9.81406E-001,0.00000E+000,2.28061E-003,-3.95059E-002,1.00000E+000,8
1299,1287,2.73515E+001,-2.26165E+000,7.73414E-002,3.26648E+000,7.15690E-002,2.05649E-002,3.26733E+000,9.15084E-003,5.02332E-001,0,4.86077E+001,6.36735E-001,9.99733E-001,1.52103E+001,-2.78006E+001,9.97837E-001,4.94659E-002,-1.96048E-002,1.22415E-003,4.94876E-002,-1.96265E-002,1.01504E+000,4.98392E-002,1.05073E+000,-3.40081E-003,0.00000E+000,5.85761E-003,9.81347E-001,0.00000E+000,-7.27652E-003,-3.97604E-002,1.00000E+000,8
1299,1297,2.73553E+001,-1.63552E+000,3.72968E-003,3.26509E+000,5.37682E-002,-4.92548E-003,3.26554E+000,9.16145E-003,4.67831E-001,0,4.86969E+001,3.94271E-001,9.99860E-001,1.52160E+001,-2.79270E+001,9.98314E-001,5.03908E-002,-1.95982E-002,1.49237E-003,5.04226E-002,-1.96300E-002,1.22097E+000,5.08328E-002,1.05169E+000,-3.39301E-003,0.00000E+000,6.30003E-003,9.81350E-001,0.00000E+000,-5.38245E-003,-3.97451E-002,1.00000E+000,8
1299,1307,2.73657E+001,-9.98508E-001,-4.60945E-002,3.26489E+000,4.12235E-002,-2.58907E-002,3.26526E+000,1.58901E-002,5.24397E-001,0,4.87806E+001,2.21550E-001,9.99859E-001,1.53565E+001,-2.78895E+001,9.98582E-001,5.13178E-002,-1.95871E-002,1.76623E-003,5.13618E-002,-1.96311E-002,1.42605E+000,5.18347E-002,1.05266E+000,-3.37725E-003,0.00000E+000,6.74566E-003,9.81357E-001,0.00000E+000,-3.47459E-003,-3.97140E-002,1.00000E+000,8
1299,1317,2.73778E+001,-3.62237E-001,-8.66759E-002,3.26157E+000,2.65593E-002,-5.55033E-002,3.26215E+000,1.21804E-002,5.09094E-001,0,4.88524E+001,5.11508E-002,9.99778E-001,1.55370E+001,-2.79207E+001,9.98551E-001,5.22409E-002,-1.95719E-002,2.04361E-003,5.22990E-002,-1.96300E-002,1.62873E+000,5.28380E-002,1.05363E+000,-3.35429E-003,0.00000E+000,7.19164E-003,9.81368E-001,0.00000E+000,-1.56523E-003,-3.96687E-002,1.00000E+000,8
559,1307,-2.34910E+001,-1.59759E+000,2.66627E-001,6.49986E-001,-1.85785E-001,1.21198E-001,6.86795E-001,6.81952E-003,6.83783E-001,0,9.94154E+000,-3.25328E+000,9.99590E-001,-2.89929E+001,-4.43603E+001,9.98849E-001,4.75546E-002,-1.91306E-002,-3.27741E-004,4.75562E-002,-1.91322E-002,-2.81585E-001,4.78578E-002,1.04852E+000,1.96127E-002,0.00000E+000,-1.91151E-002,9.81675E-001,0.00000E+000,3.50044E-003,-4.05736E-002,1.00000E+000,8
549,1347,-2.40873E+001,8.77444E-001,7.46409E-003,6.76493E-001,-2.27285E-001,1.46293E-002,7.13804E-001,3.87593E-003,6.71735E-001,0,1.06401E+001,-3.68885E+000,9.99827E-001,-2.81909E+001,-4.59520E+001,9.99625E-001,4.29101E-002,-1.91210E-002,6.20080E-004,4.29163E-002,-1.91272E-002,5.72668E-001,4.30006E-002,1.04364E+000,2.08675E-002,0.00000E+000,-1.83580E-002,9.81656E-001,0.00000E+000,-5.64119E-004,-3.95627E-002,1.00000E+000,8
549,1357,-2.40597E+001,1.50806E+000,1.63888E-002,6.89662E-001,-2.37057E-001,-6.54411E-003,7.29296E-001,4.12818E-003,6.50285E-001,0,1.08997E+001,-3.79532E+000,9.99800E-001,-2.75748E+001,-4.63161E+001,9.99711E-001,4.17968E-002,-1.91201E-002,7.98013E-004,4.18073E-002,-1.91306E-002,7.50405E-001,4.18574E-002,1.04248E+000,2.08422E-002,0.00000E+000,-1.79656E-002,9.81665E-001,0.00000E+000,-1.62429E-003,-3.95859E-002,1.00000E+000,8
549,1327,-2.41334E+001,-3.64489E-001,8.71340E-002,6.45523E-001,-2.02173E-001,6.95138E-002,6.80005E-001,1.22104E-002,7.33915E-001,0,1.00130E+001,-3.41444E+000,9.99683E-001,-2.89820E+001,-4.51362E+001,9.98110E-001,4.51156E-002,-1.91154E-002,2.55276E-004,4.51166E-002,-1.91164E-002,2.27708E-001,4.52913E-002,1.04594E+000,2.08944E-002,0.00000E+000,-1.91379E-002,9.81647E-001,0.00000E+000,1.54332E-003,-3.95382E-002,1.00000E+000,8
549,1337,-2.41092E+001,2.51944E-001,3.30455E-002,6.63663E-001,-2.16003E-001,3.70559E-002,6.98912E-001,3.64291E-003,6.66962E-001,0,1.03814E+001,-3.57154E+000,9.99863E-001,-2.86139E+001,-4.55998E+001,9.99754E-001,4.40186E-002,-1.91190E-002,4.38139E-004,4.40217E-002,-1.91221E-002,3.97575E-001,4.41479E-002,1.04479E+000,2.08836E-002,0.00000E+000,-1.87495E-002,9.81651E-001,0.00000E+000,4.93937E-004,-3.95480E-002,1.00000E+000,8
1309,1317,2.80762E+001,-3.57940E-001,-1.09265E-001,3.29340E+000,2.70572E-002,-6.62806E-002,3.29418E+000,8.86350E-003,4.63949E-001,0,4.93354E+001,8.66011E-002,9.99766E-001,1.64252E+001,-2.77413E+001,9.98854E-001,5.20836E-002,-1.91414E-002,2.27326E-003,5.21561E-002,-1.92139E-002,1.82621E+000,5.27549E-002,1.05347E+000,-2.29980E-003,0.00000E+000,6.65769E-003,9.81718E-001,0.00000E+000,-1.44906E-003,-3.76178E-002,1.00000E+000,8
1309,1327,2.80995E+001,2.84626E-001,-1.18828E-001,3.29452E+000,1.57272E-002,-8.89873E-002,3.29575E+000,1.04668E-002,4.25489E-001,0,4.94409E+001,-5.08076E-002,9.99710E-001,1.68212E+001,-2.77531E+001,9.98640E-001,5.30540E-002,-1.91222E-002,2.54165E-003,5.31434E-002,-1.92116E-002,2.01432E+000,5.38186E-002,1.05449E+000,-2.26511E-003,0.00000E+000,7.07807E-003,9.81732E-001,0.00000E+000,5.19988E-004,-3.75511E-002,1.00000E+000,8
1309,1337,2.81362E+001,9.35138E-001,-8.05354E-002,3.29602E+000,3.34887E-003,-1.10774E-001,3.29788E+000,9.90392E-003,4.53446E-001,0,4.95433E+001,-2.10175E-001,9.99781E-001,1.74901E+001,-2.77165E+001,9.99135E-001,5.40291E-002,-1.90931E-002,2.82193E-003,5.41379E-002,-1.92018E-002,2.20678E+000,5.48947E-002,1.05552E+000,-2.21011E-003,0.00000E+000,7.50274E-003,9.81754E-001,0.00000E+000,2.50917E-003,-3.74452E-002,1.00000E+000,8
549,1317,-2.41446E+001,-9.77561E-001,1.69985E-001,6.34752E-001,-1.88372E-001,9.52345E-002,6.68927E-001,9.96483E-003,7.42864E-001,0,9.77642E+000,-3.24153E+000,9.99727E-001,-2.90625E+001,-4.47099E+001,9.98945E-001,4.62084E-002,-1.91087E-002,6.80555E-005,4.62085E-002,-1.91087E-002,5.96978E-002,4.64382E-002,1.04709E+000,2.08953E-002,0.00000E+000,-1.95257E-002,9.81647E-001,0.00000E+000,2.59120E-003,-3.95373E-002,1.00000E+000,8
549,1307,-2.41567E+001,-1.58816E+000,2.61541E-001,6.21133E-001,-1.71970E-001,1.16888E-001,6.55013E-001,7.29240E-003,6.98330E-001,0,9.50440E+000,-3.02115E+000,9.99556E-001,-2.91280E+001,-4.42901E+001,9.98910E-001,4.73005E-002,-1.91008E-002,-1.21046E-004,4.73008E-002,-1.91010E-002,-1.04446E-001,4.75916E-002,1.04823E+000,2.08928E-002,0.00000E+000,-1.99141E-002,9.81648E-001,0.00000E+000,3.64078E-003,-3.95396E-002,1.00000E+000,8
1309,1287,2.80590E+001,-2.25621E+000,8.12150E-002,3.30091E+000,7.11909E-002,1.14173E-002,3.30170E+000,8.82385E-003,4.65752E-001,0,4.91185E+001,6.39066E-001,9.99743E-001,1.62784E+001,-2.76603E+001,9.97410E-001,4.91605E-002,-1.91664E-002,1.50286E-003,4.91936E-002,-1.91994E-002,1.25942E+000,4.95868E-002,1.05042E+000,-2.33855E-003,0.00000E+000,5.40413E-003,9.81702E-001,0.00000E+000,-7.32071E-003,-3.76924E-002,1.00000E+000,8
1309,1297,2.80596E+001,-1.62943E+000,-2.94334E-003,3.29799E+000,5.23446E-002,-1.78875E-002,3.29845E+000,1.04018E-002,4.80834E-001,0,4.92025E+001,4.00945E-001,9.99767E-001,1.62187E+001,-2.77281E+001,9.97969E-001,5.01383E-002,-1.91618E-002,1.75583E-003,5.01828E-002,-1.92062E-002,1.45044E+000,5.06408E-002,1.05143E+000,-2.33303E-003,0.00000E+000,5.82134E-003,9.81704E-001,0.00000E+000,-5.36648E-003,-3.76818E-002,1.00000E+000,8
1309,1307,2.80615E+001,-9.96054E-001,-7.65130E-002,3.29505E+000,4.17065E-002,-4.18597E-002,3.29558E+000,9.59442E-003,4.08855E-001,0,4.92600E+001,2.83990E-001,9.99784E-001,1.61955E+001,-2.77592E+001,9.99145E-001,5.11084E-002,-1.91560E-002,2.00905E-003,5.11658E-002,-1.92134E-002,1.63645E+000,5.16917E-002,1.05244E+000,-2.32536E-003,0.00000E+000,6.23735E-003,9.81707E-001,0.00000E+000,-3.41788E-003,-3.76670E-002,1.00000E+000,8
539,1347,-2.47523E+001,8.87454E-001,1.12144E-002,6.47674E-001,-2.11542E-001,1.60892E-002,6.81535E-001,3.88528E-003,6.57081E-001,0,1.01863E+001,-3.43944E+000,9.99830E-001,-2.82839E+001,-4.59140E+001,9.99638E-001,4.28271E-002,-1.90852E-002,7.17054E-004,4.28354E-002,-1.90935E-002,6.63468E-001,4.29194E-002,1.04353E+000,2.19988E-002,0.00000E+000,-1.92382E-002,9.81636E-001,0.00000E+000,-4.47712E-004,-3.85629E-002,1.00000E+000,8
539,1357,-2.47248E+001,1.51828E+000,1.40875E-002,6.61854E-001,-2.20418E-001,-5.15135E-003,6.97611E-001,4.07964E-003,6.51977E-001,0,1.04616E+001,-3.53383E+000,9.99837E-001,-2.76863E+001,-4.62553E+001,9.99656E-001,4.17911E-002,-1.90853E-002,8.88963E-004,4.18041E-002,-1.90983E-002,8.36439E-001,4.18559E-002,1.04245E+000,2.19771E-002,0.00000E+000,-1.88621E-002,9.81644E-001,0.00000E+000,-1.49841E-003,-3.85841E-002,1.00000E+000,8
539,1327,-2.47956E+001,-3.57631E-001,7.91501E-002,6.19789E-001,-1.87805E-001,6.19903E-002,6.50578E-001,5.31812E-003,6.53987E-001,0,9.63122E+000,-3.16162E+000,9.99558E-001,-2.90702E+001,-4.51496E+001,9.99064E-001,4.48830E-002,-1.90793E-002,3.66324E-004,4.48850E-002,-1.90814E-002,3.28129E-001,4.50525E-002,1.04567E+000,2.20242E-002,0.00000E+000,-1.99873E-002,9.81628E-001,0.00000E+000,1.64448E-003,-3.85381E-002,1.00000E+000,8
539,1337,-2.47746E+001,2.63100E-001,3.59752E-002,6.34257E-001,-1.99390E-001,3.73280E-002,6.65907E-001,4.26577E-003,6.37520E-001,0,9.92138E+000,-3.29777E+000,9.99733E-001,-2.87162E+001,-4.55480E+001,9.99584E-001,4.38587E-002,-1.90829E-002,5.42152E-004,4.38633E-002,-1.90876E-002,4.93473E-001,4.39861E-002,1.04460E+000,2.20135E-002,0.00000E+000,-1.96137E-002,9.81631E-001,0.00000E+000,6.00957E-004,-3.85486E-002,1.00000E+000,8
1319,1297,2.87567E+001,-1.62476E+000,-2.02918E-002,3.32814E+000,5.48678E-002,-2.38263E-002,3.32867E+000,8.43854E-003,3.66285E-001,0,4.96380E+001,4.72091E-001,9.99751E-001,1.70990E+001,-2.75930E+001,9.98564E-001,4.98970E-002,-1.86449E-002,2.04569E-003,4.99580E-002,-1.87059E-002,1.70802E+000,5.04804E-002,1.05118E+000,-1.11599E-003,0.00000E+000,5.25442E-003,9.82125E-001,0.00000E+000,-5.62653E-003,-3.51470E-002,1.00000E+000,8
1319,1307,2.87640E+001,-9.92059E-001,-8.17448E-002,3.32734E+000,4.07521E-002,-4.73230E-002,3.32793E+000,9.04849E-003,3.51442E-001,0,4.97259E+001,2.86315E-001,9.99750E-001,1.71763E+001,-2.76298E+001,9.99212E-001,5.09421E-002,-1.86369E-002,2.30603E-003,5.10184E-002,-1.87133E-002,1.89615E+000,5.16184E-002,1.05227E+000,-1.10223E-003,0.00000E+000,5.67734E-003,9.82131E-001,0.00000E+000,-3.46197E-003,-3.51197E-002,1.00000E+000,8
539,1307,-2.48214E+001,-1.58024E+000,2.59405E-001,5.92317E-001,-1.58059E-001,1.12321E-001,6.23248E-001,5.00646E-003,6.56220E-001,0,9.06768E+000,-2.79041E+000,9.99630E-001,-2.92363E+001,-4.42777E+001,9.99287E-001,4.69153E-002,-1.90644E-002,5.15215E-006,4.69153E-002,-1.90644E-002,4.47405E-003,4.71888E-002,1.04781E+000,2.20220E-002,0.00000E+000,-2.07312E-002,9.81628E-001,0.00000E+000,3.72218E-003,-3.85404E-002,1.00000E+000,8
539,1317,-2.48100E+001,-9.71830E-001,1.60725E-001,6.06145E-001,-1.74443E-001,8.83949E-002,6.36912E-001,5.09428E-003,6.60795E-001,0,9.34838E+000,-3.00554E+000,9.99619E-001,-2.92027E+001,-4.47377E+001,9.99177E-001,4.59014E-002,-1.90727E-002,1.86696E-004,4.59019E-002,-1.90732E-002,1.64632E-001,4.61198E-002,1.04674E+000,2.20256E-002,0.00000E+000,-2.03597E-002,9.81627E-001,0.00000E+000,2.68446E-003,-3.85368E-002,1.00000E+000,8
1319,1287,2.87596E+001,-2.25435E+000,6.66952E-002,3.33217E+000,6.82521E-002,-3.28003E-004,3.33287E+000,9.53871E-003,4.42528E-001,0,4.95954E+001,6.19537E-001,9.99771E-001,1.72162E+001,-2.75307E+001,9.98396E-001,4.88502E-002,-1.86472E-002,1.79198E-003,4.88977E-002,-1.86947E-002,1.51971E+000,4.93470E-002,1.05010E+000,-1.11788E-003,0.00000E+000,4.83315E-003,9.82124E-001,0.00000E+000,-7.78259E-003,-3.51508E-002,1.00000E+000,8
529,1327,-2.54584E+001,-3.47756E-001,8.21696E-002,5.92145E-001,-1.72611E-001,5.99785E-002,6.19700E-001,4.78581E-003,6.42504E-001,0,9.20467E+000,-2.92098E+000,9.99564E-001,-2.91293E+001,-4.51065E+001,9.98897E-001,4.46681E-002,-1.90031E-002,4.72850E-004,4.46716E-002,-1.90066E-002,4.25473E-001,4.48367E-002,1.04543E+000,2.28432E-002,0.00000E+000,-2.05637E-002,9.81665E-001,0.00000E+000,1.97186E-003,-3.78501E-002,1.00000E+000,8
529,1307,-2.54842E+001,-1.57179E+000,2.62217E-001,5.64228E-001,-1.44995E-001,1.06629E-001,5.92239E-001,6.28754E-003,6.43360E-001,0,8.64454E+000,-2.57746E+000,9.99725E-001,-2.92935E+001,-4.42529E+001,9.99432E-001,4.64581E-002,-1.89904E-002,1.78546E-004,4.64585E-002,-1.89909E-002,1.56303E-001,4.67156E-002,1.04731E+000,2.28404E-002,0.00000E+000,-2.11718E-002,9.81666E-001,0.00000E+000,3.88406E-003,-3.78530E-002,1.00000E+000,8
529,1317,-2.54741E+001,-9.63247E-001,1.55950E-001,5.78043E-001,-1.60215E-001,8.43131E-002,6.05732E-001,5.32667E-003,6.42493E-001,0,8.92057E+000,-2.76747E+000,9.99750E-001,-2.93063E+001,-4.46995E+001,9.99221E-001,4.55652E-002,-1.89979E-002,3.27313E-004,4.55668E-002,-1.89995E-002,2.90460E-001,4.57758E-002,1.04637E+000,2.28457E-002,0.00000E+000,-2.08681E-002,9.81664E-001,0.00000E+000,2.92919E-003,-3.78476E-002,1.00000E+000,8
