Coordinates.Image X [Pixel],Coordinates.Image Y [Pixel],coor.X [mm],coor.Y [mm],coor.Z [mm],disp.Horizontal Displacement U [mm],disp.Vertical Displacement V [mm],disp.Out-Of-Plane: W [mm],disp.Displacement Magnitude [mm],stats.Sigma [mm],stats.Epipolar Distance [Pixel],stats.Shape Index [-],SameCamera.Horizontal: u [Pixel],SameCamera.Vertical: v [Pixel],SameCamera.Correlation Value 2D [-],CrossCamera.Horizontal: q [Pixel],CrossCamera.Vertical: r [Pixel],CrossCamera.Correlation Value Persp [-],strain.Strain-global frame: Exx [ ],strain.Strain-global frame: Eyy [ ],strain.Strain-global frame: Exy [ ],strain.Maximum Principal Strain: EI [ ],strain.Minimum Principal Strain: EII [ ],strain.Shear Angle Gamma [deg],strain.Von Mises Equivalent Strain [ ],defgradient.F[0,0] [-],defgradient.F[0,1] [-],defgradient.F[0,2] [-],defgradient.F[1,0] [-],defgradient.F[1,1] [-],defgradient.F[1,2] [-],defgradient.F[2,0] [-],defgradient.F[2,1] [-],defgradient.F[2,2] [-],ext.Current Image [#]
929,1317,1.83268E+000,-9.27457E-001,2.44679E-002,2.16875E+000,-3.11098E-001,1.11189E-001,2.19377E+000,7.60436E-003,4.98812E-001,0,3.29695E+001,-5.35399E+000,9.99663E-001,-1.13122E+001,-4.01853E+001,9.98731E-001,6.08345E-002,-2.53059E-002,4.31439E-004,6.08367E-002,-2.53080E-002,2.86960E-001,6.11222E-002,1.06271E+000,-1.29028E-002,0.00000E+000,1.34656E-002,9.77188E-001,0.00000E+000,-1.22562E-002,-6.81054E-002,1.00000E+000,9
919,1307,1.13378E+000,-1.56529E+000,7.29807E-002,2.13641E+000,-2.99652E-001,1.64498E-001,2.16358E+000,9.75958E-003,5.21884E-001,0,3.23223E+001,-5.28148E+000,9.99518E-001,-1.21046E+001,-4.02212E+001,9.96821E-001,6.23111E-002,-2.50603E-002,1.65198E-004,6.23114E-002,-2.50606E-002,1.08332E-001,6.27076E-002,1.06429E+000,-1.16371E-002,0.00000E+000,1.17143E-002,9.77504E-001,0.00000E+000,-1.12240E-002,-6.89372E-002,1.00000E+000,9
919,1317,1.12725E+000,-9.50027E-001,-2.29961E-002,2.12706E+000,-3.19390E-001,1.19432E-001,2.15422E+000,1.00445E-002,4.94583E-001,0,3.23342E+001,-5.50528E+000,9.99354E-001,-1.23137E+001,-4.05274E+001,9.97009E-001,6.10927E-002,-2.50658E-002,-2.10212E-005,6.10927E-002,-2.50658E-002,-1.39792E-002,6.14196E-002,1.06298E+000,-1.16429E-002,0.00000E+000,1.12839E-002,9.77502E-001,0.00000E+000,-9.96066E-003,-6.89316E-002,1.00000E+000,9
919,1327,1.13612E+000,-3.22799E-001,-5.86524E-002,2.11881E+000,-3.39231E-001,6.86452E-002,2.14689E+000,8.77007E-003,5.31351E-001,0,3.23770E+001,-5.70980E+000,9.99621E-001,-1.21479E+001,-4.07448E+001,9.97769E-001,5.98558E-002,-2.50791E-002,-2.23186E-004,5.98564E-002,-2.50797E-002,-1.50556E-001,6.01176E-002,1.06165E+000,-1.16779E-002,0.00000E+000,1.08481E-002,9.77491E-001,0.00000E+000,-8.68123E-003,-6.88978E-002,1.00000E+000,9
929,1307,1.83523E+000,-1.54525E+000,1.02322E-001,2.17848E+000,-2.90615E-001,1.58022E-001,2.20345E+000,7.37365E-003,5.36690E-001,0,3.29576E+001,-5.13034E+000,9.99732E-001,-1.12060E+001,-3.98756E+001,9.98926E-001,6.20775E-002,-2.53019E-002,5.30299E-004,6.20807E-002,-2.53051E-002,3.47707E-001,6.24329E-002,1.06406E+000,-1.28877E-002,0.00000E+000,1.37345E-002,9.77191E-001,0.00000E+000,-1.38221E-002,-6.81230E-002,1.00000E+000,9
929,1327,1.83635E+000,-3.02384E-001,-2.74624E-002,2.15898E+000,-3.28368E-001,6.14376E-002,2.18467E+000,6.43500E-003,4.71557E-001,0,3.29871E+001,-5.52795E+000,9.99751E-001,-1.12636E+001,-4.04326E+001,9.99156E-001,5.95833E-002,-2.53115E-002,3.26063E-004,5.95845E-002,-2.53128E-002,2.20057E-001,5.98086E-002,1.06137E+000,-1.29310E-002,0.00000E+000,1.31958E-002,9.77182E-001,0.00000E+000,-1.06848E-002,-6.80725E-002,1.00000E+000,9
939,1307,2.53056E+000,-1.52814E+000,9.50875E-002,2.21948E+000,-2.80409E-001,1.40394E-001,2.24152E+000,8.29093E-003,5.34704E-001,0,3.36148E+001,-4.93667E+000,9.99758E-001,-1.04799E+001,-3.95066E+001,9.98872E-001,6.18114E-002,-2.50574E-002,8.61670E-004,6.18199E-002,-2.50659E-002,5.68254E-001,6.21871E-002,1.06379E+000,-1.42052E-002,0.00000E+000,1.57159E-002,9.77333E-001,0.00000E+000,-1.59011E-002,-6.70447E-002,1.00000E+000,9
939,1317,2.52820E+000,-9.10399E-001,2.38130E-002,2.20913E+000,-3.00886E-001,9.67179E-002,2.23163E+000,8.28697E-003,4.62314E-001,0,3.36075E+001,-5.16174E+000,9.99684E-001,-1.05683E+001,-3.98467E+001,9.98414E-001,6.06582E-002,-2.50615E-002,7.69822E-004,6.06651E-002,-2.50684E-002,5.14501E-001,6.09689E-002,1.06253E+000,-1.42209E-002,0.00000E+000,1.54461E-002,9.77330E-001,0.00000E+000,-1.40765E-002,-6.70218E-002,1.00000E+000,9
939,1327,2.53332E+000,-2.80488E-001,-2.03407E-002,2.19916E+000,-3.16588E-001,4.79461E-002,2.22235E+000,5.62127E-003,4.96538E-001,0,3.36188E+001,-5.31264E+000,9.99731E-001,-1.04803E+001,-4.00036E+001,9.99018E-001,5.94907E-002,-2.50673E-002,6.70663E-004,5.94960E-002,-2.50726E-002,4.54398E-001,5.97405E-002,1.06127E+000,-1.42507E-002,0.00000E+000,1.51740E-002,9.77324E-001,0.00000E+000,-1.22366E-002,-6.69786E-002,1.00000E+000,9
919,1337,1.15211E+000,3.11300E-001,-6.55411E-002,2.11275E+000,-3.53724E-001,2.35541E-002,2.14229E+000,6.47915E-003,5.00907E-001,0,3.24309E+001,-5.84099E+000,9.99590E-001,-1.18060E+001,-4.09533E+001,9.98835E-001,5.86154E-002,-2.50951E-002,-4.30200E-004,5.86176E-002,-2.50974E-002,-2.94440E-001,5.88190E-002,1.06033E+000,-1.17229E-002,0.00000E+000,1.04121E-002,9.77476E-001,0.00000E+000,-7.40150E-003,-6.88544E-002,1.00000E+000,9
929,1337,1.84806E+000,3.29313E-001,-4.97073E-002,2.15108E+000,-3.44621E-001,1.30858E-002,2.17855E+000,5.95638E-003,4.70718E-001,0,3.30261E+001,-5.68090E+000,9.99820E-001,-1.10239E+001,-4.06295E+001,9.99404E-001,5.83205E-002,-2.53188E-002,2.13958E-004,5.83211E-002,-2.53194E-002,1.46567E-001,5.84895E-002,1.06001E+000,-1.29722E-002,0.00000E+000,1.29244E-002,9.77174E-001,0.00000E+000,-9.10399E-003,-6.80244E-002,1.00000E+000,9
939,1337,2.54362E+000,3.49565E-001,-4.40043E-002,2.19070E+000,-3.33466E-001,2.75645E-003,2.21594E+000,5.06667E-003,4.83281E-001,0,3.36402E+001,-5.48536E+000,9.99820E-001,-1.02669E+001,-4.02277E+001,9.99408E-001,5.83180E-002,-2.50740E-002,5.67941E-004,5.83219E-002,-2.50778E-002,3.90189E-001,5.85121E-002,1.06000E+000,-1.42876E-002,0.00000E+000,1.49017E-002,9.77316E-001,0.00000E+000,-1.03958E-002,-6.69248E-002,1.00000E+000,9
949,1317,3.22730E+000,-8.87623E-001,2.70477E-002,2.25128E+000,-2.87675E-001,8.03167E-002,2.27101E+000,9.90835E-003,4.97654E-001,0,3.42771E+001,-4.92623E+000,9.99491E-001,-9.75640E+000,-3.93919E+001,9.98301E-001,6.04809E-002,-2.48215E-002,1.03282E-003,6.04934E-002,-2.48340E-002,6.93586E-001,6.08155E-002,1.06235E+000,-1.54270E-002,0.00000E+000,1.71345E-002,9.77442E-001,0.00000E+000,-1.53723E-002,-6.55070E-002,1.00000E+000,9
949,1327,3.23004E+000,-2.60634E-001,-2.12216E-002,2.24001E+000,-3.04392E-001,3.27400E-002,2.26084E+000,8.67156E-003,4.95060E-001,0,3.42664E+001,-5.09833E+000,9.99583E-001,-9.71484E+000,-3.96022E+001,9.98902E-001,5.94643E-002,-2.48258E-002,9.56148E-004,5.94751E-002,-2.48366E-002,6.49826E-001,5.97437E-002,1.06124E+000,-1.54514E-002,0.00000E+000,1.68899E-002,9.77436E-001,0.00000E+000,-1.33269E-002,-6.54622E-002,1.00000E+000,9
949,1337,3.23856E+000,3.69030E-001,-4.31667E-002,2.23028E+000,-3.21712E-001,-7.76702E-003,2.25337E+000,7.29642E-003,4.87760E-001,0,3.42537E+001,-5.28743E+000,9.99599E-001,-9.52633E+000,-3.98317E+001,9.98935E-001,5.84391E-002,-2.48309E-002,8.75660E-004,5.84483E-002,-2.48401E-002,6.02429E-001,5.86671E-002,1.06012E+000,-1.54831E-002,0.00000E+000,1.66445E-002,9.77429E-001,0.00000E+000,-1.12747E-002,-6.54036E-002,1.00000E+000,9
949,1307,3.23103E+000,-1.50855E+000,1.00094E-001,2.26271E+000,-2.69586E-001,1.23986E-001,2.28208E+000,8.00924E-003,5.37956E-001,0,3.43007E+001,-4.73465E+000,9.99631E-001,-9.64311E+000,-3.91223E+001,9.98800E-001,6.14879E-002,-2.48183E-002,1.10400E-003,6.15020E-002,-2.48325E-002,7.32746E-001,6.18805E-002,1.06345E+000,-1.54137E-002,0.00000E+000,1.73780E-002,9.77445E-001,0.00000E+000,-1.74085E-002,-6.55316E-002,1.00000E+000,9
909,1317,4.37052E-001,-9.65065E-001,-2.44919E-002,2.08857E+000,-3.26622E-001,1.20244E-001,2.11738E+000,9.73817E-003,4.57782E-001,0,3.17677E+001,-5.62604E+000,9.99145E-001,-1.29727E+001,-4.08663E+001,9.96792E-001,6.13937E-002,-2.51919E-002,-4.87943E-004,6.13965E-002,-2.51947E-002,-3.22870E-001,6.17245E-002,1.06329E+000,-1.02802E-002,0.00000E+000,8.95114E-003,9.77423E-001,0.00000E+000,-7.40015E-003,-6.92704E-002,1.00000E+000,9
909,1327,4.48213E-001,-3.34715E-001,-6.07615E-002,2.08310E+000,-3.43886E-001,7.06130E-002,2.11248E+000,7.26343E-003,5.01796E-001,0,3.18475E+001,-5.78097E+000,9.99404E-001,-1.27717E+001,-4.10319E+001,9.98285E-001,6.01967E-002,-2.52040E-002,-6.82973E-004,6.02022E-002,-2.52095E-002,-4.58171E-001,6.04666E-002,1.06201E+000,-1.03128E-002,0.00000E+000,8.55300E-003,9.77413E-001,0.00000E+000,-6.53713E-003,-6.92484E-002,1.00000E+000,9
909,1337,4.63638E-001,3.02886E-001,-6.67033E-002,2.07637E+000,-3.57785E-001,2.54921E-002,2.10713E+000,7.67382E-003,5.56561E-001,0,3.18899E+001,-5.89887E+000,9.99565E-001,-1.24349E+001,-4.11476E+001,9.98867E-001,5.89931E-002,-2.52190E-002,-8.83786E-004,5.90024E-002,-2.52282E-002,-6.01218E-001,5.92083E-002,1.06073E+000,-1.03561E-002,0.00000E+000,8.15338E-003,9.77399E-001,0.00000E+000,-5.67088E-003,-6.92192E-002,1.00000E+000,9
909,1307,4.42202E-001,-1.57981E+000,7.76089E-002,2.09550E+000,-3.06560E-001,1.66739E-001,2.12436E+000,9.98565E-003,4.44562E-001,0,3.17148E+001,-5.39051E+000,9.99215E-001,-1.27702E+001,-4.05839E+001,9.95925E-001,6.25723E-002,-2.51878E-002,-3.08877E-004,6.25734E-002,-2.51888E-002,-2.01653E-001,6.29684E-002,1.06455E+000,-1.02766E-002,0.00000E+000,9.34381E-003,9.77424E-001,0.00000E+000,-8.25133E-003,-6.92729E-002,1.00000E+000,9
919,1347,1.17329E+000,9.52835E-001,-5.97619E-002,2.10864E+000,-3.64736E-001,-2.37783E-002,2.14008E+000,9.85304E-003,5.20309E-001,0,3.25196E+001,-5.91436E+000,9.99794E-001,-1.13547E+001,-4.10525E+001,9.99308E-001,5.73659E-002,-2.51129E-002,-6.41354E-004,5.73709E-002,-2.51179E-002,-4.45495E-001,5.75186E-002,1.05899E+000,-1.17746E-002,0.00000E+000,9.97412E-003,9.77459E-001,0.00000E+000,-6.11569E-003,-6.88045E-002,1.00000E+000,9
929,1347,1.86615E+000,9.67150E-001,-4.48091E-002,2.14439E+000,-3.58337E-001,-3.19452E-002,2.17436E+000,5.69881E-003,4.69798E-001,0,3.30698E+001,-5.80319E+000,9.99815E-001,-1.06244E+001,-4.07930E+001,9.99408E-001,5.70496E-002,-2.53275E-002,9.62990E-005,5.70497E-002,-2.53276E-002,6.69788E-002,5.71691E-002,1.05865E+000,-1.30243E-002,0.00000E+000,1.26521E-002,9.77164E-001,0.00000E+000,-7.51795E-003,-6.79637E-002,1.00000E+000,9
939,1347,2.56148E+000,9.88174E-001,-3.75154E-002,2.18409E+000,-3.46512E-001,-3.83741E-002,2.21174E+000,8.76395E-003,4.89423E-001,0,3.36727E+001,-5.60666E+000,9.99791E-001,-9.86910E+000,-4.03779E+001,9.98835E-001,5.71349E-002,-2.50820E-002,4.59345E-004,5.71375E-002,-2.50846E-002,3.20097E-001,5.72789E-002,1.05873E+000,-1.43358E-002,0.00000E+000,1.46282E-002,9.77305E-001,0.00000E+000,-8.54618E-003,-6.68546E-002,1.00000E+000,9
949,1347,3.25964E+000,1.00857E+000,-2.11852E-002,2.22483E+000,-3.36204E-001,-4.17273E-002,2.25048E+000,7.88511E-003,5.02083E-001,0,3.42805E+001,-5.43748E+000,9.99381E-001,-9.04683E+000,-3.99957E+001,9.98475E-001,5.74012E-002,-2.48375E-002,7.87781E-004,5.74088E-002,-2.48451E-002,5.48781E-001,5.75815E-002,1.05900E+000,-1.55293E-002,0.00000E+000,1.63973E-002,9.77419E-001,0.00000E+000,-9.20736E-003,-6.53185E-002,1.00000E+000,9
959,1317,3.92159E+000,-8.69427E-001,1.78758E-002,2.29008E+000,-2.76548E-001,6.01466E-002,2.30750E+000,8.53319E-003,5.09227E-001,0,3.49094E+001,-4.72235E+000,9.99561E-001,-9.04220E+000,-3.89939E+001,9.98945E-001,6.03710E-002,-2.45731E-002,1.12076E-003,6.03858E-002,-2.45878E-002,7.55788E-001,6.07316E-002,1.06222E+000,-1.66868E-002,0.00000E+000,1.84814E-002,9.77563E-001,0.00000E+000,-1.59544E-002,-6.39392E-002,1.00000E+000,9
959,1327,3.92298E+000,-2.43298E-001,-3.60016E-002,2.27912E+000,-2.93367E-001,1.50361E-002,2.29798E+000,1.26719E-002,5.23207E-001,0,3.48969E+001,-4.90720E+000,9.99815E-001,-9.03439E+000,-3.91953E+001,9.99118E-001,5.94544E-002,-2.45752E-002,1.07472E-003,5.94682E-002,-2.45889E-002,7.32642E-001,5.97642E-002,1.06121E+000,-1.67062E-002,0.00000E+000,1.82926E-002,9.77559E-001,0.00000E+000,-1.38716E-002,-6.38989E-002,1.00000E+000,9
959,1337,3.93572E+000,3.88687E-001,-4.54011E-002,2.27123E+000,-3.10895E-001,-2.28472E-002,2.29252E+000,1.05548E-002,4.93070E-001,0,3.49036E+001,-5.08081E+000,9.99548E-001,-8.75436E+000,-3.94253E+001,9.98741E-001,5.85267E-002,-2.45781E-002,1.02222E-003,5.85393E-002,-2.45907E-002,7.04620E-001,5.87880E-002,1.06020E+000,-1.67388E-002,0.00000E+000,1.81025E-002,9.77553E-001,0.00000E+000,-1.17749E-002,-6.38313E-002,1.00000E+000,9
959,1307,3.92435E+000,-1.49034E+000,8.98078E-002,2.30140E+000,-2.56818E-001,1.06238E-001,2.31812E+000,6.72497E-003,5.11261E-001,0,3.49219E+001,-4.50538E+000,9.99595E-001,-8.94626E+000,-3.87427E+001,9.99043E-001,6.12806E-002,-2.45713E-002,1.16383E-003,6.12964E-002,-2.45871E-002,7.76526E-001,6.16947E-002,1.06322E+000,-1.66733E-002,0.00000E+000,1.86699E-002,9.77566E-001,0.00000E+000,-1.80331E-002,-6.39672E-002,1.00000E+000,9
959,1347,3.95368E+000,1.02528E+000,-3.31416E-002,2.26457E+000,-3.26090E-001,-5.71612E-002,2.28864E+000,7.02882E-003,4.94129E-001,0,3.49145E+001,-5.25124E+000,9.99550E-001,-8.34655E+000,-3.96187E+001,9.99078E-001,5.75921E-002,-2.45814E-002,9.66475E-004,5.76034E-002,-2.45928E-002,6.73754E-001,5.78081E-002,1.05919E+000,-1.67778E-002,0.00000E+000,1.79120E-002,9.77546E-001,0.00000E+000,-9.67436E-003,-6.37506E-002,1.00000E+000,9
909,1347,4.86243E-001,9.42418E-001,-4.87476E-002,2.07178E+000,-3.70305E-001,-1.96598E-002,2.10471E+000,9.33488E-003,5.25022E-001,0,3.19630E+001,-6.00166E+000,9.99743E-001,-1.19323E+001,-4.13314E+001,9.98741E-001,5.77888E-002,-2.52366E-002,-1.08907E-003,5.78030E-002,-2.52508E-002,-7.51395E-001,5.79565E-002,1.05945E+000,-1.04091E-002,0.00000E+000,7.75425E-003,9.77383E-001,0.00000E+000,-4.80572E-003,-6.91834E-002,1.00000E+000,9
899,1327,-2.35385E-001,-3.37155E-001,-2.53309E-002,2.04318E+000,-3.46271E-001,7.23695E-002,2.07357E+000,4.51016E-003,5.14364E-001,0,3.12497E+001,-5.80979E+000,9.99522E-001,-1.32379E+001,-4.12325E+001,9.99407E-001,6.05128E-002,-2.52895E-002,-1.12825E-003,6.05276E-002,-2.53043E-002,-7.53231E-001,6.07980E-002,1.06235E+000,-9.03039E-003,0.00000E+000,6.36402E-003,9.77381E-001,0.00000E+000,-4.40478E-003,-6.97863E-002,1.00000E+000,9
899,1337,-2.20747E-001,2.95683E-001,-5.27323E-002,2.03954E+000,-3.60538E-001,2.29827E-002,2.07129E+000,7.20579E-003,5.29631E-001,0,3.13541E+001,-5.93104E+000,9.99794E-001,-1.29615E+001,-4.13971E+001,9.99616E-001,5.93926E-002,-2.52991E-002,-1.28474E-003,5.94121E-002,-2.53186E-002,-8.68886E-001,5.96277E-002,1.06116E+000,-9.06355E-003,0.00000E+000,6.06990E-003,9.77373E-001,0.00000E+000,-3.98899E-003,-6.97747E-002,1.00000E+000,9
899,1347,-1.95847E-001,9.34847E-001,-3.45834E-002,2.03742E+000,-3.73601E-001,-2.21209E-002,2.07151E+000,6.33111E-003,5.12910E-001,0,3.14641E+001,-6.04438E+000,9.99794E-001,-1.24213E+001,-4.15812E+001,9.99395E-001,5.82660E-002,-2.53123E-002,-1.44929E-003,5.82911E-002,-2.53375E-002,-9.93141E-001,5.84568E-002,1.05996E+000,-9.11245E-003,0.00000E+000,5.77448E-003,9.77361E-001,0.00000E+000,-3.57136E-003,-6.97577E-002,1.00000E+000,9
899,1317,-2.42341E-001,-9.62206E-001,2.97717E-002,2.04888E+000,-3.28027E-001,1.23025E-001,2.07862E+000,6.49859E-003,5.08572E-001,0,3.11696E+001,-5.63632E+000,9.99432E-001,-1.33310E+001,-4.10035E+001,9.98702E-001,6.16275E-002,-2.52821E-002,-9.77054E-004,6.16385E-002,-2.52931E-002,-6.44021E-001,6.19679E-002,1.06354E+000,-9.00732E-003,0.00000E+000,6.65706E-003,9.77387E-001,0.00000E+000,-4.81904E-003,-6.97944E-002,1.00000E+000,9
899,1307,-2.43718E-001,-1.58054E+000,1.09496E-001,2.05451E+000,-3.07427E-001,1.71714E-001,2.08447E+000,7.24347E-003,4.64642E-001,0,3.10921E+001,-5.39443E+000,9.99392E-001,-1.32802E+001,-4.07423E+001,9.97800E-001,6.27358E-002,-2.52771E-002,-8.31290E-004,6.27437E-002,-2.52850E-002,-5.41099E-001,6.31361E-002,1.06472E+000,-8.99443E-003,0.00000E+000,6.94877E-003,9.77390E-001,0.00000E+000,-5.23143E-003,-6.97989E-002,1.00000E+000,9
889,1327,-9.23097E-001,-3.44064E-001,-1.37538E-002,2.00349E+000,-3.49483E-001,7.23803E-002,2.03503E+000,3.98936E-003,5.21834E-001,0,3.06624E+001,-5.85252E+000,9.99610E-001,-1.38179E+001,-4.14538E+001,9.99592E-001,6.08826E-002,-2.48184E-002,-1.57972E-003,6.09117E-002,-2.48475E-002,-1.05565E+000,6.12550E-002,1.06275E+000,-7.83713E-003,0.00000E+000,4.23961E-003,9.77910E-001,0.00000E+000,-2.17910E-003,-7.06179E-002,1.00000E+000,9
889,1337,-9.11647E-001,2.88400E-001,-4.04032E-002,1.99794E+000,-3.62498E-001,2.89834E-002,2.03077E+000,6.72429E-003,5.31955E-001,0,3.07167E+001,-5.97479E+000,9.99773E-001,-1.35880E+001,-4.16306E+001,9.99537E-001,5.97751E-002,-2.48200E-002,-1.62148E-003,5.98062E-002,-2.48510E-002,-1.09768E+000,6.00900E-002,1.06157E+000,-7.86753E-003,0.00000E+000,4.21973E-003,9.77910E-001,0.00000E+000,-2.55386E-003,-7.06276E-002,1.00000E+000,9
889,1347,-8.86627E-001,9.25592E-001,-2.70021E-002,1.99672E+000,-3.76800E-001,-1.82153E-002,2.03204E+000,5.66943E-003,4.95954E-001,0,3.08471E+001,-6.09498E+000,9.99717E-001,-1.30552E+001,-4.18463E+001,9.99401E-001,5.86599E-002,-2.48222E-002,-1.67112E-003,5.86934E-002,-2.48556E-002,-1.14632E+000,5.89220E-002,1.06039E+000,-7.91425E-003,0.00000E+000,4.19972E-003,9.77909E-001,0.00000E+000,-2.93080E-003,-7.06425E-002,1.00000E+000,9
969,1297,4.63467E+000,-2.08745E+000,1.79281E-001,2.35705E+000,-2.24142E-001,1.25557E-001,2.37101E+000,1.08717E-002,4.81947E-001,0,3.56681E+001,-4.02857E+000,9.99708E-001,-7.86865E+000,-3.80868E+001,9.98527E-001,6.18226E-002,-2.44770E-002,1.16741E-003,6.18384E-002,-2.44928E-002,7.74873E-001,6.22820E-002,1.06382E+000,-1.77678E-002,0.00000E+000,1.97824E-002,9.77536E-001,0.00000E+000,-2.02894E-002,-6.22801E-002,1.00000E+000,9
969,1307,4.62069E+000,-1.47223E+000,8.62061E-002,2.34107E+000,-2.46361E-001,8.82272E-002,2.35565E+000,1.66641E-002,5.03224E-001,0,3.55590E+001,-4.30229E+000,9.99572E-001,-8.18422E+000,-3.83693E+001,9.98004E-001,6.10348E-002,-2.44772E-002,1.15398E-003,6.10503E-002,-2.44928E-002,7.73016E-001,6.14464E-002,1.06294E+000,-1.77705E-002,0.00000E+000,1.96418E-002,9.77535E-001,0.00000E+000,-1.81677E-002,-6.22736E-002,1.00000E+000,9
969,1317,4.61943E+000,-8.51092E-001,2.29368E-002,2.33018E+000,-2.66083E-001,4.63402E-002,2.34578E+000,6.84709E-003,4.94364E-001,0,3.55394E+001,-4.53510E+000,9.99827E-001,-8.23860E+000,-3.86371E+001,9.99200E-001,6.02403E-002,-2.44776E-002,1.13562E-003,6.02555E-002,-2.44928E-002,7.67848E-001,6.06058E-002,1.06206E+000,-1.77838E-002,0.00000E+000,1.95010E-002,9.77533E-001,0.00000E+000,-1.60416E-002,-6.22415E-002,1.00000E+000,9
889,1317,-9.31110E-001,-9.67960E-001,4.23412E-002,2.00757E+000,-3.30711E-001,1.21877E-001,2.03828E+000,5.70849E-003,5.35663E-001,0,3.05619E+001,-5.67640E+000,9.99656E-001,-1.39253E+001,-4.11974E+001,9.99335E-001,6.19860E-002,-2.48172E-002,-1.54213E-003,6.20134E-002,-2.48446E-002,-1.01748E+000,6.24203E-002,1.06392E+000,-7.81539E-003,0.00000E+000,4.25945E-003,9.77911E-001,0.00000E+000,-1.80527E-003,-7.06110E-002,1.00000E+000,9
969,1327,4.62183E+000,-2.22251E-001,-2.31271E-002,2.31954E+000,-2.80701E-001,6.37328E-003,2.33647E+000,6.88632E-003,5.17557E-001,0,3.55139E+001,-4.70373E+000,9.99834E-001,-8.19862E+000,-3.88073E+001,9.99423E-001,5.94386E-002,-2.44780E-002,1.11489E-003,5.94535E-002,-2.44928E-002,7.61032E-001,5.97598E-002,1.06118E+000,-1.78019E-002,0.00000E+000,1.93597E-002,9.77530E-001,0.00000E+000,-1.39101E-002,-6.21978E-002,1.00000E+000,9
889,1307,-9.34926E-001,-1.58747E+000,1.21524E-001,2.01005E+000,-3.12086E-001,1.67026E-001,2.04098E+000,8.18661E-003,4.97228E-001,0,3.04493E+001,-5.45735E+000,9.99464E-001,-1.39133E+001,-4.09488E+001,9.98279E-001,6.30828E-002,-2.48165E-002,-1.50950E-003,6.31087E-002,-2.48424E-002,-9.83557E-001,6.35828E-002,1.06509E+000,-7.80388E-003,0.00000E+000,4.27919E-003,9.77911E-001,0.00000E+000,-1.43324E-003,-7.06074E-002,1.00000E+000,9
969,1337,4.63193E+000,4.05706E-001,-4.37690E-002,2.31106E+000,-2.99306E-001,-3.30611E-002,2.33060E+000,7.64020E-003,4.51724E-001,0,3.55190E+001,-4.90054E+000,9.99705E-001,-7.98504E+000,-3.90917E+001,9.99264E-001,5.86299E-002,-2.44785E-002,1.09040E-003,5.86442E-002,-2.44928E-002,7.51557E-001,5.89088E-002,1.06029E+000,-1.78277E-002,0.00000E+000,1.92182E-002,9.77526E-001,0.00000E+000,-1.17733E-002,-6.21355E-002,1.00000E+000,9
969,1347,4.64565E+000,1.04695E+000,-4.24878E-002,2.30142E+000,-3.10754E-001,-7.17050E-002,2.32341E+000,6.98588E-003,4.71483E-001,0,3.54993E+001,-4.98685E+000,9.99620E-001,-7.66723E+000,-3.91787E+001,9.99046E-001,5.78100E-002,-2.44791E-002,1.06249E-003,5.78237E-002,-2.44928E-002,7.39617E-001,5.80484E-002,1.05940E+000,-1.78602E-002,0.00000E+000,1.90756E-002,9.77521E-001,0.00000E+000,-9.62044E-003,-6.20571E-002,1.00000E+000,9
879,1327,-1.60909E+000,-3.48627E-001,5.01829E-005,1.96499E+000,-3.50160E-001,7.39345E-002,1.99732E+000,5.28871E-003,5.30455E-001,0,3.00865E+001,-5.86477E+000,9.99725E-001,-1.43613E+001,-4.16429E+001,9.99581E-001,6.12922E-002,-2.49369E-002,-1.85352E-003,6.13320E-002,-2.49767E-002,-1.23083E+000,6.16829E-002,1.06319E+000,-6.80142E-003,0.00000E+000,2.63917E-003,9.77781E-001,0.00000E+000,-5.14807E-004,-7.03265E-002,1.00000E+000,9
879,1337,-1.59781E+000,2.80759E-001,-3.56414E-002,1.95994E+000,-3.65364E-001,2.39419E-002,1.99384E+000,5.20612E-003,5.08529E-001,0,3.01698E+001,-5.99522E+000,9.99596E-001,-1.41545E+001,-4.18655E+001,9.99477E-001,6.02415E-002,-2.49369E-002,-1.86942E-003,6.02826E-002,-2.49779E-002,-1.25667E+000,6.05767E-002,1.06207E+000,-6.82915E-003,0.00000E+000,2.69269E-003,9.77782E-001,0.00000E+000,-1.28208E-003,-7.03455E-002,1.00000E+000,9
879,1347,-1.57545E+000,9.19626E-001,-2.39647E-002,1.95756E+000,-3.78249E-001,-1.86607E-002,1.99385E+000,6.67919E-003,5.23601E-001,0,3.02666E+001,-6.10733E+000,9.99590E-001,-1.36649E+001,-4.20281E+001,9.99330E-001,5.91809E-002,-2.49370E-002,-1.89201E-003,5.92235E-002,-2.49795E-002,-1.28785E+000,5.94645E-002,1.06095E+000,-6.87096E-003,0.00000E+000,2.74664E-003,9.77784E-001,0.00000E+000,-2.05542E-003,-7.03743E-002,1.00000E+000,9
879,1307,-1.62443E+000,-1.58933E+000,1.40475E-001,1.96634E+000,-3.11819E-001,1.66503E-001,1.99786E+000,8.05376E-003,5.04531E-001,0,2.98014E+001,-5.44421E+000,9.99456E-001,-1.44984E+001,-4.11042E+001,9.98571E-001,6.33785E-002,-2.49368E-002,-1.83439E-003,6.34166E-002,-2.49749E-002,-1.18940E+000,6.38914E-002,1.06541E+000,-6.77268E-003,0.00000E+000,2.53264E-003,9.77779E-001,0.00000E+000,1.01236E-003,-7.03067E-002,1.00000E+000,9
879,1317,-1.61811E+000,-9.72311E-001,6.01619E-002,1.96777E+000,-3.30818E-001,1.26509E-001,1.99939E+000,5.59112E-003,4.70690E-001,0,2.99570E+001,-5.66025E+000,9.99754E-001,-1.44747E+001,-4.14268E+001,9.99266E-001,6.23405E-002,-2.49369E-002,-1.84122E-003,6.23793E-002,-2.49757E-002,-1.20801E+000,6.27906E-002,1.06431E+000,-6.78126E-003,0.00000E+000,2.58569E-003,9.77780E-001,0.00000E+000,2.51943E-004,-7.03126E-002,1.00000E+000,9
979,1307,5.32874E+000,-1.45278E+000,9.81291E-002,2.38877E+000,-2.36607E-001,7.15884E-002,2.40153E+000,1.00588E-002,4.96259E-001,0,3.63126E+001,-4.11428E+000,9.99899E-001,-7.20435E+000,-3.80062E+001,9.99513E-001,6.08146E-002,-2.43644E-002,1.10624E-003,6.08290E-002,-2.43787E-002,7.43947E-001,6.12269E-002,1.06268E+000,-1.86971E-002,0.00000E+000,2.03237E-002,9.77507E-001,0.00000E+000,-1.73942E-002,-6.02013E-002,1.00000E+000,9
979,1317,5.32214E+000,-8.29220E-001,3.01273E-002,2.37406E+000,-2.53514E-001,3.21625E-002,2.38778E+000,4.96562E-003,4.94372E-001,0,3.62268E+001,-4.30610E+000,9.99811E-001,-7.35111E+000,-3.82223E+001,9.99471E-001,6.01839E-002,-2.43632E-002,1.11486E-003,6.01986E-002,-2.43779E-002,7.55343E-001,6.05601E-002,1.06198E+000,-1.87061E-002,0.00000E+000,2.02424E-002,9.77506E-001,0.00000E+000,-1.54126E-002,-6.01761E-002,1.00000E+000,9
979,1327,5.32135E+000,-2.02663E-001,-1.72195E-002,2.36104E+000,-2.69639E-001,-5.09670E-003,2.37639E+000,5.42541E-003,4.92313E-001,0,3.61575E+001,-4.49815E+000,9.99643E-001,-7.36384E+000,-3.84366E+001,9.99082E-001,5.95479E-002,-2.43618E-002,1.12129E-003,5.95629E-002,-2.43768E-002,7.65462E-001,5.98889E-002,1.06127E+000,-1.87196E-002,0.00000E+000,2.01609E-002,9.77504E-001,0.00000E+000,-1.34276E-002,-6.01379E-002,1.00000E+000,9
979,1337,5.32739E+000,4.28520E-001,-4.55237E-002,2.35068E+000,-2.84182E-001,-4.18439E-002,2.36816E+000,7.97923E-003,4.67627E-001,0,3.61247E+001,-4.65192E+000,9.99325E-001,-7.23003E+000,-3.86329E+001,9.98645E-001,5.89057E-002,-2.43602E-002,1.12547E-003,5.89209E-002,-2.43754E-002,7.74255E-001,5.92128E-002,1.06057E+000,-1.87378E-002,0.00000E+000,2.00792E-002,9.77502E-001,0.00000E+000,-1.14368E-002,-6.00867E-002,1.00000E+000,9
979,1347,5.34058E+000,1.06853E+000,-4.01198E-002,2.33897E+000,-2.96615E-001,-8.24667E-002,2.35915E+000,8.59971E-003,4.62886E-001,0,3.60811E+001,-4.75820E+000,9.98912E-001,-6.91366E+000,-3.87588E+001,9.98234E-001,5.82548E-002,-2.43581E-002,1.12521E-003,5.82702E-002,-2.43734E-002,7.80191E-001,5.85290E-002,1.05986E+000,-1.87654E-002,0.00000E+000,1.99969E-002,9.77499E-001,0.00000E+000,-9.43242E-003,-6.00088E-002,1.00000E+000,9
979,1297,5.33227E+000,-2.06768E+000,1.75388E-001,2.39882E+000,-2.11586E-001,1.13092E-001,2.41079E+000,9.03672E-003,4.99800E-001,0,3.63164E+001,-3.80883E+000,9.99773E-001,-7.08421E+000,-3.76758E+001,9.99053E-001,6.14409E-002,-2.43655E-002,1.09670E-003,6.14549E-002,-2.43795E-002,7.32146E-001,6.18905E-002,1.06338E+000,-1.86900E-002,0.00000E+000,2.04050E-002,9.77508E-001,0.00000E+000,-1.93755E-002,-6.02214E-002,1.00000E+000,9
869,1317,-2.31151E+000,-9.76006E-001,5.87376E-002,1.92277E+000,-3.30494E-001,1.19610E-001,1.95463E+000,5.14315E-003,4.88106E-001,0,2.93089E+001,-5.63265E+000,9.99732E-001,-1.51636E+001,-4.15647E+001,9.99012E-001,6.25521E-002,-2.50689E-002,-1.94758E-003,6.25954E-002,-2.51122E-002,-1.27269E+000,6.30016E-002,1.06454E+000,-5.66523E-003,0.00000E+000,1.26558E-003,9.77633E-001,0.00000E+000,1.58768E-003,-7.00133E-002,1.00000E+000,9
869,1327,-2.30161E+000,-3.52566E-001,3.89707E-004,1.92133E+000,-3.48642E-001,7.04402E-002,1.95398E+000,5.84637E-003,5.37798E-001,0,2.94467E+001,-5.83628E+000,9.99661E-001,-1.50323E+001,-4.17950E+001,9.99280E-001,6.16299E-002,-2.50687E-002,-1.95194E-003,6.16739E-002,-2.51126E-002,-1.28909E+000,6.20270E-002,1.06356E+000,-5.68231E-003,0.00000E+000,1.35032E-003,9.77634E-001,0.00000E+000,5.19068E-004,-7.00318E-002,1.00000E+000,9
869,1337,-2.28713E+000,2.75108E-001,-2.98087E-002,1.91901E+000,-3.66317E-001,2.30956E-002,1.95380E+000,6.10924E-003,5.26746E-001,0,2.95630E+001,-6.00784E+000,9.99494E-001,-1.47629E+001,-4.20519E+001,9.99192E-001,6.07023E-002,-2.50684E-002,-1.96012E-003,6.07471E-002,-2.51131E-002,-1.30847E+000,6.10500E-002,1.06257E+000,-5.70743E-003,0.00000E+000,1.43538E-003,9.77637E-001,0.00000E+000,-5.53533E-004,-7.00592E-002,1.00000E+000,9
869,1347,-2.26691E+000,9.12726E-001,-2.85180E-002,1.91722E+000,-3.77118E-001,-1.78857E-002,1.95404E+000,8.49476E-003,5.13542E-001,0,2.96630E+001,-6.09793E+000,9.99612E-001,-1.43290E+001,-4.22271E+001,9.99223E-001,5.97702E-002,-2.50680E-002,-1.97194E-003,5.98160E-002,-2.51138E-002,-1.33080E+000,6.00716E-002,1.06158E+000,-5.74023E-003,0.00000E+000,1.52067E-003,9.77639E-001,0.00000E+000,-1.62908E-003,-7.00948E-002,1.00000E+000,9
869,1307,-2.31464E+000,-1.59108E+000,1.49355E-001,1.92397E+000,-3.09521E-001,1.67501E-001,1.95590E+000,6.79627E-003,5.16471E-001,0,2.91684E+001,-5.40988E+000,9.99505E-001,-1.51134E+001,-4.12346E+001,9.98799E-001,6.34669E-002,-2.50690E-002,-1.94803E-003,6.35097E-002,-2.51118E-002,-1.25985E+000,6.39713E-002,1.06552E+000,-5.65845E-003,0.00000E+000,1.18135E-003,9.77632E-001,0.00000E+000,2.64995E-003,-7.00059E-002,1.00000E+000,9
989,1307,6.02532E+000,-1.42883E+000,8.93790E-002,2.42855E+000,-2.19632E-001,5.22300E-002,2.43902E+000,7.84510E-003,5.02735E-001,0,3.69533E+001,-3.81766E+000,9.99679E-001,-6.44083E+000,-3.75245E+001,9.98975E-001,6.06211E-002,-2.43711E-002,9.97045E-004,6.06328E-002,-2.43828E-002,6.72015E-001,6.10187E-002,1.06244E+000,-1.93310E-002,0.00000E+000,2.05812E-002,9.77382E-001,0.00000E+000,-1.59370E-002,-5.82881E-002,1.00000E+000,9
989,1317,6.01564E+000,-8.03906E-001,1.70559E-002,2.41189E+000,-2.36320E-001,1.40029E-002,2.42348E+000,7.50389E-003,5.40297E-001,0,3.68350E+001,-4.00182E+000,9.99802E-001,-6.64447E+000,-3.76890E+001,9.99157E-001,6.01343E-002,-2.43683E-002,1.03718E-003,6.01471E-002,-2.43810E-002,7.03107E-001,6.05052E-002,1.06189E+000,-1.93369E-002,0.00000E+000,2.05676E-002,9.77382E-001,0.00000E+000,-1.40823E-002,-5.82679E-002,1.00000E+000,9
989,1327,6.02029E+000,-1.76956E-001,-1.55921E-002,2.40222E+000,-2.54354E-001,-1.71445E-002,2.41571E+000,9.73975E-003,5.47403E-001,0,3.67964E+001,-4.22897E+000,9.99611E-001,-6.54318E+000,-3.79220E+001,9.98667E-001,5.96430E-002,-2.43643E-002,1.07446E-003,5.96567E-002,-2.43781E-002,7.32659E-001,5.99878E-002,1.06135E+000,-1.93491E-002,0.00000E+000,2.05540E-002,9.77382E-001,0.00000E+000,-1.22237E-002,-5.82263E-002,1.00000E+000,9
989,1297,6.03414E+000,-2.04834E+000,1.71886E-001,2.44308E+000,-1.98965E-001,9.50724E-002,2.45301E+000,7.83248E-003,5.01225E-001,0,3.70210E+001,-3.58942E+000,9.99582E-001,-6.22883E+000,-3.72801E+001,9.98583E-001,6.11033E-002,-2.43738E-002,9.56394E-004,6.11140E-002,-2.43845E-002,6.40969E-001,6.15283E-002,1.06298E+000,-1.93261E-002,0.00000E+000,2.05947E-002,9.77382E-001,0.00000E+000,-1.77886E-002,-5.83046E-002,1.00000E+000,9
989,1337,6.02656E+000,4.51707E-001,-3.47616E-002,2.38922E+000,-2.71310E-001,-5.70868E-002,2.40525E+000,6.97681E-003,4.78650E-001,0,3.67352E+001,-4.42383E+000,9.99214E-001,-6.38795E+000,-3.81978E+001,9.98947E-001,5.91486E-002,-2.43597E-002,1.10960E-003,5.91633E-002,-2.43744E-002,7.61129E-001,5.94681E-002,1.06080E+000,-1.93656E-002,0.00000E+000,2.05404E-002,9.77381E-001,0.00000E+000,-1.03672E-002,-5.81703E-002,1.00000E+000,9
989,1347,6.03847E+000,1.08993E+000,-3.37908E-002,2.37835E+000,-2.83361E-001,-9.21530E-002,2.39694E+000,7.23549E-003,4.77158E-001,0,3.66864E+001,-4.55321E+000,9.99602E-001,-6.10252E+000,-3.83386E+001,9.99512E-001,5.86476E-002,-2.43544E-002,1.14342E-003,5.86634E-002,-2.43702E-002,7.89099E-001,5.89424E-002,1.06025E+000,-1.93850E-002,0.00000E+000,2.05267E-002,9.77381E-001,0.00000E+000,-8.50004E-003,-5.81040E-002,1.00000E+000,9
859,1327,-2.99170E+000,-3.54748E-001,1.52029E-003,1.87948E+000,-3.46139E-001,6.68360E-002,1.91226E+000,5.66038E-003,5.40267E-001,0,2.88336E+001,-5.78020E+000,9.99547E-001,-1.56596E+001,-4.19240E+001,9.99079E-001,6.18713E-002,-2.51762E-002,-1.96534E-003,6.19157E-002,-2.52205E-002,-1.29274E+000,6.22691E-002,1.06382E+000,-4.69701E-003,0.00000E+000,3.88771E-004,9.77488E-001,0.00000E+000,1.01497E-003,-6.94145E-002,1.00000E+000,9
859,1337,-2.97570E+000,2.73459E-001,-2.46357E-002,1.87898E+000,-3.62225E-001,2.41906E-002,1.91373E+000,6.42926E-003,5.46284E-001,0,2.89613E+001,-5.95782E+000,9.99486E-001,-1.53563E+001,-4.21745E+001,9.99084E-001,6.10949E-002,-2.51762E-002,-1.97623E-003,6.11402E-002,-2.52214E-002,-1.31157E+000,6.14513E-002,1.06299E+000,-4.71771E-003,0.00000E+000,4.72405E-004,9.77491E-001,0.00000E+000,-2.07217E-004,-6.94451E-002,1.00000E+000,9
859,1347,-2.95488E+000,9.07765E-001,-1.99278E-002,1.87733E+000,-3.76611E-001,-1.64682E-002,1.91480E+000,9.11093E-003,5.13220E-001,0,2.90626E+001,-6.09356E+000,9.99708E-001,-1.49039E+001,-4.24200E+001,9.99321E-001,6.03130E-002,-2.51762E-002,-1.99064E-003,6.03593E-002,-2.52225E-002,-1.33318E+000,6.06301E-002,1.06216E+000,-4.74576E-003,0.00000E+000,5.56418E-004,9.77493E-001,0.00000E+000,-1.43493E-003,-6.94866E-002,1.00000E+000,9
859,1307,-3.00495E+000,-1.59006E+000,1.51635E-001,1.88149E+000,-3.06069E-001,1.63975E-001,1.91326E+000,9.68687E-003,6.12618E-001,0,2.85470E+001,-5.36092E+000,9.99417E-001,-1.57410E+001,-4.12664E+001,9.98836E-001,6.34073E-002,-2.51762E-002,-1.95394E-003,6.34504E-002,-2.52192E-002,-1.26299E+000,6.38936E-002,1.06546E+000,-4.67752E-003,0.00000E+000,2.22642E-004,9.77487E-001,0.00000E+000,3.44268E-003,-6.93857E-002,1.00000E+000,9
859,1317,-3.00032E+000,-9.78001E-001,5.93210E-002,1.88178E+000,-3.29466E-001,1.14086E-001,1.91381E+000,7.03863E-003,5.25301E-001,0,2.87166E+001,-5.59369E+000,9.99496E-001,-1.57729E+001,-4.16704E+001,9.98492E-001,6.26420E-002,-2.51762E-002,-1.95774E-003,6.26857E-002,-2.52198E-002,-1.27645E+000,6.30831E-002,1.06464E+000,-4.68321E-003,0.00000E+000,3.05523E-004,9.77487E-001,0.00000E+000,2.23151E-003,-6.93941E-002,1.00000E+000,9
999,1337,6.72079E+000,4.70047E-001,-4.13700E-002,2.42846E+000,-2.57406E-001,-6.29487E-002,2.44287E+000,7.17761E-003,4.30894E-001,0,3.73249E+001,-4.20247E+000,9.99758E-001,-5.65494E+000,-3.78296E+001,9.99222E-001,5.92701E-002,-2.43984E-002,9.83936E-004,5.92817E-002,-2.44100E-002,6.73670E-001,5.95886E-002,1.06091E+000,-1.97823E-002,0.00000E+000,2.05742E-002,9.77234E-001,0.00000E+000,-8.85423E-003,-5.62618E-002,1.00000E+000,9
999,1347,6.73638E+000,1.11106E+000,-3.13020E-002,2.41881E+000,-2.69815E-001,-9.86996E-002,2.43581E+000,5.85143E-003,4.47087E-001,0,3.72973E+001,-4.32215E+000,9.99842E-001,-5.29535E+000,-3.79365E+001,9.99420E-001,5.89190E-002,-2.43921E-002,1.02760E-003,5.89316E-002,-2.44047E-002,7.06573E-001,5.92207E-002,1.06053E+000,-1.97973E-002,0.00000E+000,2.05870E-002,9.77235E-001,0.00000E+000,-7.17386E-003,-5.61964E-002,1.00000E+000,9
999,1307,6.72200E+000,-1.40771E+000,8.29871E-002,2.46799E+000,-2.05539E-001,3.54537E-002,2.47679E+000,5.37558E-003,4.99340E-001,0,3.75807E+001,-3.56525E+000,9.99715E-001,-5.66728E+000,-3.70964E+001,9.99282E-001,6.02956E-002,-2.44110E-002,8.43644E-004,6.03040E-002,-2.44194E-002,5.70568E-001,6.06662E-002,1.06205E+000,-1.97596E-002,0.00000E+000,2.05361E-002,9.77233E-001,0.00000E+000,-1.38423E-002,-5.63611E-002,1.00000E+000,9
999,1317,6.71485E+000,-7.82955E-001,2.07646E-002,2.45348E+000,-2.22031E-001,5.83954E-003,2.46351E+000,9.14649E-003,5.15455E-001,0,3.74658E+001,-3.76738E+000,9.99441E-001,-5.81077E+000,-3.72940E+001,9.97383E-001,5.99568E-002,-2.44077E-002,8.91923E-004,5.99663E-002,-2.44172E-002,6.05655E-001,6.03097E-002,1.06167E+000,-1.97639E-002,0.00000E+000,2.05488E-002,9.77233E-001,0.00000E+000,-1.21809E-002,-5.63420E-002,1.00000E+000,9
999,1327,6.71712E+000,-1.60032E-001,-2.10627E-002,2.44289E+000,-2.42784E-001,-2.76664E-002,2.45508E+000,1.06838E-002,5.16161E-001,0,3.74236E+001,-4.03700E+000,9.99601E-001,-5.76665E+000,-3.75713E+001,9.98186E-001,5.96148E-002,-2.44035E-002,9.38711E-004,5.96253E-002,-2.44140E-002,6.40042E-001,5.99503E-002,1.06129E+000,-1.97716E-002,0.00000E+000,2.05615E-002,9.77234E-001,0.00000E+000,-1.05170E-002,-5.63087E-002,1.00000E+000,9
999,1297,6.73261E+000,-2.02977E+000,1.66850E-001,2.48393E+000,-1.87635E-001,7.77500E-002,2.49222E+000,6.01257E-003,4.92568E-001,0,3.76715E+001,-3.37350E+000,9.99451E-001,-5.42531E+000,-3.68985E+001,9.98205E-001,6.06311E-002,-2.44140E-002,7.94803E-004,6.06385E-002,-2.44214E-002,5.35405E-001,6.10197E-002,1.06243E+000,-1.97564E-002,0.00000E+000,2.05234E-002,9.77233E-001,0.00000E+000,-1.55019E-002,-5.63749E-002,1.00000E+000,9
849,1337,-3.66481E+000,2.71259E-001,-1.87755E-002,1.83715E+000,-3.61131E-001,2.20989E-002,1.87243E+000,8.25387E-003,5.81551E-001,0,2.83421E+001,-5.92585E+000,9.99646E-001,-1.59523E+001,-4.22996E+001,9.99262E-001,6.13737E-002,-2.51753E-002,-1.84762E-003,6.14131E-002,-2.52147E-002,-1.22239E+000,6.17396E-002,1.06329E+000,-3.82046E-003,0.00000E+000,-9.63917E-005,9.77434E-001,0.00000E+000,-2.39427E-004,-6.85975E-002,1.00000E+000,9
849,1347,-3.64799E+000,9.01744E-001,-2.15119E-002,1.83432E+000,-3.76128E-001,-1.33304E-002,1.87253E+000,7.23744E-003,5.10224E-001,0,2.84089E+001,-6.08096E+000,9.99683E-001,-1.55781E+001,-4.26090E+001,9.99490E-001,6.07648E-002,-2.51753E-002,-1.85644E-003,6.08049E-002,-2.52153E-002,-1.23691E+000,6.10992E-002,1.06265E+000,-3.83967E-003,0.00000E+000,-1.33334E-005,9.77437E-001,0.00000E+000,-1.44515E-003,-6.86333E-002,1.00000E+000,9
849,1357,-3.61889E+000,1.54355E+000,1.75341E-002,1.83333E+000,-3.89396E-001,-5.76487E-002,1.87511E+000,5.85202E-003,5.04046E-001,0,2.85282E+001,-6.19324E+000,9.99764E-001,-1.49130E+001,-4.28058E+001,9.99550E-001,6.01475E-002,-2.51752E-002,-1.87007E-003,6.01884E-002,-2.52162E-002,-1.25499E+000,6.04514E-002,1.06199E+000,-3.86897E-003,0.00000E+000,7.06274E-005,9.77440E-001,0.00000E+000,-2.66396E-003,-6.86880E-002,1.00000E+000,9
849,1327,-3.67724E+000,-3.54890E-001,1.01062E-002,1.83995E+000,-3.43402E-001,6.18832E-002,1.87275E+000,7.74803E-003,5.61031E-001,0,2.82588E+001,-5.71894E+000,9.99746E-001,-1.61945E+001,-4.20281E+001,9.99325E-001,6.19803E-002,-2.51753E-002,-1.84084E-003,6.20192E-002,-2.52142E-002,-1.20944E+000,6.23792E-002,1.06394E+000,-3.80551E-003,0.00000E+000,-1.79387E-004,9.77432E-001,0.00000E+000,9.65380E-004,-6.85696E-002,1.00000E+000,9
1009,1337,7.41824E+000,4.95407E-001,-5.23655E-002,2.47213E+000,-2.38836E-001,-6.55427E-002,2.48450E+000,9.19599E-003,4.67626E-001,0,3.79687E+001,-3.90596E+000,9.99759E-001,-4.87659E+000,-3.73006E+001,9.99495E-001,5.93014E-002,-2.44162E-002,8.08984E-004,5.93092E-002,-2.44240E-002,5.53594E-001,5.96160E-002,1.06093E+000,-2.00273E-002,0.00000E+000,2.03679E-002,9.77129E-001,0.00000E+000,-7.43128E-003,-5.46047E-002,1.00000E+000,9
1009,1347,7.43193E+000,1.12681E+000,-3.33085E-002,2.45836E+000,-2.60463E-001,-1.01414E-001,2.47419E+000,6.01751E-003,4.26000E-001,0,3.78821E+001,-4.16873E+000,9.99920E-001,-4.53100E+000,-3.76033E+001,9.99650E-001,5.90732E-002,-2.44098E-002,8.53215E-004,5.90819E-002,-2.44186E-002,5.85494E-001,5.93773E-002,1.06068E+000,-2.00379E-002,0.00000E+000,2.03944E-002,9.77130E-001,0.00000E+000,-6.05047E-003,-5.45463E-002,1.00000E+000,9
1009,1297,7.42815E+000,-2.01202E+000,1.59639E-001,2.52296E+000,-1.75133E-001,6.51015E-002,2.52987E+000,7.20262E-003,4.51279E-001,0,3.82778E+001,-3.14931E+000,9.99157E-001,-4.66749E+000,-3.65418E+001,9.98302E-001,6.01875E-002,-2.44306E-002,6.20844E-004,6.01921E-002,-2.44352E-002,4.20349E-001,6.05460E-002,1.06192E+000,-2.00115E-002,0.00000E+000,2.02626E-002,9.77128E-001,0.00000E+000,-1.29068E-002,-5.46917E-002,1.00000E+000,9
1009,1307,7.41924E+000,-1.38907E+000,8.10233E-002,2.50869E+000,-1.91618E-001,2.81006E-002,2.51616E+000,7.08253E-003,4.55466E-001,0,3.81942E+001,-3.34116E+000,9.99481E-001,-4.87212E+000,-3.67364E+001,9.99318E-001,5.99696E-002,-2.44278E-002,6.68660E-004,5.99749E-002,-2.44331E-002,4.53903E-001,6.03168E-002,1.06167E+000,-2.00136E-002,0.00000E+000,2.02889E-002,9.77128E-001,0.00000E+000,-1.15422E-002,-5.46803E-002,1.00000E+000,9
1009,1317,7.41526E+000,-7.63866E-001,1.97480E-002,2.49700E+000,-2.07757E-001,-1.79233E-003,2.50563E+000,7.37642E-003,4.70743E-001,0,3.81238E+001,-3.54210E+000,9.99672E-001,-4.96488E+000,-3.69274E+001,9.99221E-001,5.97493E-002,-2.44246E-002,7.16115E-004,5.97553E-002,-2.44307E-002,4.87401E-001,6.00854E-002,1.06143E+000,-2.00166E-002,0.00000E+000,2.03152E-002,9.77128E-001,0.00000E+000,-1.01750E-002,-5.46639E-002,1.00000E+000,9
849,1317,-3.69042E+000,-9.74675E-001,6.51721E-002,1.83895E+000,-3.22215E-001,1.12984E-001,1.87038E+000,8.59500E-003,6.00811E-001,0,2.80786E+001,-5.50287E+000,9.99616E-001,-1.63846E+001,-4.16865E+001,9.98951E-001,6.25831E-002,-2.51754E-002,-1.83548E-003,6.26215E-002,-2.52137E-002,-1.19765E+000,6.30160E-002,1.06458E+000,-3.79350E-003,0.00000E+000,-2.62106E-004,9.77431E-001,0.00000E+000,2.16617E-003,-6.85472E-002,1.00000E+000,9
1009,1327,7.41592E+000,-1.35528E-001,-1.38999E-002,2.48303E+000,-2.25046E-001,-3.43005E-002,2.49345E+000,7.76469E-003,4.78116E-001,0,3.80256E+001,-3.75281E+000,9.99737E-001,-4.92895E+000,-3.71341E+001,9.99458E-001,5.95262E-002,-2.44203E-002,7.62485E-004,5.95331E-002,-2.44272E-002,5.20360E-001,5.98515E-002,1.06118E+000,-2.00222E-002,0.00000E+000,2.03415E-002,9.77129E-001,0.00000E+000,-8.80257E-003,-5.46328E-002,1.00000E+000,9
849,1307,-3.69793E+000,-1.59137E+000,1.53625E-001,1.83579E+000,-3.02698E-001,1.59162E-001,1.86737E+000,1.04763E-002,5.92777E-001,0,2.78791E+001,-5.28881E+000,9.99467E-001,-1.64059E+001,-4.13919E+001,9.98733E-001,6.31815E-002,-2.51754E-002,-1.83367E-003,6.32196E-002,-2.52134E-002,-1.18838E+000,6.36495E-002,1.06522E+000,-3.78906E-003,0.00000E+000,-3.44464E-004,9.77430E-001,0.00000E+000,3.36172E-003,-6.85389E-002,1.00000E+000,9
839,1337,-4.35320E+000,2.65228E-001,-3.59010E-004,1.79537E+000,-3.62128E-001,3.10478E-002,1.83179E+000,1.62005E-002,5.55830E-001,0,2.76884E+001,-5.95110E+000,9.99660E-001,-1.65028E+001,-4.25416E+001,9.99117E-001,6.15198E-002,-2.51967E-002,-1.65341E-003,6.15514E-002,-2.52282E-002,-1.09192E+000,6.18838E-002,1.06345E+000,-3.12556E-003,0.00000E+000,-3.32813E-004,9.77347E-001,0.00000E+000,-5.52713E-004,-6.76060E-002,1.00000E+000,9
839,1347,-4.33855E+000,8.94384E-001,-2.25299E-002,1.79247E+000,-3.77204E-001,-1.43127E-002,1.83178E+000,6.43121E-003,5.07713E-001,0,2.77853E+001,-6.09122E+000,9.99701E-001,-1.62081E+001,-4.28195E+001,9.99348E-001,6.09975E-002,-2.51971E-002,-1.66723E-003,6.10297E-002,-2.52293E-002,-1.10770E+000,6.13342E-002,1.06290E+000,-3.14039E-003,0.00000E+000,-2.62587E-004,9.77349E-001,0.00000E+000,-1.79999E-003,-6.76394E-002,1.00000E+000,9
839,1357,-4.30908E+000,1.53784E+000,1.43371E-002,1.79297E+000,-3.87847E-001,-5.64924E-002,1.83531E+000,5.18924E-003,4.92935E-001,0,2.79196E+001,-6.16500E+000,9.99753E-001,-1.55397E+001,-4.29920E+001,9.99511E-001,6.04676E-002,-2.51976E-002,-1.68567E-003,6.05008E-002,-2.52308E-002,-1.12685E+000,6.07778E-002,1.06234E+000,-3.16475E-003,0.00000E+000,-1.91592E-004,9.77352E-001,0.00000E+000,-3.06091E-003,-6.76942E-002,1.00000E+000,9
1019,1337,8.12055E+000,5.19807E-001,-4.01910E-002,2.51409E+000,-2.24703E-001,-7.15655E-002,2.52513E+000,7.67038E-003,5.18833E-001,0,3.85971E+001,-3.68406E+000,9.99722E-001,-3.97246E+000,-3.68298E+001,9.99511E-001,5.92740E-002,-2.44163E-002,6.04636E-004,5.92783E-002,-2.44206E-002,4.13915E-001,5.95838E-002,1.06089E+000,-2.02283E-002,0.00000E+000,2.00714E-002,9.77072E-001,0.00000E+000,-5.99282E-003,-5.34385E-002,1.00000E+000,9
1019,1347,8.12793E+000,1.15018E+000,-3.70417E-002,2.49961E+000,-2.44520E-001,-9.81600E-002,2.51346E+000,6.42836E-003,4.74332E-001,0,3.84691E+001,-3.92889E+000,9.99817E-001,-3.75875E+000,-3.71142E+001,9.99683E-001,5.91385E-002,-2.44104E-002,6.56385E-004,5.91437E-002,-2.44155E-002,4.50096E-001,5.94426E-002,1.06074E+000,-2.02333E-002,0.00000E+000,2.01196E-002,9.77073E-001,0.00000E+000,-4.84287E-003,-5.33998E-002,1.00000E+000,9
839,1327,-4.37427E+000,-3.58801E-001,2.44865E-003,1.79390E+000,-3.39918E-001,6.68461E-002,1.82704E+000,1.45420E-002,5.79454E-001,0,2.75525E+001,-5.67779E+000,9.99793E-001,-1.69419E+001,-4.21581E+001,9.99158E-001,6.20416E-002,-2.51963E-002,-1.63883E-003,6.20724E-002,-2.52271E-002,-1.07584E+000,6.24337E-002,1.06401E+000,-3.10903E-003,0.00000E+000,-4.03204E-004,9.77345E-001,0.00000E+000,6.97492E-004,-6.75688E-002,1.00000E+000,9
1019,1327,8.11345E+000,-1.16049E-001,-2.41848E-002,2.52526E+000,-2.11825E-001,-4.15031E-002,2.53447E+000,7.24129E-003,4.81229E-001,0,3.86637E+001,-3.52880E+000,9.99757E-001,-4.14354E+000,-3.67164E+001,9.99367E-001,5.94079E-002,-2.44215E-002,5.52484E-004,5.94116E-002,-2.44252E-002,3.77590E-001,5.97237E-002,1.06104E+000,-2.02241E-002,0.00000E+000,2.00232E-002,9.77070E-001,0.00000E+000,-7.14190E-003,-5.34708E-002,1.00000E+000,9
1019,1317,8.11448E+000,-7.45450E-001,2.55276E-002,2.53736E+000,-1.96607E-001,-9.03276E-003,2.54498E+000,8.54563E-003,4.54447E-001,0,3.87319E+001,-3.35655E+000,9.99784E-001,-4.12012E+000,-3.65720E+001,9.99058E-001,5.95402E-002,-2.44256E-002,4.99710E-004,5.95432E-002,-2.44286E-002,3.40971E-001,5.98619E-002,1.06118E+000,-2.02216E-002,0.00000E+000,1.99752E-002,9.77070E-001,0.00000E+000,-8.28710E-003,-5.34904E-002,1.00000E+000,9
839,1317,-4.38231E+000,-9.78661E-001,6.80788E-002,1.79382E+000,-3.20435E-001,1.08218E-001,1.82543E+000,7.23146E-003,5.48243E-001,0,2.74178E+001,-5.45468E+000,9.99622E-001,-1.70270E+001,-4.18735E+001,9.98603E-001,6.25583E-002,-2.51961E-002,-1.62887E-003,6.25885E-002,-2.52263E-002,-1.06302E+000,6.29795E-002,1.06456E+000,-3.10220E-003,0.00000E+000,-4.73158E-004,9.77344E-001,0.00000E+000,1.93994E-003,-6.75534E-002,1.00000E+000,9
1019,1297,8.12272E+000,-1.99350E+000,1.47825E-001,2.56194E+000,-1.61551E-001,5.39196E-002,2.56759E+000,8.35185E-003,4.22304E-001,0,3.88777E+001,-2.90982E+000,9.99686E-001,-3.92995E+000,-3.61575E+001,9.98897E-001,5.97998E-002,-2.44327E-002,3.93822E-004,5.98016E-002,-2.44345E-002,2.67874E-001,6.01338E-002,1.06148E+000,-2.02178E-002,0.00000E+000,1.98796E-002,9.77068E-001,0.00000E+000,-1.05694E-002,-5.35194E-002,1.00000E+000,9
1019,1307,8.11479E+000,-1.36866E+000,7.78581E-002,2.54784E+000,-1.78425E-001,2.24765E-002,2.55418E+000,1.16482E-002,4.83213E-001,0,3.87778E+001,-3.12305E+000,9.99709E-001,-4.10193E+000,-3.63111E+001,9.98854E-001,5.96705E-002,-2.44295E-002,4.47050E-004,5.96729E-002,-2.44318E-002,3.04555E-001,5.99983E-002,1.06133E+000,-2.02192E-002,0.00000E+000,1.99275E-002,9.77069E-001,0.00000E+000,-9.42697E-003,-5.35084E-002,1.00000E+000,9
839,1307,-4.38666E+000,-1.59392E+000,1.54800E-001,1.79330E+000,-2.99651E-001,1.50343E-001,1.82436E+000,6.49810E-003,5.14691E-001,0,2.72721E+001,-5.20553E+000,9.99502E-001,-1.70032E+001,-4.15635E+001,9.98391E-001,6.30714E-002,-2.51960E-002,-1.62057E-003,6.31011E-002,-2.52257E-002,-1.05146E+000,6.35223E-002,1.06511E+000,-3.09883E-003,0.00000E+000,-5.42864E-004,9.77343E-001,0.00000E+000,3.17798E-003,-6.75458E-002,1.00000E+000,9
829,1337,-5.04713E+000,2.60587E-001,-1.17065E-002,1.75088E+000,-3.58899E-001,2.60245E-002,1.78747E+000,1.09970E-002,5.40410E-001,0,2.70357E+001,-5.89289E+000,9.99522E-001,-1.72062E+001,-4.26930E+001,9.98954E-001,6.14398E-002,-2.51733E-002,-1.42408E-003,6.14632E-002,-2.51967E-002,-9.41710E-001,6.17946E-002,1.06337E+000,-2.54102E-003,0.00000E+000,-3.94222E-004,9.77300E-001,0.00000E+000,-9.50653E-004,-6.65508E-002,1.00000E+000,9
829,1347,-5.02640E+000,8.91928E-001,-1.69716E-002,1.75162E+000,-3.74926E-001,-1.49643E-002,1.79136E+000,5.20300E-003,5.24686E-001,0,2.71738E+001,-6.05052E+000,9.99557E-001,-1.67753E+001,-4.29589E+001,9.99217E-001,6.09726E-002,-2.51763E-002,-1.47949E-003,6.09980E-002,-2.52017E-002,-9.83588E-001,6.13039E-002,1.06287E+000,-2.55612E-003,0.00000E+000,-4.03132E-004,9.77300E-001,0.00000E+000,-2.25187E-003,-6.65905E-002,1.00000E+000,9
829,1357,-4.99841E+000,1.53344E+000,1.42355E-002,1.75231E+000,-3.86389E-001,-5.57774E-002,1.79527E+000,5.32619E-003,5.17666E-001,0,2.73065E+001,-6.14171E+000,9.99694E-001,-1.61416E+001,-4.31469E+001,9.99558E-001,6.05007E-002,-2.51804E-002,-1.53785E-003,6.05283E-002,-2.52080E-002,-1.02793E+000,6.08092E-002,1.06237E+000,-2.57672E-003,0.00000E+000,-4.12094E-004,9.77299E-001,0.00000E+000,-3.56074E-003,-6.66447E-002,1.00000E+000,9
1029,1337,8.81020E+000,5.35003E-001,-4.95879E-002,2.54883E+000,-2.13993E-001,-7.38560E-002,2.55886E+000,7.04278E-003,4.94331E-001,0,3.91050E+001,-3.51729E+000,9.99641E-001,-3.30495E+000,-3.64933E+001,9.99077E-001,5.92901E-002,-2.43097E-002,4.22632E-004,5.92922E-002,-2.43118E-002,2.89645E-001,5.96113E-002,1.06089E+000,-2.03069E-002,0.00000E+000,1.97037E-002,9.77143E-001,0.00000E+000,-4.38859E-003,-5.27016E-002,1.00000E+000,9
1029,1347,8.81925E+000,1.17302E+000,-4.66342E-002,2.53494E+000,-2.27971E-001,-1.04463E-001,2.54731E+000,6.49472E-003,5.07320E-001,0,3.89984E+001,-3.67602E+000,9.99711E-001,-3.06677E+000,-3.66285E+001,9.99170E-001,5.92398E-002,-2.43028E-002,4.84359E-004,5.92426E-002,-2.43056E-002,3.32172E-001,5.95597E-002,1.06084E+000,-2.03088E-002,0.00000E+000,1.97734E-002,9.77146E-001,0.00000E+000,-3.34485E-003,-5.26650E-002,1.00000E+000,9
1029,1327,8.80908E+000,-9.84578E-002,-2.43843E-002,2.56345E+000,-1.99572E-001,-4.61727E-002,2.57162E+000,7.13249E-003,4.61716E-001,0,3.92301E+001,-3.34497E+000,9.99724E-001,-3.36355E+000,-3.63614E+001,9.99185E-001,5.93391E-002,-2.43152E-002,3.60778E-004,5.93406E-002,-2.43167E-002,2.47095E-001,5.96618E-002,1.06095E+000,-2.03055E-002,0.00000E+000,1.96342E-002,9.77142E-001,0.00000E+000,-5.42879E-003,-5.27268E-002,1.00000E+000,9
829,1327,-5.06360E+000,-3.61358E-001,1.06926E-002,1.75000E+000,-3.37346E-001,6.24588E-002,1.78331E+000,1.04800E-002,5.45628E-001,0,2.69068E+001,-5.62559E+000,9.99695E-001,-1.75276E+001,-4.23269E+001,9.99328E-001,6.19031E-002,-2.51709E-002,-1.37048E-003,6.19247E-002,-2.51925E-002,-9.01497E-001,6.22820E-002,1.06386E+000,-2.52921E-003,0.00000E+000,-3.85351E-004,9.77300E-001,0.00000E+000,3.44948E-004,-6.65197E-002,1.00000E+000,9
829,1307,-5.07084E+000,-1.60016E+000,1.67723E-001,1.75505E+000,-3.01016E-001,1.53773E-001,1.78730E+000,8.16217E-003,4.73810E-001,0,2.66922E+001,-5.22486E+000,9.99542E-001,-1.74985E+001,-4.17980E+001,9.98220E-001,6.28190E-002,-2.51689E-002,-1.27054E-003,6.28373E-002,-2.51872E-002,-8.27121E-001,6.32479E-002,1.06484E+000,-2.51977E-003,0.00000E+000,-3.67707E-004,9.77300E-001,0.00000E+000,2.92170E-003,-6.64949E-002,1.00000E+000,9
829,1317,-5.07079E+000,-9.82755E-001,7.36739E-002,1.75204E+000,-3.19252E-001,1.07908E-001,1.78415E+000,8.51324E-003,5.14039E-001,0,2.67937E+001,-5.42396E+000,9.99574E-001,-1.76065E+001,-4.20583E+001,9.99113E-001,6.23628E-002,-2.51694E-002,-1.31934E-003,6.23827E-002,-2.51893E-002,-8.63334E-001,6.27665E-002,1.06435E+000,-2.52218E-003,0.00000E+000,-3.76513E-004,9.77300E-001,0.00000E+000,1.63565E-003,-6.65012E-002,1.00000E+000,9
1029,1317,8.81055E+000,-7.27989E-001,2.08539E-002,2.57631E+000,-1.85934E-001,-1.69750E-002,2.58306E+000,8.12988E-003,4.68867E-001,0,3.93216E+001,-3.17819E+000,9.99828E-001,-3.34181E+000,-3.61941E+001,9.99080E-001,5.93868E-002,-2.43198E-002,2.99056E-004,5.93878E-002,-2.43209E-002,2.04696E-001,5.97110E-002,1.06101E+000,-2.03045E-002,0.00000E+000,1.95651E-002,9.77141E-001,0.00000E+000,-6.46325E-003,-5.27450E-002,1.00000E+000,9
1029,1307,8.81534E+000,-1.35105E+000,8.66087E-002,2.58990E+000,-1.67689E-001,2.16105E-002,2.59541E+000,8.36531E-003,5.07782E-001,0,3.93880E+001,-2.97332E+000,9.99802E-001,-3.22723E+000,-3.59556E+001,9.97980E-001,5.94333E-002,-2.43239E-002,2.37313E-004,5.94340E-002,-2.43246E-002,1.62337E-001,5.97592E-002,1.06106E+000,-2.03037E-002,0.00000E+000,1.94961E-002,9.77140E-001,0.00000E+000,-7.49582E-003,-5.27591E-002,1.00000E+000,9
1029,1297,8.82310E+000,-1.97260E+000,1.57918E-001,2.60428E+000,-1.47511E-001,5.61412E-002,2.60906E+000,7.68519E-003,4.81941E-001,0,3.94793E+001,-2.72568E+000,9.99760E-001,-3.05485E+000,-3.57379E+001,9.98170E-001,5.94788E-002,-2.43276E-002,1.75358E-004,5.94792E-002,-2.43280E-002,1.19886E-001,5.98065E-002,1.06112E+000,-2.03032E-002,0.00000E+000,1.94270E-002,9.77139E-001,0.00000E+000,-8.53002E-003,-5.27698E-002,1.00000E+000,9
819,1317,-5.75699E+000,-9.90035E-001,8.20295E-002,1.71140E+000,-3.22045E-001,1.06716E-001,1.74471E+000,9.00409E-003,4.91463E-001,0,2.61900E+001,-5.45525E+000,9.99454E-001,-1.81403E+001,-4.22923E+001,9.98449E-001,6.19314E-002,-2.50515E-002,-1.05167E-003,6.19442E-002,-2.50642E-002,-6.92599E-001,6.23187E-002,1.06389E+000,-2.10880E-003,0.00000E+000,-2.03834E-004,9.77328E-001,0.00000E+000,1.24582E-003,-6.51442E-002,1.00000E+000,9
819,1327,-5.75217E+000,-3.70565E-001,1.45420E-002,1.70928E+000,-3.39998E-001,6.76851E-002,1.74408E+000,9.61804E-003,5.14258E-001,0,2.62815E+001,-5.66879E+000,9.99631E-001,-1.81093E+001,-4.25874E+001,9.98449E-001,6.15233E-002,-2.50535E-002,-1.13598E-003,6.15382E-002,-2.50684E-002,-7.51611E-001,6.18893E-002,1.06345E+000,-2.11353E-003,0.00000E+000,-2.85215E-004,9.77327E-001,0.00000E+000,1.31710E-005,-6.51576E-002,1.00000E+000,9
819,1337,-5.73606E+000,2.57543E-001,-1.44231E-002,1.71059E+000,-3.55652E-001,2.80905E-002,1.74740E+000,6.36613E-003,5.37265E-001,0,2.64246E+001,-5.83615E+000,9.99590E-001,-1.78075E+001,-4.28320E+001,9.99190E-001,6.11107E-002,-2.50574E-002,-1.22337E-003,6.11280E-002,-2.50747E-002,-8.13236E-001,6.14558E-002,1.06302E+000,-2.12352E-003,0.00000E+000,-3.67159E-004,9.77325E-001,0.00000E+000,-1.22802E-003,-6.51859E-002,1.00000E+000,9
819,1307,-5.76223E+000,-1.60457E+000,1.62106E-001,1.71005E+000,-3.02538E-001,1.43181E-001,1.74250E+000,8.96972E-003,5.22221E-001,0,2.60515E+001,-5.21966E+000,9.99543E-001,-1.81460E+001,-4.19215E+001,9.98365E-001,6.23362E-002,-2.50504E-002,-9.68666E-004,6.23469E-002,-2.50611E-002,-6.35010E-001,6.27452E-002,1.06432E+000,-2.10612E-003,0.00000E+000,-1.22789E-004,9.77328E-001,0.00000E+000,2.47339E-003,-6.51366E-002,1.00000E+000,9
819,1347,-5.71363E+000,8.90984E-001,-1.66299E-002,1.71283E+000,-3.69915E-001,-1.17152E-002,1.75236E+000,5.61895E-003,5.51064E-001,0,2.65805E+001,-5.97943E+000,9.99761E-001,-1.73413E+001,-4.30591E+001,9.99570E-001,6.06946E-002,-2.50626E-002,-1.31284E-003,6.07147E-002,-2.50827E-002,-8.76857E-001,6.10194E-002,1.06258E+000,-2.13714E-003,0.00000E+000,-4.49437E-004,9.77323E-001,0.00000E+000,-2.47428E-003,-6.52245E-002,1.00000E+000,9
819,1357,-5.68676E+000,1.52741E+000,2.09266E-002,1.71205E+000,-3.86439E-001,-4.89821E-002,1.75581E+000,6.50523E-003,5.31967E-001,0,2.66803E+001,-6.15444E+000,9.99698E-001,-1.67080E+001,-4.33474E+001,9.99540E-001,6.02746E-002,-2.50698E-002,-1.40519E-003,6.02977E-002,-2.50929E-002,-9.43031E-001,6.05797E-002,1.06213E+000,-2.15576E-003,0.00000E+000,-5.32153E-004,9.77319E-001,0.00000E+000,-3.72714E-003,-6.52773E-002,1.00000E+000,9
1039,1337,9.50745E+000,5.54308E-001,-5.52108E-002,2.58910E+000,-2.01533E-001,-7.92227E-002,2.59814E+000,6.52321E-003,4.92224E-001,0,3.97059E+001,-3.30800E+000,9.99746E-001,-2.50765E+000,-3.60896E+001,9.98828E-001,5.92868E-002,-2.41483E-002,1.72816E-004,5.92872E-002,-2.41487E-002,1.18674E-001,5.96258E-002,1.06089E+000,-2.03513E-002,0.00000E+000,1.91815E-002,9.77283E-001,0.00000E+000,-2.88997E-003,-5.21837E-002,1.00000E+000,9
1039,1347,9.51494E+000,1.18614E+000,-5.02542E-002,2.57394E+000,-2.19616E-001,-1.06052E-001,2.58547E+000,6.46540E-003,4.41826E-001,0,3.95690E+001,-3.53855E+000,9.99863E-001,-2.29192E+000,-3.63550E+001,9.99306E-001,5.93131E-002,-2.41430E-002,2.22861E-004,5.93137E-002,-2.41436E-002,1.53001E-001,5.96543E-002,1.06091E+000,-2.03503E-002,0.00000E+000,1.92302E-002,9.77285E-001,0.00000E+000,-1.95046E-003,-5.21512E-002,1.00000E+000,9
1039,1317,9.50476E+000,-7.07660E-001,1.41077E-002,2.61466E+000,-1.70381E-001,-1.97076E-002,2.62028E+000,5.75758E-003,4.56818E-001,0,3.98817E+001,-2.93789E+000,9.99784E-001,-2.59203E+000,-3.57808E+001,9.99270E-001,5.92318E-002,-2.41564E-002,7.30975E-005,5.92319E-002,-2.41565E-002,5.02250E-002,5.95664E-002,1.06083E+000,-2.03524E-002,0.00000E+000,1.90842E-002,9.77281E-001,0.00000E+000,-4.76573E-003,-5.22244E-002,1.00000E+000,9
1039,1327,9.50561E+000,-8.05497E-002,-2.53082E-002,2.60332E+000,-1.86805E-001,-4.61430E-002,2.61042E+000,5.97846E-003,4.39168E-001,0,3.98047E+001,-3.15361E+000,9.99764E-001,-2.56723E+000,-3.60016E+001,9.99069E-001,5.92597E-002,-2.41527E-002,1.22742E-004,5.92599E-002,-2.41528E-002,8.43113E-002,5.95964E-002,1.06086E+000,-2.03519E-002,0.00000E+000,1.91327E-002,9.77282E-001,0.00000E+000,-3.83153E-003,-5.22068E-002,1.00000E+000,9
1039,1307,9.50941E+000,-1.33432E+000,7.11406E-002,2.62864E+000,-1.54942E-001,1.20404E-002,2.63323E+000,6.80427E-003,4.72339E-001,0,3.99788E+001,-2.75453E+000,9.99737E-001,-2.49685E+000,-3.55928E+001,9.98882E-001,5.92032E-002,-2.41597E-002,2.35319E-005,5.92032E-002,-2.41597E-002,1.61736E-002,5.95357E-002,1.06081E+000,-2.03528E-002,0.00000E+000,1.90359E-002,9.77280E-001,0.00000E+000,-5.69894E-003,-5.22379E-002,1.00000E+000,9
1039,1297,9.51842E+000,-1.95752E+000,1.46020E-001,2.64375E+000,-1.36922E-001,4.76716E-002,2.64772E+000,6.89946E-003,4.63216E-001,0,4.00768E+001,-2.54506E+000,9.99527E-001,-2.29841E+000,-3.54017E+001,9.98798E-001,5.91736E-002,-2.41625E-002,-2.59917E-005,5.91736E-002,-2.41625E-002,-1.78700E-002,5.95042E-002,1.06078E+000,-2.03530E-002,0.00000E+000,1.89875E-002,9.77280E-001,0.00000E+000,-6.63212E-003,-5.22467E-002,1.00000E+000,9
1049,1337,1.02073E+001,5.71891E-001,-5.74698E-002,2.63089E+000,-1.88767E-001,-8.42054E-002,2.63899E+000,9.73176E-003,4.61453E-001,0,4.03272E+001,-3.11930E+000,9.99843E-001,-1.65949E+000,-3.57340E+001,9.99284E-001,5.92424E-002,-2.41067E-002,-1.30288E-004,5.92426E-002,-2.41069E-002,-8.95622E-002,5.95839E-002,1.06084E+000,-2.03775E-002,0.00000E+000,1.85524E-002,9.77294E-001,0.00000E+000,-1.67294E-003,-5.13717E-002,1.00000E+000,9
1049,1347,1.02196E+001,1.20894E+000,-4.06892E-002,2.61806E+000,-2.05563E-001,-1.08743E-001,2.62837E+000,8.54709E-003,4.83094E-001,0,4.02165E+001,-3.33628E+000,9.99801E-001,-1.34791E+000,-3.59068E+001,9.98873E-001,5.93648E-002,-2.41027E-002,-9.16709E-005,5.93649E-002,-2.41028E-002,-6.29269E-002,5.97134E-002,1.06097E+000,-2.03725E-002,0.00000E+000,1.85881E-002,9.77295E-001,0.00000E+000,-1.01533E-003,-5.13467E-002,1.00000E+000,9
1049,1307,1.02103E+001,-1.31453E+000,8.04603E-002,2.66985E+000,-1.40764E-001,1.08085E-002,2.67358E+000,9.51437E-003,4.28572E-001,0,4.05743E+001,-2.53908E+000,9.99732E-001,-1.60868E+000,-3.52392E+001,9.98923E-001,5.88759E-002,-2.41145E-002,-2.41699E-004,5.88766E-002,-2.41152E-002,-1.66865E-001,5.91966E-002,1.06045E+000,-2.03846E-002,0.00000E+000,1.84460E-002,9.77292E-001,0.00000E+000,-3.62836E-003,-5.14078E-002,1.00000E+000,9
1049,1317,1.02045E+001,-6.87283E-001,2.44258E-002,2.65433E+000,-1.56457E-001,-2.12244E-002,2.65902E+000,8.57007E-003,4.35758E-001,0,4.04557E+001,-2.73069E+000,9.99603E-001,-1.72011E+000,-3.54076E+001,9.98091E-001,5.89983E-002,-2.41122E-002,-2.04828E-004,5.89988E-002,-2.41127E-002,-1.41206E-001,5.93258E-002,1.06058E+000,-2.03827E-002,0.00000E+000,1.84814E-002,9.77292E-001,0.00000E+000,-2.97786E-003,-5.13981E-002,1.00000E+000,9
1049,1327,1.02022E+001,-6.21670E-002,-2.68247E-002,2.64290E+000,-1.74525E-001,-4.59385E-002,2.64905E+000,5.45073E-003,4.34102E-001,0,4.03737E+001,-2.96275E+000,9.99751E-001,-1.76815E+000,-3.56245E+001,9.98554E-001,5.91203E-002,-2.41099E-002,-1.68004E-004,5.91207E-002,-2.41102E-002,-1.15654E-001,5.94547E-002,1.06071E+000,-2.03808E-002,0.00000E+000,1.85168E-002,9.77293E-001,0.00000E+000,-2.32696E-003,-5.13889E-002,1.00000E+000,9
809,1347,-6.40655E+000,8.81134E-001,-1.82592E-002,1.66824E+000,-3.72267E-001,-8.94137E-003,1.70930E+000,5.46941E-003,5.39893E-001,0,2.59010E+001,-6.02303E+000,9.99829E-001,-1.79971E+001,-4.33117E+001,9.99590E-001,6.03686E-002,-2.49554E-002,-1.14084E-003,6.03839E-002,-2.49707E-002,-7.65898E-001,6.06841E-002,1.06223E+000,-1.84074E-003,0.00000E+000,-3.73294E-004,9.77353E-001,0.00000E+000,-2.69660E-003,-6.40472E-002,1.00000E+000,9
809,1357,-6.38009E+000,1.52019E+000,2.27056E-002,1.66656E+000,-3.87026E-001,-4.63118E-002,1.71154E+000,6.70872E-003,5.28377E-001,0,2.59859E+001,-6.16502E+000,9.99785E-001,-1.73588E+001,-4.35652E+001,9.99220E-001,6.00224E-002,-2.49665E-002,-1.27607E-003,6.00416E-002,-2.49857E-002,-8.60014E-001,6.03224E-002,1.06187E+000,-1.85636E-003,0.00000E+000,-5.46832E-004,9.77346E-001,0.00000E+000,-3.90722E-003,-6.40992E-002,1.00000E+000,9
809,1327,-6.44307E+000,-3.78791E-001,5.37428E-003,1.66579E+000,-3.44243E-001,6.01705E-002,1.70205E+000,7.16867E-003,5.43411E-001,0,2.56527E+001,-5.69835E+000,9.99725E-001,-1.87551E+001,-4.27750E+001,9.98302E-001,6.10488E-002,-2.49417E-002,-8.79171E-004,6.10577E-002,-2.49507E-002,-5.85713E-001,6.13966E-002,1.06295E+000,-1.82180E-003,0.00000E+000,-3.00510E-005,9.77362E-001,0.00000E+000,-3.02083E-004,-6.39841E-002,1.00000E+000,9
809,1337,-6.42480E+000,2.49478E-001,-1.41232E-002,1.66896E+000,-3.58360E-001,2.76924E-002,1.70723E+000,4.56610E-003,5.35322E-001,0,2.58012E+001,-5.86512E+000,9.99787E-001,-1.83955E+001,-4.30546E+001,9.99587E-001,6.07101E-002,-2.49478E-002,-1.00925E-003,6.07220E-002,-2.49597E-002,-6.74956E-001,6.10414E-002,1.06259E+000,-1.83020E-003,0.00000E+000,-2.01373E-004,9.77358E-001,0.00000E+000,-1.49725E-003,-6.40121E-002,1.00000E+000,9
809,1307,-6.45355E+000,-1.60811E+000,1.65799E-001,1.66611E+000,-3.01158E-001,1.48811E-001,1.69964E+000,1.02217E-002,5.66818E-001,0,2.53750E+001,-5.21943E+000,9.98954E-001,-1.87652E+001,-4.20532E+001,9.97391E-001,6.17174E-002,-2.49370E-002,-6.25628E-004,6.17219E-002,-2.49415E-002,-4.13636E-001,6.20993E-002,1.06366E+000,-1.81574E-003,0.00000E+000,3.10539E-004,9.77365E-001,0.00000E+000,2.07393E-003,-6.39639E-002,1.00000E+000,9
809,1317,-6.44694E+000,-9.95150E-001,7.80989E-002,1.66903E+000,-3.23188E-001,1.05657E-001,1.70331E+000,1.02298E-002,5.62401E-001,0,2.55585E+001,-5.47281E+000,9.99630E-001,-1.87583E+001,-4.24206E+001,9.98372E-001,6.13843E-002,-2.49387E-002,-7.51791E-004,6.13908E-002,-2.49452E-002,-4.98941E-001,6.17488E-002,1.06331E+000,-1.81782E-003,0.00000E+000,1.40457E-004,9.77364E-001,0.00000E+000,8.87406E-004,-6.39708E-002,1.00000E+000,9
1049,1297,1.02140E+001,-1.94244E+000,1.43224E-001,2.68219E+000,-1.26621E-001,4.45628E-002,2.68555E+000,7.96385E-003,4.19769E-001,0,4.06387E+001,-2.37184E+000,9.99455E-001,-1.51529E+000,-3.50970E+001,9.98105E-001,5.87533E-002,-2.41168E-002,-2.78444E-004,5.87542E-002,-2.41177E-002,-1.92511E-001,5.90672E-002,1.06032E+000,-2.03863E-002,0.00000E+000,1.84107E-002,9.77291E-001,0.00000E+000,-4.27826E-003,-5.14164E-002,1.00000E+000,9
799,1337,-7.11523E+000,2.41616E-001,-1.70848E-002,1.62616E+000,-3.59644E-001,2.86676E-002,1.66570E+000,4.59012E-003,5.29501E-001,0,2.51542E+001,-5.88174E+000,9.99834E-001,-1.90134E+001,-4.32691E+001,9.99638E-001,6.01421E-002,-2.48183E-002,-7.56995E-004,6.01489E-002,-2.48251E-002,-5.10449E-001,6.04535E-002,1.06199E+000,-1.53976E-003,0.00000E+000,3.75829E-005,9.77414E-001,0.00000E+000,-1.70999E-003,-6.28807E-002,1.00000E+000,9
799,1347,-7.09696E+000,8.73114E-001,-1.99621E-002,1.62597E+000,-3.73591E-001,-4.90685E-003,1.66835E+000,5.75550E-003,5.32597E-001,0,2.52523E+001,-6.04055E+000,9.99717E-001,-1.86101E+001,-4.35339E+001,9.99431E-001,5.98436E-002,-2.48275E-002,-9.18687E-004,5.98536E-002,-2.48375E-002,-6.21565E-001,6.01414E-002,1.06167E+000,-1.54874E-003,0.00000E+000,-2.06617E-004,9.77407E-001,0.00000E+000,-2.73731E-003,-6.29100E-002,1.00000E+000,9
799,1357,-7.06808E+000,1.51385E+000,2.01014E-002,1.62678E+000,-3.86341E-001,-4.40866E-002,1.67260E+000,5.80516E-003,5.26904E-001,0,2.53798E+001,-6.15391E+000,9.99724E-001,-1.79341E+001,-4.37578E+001,9.99164E-001,5.95413E-002,-2.48413E-002,-1.08405E-003,5.95552E-002,-2.48552E-002,-7.35909E-001,5.98258E-002,1.06136E+000,-1.56238E-003,0.00000E+000,-4.53012E-004,9.77397E-001,0.00000E+000,-3.77386E-003,-6.29546E-002,1.00000E+000,9
799,1327,-7.12973E+000,-3.87182E-001,1.36741E-002,1.62621E+000,-3.45494E-001,7.01641E-002,1.66398E+000,1.17519E-002,5.27560E-001,0,2.50283E+001,-5.74725E+000,9.99783E-001,-1.92879E+001,-4.30248E+001,9.98504E-001,6.04387E-002,-2.48110E-002,-5.96617E-004,6.04429E-002,-2.48152E-002,-4.00957E-001,6.07644E-002,1.06230E+000,-1.53268E-003,0.00000E+000,2.81187E-004,9.77420E-001,0.00000E+000,-6.85170E-004,-6.28575E-002,1.00000E+000,9
1059,1327,1.08998E+001,-4.56372E-002,-2.82730E-002,2.68224E+000,-1.64495E-001,-4.92317E-002,2.68773E+000,8.55423E-003,4.35415E-001,0,4.09511E+001,-2.80434E+000,9.99800E-001,-9.49211E-001,-3.52730E+001,9.98706E-001,5.90283E-002,-2.41542E-002,-3.91139E-004,5.90301E-002,-2.41560E-002,-2.69407E-001,5.93536E-002,1.06061E+000,-2.01909E-002,0.00000E+000,1.78423E-002,9.77231E-001,0.00000E+000,-1.03572E-003,-5.07937E-002,1.00000E+000,9
1059,1337,1.09067E+001,5.91333E-001,-4.79519E-002,2.67148E+000,-1.76237E-001,-7.81551E-002,2.67843E+000,6.89114E-003,4.58953E-001,0,4.08895E+001,-2.94241E+000,9.99841E-001,-7.92613E-001,-3.53618E+001,9.99383E-001,5.92281E-002,-2.41514E-002,-3.56142E-004,5.92296E-002,-2.41529E-002,-2.44724E-001,5.95645E-002,1.06083E+000,-2.01852E-002,0.00000E+000,1.78860E-002,9.77233E-001,0.00000E+000,-7.15784E-004,-5.07850E-002,1.00000E+000,9
1059,1347,1.09199E+001,1.22804E+000,-3.32985E-002,2.65920E+000,-1.92768E-001,-1.05845E-001,2.66827E+000,9.71819E-003,4.69417E-001,0,4.07988E+001,-3.15858E+000,9.99839E-001,-4.72538E-001,-3.55394E+001,9.98949E-001,5.94285E-002,-2.41479E-002,-3.19847E-004,5.94297E-002,-2.41491E-002,-2.19267E-001,5.97762E-002,1.06104E+000,-2.01769E-002,0.00000E+000,1.79298E-002,9.77234E-001,0.00000E+000,-3.94555E-004,-5.07726E-002,1.00000E+000,9
1059,1297,1.09092E+001,-1.92552E+000,1.35989E-001,2.72175E+000,-1.12814E-001,4.55941E-002,2.72447E+000,6.68357E-003,3.89572E-001,0,4.12010E+001,-2.16780E+000,9.99663E-001,-7.44028E-001,-3.47481E+001,9.98527E-001,5.84307E-002,-2.41604E-002,-4.92261E-004,5.84336E-002,-2.41633E-002,-3.41480E-001,5.87243E-002,1.05998E+000,-2.02007E-002,0.00000E+000,1.77121E-002,9.77229E-001,0.00000E+000,-1.99106E-003,-5.08084E-002,1.00000E+000,9
1059,1307,1.09057E+001,-1.29955E+000,7.33644E-002,2.70965E+000,-1.28202E-001,1.19424E-002,2.71271E+000,9.11570E-003,3.72003E-001,0,4.11413E+001,-2.35573E+000,9.99779E-001,-8.32771E-001,-3.49319E+001,9.98797E-001,5.86294E-002,-2.41584E-002,-4.58870E-004,5.86319E-002,-2.41610E-002,-3.17561E-001,5.89333E-002,1.06019E+000,-2.01979E-002,0.00000E+000,1.77553E-002,9.77230E-001,0.00000E+000,-1.67368E-003,-5.08042E-002,1.00000E+000,9
1059,1317,1.08995E+001,-6.74684E-001,1.20103E-002,2.69413E+000,-1.47108E-001,-2.30679E-002,2.69824E+000,1.00089E-002,4.15646E-001,0,4.10356E+001,-2.59428E+000,9.99729E-001,-9.62292E-001,-3.51059E+001,9.97708E-001,5.88286E-002,-2.41564E-002,-4.25269E-004,5.88308E-002,-2.41586E-002,-2.93610E-001,5.91431E-002,1.06040E+000,-2.01949E-002,0.00000E+000,1.77988E-002,9.77231E-001,0.00000E+000,-1.35518E-003,-5.07996E-002,1.00000E+000,9
799,1307,-7.13814E+000,-1.61594E+000,1.73832E-001,1.62730E+000,-3.03340E-001,1.52648E-001,1.66236E+000,1.29433E-002,5.66623E-001,0,2.47832E+001,-5.27376E+000,9.99262E-001,-1.92663E+001,-4.22819E+001,9.98613E-001,6.10236E-002,-2.48057E-002,-2.82922E-004,6.10245E-002,-2.48066E-002,-1.88864E-001,6.13791E-002,1.06292E+000,-1.52802E-003,0.00000E+000,7.64458E-004,9.77423E-001,0.00000E+000,1.34790E-003,-6.28423E-002,1.00000E+000,9
799,1317,-7.13775E+000,-1.00289E+000,7.27630E-002,1.62671E+000,-3.23478E-001,1.09605E-001,1.66218E+000,1.20204E-002,5.68330E-001,0,2.49114E+001,-5.49557E+000,9.99595E-001,-1.93891E+001,-4.26191E+001,9.98071E-001,6.07324E-002,-2.48065E-002,-4.38567E-004,6.07346E-002,-2.48088E-002,-2.93751E-001,6.10728E-002,1.06261E+000,-1.52852E-003,0.00000E+000,5.23347E-004,9.77423E-001,0.00000E+000,3.33571E-004,-6.28439E-002,1.00000E+000,9
789,1327,-7.81577E+000,-3.93319E-001,1.29426E-002,1.58749E+000,-3.44836E-001,7.46693E-002,1.62623E+000,9.51517E-003,5.53638E-001,0,2.44331E+001,-5.76245E+000,9.99743E-001,-1.98294E+001,-4.31997E+001,9.98806E-001,5.98446E-002,-2.46568E-002,-3.79356E-004,5.98463E-002,-2.46585E-002,-2.57214E-001,6.01543E-002,1.06167E+000,-1.28764E-003,0.00000E+000,4.96331E-004,9.77507E-001,0.00000E+000,-9.36854E-004,-6.18192E-002,1.00000E+000,9
789,1337,-7.80157E+000,2.36848E-001,-1.34096E-002,1.58663E+000,-3.57876E-001,3.42455E-002,1.62685E+000,5.43103E-003,5.34951E-001,0,2.45419E+001,-5.87142E+000,9.99739E-001,-1.95469E+001,-4.34445E+001,9.99532E-001,5.95923E-002,-2.46656E-002,-5.64665E-004,5.95961E-002,-2.46694E-002,-3.83952E-001,5.98896E-002,1.06140E+000,-1.29388E-003,0.00000E+000,1.91158E-004,9.77500E-001,0.00000E+000,-1.78050E-003,-6.18390E-002,1.00000E+000,9
789,1347,-7.78171E+000,8.68652E-001,-1.58712E-002,1.58773E+000,-3.72549E-001,-1.12978E-003,1.63085E+000,6.11491E-003,5.53229E-001,0,2.46649E+001,-6.03078E+000,9.99653E-001,-1.91169E+001,-4.36996E+001,9.99244E-001,5.93382E-002,-2.46765E-002,-7.51408E-004,5.93449E-002,-2.46832E-002,-5.12386E-001,5.96239E-002,1.06114E+000,-1.30165E-003,0.00000E+000,-1.15163E-004,9.77491E-001,0.00000E+000,-2.62731E-003,-6.18636E-002,1.00000E+000,9
789,1357,-7.75546E+000,1.50712E+000,1.79996E-002,1.58742E+000,-3.86371E-001,-3.99683E-002,1.63425E+000,5.48544E-003,5.55506E-001,0,2.47740E+001,-6.16555E+000,9.99622E-001,-1.84951E+001,-4.39427E+001,9.99173E-001,5.90816E-002,-2.46917E-002,-9.40853E-004,5.90922E-002,-2.47022E-002,-6.43378E-001,5.93563E-002,1.06087E+000,-1.31265E-003,0.00000E+000,-4.23394E-004,9.77479E-001,0.00000E+000,-3.47941E-003,-6.18984E-002,1.00000E+000,9
1069,1327,1.15986E+001,-3.04877E-002,-3.31370E-002,2.72346E+000,-1.56028E-001,-5.12501E-002,2.72841E+000,9.64704E-003,4.60612E-001,0,4.15526E+001,-2.67217E+000,9.99744E-001,-1.13859E-001,-3.49234E+001,9.98194E-001,5.89685E-002,-2.40951E-002,-5.97756E-004,5.89728E-002,-2.40994E-002,-4.12293E-001,5.93000E-002,1.06055E+000,-1.99662E-002,0.00000E+000,1.71891E-002,9.77282E-001,0.00000E+000,-1.20347E-004,-5.04209E-002,1.00000E+000,9
1069,1337,1.16015E+001,6.05503E-001,-5.38750E-002,2.70943E+000,-1.66913E-001,-7.75729E-002,2.71567E+000,6.18928E-003,4.15276E-001,0,4.14326E+001,-2.79181E+000,9.99769E-001,-2.30814E-002,-3.50583E+001,9.98873E-001,5.91990E-002,-2.40925E-002,-5.64149E-004,5.92028E-002,-2.40964E-002,-3.88051E-001,5.95431E-002,1.06080E+000,-1.99598E-002,0.00000E+000,1.72441E-002,9.77283E-001,0.00000E+000,-1.06693E-004,-5.04206E-002,1.00000E+000,9
1069,1347,1.16129E+001,1.24168E+000,-4.84538E-002,2.69699E+000,-1.83889E-001,-1.06732E-001,2.70536E+000,6.07127E-003,4.40325E-001,0,4.13465E+001,-3.00615E+000,9.99815E-001,2.49493E-001,-3.52147E+001,9.99185E-001,5.94311E-002,-2.40894E-002,-5.29114E-004,5.94344E-002,-2.40928E-002,-3.62957E-001,5.97882E-002,1.06105E+000,-1.99509E-002,0.00000E+000,1.72995E-002,9.77285E-001,0.00000E+000,-9.29403E-005,-5.04201E-002,1.00000E+000,9
789,1307,-7.82302E+000,-1.62098E+000,1.71765E-001,1.58994E+000,-3.02216E-001,1.57438E-001,1.62605E+000,1.08233E-002,5.62802E-001,0,2.42099E+001,-5.26110E+000,9.99472E-001,-1.97925E+001,-4.24483E+001,9.97004E-001,6.03423E-002,-2.46506E-002,-1.60015E-005,6.03423E-002,-2.46506E-002,-1.07870E-002,6.06781E-002,1.06220E+000,-1.28361E-003,0.00000E+000,1.10125E-003,9.77512E-001,0.00000E+000,7.35421E-004,-6.18064E-002,1.00000E+000,9
789,1317,-7.82023E+000,-1.01075E+000,8.40032E-002,1.58897E+000,-3.26186E-001,1.13289E-001,1.62605E+000,1.19827E-002,5.50944E-001,0,2.43350E+001,-5.54584E+000,9.99470E-001,-1.98458E+001,-4.28654E+001,9.96400E-001,6.00942E-002,-2.46531E-002,-1.97268E-004,6.00946E-002,-2.46536E-002,-1.33367E-001,6.04165E-002,1.06194E+000,-1.28517E-003,0.00000E+000,7.99116E-004,9.77510E-001,0.00000E+000,-9.98157E-005,-6.18114E-002,1.00000E+000,9
1069,1297,1.15982E+001,-1.91105E+000,1.15595E-001,2.75646E+000,-1.01653E-001,4.10223E-002,2.75864E+000,8.16632E-003,4.02854E-001,0,4.17109E+001,-1.99461E+000,9.99498E-001,-9.03650E-002,-3.43884E+001,9.98319E-001,5.82772E-002,-2.41011E-002,-6.95519E-004,5.82830E-002,-2.41070E-002,-4.83702E-001,5.85722E-002,1.05982E+000,-1.99787E-002,0.00000E+000,1.70243E-002,9.77279E-001,0.00000E+000,-1.61275E-004,-5.04216E-002,1.00000E+000,9
1069,1307,1.15959E+001,-1.28660E+000,5.11696E-002,2.74665E+000,-1.17904E-001,1.05183E-002,2.74920E+000,7.19347E-003,3.68813E-001,0,4.16761E+001,-2.19742E+000,9.99743E-001,-1.64490E-001,-3.45979E+001,9.98562E-001,5.85065E-002,-2.40994E-002,-6.63727E-004,5.85118E-002,-2.41048E-002,-4.60324E-001,5.88133E-002,1.06006E+000,-1.99759E-002,0.00000E+000,1.70789E-002,9.77280E-001,0.00000E+000,-1.47705E-004,-5.04215E-002,1.00000E+000,9
1069,1317,1.15977E+001,-6.56721E-001,1.05227E-002,2.73561E+000,-1.34993E-001,-1.83830E-002,2.73900E+000,9.11585E-003,4.38147E-001,0,4.16147E+001,-2.42089E+000,9.99774E-001,-1.29426E-001,-3.47232E+001,9.97966E-001,5.87375E-002,-2.40973E-002,-6.30765E-004,5.87423E-002,-2.41021E-002,-4.36259E-001,5.90565E-002,1.06031E+000,-1.99711E-002,0.00000E+000,1.71340E-002,9.77281E-001,0.00000E+000,-1.34028E-004,-5.04212E-002,1.00000E+000,9
779,1327,-8.49690E+000,-3.95305E-001,1.94308E-002,1.55226E+000,-3.42645E-001,8.15296E-002,1.59171E+000,1.39531E-002,6.07899E-001,0,2.38833E+001,-5.74407E+000,9.99726E-001,-2.02723E+001,-4.33115E+001,9.98498E-001,5.91818E-002,-2.44136E-002,-3.11405E-004,5.91830E-002,-2.44147E-002,-2.13431E-001,5.94841E-002,1.06097E+000,-1.15652E-003,0.00000E+000,5.17484E-004,9.77692E-001,0.00000E+000,-1.08130E-003,-6.09298E-002,1.00000E+000,9
779,1337,-8.48464E+000,2.28068E-001,-1.14748E-002,1.54993E+000,-3.61154E-001,3.82098E-002,1.59191E+000,5.29303E-003,5.58922E-001,0,2.39791E+001,-5.92977E+000,9.99675E-001,-2.00316E+001,-4.36684E+001,9.99362E-001,5.90245E-002,-2.44231E-002,-5.15649E-004,5.90277E-002,-2.44262E-002,-3.54031E-001,5.93193E-002,1.06080E+000,-1.16029E-003,0.00000E+000,1.64182E-004,9.77684E-001,0.00000E+000,-1.79139E-003,-6.09459E-002,1.00000E+000,9
779,1347,-8.46686E+000,8.61284E-001,-1.43142E-002,1.54858E+000,-3.73471E-001,-4.81540E-004,1.59297E+000,6.16153E-003,5.47841E-001,0,2.40726E+001,-6.04763E+000,9.99597E-001,-1.96324E+001,-4.39175E+001,9.99184E-001,5.88660E-002,-2.44353E-002,-7.21291E-004,5.88722E-002,-2.44416E-002,-4.96064E-001,5.91541E-002,1.06064E+000,-1.16523E-003,0.00000E+000,-1.90557E-004,9.77673E-001,0.00000E+000,-2.50436E-003,-6.09671E-002,1.00000E+000,9
779,1357,-8.44228E+000,1.50000E+000,1.65217E-002,1.54754E+000,-3.86617E-001,-3.85870E-002,1.59557E+000,4.81836E-003,5.59150E-001,0,2.41677E+001,-6.17231E+000,9.99607E-001,-1.90418E+001,-4.41477E+001,9.99395E-001,5.87057E-002,-2.44516E-002,-9.29286E-004,5.87160E-002,-2.44620E-002,-6.40176E-001,5.89876E-002,1.06047E+000,-1.17184E-003,0.00000E+000,-5.47973E-004,9.77659E-001,0.00000E+000,-3.22272E-003,-6.09954E-002,1.00000E+000,9
779,1317,-8.50348E+000,-1.01217E+000,9.36193E-002,1.55144E+000,-3.21779E-001,1.22437E-001,1.58918E+000,1.50526E-002,5.46091E-001,0,2.37429E+001,-5.49866E+000,9.99758E-001,-2.03126E+001,-4.30032E+001,9.98260E-001,5.93380E-002,-2.44096E-002,-1.08915E-004,5.93381E-002,-2.44097E-002,-7.45136E-002,5.96481E-002,1.06113E+000,-1.15504E-003,0.00000E+000,8.69621E-004,9.77695E-001,0.00000E+000,-3.73557E-004,-6.09234E-002,1.00000E+000,9
1079,1337,1.22999E+001,6.21771E-001,-6.51636E-002,2.74986E+000,-1.57061E-001,-8.51882E-002,2.75566E+000,6.41815E-003,4.30881E-001,0,4.20419E+001,-2.62738E+000,9.99791E-001,7.96604E-001,-3.46805E+001,9.99493E-001,5.92268E-002,-2.40855E-002,-7.45817E-004,5.92335E-002,-2.40921E-002,-5.12861E-001,5.95760E-002,1.06083E+000,-1.96831E-002,0.00000E+000,1.66097E-002,9.77291E-001,0.00000E+000,4.00269E-004,-5.02210E-002,1.00000E+000,9
1079,1347,1.23121E+001,1.25974E+000,-5.50736E-002,2.73782E+000,-1.72428E-001,-1.10075E-001,2.74546E+000,4.30699E-003,4.65388E-001,0,4.19462E+001,-2.83297E+000,9.99861E-001,1.08671E+000,-3.48131E+001,9.99735E-001,5.94920E-002,-2.40829E-002,-7.15082E-004,5.94981E-002,-2.40890E-002,-4.90185E-001,5.98560E-002,1.06112E+000,-1.96728E-002,0.00000E+000,1.66643E-002,9.77293E-001,0.00000E+000,2.22250E-004,-5.02275E-002,1.00000E+000,9
1079,1297,1.22973E+001,-1.89290E+000,1.19884E-001,2.79712E+000,-8.94186E-002,4.51813E-002,2.79891E+000,8.52780E-003,4.27449E-001,0,4.22762E+001,-1.82465E+000,9.99555E-001,7.72784E-001,-3.40173E+001,9.98598E-001,5.81733E-002,-2.40924E-002,-8.58721E-004,5.81823E-002,-2.41013E-002,-5.97989E-001,5.84669E-002,1.05972E+000,-1.97044E-002,0.00000E+000,1.63931E-002,9.77287E-001,0.00000E+000,1.10671E-003,-5.02075E-002,1.00000E+000,9
1079,1307,1.22908E+001,-1.27171E+000,4.04446E-002,2.78440E+000,-1.08943E-001,5.66541E-003,2.78653E+000,8.42380E-003,3.99006E-001,0,4.22330E+001,-2.05150E+000,9.99724E-001,6.03714E-001,-3.42412E+001,9.98532E-001,5.84355E-002,-2.40911E-002,-8.31881E-004,5.84439E-002,-2.40995E-002,-5.77472E-001,5.87424E-002,1.06000E+000,-1.97017E-002,0.00000E+000,1.64470E-002,9.77288E-001,0.00000E+000,9.31042E-004,-5.02092E-002,1.00000E+000,9
1079,1327,1.22969E+001,-1.41976E-002,-3.99093E-002,2.76335E+000,-1.45916E-001,-5.64355E-002,2.76778E+000,8.14148E-003,4.67093E-001,0,4.21439E+001,-2.50911E+000,9.99819E-001,7.12852E-001,-3.45616E+001,9.99314E-001,5.89634E-002,-2.40875E-002,-7.74870E-004,5.89706E-002,-2.40947E-002,-5.34512E-001,5.92982E-002,1.06056E+000,-1.96901E-002,0.00000E+000,1.65555E-002,9.77290E-001,0.00000E+000,5.77048E-004,-5.02166E-002,1.00000E+000,9
1079,1317,1.22922E+001,-6.40308E-001,-3.93717E-003,2.77307E+000,-1.24878E-001,-2.62427E-002,2.77600E+000,7.52451E-003,4.41094E-001,0,4.21788E+001,-2.23327E+000,9.99803E-001,6.25996E-001,-3.43468E+001,9.98908E-001,5.86996E-002,-2.40893E-002,-8.03518E-004,5.87074E-002,-2.40971E-002,-5.56021E-001,5.90203E-002,1.06028E+000,-1.96963E-002,0.00000E+000,1.65013E-002,9.77289E-001,0.00000E+000,7.53971E-004,-5.02127E-002,1.00000E+000,9
779,1307,-8.50932E+000,-1.63046E+000,1.72062E-001,1.54908E+000,-3.07312E-001,1.56248E-001,1.58698E+000,9.52758E-003,5.58743E-001,0,2.36016E+001,-5.32283E+000,9.99681E-001,-2.03313E+001,-4.26886E+001,9.98161E-001,5.94924E-002,-2.44069E-002,9.18834E-005,5.94925E-002,-2.44070E-002,6.27481E-002,5.98111E-002,1.06130E+000,-1.15413E-003,0.00000E+000,1.21930E-003,9.77697E-001,0.00000E+000,3.29241E-004,-6.09195E-002,1.00000E+000,9
1089,1337,1.29968E+001,6.38939E-001,-6.98482E-002,2.78828E+000,-1.46940E-001,-8.59670E-002,2.79347E+000,5.43218E-003,4.77276E-001,0,4.25947E+001,-2.47911E+000,9.99759E-001,1.60776E+000,-3.42884E+001,9.99472E-001,5.94450E-002,-2.41068E-002,-8.59974E-004,5.94538E-002,-2.41156E-002,-5.89646E-001,5.98059E-002,1.06107E+000,-1.92585E-002,0.00000E+000,1.59763E-002,9.77279E-001,0.00000E+000,7.27122E-004,-5.01720E-002,1.00000E+000,9
1089,1347,1.30093E+001,1.27700E+000,-6.42042E-002,2.77661E+000,-1.61389E-001,-1.14861E-001,2.78367E+000,5.27811E-003,4.52139E-001,0,4.25197E+001,-2.64753E+000,9.99803E-001,1.89453E+000,-3.44379E+001,9.99273E-001,5.97989E-002,-2.41051E-002,-8.34432E-004,5.98072E-002,-2.41134E-002,-5.69736E-001,6.01798E-002,1.06145E+000,-1.92447E-002,0.00000E+000,1.60214E-002,9.77280E-001,0.00000E+000,4.38604E-004,-5.01825E-002,1.00000E+000,9
769,1347,-9.15162E+000,8.54332E-001,-1.51837E-002,1.51016E+000,-3.74115E-001,1.76719E-003,1.55581E+000,5.09876E-003,5.37033E-001,0,2.34864E+001,-6.05005E+000,9.99617E-001,-2.01439E+001,-4.41265E+001,9.99230E-001,5.82471E-002,-2.42521E-002,-6.69556E-004,5.82526E-002,-2.42575E-002,-4.64967E-001,5.85232E-002,1.05998E+000,-9.24635E-004,0.00000E+000,-3.18716E-004,9.77800E-001,0.00000E+000,-2.39007E-003,-6.00850E-002,1.00000E+000,9
769,1357,-9.12651E+000,1.49363E+000,1.43692E-002,1.51023E+000,-3.86280E-001,-3.58500E-002,1.55926E+000,5.09797E-003,5.58956E-001,0,2.35961E+001,-6.16466E+000,9.99666E-001,-1.95461E+001,-4.43412E+001,9.99426E-001,5.80808E-002,-2.42662E-002,-8.54925E-004,5.80897E-002,-2.42750E-002,-5.94759E-001,5.83502E-002,1.05981E+000,-9.31342E-004,0.00000E+000,-6.35105E-004,9.77788E-001,0.00000E+000,-3.06448E-003,-6.01110E-002,1.00000E+000,9
769,1327,-9.18178E+000,-4.01653E-001,2.61399E-002,1.51056E+000,-3.44015E-001,7.63549E-002,1.55111E+000,1.04145E-002,5.79528E-001,0,2.32695E+001,-5.75205E+000,9.99673E-001,-2.07680E+001,-4.35329E+001,9.97903E-001,5.85751E-002,-2.42347E-002,-3.04811E-004,5.85762E-002,-2.42358E-002,-2.10894E-001,5.88660E-002,1.06032E+000,-9.16446E-004,0.00000E+000,3.08061E-004,9.77815E-001,0.00000E+000,-1.05404E-003,-6.00533E-002,1.00000E+000,9
769,1337,-9.16959E+000,2.20374E-001,-1.26647E-002,1.51071E+000,-3.63119E-001,3.78001E-002,1.55420E+000,5.08559E-003,5.37515E-001,0,2.33895E+001,-5.94121E+000,9.99679E-001,-2.05483E+001,-4.38917E+001,9.99199E-001,5.84117E-002,-2.42416E-002,-4.86442E-004,5.84145E-002,-2.42445E-002,-3.37189E-001,5.86950E-002,1.06015E+000,-9.19673E-004,0.00000E+000,-4.76497E-006,9.77809E-001,0.00000E+000,-1.72086E-003,-6.00658E-002,1.00000E+000,9
1089,1327,1.29913E+001,3.48262E-003,-5.25845E-002,2.80109E+000,-1.31699E-001,-5.86793E-002,2.80480E+000,7.43936E-003,4.37805E-001,0,4.26903E+001,-2.29363E+000,9.99725E-001,1.47293E+000,-3.41838E+001,9.98877E-001,5.90911E-002,-2.41082E-002,-8.83958E-004,5.91005E-002,-2.41176E-002,-6.08652E-001,5.94325E-002,1.06070E+000,-1.92689E-002,0.00000E+000,1.59312E-002,9.77277E-001,0.00000E+000,1.01539E-003,-5.01639E-002,1.00000E+000,9
1089,1317,1.29904E+001,-6.27267E-001,-1.27229E-002,2.81312E+000,-1.16724E-001,-3.08112E-002,2.81571E+000,7.03782E-003,4.71372E-001,0,4.27696E+001,-2.12446E+000,9.99828E-001,1.45082E+000,-3.40209E+001,9.99203E-001,5.87390E-002,-2.41094E-002,-9.06415E-004,5.87489E-002,-2.41193E-002,-6.26753E-001,5.90615E-002,1.06033E+000,-1.92763E-002,0.00000E+000,1.58864E-002,9.77276E-001,0.00000E+000,1.30195E-003,-5.01582E-002,1.00000E+000,9
1089,1297,1.29962E+001,-1.87479E+000,1.18460E-001,2.83711E+000,-7.79187E-002,4.44436E-002,2.83853E+000,6.90729E-003,4.62413E-001,0,4.28487E+001,-1.64859E+000,9.99766E-001,1.62289E+000,-3.36297E+001,9.99150E-001,5.80361E-002,-2.41114E-002,-9.49207E-004,5.80471E-002,-2.41224E-002,-6.61929E-001,5.83223E-002,1.05958E+000,-1.92868E-002,0.00000E+000,1.57969E-002,9.77275E-001,0.00000E+000,1.87352E-003,-5.01502E-002,1.00000E+000,9
1089,1307,1.29904E+001,-1.25489E+000,3.82368E-002,2.82482E+000,-9.92671E-002,2.80657E-003,2.82656E+000,7.28053E-003,4.68179E-001,0,4.28213E+001,-1.91450E+000,9.99836E-001,1.46476E+000,-3.38531E+001,9.99098E-001,5.83869E-002,-2.41105E-002,-9.28531E-004,5.83974E-002,-2.41210E-002,-6.44770E-001,5.86910E-002,1.05995E+000,-1.92830E-002,0.00000E+000,1.58415E-002,9.77276E-001,0.00000E+000,1.58835E-003,-5.01531E-002,1.00000E+000,9
769,1317,-9.18968E+000,-1.01788E+000,9.28612E-002,1.51068E+000,-3.24418E-001,1.22273E-001,1.54995E+000,1.14880E-002,5.53194E-001,0,2.31308E+001,-5.50149E+000,9.99797E-001,-2.08479E+001,-4.31794E+001,9.99022E-001,5.87369E-002,-2.42299E-002,-1.24929E-004,5.87371E-002,-2.42301E-002,-8.62738E-002,5.90360E-002,1.06050E+000,-9.14291E-004,0.00000E+000,6.18748E-004,9.77819E-001,0.00000E+000,-3.91786E-004,-6.00449E-002,1.00000E+000,9
1099,1327,1.36872E+001,1.85764E-002,-6.06173E-002,2.83975E+000,-1.21905E-001,-5.66298E-002,2.84293E+000,7.88010E-003,4.52801E-001,0,4.32353E+001,-2.15085E+000,9.99423E-001,2.26805E+000,-3.38341E+001,9.98130E-001,5.92381E-002,-2.41335E-002,-9.97549E-004,5.92501E-002,-2.41455E-002,-6.85418E-001,5.95870E-002,1.06086E+000,-1.88656E-002,0.00000E+000,1.53235E-002,9.77273E-001,0.00000E+000,1.25225E-003,-5.03838E-002,1.00000E+000,9
1099,1337,1.36964E+001,6.56486E-001,-7.20718E-002,2.82884E+000,-1.35132E-001,-8.50465E-002,2.83334E+000,7.23681E-003,4.67007E-001,0,4.31719E+001,-2.30306E+000,9.99462E-001,2.47024E+000,-3.39240E+001,9.98939E-001,5.97037E-002,-2.41312E-002,-9.61399E-004,5.97147E-002,-2.41422E-002,-6.56940E-001,6.00783E-002,1.06136E+000,-1.88505E-002,0.00000E+000,1.53886E-002,9.77275E-001,0.00000E+000,9.19729E-004,-5.03939E-002,1.00000E+000,9
1099,1347,1.37120E+001,1.29714E+000,-5.82525E-002,2.81803E+000,-1.48817E-001,-1.14133E-001,2.82426E+000,6.28971E-003,4.61334E-001,0,4.31101E+001,-2.46380E+000,9.99576E-001,2.81807E+000,-3.40398E+001,9.99139E-001,6.01702E-002,-2.41283E-002,-9.22995E-004,6.01803E-002,-2.41384E-002,-6.27238E-001,6.05715E-002,1.06185E+000,-1.88308E-002,0.00000E+000,1.54538E-002,9.77278E-001,0.00000E+000,5.86214E-004,-5.04072E-002,1.00000E+000,9
759,1347,-9.83411E+000,8.50285E-001,-1.61688E-002,1.47370E+000,-3.72128E-001,4.50989E-003,1.51996E+000,4.86300E-003,5.37389E-001,0,2.29275E+001,-6.01306E+000,9.99587E-001,-2.06163E+001,-4.42849E+001,9.99150E-001,5.76236E-002,-2.41323E-002,-5.82662E-004,5.76277E-002,-2.41364E-002,-4.08311E-001,5.78803E-002,1.05932E+000,-5.91571E-004,0.00000E+000,-4.66691E-004,9.77873E-001,0.00000E+000,-2.21334E-003,-5.93210E-002,1.00000E+000,9
759,1357,-9.81069E+000,1.48765E+000,1.22964E-002,1.47259E+000,-3.85649E-001,-3.26445E-002,1.52260E+000,5.22186E-003,5.56013E-001,0,2.30175E+001,-6.14990E+000,9.99661E-001,-2.00455E+001,-4.45305E+001,9.99222E-001,5.73804E-002,-2.41419E-002,-7.14955E-004,5.73867E-002,-2.41481E-002,-5.02435E-001,5.76262E-002,1.05906E+000,-6.01209E-004,0.00000E+000,-6.76927E-004,9.77865E-001,0.00000E+000,-2.89226E-003,-5.93466E-002,1.00000E+000,9
1099,1297,1.36919E+001,-1.86209E+000,1.07651E-001,2.87537E+000,-7.03100E-002,4.16366E-002,2.87653E+000,6.34267E-003,5.15348E-001,0,4.34039E+001,-1.54468E+000,9.99640E-001,2.41118E+000,-3.32972E+001,9.98664E-001,5.78502E-002,-2.41384E-002,-1.09513E-003,5.78648E-002,-2.41531E-002,-7.65126E-001,5.81274E-002,1.05939E+000,-1.88890E-002,0.00000E+000,1.51299E-002,9.77270E-001,0.00000E+000,2.24197E-003,-5.03680E-002,1.00000E+000,9
1099,1307,1.36884E+001,-1.23748E+000,3.40506E-002,2.86529E+000,-8.75895E-002,6.73217E-003,2.86664E+000,7.41342E-003,4.85301E-001,0,4.33844E+001,-1.73843E+000,9.99753E-001,2.30126E+000,-3.34779E+001,9.98980E-001,5.83122E-002,-2.41371E-002,-1.06396E-003,5.83259E-002,-2.41508E-002,-7.39204E-001,5.86123E-002,1.05988E+000,-1.88839E-002,0.00000E+000,1.51943E-002,9.77271E-001,0.00000E+000,1.91281E-003,-5.03714E-002,1.00000E+000,9
1099,1317,1.36867E+001,-6.10355E-001,-2.13259E-002,2.85312E+000,-1.04545E-001,-2.60566E-002,2.85516E+000,8.52160E-003,4.85819E-001,0,4.33237E+001,-1.94860E+000,9.99672E-001,2.25289E+000,-3.36436E+001,9.98682E-001,5.87748E-002,-2.41354E-002,-1.03137E-003,5.87876E-002,-2.41483E-002,-7.12589E-001,5.90988E-002,1.06037E+000,-1.88760E-002,0.00000E+000,1.52588E-002,9.77272E-001,0.00000E+000,1.58292E-003,-5.03767E-002,1.00000E+000,9
759,1327,-9.86757E+000,-4.09920E-001,2.64141E-002,1.46972E+000,-3.46345E-001,7.61055E-002,1.51189E+000,6.15278E-003,5.34651E-001,0,2.26543E+001,-5.76752E+000,9.99667E-001,-2.12905E+001,-4.37785E+001,9.99488E-001,5.81041E-002,-2.41206E-002,-3.23966E-004,5.81054E-002,-2.41219E-002,-2.25741E-001,5.83837E-002,1.05983E+000,-5.79975E-004,0.00000E+000,-4.98420E-005,9.77882E-001,0.00000E+000,-8.67204E-004,-5.92902E-002,1.00000E+000,9
759,1337,-9.85285E+000,2.18325E-001,-8.10520E-003,1.47223E+000,-3.59494E-001,4.03391E-002,1.51602E+000,5.02686E-003,5.54216E-001,0,2.27996E+001,-5.89722E+000,9.99550E-001,-2.10192E+001,-4.40216E+001,9.99217E-001,5.78645E-002,-2.41255E-002,-4.52641E-004,5.78670E-002,-2.41280E-002,-3.16299E-001,5.81324E-002,1.05957E+000,-5.84782E-004,0.00000E+000,-2.57942E-004,9.77878E-001,0.00000E+000,-1.53922E-003,-5.93030E-002,1.00000E+000,9
759,1317,-9.87353E+000,-1.02626E+000,9.53430E-002,1.47079E+000,-3.27246E-001,1.19426E-001,1.51148E+000,9.18574E-003,5.74201E-001,0,2.25388E+001,-5.56064E+000,9.99723E-001,-2.13353E+001,-4.33965E+001,9.99209E-001,5.83415E-002,-2.41178E-002,-1.97194E-004,5.83419E-002,-2.41182E-002,-1.37017E-001,5.86329E-002,1.06008E+000,-5.77200E-004,0.00000E+000,1.56719E-004,9.77885E-001,0.00000E+000,-2.00155E-004,-5.92828E-002,1.00000E+000,9
749,1317,-1.05517E+001,-1.02946E+000,1.04811E-001,1.43494E+000,-3.27189E-001,1.17306E-001,1.47644E+000,7.54540E-003,5.94262E-001,0,2.20051E+001,-5.55479E+000,9.99667E-001,-2.17122E+001,-4.35487E+001,9.98814E-001,5.80099E-002,-2.40715E-002,-2.52534E-004,5.80106E-002,-2.40723E-002,-1.76276E-001,5.82896E-002,1.05973E+000,-1.13165E-004,0.00000E+000,-3.93496E-004,9.77879E-001,0.00000E+000,6.95282E-005,-5.83917E-002,1.00000E+000,9
749,1327,-1.05465E+001,-4.12706E-001,2.82477E-002,1.43477E+000,-3.45104E-001,7.44662E-002,1.47757E+000,5.34318E-003,5.74064E-001,0,2.21323E+001,-5.74459E+000,9.99562E-001,-2.16983E+001,-4.39002E+001,9.99157E-001,5.76962E-002,-2.40728E-002,-3.31767E-004,5.76975E-002,-2.40741E-002,-2.32465E-001,5.79603E-002,1.05939E+000,-1.16004E-004,0.00000E+000,-5.09445E-004,9.77878E-001,0.00000E+000,-5.67802E-004,-5.83972E-002,1.00000E+000,9
749,1337,-1.05350E+001,2.14315E-001,-6.04804E-003,1.43434E+000,-3.58440E-001,3.99738E-002,1.47899E+000,4.85452E-003,5.86252E-001,0,2.22277E+001,-5.88629E+000,9.99577E-001,-2.14761E+001,-4.41685E+001,9.99402E-001,5.73799E-002,-2.40756E-002,-4.13093E-004,5.73820E-002,-2.40777E-002,-2.90560E-001,5.76287E-002,1.05906E+000,-1.22190E-004,0.00000E+000,-6.26151E-004,9.77876E-001,0.00000E+000,-1.20929E-003,-5.84091E-002,1.00000E+000,9
749,1347,-1.05181E+001,8.44368E-001,-1.63760E-002,1.43481E+000,-3.71775E-001,5.56403E-003,1.48220E+000,4.98943E-003,5.37598E-001,0,2.23356E+001,-6.00683E+000,9.99665E-001,-2.11066E+001,-4.44742E+001,9.99451E-001,5.70622E-002,-2.40796E-002,-4.95777E-004,5.70652E-002,-2.40826E-002,-3.50060E-001,5.72961E-002,1.05872E+000,-1.30716E-004,0.00000E+000,-7.43212E-004,9.77873E-001,0.00000E+000,-1.85273E-003,-5.84254E-002,1.00000E+000,9
1109,1297,1.43884E+001,-1.84926E+000,9.74660E-002,2.91562E+000,-6.04118E-002,4.63279E-002,2.91661E+000,6.30713E-003,5.00011E-001,0,4.39600E+001,-1.40664E+000,9.99550E-001,3.21622E+000,-3.29984E+001,9.98229E-001,5.77992E-002,-2.42302E-002,-1.16535E-003,5.78157E-002,-2.42468E-002,-8.13752E-001,5.80657E-002,1.05935E+000,-1.82315E-002,0.00000E+000,1.43624E-002,9.77206E-001,0.00000E+000,2.72670E-003,-5.06612E-002,1.00000E+000,9
1109,1307,1.43840E+001,-1.22413E+000,2.37775E-002,2.90467E+000,-7.70828E-002,1.15376E-002,2.90572E+000,7.13402E-003,4.57798E-001,0,4.39277E+001,-1.58957E+000,9.99631E-001,3.09296E+000,-3.31751E+001,9.98917E-001,5.83152E-002,-2.42279E-002,-1.11446E-003,5.83302E-002,-2.42429E-002,-7.73391E-001,5.86065E-002,1.05990E+000,-1.82259E-002,0.00000E+000,1.44727E-002,9.77207E-001,0.00000E+000,2.22691E-003,-5.06664E-002,1.00000E+000,9
1109,1317,1.43825E+001,-5.96270E-001,-3.02129E-002,2.89277E+000,-9.36403E-002,-1.91324E-002,2.89435E+000,7.53843E-003,4.62583E-001,0,4.38638E+001,-1.79713E+000,9.99541E-001,3.04958E+000,-3.33286E+001,9.98734E-001,5.88321E-002,-2.42250E-002,-1.06195E-003,5.88457E-002,-2.42386E-002,-7.32413E-001,5.91494E-002,1.06045E+000,-1.82171E-002,0.00000E+000,1.45833E-002,9.77209E-001,0.00000E+000,1.72562E-003,-5.06745E-002,1.00000E+000,9
749,1357,-1.04936E+001,1.48113E+000,1.44938E-002,1.43539E+000,-3.85104E-001,-2.76806E-002,1.48641E+000,5.94255E-003,5.49044E-001,0,2.24395E+001,-6.15159E+000,9.99708E-001,-2.05094E+001,-4.47396E+001,9.99419E-001,5.67415E-002,-2.40854E-002,-5.80945E-004,5.67456E-002,-2.40896E-002,-4.11786E-001,5.69608E-002,1.05839E+000,-1.43193E-004,0.00000E+000,-8.61164E-004,9.77868E-001,0.00000E+000,-2.50108E-003,-5.84494E-002,1.00000E+000,9
1109,1327,1.43848E+001,3.34434E-002,-6.60154E-002,2.87990E+000,-1.11321E-001,-5.13699E-002,2.88251E+000,6.29784E-003,4.52281E-001,0,4.37895E+001,-2.01024E+000,9.99401E-001,3.09926E+000,-3.35013E+001,9.98660E-001,5.93502E-002,-2.42215E-002,-1.00744E-003,5.93623E-002,-2.42337E-002,-6.90556E-001,5.96947E-002,1.06099E+000,-1.82043E-002,0.00000E+000,1.46942E-002,9.77212E-001,0.00000E+000,1.22270E-003,-5.06862E-002,1.00000E+000,9
1109,1337,1.43934E+001,6.71891E-001,-7.89306E-002,2.86785E+000,-1.24628E-001,-8.25053E-002,2.87174E+000,6.93186E-003,4.77609E-001,0,4.37196E+001,-2.16012E+000,9.99608E-001,3.28683E+000,-3.35725E+001,9.99178E-001,5.98704E-002,-2.42173E-002,-9.50624E-004,5.98811E-002,-2.42281E-002,-6.47627E-001,6.02433E-002,1.06155E+000,-1.81871E-002,0.00000E+000,1.48057E-002,9.77215E-001,0.00000E+000,7.17159E-004,-5.07019E-002,1.00000E+000,9
1109,1347,1.44133E+001,1.31407E+000,-5.13671E-002,2.85775E+000,-1.39323E-001,-1.11759E-001,2.86333E+000,7.27140E-003,4.89318E-001,0,4.36688E+001,-2.34108E+000,9.99600E-001,3.72452E+000,-3.36845E+001,9.98942E-001,6.03926E-002,-2.42118E-002,-8.89935E-004,6.04019E-002,-2.42212E-002,-6.02593E-001,6.07953E-002,1.06210E+000,-1.81621E-002,0.00000E+000,1.49179E-002,9.77220E-001,0.00000E+000,2.08982E-004,-5.07248E-002,1.00000E+000,9
739,1337,-1.12161E+001,2.07148E-001,-4.54289E-003,1.39727E+000,-3.59847E-001,3.98071E-002,1.44341E+000,5.28928E-003,5.69097E-001,0,2.16679E+001,-5.89880E+000,9.99636E-001,-2.19142E+001,-4.43875E+001,9.99294E-001,5.68621E-002,-2.39231E-002,-4.62872E-004,5.68648E-002,-2.39257E-002,-3.28271E-001,5.71024E-002,1.05851E+000,2.66281E-004,0.00000E+000,-1.09602E-003,9.77984E-001,0.00000E+000,-9.60789E-004,-5.76904E-002,1.00000E+000,9
739,1347,-1.12012E+001,8.37662E-001,-1.53090E-002,1.39626E+000,-3.72398E-001,6.54176E-003,1.44508E+000,4.20923E-003,5.44066E-001,0,2.17487E+001,-6.01938E+000,9.99804E-001,-2.15741E+001,-4.46753E+001,9.99589E-001,5.64407E-002,-2.39269E-002,-5.47715E-004,5.64444E-002,-2.39307E-002,-3.90454E-001,5.66615E-002,1.05807E+000,2.55282E-004,0.00000E+000,-1.20957E-003,9.77981E-001,0.00000E+000,-1.71180E-003,-5.77089E-002,1.00000E+000,9
739,1357,-1.11774E+001,1.47499E+000,1.26386E-002,1.39661E+000,-3.84515E-001,-2.76658E-002,1.44884E+000,4.13701E-003,5.51181E-001,0,2.18510E+001,-6.14282E+000,9.99743E-001,-2.09948E+001,-4.49297E+001,9.99663E-001,5.60154E-002,-2.39326E-002,-6.35581E-004,5.60205E-002,-2.39376E-002,-4.55459E-001,5.62175E-002,1.05762E+000,2.39142E-004,0.00000E+000,-1.32393E-003,9.77977E-001,0.00000E+000,-2.46816E-003,-5.77362E-002,1.00000E+000,9
739,1327,-1.12282E+001,-4.17388E-001,3.11261E-002,1.39697E+000,-3.44001E-001,7.54896E-002,1.44068E+000,6.15037E-003,5.31281E-001,0,2.15578E+001,-5.71177E+000,9.99753E-001,-2.21417E+001,-4.40949E+001,9.99335E-001,5.72817E-002,-2.39203E-002,-3.79619E-004,5.72835E-002,-2.39221E-002,-2.67849E-001,5.75422E-002,1.05895E+000,2.74386E-004,0.00000E+000,-9.82769E-004,9.77986E-001,0.00000E+000,-2.11722E-004,-5.76767E-002,1.00000E+000,9
1119,1297,1.50830E+001,-1.83600E+000,8.55681E-002,2.95365E+000,-5.02762E-002,4.95873E-002,2.95450E+000,6.53254E-003,4.62029E-001,0,4.44869E+001,-1.24712E+000,9.99766E-001,3.99362E+000,-3.27009E+001,9.99129E-001,5.78285E-002,-2.40985E-002,-1.27322E-003,5.78483E-002,-2.41183E-002,-8.90141E-001,5.81139E-002,1.05940E+000,-1.76036E-002,0.00000E+000,1.35770E-002,9.77373E-001,0.00000E+000,2.65467E-003,-5.11852E-002,1.00000E+000,9
1119,1307,1.50804E+001,-1.21145E+000,1.62951E-002,2.94308E+000,-6.86467E-002,1.35673E-002,2.94391E+000,5.28896E-003,4.53513E-001,0,4.44657E+001,-1.46903E+000,9.99715E-001,3.90631E+000,-3.28773E+001,9.99587E-001,5.83578E-002,-2.40948E-002,-1.19854E-003,5.83752E-002,-2.41122E-002,-8.32627E-001,5.86686E-002,1.05995E+000,-1.75966E-002,0.00000E+000,1.37380E-002,9.77375E-001,0.00000E+000,2.05119E-003,-5.11928E-002,1.00000E+000,9
1119,1317,1.50811E+001,-5.83233E-001,-3.65252E-002,2.93251E+000,-8.50935E-002,-1.90696E-002,2.93381E+000,5.29476E-003,4.43939E-001,0,4.44297E+001,-1.67047E+000,9.99579E-001,3.89866E+000,-3.30329E+001,9.99569E-001,5.88873E-002,-2.40903E-002,-1.12249E-003,5.89025E-002,-2.41055E-002,-7.74887E-001,5.92251E-002,1.06051E+000,-1.75869E-002,0.00000E+000,1.38993E-002,9.77378E-001,0.00000E+000,1.44659E-003,-5.12033E-002,1.00000E+000,9
1119,1327,1.50846E+001,4.86671E-002,-6.87352E-002,2.91990E+000,-1.01028E-001,-5.07822E-002,2.92209E+000,5.11202E-003,4.23280E-001,0,4.43572E+001,-1.85649E+000,9.99577E-001,3.97163E+000,-3.31829E+001,9.99367E-001,5.94180E-002,-2.40849E-002,-1.04429E-003,5.94311E-002,-2.40980E-002,-7.16393E-001,5.97840E-002,1.06108E+000,-1.75731E-002,0.00000E+000,1.40612E-002,9.77382E-001,0.00000E+000,8.39835E-004,-5.12182E-002,1.00000E+000,9
1119,1337,1.50944E+001,6.85641E-001,-7.86495E-002,2.90832E+000,-1.16739E-001,-8.14866E-002,2.91181E+000,5.52062E-003,4.62360E-001,0,4.42942E+001,-2.04656E+000,9.99784E-001,4.18266E+000,-3.32749E+001,9.99100E-001,5.99513E-002,-2.40784E-002,-9.63596E-004,5.99623E-002,-2.40894E-002,-6.56915E-001,6.03470E-002,1.06164E+000,-1.75548E-002,0.00000E+000,1.42241E-002,9.77387E-001,0.00000E+000,2.29396E-004,-5.12379E-002,1.00000E+000,9
1119,1347,1.51126E+001,1.32746E+000,-5.46462E-002,2.89706E+000,-1.31127E-001,-1.11390E-001,2.90216E+000,7.67665E-003,4.67912E-001,0,4.42289E+001,-2.22564E+000,9.99792E-001,4.58540E+000,-3.33865E+001,9.99132E-001,6.04854E-002,-2.40702E-002,-8.79511E-004,6.04945E-002,-2.40794E-002,-5.95880E-001,6.09123E-002,1.06221E+000,-1.75298E-002,0.00000E+000,1.43875E-002,9.77394E-001,0.00000E+000,-3.82994E-004,-5.12650E-002,1.00000E+000,9
739,1317,-1.12323E+001,-1.03264E+000,1.06808E-001,1.39791E+000,-3.25324E-001,1.15944E-001,1.43994E+000,7.61059E-003,5.75399E-001,0,2.14500E+001,-5.51223E+000,9.99727E-001,-2.21405E+001,-4.37044E+001,9.99070E-001,5.76974E-002,-2.39191E-002,-2.99136E-004,5.76985E-002,-2.39202E-002,-2.09993E-001,5.79785E-002,1.05939E+000,2.77910E-004,0.00000E+000,-8.70372E-004,9.77987E-001,0.00000E+000,5.31674E-004,-5.76707E-002,1.00000E+000,9
1129,1297,1.57786E+001,-1.82119E+000,7.90160E-002,2.99108E+000,-3.91558E-002,5.33852E-002,2.99181E+000,8.57699E-003,4.49554E-001,0,4.50005E+001,-1.08824E+000,9.99816E-001,4.80013E+000,-3.23781E+001,9.98701E-001,5.77743E-002,-2.40265E-002,-1.36969E-003,5.77972E-002,-2.40494E-002,-9.59013E-001,5.80678E-002,1.05935E+000,-1.69470E-002,0.00000E+000,1.28165E-002,9.77469E-001,0.00000E+000,2.02720E-003,-5.14866E-002,1.00000E+000,9
1129,1307,1.57761E+001,-1.19931E+000,9.71156E-003,2.98032E+000,-6.03342E-002,1.66247E-002,2.98098E+000,1.19355E-002,4.33256E-001,0,4.49813E+001,-1.35106E+000,9.99790E-001,4.71335E+000,-3.25979E+001,9.97628E-001,5.83696E-002,-2.40214E-002,-1.27069E-003,5.83892E-002,-2.40410E-002,-8.83373E-001,5.86917E-002,1.05998E+000,-1.69389E-002,0.00000E+000,1.30239E-002,9.77472E-001,0.00000E+000,1.41691E-003,-5.14945E-002,1.00000E+000,9
1129,1317,1.57790E+001,-5.71797E-001,-4.32885E-002,2.97146E+000,-7.79028E-002,-1.77675E-002,2.97253E+000,7.16343E-003,4.13903E-001,0,4.49788E+001,-1.56206E+000,9.99782E-001,4.73889E+000,-3.27669E+001,9.97899E-001,5.89655E-002,-2.40155E-002,-1.16997E-003,5.89820E-002,-2.40320E-002,-8.07614E-001,5.93179E-002,1.06061E+000,-1.69275E-002,0.00000E+000,1.32317E-002,9.77476E-001,0.00000E+000,8.05260E-004,-5.15055E-002,1.00000E+000,9
729,1347,-1.18782E+001,8.30668E-001,-9.07385E-003,1.36214E+000,-3.74730E-001,6.56016E-003,1.41276E+000,3.93663E-003,5.46569E-001,0,2.12326E+001,-6.04716E+000,9.99850E-001,-2.19318E+001,-4.48935E+001,9.99752E-001,5.57965E-002,-2.36939E-002,-4.98640E-004,5.57996E-002,-2.36970E-002,-3.59395E-001,5.60103E-002,1.05738E+000,8.87316E-004,0.00000E+000,-1.70159E-003,9.78145E-001,0.00000E+000,-1.66008E-003,-5.65734E-002,1.00000E+000,9
729,1357,-1.18572E+001,1.46968E+000,1.15743E-002,1.36106E+000,-3.84218E-001,-2.88438E-002,1.41455E+000,3.97557E-003,5.62260E-001,0,2.13153E+001,-6.12823E+000,9.99765E-001,-2.14119E+001,-4.51037E+001,9.99782E-001,5.52232E-002,-2.36989E-002,-5.84270E-004,5.52276E-002,-2.37032E-002,-4.24137E-001,5.54119E-002,1.05678E+000,8.66817E-004,0.00000E+000,-1.79621E-003,9.78142E-001,0.00000E+000,-2.64369E-003,-5.66068E-002,1.00000E+000,9
1129,1327,1.57837E+001,6.16816E-002,-7.52504E-002,2.96051E+000,-9.16139E-002,-4.70208E-002,2.96230E+000,7.64664E-003,3.96594E-001,0,4.49221E+001,-1.72991E+000,9.99729E-001,4.83049E+000,-3.28894E+001,9.98918E-001,5.95619E-002,-2.40084E-002,-1.06733E-003,5.95755E-002,-2.40220E-002,-7.31600E-001,5.99464E-002,1.06124E+000,-1.69124E-002,0.00000E+000,1.34400E-002,9.77481E-001,0.00000E+000,1.92243E-004,-5.15202E-002,1.00000E+000,9
729,1337,-1.18973E+001,2.02698E-001,9.82407E-005,1.36002E+000,-3.58345E-001,4.44821E-002,1.40714E+000,4.78266E-003,5.52875E-001,0,2.10896E+001,-5.87655E+000,9.99771E-001,-2.23405E+001,-4.45711E+001,9.99423E-001,5.63659E-002,-2.36901E-002,-4.15624E-004,5.63680E-002,-2.36923E-002,-2.97450E-001,5.66061E-002,1.05798E+000,9.03098E-004,0.00000E+000,-1.60740E-003,9.78147E-001,0.00000E+000,-6.80908E-004,-5.65477E-002,1.00000E+000,9
729,1327,-1.19089E+001,-4.19955E-001,3.95114E-002,1.35919E+000,-3.42568E-001,7.93093E-002,1.40393E+000,5.38464E-003,5.50890E-001,0,2.09742E+001,-5.69006E+000,9.99737E-001,-2.25514E+001,-4.42378E+001,9.99251E-001,5.69300E-002,-2.36878E-002,-3.35886E-004,5.69314E-002,-2.36892E-002,-2.38711E-001,5.71980E-002,1.05858E+000,9.13095E-004,0.00000E+000,-1.51386E-003,9.78149E-001,0.00000E+000,2.91543E-004,-5.65314E-002,1.00000E+000,9
1129,1337,1.58014E+001,7.02676E-001,-6.70956E-002,2.95082E+000,-1.08248E-001,-8.31900E-002,2.95398E+000,7.01832E-003,4.80361E-001,0,4.49068E+001,-1.92515E+000,9.99753E-001,5.19485E+000,-3.29343E+001,9.99261E-001,6.01652E-002,-2.39981E-002,-9.58255E-004,6.01761E-002,-2.40090E-002,-6.52238E-001,6.05841E-002,1.06188E+000,-1.68861E-002,0.00000E+000,1.36510E-002,9.77489E-001,0.00000E+000,-4.28794E-004,-5.15456E-002,1.00000E+000,9
729,1317,-1.19159E+001,-1.03739E+000,1.04641E-001,1.35863E+000,-3.24551E-001,1.16802E-001,1.40173E+000,7.04278E-003,5.59196E-001,0,2.08533E+001,-5.48621E+000,9.99699E-001,-2.26225E+001,-4.38748E+001,9.98785E-001,5.74912E-002,-2.36864E-002,-2.58262E-004,5.74921E-002,-2.36872E-002,-1.82281E-001,5.77881E-002,1.05918E+000,9.19124E-004,0.00000E+000,-1.42059E-003,9.78150E-001,0.00000E+000,1.26105E-003,-5.65216E-002,1.00000E+000,9
1129,1347,1.58153E+001,1.34462E+000,-5.61589E-002,2.93787E+000,-1.21210E-001,-1.14558E-001,2.94260E+000,8.22653E-003,4.89678E-001,0,4.48229E+001,-2.07848E+000,9.99734E-001,5.50478E+000,-3.30120E+001,9.99051E-001,6.07653E-002,-2.39879E-002,-8.49879E-004,6.07738E-002,-2.39964E-002,-5.74468E-001,6.12201E-002,1.06252E+000,-1.68604E-002,0.00000E+000,1.38612E-002,9.77498E-001,0.00000E+000,-1.04733E-003,-5.15706E-002,1.00000E+000,9
719,1347,-1.25602E+001,8.28553E-001,-1.12587E-002,1.32407E+000,-3.70706E-001,5.87048E-003,1.37500E+000,6.48241E-003,5.73259E-001,0,2.06552E+001,-5.99145E+000,9.99703E-001,-2.23832E+001,-4.50070E+001,9.99485E-001,5.53758E-002,-2.35642E-002,-4.93602E-004,5.53789E-002,-2.35673E-002,-3.58244E-001,5.55831E-002,1.05694E+000,1.55310E-003,0.00000E+000,-2.31691E-003,9.78209E-001,0.00000E+000,-1.50356E-003,-5.54601E-002,1.00000E+000,9
719,1357,-1.25391E+001,1.46394E+000,1.06483E-002,1.32350E+000,-3.84111E-001,-2.74376E-002,1.37838E+000,4.96453E-003,5.90201E-001,0,2.07401E+001,-6.12911E+000,9.99708E-001,-2.18564E+001,-4.52768E+001,9.99655E-001,5.46832E-002,-2.35679E-002,-5.62164E-004,5.46872E-002,-2.35719E-002,-4.11591E-001,5.48603E-002,1.05621E+000,1.52876E-003,0.00000E+000,-2.36792E-003,9.78208E-001,0.00000E+000,-2.63970E-003,-5.54980E-002,1.00000E+000,9
719,1337,-1.25781E+001,2.00320E-001,-5.15028E-005,1.32223E+000,-3.55796E-001,4.15702E-002,1.36989E+000,6.34726E-003,5.82227E-001,0,2.05239E+001,-5.83459E+000,9.99534E-001,-2.27689E+001,-4.46898E+001,9.99161E-001,5.60622E-002,-2.35616E-002,-4.28483E-004,5.60645E-002,-2.35639E-002,-3.08316E-001,5.63014E-002,1.05766E+000,1.57107E-003,0.00000E+000,-2.26623E-003,9.78211E-001,0.00000E+000,-3.74917E-004,-5.54321E-002,1.00000E+000,9
719,1327,-1.25893E+001,-4.22073E-001,4.30757E-002,1.32138E+000,-3.40299E-001,7.84563E-002,1.36675E+000,4.51238E-003,5.83742E-001,0,2.04029E+001,-5.65756E+000,9.99577E-001,-2.29644E+001,-4.43569E+001,9.99170E-001,5.67427E-002,-2.35600E-002,-3.66747E-004,5.67444E-002,-2.35617E-002,-2.61666E-001,5.70156E-002,1.05838E+000,1.58267E-003,0.00000E+000,-2.21585E-003,9.78212E-001,0.00000E+000,7.46918E-004,-5.54140E-002,1.00000E+000,9
719,1317,-1.25960E+001,-1.03963E+000,1.13794E-001,1.31995E+000,-3.22944E-001,1.15765E-001,1.36380E+000,6.26170E-003,5.59585E-001,0,2.02699E+001,-5.45478E+000,9.99610E-001,-2.30162E+001,-4.40219E+001,9.98806E-001,5.74196E-002,-2.35593E-002,-3.07815E-004,5.74207E-002,-2.35604E-002,-2.17787E-001,5.77278E-002,1.05910E+000,1.58868E-003,0.00000E+000,-2.16562E-003,9.78212E-001,0.00000E+000,1.86566E-003,-5.54047E-002,1.00000E+000,9
1139,1297,1.64813E+001,-1.81015E+000,7.92988E-002,3.03371E+000,-3.14683E-002,5.81784E-002,3.03443E+000,6.47725E-003,3.93890E-001,0,4.55885E+001,-9.81718E-001,9.99896E-001,5.73207E+000,-3.21489E+001,9.98757E-001,5.77977E-002,-2.40440E-002,-1.38544E-003,5.78212E-002,-2.40674E-002,-9.69548E-001,5.80910E-002,1.05938E+000,-1.62664E-002,0.00000E+000,1.21989E-002,9.77480E-001,0.00000E+000,1.21321E-003,-5.18627E-002,1.00000E+000,9
1139,1307,1.64775E+001,-1.18973E+000,1.72513E-003,3.02278E+000,-5.41575E-002,1.78882E-002,3.02332E+000,7.46826E-003,3.82989E-001,0,4.55821E+001,-1.25558E+000,9.99863E-001,5.61100E+000,-3.23695E+001,9.98717E-001,5.84619E-002,-2.40394E-002,-1.28706E-003,5.84820E-002,-2.40595E-002,-8.93555E-001,5.87873E-002,1.06008E+000,-1.62585E-002,0.00000E+000,1.24027E-002,9.77482E-001,0.00000E+000,6.43959E-004,-5.18691E-002,1.00000E+000,9
1139,1337,1.65016E+001,7.20290E-001,-7.00951E-002,2.98980E+000,-9.65630E-002,-8.41810E-002,2.99254E+000,7.99953E-003,5.01411E-001,0,4.54629E+001,-1.76344E+000,9.99703E-001,6.07882E+000,-3.25520E+001,9.98431E-001,6.04672E-002,-2.40160E-002,-9.71975E-004,6.04784E-002,-2.40271E-002,-6.59069E-001,6.09023E-002,1.06221E+000,-1.61971E-002,0.00000E+000,1.30197E-002,9.77500E-001,0.00000E+000,-1.07913E-003,-5.19188E-002,1.00000E+000,9
1139,1347,1.65233E+001,1.36224E+000,-3.93801E-002,2.98038E+000,-1.12675E-001,-1.12250E-001,2.98462E+000,8.16937E-003,4.96276E-001,0,4.54200E+001,-1.95868E+000,9.99641E-001,6.54306E+000,-3.26785E+001,9.98180E-001,6.11393E-002,-2.40048E-002,-8.60244E-004,6.11480E-002,-2.40135E-002,-5.78803E-001,6.16154E-002,1.06293E+000,-1.61638E-002,0.00000E+000,1.32270E-002,9.77509E-001,0.00000E+000,-1.65816E-003,-5.19458E-002,1.00000E+000,9
1139,1327,1.64862E+001,7.66086E-002,-7.85678E-002,3.00182E+000,-8.41511E-002,-4.91734E-002,3.00340E+000,8.03367E-003,4.55404E-001,0,4.55187E+001,-1.62410E+000,9.99734E-001,5.75264E+000,-3.25304E+001,9.98277E-001,5.97957E-002,-2.40261E-002,-1.08168E-003,5.98096E-002,-2.40400E-002,-7.39209E-001,6.01918E-002,1.06150E+000,-1.62264E-002,0.00000E+000,1.28128E-002,9.77491E-001,0.00000E+000,-5.01294E-004,-5.18951E-002,1.00000E+000,9
1139,1317,1.64756E+001,-5.60867E-001,-5.73685E-002,3.01016E+000,-7.06953E-002,-1.81439E-002,3.01104E+000,8.98250E-003,4.22323E-001,0,4.55299E+001,-1.46474E+000,9.99810E-001,5.55135E+000,-3.24740E+001,9.98345E-001,5.91271E-002,-2.40339E-002,-1.18670E-003,5.91440E-002,-2.40508E-002,-8.17386E-001,5.94866E-002,1.06079E+000,-1.62468E-002,0.00000E+000,1.26071E-002,9.77485E-001,0.00000E+000,7.31853E-005,-5.18786E-002,1.00000E+000,9
709,1347,-1.32435E+001,8.26682E-001,-1.06163E-002,1.28440E+000,-3.66352E-001,8.36803E-003,1.33565E+000,6.05012E-003,5.80874E-001,0,2.00429E+001,-5.92856E+000,9.99646E-001,-2.28420E+001,-4.51328E+001,9.99447E-001,5.49674E-002,-2.31993E-002,-5.25851E-004,5.49709E-002,-2.32029E-002,-3.85423E-001,5.51929E-002,1.05651E+000,2.30556E-003,0.00000E+000,-3.08055E-003,9.78521E-001,0.00000E+000,-1.44638E-003,-5.46463E-002,1.00000E+000,9
709,1357,-1.32217E+001,1.46096E+000,8.88245E-003,1.28521E+000,-3.79300E-001,-2.43105E-002,1.34023E+000,4.78222E-003,5.74945E-001,0,2.01469E+001,-6.06292E+000,9.99753E-001,-2.23105E+001,-4.54273E+001,9.99733E-001,5.41935E-002,-2.32021E-002,-5.84228E-004,5.41979E-002,-2.32065E-002,-4.32470E-001,5.43839E-002,1.05569E+000,2.27934E-003,0.00000E+000,-3.11066E-003,9.78520E-001,0.00000E+000,-2.59761E-003,-5.46833E-002,1.00000E+000,9
709,1337,-1.32574E+001,1.96970E-001,4.15723E-003,1.28498E+000,-3.54250E-001,3.96297E-002,1.33350E+000,5.63125E-003,5.73420E-001,0,1.99629E+001,-5.79854E+000,9.99540E-001,-2.31575E+001,-4.48520E+001,9.99248E-001,5.57348E-002,-2.31975E-002,-4.71663E-004,5.57376E-002,-2.32003E-002,-3.42357E-001,5.59976E-002,1.05731E+000,2.32361E-003,0.00000E+000,-3.05062E-003,9.78521E-001,0.00000E+000,-3.01941E-004,-5.46208E-002,1.00000E+000,9
709,1317,-1.32717E+001,-1.03924E+000,1.30337E-001,1.28454E+000,-3.19668E-001,1.17605E-001,1.32893E+000,7.28388E-003,5.89677E-001,0,1.97273E+001,-5.41451E+000,9.99693E-001,-2.33163E+001,-4.41292E+001,9.99119E-001,5.72529E-002,-2.31960E-002,-3.72791E-004,5.72546E-002,-2.31977E-002,-2.65495E-001,5.75969E-002,1.05892E+000,2.34113E-003,0.00000E+000,-2.99119E-003,9.78522E-001,0.00000E+000,1.97055E-003,-5.45960E-002,1.00000E+000,9
709,1327,-1.32648E+001,-4.22319E-001,6.07067E-002,1.28568E+000,-3.37260E-001,7.86423E-002,1.33150E+000,7.67192E-003,6.09809E-001,0,1.98597E+001,-5.62442E+000,9.99688E-001,-2.32595E+001,-4.44804E+001,9.99202E-001,5.64955E-002,-2.31966E-002,-4.21475E-004,5.64977E-002,-2.31988E-002,-3.03014E-001,5.67978E-002,1.05812E+000,2.33386E-003,0.00000E+000,-3.02088E-003,9.78522E-001,0.00000E+000,8.35351E-004,-5.46063E-002,1.00000E+000,9
1149,1297,1.71770E+001,-1.79946E+000,6.11224E-002,3.07083E+000,-2.55208E-002,5.24607E-002,3.07138E+000,1.29513E-002,4.05380E-001,0,4.61339E+001,-8.74061E-001,9.99727E-001,6.52706E+000,-3.18534E+001,9.97328E-001,5.78707E-002,-2.40732E-002,-1.38373E-003,5.78941E-002,-2.40966E-002,-9.67143E-001,5.81643E-002,1.05947E+000,-1.56114E-002,0.00000E+000,1.16473E-002,9.77480E-001,0.00000E+000,2.30172E-004,-5.22915E-002,1.00000E+000,9
1149,1307,1.71795E+001,-1.17205E+000,-1.54094E-003,3.06486E+000,-4.12123E-002,2.20695E-002,3.06522E+000,8.27393E-003,4.04857E-001,0,4.61620E+001,-1.08176E+000,9.99799E-001,6.52967E+000,-3.19897E+001,9.98448E-001,5.85994E-002,-2.40696E-002,-1.30696E-003,5.86201E-002,-2.40903E-002,-9.05521E-001,5.89291E-002,1.06024E+000,-1.56011E-002,0.00000E+000,1.18019E-002,9.77482E-001,0.00000E+000,-2.47696E-004,-5.22978E-002,1.00000E+000,9
1149,1317,1.71814E+001,-5.43071E-001,-5.15977E-002,3.05380E+000,-5.93679E-002,-1.35680E-002,3.05441E+000,7.12907E-003,4.32567E-001,0,4.61325E+001,-1.30739E+000,9.99776E-001,6.54469E+000,-3.21158E+001,9.98538E-001,5.93311E-002,-2.40651E-002,-1.22738E-003,5.93491E-002,-2.40832E-002,-8.43007E-001,5.96993E-002,1.06101E+000,-1.55856E-002,0.00000E+000,1.19572E-002,9.77485E-001,0.00000E+000,-7.28032E-004,-5.23074E-002,1.00000E+000,9
1149,1327,1.71870E+001,9.08275E-002,-8.62539E-002,3.04200E+000,-7.35090E-002,-5.15747E-002,3.04332E+000,6.97845E-003,4.11236E-001,0,4.60973E+001,-1.46859E+000,9.99728E-001,6.64369E+000,-3.22246E+001,9.98414E-001,6.00621E-002,-2.40597E-002,-1.14541E-003,6.00777E-002,-2.40753E-002,-7.79948E-001,6.04711E-002,1.06179E+000,-1.55650E-002,0.00000E+000,1.21125E-002,9.77490E-001,0.00000E+000,-1.20852E-003,-5.23202E-002,1.00000E+000,9
1149,1337,1.72004E+001,7.32227E-001,-7.89889E-002,3.02949E+000,-8.95486E-002,-8.10856E-002,3.03190E+000,1.09043E-002,4.94847E-001,0,4.60162E+001,-1.66247E+000,9.99791E-001,6.93570E+000,-3.22586E+001,9.98567E-001,6.08014E-002,-2.40525E-002,-1.05791E-003,6.08146E-002,-2.40657E-002,-7.14183E-001,6.12538E-002,1.06258E+000,-1.55345E-002,0.00000E+000,1.22698E-002,9.77496E-001,0.00000E+000,-1.69501E-003,-5.23391E-002,1.00000E+000,9
1149,1347,1.72289E+001,1.37847E+000,-3.50462E-002,3.02282E+000,-1.04514E-001,-1.11030E-001,3.02667E+000,1.10568E-002,4.93267E-001,0,4.60203E+001,-1.82793E+000,9.99741E-001,7.52583E+000,-3.23441E+001,9.98370E-001,6.15423E-002,-2.40435E-002,-9.65156E-004,6.15532E-002,-2.40544E-002,-6.46018E-001,6.20407E-002,1.06336E+000,-1.54931E-002,0.00000E+000,1.24277E-002,9.77504E-001,0.00000E+000,-2.18321E-003,-5.23647E-002,1.00000E+000,9
699,1347,-1.39181E+001,8.24857E-001,-5.17508E-004,1.25157E+000,-3.64412E-001,1.25825E-002,1.30360E+000,5.61485E-003,6.13228E-001,0,1.95315E+001,-5.90042E+000,9.99789E-001,-2.31377E+001,-4.52652E+001,9.99627E-001,5.45036E-002,-2.27437E-002,-4.75543E-004,5.45065E-002,-2.27467E-002,-3.52701E-001,5.47544E-002,1.05601E+000,3.19931E-003,0.00000E+000,-3.81614E-003,9.78914E-001,0.00000E+000,-1.36766E-003,-5.37064E-002,1.00000E+000,9
699,1357,-1.38983E+001,1.45516E+000,1.61978E-002,1.25091E+000,-3.80854E-001,-2.11431E-002,1.30777E+000,5.01470E-003,6.01298E-001,0,1.96161E+001,-6.08397E+000,9.99786E-001,-2.26431E+001,-4.56200E+001,9.99655E-001,5.36587E-002,-2.27429E-002,-4.71685E-004,5.36616E-002,-2.27458E-002,-3.53712E-001,5.38685E-002,1.05512E+000,3.17140E-003,0.00000E+000,-3.73061E-003,9.78917E-001,0.00000E+000,-2.40861E-003,-5.37391E-002,1.00000E+000,9
699,1337,-1.39363E+001,1.92794E-001,1.20190E-002,1.24783E+000,-3.53500E-001,4.26298E-002,1.29764E+000,4.87039E-003,5.77164E-001,0,1.93890E+001,-5.79019E+000,9.99744E-001,-2.35280E+001,-4.50286E+001,9.99426E-001,5.53437E-002,-2.27443E-002,-4.83219E-004,5.53467E-002,-2.27473E-002,-3.54536E-001,5.56382E-002,1.05690E+000,3.21911E-003,0.00000E+000,-3.90136E-003,9.78912E-001,0.00000E+000,-3.30419E-004,-5.36833E-002,1.00000E+000,9
699,1317,-1.39505E+001,-1.03770E+000,1.45481E-001,1.24514E+000,-3.16286E-001,1.15839E-001,1.28989E+000,8.62052E-003,6.31766E-001,0,1.91323E+001,-5.35872E+000,9.99714E-001,-2.36640E+001,-4.42103E+001,9.98860E-001,5.70003E-002,-2.27447E-002,-5.09438E-004,5.70036E-002,-2.27479E-002,-3.66005E-001,5.73894E-002,1.05865E+000,3.23501E-003,0.00000E+000,-4.06996E-003,9.78911E-001,0.00000E+000,1.72151E-003,-5.36647E-002,1.00000E+000,9
699,1327,-1.39448E+001,-4.20963E-001,6.70814E-002,1.24679E+000,-3.34070E-001,7.72316E-002,1.29308E+000,7.23912E-003,6.92967E-001,0,1.92713E+001,-5.56977E+000,9.99719E-001,-2.36498E+001,-4.45273E+001,9.98175E-001,5.61714E-002,-2.27446E-002,-4.95202E-004,5.61746E-002,-2.27477E-002,-3.59515E-001,5.65119E-002,1.05777E+000,3.22938E-003,0.00000E+000,-3.98551E-003,9.78911E-001,0.00000E+000,6.93770E-004,-5.36712E-002,1.00000E+000,9
1159,1307,1.78756E+001,-1.16214E+000,-2.02631E-002,3.10186E+000,-3.53979E-002,1.56756E-002,3.10210E+000,7.39940E-003,3.94099E-001,0,4.67082E+001,-9.77650E-001,9.99480E-001,7.33413E+000,-3.17144E+001,9.98523E-001,5.88168E-002,-2.42033E-002,-1.27620E-003,5.88364E-002,-2.42229E-002,-8.80485E-001,5.91415E-002,1.06048E+000,-1.49354E-002,0.00000E+000,1.12988E-002,9.77380E-001,0.00000E+000,-1.29102E-003,-5.27186E-002,1.00000E+000,9
1159,1317,1.78806E+001,-5.29214E-001,-6.84081E-002,3.09373E+000,-5.04414E-002,-1.81469E-002,3.09419E+000,7.15311E-003,4.31573E-001,0,4.67154E+001,-1.15545E+000,9.99609E-001,7.40005E+000,-3.17762E+001,9.99190E-001,5.96044E-002,-2.42014E-002,-1.23527E-003,5.96226E-002,-2.42197E-002,-8.44274E-001,5.99712E-002,1.06131E+000,-1.49186E-002,0.00000E+000,1.13756E-002,9.77381E-001,0.00000E+000,-1.74087E-003,-5.27277E-002,1.00000E+000,9
1159,1327,1.78915E+001,1.05334E-001,-8.73892E-002,3.08465E+000,-6.66477E-002,-4.98332E-002,3.08577E+000,5.32952E-003,4.12997E-001,0,4.66976E+001,-1.34666E+000,9.99784E-001,7.60622E+000,-3.19055E+001,9.99290E-001,6.03933E-002,-2.41990E-002,-1.19027E-003,6.04100E-002,-2.42158E-002,-8.05979E-001,6.08046E-002,1.06215E+000,-1.48932E-002,0.00000E+000,1.14527E-002,9.77384E-001,0.00000E+000,-2.19193E-003,-5.27414E-002,1.00000E+000,9
1159,1297,1.78739E+001,-1.78825E+000,4.32858E-002,3.10938E+000,-1.84597E-002,4.99719E-002,3.10984E+000,9.24598E-003,4.55345E-001,0,4.66876E+001,-7.78516E-001,9.99548E-001,7.34452E+000,-3.15313E+001,9.96641E-001,5.80336E-002,-2.42048E-002,-1.31467E-003,5.80546E-002,-2.42258E-002,-9.15624E-001,5.83187E-002,1.05965E+000,-1.49475E-002,0.00000E+000,1.12226E-002,9.77379E-001,0.00000E+000,-8.44201E-004,-5.27122E-002,1.00000E+000,9
1159,1337,1.79133E+001,7.46464E-001,-7.00593E-002,3.07696E+000,-8.34458E-002,-8.31709E-002,3.07922E+000,8.39135E-003,4.59031E-001,0,4.67032E+001,-1.55352E+000,9.99878E-001,8.04503E+000,-3.19821E+001,9.99532E-001,6.11881E-002,-2.41958E-002,-1.13935E-003,6.12033E-002,-2.42110E-002,-7.64368E-001,6.16466E-002,1.06300E+000,-1.48557E-002,0.00000E+000,1.15303E-002,9.77387E-001,0.00000E+000,-2.64698E-003,-5.27616E-002,1.00000E+000,9
1159,1347,1.79356E+001,1.39110E+000,-3.95958E-002,3.06658E+000,-9.71670E-002,-1.15785E-001,3.07031E+000,8.41127E-003,4.52686E-001,0,4.66629E+001,-1.71423E+000,9.99759E-001,8.51248E+000,-3.20641E+001,9.99233E-001,6.19820E-002,-2.41923E-002,-1.08667E-003,6.19957E-002,-2.42060E-002,-7.22358E-001,6.24898E-002,1.06384E+000,-1.48143E-002,0.00000E+000,1.16080E-002,9.77391E-001,0.00000E+000,-3.10199E-003,-5.27838E-002,1.00000E+000,9
689,1347,-1.45947E+001,8.20493E-001,4.01125E-003,1.21590E+000,-3.65125E-001,8.72711E-003,1.26957E+000,6.07465E-003,6.22373E-001,0,1.89992E+001,-5.88740E+000,9.99840E-001,-2.34751E+001,-4.54365E+001,9.99273E-001,5.40263E-002,-2.25385E-002,-4.75566E-004,5.40292E-002,-2.25415E-002,-3.55862E-001,5.42756E-002,1.05551E+000,4.06464E-003,0.00000E+000,-4.62311E-003,9.79071E-001,0.00000E+000,-1.30642E-003,-5.29342E-002,1.00000E+000,9
689,1357,-1.45771E+001,1.44940E+000,1.06073E-002,1.21535E+000,-3.80469E-001,-2.33582E-002,1.27372E+000,5.82620E-003,5.85202E-001,0,1.90804E+001,-6.05307E+000,9.99719E-001,-2.30408E+001,-4.58050E+001,9.99626E-001,5.31072E-002,-2.25378E-002,-4.71175E-004,5.31101E-002,-2.25407E-002,-3.56863E-001,5.33121E-002,1.05454E+000,4.03763E-003,0.00000E+000,-4.54599E-003,9.79074E-001,0.00000E+000,-2.21394E-003,-5.29595E-002,1.00000E+000,9
689,1337,-1.46124E+001,1.93800E-001,2.10063E-002,1.21356E+000,-3.47425E-001,4.85386E-002,1.26324E+000,6.71172E-003,5.94441E-001,0,1.88495E+001,-5.71077E+000,9.99745E-001,-2.38447E+001,-4.51209E+001,9.99533E-001,5.49449E-002,-2.25391E-002,-4.81979E-004,5.49479E-002,-2.25421E-002,-3.56382E-001,5.52423E-002,1.05647E+000,4.08751E-003,0.00000E+000,-4.70033E-003,9.79070E-001,0.00000E+000,-3.97654E-004,-5.29127E-002,1.00000E+000,9
1169,1327,1.85918E+001,1.18538E-001,-9.54152E-002,3.12328E+000,-5.90768E-002,-5.28424E-002,3.12429E+000,5.18435E-003,4.24584E-001,0,4.72546E+001,-1.23425E+000,9.99851E-001,8.49621E+000,-3.15872E+001,9.99507E-001,6.06476E-002,-2.43375E-002,-1.14181E-003,6.06630E-002,-2.43528E-002,-7.69610E-001,6.10545E-002,1.06244E+000,-1.41401E-002,0.00000E+000,1.09054E-002,9.77266E-001,0.00000E+000,-3.23088E-003,-5.29644E-002,1.00000E+000,9
1169,1337,1.86174E+001,7.61801E-001,-6.91741E-002,3.11730E+000,-7.40651E-002,-8.46994E-002,3.11933E+000,7.38997E-003,4.31164E-001,0,4.72792E+001,-1.41275E+000,9.99869E-001,9.00672E+000,-3.16681E+001,9.99477E-001,6.14618E-002,-2.43373E-002,-1.11607E-003,6.14763E-002,-2.43518E-002,-7.45132E-001,6.19171E-002,1.06330E+000,-1.40989E-002,0.00000E+000,1.09259E-002,9.77267E-001,0.00000E+000,-3.58909E-003,-5.29814E-002,1.00000E+000,9
1169,1347,1.86436E+001,1.40548E+000,-3.33981E-002,3.10874E+000,-9.03983E-002,-1.19488E-001,3.11235E+000,6.27388E-003,4.30721E-001,0,4.72756E+001,-1.60755E+000,9.99783E-001,9.54200E+000,-3.17719E+001,9.99410E-001,6.22768E-002,-2.43371E-002,-1.08845E-003,6.22905E-002,-2.43508E-002,-7.19869E-001,6.27826E-002,1.06417E+000,-1.40537E-002,0.00000E+000,1.09465E-002,9.77268E-001,0.00000E+000,-3.94802E-003,-5.30000E-002,1.00000E+000,9
689,1327,-1.46283E+001,-4.27075E-001,5.46513E-002,1.20723E+000,-3.32226E-001,7.39852E-002,1.25430E+000,7.56854E-003,6.44920E-001,0,1.86780E+001,-5.52309E+000,9.99607E-001,-2.41412E+001,-4.47148E+001,9.98859E-001,5.58521E-002,-2.25394E-002,-4.92218E-004,5.58552E-002,-2.25425E-002,-3.59739E-001,5.62003E-002,1.05743E+000,4.10194E-003,0.00000E+000,-4.77673E-003,9.79068E-001,0.00000E+000,5.01415E-004,-5.28992E-002,1.00000E+000,9
1169,1317,1.85796E+001,-5.20339E-001,-7.26417E-002,3.13082E+000,-4.48103E-002,-1.91613E-002,3.13120E+000,8.22432E-003,3.51132E-001,0,4.72414E+001,-1.06829E+000,9.99769E-001,8.27745E+000,-3.15811E+001,9.99486E-001,5.98367E-002,-2.43376E-002,-1.16034E-003,5.98527E-002,-2.43536E-002,-7.89623E-001,6.01976E-002,1.06157E+000,-1.41658E-002,0.00000E+000,1.08850E-002,9.77266E-001,0.00000E+000,-2.87453E-003,-5.29537E-002,1.00000E+000,9
1169,1307,1.85737E+001,-1.15198E+000,-3.21686E-002,3.13954E+000,-3.10425E-002,1.28509E-002,3.13972E+000,7.38078E-003,4.26041E-001,0,4.72504E+001,-9.06125E-001,9.99759E-001,8.18488E+000,-3.14285E+001,9.99175E-001,5.90337E-002,-2.43377E-002,-1.17577E-003,5.90502E-002,-2.43543E-002,-8.07814E-001,5.93513E-002,1.06072E+000,-1.41850E-002,0.00000E+000,1.08648E-002,9.77265E-001,0.00000E+000,-2.52202E-003,-5.29458E-002,1.00000E+000,9
1169,1297,1.85751E+001,-1.77656E+000,3.93714E-002,3.14938E+000,-1.15247E-002,5.13901E-002,3.14982E+000,7.52605E-003,4.68328E-001,0,4.72460E+001,-6.87960E-001,9.99760E-001,8.25808E+000,-3.12495E+001,9.97849E-001,5.82303E-002,-2.43378E-002,-1.18747E-003,5.82474E-002,-2.43549E-002,-8.23785E-001,5.85071E-002,1.05987E+000,-1.41963E-002,0.00000E+000,1.08446E-002,9.77265E-001,0.00000E+000,-2.16974E-003,-5.29411E-002,1.00000E+000,9
689,1317,-1.46347E+001,-1.04202E+000,1.33559E-001,1.20469E+000,-3.14454E-001,1.12402E-001,1.25012E+000,7.89245E-003,6.17451E-001,0,1.85266E+001,-5.30594E+000,9.99667E-001,-2.41639E+001,-4.43529E+001,9.98539E-001,5.67550E-002,-2.25395E-002,-5.06476E-004,5.67582E-002,-2.25427E-002,-3.65944E-001,5.71569E-002,1.05839E+000,4.10776E-003,0.00000E+000,-4.85292E-003,9.79068E-001,0.00000E+000,1.39787E-003,-5.28937E-002,1.00000E+000,9
679,1347,-1.52757E+001,8.12815E-001,3.62777E-004,1.17726E+000,-3.64372E-001,6.60591E-003,1.23238E+000,1.31886E-002,5.82093E-001,0,1.84146E+001,-5.88214E+000,9.99398E-001,-2.38994E+001,-4.56662E+001,9.98285E-001,5.35286E-002,-2.23861E-002,-5.24114E-004,5.35323E-002,-2.23897E-002,-3.95544E-001,5.37703E-002,1.05498E+000,4.92739E-003,0.00000E+000,-5.52291E-003,9.79179E-001,0.00000E+000,-1.25637E-003,-5.22081E-002,1.00000E+000,9
679,1357,-1.52545E+001,1.44492E+000,4.93865E-003,1.18200E+000,-3.77625E-001,-1.93008E-002,1.24101E+000,4.47295E-003,6.00457E-001,0,1.85601E+001,-6.01845E+000,9.99736E-001,-2.34120E+001,-4.59545E+001,9.99616E-001,5.24998E-002,-2.23871E-002,-5.58326E-004,5.25040E-002,-2.23912E-002,-4.27142E-001,5.26929E-002,1.05389E+000,4.89982E-003,0.00000E+000,-5.52573E-003,9.79179E-001,0.00000E+000,-2.10423E-003,-5.22296E-002,1.00000E+000,9
1179,1297,1.92696E+001,-1.76893E+000,1.64028E-002,3.18674E+000,-6.28789E-003,5.18771E-002,3.18717E+000,1.35914E-002,4.97257E-001,0,4.77699E+001,-6.26382E-001,9.99844E-001,9.03772E+000,-3.09831E+001,9.97850E-001,5.84075E-002,-2.44334E-002,-1.06616E-003,5.84212E-002,-2.44471E-002,-7.37236E-001,5.86795E-002,1.06007E+000,-1.34915E-002,0.00000E+000,1.04966E-002,9.77188E-001,0.00000E+000,-3.44063E-003,-5.31674E-002,1.00000E+000,9
1179,1307,1.92737E+001,-1.14498E+000,-4.60797E-002,3.17984E+000,-2.57510E-002,1.25086E-002,3.17997E+000,5.61559E-003,3.82205E-001,0,4.78216E+001,-8.41803E-001,9.99882E-001,9.06492E+000,-3.12249E+001,9.98948E-001,5.92071E-002,-2.44332E-002,-1.05210E-003,5.92203E-002,-2.44464E-002,-7.20564E-001,5.95197E-002,1.06092E+000,-1.34770E-002,0.00000E+000,1.05124E-002,9.77188E-001,0.00000E+000,-3.66386E-003,-5.31712E-002,1.00000E+000,9
1179,1317,1.92780E+001,-5.12123E-001,-1.03413E-001,3.17417E+000,-3.73713E-002,-1.76787E-002,3.17444E+000,1.36279E-002,3.54295E-001,0,4.78532E+001,-9.75391E-001,9.99868E-001,9.10469E+000,-3.12969E+001,9.99083E-001,6.00076E-002,-2.44331E-002,-1.03864E-003,6.00203E-002,-2.44458E-002,-7.04610E-001,6.03633E-002,1.06177E+000,-1.34638E-002,0.00000E+000,1.05282E-002,9.77188E-001,0.00000E+000,-3.88752E-003,-5.31746E-002,1.00000E+000,9
1179,1337,1.93208E+001,7.72387E-001,-8.01713E-002,3.15711E+000,-6.87960E-002,-9.57211E-002,3.15931E+000,6.63580E-003,4.28028E-001,0,4.78851E+001,-1.33128E+000,9.99809E-001,9.94171E+000,-3.13892E+001,9.98881E-001,6.16325E-002,-2.44325E-002,-9.87456E-004,6.16439E-002,-2.44438E-002,-6.57260E-001,6.20822E-002,1.06350E+000,-1.33859E-002,0.00000E+000,1.05604E-002,9.77190E-001,0.00000E+000,-4.34230E-003,-5.31951E-002,1.00000E+000,9
1179,1347,1.93536E+001,1.42076E+000,-3.33969E-002,3.15252E+000,-8.32984E-002,-1.28856E-001,3.15625E+000,6.29934E-003,4.45792E-001,0,4.79335E+001,-1.49235E+000,9.99833E-001,1.05958E+001,-3.14333E+001,9.99291E-001,6.24487E-002,-2.44321E-002,-9.57363E-004,6.24592E-002,-2.44427E-002,-6.31256E-001,6.29489E-002,1.06437E+000,-1.33374E-002,0.00000E+000,1.05766E-002,9.77190E-001,0.00000E+000,-4.57104E-003,-5.32079E-002,1.00000E+000,9
679,1327,-1.53069E+001,-4.30856E-001,5.98525E-002,1.17009E+000,-3.30254E-001,7.72100E-002,1.21825E+000,8.37554E-003,6.06405E-001,0,1.81027E+001,-5.48487E+000,9.99531E-001,-2.45049E+001,-4.48990E+001,9.98759E-001,5.55642E-002,-2.23848E-002,-4.63216E-004,5.55669E-002,-2.23876E-002,-3.40467E-001,5.59151E-002,1.05713E+000,4.96756E-003,0.00000E+000,-5.51732E-003,9.79179E-001,0.00000E+000,4.25518E-004,-5.21766E-002,1.00000E+000,9
679,1337,-1.52938E+001,1.90008E-001,1.44397E-002,1.17452E+000,-3.45456E-001,4.48565E-002,1.22509E+000,8.21610E-003,5.96239E-001,0,1.82637E+001,-5.66304E+000,9.99663E-001,-2.42843E+001,-4.52620E+001,9.99492E-001,5.45504E-002,-2.23852E-002,-4.90968E-004,5.45535E-002,-2.23884E-002,-3.65616E-001,5.48447E-002,1.05605E+000,4.95302E-003,0.00000E+000,-5.52011E-003,9.79179E-001,0.00000E+000,-4.12899E-004,-5.21880E-002,1.00000E+000,9
1179,1327,1.92953E+001,1.27487E-001,-1.04354E-001,3.16564E+000,-5.28270E-002,-5.32939E-002,3.16653E+000,1.01509E-002,4.06301E-001,0,4.78575E+001,-1.17126E+000,9.99775E-001,9.43859E+000,-3.13475E+001,9.98331E-001,6.08175E-002,-2.44328E-002,-1.01553E-003,6.08296E-002,-2.44449E-002,-6.82396E-001,6.12190E-002,1.06263E+000,-1.34302E-002,0.00000E+000,1.05443E-002,9.77189E-001,0.00000E+000,-4.11409E-003,-5.31835E-002,1.00000E+000,9
679,1317,-1.53141E+001,-1.04553E+000,1.32573E-001,1.16680E+000,-3.12501E-001,1.10100E-001,1.21293E+000,7.37781E-003,6.28457E-001,0,1.79557E+001,-5.27825E+000,9.99736E-001,-2.45573E+001,-4.44933E+001,9.98397E-001,5.65725E-002,-2.23848E-002,-4.39299E-004,5.65749E-002,-2.23872E-002,-3.18767E-001,5.69837E-002,1.05819E+000,4.97415E-003,0.00000E+000,-5.51454E-003,9.79179E-001,0.00000E+000,1.26086E-003,-5.21714E-002,1.00000E+000,9
669,1327,-1.59834E+001,-4.37965E-001,5.80149E-002,1.13540E+000,-3.30554E-001,7.73632E-002,1.18507E+000,7.63162E-003,5.62050E-001,0,1.75743E+001,-5.48044E+000,9.99810E-001,-2.48520E+001,-4.51220E+001,9.99012E-001,5.52020E-002,-2.22499E-002,-3.61680E-004,5.52037E-002,-2.22516E-002,-2.67549E-001,5.55483E-002,1.05674E+000,6.15476E-003,0.00000E+000,-6.41615E-003,9.79267E-001,0.00000E+000,3.87856E-004,-5.14179E-002,1.00000E+000,9
669,1337,-1.59716E+001,1.87053E-001,1.34505E-002,1.13823E+000,-3.43565E-001,4.35376E-002,1.18975E+000,4.99418E-003,6.16795E-001,0,1.77132E+001,-5.62487E+000,9.99770E-001,-2.46468E+001,-4.53926E+001,9.99601E-001,5.40646E-002,-2.22508E-002,-4.25139E-004,5.40670E-002,-2.22532E-002,-3.19171E-001,5.43480E-002,1.05554E+000,6.13783E-003,0.00000E+000,-6.48688E-003,9.79266E-001,0.00000E+000,-4.94096E-004,-5.14303E-002,1.00000E+000,9
669,1347,-1.59556E+001,8.10676E-001,-1.00587E-002,1.14231E+000,-3.58881E-001,1.42594E-002,1.19744E+000,4.49565E-003,5.93233E-001,0,1.78589E+001,-5.80129E+000,9.99766E-001,-2.43191E+001,-4.57703E+001,9.99493E-001,5.29250E-002,-2.22523E-002,-4.91167E-004,5.29282E-002,-2.22555E-002,-3.74318E-001,5.31509E-002,1.05433E+000,6.11554E-003,0.00000E+000,-6.55762E-003,9.79265E-001,0.00000E+000,-1.37615E-003,-5.14467E-002,1.00000E+000,9
669,1357,-1.59312E+001,1.44385E+000,7.53083E-003,1.14721E+000,-3.71116E-001,-1.58754E-002,1.20585E+000,4.52543E-003,5.74304E-001,0,1.80173E+001,-5.92850E+000,9.99733E-001,-2.37468E+001,-4.60909E+001,9.99584E-001,5.17754E-002,-2.22551E-002,-5.64195E-004,5.17797E-002,-2.22594E-002,-4.36623E-001,5.19492E-002,1.05313E+000,6.07937E-003,0.00000E+000,-6.62883E-003,9.79263E-001,0.00000E+000,-2.26422E-003,-5.14733E-002,1.00000E+000,9
1189,1337,2.00277E+001,7.83927E-001,-9.10891E-002,3.19945E+000,-6.48239E-002,-1.08348E-001,3.20194E+000,9.17836E-003,4.34221E-001,0,4.85350E+001,-1.24075E+000,9.99838E-001,1.09353E+001,-3.10908E+001,9.98912E-001,6.16654E-002,-2.45338E-002,-8.62099E-004,6.16740E-002,-2.45424E-002,-5.72953E-001,6.21008E-002,1.06354E+000,-1.27323E-002,0.00000E+000,1.02228E-002,9.77085E-001,0.00000E+000,-4.69789E-003,-5.30285E-002,1.00000E+000,9
669,1317,-1.59897E+001,-1.04996E+000,1.39656E-001,1.13180E+000,-3.10590E-001,1.12353E-001,1.17901E+000,1.01411E-002,5.75537E-001,0,1.74165E+001,-5.25087E+000,9.99830E-001,-2.48642E+001,-4.46965E+001,9.98548E-001,5.63297E-002,-2.22501E-002,-3.04221E-004,5.63308E-002,-2.22513E-002,-2.21816E-001,5.67433E-002,1.05793E+000,6.15979E-003,0.00000E+000,-6.34590E-003,9.79267E-001,0.00000E+000,1.26393E-003,-5.14142E-002,1.00000E+000,9
1189,1297,1.99798E+001,-1.75707E+000,3.29321E-002,3.22922E+000,-5.93206E-004,5.18432E-002,3.22964E+000,1.03774E-002,4.53163E-001,0,4.83673E+001,-5.50073E-001,9.99817E-001,1.01319E+001,-3.07699E+001,9.97135E-001,5.86372E-002,-2.45279E-002,-8.51693E-004,5.86460E-002,-2.45366E-002,-5.86683E-001,5.89058E-002,1.06032E+000,-1.28275E-002,0.00000E+000,1.03672E-002,9.77090E-001,0.00000E+000,-4.71551E-003,-5.30291E-002,1.00000E+000,9
1189,1307,1.99753E+001,-1.13227E+000,-5.36090E-002,3.21811E+000,-1.98741E-002,6.41806E-003,3.21818E+000,6.31250E-003,4.32182E-001,0,4.83822E+001,-7.50430E-001,9.99777E-001,9.98471E+000,-3.08997E+001,9.98819E-001,5.93890E-002,-2.45287E-002,-8.61491E-004,5.93978E-002,-2.45375E-002,-5.88111E-001,5.96961E-002,1.06112E+000,-1.28193E-002,0.00000E+000,1.03314E-002,9.77089E-001,0.00000E+000,-4.71114E-003,-5.30290E-002,1.00000E+000,9
1189,1317,1.99915E+001,-4.90402E-001,-8.06096E-002,3.21479E+000,-3.07405E-002,-2.99466E-002,3.21507E+000,6.41693E-003,4.56588E-001,0,4.84695E+001,-8.42670E-001,9.99871E-001,1.02587E+001,-3.08687E+001,9.99647E-001,6.01479E-002,-2.45301E-002,-8.64032E-004,6.01567E-002,-2.45389E-002,-5.84550E-001,6.04958E-002,1.06193E+000,-1.27954E-002,0.00000E+000,1.02952E-002,9.77088E-001,0.00000E+000,-4.70673E-003,-5.30289E-002,1.00000E+000,9
1189,1327,2.00064E+001,1.42880E-001,-9.79968E-002,3.20611E+000,-5.03754E-002,-7.27876E-002,3.20734E+000,9.79309E-003,4.36929E-001,0,4.85035E+001,-1.06836E+000,9.99856E-001,1.05275E+001,-3.10163E+001,9.99337E-001,6.09058E-002,-2.45318E-002,-8.64274E-004,6.09146E-002,-2.45406E-002,-5.79516E-001,6.12965E-002,1.06273E+000,-1.27665E-002,0.00000E+000,1.02591E-002,9.77087E-001,0.00000E+000,-4.70232E-003,-5.30287E-002,1.00000E+000,9
659,1327,-1.66590E+001,-4.35006E-001,5.69787E-002,1.10007E+000,-3.23058E-001,7.15910E-002,1.14876E+000,1.25776E-002,5.56236E-001,0,1.70490E+001,-5.34010E+000,9.99706E-001,-2.51755E+001,-4.51728E+001,9.97809E-001,5.47243E-002,-2.21075E-002,-3.49772E-004,5.47259E-002,-2.21091E-002,-2.60828E-001,5.50611E-002,1.05622E+000,7.35700E-003,0.00000E+000,-7.50176E-003,9.79362E-001,0.00000E+000,2.55883E-004,-5.06930E-002,1.00000E+000,9
659,1337,-1.66379E+001,1.83798E-001,2.50481E-002,1.11209E+000,-3.42218E-001,5.01935E-002,1.16464E+000,1.34241E-002,6.65045E-001,0,1.72978E+001,-5.63558E+000,9.99605E-001,-2.47965E+001,-4.55397E+001,9.99302E-001,5.35534E-002,-2.21085E-002,-4.29255E-004,5.35559E-002,-2.21110E-002,-3.25044E-001,5.38263E-002,1.05499E+000,7.33970E-003,0.00000E+000,-7.60543E-003,9.79361E-001,0.00000E+000,-6.30053E-004,-5.07055E-002,1.00000E+000,9
659,1347,-1.66246E+001,8.10503E-001,2.66347E-003,1.11348E+000,-3.54154E-001,2.10929E-002,1.16863E+000,6.17708E-003,6.46087E-001,0,1.73996E+001,-5.76509E+000,9.99880E-001,-2.45043E+001,-4.58727E+001,9.99712E-001,5.23808E-002,-2.21102E-002,-5.11442E-004,5.23843E-002,-2.21138E-002,-3.93358E-001,5.25955E-002,1.05375E+000,7.31669E-003,0.00000E+000,-7.70907E-003,9.79359E-001,0.00000E+000,-1.51568E-003,-5.07220E-002,1.00000E+000,9
659,1357,-1.66042E+001,1.44459E+000,1.60206E-002,1.11521E+000,-3.64665E-001,-1.00743E-002,1.17336E+000,3.91627E-003,5.97063E-001,0,1.75105E+001,-5.84933E+000,9.99803E-001,-2.40019E+001,-4.61875E+001,9.99808E-001,5.11985E-002,-2.21135E-002,-6.00172E-004,5.12034E-002,-2.21184E-002,-4.69013E-001,5.13611E-002,1.05251E+000,7.28092E-003,0.00000E+000,-7.81336E-003,9.79356E-001,0.00000E+000,-2.40683E-003,-5.07476E-002,1.00000E+000,9
1199,1307,2.06818E+001,-1.11832E+000,-5.06354E-002,3.25777E+000,-1.39845E-002,-1.08658E-003,3.25781E+000,8.92664E-003,4.51668E-001,0,4.89672E+001,-6.48376E-001,9.99763E-001,1.10023E+001,-3.05926E+001,9.98590E-001,5.95260E-002,-2.45309E-002,-6.43706E-004,5.95309E-002,-2.45359E-002,-4.38735E-001,5.98364E-002,1.06128E+000,-1.20760E-002,0.00000E+000,1.01103E-002,9.77078E-001,0.00000E+000,-5.45801E-003,-5.28011E-002,1.00000E+000,9
1199,1317,2.06932E+001,-4.84288E-001,-8.88918E-002,3.25200E+000,-2.97918E-002,-3.93994E-002,3.25237E+000,7.32207E-003,4.38431E-001,0,4.90291E+001,-8.21292E-001,9.99591E-001,1.11825E+001,-3.06766E+001,9.98577E-001,6.02463E-002,-2.45333E-002,-6.62203E-004,6.02515E-002,-2.45385E-002,-4.47493E-001,6.05959E-002,1.06204E+000,-1.20559E-002,0.00000E+000,1.00367E-002,9.77076E-001,0.00000E+000,-5.24603E-003,-5.27956E-002,1.00000E+000,9
1199,1327,2.07088E+001,1.52680E-001,-1.14134E-001,3.24763E+000,-4.37505E-002,-7.54688E-002,3.24881E+000,8.35435E-003,4.10558E-001,0,4.91014E+001,-9.72948E-001,9.99679E-001,1.14487E+001,-3.07521E+001,9.98755E-001,6.09668E-002,-2.45359E-002,-6.79244E-004,6.09722E-002,-2.45413E-002,-4.55126E-001,6.13574E-002,1.06281E+000,-1.20326E-002,0.00000E+000,9.96308E-003,9.77073E-001,0.00000E+000,-5.03383E-003,-5.27891E-002,1.00000E+000,9
659,1317,-1.66711E+001,-1.05268E+000,1.22637E-001,1.09299E+000,-3.07840E-001,1.04601E-001,1.14032E+000,1.04701E-002,6.09365E-001,0,1.68451E+001,-5.18709E+000,9.99350E-001,-2.53242E+001,-4.47799E+001,9.95882E-001,5.58858E-002,-2.21074E-002,-2.74291E-004,5.58868E-002,-2.21084E-002,-2.01497E-001,5.62914E-002,1.05745E+000,7.36679E-003,0.00000E+000,-7.39872E-003,9.79363E-001,0.00000E+000,1.13638E-003,-5.06860E-002,1.00000E+000,9
1199,1337,2.07399E+001,7.98943E-001,-7.89713E-002,3.24392E+000,-5.82657E-002,-1.08223E-001,3.24624E+000,8.14872E-003,4.35719E-001,0,4.91639E+001,-1.14659E+000,9.99799E-001,1.20517E+001,-3.07915E+001,9.98286E-001,6.16951E-002,-2.45400E-002,-6.88594E-004,6.17006E-002,-2.45455E-002,-4.57472E-001,6.21286E-002,1.06358E+000,-1.19921E-002,0.00000E+000,9.88852E-003,9.77070E-001,0.00000E+000,-4.81908E-003,-5.27778E-002,1.00000E+000,9
1199,1297,2.06838E+001,-1.74294E+000,2.52691E-002,3.26703E+000,6.11332E-003,3.63387E-002,3.26724E+000,6.93636E-003,4.32334E-001,0,4.89549E+001,-3.98393E-001,9.99695E-001,1.10921E+001,-3.04593E+001,9.98237E-001,5.88092E-002,-2.45295E-002,-6.19965E-004,5.88138E-002,-2.45342E-002,-4.26198E-001,5.90823E-002,1.06052E+000,-1.20847E-002,0.00000E+000,1.01835E-002,9.77078E-001,0.00000E+000,-5.66878E-003,-5.28035E-002,1.00000E+000,9
649,1347,-1.73027E+001,8.11901E-001,2.35588E-003,1.07542E+000,-3.48052E-001,1.64987E-002,1.13046E+000,6.53272E-003,6.59971E-001,0,1.68273E+001,-5.65379E+000,9.99803E-001,-2.48604E+001,-4.59434E+001,9.99208E-001,5.17675E-002,-2.19787E-002,-4.92160E-004,5.17708E-002,-2.19820E-002,-3.82352E-001,5.19666E-002,1.05310E+000,8.58987E-003,0.00000E+000,-8.85518E-003,9.79432E-001,0.00000E+000,-1.60217E-003,-4.97780E-002,1.00000E+000,9
649,1357,-1.72807E+001,1.44364E+000,1.74025E-002,1.07939E+000,-3.59859E-001,-1.04528E-002,1.13784E+000,4.49504E-003,5.97133E-001,0,1.69614E+001,-5.76834E+000,9.99819E-001,-2.43275E+001,-4.63064E+001,9.99600E-001,5.04986E-002,-2.19815E-002,-5.77739E-004,5.05032E-002,-2.19861E-002,-4.56665E-001,5.06438E-002,1.05177E+000,8.55274E-003,0.00000E+000,-8.95618E-003,9.79429E-001,0.00000E+000,-2.46775E-003,-4.98021E-002,1.00000E+000,9
649,1337,-1.73216E+001,1.87387E-001,2.63057E-002,1.06828E+000,-3.32405E-001,4.61225E-002,1.11975E+000,7.66474E-003,6.27975E-001,0,1.66338E+001,-5.47018E+000,9.99809E-001,-2.52322E+001,-4.56045E+001,9.99223E-001,5.30310E-002,-2.19773E-002,-4.12926E-004,5.30333E-002,-2.19796E-002,-3.15404E-001,5.32915E-002,1.05443E+000,8.61404E-003,0.00000E+000,-8.75440E-003,9.79434E-001,0.00000E+000,-7.38545E-004,-4.97623E-002,1.00000E+000,9
649,1327,-1.73364E+001,-4.30806E-001,6.32385E-002,1.06189E+000,-3.15041E-001,7.04134E-002,1.10987E+000,6.97529E-003,6.04705E-001,0,1.64656E+001,-5.22398E+000,9.99804E-001,-2.55043E+001,-4.51936E+001,9.99525E-001,5.42851E-002,-2.19766E-002,-3.37243E-004,5.42866E-002,-2.19781E-002,-2.53366E-001,5.46132E-002,1.05575E+000,8.63158E-003,0.00000E+000,-8.65420E-003,9.79435E-001,0.00000E+000,1.20191E-004,-4.97509E-002,1.00000E+000,9
1209,1307,2.13905E+001,-1.10360E+000,-4.88475E-002,3.29980E+000,-6.06654E-003,-7.16624E-003,3.29982E+000,7.18848E-003,4.58681E-001,0,4.95807E+001,-5.26440E-001,9.99703E-001,1.20554E+001,-3.02772E+001,9.98698E-001,5.95196E-002,-2.44109E-002,-3.89744E-004,5.95215E-002,-2.44127E-002,-2.66054E-001,5.98409E-002,1.06128E+000,-1.12419E-002,0.00000E+000,9.85552E-003,9.77169E-001,0.00000E+000,-5.77713E-003,-5.22484E-002,1.00000E+000,9
1209,1317,2.13997E+001,-4.73570E-001,-9.09155E-002,3.29349E+000,-2.50730E-002,-4.22599E-002,3.29386E+000,7.80057E-003,4.48836E-001,0,4.96248E+001,-7.57879E-001,9.99740E-001,1.21935E+001,-3.04120E+001,9.98390E-001,6.02619E-002,-2.44128E-002,-4.05809E-004,6.02639E-002,-2.44148E-002,-2.74585E-001,6.06244E-002,1.06207E+000,-1.12231E-002,0.00000E+000,9.77915E-003,9.77167E-001,0.00000E+000,-5.38371E-003,-5.22390E-002,1.00000E+000,9
1209,1327,2.14216E+001,1.66818E-001,-1.00047E-001,3.29069E+000,-3.78881E-002,-7.98738E-002,3.29187E+000,7.47259E-003,4.10797E-001,0,4.97247E+001,-8.92147E-001,9.99782E-001,1.25820E+001,-3.04727E+001,9.98913E-001,6.10066E-002,-2.44156E-002,-4.16839E-004,6.10087E-002,-2.44176E-002,-2.79580E-001,6.14122E-002,1.06286E+000,-1.11934E-002,0.00000E+000,9.70245E-003,9.77164E-001,0.00000E+000,-4.98857E-003,-5.22241E-002,1.00000E+000,9
1209,1337,2.14537E+001,8.13445E-001,-6.33599E-002,3.28745E+000,-5.35226E-002,-1.12121E-001,3.28980E+000,8.57844E-003,4.44965E-001,0,4.97934E+001,-1.07246E+000,9.99785E-001,1.32005E+001,-3.05040E+001,9.97846E-001,6.17592E-002,-2.44193E-002,-4.22229E-004,6.17612E-002,-2.44213E-002,-2.80710E-001,6.22100E-002,1.06366E+000,-1.11510E-002,0.00000E+000,9.62486E-003,9.77160E-001,0.00000E+000,-4.58884E-003,-5.22029E-002,1.00000E+000,9
1209,1297,2.13895E+001,-1.73005E+000,2.04406E-002,3.30794E+000,1.39236E-002,3.05184E-002,3.30811E+000,7.12457E-003,4.18966E-001,0,4.95505E+001,-2.76044E-001,9.99681E-001,1.20881E+001,-3.01702E+001,9.98074E-001,5.87785E-002,-2.44095E-002,-3.70173E-004,5.87802E-002,-2.44111E-002,-2.54950E-001,5.90607E-002,1.06050E+000,-1.12530E-002,0.00000E+000,9.93168E-003,9.77170E-001,0.00000E+000,-6.16953E-003,-5.22539E-002,1.00000E+000,9
649,1317,-1.73451E+001,-1.04774E+000,1.35955E-001,1.05688E+000,-3.00313E-001,1.03015E-001,1.10354E+000,5.60233E-003,6.16947E-001,0,1.62957E+001,-5.05782E+000,9.99698E-001,-2.55798E+001,-4.48223E+001,9.99434E-001,5.55319E-002,-2.19770E-002,-2.66483E-004,5.55328E-002,-2.19779E-002,-1.96985E-001,5.59336E-002,1.05707E+000,8.63927E-003,0.00000E+000,-8.55438E-003,9.79435E-001,0.00000E+000,9.75658E-004,-4.97459E-002,1.00000E+000,9
639,1347,-1.79792E+001,8.13962E-001,-5.72898E-005,1.03969E+000,-3.39758E-001,1.58484E-002,1.09391E+000,7.04140E-003,6.15330E-001,0,1.62793E+001,-5.49777E+000,9.99672E-001,-2.51927E+001,-4.60284E+001,9.99090E-001,5.11658E-002,-2.17976E-002,-4.89993E-004,5.11691E-002,-2.18009E-002,-3.84752E-001,5.13553E-002,1.05245E+000,9.94753E-003,0.00000E+000,-1.01211E-002,9.79549E-001,0.00000E+000,-1.57592E-003,-4.87798E-002,1.00000E+000,9
639,1357,-1.79552E+001,1.44654E+000,1.74184E-002,1.04562E+000,-3.51347E-001,-9.73336E-003,1.10311E+000,4.32962E-003,6.09108E-001,0,1.64398E+001,-5.63054E+000,9.99769E-001,-2.46207E+001,-4.63572E+001,9.99632E-001,4.98225E-002,-2.18003E-002,-5.77576E-004,4.98271E-002,-2.18050E-002,-4.62001E-001,4.99562E-002,1.05104E+000,9.90821E-003,0.00000E+000,-1.02280E-002,9.79546E-001,0.00000E+000,-2.42460E-003,-4.88035E-002,1.00000E+000,9
639,1317,-1.80189E+001,-1.04413E+000,1.56114E-001,1.02094E+000,-2.95329E-001,1.09975E-001,1.06847E+000,8.15037E-003,6.93317E-001,0,1.57256E+001,-4.99973E+000,9.99690E-001,-2.58079E+001,-4.48653E+001,9.98786E-001,5.51396E-002,-2.17971E-002,-2.63703E-004,5.51405E-002,-2.17980E-002,-1.96380E-001,5.55418E-002,1.05664E+000,9.99344E-003,0.00000E+000,-9.80394E-003,9.79552E-001,0.00000E+000,9.44281E-004,-4.87522E-002,1.00000E+000,9
639,1327,-1.80101E+001,-4.33019E-001,7.83749E-002,1.02753E+000,-3.12500E-001,8.01074E-002,1.07698E+000,6.22244E-003,5.98806E-001,0,1.59131E+001,-5.20108E+000,9.99757E-001,-2.57457E+001,-4.53586E+001,9.98987E-001,5.38267E-002,-2.17962E-002,-3.33767E-004,5.38282E-002,-2.17977E-002,-2.52873E-001,5.41514E-002,1.05525E+000,9.98846E-003,0.00000E+000,-9.90894E-003,9.79552E-001,0.00000E+000,1.10040E-004,-4.87552E-002,1.00000E+000,9
639,1337,-1.79977E+001,1.88855E-001,2.11525E-002,1.03331E+000,-3.26409E-001,4.59517E-002,1.08461E+000,5.80093E-003,6.49597E-001,0,1.60977E+001,-5.35451E+000,9.99781E-001,-2.55682E+001,-4.56579E+001,9.99317E-001,5.24985E-002,-2.17963E-002,-4.08991E-004,5.25008E-002,-2.17985E-002,-3.15399E-001,5.27519E-002,1.05385E+000,9.97396E-003,0.00000E+000,-1.00150E-002,9.79551E-001,0.00000E+000,-7.32329E-004,-4.87639E-002,1.00000E+000,9
1219,1317,2.21120E+001,-4.57730E-001,-8.14620E-002,3.33666E+000,-1.95509E-002,-4.73850E-002,3.33706E+000,9.08694E-003,5.18293E-001,0,5.02517E+001,-6.71038E-001,9.99798E-001,1.33167E+001,-3.00630E+001,9.98335E-001,6.01974E-002,-2.43990E-002,-1.21555E-004,6.01976E-002,-2.43992E-002,-8.23273E-002,6.05563E-002,1.06201E+000,-1.03496E-002,0.00000E+000,9.51856E-003,9.77147E-001,0.00000E+000,-5.14662E-003,-5.15350E-002,1.00000E+000,9
1219,1327,2.21318E+001,1.80319E-001,-9.58476E-002,3.33373E+000,-3.26591E-002,-8.22767E-002,3.33490E+000,5.20311E-003,4.31203E-001,0,5.03406E+001,-8.09286E-001,9.99871E-001,1.36633E+001,-3.01719E+001,9.99132E-001,6.09194E-002,-2.44011E-002,-1.29366E-004,6.09196E-002,-2.44013E-002,-8.68736E-002,6.13200E-002,1.06277E+000,-1.03230E-002,0.00000E+000,9.44430E-003,9.77145E-001,0.00000E+000,-4.59685E-003,-5.15159E-002,1.00000E+000,9
1219,1337,2.21650E+001,8.28154E-001,-5.70976E-002,3.33069E+000,-4.76568E-002,-1.15006E-001,3.33302E+000,6.71792E-003,4.58117E-001,0,5.04142E+001,-9.76260E-001,9.99796E-001,1.42997E+001,-3.01913E+001,9.98831E-001,6.16513E-002,-2.44042E-002,-1.30146E-004,6.16515E-002,-2.44044E-002,-8.66512E-002,6.20958E-002,1.06355E+000,-1.02807E-002,0.00000E+000,9.36892E-003,9.77141E-001,0.00000E+000,-4.03885E-003,-5.14855E-002,1.00000E+000,9
1219,1297,2.20984E+001,-1.71741E+000,1.90746E-002,3.35040E+000,1.94783E-002,2.40202E-002,3.35054E+000,7.86375E-003,4.15818E-001,0,5.01717E+001,-1.70651E-001,9.99671E-001,1.31425E+001,-2.98870E+001,9.98049E-001,5.87517E-002,-2.43961E-002,-9.60949E-005,5.87518E-002,-2.43962E-002,-6.62173E-002,5.90325E-002,1.06048E+000,-1.03817E-002,0.00000E+000,9.66698E-003,9.77150E-001,0.00000E+000,-6.24538E-003,-5.15581E-002,1.00000E+000,9
1219,1307,2.21036E+001,-1.08890E+000,-3.56870E-002,3.34390E+000,-1.44939E-004,-8.68784E-003,3.34391E+000,9.34974E-003,4.72778E-001,0,5.02063E+001,-4.33576E-001,9.99701E-001,1.31978E+001,-2.99827E+001,9.97928E-001,5.94739E-002,-2.43974E-002,-1.09861E-004,5.94741E-002,-2.43975E-002,-7.50504E-002,5.97928E-002,1.06124E+000,-1.03680E-002,0.00000E+000,9.59288E-003,9.77149E-001,0.00000E+000,-5.69679E-003,-5.15482E-002,1.00000E+000,9
629,1347,-1.86538E+001,8.12414E-001,-5.44869E-003,1.00592E+000,-3.34939E-001,1.48865E-002,1.06032E+000,5.88993E-003,6.01522E-001,0,1.57631E+001,-5.40761E+000,9.99666E-001,-2.55013E+001,-4.61469E+001,9.99238E-001,5.06674E-002,-2.20529E-002,-5.22412E-004,5.06711E-002,-2.20566E-002,-4.11576E-001,5.08124E-002,1.05191E+000,1.13365E-002,0.00000E+000,-1.14859E-002,9.79244E-001,0.00000E+000,-1.41422E-003,-4.79421E-002,1.00000E+000,9
629,1357,-1.86280E+001,1.44475E+000,1.41369E-002,1.01358E+000,-3.46863E-001,-1.04169E-002,1.07134E+000,5.05231E-003,5.99489E-001,0,1.59494E+001,-5.54788E+000,9.99679E-001,-2.48930E+001,-4.64834E+001,9.99408E-001,4.93999E-002,-2.20524E-002,-5.18437E-004,4.94037E-002,-2.20561E-002,-4.15693E-001,4.94980E-002,1.05058E+000,1.12993E-002,0.00000E+000,-1.14203E-002,9.79246E-001,0.00000E+000,-2.19238E-003,-4.79639E-002,1.00000E+000,9
629,1327,-1.86855E+001,-4.32079E-001,7.46821E-002,9.92399E-001,-3.05786E-001,7.87261E-002,1.04142E+000,5.46477E-003,5.89825E-001,0,1.53773E+001,-5.08507E+000,9.99730E-001,-2.60622E+001,-4.54369E+001,9.99092E-001,5.31783E-002,-2.20530E-002,-5.47767E-004,5.31823E-002,-2.20570E-002,-4.17147E-001,5.34394E-002,1.05456E+000,1.13739E-002,0.00000E+000,-1.16162E-002,9.79242E-001,0.00000E+000,1.31605E-004,-4.79203E-002,1.00000E+000,9
629,1337,-1.86708E+001,1.88243E-001,1.93145E-002,1.00052E+000,-3.20944E-001,4.59610E-002,1.05174E+000,5.20623E-003,6.30376E-001,0,1.55943E+001,-5.25872E+000,9.99710E-001,-2.58437E+001,-4.57704E+001,9.99472E-001,5.19249E-002,-2.20531E-002,-5.32719E-004,5.19288E-002,-2.20569E-002,-4.12561E-001,5.21244E-002,1.05324E+000,1.13602E-002,0.00000E+000,-1.15511E-002,9.79243E-001,0.00000E+000,-6.40704E-004,-4.79283E-002,1.00000E+000,9
1229,1317,2.28231E+001,-4.42218E-001,-8.23324E-002,3.38128E+000,-1.04198E-002,-5.11485E-002,3.38169E+000,8.48506E-003,4.87452E-001,0,5.08938E+001,-5.17403E-001,9.99758E-001,1.44099E+001,-2.97469E+001,9.99095E-001,6.01296E-002,-2.43088E-002,1.86616E-004,6.01300E-002,-2.43092E-002,1.26627E-001,6.04962E-002,1.06194E+000,-9.48011E-003,0.00000E+000,9.29868E-003,9.77207E-001,0.00000E+000,-4.68695E-003,-5.09357E-002,1.00000E+000,9
1229,1327,2.28407E+001,1.93619E-001,-9.82673E-002,3.37556E+000,-2.90272E-002,-8.89093E-002,3.37686E+000,6.48683E-003,5.03457E-001,0,5.09553E+001,-7.40794E-001,9.99794E-001,1.47177E+001,-2.98340E+001,9.98784E-001,6.08221E-002,-2.43098E-002,1.90699E-004,6.08225E-002,-2.43103E-002,1.28344E-001,6.12291E-002,1.06267E+000,-9.45401E-003,0.00000E+000,9.24025E-003,9.77205E-001,0.00000E+000,-3.95507E-003,-5.09097E-002,1.00000E+000,9
1229,1337,2.28727E+001,8.39867E-001,-7.07698E-002,3.37409E+000,-4.06034E-002,-1.21753E-001,3.37653E+000,6.71721E-003,4.42587E-001,0,5.10532E+001,-8.67666E-001,9.99777E-001,1.53156E+001,-2.98955E+001,9.98475E-001,6.15155E-002,-2.43112E-002,1.99989E-004,6.15159E-002,-2.43117E-002,1.33507E-001,6.19646E-002,1.06341E+000,-9.41671E-003,0.00000E+000,9.18165E-003,9.77202E-001,0.00000E+000,-3.22112E-003,-5.08724E-002,1.00000E+000,9
629,1317,-1.86956E+001,-1.04377E+000,1.56280E-001,9.84324E-001,-2.89012E-001,1.11346E-001,1.03190E+000,6.40876E-003,6.71355E-001,0,1.51599E+001,-4.89815E+000,9.99735E-001,-2.61324E+001,-4.49656E+001,9.99051E-001,5.44186E-002,-2.20528E-002,-5.67057E-004,5.44228E-002,-2.20570E-002,-4.24833E-001,5.47473E-002,1.05587E+000,1.13781E-002,0.00000E+000,-1.16808E-002,9.79242E-001,0.00000E+000,8.97282E-004,-4.79178E-002,1.00000E+000,9
1229,1297,2.28066E+001,-1.70398E+000,1.70435E-002,3.39175E+000,2.55221E-002,1.69873E-002,3.39189E+000,7.56940E-003,4.70752E-001,0,5.07774E+001,-8.05510E-002,9.99684E-001,1.41893E+001,-2.95612E+001,9.97730E-001,5.87501E-002,-2.43075E-002,1.88605E-004,5.87505E-002,-2.43079E-002,1.30105E-001,5.90411E-002,1.06048E+000,-9.51033E-003,0.00000E+000,9.41481E-003,9.77210E-001,0.00000E+000,-6.14150E-003,-5.09659E-002,1.00000E+000,9
1229,1307,2.28146E+001,-1.07363E+000,-3.85390E-002,3.38938E+000,8.80499E-003,-1.12432E-002,3.38941E+000,1.05046E-002,4.80463E-001,0,5.08559E+001,-2.94427E-001,9.99674E-001,1.42871E+001,-2.96484E+001,9.98100E-001,5.94389E-002,-2.43080E-002,1.86015E-004,5.94394E-002,-2.43085E-002,1.27262E-001,5.97669E-002,1.06121E+000,-9.49866E-003,0.00000E+000,9.35686E-003,9.77209E-001,0.00000E+000,-5.41571E-003,-5.09542E-002,1.00000E+000,9
619,1327,-1.93607E+001,-4.31861E-001,7.29746E-002,9.56809E-001,-3.00035E-001,7.80096E-002,1.00578E+000,4.41259E-003,5.88162E-001,0,1.48320E+001,-4.98873E+000,9.99723E-001,-2.63663E+001,-4.55269E+001,9.99365E-001,5.26706E-002,-2.18707E-002,-6.74576E-004,5.26767E-002,-2.18768E-002,-5.18453E-001,5.29280E-002,1.05400E+000,1.28251E-002,0.00000E+000,-1.32191E-002,9.79366E-001,0.00000E+000,1.59806E-004,-4.71655E-002,1.00000E+000,9
619,1337,-1.93448E+001,1.89666E-001,2.25691E-002,9.65393E-001,-3.14381E-001,4.56004E-002,1.01632E+000,4.60409E-003,6.27839E-001,0,1.50544E+001,-5.15089E+000,9.99525E-001,-2.61150E+001,-4.58548E+001,9.99400E-001,5.14090E-002,-2.18708E-002,-6.19417E-004,5.14142E-002,-2.18760E-002,-4.84262E-001,5.16042E-002,1.05268E+000,1.28100E-002,0.00000E+000,-1.30780E-002,9.79367E-001,0.00000E+000,-5.76765E-004,-4.71738E-002,1.00000E+000,9
619,1347,-1.93266E+001,8.13883E-001,-7.77660E-003,9.73356E-001,-3.27131E-001,1.61597E-002,1.02698E+000,5.19459E-003,6.12096E-001,0,1.52581E+001,-5.28986E+000,9.99609E-001,-2.57696E+001,-4.62136E+001,9.99396E-001,5.01452E-002,-2.18705E-002,-5.67025E-004,5.01496E-002,-2.18749E-002,-4.51089E-001,5.02856E-002,1.05135E+000,1.27890E-002,0.00000E+000,-1.29370E-002,9.79369E-001,0.00000E+000,-1.31338E-003,-4.71855E-002,1.00000E+000,9
619,1357,-1.93012E+001,1.44523E+000,5.42158E-003,9.81781E-001,-3.38885E-001,-9.82563E-003,1.03867E+000,4.78691E-003,5.96717E-001,0,1.54581E+001,-5.42062E+000,9.99776E-001,-2.51841E+001,-4.65595E+001,9.99551E-001,4.88717E-002,-2.18690E-002,-5.20915E-004,4.88756E-002,-2.18728E-002,-4.21880E-001,4.89652E-002,1.05001E+000,1.27541E-002,0.00000E+000,-1.27951E-002,9.79373E-001,0.00000E+000,-2.05424E-003,-4.72048E-002,1.00000E+000,9
619,1317,-1.93688E+001,-1.04165E+000,1.57407E-001,9.50783E-001,-2.79908E-001,1.13968E-001,9.97660E-001,7.31068E-003,6.30699E-001,0,1.46374E+001,-4.76181E+000,9.99633E-001,-2.63972E+001,-4.50498E+001,9.99160E-001,5.39218E-002,-2.18696E-002,-7.34361E-004,5.39289E-002,-2.18768E-002,-5.55083E-001,5.42479E-002,1.05532E+000,1.28296E-002,0.00000E+000,-1.33592E-002,9.79365E-001,0.00000E+000,8.91651E-004,-4.71630E-002,1.00000E+000,9
1239,1307,2.35179E+001,-1.06483E+000,-5.25931E-002,3.42740E+000,1.28933E-002,-2.20624E-002,3.42749E+000,1.08041E-002,4.58584E-001,0,5.14286E+001,-2.15198E-001,9.99598E-001,1.52415E+001,-2.94061E+001,9.98501E-001,5.92700E-002,-2.41080E-002,3.44498E-004,5.92714E-002,-2.41094E-002,2.36727E-001,5.96140E-002,1.06104E+000,-8.76233E-003,0.00000E+000,8.98727E-003,9.77374E-001,0.00000E+000,-5.35888E-003,-5.02625E-002,1.00000E+000,9
1239,1317,2.35315E+001,-4.28865E-001,-8.93085E-002,3.42464E+000,-9.66687E-004,-5.35881E-002,3.42506E+000,9.56861E-003,4.37819E-001,0,5.15113E+001,-3.74339E-001,9.99639E-001,1.54541E+001,-2.94609E+001,9.98976E-001,5.99802E-002,-2.41063E-002,3.80864E-004,5.99819E-002,-2.41080E-002,2.59511E-001,6.03653E-002,1.06179E+000,-8.74354E-003,0.00000E+000,8.98448E-003,9.77374E-001,0.00000E+000,-4.32230E-003,-5.02365E-002,1.00000E+000,9
1239,1327,2.35527E+001,2.09521E-001,-8.69977E-002,3.41772E+000,-2.19613E-002,-9.04295E-002,3.41899E+000,7.75042E-003,5.21299E-001,0,5.15509E+001,-6.36252E-001,9.99729E-001,1.58438E+001,-2.95130E+001,9.98878E-001,6.06970E-002,-2.41038E-002,4.23896E-004,6.06991E-002,-2.41059E-002,2.86397E-001,6.11258E-002,1.06255E+000,-8.71118E-003,0.00000E+000,8.98165E-003,9.77374E-001,0.00000E+000,-3.27344E-003,-5.01917E-002,1.00000E+000,9
1239,1337,2.35795E+001,8.54346E-001,-7.07825E-002,3.41457E+000,-3.22169E-002,-1.20661E-001,3.41685E+000,6.82968E-003,4.23458E-001,0,5.16148E+001,-7.45275E-001,9.99653E-001,1.63420E+001,-2.95893E+001,9.98120E-001,6.14073E-002,-2.41011E-002,4.67600E-004,6.14098E-002,-2.41037E-002,3.13308E-001,6.18811E-002,1.06330E+000,-8.67680E-003,0.00000E+000,8.97884E-003,9.77373E-001,0.00000E+000,-2.23194E-003,-5.01441E-002,1.00000E+000,9
1239,1297,2.35135E+001,-1.69310E+000,1.25335E-002,3.43240E+000,3.13107E-002,1.16829E-002,3.43256E+000,6.63635E-003,4.66849E-001,0,5.13654E+001,4.43986E-003,9.99717E-001,1.52147E+001,-2.92997E+001,9.98475E-001,5.85604E-002,-2.41091E-002,3.11924E-004,5.85616E-002,-2.41103E-002,2.16181E-001,5.88652E-002,1.06029E+000,-8.77319E-003,0.00000E+000,8.99006E-003,9.77374E-001,0.00000E+000,-6.39223E-003,-5.02775E-002,1.00000E+000,9
609,1347,-1.99980E+001,8.15470E-001,-6.18275E-003,9.40948E-001,-3.20440E-001,1.59415E-002,9.94143E-001,7.16191E-003,6.29624E-001,0,1.47591E+001,-5.18310E+000,9.99531E-001,-2.59995E+001,-4.62834E+001,9.99141E-001,4.96732E-002,-2.14318E-002,-7.09202E-004,4.96803E-002,-2.14389E-002,-5.71393E-001,4.98353E-002,1.05084E+000,1.40900E-002,0.00000E+000,-1.44493E-002,9.79733E-001,0.00000E+000,-1.08410E-003,-4.61865E-002,1.00000E+000,9
609,1357,-1.99737E+001,1.44800E+000,1.76026E-003,9.49246E-001,-3.29900E-001,-9.94471E-003,1.00499E+000,5.86000E-003,6.12123E-001,0,1.49560E+001,-5.27867E+000,9.99700E-001,-2.54458E+001,-4.66027E+001,9.99348E-001,4.84053E-002,-2.14303E-002,-6.43255E-004,4.84112E-002,-2.14362E-002,-5.27692E-001,4.85167E-002,1.04951E+000,1.40574E-002,0.00000E+000,-1.42715E-002,9.79737E-001,0.00000E+000,-1.85781E-003,-4.62055E-002,1.00000E+000,9
609,1317,-2.00438E+001,-1.04098E+000,1.55153E-001,9.14488E-001,-2.73674E-001,1.09908E-001,9.60867E-001,9.59689E-003,6.30203E-001,0,1.40898E+001,-4.66130E+000,9.99617E-001,-2.66953E+001,-4.51295E+001,9.98303E-001,5.34397E-002,-2.14300E-002,-9.32892E-004,5.34514E-002,-2.14417E-002,-7.13769E-001,5.37985E-002,1.05480E+000,1.41299E-002,0.00000E+000,-1.49796E-002,9.79727E-001,0.00000E+000,1.22258E-003,-4.61633E-002,1.00000E+000,9
609,1327,-2.00343E+001,-4.31275E-001,6.92005E-002,9.22419E-001,-2.94933E-001,7.53230E-002,9.71347E-001,5.80941E-003,6.29730E-001,0,1.43101E+001,-4.90432E+000,9.99680E-001,-2.66480E+001,-4.55852E+001,9.98994E-001,5.21897E-002,-2.14317E-002,-8.53878E-004,5.21996E-002,-2.14416E-002,-6.64410E-001,5.24760E-002,1.05348E+000,1.41264E-002,0.00000E+000,-1.48033E-002,9.79728E-001,0.00000E+000,4.55608E-004,-4.61653E-002,1.00000E+000,9
609,1337,-2.00174E+001,1.90629E-001,2.07069E-002,9.32083E-001,-3.07204E-001,4.43537E-002,9.82406E-001,6.06790E-003,6.14661E-001,0,1.45445E+001,-5.03357E+000,9.99539E-001,-2.63744E+001,-4.59404E+001,9.99122E-001,5.09352E-002,-2.14321E-002,-7.80161E-004,5.09437E-002,-2.14405E-002,-6.17585E-001,5.11559E-002,1.05216E+000,1.41115E-002,0.00000E+000,-1.46267E-002,9.79730E-001,0.00000E+000,-3.12627E-004,-4.61740E-002,1.00000E+000,9
1249,1297,2.42229E+001,-1.67818E+000,1.72795E-002,3.47349E+000,3.91625E-002,9.96064E-003,3.47373E+000,8.55000E-003,5.01998E-001,0,5.19431E+001,1.12165E-001,9.99706E-001,1.62961E+001,-2.89753E+001,9.98397E-001,5.81759E-002,-2.37557E-002,4.35987E-004,5.81783E-002,-2.37580E-002,3.04879E-001,5.85030E-002,1.05989E+000,-7.82073E-003,0.00000E+000,8.37616E-003,9.77696E-001,0.00000E+000,-6.74476E-003,-4.96968E-002,1.00000E+000,9
1249,1307,2.42238E+001,-1.05283E+000,-5.94509E-002,3.46744E+000,1.94787E-002,-2.59434E-002,3.46759E+000,1.11021E-002,4.64287E-001,0,5.20018E+001,-1.16599E-001,9.99647E-001,1.62511E+001,-2.91159E+001,9.98175E-001,5.89708E-002,-2.37511E-002,5.65559E-004,5.89746E-002,-2.37550E-002,3.91700E-001,5.93449E-002,1.06073E+000,-7.81174E-003,0.00000E+000,8.54903E-003,9.77698E-001,0.00000E+000,-5.37476E-003,-4.96820E-002,1.00000E+000,9
1249,1317,2.42344E+001,-4.20993E-001,-1.04235E-001,3.46262E+000,2.17460E-003,-6.17019E-002,3.46317E+000,9.16227E-003,4.13508E-001,0,5.20735E+001,-3.10143E-001,9.99467E-001,1.64045E+001,-2.92309E+001,9.98309E-001,5.97663E-002,-2.37434E-002,7.00731E-004,5.97722E-002,-2.37492E-002,4.80725E-001,6.01907E-002,1.06157E+000,-7.79186E-003,0.00000E+000,8.72262E-003,9.77702E-001,0.00000E+000,-3.99907E-003,-4.96494E-002,1.00000E+000,9
1249,1327,2.42560E+001,2.22191E-001,-1.06363E-001,3.45866E+000,-1.08889E-002,-9.27634E-002,3.45992E+000,7.52169E-003,4.60200E-001,0,5.21325E+001,-4.74336E-001,9.99606E-001,1.67924E+001,-2.92151E+001,9.98879E-001,6.05658E-002,-2.37317E-002,8.43012E-004,6.05742E-002,-2.37402E-002,5.72906E-001,6.10441E-002,1.06241E+000,-7.75891E-003,0.00000E+000,8.89766E-003,9.77709E-001,0.00000E+000,-2.61189E-003,-4.95953E-002,1.00000E+000,9
1249,1337,2.42844E+001,8.68985E-001,-7.88782E-002,3.45414E+000,-2.31583E-002,-1.21898E-001,3.45637E+000,5.58629E-003,4.26352E-001,0,5.21716E+001,-6.13492E-001,9.99794E-001,1.73298E+001,-2.92520E+001,9.99391E-001,6.13645E-002,-2.37173E-002,9.89893E-004,6.13760E-002,-2.37289E-002,6.66493E-001,6.18998E-002,1.06326E+000,-7.71652E-003,0.00000E+000,9.07312E-003,9.77718E-001,0.00000E+000,-1.22137E-003,-4.95257E-002,1.00000E+000,9
1259,1327,2.49626E+001,2.32819E-001,-1.12033E-001,3.49875E+000,-4.88747E-003,-9.49574E-002,3.50004E+000,6.71014E-003,4.18378E-001,0,5.27003E+001,-3.83949E-001,9.99822E-001,1.78153E+001,-2.89694E+001,9.99116E-001,6.04764E-002,-2.36113E-002,1.27700E-003,6.04957E-002,-2.36307E-002,8.69856E-001,6.09764E-002,1.06232E+000,-6.96067E-003,0.00000E+000,8.96183E-003,9.77785E-001,0.00000E+000,-1.53250E-003,-4.87284E-002,1.00000E+000,9
1259,1337,2.49921E+001,8.78332E-001,-8.45450E-002,3.49475E+000,-1.92185E-002,-1.25726E-001,3.49706E+000,6.00383E-003,4.05664E-001,0,5.27550E+001,-5.57216E-001,9.99885E-001,1.83685E+001,-2.90139E+001,9.99509E-001,6.12815E-002,-2.35896E-002,1.48502E-003,6.13075E-002,-2.36156E-002,1.00212E+000,6.18438E-002,1.06318E+000,-6.91699E-003,0.00000E+000,9.24092E-003,9.77800E-001,0.00000E+000,2.09287E-004,-4.86396E-002,1.00000E+000,9
599,1347,-2.06659E+001,8.22147E-001,3.43537E-003,9.11118E-001,-3.08634E-001,2.07640E-002,9.62197E-001,6.75778E-003,6.45240E-001,0,1.42851E+001,-5.01438E+000,9.99689E-001,-2.61473E+001,-4.62933E+001,9.99543E-001,4.94358E-002,-2.15646E-002,-5.32117E-004,4.94397E-002,-2.15686E-002,-4.29375E-001,4.95735E-002,1.05057E+000,1.52327E-002,0.00000E+000,-1.51770E-002,9.79544E-001,0.00000E+000,-8.94972E-004,-4.51316E-002,1.00000E+000,9
599,1357,-2.06406E+001,1.45111E+000,8.19470E-003,9.21036E-001,-3.21340E-001,-5.51097E-003,9.75499E-001,5.07077E-003,6.38686E-001,0,1.45089E+001,-5.16118E+000,9.99755E-001,-2.55873E+001,-4.66568E+001,9.99450E-001,4.82375E-002,-2.15611E-002,-3.35488E-004,4.82391E-002,-2.15628E-002,-2.75384E-001,4.83294E-002,1.04931E+000,1.52032E-002,0.00000E+000,-1.47447E-002,9.79554E-001,0.00000E+000,-1.72736E-003,-4.51511E-002,1.00000E+000,9
1259,1287,2.49300E+001,-2.29372E+000,9.55212E-002,3.51732E+000,6.38040E-002,3.53617E-002,3.51807E+000,1.01758E-002,4.14872E-001,0,5.24470E+001,4.59507E-001,9.99550E-001,1.73987E+001,-2.86647E+001,9.95786E-001,5.72543E-002,-2.36510E-002,5.02657E-004,5.72574E-002,-2.36541E-002,3.55955E-001,5.75449E-002,1.05894E+000,-7.02734E-003,0.00000E+000,7.85799E-003,9.77764E-001,0.00000E+000,-8.42163E-003,-4.88641E-002,1.00000E+000,9
1259,1297,2.49262E+001,-1.66951E+000,-1.05282E-003,3.51215E+000,4.41405E-002,7.97959E-004,3.51243E+000,7.80858E-003,4.66650E-001,0,5.25168E+001,2.08094E-001,9.99614E-001,1.72516E+001,-2.87348E+001,9.97489E-001,5.80618E-002,-2.36475E-002,6.88521E-004,5.80676E-002,-2.36533E-002,4.82755E-001,5.83990E-002,1.05978E+000,-7.02550E-003,0.00000E+000,8.13272E-003,9.77764E-001,0.00000E+000,-6.70706E-003,-4.88604E-002,1.00000E+000,9
1259,1307,2.49305E+001,-1.04011E+000,-6.92098E-002,3.50823E+000,2.68243E-002,-3.11424E-002,3.50847E+000,7.74003E-003,4.57453E-001,0,5.25904E+001,4.94651E-003,9.99681E-001,1.72730E+001,-2.88145E+001,9.98196E-001,5.88676E-002,-2.36402E-002,8.79043E-004,5.88770E-002,-2.36496E-002,6.10340E-001,5.92552E-002,1.06062E+000,-7.01470E-003,0.00000E+000,8.40813E-003,9.77768E-001,0.00000E+000,-4.98820E-003,-4.88384E-002,1.00000E+000,9
599,1327,-2.07054E+001,-4.21301E-001,7.88991E-002,8.88751E-001,-2.80879E-001,7.78509E-002,9.35325E-001,5.83818E-003,6.36792E-001,0,1.37826E+001,-4.68550E+000,9.99732E-001,-2.68452E+001,-4.55453E+001,9.99175E-001,5.18126E-002,-2.15631E-002,-9.35294E-004,5.18245E-002,-2.15750E-002,-7.30171E-001,5.20660E-002,1.05307E+000,1.52659E-002,0.00000E+000,-1.60371E-002,9.79533E-001,0.00000E+000,7.60955E-004,-4.51095E-002,1.00000E+000,9
599,1337,-2.06892E+001,1.95932E-001,2.17687E-002,8.99242E-001,-2.96277E-001,4.68740E-002,9.47952E-001,4.76230E-003,6.27064E-001,0,1.40304E+001,-4.86805E+000,9.99730E-001,-2.66087E+001,-4.59530E+001,9.99517E-001,5.06288E-002,-2.15656E-002,-7.31746E-004,5.06362E-002,-2.15730E-002,-5.80657E-001,5.08205E-002,1.05182E+000,1.52547E-002,0.00000E+000,-1.56083E-002,9.79537E-001,0.00000E+000,-6.46072E-005,-4.51169E-002,1.00000E+000,9
1259,1317,2.49417E+001,-4.06632E-001,-1.06636E-001,3.50352E+000,1.01816E-002,-6.06830E-002,3.50406E+000,7.47192E-003,4.56520E-001,0,5.26388E+001,-2.07711E-001,9.99785E-001,1.74447E+001,-2.88935E+001,9.98693E-001,5.96722E-002,-2.36285E-002,1.07471E-003,5.96861E-002,-2.36424E-002,7.39042E-001,6.01140E-002,1.06147E+000,-6.99407E-003,0.00000E+000,8.68442E-003,9.77774E-001,0.00000E+000,-3.26387E-003,-4.87964E-002,1.00000E+000,9
599,1317,-2.07187E+001,-1.03625E+000,1.59558E-001,8.76877E-001,-2.65843E-001,1.06113E-001,9.22413E-001,7.88152E-003,6.30721E-001,0,1.35194E+001,-4.51242E+000,9.99693E-001,-2.69657E+001,-4.51607E+001,9.99134E-001,5.29925E-002,-2.15578E-002,-1.14244E-003,5.30100E-002,-2.15753E-002,-8.77752E-001,5.33147E-002,1.05431E+000,1.52687E-002,0.00000E+000,-1.64653E-002,9.79532E-001,0.00000E+000,1.58534E-003,-4.51077E-002,1.00000E+000,9
589,1347,-2.13381E+001,8.29145E-001,7.27403E-003,8.77306E-001,-2.96015E-001,2.43311E-002,9.26220E-001,4.82465E-003,6.52648E-001,0,1.37517E+001,-4.82269E+000,9.99754E-001,-2.63737E+001,-4.62907E+001,9.99595E-001,4.92404E-002,-2.15594E-002,-2.18200E-004,4.92411E-002,-2.15601E-002,-1.76579E-001,4.93677E-002,1.05034E+000,1.66378E-002,0.00000E+000,-1.58786E-002,9.79502E-001,0.00000E+000,-7.88812E-004,-4.42989E-002,1.00000E+000,9
589,1357,-2.13113E+001,1.45861E+000,1.32181E-002,8.88327E-001,-3.09230E-001,-4.07769E-003,9.40619E-001,3.69797E-003,6.56918E-001,0,1.39979E+001,-4.96691E+000,9.99808E-001,-2.57856E+001,-4.66454E+001,9.99711E-001,4.80482E-002,-2.15561E-002,-1.97294E-005,4.80482E-002,-2.15562E-002,-1.62405E-002,4.81327E-002,1.04909E+000,1.66078E-002,0.00000E+000,-1.54454E-002,9.79512E-001,0.00000E+000,-1.59654E-003,-4.43184E-002,1.00000E+000,9
589,1337,-2.13594E+001,2.01554E-001,2.94500E-002,8.66332E-001,-2.85749E-001,4.85520E-002,9.13532E-001,4.34767E-003,6.35259E-001,0,1.35167E+001,-4.71058E+000,9.99791E-001,-2.67951E+001,-4.59771E+001,9.99650E-001,5.04254E-002,-2.15594E-002,-4.20604E-004,5.04278E-002,-2.15618E-002,-3.34762E-001,5.06038E-002,1.05159E+000,1.66577E-002,0.00000E+000,-1.63101E-002,9.79495E-001,0.00000E+000,1.55798E-005,-4.42861E-002,1.00000E+000,9
589,1327,-2.13731E+001,-4.10592E-001,8.57765E-002,8.58529E-001,-2.66073E-001,8.00637E-002,9.02372E-001,8.72584E-003,6.84695E-001,0,1.33091E+001,-4.47012E+000,9.99807E-001,-2.69942E+001,-4.54675E+001,9.99062E-001,5.16002E-002,-2.15565E-002,-6.25613E-004,5.16056E-002,-2.15618E-002,-4.89928E-001,5.18374E-002,1.05282E+000,1.66690E-002,0.00000E+000,-1.67387E-002,9.79491E-001,0.00000E+000,8.14631E-004,-4.42788E-002,1.00000E+000,9
1269,1327,2.56724E+001,2.44923E-001,-1.12292E-001,3.54117E+000,4.83411E-004,-9.32797E-002,3.54240E+000,6.11544E-003,4.28506E-001,0,5.32862E+001,-3.09248E-001,9.99869E-001,1.89007E+001,-2.86865E+001,9.99042E-001,6.03224E-002,-2.33658E-002,1.64222E-003,6.03546E-002,-2.33980E-002,1.12374E+000,6.08602E-002,1.06216E+000,-6.12488E-003,0.00000E+000,8.89167E-003,9.77938E-001,0.00000E+000,-1.14742E-003,-4.68269E-002,1.00000E+000,9
1269,1337,2.57047E+001,8.88170E-001,-8.26084E-002,3.53880E+000,-1.61697E-002,-1.25167E-001,3.54105E+000,6.40541E-003,4.02777E-001,0,5.33709E+001,-5.20002E-001,9.99795E-001,1.94970E+001,-2.87758E+001,9.98748E-001,6.11223E-002,-2.33395E-002,1.88514E-003,6.11644E-002,-2.33816E-002,1.27796E+000,6.17269E-002,1.06302E+000,-6.08006E-003,0.00000E+000,9.24276E-003,9.77957E-001,0.00000E+000,5.77963E-004,-4.67361E-002,1.00000E+000,9
589,1317,-2.13888E+001,-1.02753E+000,1.68360E-001,8.43903E-001,-2.53017E-001,1.08520E-001,8.87675E-001,6.55722E-003,6.21024E-001,0,1.30034E+001,-4.30594E+000,9.99577E-001,-2.71459E+001,-4.51445E+001,9.98567E-001,5.27731E-002,-2.15506E-002,-8.34935E-004,5.27825E-002,-2.15600E-002,-6.43539E-001,5.30765E-002,1.05406E+000,1.66712E-002,0.00000E+000,-1.71674E-002,9.79490E-001,0.00000E+000,1.61386E-003,-4.42773E-002,1.00000E+000,9
1269,1317,2.56541E+001,-3.93903E-001,-1.03526E-001,3.54648E+000,1.62711E-002,-6.39258E-002,3.54709E+000,6.64306E-003,4.30398E-001,0,5.32509E+001,-1.09222E-001,9.99791E-001,1.85768E+001,-2.86274E+001,9.98884E-001,5.95228E-002,-2.33847E-002,1.40689E-003,5.95466E-002,-2.34086E-002,9.71899E-001,5.99985E-002,1.06132E+000,-6.15546E-003,0.00000E+000,8.54238E-003,9.77926E-001,0.00000E+000,-2.86404E-003,-4.68889E-002,1.00000E+000,9
1269,1307,2.56413E+001,-1.02777E+000,-6.57418E-002,3.54967E+000,3.23058E-002,-3.40040E-002,3.54998E+000,6.67989E-003,4.48262E-001,0,5.31779E+001,9.27320E-002,9.99671E-001,1.83809E+001,-2.85484E+001,9.98705E-001,5.87235E-002,-2.33984E-002,1.17721E-003,5.87404E-002,-2.34153E-002,8.21107E-001,5.91415E-002,1.06048E+000,-6.17611E-003,0.00000E+000,8.19488E-003,9.77917E-001,0.00000E+000,-4.57183E-003,-4.69308E-002,1.00000E+000,9
1269,1297,2.56332E+001,-1.65989E+000,-9.81501E-003,3.55238E+000,4.81575E-002,-4.98506E-003,3.55271E+000,8.12548E-003,4.44105E-001,0,5.30993E+001,2.91270E-001,9.99591E-001,1.82833E+001,-2.84933E+001,9.98125E-001,5.79219E-002,-2.34086E-002,9.50900E-004,5.79330E-002,-2.34198E-002,6.69768E-001,5.82860E-002,1.05963E+000,-6.19016E-003,0.00000E+000,7.84793E-003,9.77911E-001,0.00000E+000,-6.27693E-003,-4.69593E-002,1.00000E+000,9
1269,1287,2.56394E+001,-2.28415E+000,9.42314E-002,3.55777E+000,6.65240E-002,2.87318E-002,3.55850E+000,1.29816E-002,4.18500E-001,0,5.30348E+001,5.16806E-001,9.99687E-001,1.84783E+001,-2.84281E+001,9.96287E-001,5.71206E-002,-2.34110E-002,7.32798E-004,5.71273E-002,-2.34176E-002,5.21306E-001,5.74355E-002,1.05880E+000,-6.18913E-003,0.00000E+000,7.50272E-003,9.77912E-001,0.00000E+000,-7.97342E-003,-4.69572E-002,1.00000E+000,9
579,1347,-2.20068E+001,8.34323E-001,9.24819E-003,8.45938E-001,-2.86086E-001,2.18001E-002,8.93270E-001,4.06068E-003,6.56285E-001,0,1.32724E+001,-4.65393E+000,9.99757E-001,-2.65478E+001,-4.63134E+001,9.99699E-001,4.87815E-002,-2.15569E-002,7.34124E-005,4.87816E-002,-2.15569E-002,5.97997E-002,4.88912E-002,1.04984E+000,1.80077E-002,0.00000E+000,-1.65847E-002,9.79470E-001,0.00000E+000,-9.35476E-004,-4.37818E-002,1.00000E+000,9
579,1357,-2.19775E+001,1.46548E+000,2.26121E-002,8.59335E-001,-2.97939E-001,-1.05596E-003,9.09519E-001,4.33135E-003,6.61364E-001,0,1.35408E+001,-4.78624E+000,9.99836E-001,-2.58971E+001,-4.66596E+001,9.99790E-001,4.75262E-002,-2.15540E-002,2.67825E-004,4.75272E-002,-2.15550E-002,2.22133E-001,4.75956E-002,1.04852E+000,1.79758E-002,0.00000E+000,-1.61539E-002,9.79480E-001,0.00000E+000,-1.90180E-003,-4.38052E-002,1.00000E+000,9
579,1337,-2.20301E+001,2.08097E-001,3.40634E-002,8.32872E-001,-2.74691E-001,4.86295E-002,8.78348E-001,4.23769E-003,6.43930E-001,0,1.29980E+001,-4.53196E+000,9.99664E-001,-2.69919E+001,-4.59805E+001,9.99650E-001,5.00282E-002,-2.15563E-002,-1.25327E-004,5.00284E-002,-2.15565E-002,-1.00311E-001,5.01875E-002,1.05115E+000,1.80283E-002,0.00000E+000,-1.70134E-002,9.79463E-001,0.00000E+000,2.62680E-005,-4.37666E-002,1.00000E+000,9
579,1327,-2.20486E+001,-4.05412E-001,8.12259E-002,8.20802E-001,-2.56590E-001,7.46854E-002,8.63211E-001,6.57723E-003,6.92980E-001,0,1.27388E+001,-4.29476E+000,9.99737E-001,-2.72920E+001,-4.54712E+001,9.98906E-001,5.12636E-002,-2.15534E-002,-3.26227E-004,5.12651E-002,-2.15549E-002,-2.56683E-001,5.14808E-002,1.05245E+000,1.80413E-002,0.00000E+000,-1.74392E-002,9.79459E-001,0.00000E+000,9.81342E-004,-4.37571E-002,1.00000E+000,9
579,1317,-2.20615E+001,-1.01682E+000,1.65858E-001,8.09209E-001,-2.39538E-001,1.06810E-001,8.50651E-001,8.16411E-003,6.90045E-001,0,1.24707E+001,-4.08331E+000,9.99591E-001,-2.73931E+001,-4.50352E+001,9.98403E-001,5.24944E-002,-2.15474E-002,-5.31589E-004,5.24982E-002,-2.15512E-002,-4.11331E-001,5.27777E-002,1.05374E+000,1.80440E-002,0.00000E+000,-1.78643E-002,9.79458E-001,0.00000E+000,1.93492E-003,-4.37551E-002,1.00000E+000,9
1279,1317,2.63602E+001,-3.85876E-001,-1.08049E-001,3.58599E+000,2.00196E-002,-6.23191E-002,3.58658E+000,6.33471E-003,4.08951E-001,0,5.37931E+001,-6.78740E-002,9.99682E-001,1.96022E+001,-2.84164E+001,9.98270E-001,5.92563E-002,-2.30353E-002,1.67029E-003,5.92902E-002,-2.30692E-002,1.16231E+000,5.97744E-002,1.06104E+000,-5.37183E-003,0.00000E+000,8.32075E-003,9.78191E-001,0.00000E+000,-2.50065E-003,-4.51209E-002,1.00000E+000,9
1279,1327,2.63845E+001,2.57270E-001,-1.08970E-001,3.58507E+000,6.06755E-003,-8.92653E-002,3.58619E+000,8.76869E-003,4.36954E-001,0,5.38831E+001,-2.38412E-001,9.99742E-001,2.00304E+001,-2.84085E+001,9.98831E-001,6.00994E-002,-2.30115E-002,1.95199E-003,6.01452E-002,-2.30573E-002,1.34469E+000,6.06883E-002,1.06193E+000,-5.33743E-003,0.00000E+000,8.75543E-003,9.78207E-001,0.00000E+000,-6.62978E-004,-4.50501E-002,1.00000E+000,9
1279,1337,2.64173E+001,9.01955E-001,-7.89361E-002,3.58310E+000,-1.07025E-002,-1.20314E-001,3.58513E+000,6.39252E-003,4.36290E-001,0,5.39710E+001,-4.44506E-001,9.99765E-001,2.06330E+001,-2.84623E+001,9.99261E-001,6.09417E-002,-2.29801E-002,2.24055E-003,6.10015E-002,-2.30398E-002,1.52824E+000,6.16068E-002,1.06283E+000,-5.29018E-003,0.00000E+000,9.19189E-003,9.78230E-001,0.00000E+000,1.18219E-003,-4.49529E-002,1.00000E+000,9
1279,1307,2.63441E+001,-1.01884E+000,-7.76706E-002,3.58718E+000,3.69744E-002,-3.52899E-002,3.58755E+000,7.38850E-003,4.62281E-001,0,5.37018E+001,1.50644E-001,9.99670E-001,1.93451E+001,-2.82917E+001,9.97866E-001,5.84163E-002,-2.30525E-002,1.39589E-003,5.84402E-002,-2.30764E-002,9.81323E-001,5.88692E-002,1.06015E+000,-5.39531E-003,0.00000E+000,7.88989E-003,9.78179E-001,0.00000E+000,-4.32215E-003,-4.51691E-002,1.00000E+000,9
1279,1297,2.63410E+001,-1.64873E+000,-5.06229E-003,3.59155E+000,5.45504E-002,-2.45498E-003,3.59197E+000,1.22693E-002,3.49795E-001,0,5.36293E+001,4.04256E-001,9.99654E-001,1.93503E+001,-2.82929E+001,9.98413E-001,5.75731E-002,-2.30618E-002,1.12793E-003,5.75888E-002,-2.30776E-002,8.01248E-001,5.79659E-002,1.05927E+000,-5.40552E-003,0.00000E+000,7.45951E-003,9.78174E-001,0.00000E+000,-6.14167E-003,-4.51901E-002,1.00000E+000,9
1279,1287,2.63415E+001,-2.28141E+000,7.47859E-002,3.59514E+000,6.62693E-002,2.16373E-002,3.59581E+000,1.15621E-002,3.35275E-001,0,5.35814E+001,5.51024E-001,9.99692E-001,1.94204E+001,-2.83036E+001,9.97662E-001,5.67287E-002,-2.30675E-002,8.63636E-004,5.67380E-002,-2.30768E-002,6.20017E-001,5.70661E-002,1.05839E+000,-5.40981E-003,0.00000E+000,7.03065E-003,9.78172E-001,0.00000E+000,-7.95472E-003,-4.51990E-002,1.00000E+000,9
569,1347,-2.26742E+001,8.43479E-001,1.28612E-002,8.15706E-001,-2.72273E-001,2.25838E-002,8.60243E-001,4.21528E-003,6.71397E-001,0,1.28009E+001,-4.43259E+000,9.99756E-001,-2.66927E+001,-4.62730E+001,9.99586E-001,4.85287E-002,-2.14663E-002,3.40152E-004,4.85304E-002,-2.14680E-002,2.78429E-001,4.86378E-002,1.04955E+000,1.94420E-002,0.00000E+000,-1.74069E-002,9.79515E-001,0.00000E+000,-8.94642E-004,-4.30881E-002,1.00000E+000,9
569,1357,-2.26464E+001,1.47110E+000,1.76560E-002,8.29062E-001,-2.85308E-001,-1.17906E-003,8.76781E-001,4.65847E-003,6.74467E-001,0,1.30711E+001,-4.59603E+000,9.99775E-001,-2.60896E+001,-4.66576E+001,9.99522E-001,4.72564E-002,-2.14646E-002,5.50655E-004,4.72608E-002,-2.14690E-002,4.59066E-001,4.73267E-002,1.04822E+000,1.94126E-002,0.00000E+000,-1.69421E-002,9.79525E-001,0.00000E+000,-2.03720E-003,-4.31133E-002,1.00000E+000,9
569,1327,-2.27185E+001,-4.01514E-001,7.60932E-002,7.88971E-001,-2.47326E-001,7.29286E-002,8.30039E-001,9.28400E-003,6.83253E-001,0,1.22509E+001,-4.12990E+000,9.99833E-001,-2.75026E+001,-4.55015E+001,9.99359E-001,5.10512E-002,-2.14621E-002,-8.94484E-005,5.10513E-002,-2.14623E-002,-7.06767E-002,5.12665E-002,1.05220E+000,1.94778E-002,0.00000E+000,-1.83319E-002,9.79503E-001,0.00000E+000,1.37890E-003,-4.30574E-002,1.00000E+000,9
569,1337,-2.26978E+001,2.18392E-001,3.79415E-002,8.01671E-001,-2.60734E-001,4.59295E-002,8.44256E-001,3.85933E-003,6.50387E-001,0,1.25205E+001,-4.29203E+000,9.99786E-001,-2.71400E+001,-4.59257E+001,9.99660E-001,4.97941E-002,-2.14648E-002,1.25614E-004,4.97943E-002,-2.14650E-002,1.01000E-001,4.99518E-002,1.05087E+000,1.94615E-002,0.00000E+000,-1.78704E-002,9.79508E-001,0.00000E+000,2.44501E-004,-4.30714E-002,1.00000E+000,9
1289,1327,2.70881E+001,2.65458E-001,-1.18334E-001,3.62287E+000,9.76223E-003,-8.71143E-002,3.62393E+000,7.82779E-003,4.24367E-001,0,5.43977E+001,-1.92164E-001,9.99644E-001,2.10118E+001,-2.81788E+001,9.98472E-001,5.98493E-002,-2.25000E-002,2.23659E-003,5.99100E-002,-2.25607E-002,1.55461E+000,6.05154E-002,1.06167E+000,-4.47906E-003,0.00000E+000,8.50589E-003,9.78626E-001,0.00000E+000,-1.47463E-004,-4.30845E-002,1.00000E+000,9
1289,1337,2.71219E+001,9.12627E-001,-8.73020E-002,3.62185E+000,-4.96605E-003,-1.16484E-001,3.62373E+000,7.41700E-003,4.41437E-001,0,5.44926E+001,-3.75145E-001,9.99744E-001,2.16291E+001,-2.81857E+001,9.98907E-001,6.07550E-002,-2.24659E-002,2.55230E-003,6.08332E-002,-2.25441E-002,1.75501E+000,6.15087E-002,1.06264E+000,-4.42819E-003,0.00000E+000,8.99082E-003,9.78652E-001,0.00000E+000,1.83158E-003,-4.29803E-002,1.00000E+000,9
569,1317,-2.27327E+001,-1.00912E+000,1.68174E-001,7.74510E-001,-2.26804E-001,1.03251E-001,8.13613E-001,9.17123E-003,6.91129E-001,0,1.19418E+001,-3.88388E+000,9.99627E-001,-2.76004E+001,-4.50160E+001,9.98715E-001,5.23018E-002,-2.14542E-002,-3.11716E-004,5.23031E-002,-2.14555E-002,-2.42144E-001,5.25835E-002,1.05352E+000,1.94774E-002,0.00000E+000,-1.87922E-002,9.79503E-001,0.00000E+000,2.51036E-003,-4.30577E-002,1.00000E+000,9
1289,1317,2.70667E+001,-3.73851E-001,-1.07698E-001,3.62441E+000,2.39565E-002,-5.93575E-002,3.62498E+000,1.04317E-002,4.84250E-001,0,5.43119E+001,-2.38532E-002,9.99730E-001,2.06445E+001,-2.81058E+001,9.97470E-001,5.89473E-002,-2.25237E-002,1.93148E-003,5.89931E-002,-2.25695E-002,1.35733E+000,5.95329E-002,1.06072E+000,-4.51262E-003,0.00000E+000,8.02559E-003,9.78610E-001,0.00000E+000,-2.10764E-003,-4.31533E-002,1.00000E+000,9
1289,1287,2.70454E+001,-2.26675E+000,6.69573E-002,3.63211E+000,7.52897E-002,1.98810E-002,3.63295E+000,1.13164E-002,3.95081E-001,0,5.40945E+001,6.72397E-001,9.99731E-001,2.04112E+001,-2.79471E+001,9.97747E-001,5.62250E-002,-2.25590E-002,1.04667E-003,5.62389E-002,-2.25729E-002,7.61016E-001,5.66024E-002,1.05786E+000,-4.55524E-003,0.00000E+000,6.59138E-003,9.78588E-001,0.00000E+000,-7.96084E-003,-4.32406E-002,1.00000E+000,9
1289,1297,2.70504E+001,-1.63972E+000,3.47261E-003,3.63057E+000,5.81422E-002,-8.60209E-004,3.63104E+000,1.20969E-002,3.00954E-001,0,5.41604E+001,4.53404E-001,9.99762E-001,2.04508E+001,-2.81112E+001,9.98255E-001,5.71325E-002,-2.25501E-002,1.33811E-003,5.71550E-002,-2.25726E-002,9.61806E-001,5.75740E-002,1.05881E+000,-4.54549E-003,0.00000E+000,7.06697E-003,9.78593E-001,0.00000E+000,-6.01989E-003,-4.32207E-002,1.00000E+000,9
1289,1307,2.70534E+001,-1.00923E+000,-7.64459E-002,3.62715E+000,3.96120E-002,-3.65328E-002,3.62755E+000,9.80007E-003,4.90657E-001,0,5.42604E+001,1.82459E-001,9.99846E-001,2.04328E+001,-2.80450E+001,9.97914E-001,5.80422E-002,-2.25412E-002,1.63147E-003,5.80752E-002,-2.25742E-002,1.15936E+000,5.85528E-002,1.05976E+000,-4.53610E-003,0.00000E+000,7.54618E-003,9.78598E-001,0.00000E+000,-4.06417E-003,-4.32014E-002,1.00000E+000,9
559,1327,-2.33820E+001,-3.90253E-001,7.69136E-002,7.62121E-001,-2.32320E-001,7.15113E-002,7.99947E-001,1.68102E-002,8.05617E-001,0,1.18378E+001,-3.93099E+000,9.99873E-001,-2.75939E+001,-4.53652E+001,9.99235E-001,5.08394E-002,-2.14346E-002,1.58705E-004,5.08397E-002,-2.14349E-002,1.25814E-001,5.10476E-002,1.05195E+000,2.09410E-002,0.00000E+000,-1.92177E-002,9.79467E-001,0.00000E+000,1.57805E-003,-4.19570E-002,1.00000E+000,9
559,1337,-2.33657E+001,2.26619E-001,3.46362E-002,7.70803E-001,-2.47609E-001,4.18835E-002,8.10680E-001,4.35912E-003,6.54022E-001,0,1.20514E+001,-4.06692E+000,9.99848E-001,-2.73098E+001,-4.58886E+001,9.99720E-001,4.96041E-002,-2.14375E-002,3.47400E-004,4.96058E-002,-2.14392E-002,2.80173E-001,4.97576E-002,1.05065E+000,2.09257E-002,0.00000E+000,-1.88077E-002,9.79472E-001,0.00000E+000,3.57383E-004,-4.19714E-002,1.00000E+000,9
559,1347,-2.33445E+001,8.50399E-001,1.23072E-002,7.82597E-001,-2.58698E-001,2.06750E-002,8.24506E-001,5.47759E-003,6.40897E-001,0,1.22907E+001,-4.21314E+000,9.99743E-001,-2.68881E+001,-4.62811E+001,9.99468E-001,4.83619E-002,-2.14393E-002,5.34968E-004,4.83660E-002,-2.14434E-002,4.39090E-001,4.84694E-002,1.04934E+000,2.09067E-002,0.00000E+000,-1.83965E-002,9.79478E-001,0.00000E+000,-8.66925E-004,-4.19892E-002,1.00000E+000,9
559,1357,-2.33160E+001,1.47706E+000,1.21727E-002,7.97383E-001,-2.71624E-001,-4.27483E-003,8.42388E-001,4.74002E-003,6.36739E-001,0,1.25861E+001,-4.37346E+000,9.99716E-001,-2.62887E+001,-4.66750E+001,9.99623E-001,4.71109E-002,-2.14387E-002,7.19499E-004,4.71184E-002,-2.14463E-002,6.01291E-001,4.71815E-002,1.04804E+000,2.08794E-002,0.00000E+000,-1.79835E-002,9.79487E-001,0.00000E+000,-2.09678E-003,-4.20149E-002,1.00000E+000,9
559,1317,-2.33997E+001,-9.99227E-001,1.68643E-001,7.43709E-001,-2.13782E-001,9.87509E-002,7.80101E-001,1.64039E-002,7.35809E-001,0,1.14757E+001,-3.66876E+000,9.99773E-001,-2.77451E+001,-4.49373E+001,9.99017E-001,5.20694E-002,-2.14269E-002,-3.74115E-005,5.20694E-002,-2.14270E-002,-2.91650E-002,5.23406E-002,1.05324E+000,2.09398E-002,0.00000E+000,-1.96270E-002,9.79468E-001,0.00000E+000,2.79684E-003,-4.19582E-002,1.00000E+000,9
1299,1327,2.77987E+001,2.76811E-001,-1.21435E-001,3.66306E+000,1.36862E-002,-9.36676E-002,3.66429E+000,9.39952E-003,4.38112E-001,0,5.49809E+001,-1.25472E-001,9.99677E-001,2.21146E+001,-2.78999E+001,9.99018E-001,5.96421E-002,-2.19284E-002,2.49026E-003,5.97181E-002,-2.20043E-002,1.74701E+000,6.04029E-002,1.06146E+000,-3.49690E-003,0.00000E+000,8.07900E-003,9.79098E-001,0.00000E+000,4.79257E-004,-4.08218E-002,1.00000E+000,9
1299,1337,2.78370E+001,9.25353E-001,-8.06084E-002,3.66502E+000,-1.32852E-003,-1.17792E-001,3.66691E+000,9.12581E-003,4.73859E-001,0,5.50983E+001,-3.22827E-001,9.99653E-001,2.28123E+001,-2.78961E+001,9.98665E-001,6.06144E-002,-2.18911E-002,2.82718E-003,6.07111E-002,-2.19879E-002,1.96026E+000,6.14752E-002,1.06250E+000,-3.43996E-003,0.00000E+000,8.59853E-003,9.79126E-001,0.00000E+000,2.62711E-003,-4.07040E-002,1.00000E+000,9
1299,1287,2.77563E+001,-2.25512E+000,7.07209E-002,3.67126E+000,7.81005E-002,1.39443E-002,3.67211E+000,9.17699E-003,5.01284E-001,0,5.46570E+001,6.99250E-001,9.99747E-001,2.15301E+001,-2.76384E+001,9.97846E-001,5.57564E-002,-2.19880E-002,1.22896E-003,5.57758E-002,-2.20075E-002,9.05415E-001,5.61876E-002,1.05737E+000,-3.57649E-003,0.00000E+000,6.03293E-003,9.79058E-001,0.00000E+000,-7.97980E-003,-4.09864E-002,1.00000E+000,9
1299,1297,2.77603E+001,-1.63053E+000,1.39599E-003,3.67012E+000,5.87575E-002,-7.25916E-003,3.67060E+000,9.85932E-003,4.81391E-001,0,5.47328E+001,4.14728E-001,9.99812E-001,2.15453E+001,-2.77897E+001,9.98157E-001,5.67305E-002,-2.19803E-002,1.53718E-003,5.67605E-002,-2.20103E-002,1.11839E+000,5.72351E-002,1.05838E+000,-3.56824E-003,0.00000E+000,6.54145E-003,9.79062E-001,0.00000E+000,-5.87744E-003,-4.09693E-002,1.00000E+000,9
1299,1307,2.77717E+001,-9.93698E-001,-4.25942E-002,3.67093E+000,4.60337E-002,-2.23904E-002,3.67129E+000,1.66331E-002,5.37162E-001,0,5.48070E+001,2.24798E-001,9.99836E-001,2.17091E+001,-2.77670E+001,9.98488E-001,5.77061E-002,-2.19674E-002,1.85149E-003,5.77491E-002,-2.20104E-002,1.33051E+000,5.82905E-002,1.05941E+000,-3.55158E-003,0.00000E+000,7.05364E-003,9.79071E-001,0.00000E+000,-3.75987E-003,-4.09349E-002,1.00000E+000,9
1299,1317,2.77817E+001,-3.60391E-001,-9.32076E-002,3.66546E+000,2.84052E-002,-6.20350E-002,3.66609E+000,1.26991E-002,4.88177E-001,0,5.48892E+001,4.52577E-002,9.99740E-001,2.18421E+001,-2.78386E+001,9.98548E-001,5.86767E-002,-2.19498E-002,2.16948E-003,5.87351E-002,-2.20081E-002,1.54021E+000,5.93466E-002,1.06043E+000,-3.52729E-003,0.00000E+000,7.56622E-003,9.79083E-001,0.00000E+000,-1.64074E-003,-4.08846E-002,1.00000E+000,9
559,1307,-2.34144E+001,-1.60916E+000,2.74634E-001,7.26570E-001,-1.97351E-001,1.29205E-001,7.63901E-001,7.02386E-003,6.94269E-001,0,1.11256E+001,-3.46721E+000,9.99543E-001,-2.78069E+001,-4.45387E+001,9.98795E-001,5.32956E-002,-2.14183E-002,-2.34968E-004,5.32963E-002,-2.14190E-002,-1.80187E-001,5.36373E-002,1.05454E+000,2.09351E-002,0.00000E+000,-2.00361E-002,9.79469E-001,0.00000E+000,4.01492E-003,-4.19626E-002,1.00000E+000,9
549,1347,-2.40105E+001,8.60507E-001,1.12179E-002,7.53224E-001,-2.44222E-001,1.83832E-002,7.92041E-001,4.59320E-003,6.74943E-001,0,1.18392E+001,-3.97590E+000,9.99697E-001,-2.70175E+001,-4.62067E+001,9.99558E-001,4.81975E-002,-2.13885E-002,7.47352E-004,4.82055E-002,-2.13965E-002,6.15261E-001,4.83067E-002,1.04914E+000,2.23154E-002,0.00000E+000,-1.93068E-002,9.79463E-001,0.00000E+000,-6.82933E-004,-4.08234E-002,1.00000E+000,9
549,1357,-2.39817E+001,1.49011E+000,1.76131E-002,7.67651E-001,-2.55007E-001,-5.31987E-003,8.08916E-001,4.80778E-003,6.48536E-001,0,1.21249E+001,-4.09049E+000,9.99696E-001,-2.63904E+001,-4.65827E+001,9.99652E-001,4.69695E-002,-2.13880E-002,9.24872E-004,4.69820E-002,-2.14005E-002,7.75019E-001,4.70439E-002,1.04786E+000,2.22873E-002,0.00000E+000,-1.89082E-002,9.79472E-001,0.00000E+000,-1.94267E-003,-4.08509E-002,1.00000E+000,9
549,1327,-2.40571E+001,-3.79266E-001,9.22834E-002,7.21806E-001,-2.16950E-001,7.46632E-002,7.57394E-001,1.22043E-002,7.50440E-001,0,1.12012E+001,-3.67668E+000,9.99654E-001,-2.78105E+001,-4.53545E+001,9.98148E-001,5.06289E-002,-2.13821E-002,3.82193E-004,5.06309E-002,-2.13841E-002,3.04081E-001,5.08340E-002,1.05170E+000,2.23451E-002,0.00000E+000,-2.00993E-002,9.79454E-001,0.00000E+000,1.82149E-003,-4.07942E-002,1.00000E+000,9
549,1337,-2.40331E+001,2.36662E-001,3.84911E-002,7.39716E-001,-2.31285E-001,4.25015E-002,7.76195E-001,4.07533E-003,6.53801E-001,0,1.15653E+001,-3.82759E+000,9.99790E-001,-2.74449E+001,-4.58412E+001,9.99743E-001,4.94198E-002,-2.13861E-002,5.65359E-004,4.94243E-002,-2.13906E-002,4.57447E-001,4.95729E-002,1.05042E+000,2.23332E-002,0.00000E+000,-1.97047E-002,9.79458E-001,0.00000E+000,5.74401E-004,-4.08059E-002,1.00000E+000,9
1309,1317,2.84853E+001,-3.55184E-001,-1.12629E-001,3.70245E+000,2.98130E-002,-6.96451E-002,3.70322E+000,9.42677E-003,4.59646E-001,0,5.54308E+001,7.86760E-002,9.99686E-001,2.28174E+001,-2.76431E+001,9.98811E-001,5.85683E-002,-2.14286E-002,2.43582E-003,5.86424E-002,-2.15027E-002,1.74244E+000,5.93333E-002,1.06032E+000,-2.36470E-003,0.00000E+000,7.00413E-003,9.79508E-001,0.00000E+000,-1.31130E-003,-3.85556E-002,1.00000E+000,9
1309,1327,2.85090E+001,2.86138E-001,-1.23144E-001,3.70403E+000,1.72400E-002,-9.33028E-002,3.70524E+000,1.11447E-002,4.29132E-001,0,5.55468E+001,-8.18788E-002,9.99628E-001,2.32185E+001,-2.76672E+001,9.98556E-001,5.96103E-002,-2.14059E-002,2.74960E-003,5.97035E-002,-2.14991E-002,1.94158E+000,6.04775E-002,1.06143E+000,-2.32716E-003,0.00000E+000,7.49995E-003,9.79525E-001,0.00000E+000,8.79474E-004,-3.84813E-002,1.00000E+000,9
1309,1337,2.85456E+001,9.34725E-001,-8.72487E-002,3.70545E+000,2.93609E-003,-1.17487E-001,3.70731E+000,1.02728E-002,4.54889E-001,0,5.56571E+001,-2.66456E-001,9.99750E-001,2.38813E+001,-2.76554E+001,9.99102E-001,6.06566E-002,-2.13714E-002,3.07632E-003,6.07718E-002,-2.14867E-002,2.14476E+000,6.16345E-002,1.06255E+000,-2.26767E-003,0.00000E+000,8.00078E-003,9.79551E-001,0.00000E+000,3.09241E-003,-3.83636E-002,1.00000E+000,9
549,1317,-2.40704E+001,-9.90610E-001,1.75217E-001,7.08968E-001,-2.01421E-001,1.00467E-001,7.43841E-001,1.01716E-002,7.67396E-001,0,1.09315E+001,-3.48016E+000,9.99739E-001,-2.79218E+001,-4.48983E+001,9.98873E-001,5.18331E-002,-2.13750E-002,1.94186E-004,5.18337E-002,-2.13755E-002,1.51977E-001,5.20982E-002,1.05297E+000,2.23462E-002,0.00000E+000,-2.04935E-002,9.79454E-001,0.00000E+000,3.06692E-003,-4.07932E-002,1.00000E+000,9
549,1307,-2.40836E+001,-1.59927E+000,2.67053E-001,6.94177E-001,-1.83083E-001,1.22400E-001,7.28274E-001,7.45075E-003,7.10845E-001,0,1.06399E+001,-3.22318E+000,9.99536E-001,-2.80037E+001,-4.44557E+001,9.98876E-001,5.30362E-002,-2.13668E-002,4.14355E-006,5.30362E-002,-2.13668E-002,3.19084E-003,5.33687E-002,1.05424E+000,2.23433E-002,0.00000E+000,-2.08882E-002,9.79455E-001,0.00000E+000,4.31440E-003,-4.07959E-002,1.00000E+000,9
1309,1287,2.84683E+001,-2.24907E+000,7.53478E-002,3.71016E+000,7.83331E-002,5.55013E-003,3.71099E+000,8.43351E-003,4.59068E-001,0,5.52260E+001,7.11354E-001,9.99754E-001,2.26711E+001,-2.74925E+001,9.97718E-001,5.54245E-002,-2.14581E-002,1.53204E-003,5.54550E-002,-2.14887E-002,1.14113E+000,5.59209E-002,1.05702E+000,-2.40661E-003,0.00000E+000,5.52543E-003,9.79489E-001,0.00000E+000,-7.84497E-003,-3.86386E-002,1.00000E+000,9
1309,1297,2.84698E+001,-1.62389E+000,-5.21157E-003,3.70820E+000,5.78911E-002,-2.01557E-002,3.70871E+000,1.05856E-002,5.02112E-001,0,5.53102E+001,4.25123E-001,9.99743E-001,2.26312E+001,-2.75778E+001,9.98012E-001,5.64769E-002,-2.14527E-002,1.82917E-003,5.65198E-002,-2.14956E-002,1.34386E+000,5.70569E-002,1.05812E+000,-2.40064E-003,0.00000E+000,6.01760E-003,9.79492E-001,0.00000E+000,-5.67032E-003,-3.86268E-002,1.00000E+000,9
1309,1307,2.84705E+001,-9.91639E-001,-7.65571E-002,3.70407E+000,4.61216E-002,-4.19038E-002,3.70459E+000,9.95659E-003,4.06356E-001,0,5.53411E+001,2.95692E-001,9.99730E-001,2.25922E+001,-2.76424E+001,9.99168E-001,5.75203E-002,-2.14459E-002,2.12648E-003,5.75775E-002,-2.15031E-002,1.54143E+000,5.81888E-002,1.05921E+000,-2.39234E-003,0.00000E+000,6.50834E-003,9.79496E-001,0.00000E+000,-3.50195E-003,-3.86104E-002,1.00000E+000,9
539,1347,-2.46789E+001,8.70835E-001,1.14601E-002,7.21072E-001,-2.28160E-001,1.63349E-002,7.56485E-001,4.46887E-003,6.56478E-001,0,1.13424E+001,-3.71123E+000,9.99755E-001,-2.71722E+001,-4.61584E+001,9.99556E-001,4.80926E-002,-2.13474E-002,8.88705E-004,4.81040E-002,-2.13588E-002,7.33120E-001,4.82044E-002,1.04900E+000,2.35824E-002,0.00000E+000,-2.02279E-002,9.79444E-001,0.00000E+000,-3.67013E-004,-3.97592E-002,1.00000E+000,9
539,1357,-2.46500E+001,1.50111E+000,1.54722E-002,7.36641E-001,-2.37591E-001,-3.76667E-003,7.74017E-001,4.30462E-003,6.43515E-001,0,1.16366E+001,-3.81334E+000,9.99799E-001,-2.65503E+001,-4.65142E+001,9.99649E-001,4.69382E-002,-2.13479E-002,1.06423E-003,4.69547E-002,-2.13645E-002,8.92662E-001,4.70181E-002,1.04780E+000,2.35581E-002,0.00000E+000,-1.98403E-002,9.79451E-001,0.00000E+000,-1.56078E-003,-3.97833E-002,1.00000E+000,9
539,1327,-2.47236E+001,-3.71215E-001,8.33955E-002,6.91772E-001,-2.01389E-001,6.62356E-002,7.23528E-001,5.43137E-003,6.58832E-001,0,1.07547E+001,-3.39659E+000,9.99449E-001,-2.79668E+001,-4.53541E+001,9.99151E-001,5.03829E-002,-2.13405E-002,5.29772E-004,5.03868E-002,-2.13444E-002,4.23174E-001,5.05825E-002,1.05141E+000,2.36109E-002,0.00000E+000,-2.09998E-002,9.79434E-001,0.00000E+000,2.01027E-003,-3.97311E-002,1.00000E+000,9
539,1337,-2.47020E+001,2.47954E-001,3.66955E-002,7.06890E-001,-2.14536E-001,3.80483E-002,7.39707E-001,4.53566E-003,6.44496E-001,0,1.10641E+001,-3.55093E+000,9.99655E-001,-2.76143E+001,-4.57675E+001,9.99584E-001,4.92420E-002,-2.13446E-002,7.09795E-004,4.92491E-002,-2.13517E-002,5.76069E-001,4.93939E-002,1.05021E+000,2.35989E-002,0.00000E+000,-2.06148E-002,9.79438E-001,0.00000E+000,8.24530E-004,-3.97430E-002,1.00000E+000,9
1319,1297,2.91701E+001,-1.61927E+000,-2.36741E-002,3.74154E+000,6.03595E-002,-2.72087E-002,3.74212E+000,8.83297E-003,3.78695E-001,0,5.57930E+001,5.01578E-001,9.99715E-001,2.35620E+001,-2.74454E+001,9.98474E-001,5.62246E-002,-2.08676E-002,2.13993E-003,5.62839E-002,-2.09270E-002,1.58879E+000,5.68972E-002,1.05786E+000,-1.06207E-003,0.00000E+000,5.37933E-003,9.79969E-001,0.00000E+000,-5.72610E-003,-3.58633E-002,1.00000E+000,9
1319,1307,2.91774E+001,-9.88028E-001,-8.46370E-002,3.74073E+000,4.47835E-002,-5.02151E-002,3.74133E+000,9.73392E-003,3.47005E-001,0,5.58792E+001,2.98496E-001,9.99671E-001,2.36396E+001,-2.75135E+001,9.99159E-001,5.73572E-002,-2.08583E-002,2.44281E-003,5.74334E-002,-2.09345E-002,1.78713E+000,5.81321E-002,1.05905E+000,-1.04708E-003,0.00000E+000,5.87491E-003,9.79976E-001,0.00000E+000,-3.35226E-003,-3.58333E-002,1.00000E+000,9
539,1307,-2.47518E+001,-1.59083E+000,2.61918E-001,6.61971E-001,-1.68655E-001,1.14834E-001,6.92702E-001,5.03440E-003,6.69272E-001,0,1.01581E+001,-2.97774E+000,9.99652E-001,-2.81730E+001,-4.44292E+001,9.99248E-001,5.26460E-002,-2.13245E-002,1.58953E-004,5.26463E-002,-2.13249E-002,1.23120E-001,5.29617E-002,1.05380E+000,2.36083E-002,0.00000E+000,-2.17664E-002,9.79435E-001,0.00000E+000,4.37141E-003,-3.97336E-002,1.00000E+000,9
539,1317,-2.47394E+001,-9.84439E-001,1.63841E-001,6.76727E-001,-1.87053E-001,9.15102E-002,7.08041E-001,4.97047E-003,6.94627E-001,0,1.04524E+001,-3.23693E+000,9.99629E-001,-2.81241E+001,-4.49107E+001,9.99236E-001,5.15171E-002,-2.13333E-002,3.45447E-004,5.15187E-002,-2.13350E-002,2.71681E-001,5.17714E-002,1.05261E+000,2.36124E-002,0.00000E+000,-2.13835E-002,9.79434E-001,0.00000E+000,3.19210E-003,-3.97296E-002,1.00000E+000,9
1319,1287,2.91727E+001,-2.24753E+000,6.05822E-002,3.74521E+000,7.50722E-002,-6.44099E-003,3.74597E+000,9.35498E-003,4.49174E-001,0,5.57557E+001,6.80248E-001,9.99724E-001,2.36699E+001,-2.73604E+001,9.98542E-001,5.50893E-002,-2.08703E-002,1.84428E-003,5.51340E-002,-2.09151E-002,1.39004E+000,5.56665E-002,1.05667E+000,-1.06412E-003,0.00000E+000,4.88566E-003,9.79968E-001,0.00000E+000,-8.09076E-003,-3.58673E-002,1.00000E+000,9
529,1327,-2.53904E+001,-3.60603E-001,8.42775E-002,6.60223E-001,-1.85457E-001,6.20864E-002,6.88581E-001,4.95474E-003,6.51499E-001,0,1.02726E+001,-3.14119E+000,9.99454E-001,-2.80922E+001,-4.52936E+001,9.98943E-001,5.01524E-002,-2.12656E-002,6.73813E-004,5.01587E-002,-2.12719E-002,5.40509E-001,5.03511E-002,1.05115E+000,2.45165E-002,0.00000E+000,-2.15875E-002,9.79471E-001,0.00000E+000,2.56991E-003,-3.90973E-002,1.00000E+000,9
529,1307,-2.54184E+001,-1.58138E+000,2.66160E-001,6.29993E-001,-1.54585E-001,1.10572E-001,6.58038E-001,6.41014E-003,6.49738E-001,0,9.67083E+000,-2.74821E+000,9.99727E-001,-2.82850E+001,-4.43958E+001,9.99397E-001,5.21459E-002,-2.12520E-002,3.70683E-004,5.21478E-002,-2.12538E-002,2.89353E-001,5.24440E-002,1.05325E+000,2.45133E-002,0.00000E+000,-2.22141E-002,9.79472E-001,0.00000E+000,4.68160E-003,-3.91006E-002,1.00000E+000,9
529,1317,-2.54072E+001,-9.74188E-001,1.58157E-001,6.45029E-001,-1.71155E-001,8.65199E-002,6.72935E-001,5.12271E-003,6.35650E-001,0,9.97074E+000,-2.94935E+000,9.99775E-001,-2.82848E+001,-4.48658E+001,9.99280E-001,5.11516E-002,-2.12599E-002,5.24072E-004,5.11554E-002,-2.12637E-002,4.14644E-001,5.13973E-002,1.05220E+000,2.45192E-002,0.00000E+000,-2.19012E-002,9.79470E-001,0.00000E+000,3.62707E-003,-3.90946E-002,1.00000E+000,9
