Coordinates.Image X [Pixel],Coordinates.Image Y [Pixel],coor.X [mm],coor.Y [mm],coor.Z [mm],disp.Horizontal Displacement U [mm],disp.Vertical Displacement V [mm],disp.Out-Of-Plane: W [mm],disp.Displacement Magnitude [mm],stats.Sigma [mm],stats.Epipolar Distance [Pixel],stats.Shape Index [-],SameCamera.Horizontal: u [Pixel],SameCamera.Vertical: v [Pixel],SameCamera.Correlation Value 2D [-],CrossCamera.Horizontal: q [Pixel],CrossCamera.Vertical: r [Pixel],CrossCamera.Correlation Value Persp [-],strain.Strain-global frame: Exx [ ],strain.Strain-global frame: Eyy [ ],strain.Strain-global frame: Exy [ ],strain.Maximum Principal Strain: EI [ ],strain.Minimum Principal Strain: EII [ ],strain.Shear Angle Gamma [deg],strain.Von Mises Equivalent Strain [ ],defgradient.F[0,0] [-],defgradient.F[0,1] [-],defgradient.F[0,2] [-],defgradient.F[1,0] [-],defgradient.F[1,1] [-],defgradient.F[1,2] [-],defgradient.F[2,0] [-],defgradient.F[2,1] [-],defgradient.F[2,2] [-],ext.Current Image [#]
929,1317,-6.27896E-002,-5.29527E-001,-1.30530E-001,2.73280E-001,8.68323E-002,-4.38096E-002,2.90071E-001,4.29524E-003,5.28701E-001,0,4.30770E+000,1.40310E+000,9.99949E-001,-4.08500E+001,-3.39442E+001,9.99415E-001,6.68147E-003,-2.88605E-003,1.76480E-004,6.68472E-003,-2.88930E-003,1.05638E+000,6.70516E-003,1.00671E+000,-2.75872E-003,0.00000E+000,3.16041E-003,9.97263E-001,0.00000E+000,-4.42869E-003,-1.73013E-002,1.00000E+000,1
919,1307,-7.31692E-001,-1.17844E+000,-1.21388E-001,2.70929E-001,8.72004E-002,-2.98703E-002,2.86179E-001,7.01130E-003,5.30984E-001,0,4.22869E+000,1.38584E+000,9.99932E-001,-4.12656E+001,-3.40721E+001,9.97545E-001,6.91218E-003,-2.83206E-003,1.55107E-004,6.91464E-003,-2.83452E-003,9.11714E-001,6.95194E-003,1.00694E+000,-2.42799E-003,0.00000E+000,2.78229E-003,9.97322E-001,0.00000E+000,-3.92863E-003,-1.75789E-002,1.00000E+000,1
919,1317,-7.30953E-001,-5.45629E-001,-1.82272E-001,2.68856E-001,8.50083E-002,-3.98433E-002,2.84777E-001,6.73421E-003,5.03742E-001,0,4.23009E+000,1.36971E+000,9.99947E-001,-4.12798E+001,-3.41836E+001,9.97688E-001,6.65681E-003,-2.83269E-003,1.07096E-004,6.65802E-003,-2.83390E-003,6.46513E-001,6.68252E-003,1.00668E+000,-2.42906E-003,0.00000E+000,2.68192E-003,9.97322E-001,0.00000E+000,-3.56999E-003,-1.75775E-002,1.00000E+000,1
919,1327,-7.15276E-001,1.00063E-001,-1.76215E-001,2.67408E-001,8.36315E-002,-4.89178E-002,2.84420E-001,6.38204E-003,5.35669E-001,0,4.23723E+000,1.37209E+000,9.99927E-001,-4.09073E+001,-3.42112E+001,9.98289E-001,6.39663E-003,-2.83548E-003,5.52990E-005,6.39697E-003,-2.83581E-003,3.43177E-001,6.41066E-003,1.00642E+000,-2.43606E-003,0.00000E+000,2.57973E-003,9.97319E-001,0.00000E+000,-3.20485E-003,-1.75677E-002,1.00000E+000,1
929,1307,-6.80373E-002,-1.16534E+000,-9.01992E-002,2.75215E-001,8.92924E-002,-3.44995E-002,2.91387E-001,4.17389E-003,5.44795E-001,0,4.30627E+000,1.42825E+000,9.99956E-001,-4.09524E+001,-3.38420E+001,9.99513E-001,6.94695E-003,-2.88525E-003,2.07119E-004,6.95131E-003,-2.88961E-003,1.20624E+000,6.98417E-003,1.00698E+000,-2.75575E-003,0.00000E+000,3.22580E-003,9.97263E-001,0.00000E+000,-4.88756E-003,-1.73063E-002,1.00000E+000,1
929,1327,-5.05159E-002,1.11361E-001,-1.41673E-001,2.72117E-001,8.53769E-002,-5.27730E-002,2.90038E-001,3.54035E-003,4.81866E-001,0,4.31924E+000,1.40448E+000,9.99942E-001,-4.05713E+001,-3.40477E+001,9.99684E-001,6.41417E-003,-2.88743E-003,1.44325E-004,6.41641E-003,-2.88967E-003,8.88722E-001,6.42695E-003,1.00644E+000,-2.76440E-003,0.00000E+000,3.09463E-003,9.97261E-001,0.00000E+000,-3.96717E-003,-1.72916E-002,1.00000E+000,1
939,1307,5.90732E-001,-1.15571E+000,-8.10734E-002,2.79649E-001,9.20234E-002,-3.57666E-002,2.96566E-001,5.32104E-003,5.51309E-001,0,4.37507E+000,1.46911E+000,9.99940E-001,-4.07629E+001,-3.36224E+001,9.99404E-001,7.01673E-003,-2.81149E-003,2.95480E-004,7.02560E-003,-2.82037E-003,1.72049E+000,7.07096E-003,1.00705E+000,-3.04615E-003,0.00000E+000,3.69726E-003,9.97329E-001,0.00000E+000,-5.43777E-003,-1.69631E-002,1.00000E+000,1
939,1317,5.97279E-001,-5.19675E-001,-1.17213E-001,2.78213E-001,8.98375E-002,-4.43078E-002,2.95697E-001,5.48775E-003,4.96769E-001,0,4.38170E+000,1.45344E+000,9.99937E-001,-4.06314E+001,-3.37479E+001,9.99062E-001,6.76291E-003,-2.81264E-003,2.56736E-004,6.76979E-003,-2.81951E-003,1.53472E+000,6.80119E-003,1.00679E+000,-3.04931E-003,0.00000E+000,3.61573E-003,9.97328E-001,0.00000E+000,-4.95896E-003,-1.69572E-002,1.00000E+000,1
939,1327,6.10085E-001,1.24441E-001,-1.25204E-001,2.75925E-001,8.83412E-002,-5.69168E-002,2.95260E-001,3.20229E-003,5.10065E-001,0,4.38823E+000,1.46377E+000,9.99939E-001,-4.03385E+001,-3.37771E+001,9.99581E-001,6.50602E-003,-2.81463E-003,2.16107E-004,6.51103E-003,-2.81964E-003,1.32750E+000,6.53045E-003,1.00653E+000,-3.05546E-003,0.00000E+000,3.53332E-003,9.97327E-001,0.00000E+000,-4.47493E-003,-1.69458E-002,1.00000E+000,1
919,1337,-6.94216E-001,7.46907E-001,-1.50619E-001,2.66424E-001,8.18827E-002,-6.15235E-002,2.85432E-001,4.54491E-003,5.08762E-001,0,4.26292E+000,1.37337E+000,9.99885E-001,-4.04062E+001,-3.42964E+001,9.99178E-001,6.13572E-003,-2.83901E-003,2.39102E-006,6.13572E-003,-2.83901E-003,1.52645E-002,6.14141E-003,1.00616E+000,-2.44509E-003,0.00000E+000,2.47734E-003,9.97316E-001,0.00000E+000,-2.83898E-003,-1.75552E-002,1.00000E+000,1
929,1337,-3.26402E-002,7.58360E-001,-1.28737E-001,2.70381E-001,8.44255E-002,-6.59439E-002,2.90830E-001,3.86878E-003,4.88840E-001,0,4.33537E+000,1.41571E+000,9.99937E-001,-4.01505E+001,-3.40853E+001,9.99699E-001,6.14441E-003,-2.88939E-003,1.10595E-004,6.14576E-003,-2.89074E-003,7.01294E-001,6.14936E-003,1.00617E+000,-2.77278E-003,0.00000E+000,3.02832E-003,9.97259E-001,0.00000E+000,-3.50186E-003,-1.72773E-002,1.00000E+000,1
939,1337,6.27555E-001,7.70522E-001,-1.15237E-001,2.74644E-001,8.74910E-002,-6.84763E-002,2.96265E-001,3.33134E-003,5.03897E-001,0,4.40625E+000,1.47016E+000,9.99950E-001,-3.99325E+001,-3.38277E+001,9.99649E-001,6.24840E-003,-2.81707E-003,1.74647E-004,6.25176E-003,-2.82043E-003,1.10327E+000,6.26171E-003,1.00627E+000,-3.06315E-003,0.00000E+000,3.45077E-003,9.97324E-001,0.00000E+000,-3.99008E-003,-1.69315E-002,1.00000E+000,1
949,1317,1.25779E+000,-5.07030E-001,-1.03319E-001,2.81774E-001,9.29185E-002,-5.00497E-002,3.00891E-001,5.81503E-003,5.24962E-001,0,4.45199E+000,1.51542E+000,9.99935E-001,-4.04015E+001,-3.34799E+001,9.99124E-001,6.83671E-003,-2.78049E-003,3.22941E-004,6.84755E-003,-2.79132E-003,1.92108E+000,6.88638E-003,1.00687E+000,-3.30234E-003,0.00000E+000,4.00259E-003,9.97353E-001,0.00000E+000,-5.32902E-003,-1.65914E-002,1.00000E+000,1
949,1327,1.26963E+000,1.35264E-001,-1.16131E-001,2.79602E-001,9.15063E-002,-6.21692E-002,3.00692E-001,4.98583E-003,5.07595E-001,0,4.45893E+000,1.51991E+000,9.99919E-001,-4.01358E+001,-3.35409E+001,9.99516E-001,6.60505E-003,-2.78236E-003,2.83307E-004,6.61360E-003,-2.79090E-003,1.72706E+000,6.64037E-003,1.00663E+000,-3.30751E-003,0.00000E+000,3.92065E-003,9.97351E-001,0.00000E+000,-4.80362E-003,-1.65799E-002,1.00000E+000,1
949,1337,1.28639E+000,7.80714E-001,-1.08079E-001,2.78102E-001,8.99723E-002,-7.26790E-002,3.01195E-001,4.84701E-003,5.04452E-001,0,4.47062E+000,1.51553E+000,9.99885E-001,-3.97471E+001,-3.35941E+001,9.99389E-001,6.37198E-003,-2.78474E-003,2.42688E-004,6.37841E-003,-2.79117E-003,1.51714E+000,6.39494E-003,1.00640E+000,-3.31431E-003,0.00000E+000,3.83833E-003,9.97349E-001,0.00000E+000,-4.27577E-003,-1.65648E-002,1.00000E+000,1
949,1307,1.25243E+000,-1.14448E+000,-6.47119E-002,2.84106E-001,9.44780E-002,-4.08194E-002,3.02173E-001,4.57152E-003,5.62159E-001,0,4.45677E+000,1.51602E+000,9.99937E-001,-4.05085E+001,-3.33914E+001,9.99433E-001,7.06651E-003,-2.77938E-003,3.61128E-004,7.07974E-003,-2.79261E-003,2.09774E+000,7.13212E-003,1.00710E+000,-3.29960E-003,0.00000E+000,4.08398E-003,9.97354E-001,0.00000E+000,-5.85090E-003,-1.65975E-002,1.00000E+000,1
909,1317,-1.38676E+000,-5.55481E-001,-1.86163E-001,2.64764E-001,8.29619E-002,-4.14263E-002,2.80533E-001,6.62231E-003,4.35944E-001,0,4.17525E+000,1.34765E+000,9.99925E-001,-4.14049E+001,-3.44497E+001,9.97495E-001,6.68174E-003,-2.82803E-003,1.68370E-005,6.68177E-003,-2.82806E-003,1.01441E-001,6.70795E-003,1.00671E+000,-2.11416E-003,0.00000E+000,2.17362E-003,9.97329E-001,0.00000E+000,-2.62431E-003,-1.76614E-002,1.00000E+000,1
909,1327,-1.37102E+000,9.13887E-002,-1.81478E-001,2.63869E-001,8.22183E-002,-5.01039E-002,2.80886E-001,5.25376E-003,4.97610E-001,0,4.18921E+000,1.36009E+000,9.99922E-001,-4.10330E+001,-3.44428E+001,9.98401E-001,6.44124E-003,-2.83050E-003,-3.09242E-005,6.44135E-003,-2.83061E-003,-1.91097E-001,6.45707E-003,1.00646E+000,-2.12039E-003,0.00000E+000,2.08110E-003,9.97327E-001,0.00000E+000,-2.40164E-003,-1.76557E-002,1.00000E+000,1
909,1337,-1.34969E+000,7.40684E-001,-1.56694E-001,2.63045E-001,8.00127E-002,-6.44986E-002,2.82409E-001,5.14352E-003,5.46183E-001,0,4.22312E+000,1.36694E+000,9.99936E-001,-4.05275E+001,-3.44522E+001,9.99114E-001,6.19925E-003,-2.83373E-003,-7.99746E-005,6.19996E-003,-2.83444E-003,-5.07223E-001,6.20753E-003,1.00622E+000,-2.12870E-003,0.00000E+000,1.98805E-003,9.97324E-001,0.00000E+000,-2.17768E-003,-1.76481E-002,1.00000E+000,1
909,1307,-1.38671E+000,-1.18788E+000,-1.16901E-001,2.66590E-001,8.53700E-002,-2.77700E-002,2.81299E-001,6.69459E-003,4.47004E-001,0,4.15817E+000,1.35646E+000,9.99907E-001,-4.13591E+001,-3.43563E+001,9.97259E-001,6.91752E-003,-2.82761E-003,6.09797E-005,6.91790E-003,-2.82799E-003,3.58507E-001,6.95616E-003,1.00694E+000,-2.11350E-003,0.00000E+000,2.26436E-003,9.97329E-001,0.00000E+000,-2.84271E-003,-1.76620E-002,1.00000E+000,1
919,1347,-6.70302E-001,1.39785E+000,-1.14244E-001,2.65044E-001,8.02816E-002,-7.82600E-002,2.87781E-001,6.91295E-003,5.25774E-001,0,4.29588E+000,1.38650E+000,9.99944E-001,-3.98358E+001,-3.43244E+001,9.99554E-001,5.87307E-003,-2.84304E-003,-5.14759E-005,5.87337E-003,-2.84334E-003,-3.38364E-001,5.87436E-003,1.00589E+000,-2.45547E-003,0.00000E+000,2.37434E-003,9.97312E-001,0.00000E+000,-2.47094E-003,-1.75408E-002,1.00000E+000,1
929,1347,-9.76735E-003,1.40835E+000,-9.38129E-002,2.68474E-001,8.28651E-002,-8.09490E-002,2.92399E-001,4.13745E-003,4.75390E-001,0,4.35490E+000,1.42870E+000,9.99941E-001,-3.96018E+001,-3.41390E+001,9.99585E-001,5.87297E-003,-2.89183E-003,7.55915E-005,5.87363E-003,-2.89248E-003,4.94095E-001,5.87385E-003,1.00589E+000,-2.78340E-003,0.00000E+000,2.96167E-003,9.97257E-001,0.00000E+000,-3.03418E-003,-1.72592E-002,1.00000E+000,1
939,1347,6.49425E-001,1.42068E+000,-8.24860E-002,2.72039E-001,8.59901E-002,-8.33447E-002,2.97231E-001,6.75763E-003,4.92749E-001,0,4.41499E+000,1.48568E+000,9.99943E-001,-3.94065E+001,-3.38718E+001,9.99037E-001,5.98873E-003,-2.82019E-003,1.31733E-004,5.99070E-003,-2.82216E-003,8.56576E-001,5.99404E-003,1.00601E+000,-3.07325E-003,0.00000E+000,3.36766E-003,9.97321E-001,0.00000E+000,-3.50194E-003,-1.69128E-002,1.00000E+000,1
949,1347,1.31094E+000,1.43349E+000,-6.41545E-002,2.76126E-001,8.87162E-002,-8.46966E-002,3.02141E-001,5.53258E-003,5.21362E-001,0,4.47959E+000,1.52824E+000,9.99845E-001,-3.91568E+001,-3.36070E+001,9.98874E-001,6.13622E-003,-2.78811E-003,2.00115E-004,6.14070E-003,-2.79259E-003,1.28392E+000,6.14907E-003,1.00616E+000,-3.32429E-003,0.00000E+000,3.75518E-003,9.97345E-001,0.00000E+000,-3.74258E-003,-1.65425E-002,1.00000E+000,1
959,1317,1.91768E+000,-4.96623E-001,-9.73146E-002,2.86163E-001,9.62557E-002,-5.50438E-002,3.06895E-001,4.66332E-003,5.18642E-001,0,4.53257E+000,1.57719E+000,9.99935E-001,-4.01959E+001,-3.32468E+001,9.99531E-001,6.93075E-003,-2.76316E-003,3.45013E-004,6.94302E-003,-2.77542E-003,2.03576E+000,6.98939E-003,1.00696E+000,-3.55191E-003,0.00000E+000,4.29537E-003,9.97363E-001,0.00000E+000,-5.56013E-003,-1.62335E-002,1.00000E+000,1
959,1327,1.92746E+000,1.45069E-001,-1.16414E-001,2.83596E-001,9.50001E-002,-6.53763E-002,3.06147E-001,8.34911E-003,5.22194E-001,0,4.52773E+000,1.57229E+000,9.99950E-001,-3.99776E+001,-3.32916E+001,9.99481E-001,6.70570E-003,-2.76461E-003,3.10888E-004,6.71589E-003,-2.77480E-003,1.87819E+000,6.74956E-003,1.00673E+000,-3.55632E-003,0.00000E+000,4.22395E-003,9.97362E-001,0.00000E+000,-5.03817E-003,-1.62235E-002,1.00000E+000,1
959,1337,1.94709E+000,7.91571E-001,-1.02967E-001,2.82601E-001,9.19885E-002,-8.04134E-002,3.07883E-001,6.62252E-003,5.09175E-001,0,4.56305E+000,1.57321E+000,9.99900E-001,-3.95340E+001,-3.33436E+001,9.99318E-001,6.47822E-003,-2.76692E-003,2.74925E-004,6.48639E-003,-2.77509E-003,1.70182E+000,6.50887E-003,1.00650E+000,-3.56384E-003,0.00000E+000,4.15186E-003,9.97360E-001,0.00000E+000,-4.51133E-003,-1.62064E-002,1.00000E+000,1
959,1307,1.91177E+000,-1.13522E+000,-6.16579E-002,2.88821E-001,9.83021E-002,-4.52272E-002,3.08425E-001,3.51141E-003,5.28021E-001,0,4.54004E+000,1.58424E+000,9.99936E-001,-4.03174E+001,-3.31851E+001,9.99631E-001,7.15477E-003,-2.76209E-003,3.78333E-004,7.16918E-003,-2.77650E-003,2.18163E+000,7.22965E-003,1.00719E+000,-3.54892E-003,0.00000E+000,4.36657E-003,9.97364E-001,0.00000E+000,-6.08043E-003,-1.62403E-002,1.00000E+000,1
959,1347,1.97020E+000,1.44200E+000,-6.54883E-002,2.81090E-001,9.06232E-002,-8.95079E-002,3.08603E-001,4.44547E-003,5.03537E-001,0,4.56967E+000,1.57188E+000,9.99883E-001,-3.89829E+001,-3.33882E+001,9.99496E-001,6.24972E-003,-2.76965E-003,2.38111E-004,6.25600E-003,-2.77593E-003,1.51121E+000,6.26919E-003,1.00627E+000,-3.57287E-003,0.00000E+000,4.07955E-003,9.97357E-001,0.00000E+000,-3.98286E-003,-1.61858E-002,1.00000E+000,1
909,1347,-1.32382E+000,1.39206E+000,-1.05656E-001,2.61717E-001,7.93363E-002,-7.65683E-002,2.83994E-001,6.45232E-003,5.18368E-001,0,4.24091E+000,1.37941E+000,9.99949E-001,-3.98903E+001,-3.45298E+001,9.99108E-001,5.95699E-003,-2.83765E-003,-1.29996E-004,5.95891E-003,-2.83957E-003,-8.46657E-001,5.96110E-003,1.00597E+000,-2.13890E-003,0.00000E+000,1.89494E-003,9.97320E-001,0.00000E+000,-1.95359E-003,-1.76387E-002,1.00000E+000,1
899,1327,-2.01855E+000,9.00755E-002,-1.49791E-001,2.60013E-001,8.09596E-002,-5.20910E-002,2.77263E-001,3.07771E-003,5.21894E-001,0,4.13835E+000,1.34766E+000,9.99856E-001,-4.09410E+001,-3.46094E+001,9.99586E-001,6.48909E-003,-2.81652E-003,-1.21912E-004,6.49069E-003,-2.81812E-003,-7.50456E-001,6.50941E-003,1.00651E+000,-1.82823E-003,0.00000E+000,1.59758E-003,9.97343E-001,0.00000E+000,-1.67951E-003,-1.77389E-002,1.00000E+000,1
899,1337,-2.00097E+000,7.35102E-001,-1.42686E-001,2.59315E-001,7.88805E-002,-6.69711E-002,2.79198E-001,5.26164E-003,5.29485E-001,0,4.17557E+000,1.35179E+000,9.99919E-001,-4.05334E+001,-3.46689E+001,9.99729E-001,6.26141E-003,-2.81851E-003,-1.58737E-004,6.26418E-003,-2.82129E-003,-1.00125E+000,6.27446E-003,1.00628E+000,-1.83468E-003,0.00000E+000,1.52961E-003,9.97341E-001,0.00000E+000,-1.60484E-003,-1.77368E-002,1.00000E+000,1
899,1347,-1.97491E+000,1.38722E+000,-8.99983E-002,2.58353E-001,7.87673E-002,-7.75357E-002,2.81002E-001,4.20803E-003,5.07554E-001,0,4.19369E+000,1.37223E+000,9.99961E-001,-3.98867E+001,-3.47378E+001,9.99583E-001,6.03191E-003,-2.82140E-003,-1.97342E-004,6.03631E-003,-2.82579E-003,-1.27629E+000,6.04039E-003,1.00605E+000,-1.84419E-003,0.00000E+000,1.46112E-003,9.97338E-001,0.00000E+000,-1.52959E-003,-1.77337E-002,1.00000E+000,1
899,1317,-2.02976E+000,-5.50813E-001,-1.31929E-001,2.61458E-001,8.33663E-002,-3.86755E-002,2.77139E-001,3.36360E-003,5.12943E-001,0,4.11697E+000,1.34863E+000,9.99905E-001,-4.11911E+001,-3.45433E+001,9.99527E-001,6.71540E-003,-2.81510E-003,-8.62574E-005,6.71618E-003,-2.81588E-003,-5.18509E-001,6.74530E-003,1.00674E+000,-1.82374E-003,0.00000E+000,1.66515E-003,9.97344E-001,0.00000E+000,-1.75374E-003,-1.77403E-002,1.00000E+000,1
899,1307,-2.03521E+000,-1.18801E+000,-8.89000E-002,2.63018E-001,8.51087E-002,-2.66818E-002,2.77730E-001,4.05852E-003,4.94481E-001,0,4.10195E+000,1.35340E+000,9.99889E-001,-4.12923E+001,-3.44806E+001,9.99087E-001,6.94014E-003,-2.81425E-003,-5.18082E-005,6.94041E-003,-2.81452E-003,-3.04302E-001,6.98159E-003,1.00696E+000,-1.82123E-003,0.00000E+000,1.73227E-003,9.97345E-001,0.00000E+000,-1.82748E-003,-1.77411E-002,1.00000E+000,1
889,1327,-2.67029E+000,8.60270E-002,-1.34374E-001,2.56303E-001,8.06082E-002,-4.82401E-002,2.72976E-001,2.70211E-003,5.39728E-001,0,4.07069E+000,1.33250E+000,9.99845E-001,-4.09480E+001,-3.47866E+001,9.99764E-001,6.55746E-003,-2.70235E-003,-2.23195E-004,6.56284E-003,-2.70773E-003,-1.37997E+000,6.59619E-003,1.00658E+000,-1.53253E-003,0.00000E+000,1.09008E-003,9.97461E-001,0.00000E+000,-9.56474E-004,-1.79331E-002,1.00000E+000,1
889,1337,-2.65448E+000,7.29837E-001,-1.30578E-001,2.55115E-001,7.89391E-002,-6.11910E-002,2.73970E-001,4.53538E-003,5.32532E-001,0,4.09378E+000,1.33600E+000,9.99896E-001,-4.05739E+001,-3.48672E+001,9.99770E-001,6.31841E-003,-2.70242E-003,-2.27636E-004,6.32415E-003,-2.70816E-003,-1.44460E+000,6.34584E-003,1.00634E+000,-1.53883E-003,0.00000E+000,1.09043E-003,9.97461E-001,0.00000E+000,-1.10230E-003,-1.79370E-002,1.00000E+000,1
889,1347,-2.62872E+000,1.38089E+000,-8.32890E-002,2.54622E-001,7.84975E-002,-7.45023E-002,2.76668E-001,3.38913E-003,5.09879E-001,0,4.12786E+000,1.35579E+000,9.99943E-001,-3.99423E+001,-3.49426E+001,9.99683E-001,6.07705E-003,-2.70251E-003,-2.33756E-004,6.08327E-003,-2.70873E-003,-1.52406E+000,6.09540E-003,1.00610E+000,-1.54848E-003,0.00000E+000,1.09079E-003,9.97461E-001,0.00000E+000,-1.24948E-003,-1.79428E-002,1.00000E+000,1
969,1297,2.57380E+000,-1.75968E+000,1.12199E-002,2.96187E-001,1.03628E-001,-4.25040E-002,3.16657E-001,7.10721E-003,4.96895E-001,0,4.63939E+000,1.66496E+000,9.99901E-001,-4.00344E+001,-3.29199E+001,9.99199E-001,7.45607E-003,-2.75720E-003,4.16959E-004,7.47307E-003,-2.77420E-003,2.33393E+000,7.55523E-003,1.00750E+000,-3.75329E-003,0.00000E+000,4.65054E-003,9.97362E-001,0.00000E+000,-6.58971E-003,-1.58473E-002,1.00000E+000,1
969,1307,2.57290E+000,-1.12465E+000,-5.45430E-002,2.93282E-001,1.01223E-001,-5.25218E-002,3.14673E-001,1.04197E-002,5.38962E-001,0,4.62946E+000,1.64075E+000,9.99923E-001,-4.00862E+001,-3.29448E+001,9.98717E-001,7.24231E-003,-2.75756E-003,3.88796E-004,7.25741E-003,-2.77265E-003,2.22319E+000,7.32441E-003,1.00728E+000,-3.75378E-003,0.00000E+000,4.58772E-003,9.97361E-001,0.00000E+000,-6.08906E-003,-1.58461E-002,1.00000E+000,1
969,1317,2.58030E+000,-4.86326E-001,-8.43956E-002,2.91048E-001,9.86833E-002,-6.09922E-002,3.13317E-001,4.79300E-003,4.88161E-001,0,4.62431E+000,1.63356E+000,9.99952E-001,-3.99297E+001,-3.30422E+001,9.99454E-001,7.02730E-003,-2.75860E-003,3.59155E-004,7.04047E-003,-2.77176E-003,2.09906E+000,7.09331E-003,1.00706E+000,-3.75703E-003,0.00000E+000,4.52461E-003,9.97361E-001,0.00000E+000,-5.58616E-003,-1.58387E-002,1.00000E+000,1
889,1317,-2.68102E+000,-5.54203E-001,-1.14707E-001,2.57663E-001,8.30471E-002,-3.51706E-002,2.72991E-001,3.06654E-003,5.35372E-001,0,4.04937E+000,1.33423E+000,9.99929E-001,-4.11874E+001,-3.47099E+001,9.99736E-001,6.79539E-003,-2.70231E-003,-2.19646E-004,6.80047E-003,-2.70738E-003,-1.32409E+000,6.84737E-003,1.00682E+000,-1.52801E-003,0.00000E+000,1.08972E-003,9.97461E-001,0.00000E+000,-8.11290E-004,-1.79304E-002,1.00000E+000,1
969,1327,2.59056E+000,1.56342E-001,-1.01164E-001,2.88273E-001,9.78916E-002,-7.16632E-002,3.12761E-001,5.11989E-003,4.95276E-001,0,4.61744E+000,1.63292E+000,9.99963E-001,-3.96997E+001,-3.30739E+001,9.99472E-001,6.81121E-003,-2.75995E-003,3.28800E-004,6.82249E-003,-2.77124E-003,1.96520E+000,6.86240E-003,1.00684E+000,-3.76152E-003,0.00000E+000,4.46127E-003,9.97359E-001,0.00000E+000,-5.08143E-003,-1.58284E-002,1.00000E+000,1
889,1307,-2.68640E+000,-1.19093E+000,-7.20621E-002,2.58578E-001,8.44596E-002,-2.65606E-002,2.73315E-001,3.63904E-003,5.23866E-001,0,4.03565E+000,1.34055E+000,9.99914E-001,-4.12891E+001,-3.46336E+001,9.99586E-001,7.03157E-003,-2.70228E-003,-2.17151E-004,7.03641E-003,-2.70712E-003,-1.27736E+000,7.09846E-003,1.00706E+000,-1.52560E-003,0.00000E+000,1.08937E-003,9.97461E-001,0.00000E+000,-6.67133E-004,-1.79289E-002,1.00000E+000,1
969,1337,2.60843E+000,8.00396E-001,-9.20325E-002,2.87569E-001,9.53838E-002,-8.13245E-002,3.13700E-001,4.72022E-003,4.56847E-001,0,4.63922E+000,1.61455E+000,9.99938E-001,-3.92948E+001,-3.31657E+001,9.99571E-001,6.59391E-003,-2.76181E-003,2.97337E-004,6.60335E-003,-2.77125E-003,1.81848E+000,6.63170E-003,1.00662E+000,-3.76800E-003,0.00000E+000,4.39766E-003,9.97357E-001,0.00000E+000,-4.57459E-003,-1.58136E-002,1.00000E+000,1
969,1347,2.62966E+000,1.45126E+000,-6.94361E-002,2.85422E-001,9.35548E-002,-9.86532E-002,3.16150E-001,4.14709E-003,4.82765E-001,0,4.66441E+000,1.63439E+000,9.99932E-001,-3.88080E+001,-3.31536E+001,9.99514E-001,6.37437E-003,-2.76411E-003,2.64758E-004,6.38203E-003,-2.77177E-003,1.65811E+000,6.40037E-003,1.00640E+000,-3.77622E-003,0.00000E+000,4.33349E-003,9.97355E-001,0.00000E+000,-4.06322E-003,-1.57947E-002,1.00000E+000,1
879,1327,-3.32139E+000,8.21774E-002,-1.18806E-001,2.52693E-001,8.06447E-002,-4.49216E-002,2.69027E-001,2.78872E-003,5.41995E-001,0,4.00625E+000,1.32766E+000,9.99926E-001,-4.09404E+001,-3.49689E+001,9.99866E-001,6.66698E-003,-2.72043E-003,-2.89123E-004,6.67588E-003,-2.72933E-003,-1.76242E+000,6.71277E-003,1.00669E+000,-1.27496E-003,0.00000E+000,6.92892E-004,9.97440E-001,0.00000E+000,-3.80363E-004,-1.77437E-002,1.00000E+000,1
879,1337,-3.30633E+000,7.25009E-001,-1.20475E-001,2.51412E-001,7.88864E-002,-6.08918E-002,2.70442E-001,2.70572E-003,5.28236E-001,0,4.03731E+000,1.33479E+000,9.99921E-001,-4.05896E+001,-3.50579E+001,9.99805E-001,6.42452E-003,-2.71986E-003,-2.81412E-004,6.43318E-003,-2.72851E-003,-1.76102E+000,6.45781E-003,1.00644E+000,-1.28110E-003,0.00000E+000,7.18585E-004,9.97441E-001,0.00000E+000,-6.01766E-004,-1.77493E-002,1.00000E+000,1
879,1347,-3.28204E+000,1.37613E+000,-7.96596E-002,2.50961E-001,7.82583E-002,-7.43556E-002,2.73194E-001,3.43030E-003,5.40231E-001,0,4.07240E+000,1.35636E+000,9.99937E-001,-3.99936E+001,-3.51026E+001,9.99737E-001,6.17926E-003,-2.71902E-003,-2.75113E-004,6.18776E-003,-2.72752E-003,-1.76919E+000,6.20220E-003,1.00620E+000,-1.29032E-003,0.00000E+000,7.44563E-004,9.97442E-001,0.00000E+000,-8.25631E-004,-1.77577E-002,1.00000E+000,1
879,1307,-3.33712E+000,-1.19321E+000,-5.27989E-002,2.53647E-001,8.42994E-002,-2.67700E-002,2.68626E-001,3.52601E-003,5.32482E-001,0,3.96261E+000,1.34247E+000,9.99931E-001,-4.12683E+001,-3.47924E+001,9.99638E-001,7.14777E-003,-2.72105E-003,-3.07279E-004,7.15733E-003,-2.73061E-003,-1.78168E+000,7.22400E-003,1.00717E+000,-1.26851E-003,0.00000E+000,6.41912E-004,9.97439E-001,0.00000E+000,5.89548E-005,-1.77379E-002,1.00000E+000,1
879,1317,-3.33212E+000,-5.58669E-001,-9.96041E-002,2.53772E-001,8.28247E-002,-3.32575E-002,2.69010E-001,3.09090E-003,4.99372E-001,0,3.98547E+000,1.33700E+000,9.99939E-001,-4.11818E+001,-3.49178E+001,9.99715E-001,6.90875E-003,-2.72085E-003,-2.97631E-004,6.91794E-003,-2.73004E-003,-1.76864E+000,6.96895E-003,1.00693E+000,-1.27047E-003,0.00000E+000,6.67262E-004,9.97440E-001,0.00000E+000,-1.59499E-004,-1.77396E-002,1.00000E+000,1
979,1307,3.23861E+000,-1.11251E+000,-3.03236E-002,2.98644E-001,1.03666E-001,-5.68643E-002,3.21198E-001,8.72158E-003,5.43060E-001,0,4.72279E+000,1.68706E+000,9.99970E-001,-3.97437E+001,-3.27197E+001,9.99459E-001,7.31681E-003,-2.75178E-003,3.86463E-004,7.33162E-003,-2.76659E-003,2.19488E+000,7.40478E-003,1.00735E+000,-3.93206E-003,0.00000E+000,4.75267E-003,9.97358E-001,0.00000E+000,-5.86864E-003,-1.53053E-002,1.00000E+000,1
979,1317,3.24442E+000,-4.74013E-001,-6.75990E-002,2.96350E-001,1.01694E-001,-6.55638E-002,3.20099E-001,3.45689E-003,5.03972E-001,0,4.71758E+000,1.68903E+000,9.99952E-001,-3.96288E+001,-3.27918E+001,9.99613E-001,7.12199E-003,-2.75263E-003,3.58974E-004,7.13502E-003,-2.76567E-003,2.07922E+000,7.19485E-003,1.00715E+000,-3.93451E-003,0.00000E+000,4.69427E-003,9.97357E-001,0.00000E+000,-5.42932E-003,-1.52999E-002,1.00000E+000,1
979,1327,3.25419E+000,1.67196E-001,-8.66106E-002,2.93880E-001,1.00220E-001,-7.44879E-002,3.19308E-001,3.58928E-003,4.80091E-001,0,4.71000E+000,1.68241E+000,9.99920E-001,-3.94125E+001,-3.28554E+001,9.99402E-001,6.92637E-003,-2.75384E-003,3.30740E-004,6.93766E-003,-2.76513E-003,1.95456E+000,6.98508E-003,1.00696E+000,-3.93832E-003,0.00000E+000,4.63571E-003,9.97356E-001,0.00000E+000,-4.98870E-003,-1.52915E-002,1.00000E+000,1
979,1337,3.26811E+000,8.10760E-001,-8.99757E-002,2.91392E-001,9.80568E-002,-8.62958E-002,3.19329E-001,4.99770E-003,4.66433E-001,0,4.71197E+000,1.66863E+000,9.99870E-001,-3.90978E+001,-3.29141E+001,9.99170E-001,6.72969E-003,-2.75541E-003,3.01720E-004,6.73928E-003,-2.76500E-003,1.82012E+000,6.77535E-003,1.00675E+000,-3.94348E-003,0.00000E+000,4.57689E-003,9.97355E-001,0.00000E+000,-4.54623E-003,-1.52801E-002,1.00000E+000,1
979,1347,3.29066E+000,1.46175E+000,-5.77621E-002,2.89058E-001,9.66126E-002,-1.00109E-001,3.20796E-001,5.16010E-003,4.67595E-001,0,4.72248E+000,1.67729E+000,9.99782E-001,-3.85715E+001,-3.29321E+001,9.99059E-001,6.53095E-003,-2.75770E-003,2.71082E-004,6.53886E-003,-2.76560E-003,1.67024E+000,6.56469E-003,1.00655E+000,-3.95142E-003,0.00000E+000,4.51753E-003,9.97352E-001,0.00000E+000,-4.09962E-003,-1.52625E-002,1.00000E+000,1
979,1297,3.23446E+000,-1.74961E+000,1.44264E-002,3.01018E-001,1.06478E-001,-4.78695E-002,3.22864E-001,7.17272E-003,5.12596E-001,0,4.72795E+000,1.72326E+000,9.99914E-001,-3.98158E+001,-3.26783E+001,9.99183E-001,7.51127E-003,-2.75105E-003,4.13677E-004,7.52792E-003,-2.76770E-003,2.30462E+000,7.61531E-003,1.00755E+000,-3.93014E-003,0.00000E+000,4.81103E-003,9.97359E-001,0.00000E+000,-6.30768E-003,-1.53096E-002,1.00000E+000,1
869,1317,-3.98590E+000,-5.63101E-001,-9.72893E-002,2.48377E-001,8.24104E-002,-3.64167E-002,2.64213E-001,2.94330E-003,5.14320E-001,0,3.91461E+000,1.34289E+000,9.99928E-001,-4.12445E+001,-3.50727E+001,9.99615E-001,6.98092E-003,-2.79061E-003,-3.41704E-004,6.99285E-003,-2.80254E-003,-2.00034E+000,7.03860E-003,1.00700E+000,-1.01617E-003,0.00000E+000,3.19275E-004,9.97368E-001,0.00000E+000,3.04664E-004,-1.75847E-002,1.00000E+000,1
869,1327,-3.97513E+000,7.64827E-002,-1.18616E-001,2.47812E-001,8.04062E-002,-4.85656E-002,2.65018E-001,3.50255E-003,5.46478E-001,0,3.94451E+000,1.32741E+000,9.99900E-001,-4.10066E+001,-3.51455E+001,9.99677E-001,6.75569E-003,-2.79025E-003,-3.33959E-004,6.76736E-003,-2.80192E-003,-2.00120E+000,6.80062E-003,1.00678E+000,-1.02020E-003,0.00000E+000,3.44302E-004,9.97368E-001,0.00000E+000,-9.08912E-007,-1.75901E-002,1.00000E+000,1
869,1337,-3.95904E+000,7.20074E-001,-1.14816E-001,2.47100E-001,7.86476E-002,-6.19120E-002,2.66603E-001,3.00367E-003,5.52753E-001,0,3.97564E+000,1.32727E+000,9.99909E-001,-4.06252E+001,-3.52264E+001,9.99738E-001,6.52901E-003,-2.78972E-003,-3.27081E-004,6.54047E-003,-2.80119E-003,-2.00775E+000,6.56286E-003,1.00655E+000,-1.02609E-003,0.00000E+000,3.69475E-004,9.97369E-001,0.00000E+000,-3.08271E-004,-1.75981E-002,1.00000E+000,1
869,1347,-3.93735E+000,1.36789E+000,-8.29289E-002,2.46781E-001,7.80488E-002,-7.22966E-002,2.68736E-001,4.33601E-003,5.26900E-001,0,4.00281E+000,1.34057E+000,9.99933E-001,-4.00888E+001,-3.53232E+001,9.99737E-001,6.30110E-003,-2.78905E-003,-3.21038E-004,6.31242E-003,-2.80037E-003,-2.02017E+000,6.32578E-003,1.00632E+000,-1.03374E-003,0.00000E+000,3.94769E-004,9.97369E-001,0.00000E+000,-6.17092E-004,-1.76084E-002,1.00000E+000,1
869,1307,-3.99004E+000,-1.19654E+000,-4.24470E-002,2.48582E-001,8.50174E-002,-2.43006E-002,2.63840E-001,3.15988E-003,5.40317E-001,0,3.87869E+000,1.34809E+000,9.99950E-001,-4.12984E+001,-3.49491E+001,9.99598E-001,7.20406E-003,-2.79077E-003,-3.50544E-004,7.21634E-003,-2.80305E-003,-2.00622E+000,7.27597E-003,1.00723E+000,-1.01450E-003,0.00000E+000,2.94463E-004,9.97367E-001,0.00000E+000,6.07601E-004,-1.75825E-002,1.00000E+000,1
989,1307,3.90053E+000,-1.10186E+000,-2.70505E-002,3.03759E-001,1.07339E-001,-6.41995E-002,3.28501E-001,5.25328E-003,5.26303E-001,0,4.82245E+000,1.76635E+000,9.99937E-001,-3.95023E+001,-3.24839E+001,9.99304E-001,7.33788E-003,-2.77974E-003,3.50169E-004,7.34998E-003,-2.79184E-003,1.97984E+000,7.42039E-003,1.00737E+000,-4.08167E-003,0.00000E+000,4.81897E-003,9.97323E-001,0.00000E+000,-5.43241E-003,-1.48360E-002,1.00000E+000,1
989,1317,3.90496E+000,-4.61783E-001,-6.70011E-002,3.01213E-001,1.05804E-001,-7.00541E-002,3.26851E-001,5.27032E-003,5.43369E-001,0,4.80375E+000,1.76719E+000,9.99948E-001,-3.94154E+001,-3.24963E+001,9.99424E-001,7.17591E-003,-2.78036E-003,3.28022E-004,7.18671E-003,-2.79116E-003,1.88496E+000,7.24615E-003,1.00721E+000,-4.08341E-003,0.00000E+000,4.77122E-003,9.97322E-001,0.00000E+000,-5.03224E-003,-1.48318E-002,1.00000E+000,1
989,1327,3.91637E+000,1.80381E-001,-8.23500E-002,2.98309E-001,1.02983E-001,-8.39025E-002,3.26547E-001,6.53524E-003,5.45960E-001,0,4.80695E+000,1.75010E+000,9.99913E-001,-3.91671E+001,-3.25382E+001,9.99182E-001,7.01308E-003,-2.78149E-003,3.04813E-004,7.02255E-003,-2.79097E-003,1.78078E+000,7.07164E-003,1.00704E+000,-4.08712E-003,0.00000E+000,4.72327E-003,9.97321E-001,0.00000E+000,-4.63036E-003,-1.48228E-002,1.00000E+000,1
989,1297,3.89794E+000,-1.73927E+000,2.20911E-002,3.06879E-001,1.10104E-001,-5.47221E-002,3.30593E-001,5.42441E-003,5.04827E-001,0,4.83706E+000,1.78738E+000,9.99859E-001,-3.95405E+001,-3.24534E+001,9.99113E-001,7.49932E-003,-2.77920E-003,3.72102E-004,7.51277E-003,-2.79265E-003,2.07060E+000,7.59474E-003,1.00754E+000,-4.08027E-003,0.00000E+000,4.86662E-003,9.97323E-001,0.00000E+000,-5.83176E-003,-1.48394E-002,1.00000E+000,1
989,1337,3.93252E+000,8.24203E-001,-7.03967E-002,2.95182E-001,1.01186E-001,-9.27219E-002,3.25527E-001,4.48746E-003,4.70302E-001,0,4.78893E+000,1.73315E+000,9.99813E-001,-3.87861E+001,-3.26560E+001,9.99347E-001,6.85001E-003,-2.78295E-003,2.80937E-004,6.85819E-003,-2.79114E-003,1.66909E+000,6.89764E-003,1.00687E+000,-4.09217E-003,0.00000E+000,4.67530E-003,9.97320E-001,0.00000E+000,-4.22837E-003,-1.48106E-002,1.00000E+000,1
989,1347,3.95346E+000,1.47334E+000,-4.24910E-002,2.93331E-001,1.00045E-001,-1.00853E-001,3.25919E-001,4.96299E-003,4.62294E-001,0,4.78762E+000,1.72352E+000,9.99913E-001,-3.82965E+001,-3.26968E+001,9.99604E-001,6.68565E-003,-2.78466E-003,2.56446E-004,6.69259E-003,-2.79160E-003,1.55000E+000,6.72317E-003,1.00671E+000,-4.09817E-003,0.00000E+000,4.62701E-003,9.97318E-001,0.00000E+000,-3.82366E-003,-1.47961E-002,1.00000E+000,1
859,1327,-4.62789E+000,7.15044E-002,-1.20412E-001,2.43294E-001,8.01134E-002,-5.50968E-002,2.62003E-001,3.32454E-003,5.55268E-001,0,3.89725E+000,1.34023E+000,9.99875E-001,-4.10588E+001,-3.53047E+001,9.99620E-001,6.81770E-003,-2.85127E-003,-3.65579E-004,6.83150E-003,-2.86507E-003,-2.16221E+000,6.86103E-003,1.00684E+000,-7.82356E-004,0.00000E+000,4.27597E-005,9.97303E-001,0.00000E+000,1.65578E-004,-1.73459E-002,1.00000E+000,1
859,1337,-4.61152E+000,7.13999E-001,-1.14635E-001,2.43162E-001,7.83149E-002,-6.58087E-002,2.63803E-001,3.52921E-003,5.50989E-001,0,3.92873E+000,1.32735E+000,9.99876E-001,-4.06667E+001,-3.54136E+001,9.99670E-001,6.61269E-003,-2.85096E-003,-3.62242E-004,6.62654E-003,-2.86481E-003,-2.18885E+000,6.64674E-003,1.00663E+000,-7.87595E-004,0.00000E+000,6.08346E-005,9.97303E-001,0.00000E+000,-1.85437E-004,-1.73548E-002,1.00000E+000,1
859,1347,-4.58972E+000,1.36180E+000,-7.86854E-002,2.42495E-001,7.74197E-002,-7.52258E-002,2.65436E-001,4.94837E-003,5.19331E-001,0,3.94737E+000,1.33752E+000,9.99924E-001,-4.01166E+001,-3.55243E+001,9.99775E-001,6.40612E-003,-2.85055E-003,-3.59777E-004,6.42009E-003,-2.86451E-003,-2.22244E+000,6.43247E-003,1.00643E+000,-7.94660E-004,0.00000E+000,7.90325E-005,9.97304E-001,0.00000E+000,-5.38842E-004,-1.73668E-002,1.00000E+000,1
859,1307,-4.64254E+000,-1.19775E+000,-3.79012E-002,2.43908E-001,8.62401E-002,-2.55613E-002,2.59965E-001,4.87921E-003,6.25754E-001,0,3.81238E+000,1.36000E+000,9.99948E-001,-4.13323E+001,-3.50221E+001,9.99461E-001,7.22304E-003,-2.85157E-003,-3.74840E-004,7.23696E-003,-2.86550E-003,-2.12785E+000,7.28901E-003,1.00725E+000,-7.77317E-004,0.00000E+000,6.97916E-006,9.97302E-001,0.00000E+000,8.60440E-004,-1.73373E-002,1.00000E+000,1
859,1317,-4.63851E+000,-5.66236E-001,-9.44091E-002,2.43595E-001,8.22985E-002,-3.96438E-002,2.60160E-001,3.46160E-003,5.72550E-001,0,3.85304E+000,1.34573E+000,9.99907E-001,-4.12839E+001,-3.51872E+001,9.99561E-001,7.02115E-003,-2.85148E-003,-3.69729E-004,7.03498E-003,-2.86531E-003,-2.14172E+000,7.07517E-003,1.00705E+000,-7.78829E-004,0.00000E+000,2.48070E-005,9.97303E-001,0.00000E+000,5.14222E-004,-1.73399E-002,1.00000E+000,1
999,1337,4.59296E+000,8.32187E-001,-6.89541E-002,3.00624E-001,1.04734E-001,-9.05327E-002,3.30969E-001,4.82215E-003,4.17781E-001,0,4.86175E+000,1.78226E+000,9.99911E-001,-3.85723E+001,-3.24710E+001,9.99574E-001,6.92799E-003,-2.78702E-003,2.47272E-004,6.93428E-003,-2.79331E-003,1.45707E+000,6.97780E-003,1.00695E+000,-4.20801E-003,0.00000E+000,4.71419E-003,9.97310E-001,0.00000E+000,-3.76466E-003,-1.44115E-002,1.00000E+000,1
999,1347,4.61556E+000,1.48533E+000,-3.36128E-002,2.97992E-001,1.04455E-001,-1.01010E-001,3.31532E-001,4.17868E-003,4.39327E-001,0,4.85639E+000,1.79918E+000,9.99928E-001,-3.80429E+001,-3.24499E+001,9.99631E-001,6.78924E-003,-2.78836E-003,2.28984E-004,6.79471E-003,-2.79383E-003,1.36880E+000,6.83036E-003,1.00681E+000,-4.21356E-003,0.00000E+000,4.67859E-003,9.97308E-001,0.00000E+000,-3.40647E-003,-1.43974E-002,1.00000E+000,1
999,1307,4.56319E+000,-1.09173E+000,-2.06623E-002,3.09179E-001,1.10435E-001,-6.81957E-002,3.35318E-001,3.46367E-003,5.11370E-001,0,4.91562E+000,1.82970E+000,9.99927E-001,-3.92397E+001,-3.22619E+001,9.99580E-001,7.33762E-003,-2.78482E-003,2.97361E-004,7.34634E-003,-2.79355E-003,1.68121E+000,7.41623E-003,1.00737E+000,-4.19970E-003,0.00000E+000,4.81953E-003,9.97312E-001,0.00000E+000,-4.82426E-003,-1.44326E-002,1.00000E+000,1
999,1317,4.56741E+000,-4.52105E-001,-6.11857E-002,3.06036E-001,1.08819E-001,-7.61108E-002,3.33606E-001,6.23067E-003,5.27078E-001,0,4.89502E+000,1.82174E+000,9.99824E-001,-3.91580E+001,-3.22793E+001,9.98411E-001,7.20152E-003,-2.78529E-003,2.81295E-004,7.20944E-003,-2.79321E-003,1.61213E+000,7.27008E-003,1.00723E+000,-4.20126E-003,0.00000E+000,4.78450E-003,9.97311E-001,0.00000E+000,-4.47186E-003,-1.44286E-002,1.00000E+000,1
999,1327,4.57730E+000,1.88610E-001,-8.09315E-002,3.03065E-001,1.05858E-001,-8.75351E-002,3.32741E-001,7.08877E-003,5.21957E-001,0,4.88926E+000,1.79233E+000,9.99897E-001,-3.89440E+001,-3.23366E+001,9.98983E-001,7.06488E-003,-2.78603E-003,2.64579E-004,7.07199E-003,-2.79313E-003,1.53739E+000,7.12382E-003,1.00709E+000,-4.20405E-003,0.00000E+000,4.74936E-003,9.97311E-001,0.00000E+000,-4.11841E-003,-1.44215E-002,1.00000E+000,1
999,1297,4.56126E+000,-1.72841E+000,3.13868E-002,3.12576E-001,1.13727E-001,-5.77128E-002,3.37592E-001,3.69871E-003,5.09388E-001,0,4.93054E+000,1.84978E+000,9.99851E-001,-3.92611E+001,-3.22179E+001,9.99133E-001,7.47334E-003,-2.78445E-003,3.13177E-004,7.48289E-003,-2.79400E-003,1.74711E+000,7.56244E-003,1.00751E+000,-4.19860E-003,0.00000E+000,4.85450E-003,9.97312E-001,0.00000E+000,-5.17606E-003,-1.44354E-002,1.00000E+000,1
849,1337,-5.26338E+000,7.10124E-001,-1.09876E-001,2.38577E-001,7.77342E-002,-6.90015E-002,2.60236E-001,4.64079E-003,5.72415E-001,0,3.86951E+000,1.33941E+000,9.99923E-001,-4.06837E+001,-3.55655E+001,9.99707E-001,6.68928E-003,-2.89384E-003,-3.68236E-004,6.70341E-003,-2.90797E-003,-2.19730E+000,6.72297E-003,1.00671E+000,-5.83238E-004,0.00000E+000,-1.54289E-004,9.97259E-001,0.00000E+000,-1.43924E-004,-1.72580E-002,1.00000E+000,1
849,1347,-5.24458E+000,1.35554E+000,-8.19183E-002,2.37732E-001,7.76690E-002,-7.37369E-002,2.60742E-001,3.90222E-003,5.14553E-001,0,3.87041E+000,1.34768E+000,9.99938E-001,-4.01972E+001,-3.57103E+001,9.99803E-001,6.50307E-003,-2.89362E-003,-3.67428E-004,6.51741E-003,-2.90796E-003,-2.23582E+000,6.52998E-003,1.00652E+000,-5.88856E-004,0.00000E+000,-1.40955E-004,9.97259E-001,0.00000E+000,-4.95240E-004,-1.72685E-002,1.00000E+000,1
849,1357,-5.21451E+000,2.01016E+000,-8.23639E-003,2.37702E-001,7.72109E-002,-8.34192E-002,2.63482E-001,3.49538E-003,5.10509E-001,0,3.89900E+000,1.36034E+000,9.99953E-001,-3.94242E+001,-3.57921E+001,9.99761E-001,6.31393E-003,-2.89329E-003,-3.68016E-004,6.32862E-003,-2.90797E-003,-2.28527E+000,6.33553E-003,1.00633E+000,-5.97377E-004,0.00000E+000,-1.27424E-004,9.97260E-001,0.00000E+000,-8.51752E-004,-1.72845E-002,1.00000E+000,1
849,1327,-5.27784E+000,6.90380E-002,-1.09822E-001,2.39349E-001,8.05264E-002,-5.80453E-002,2.59117E-001,4.90654E-003,5.67400E-001,0,3.84698E+000,1.36232E+000,9.99927E-001,-4.10333E+001,-3.54501E+001,9.99644E-001,6.87489E-003,-2.89401E-003,-3.69649E-004,6.88886E-003,-2.90798E-003,-2.16391E+000,6.91665E-003,1.00690E+000,-5.78847E-004,0.00000E+000,-1.67590E-004,9.97259E-001,0.00000E+000,2.06529E-004,-1.72497E-002,1.00000E+000,1
1009,1337,5.25336E+000,8.43021E-001,-7.81199E-002,3.07252E-001,1.08779E-001,-9.12971E-002,3.38484E-001,5.38084E-003,5.09819E-001,0,4.96245E+000,1.82656E+000,9.99956E-001,-3.83783E+001,-3.21465E+001,9.99717E-001,6.98858E-003,-2.82701E-003,2.01607E-004,6.99272E-003,-2.83115E-003,1.17616E+000,7.03478E-003,1.00701E+000,-4.29279E-003,0.00000E+000,4.69877E-003,9.97265E-001,0.00000E+000,-3.28789E-003,-1.41016E-002,1.00000E+000,1
1009,1347,5.27680E+000,1.49357E+000,-3.64752E-002,3.03228E-001,1.06293E-001,-1.04581E-001,3.37909E-001,4.86247E-003,4.30175E-001,0,4.94657E+000,1.83627E+000,9.99954E-001,-3.78248E+001,-3.22283E+001,9.99718E-001,6.88452E-003,-2.82807E-003,1.87955E-004,6.88815E-003,-2.83170E-003,1.10822E+000,6.92435E-003,1.00690E+000,-4.29730E-003,0.00000E+000,4.67212E-003,9.97264E-001,0.00000E+000,-2.98336E-003,-1.40886E-002,1.00000E+000,1
1009,1297,5.22281E+000,-1.72046E+000,3.52296E-002,3.17617E-001,1.16429E-001,-5.93078E-002,3.43444E-001,4.42049E-003,4.81192E-001,0,5.00956E+000,1.89510E+000,9.99857E-001,-3.90176E+001,-3.20326E+001,9.98944E-001,7.39836E-003,-2.82522E-003,2.49963E-004,7.40447E-003,-2.83132E-003,1.39975E+000,7.47245E-003,1.00743E+000,-4.28617E-003,0.00000E+000,4.80393E-003,9.97267E-001,0.00000E+000,-4.48991E-003,-1.41206E-002,1.00000E+000,1
1009,1307,5.22507E+000,-1.08319E+000,-1.60089E-002,3.14526E-001,1.14257E-001,-6.89316E-002,3.41662E-001,4.30173E-003,4.71582E-001,0,4.99617E+000,1.88455E+000,9.99912E-001,-3.89897E+001,-3.20735E+001,9.99562E-001,7.29652E-003,-2.82549E-003,2.38324E-004,7.30213E-003,-2.83110E-003,1.34804E+000,7.36326E-003,1.00732E+000,-4.28702E-003,0.00000E+000,4.77776E-003,9.97267E-001,0.00000E+000,-4.19075E-003,-1.41182E-002,1.00000E+000,1
1009,1317,5.23010E+000,-4.43054E-001,-5.25087E-002,3.11850E-001,1.13055E-001,-7.40490E-002,3.39875E-001,4.84080E-003,4.88084E-001,0,4.97300E+000,1.87141E+000,9.99913E-001,-3.88876E+001,-3.20897E+001,9.99533E-001,7.19432E-003,-2.82585E-003,2.26463E-004,7.19944E-003,-2.83097E-003,1.29404E+000,7.25395E-003,1.00722E+000,-4.28825E-003,0.00000E+000,4.75152E-003,9.97266E-001,0.00000E+000,-3.89081E-003,-1.41146E-002,1.00000E+000,1
849,1317,-5.29068E+000,-5.68514E-001,-9.02925E-002,2.38687E-001,8.39456E-002,-4.24802E-002,2.56559E-001,4.73058E-003,6.07110E-001,0,3.78747E+000,1.37075E+000,9.99932E-001,-4.13096E+001,-3.53030E+001,9.99584E-001,7.05950E-003,-2.89415E-003,-3.71470E-004,7.07335E-003,-2.90799E-003,-2.13432E+000,7.11050E-003,1.00708E+000,-5.75303E-004,0.00000E+000,-1.80832E-004,9.97258E-001,0.00000E+000,5.55407E-004,-1.72431E-002,1.00000E+000,1
1009,1327,5.24125E+000,1.99718E-001,-6.50262E-002,3.08362E-001,1.10200E-001,-8.54268E-002,3.38421E-001,4.89871E-003,5.07456E-001,0,4.95934E+000,1.84159E+000,9.99945E-001,-3.86400E+001,-3.21172E+001,9.99682E-001,7.09144E-003,-2.82646E-003,2.13972E-004,7.09606E-003,-2.83107E-003,1.23535E+000,7.14418E-003,1.00711E+000,-4.29064E-003,0.00000E+000,4.72513E-003,9.97266E-001,0.00000E+000,-3.58917E-003,-1.41078E-002,1.00000E+000,1
849,1307,-5.29531E+000,-1.20300E+000,-3.50667E-002,2.38408E-001,8.56751E-002,-2.95289E-002,2.55050E-001,5.37569E-003,5.70243E-001,0,3.74235E+000,1.38385E+000,9.99956E-001,-4.13706E+001,-3.52242E+001,9.99373E-001,7.24260E-003,-2.89420E-003,-3.74345E-004,7.25641E-003,-2.90801E-003,-2.11206E+000,7.30391E-003,1.00727E+000,-5.73935E-004,0.00000E+000,-1.93975E-004,9.97258E-001,0.00000E+000,9.01712E-004,-1.72405E-002,1.00000E+000,1
839,1337,-5.91612E+000,7.05865E-001,-9.72664E-002,2.32457E-001,7.85084E-002,-6.58596E-002,2.54042E-001,8.73174E-003,5.51419E-001,0,3.76621E+000,1.34922E+000,9.99961E-001,-4.06906E+001,-3.57620E+001,9.99611E-001,6.76599E-003,-2.89258E-003,-3.61542E-004,6.77951E-003,-2.90609E-003,-2.14072E+000,6.80247E-003,1.00679E+000,-4.38712E-004,0.00000E+000,-2.82956E-004,9.97258E-001,0.00000E+000,-2.12169E-004,-1.71129E-002,1.00000E+000,1
839,1347,-5.89825E+000,1.34920E+000,-8.14062E-002,2.32770E-001,7.76136E-002,-7.31890E-002,2.56051E-001,3.08531E-003,5.06740E-001,0,3.79328E+000,1.34922E+000,9.99961E-001,-4.02469E+001,-3.59075E+001,9.99781E-001,6.60022E-003,-2.89258E-003,-3.63919E-004,6.61416E-003,-2.90652E-003,-2.19222E+000,6.63031E-003,1.00662E+000,-4.43214E-004,0.00000E+000,-2.77482E-004,9.97258E-001,0.00000E+000,-5.44925E-004,-1.71219E-002,1.00000E+000,1
839,1357,-5.86898E+000,2.00313E+000,-1.28023E-002,2.33075E-001,7.74416E-002,-8.36317E-002,2.59452E-001,2.85814E-003,5.02481E-001,0,3.82918E+000,1.36649E+000,9.99966E-001,-3.94956E+001,-3.59903E+001,9.99750E-001,6.43179E-003,-2.89260E-003,-3.67723E-004,6.44627E-003,-2.90708E-003,-2.25489E+000,6.45659E-003,1.00645E+000,-4.50573E-004,0.00000E+000,-2.71926E-004,9.97258E-001,0.00000E+000,-8.82751E-004,-1.71366E-002,1.00000E+000,1
1019,1337,5.91753E+000,8.56646E-001,-6.45022E-002,3.11078E-001,1.12136E-001,-9.58767E-002,3.44291E-001,4.94327E-003,5.27606E-001,0,5.03370E+000,1.89946E+000,9.99945E-001,-3.80739E+001,-3.18659E+001,9.99669E-001,7.00537E-003,-2.87845E-003,1.53249E-004,7.00775E-003,-2.88082E-003,8.88088E-001,7.04458E-003,1.00702E+000,-4.35944E-003,0.00000E+000,4.66045E-003,9.97211E-001,0.00000E+000,-2.79067E-003,-1.38975E-002,1.00000E+000,1
1019,1347,5.93606E+000,1.50445E+000,-4.45084E-002,3.07740E-001,1.09749E-001,-1.05627E-001,3.43374E-001,4.54354E-003,4.75175E-001,0,5.01650E+000,1.89872E+000,9.99949E-001,-3.76445E+001,-3.19276E+001,9.99754E-001,6.92612E-003,-2.87900E-003,1.44459E-004,6.92824E-003,-2.88113E-003,8.43896E-001,6.96087E-003,1.00694E+000,-4.36216E-003,0.00000E+000,4.64286E-003,9.97211E-001,0.00000E+000,-2.56871E-003,-1.38900E-002,1.00000E+000,1
839,1327,-5.93436E+000,6.24681E-002,-1.14119E-001,2.33807E-001,8.13509E-002,-4.97218E-002,2.52500E-001,9.20323E-003,5.59492E-001,0,3.73688E+000,1.36450E+000,9.99952E-001,-4.11421E+001,-3.56375E+001,9.99534E-001,6.93214E-003,-2.89257E-003,-3.58916E-004,6.94523E-003,-2.90566E-003,-2.08942E+000,6.97602E-003,1.00696E+000,-4.33701E-004,0.00000E+000,-2.88446E-004,9.97258E-001,0.00000E+000,1.21620E-004,-1.71029E-002,1.00000E+000,1
1019,1327,5.90235E+000,2.08501E-001,-7.16670E-002,3.14161E-001,1.12726E-001,-8.89854E-002,3.45431E-001,4.94870E-003,5.12464E-001,0,5.05750E+000,1.89521E+000,9.99921E-001,-3.84247E+001,-3.18752E+001,9.99612E-001,7.08444E-003,-2.87797E-003,1.61802E-004,7.08706E-003,-2.88060E-003,9.30229E-001,7.12829E-003,1.00710E+000,-4.35717E-003,0.00000E+000,4.67801E-003,9.97212E-001,0.00000E+000,-3.01225E-003,-1.39038E-002,1.00000E+000,1
1019,1317,5.89377E+000,-4.34423E-001,-4.68196E-002,3.16651E-001,1.14420E-001,-8.13799E-002,3.46385E-001,6.14275E-003,4.86826E-001,0,5.06899E+000,1.90185E+000,9.99942E-001,-3.86055E+001,-3.18813E+001,9.99340E-001,7.16303E-003,-2.87766E-003,1.69870E-004,7.16591E-003,-2.88053E-003,9.68968E-001,7.21166E-003,1.00718E+000,-4.35580E-003,0.00000E+000,4.69548E-003,9.97212E-001,0.00000E+000,-3.23267E-003,-1.39076E-002,1.00000E+000,1
839,1317,-5.94279E+000,-5.74530E-001,-8.40240E-002,2.33346E-001,8.36962E-002,-4.38845E-002,2.51756E-001,3.47271E-003,5.54620E-001,0,3.71120E+000,1.37663E+000,9.99947E-001,-4.13251E+001,-3.55247E+001,9.99573E-001,7.09639E-003,-2.89257E-003,-3.57737E-004,7.10918E-003,-2.90536E-003,-2.04845E+000,7.14860E-003,1.00712E+000,-4.31597E-004,0.00000E+000,-2.93878E-004,9.97257E-001,0.00000E+000,4.51874E-004,-1.70987E-002,1.00000E+000,1
1019,1297,5.88255E+000,-1.71213E+000,3.05162E-002,3.21770E-001,1.19816E-001,-6.33897E-002,3.49157E-001,5.76421E-003,4.69704E-001,0,5.08347E+000,1.95626E+000,9.99950E-001,-3.88166E+001,-3.18154E+001,9.99132E-001,7.31939E-003,-2.87716E-003,1.85582E-004,7.32277E-003,-2.88054E-003,1.04235E+000,7.37807E-003,1.00734E+000,-4.35379E-003,0.00000E+000,4.73027E-003,9.97213E-001,0.00000E+000,-3.67160E-003,-1.39131E-002,1.00000E+000,1
1019,1307,5.88503E+000,-1.07267E+000,-1.76236E-002,3.18082E-001,1.17567E-001,-7.30052E-002,3.46883E-001,8.24953E-003,5.15646E-001,0,5.06115E+000,1.94174E+000,9.99950E-001,-3.87794E+001,-3.17994E+001,9.99066E-001,7.24120E-003,-2.87737E-003,1.77846E-004,7.24432E-003,-2.88049E-003,1.00663E+000,7.29477E-003,1.00726E+000,-4.35454E-003,0.00000E+000,4.71286E-003,9.97212E-001,0.00000E+000,-3.45201E-003,-1.39110E-002,1.00000E+000,1
839,1307,-5.94649E+000,-1.20753E+000,-2.83368E-002,2.33466E-001,8.67358E-002,-3.27938E-002,2.51207E-001,3.19388E-003,5.36579E-001,0,3.67782E+000,1.39887E+000,9.99943E-001,-4.13711E+001,-3.54127E+001,9.99442E-001,7.25965E-003,-2.89256E-003,-3.57074E-004,7.27220E-003,-2.90511E-003,-2.01190E+000,7.32102E-003,1.00729E+000,-4.30529E-004,0.00000E+000,-2.99283E-004,9.97257E-001,0.00000E+000,7.80429E-004,-1.70966E-002,1.00000E+000,1
829,1337,-6.57040E+000,6.98215E-001,-1.03347E-001,2.27611E-001,7.87292E-002,-6.56159E-002,2.49621E-001,5.20706E-003,5.45649E-001,0,3.69176E+000,1.34058E+000,9.99943E-001,-4.07643E+001,-3.59625E+001,9.99667E-001,6.81999E-003,-2.89612E-003,-3.39633E-004,6.83184E-003,-2.90798E-003,-1.99956E+000,6.85697E-003,1.00684E+000,-3.05021E-004,0.00000E+000,-3.71458E-004,9.97250E-001,0.00000E+000,-2.27390E-004,-1.68742E-002,1.00000E+000,1
829,1347,-6.54948E+000,1.34562E+000,-7.35951E-002,2.28552E-001,7.87671E-002,-7.15878E-002,2.52121E-001,2.54079E-003,5.35617E-001,0,3.72383E+000,1.35802E+000,9.99935E-001,-4.02366E+001,-3.60599E+001,9.99727E-001,6.65673E-003,-2.89675E-003,-3.52499E-004,6.66972E-003,-2.90974E-003,-2.11024E+000,6.68776E-003,1.00668E+000,-3.10051E-004,0.00000E+000,-3.86463E-004,9.97250E-001,0.00000E+000,-5.61241E-004,-1.68844E-002,1.00000E+000,1
829,1357,-6.52141E+000,1.99787E+000,-1.18751E-002,2.29303E-001,7.80382E-002,-8.18880E-002,2.55686E-001,3.27446E-003,5.27028E-001,0,3.76622E+000,1.37065E+000,9.99958E-001,-3.95185E+001,-3.61572E+001,9.99688E-001,6.49193E-003,-2.89762E-003,-3.66365E-004,6.50620E-003,-2.91189E-003,-2.23107E+000,6.51812E-003,1.00651E+000,-3.16902E-004,0.00000E+000,-4.01597E-004,9.97249E-001,0.00000E+000,-8.97969E-004,-1.68983E-002,1.00000E+000,1
1029,1337,6.57566E+000,8.62940E-001,-7.62381E-002,3.14296E-001,1.13944E-001,-1.00506E-001,3.49095E-001,4.75859E-003,4.92840E-001,0,5.09676E+000,1.94259E+000,9.99932E-001,-3.79132E+001,-3.16698E+001,9.99336E-001,6.98463E-003,-2.88531E-003,1.08444E-004,6.98582E-003,-2.88651E-003,6.29424E-001,7.02083E-003,1.00700E+000,-4.41174E-003,0.00000E+000,4.61474E-003,9.97203E-001,0.00000E+000,-2.22165E-003,-1.37581E-002,1.00000E+000,1
1029,1347,6.59564E+000,1.51382E+000,-5.13261E-002,3.11333E-001,1.12825E-001,-1.09155E-001,3.48672E-001,3.90668E-003,4.99611E-001,0,5.08106E+000,1.94512E+000,9.99960E-001,-3.74530E+001,-3.16634E+001,9.99495E-001,6.92077E-003,-2.88498E-003,1.11403E-004,6.92204E-003,-2.88624E-003,6.50824E-001,6.95378E-003,1.00694E+000,-4.41402E-003,0.00000E+000,4.62025E-003,9.97203E-001,0.00000E+000,-2.00884E-003,-1.37506E-002,1.00000E+000,1
1029,1327,6.56353E+000,2.16173E-001,-7.22668E-002,3.17895E-001,1.15059E-001,-9.40552E-002,3.50917E-001,5.07143E-003,4.76270E-001,0,5.12943E+000,1.93860E+000,9.99911E-001,-3.81918E+001,-3.16843E+001,9.99462E-001,7.04811E-003,-2.88556E-003,1.05149E-004,7.04922E-003,-2.88667E-003,6.06395E-001,7.08760E-003,1.00707E+000,-4.41017E-003,0.00000E+000,4.60926E-003,9.97203E-001,0.00000E+000,-2.43335E-003,-1.37633E-002,1.00000E+000,1
829,1327,-6.58511E+000,5.71493E-002,-1.04684E-001,2.28493E-001,8.11611E-002,-5.29178E-002,2.48187E-001,4.91771E-003,5.46260E-001,0,3.66614E+000,1.35728E+000,9.99958E-001,-4.11242E+001,-3.58375E+001,9.99791E-001,6.98213E-003,-2.89562E-003,-3.27374E-004,6.99297E-003,-2.90646E-003,-1.89615E+000,7.02608E-003,1.00701E+000,-3.01082E-004,0.00000E+000,-3.56542E-004,9.97250E-001,0.00000E+000,1.04474E-004,-1.68662E-002,1.00000E+000,1
829,1307,-6.59656E+000,-1.21230E+000,-1.66333E-002,2.29337E-001,8.68434E-002,-3.05838E-002,2.47128E-001,4.59851E-003,5.00687E-001,0,3.60901E+000,1.40002E+000,9.99878E-001,-4.13379E+001,-3.56166E+001,9.99316E-001,7.30306E-003,-2.89522E-003,-3.05378E-004,7.31219E-003,-2.90436E-003,-1.71362E+000,7.36353E-003,1.00733E+000,-2.97893E-004,0.00000E+000,-3.26983E-004,9.97251E-001,0.00000E+000,7.62129E-004,-1.68597E-002,1.00000E+000,1
829,1317,-6.59366E+000,-5.79146E-001,-7.61366E-002,2.29172E-001,8.43568E-002,-4.19024E-002,2.47774E-001,4.09929E-003,5.38156E-001,0,3.64203E+000,1.38216E+000,9.99924E-001,-4.13137E+001,-3.57102E+001,9.99732E-001,7.14314E-003,-2.89532E-003,-3.15965E-004,7.15308E-003,-2.90526E-003,-1.80103E+000,7.19495E-003,1.00717E+000,-2.98721E-004,0.00000E+000,-3.41718E-004,9.97251E-001,0.00000E+000,4.34286E-004,-1.68614E-002,1.00000E+000,1
1029,1317,6.55458E+000,-4.25591E-001,-4.96194E-002,3.20337E-001,1.16464E-001,-8.74483E-002,3.51891E-001,5.92764E-003,4.93006E-001,0,5.14367E+000,1.95048E+000,9.99942E-001,-3.83820E+001,-3.16481E+001,9.99399E-001,7.11112E-003,-2.88574E-003,1.01667E-004,7.11215E-003,-2.88678E-003,5.82609E-001,7.15402E-003,1.00713E+000,-4.40904E-003,0.00000E+000,4.60382E-003,9.97202E-001,0.00000E+000,-2.64365E-003,-1.37670E-002,1.00000E+000,1
1029,1307,6.54876E+000,-1.06425E+000,-1.05553E-002,3.23311E-001,1.19108E-001,-7.55534E-002,3.52739E-001,6.48419E-003,5.12120E-001,0,5.14690E+000,1.97053E+000,9.99936E-001,-3.84895E+001,-3.16000E+001,9.98416E-001,7.17393E-003,-2.88589E-003,9.80657E-005,7.17488E-003,-2.88685E-003,5.58463E-001,7.22034E-003,1.00719E+000,-4.40816E-003,0.00000E+000,4.59839E-003,9.97202E-001,0.00000E+000,-2.85342E-003,-1.37699E-002,1.00000E+000,1
1029,1297,6.54603E+000,-1.70242E+000,3.72339E-002,3.27210E-001,1.22675E-001,-6.45429E-002,3.55361E-001,5.91617E-003,4.84556E-001,0,5.16684E+000,2.00053E+000,9.99935E-001,-3.85306E+001,-3.15874E+001,9.98478E-001,7.23675E-003,-2.88602E-003,9.43530E-005,7.23763E-003,-2.88690E-003,5.33985E-001,7.28681E-003,1.00726E+000,-4.40751E-003,0.00000E+000,4.59295E-003,9.97202E-001,0.00000E+000,-3.06340E-003,-1.37720E-002,1.00000E+000,1
819,1317,-7.24452E+000,-5.83575E-001,-6.69054E-002,2.23869E-001,8.44154E-002,-4.22191E-002,2.42952E-001,4.68883E-003,5.28380E-001,0,3.56261E+000,1.38416E+000,9.99910E-001,-4.12947E+001,-3.58927E+001,9.99419E-001,7.12020E-003,-2.87613E-003,-2.75700E-004,7.12780E-003,-2.88373E-003,-1.57863E+000,7.17094E-003,1.00715E+000,-1.55516E-004,0.00000E+000,-4.01870E-004,9.97265E-001,0.00000E+000,3.63249E-004,-1.65472E-002,1.00000E+000,1
819,1327,-7.23768E+000,5.16458E-002,-1.02833E-001,2.23764E-001,8.22124E-002,-4.96900E-002,2.43513E-001,5.80072E-003,5.27121E-001,0,3.58427E+000,1.36719E+000,9.99934E-001,-4.11494E+001,-3.60272E+001,9.99205E-001,6.96982E-003,-2.87649E-003,-2.93211E-004,6.97855E-003,-2.88522E-003,-1.70418E+000,7.01332E-003,1.00699E+000,-1.57183E-004,0.00000E+000,-4.30425E-004,9.97264E-001,0.00000E+000,7.87731E-005,-1.65504E-002,1.00000E+000,1
819,1337,-7.22227E+000,6.93632E-001,-1.02888E-001,2.24387E-001,8.04370E-002,-6.03745E-002,2.45895E-001,3.91960E-003,5.45960E-001,0,3.62654E+000,1.36135E+000,9.99912E-001,-4.07806E+001,-3.61268E+001,9.99543E-001,6.81785E-003,-2.87726E-003,-3.11803E-004,6.82786E-003,-2.88728E-003,-1.84015E+000,6.85489E-003,1.00684E+000,-1.60692E-004,0.00000E+000,-4.59262E-004,9.97264E-001,0.00000E+000,-2.08522E-004,-1.65569E-002,1.00000E+000,1
819,1307,-7.24851E+000,-1.21517E+000,-1.33942E-002,2.23769E-001,8.68645E-002,-3.23200E-002,2.42203E-001,5.75243E-003,5.53950E-001,0,3.53014E+000,1.40453E+000,9.99876E-001,-4.13511E+001,-3.57289E+001,9.99152E-001,7.26968E-003,-2.87592E-003,-2.58634E-004,7.27627E-003,-2.88251E-003,-1.45933E+000,7.32840E-003,1.00730E+000,-1.54566E-004,0.00000E+000,-3.73467E-004,9.97265E-001,0.00000E+000,6.46221E-004,-1.65454E-002,1.00000E+000,1
819,1347,-7.20159E+000,1.33985E+000,-7.62883E-002,2.24870E-001,7.89522E-002,-7.13736E-002,2.48786E-001,4.24771E-003,5.54910E-001,0,3.66730E+000,1.36142E+000,9.99931E-001,-4.02628E+001,-3.62278E+001,9.99606E-001,6.66484E-003,-2.87831E-003,-3.31130E-004,6.67631E-003,-2.88979E-003,-1.98488E+000,6.69636E-003,1.00669E+000,-1.65468E-004,0.00000E+000,-4.88275E-004,9.97263E-001,0.00000E+000,-4.97569E-004,-1.65659E-002,1.00000E+000,1
819,1357,-7.17346E+000,1.99196E+000,-1.15950E-002,2.25347E-001,7.81064E-002,-8.15036E-002,2.52041E-001,4.38154E-003,5.35584E-001,0,3.70477E+000,1.37391E+000,9.99956E-001,-3.95335E+001,-3.63409E+001,9.99598E-001,6.51048E-003,-2.87974E-003,-3.51468E-004,6.52362E-003,-2.89288E-003,-2.14054E+000,6.53751E-003,1.00653E+000,-1.71993E-004,0.00000E+000,-5.17522E-004,9.97261E-001,0.00000E+000,-7.88951E-004,-1.65782E-002,1.00000E+000,1
1039,1337,7.23771E+000,8.72737E-001,-7.84477E-002,3.19353E-001,1.16896E-001,-1.02460E-001,3.55175E-001,4.78413E-003,5.21043E-001,0,5.17792E+000,1.98633E+000,9.99923E-001,-3.76684E+001,-3.14088E+001,9.99110E-001,6.96223E-003,-2.84485E-003,6.20739E-005,6.96262E-003,-2.84524E-003,3.62634E-001,7.00125E-003,1.00698E+000,-4.44142E-003,0.00000E+000,4.54371E-003,9.97241E-001,0.00000E+000,-1.63927E-003,-1.36038E-002,1.00000E+000,1
1039,1347,7.25689E+000,1.52090E+000,-5.48239E-002,3.15890E-001,1.15144E-001,-1.10622E-001,3.53951E-001,4.69939E-003,4.47230E-001,0,5.15339E+000,1.98657E+000,9.99958E-001,-3.72252E+001,-3.14802E+001,9.99527E-001,6.91728E-003,-2.84419E-003,6.96666E-005,6.91778E-003,-2.84468E-003,4.08886E-001,6.95404E-003,1.00693E+000,-4.44301E-003,0.00000E+000,4.55772E-003,9.97242E-001,0.00000E+000,-1.42618E-003,-1.35963E-002,1.00000E+000,1
1039,1317,7.21538E+000,-4.16573E-001,-4.97320E-002,3.25279E-001,1.20705E-001,-8.35473E-002,3.56870E-001,4.16529E-003,4.61935E-001,0,5.20178E+000,2.01451E+000,9.99942E-001,-3.81493E+001,-3.14367E+001,9.99458E-001,7.05164E-003,-2.84574E-003,4.63623E-005,7.05186E-003,-2.84596E-003,2.68383E-001,7.09543E-003,1.00707E+000,-4.43944E-003,0.00000E+000,4.51579E-003,9.97241E-001,0.00000E+000,-2.06378E-003,-1.36130E-002,1.00000E+000,1
1039,1327,7.22474E+000,2.24907E-001,-7.15494E-002,3.22451E-001,1.18651E-001,-9.23843E-002,3.55792E-001,4.42529E-003,4.54152E-001,0,5.18985E+000,1.98826E+000,9.99934E-001,-3.79522E+001,-3.14729E+001,9.99286E-001,7.00716E-003,-2.84535E-003,5.42488E-005,7.00745E-003,-2.84565E-003,3.15463E-001,7.04853E-003,1.00702E+000,-4.44029E-003,0.00000E+000,4.52969E-003,9.97241E-001,0.00000E+000,-1.85246E-003,-1.36090E-002,1.00000E+000,1
1039,1307,7.20885E+000,-1.05718E+000,-1.82941E-002,3.28074E-001,1.22193E-001,-7.73944E-002,3.58544E-001,4.89002E-003,4.78843E-001,0,5.22268E+000,2.02576E+000,9.99934E-001,-3.82829E+001,-3.14052E+001,9.99197E-001,7.09600E-003,-2.84606E-003,3.83914E-005,7.09615E-003,-2.84621E-003,2.21244E-001,7.14228E-003,1.00711E+000,-4.43878E-003,0.00000E+000,4.50192E-003,9.97240E-001,0.00000E+000,-2.27472E-003,-1.36161E-002,1.00000E+000,1
1039,1297,7.20625E+000,-1.69553E+000,3.10150E-002,3.31572E-001,1.25073E-001,-6.73335E-002,3.60717E-001,5.03372E-003,4.72151E-001,0,5.23980E+000,2.04261E+000,9.99906E-001,-3.83186E+001,-3.13898E+001,9.98947E-001,7.14027E-003,-2.84629E-003,3.03160E-005,7.14037E-003,-2.84638E-003,1.73929E-001,7.18911E-003,1.00716E+000,-4.43835E-003,0.00000E+000,4.48806E-003,9.97240E-001,0.00000E+000,-2.48548E-003,-1.36181E-002,1.00000E+000,1
1049,1337,7.90034E+000,8.80071E-001,-7.67203E-002,3.23900E-001,1.19413E-001,-1.03456E-001,3.60380E-001,6.62985E-003,4.42443E-001,0,5.24808E+000,2.03613E+000,9.99954E-001,-3.74028E+001,-3.12479E+001,9.99579E-001,6.94073E-003,-2.84203E-003,6.97098E-006,6.94074E-003,-2.84204E-003,4.08276E-002,6.97856E-003,1.00696E+000,-4.46833E-003,0.00000E+000,4.45408E-003,9.97242E-001,0.00000E+000,-1.17900E-003,-1.33932E-002,1.00000E+000,1
1049,1347,7.92305E+000,1.53348E+000,-4.10943E-002,3.21494E-001,1.18971E-001,-1.09148E-001,3.59757E-001,6.38564E-003,4.72585E-001,0,5.23039E+000,2.03419E+000,9.99931E-001,-3.68827E+001,-3.12113E+001,9.99235E-001,6.93015E-003,-2.84118E-003,1.67361E-005,6.93018E-003,-2.84121E-003,9.81344E-002,6.96753E-003,1.00694E+000,-4.46874E-003,0.00000E+000,4.47230E-003,9.97242E-001,0.00000E+000,-1.05069E-003,-1.33883E-002,1.00000E+000,1
1049,1307,7.87367E+000,-1.04768E+000,-5.78658E-003,3.33266E-001,1.26092E-001,-7.54383E-002,3.64220E-001,6.72716E-003,4.40778E-001,0,5.29094E+000,2.07619E+000,9.99930E-001,-3.79581E+001,-3.12179E+001,9.99281E-001,6.97199E-003,-2.84340E-003,-2.22842E-005,6.97204E-003,-2.84345E-003,-1.30080E-001,7.01141E-003,1.00699E+000,-4.46773E-003,0.00000E+000,4.40009E-003,9.97241E-001,0.00000E+000,-1.55930E-003,-1.34003E-002,1.00000E+000,1
1049,1317,7.88035E+000,-4.06310E-001,-3.58165E-002,3.30227E-001,1.24517E-001,-8.14666E-002,3.62203E-001,6.82613E-003,4.30955E-001,0,5.26606E+000,2.06614E+000,9.99898E-001,-3.78202E+001,-3.12360E+001,9.98247E-001,6.96161E-003,-2.84301E-003,-1.25391E-005,6.96163E-003,-2.84303E-003,-7.32752E-002,7.00048E-003,1.00698E+000,-4.46789E-003,0.00000E+000,4.41804E-003,9.97241E-001,0.00000E+000,-1.43286E-003,-1.33984E-002,1.00000E+000,1
1049,1327,7.88659E+000,2.34386E-001,-7.11272E-002,3.27331E-001,1.22028E-001,-9.02410E-002,3.60805E-001,3.98664E-003,4.41552E-001,0,5.25346E+000,2.04494E+000,9.99932E-001,-3.77000E+001,-3.12447E+001,9.98960E-001,6.95122E-003,-2.84264E-003,-2.78503E-006,6.95122E-003,-2.84264E-003,-1.62929E-002,6.98954E-003,1.00697E+000,-4.46805E-003,0.00000E+000,4.43600E-003,9.97241E-001,0.00000E+000,-1.30636E-003,-1.33966E-002,1.00000E+000,1
809,1347,-7.85515E+000,1.33115E+000,-8.33226E-002,2.19638E-001,7.77467E-002,-7.40048E-002,2.44463E-001,4.06296E-003,5.35094E-001,0,3.59583E+000,1.34876E+000,9.99933E-001,-4.03190E+001,-3.64511E+001,9.99692E-001,6.62774E-003,-2.86054E-003,-3.08528E-004,6.63776E-003,-2.87056E-003,-1.86046E+000,6.65792E-003,1.00665E+000,-1.70653E-005,0.00000E+000,-5.89492E-004,9.97275E-001,0.00000E+000,-5.49652E-004,-1.62586E-002,1.00000E+000,1
809,1357,-7.82677E+000,1.98506E+000,-1.41542E-002,2.19885E-001,7.78461E-002,-8.31717E-002,2.47643E-001,5.00872E-003,5.31872E-001,0,3.62633E+000,1.37459E+000,9.99923E-001,-3.95713E+001,-3.65398E+001,9.99427E-001,6.48235E-003,-2.86275E-003,-3.37552E-004,6.49453E-003,-2.87492E-003,-2.06598E+000,6.50875E-003,1.00650E+000,-2.33319E-005,0.00000E+000,-6.36773E-004,9.97273E-001,0.00000E+000,-8.19824E-004,-1.62702E-002,1.00000E+000,1
809,1327,-7.88978E+000,4.73848E-002,-1.08941E-001,2.19086E-001,8.19328E-002,-5.41442E-002,2.40091E-001,4.95705E-003,5.69279E-001,0,3.52709E+000,1.38294E+000,9.99931E-001,-4.11837E+001,-3.61500E+001,9.98876E-001,6.91385E-003,-2.85787E-003,-2.53722E-004,6.92044E-003,-2.86445E-003,-1.48635E+000,6.95454E-003,1.00694E+000,-9.46317E-006,0.00000E+000,-4.96352E-004,9.97278E-001,0.00000E+000,-1.74380E-005,-1.62445E-002,1.00000E+000,1
809,1337,-7.87393E+000,6.88406E-001,-1.04466E-001,2.19842E-001,8.05674E-002,-6.26504E-002,2.42377E-001,3.63197E-003,5.58245E-001,0,3.56438E+000,1.37053E+000,9.99932E-001,-4.07952E+001,-3.62908E+001,9.99577E-001,6.77119E-003,-2.85905E-003,-2.80847E-004,6.77938E-003,-2.86724E-003,-1.66903E+000,6.80617E-003,1.00679E+000,-1.28334E-005,0.00000E+000,-5.42807E-004,9.97277E-001,0.00000E+000,-2.82889E-004,-1.62508E-002,1.00000E+000,1
809,1307,-7.90149E+000,-1.21986E+000,-1.76733E-002,2.18165E-001,8.70904E-002,-3.46611E-002,2.37449E-001,5.00035E-003,5.77885E-001,0,3.45236E+000,1.41185E+000,9.99897E-001,-4.13956E+001,-3.58683E+001,9.99019E-001,7.19615E-003,-2.85703E-003,-2.02105E-004,7.20021E-003,-2.86109E-003,-1.15123E+000,7.25060E-003,1.00722E+000,-7.02957E-006,0.00000E+000,-4.04336E-004,9.97278E-001,0.00000E+000,5.08355E-004,-1.62400E-002,1.00000E+000,1
809,1317,-7.89685E+000,-5.87903E-001,-7.05593E-002,2.19127E-001,8.40589E-002,-4.30007E-002,2.38603E-001,6.03822E-003,5.88347E-001,0,3.49338E+000,1.38097E+000,9.99937E-001,-4.13273E+001,-3.60113E+001,9.99174E-001,7.05531E-003,-2.85732E-003,-2.27676E-004,7.06054E-003,-2.86254E-003,-1.31506E+000,7.10252E-003,1.00708E+000,-7.86547E-006,0.00000E+000,-4.50256E-004,9.97278E-001,0.00000E+000,2.45959E-004,-1.62416E-002,1.00000E+000,1
1049,1297,7.86771E+000,-1.68782E+000,2.93691E-002,3.35856E-001,1.27994E-001,-6.92922E-002,3.66037E-001,5.69038E-003,4.45812E-001,0,5.30839E+000,2.09422E+000,9.99876E-001,-3.80742E+001,-3.11963E+001,9.98549E-001,6.98234E-003,-2.84375E-003,-3.20270E-005,6.98244E-003,-2.84385E-003,-1.86746E-001,7.02234E-003,1.00700E+000,-4.46759E-003,0.00000E+000,4.38217E-003,9.97240E-001,0.00000E+000,-1.68558E-003,-1.34020E-002,1.00000E+000,1
799,1337,-8.52566E+000,6.81300E-001,-1.08865E-001,2.15730E-001,8.00397E-002,-6.31130E-002,2.38598E-001,3.38128E-003,5.45532E-001,0,3.50350E+000,1.36917E+000,9.99943E-001,-4.08149E+001,-3.64901E+001,9.99720E-001,6.68347E-003,-2.84256E-003,-2.41167E-004,6.68957E-003,-2.84866E-003,-1.44930E+000,6.71405E-003,1.00671E+000,1.43405E-004,0.00000E+000,-6.16563E-004,9.97289E-001,0.00000E+000,-4.03491E-004,-1.60006E-002,1.00000E+000,1
799,1347,-8.50742E+000,1.32564E+000,-8.60843E-002,2.15506E-001,7.89326E-002,-7.10290E-002,2.40247E-001,3.77149E-003,5.38421E-001,0,3.52350E+000,1.36406E+000,9.99901E-001,-4.03405E+001,-3.66231E+001,9.99688E-001,6.54226E-003,-2.84432E-003,-2.74408E-004,6.55028E-003,-2.85234E-003,-1.67309E+000,6.56844E-003,1.00656E+000,1.39346E-004,0.00000E+000,-6.75730E-004,9.97287E-001,0.00000E+000,-5.99159E-004,-1.60062E-002,1.00000E+000,1
799,1357,-8.47910E+000,1.97866E+000,-1.77339E-002,2.15757E-001,7.84723E-002,-8.19218E-002,2.43762E-001,3.99148E-003,5.28855E-001,0,3.55928E+000,1.38462E+000,9.99901E-001,-3.95929E+001,-3.67283E+001,9.99493E-001,6.39922E-003,-2.84701E-003,-3.09092E-004,6.40955E-003,-2.85733E-003,-1.91249E+000,6.42209E-003,1.00642E+000,1.33175E-004,0.00000E+000,-7.35638E-004,9.97285E-001,0.00000E+000,-7.97275E-004,-1.60147E-002,1.00000E+000,1
799,1327,-8.53982E+000,4.05343E-002,-1.07136E-001,2.16113E-001,8.22218E-002,-5.06460E-002,2.36707E-001,8.00597E-003,5.39524E-001,0,3.47168E+000,1.37659E+000,9.99948E-001,-4.11630E+001,-3.63656E+001,9.99087E-001,6.82406E-003,-2.84118E-003,-2.08476E-004,6.82856E-003,-2.84567E-003,-1.23509E+000,6.86005E-003,1.00685E+000,1.46604E-004,0.00000E+000,-5.57625E-004,9.97290E-001,0.00000E+000,-2.08584E-004,-1.59962E-002,1.00000E+000,1
1059,1327,8.54905E+000,2.43971E-001,-6.82352E-002,3.31523E-001,1.25114E-001,-8.91938E-002,3.65399E-001,6.08762E-003,4.37477E-001,0,5.31033E+000,2.09326E+000,9.99940E-001,-3.74301E+001,-3.10162E+001,9.99167E-001,6.86981E-003,-2.84470E-003,-6.93252E-005,6.87030E-003,-2.84519E-003,-4.08850E-001,6.90400E-003,1.00688E+000,-4.47626E-003,0.00000E+000,4.30627E-003,9.97239E-001,0.00000E+000,-8.96128E-004,-1.33543E-002,1.00000E+000,1
1059,1337,8.56319E+000,8.90322E-001,-7.06781E-002,3.27976E-001,1.22752E-001,-1.00881E-001,3.64436E-001,4.88750E-003,4.51178E-001,0,5.29791E+000,2.07756E+000,9.99946E-001,-3.71219E+001,-3.10082E+001,9.99602E-001,6.88201E-003,-2.84395E-003,-5.72726E-005,6.88235E-003,-2.84429E-003,-3.37378E-001,6.91677E-003,1.00690E+000,-4.47593E-003,0.00000E+000,4.32981E-003,9.97240E-001,0.00000E+000,-8.87224E-004,-1.33540E-002,1.00000E+000,1
1059,1347,8.58718E+000,1.54243E+000,-3.61097E-002,3.26434E-001,1.21624E-001,-1.08656E-001,3.64908E-001,7.63589E-003,4.27302E-001,0,5.30119E+000,2.08097E+000,9.99935E-001,-3.65865E+001,-3.10146E+001,9.99213E-001,6.89428E-003,-2.84292E-003,-4.50774E-005,6.89449E-003,-2.84313E-003,-2.65238E-001,6.92969E-003,1.00691E+000,-4.47545E-003,0.00000E+000,4.35348E-003,9.97241E-001,0.00000E+000,-8.78267E-004,-1.33537E-002,1.00000E+000,1
1059,1297,8.52747E+000,-1.68161E+000,2.19866E-002,3.40017E-001,1.31093E-001,-6.84085E-002,3.70779E-001,4.31453E-003,4.25262E-001,0,5.36496E+000,2.13202E+000,9.99933E-001,-3.78645E+001,-3.10112E+001,9.99142E-001,6.83344E-003,-2.84611E-003,-1.05041E-004,6.83458E-003,-2.84725E-003,-6.21667E-001,6.86620E-003,1.00685E+000,-4.47683E-003,0.00000E+000,4.23612E-003,9.97238E-001,0.00000E+000,-9.22667E-004,-1.33547E-002,1.00000E+000,1
1059,1307,8.53333E+000,-1.04208E+000,-1.45232E-002,3.37275E-001,1.29269E-001,-7.59451E-002,3.69097E-001,6.90647E-003,3.92388E-001,0,5.35027E+000,2.11795E+000,9.99923E-001,-3.77533E+001,-3.10516E+001,9.99126E-001,6.84552E-003,-2.84569E-003,-9.31923E-005,6.84642E-003,-2.84659E-003,-5.50898E-001,6.87872E-003,1.00686E+000,-4.47667E-003,0.00000E+000,4.25941E-003,9.97238E-001,0.00000E+000,-9.13853E-004,-1.33546E-002,1.00000E+000,1
1059,1317,8.53997E+000,-4.00730E-001,-4.72585E-002,3.34639E-001,1.26846E-001,-8.23367E-002,3.67222E-001,8.03360E-003,4.11040E-001,0,5.33329E+000,2.09594E+000,9.99906E-001,-3.76225E+001,-3.10480E+001,9.98200E-001,6.85764E-003,-2.84525E-003,-8.12942E-005,6.85832E-003,-2.84593E-003,-4.79999E-001,6.89131E-003,1.00687E+000,-4.47649E-003,0.00000E+000,4.28280E-003,9.97239E-001,0.00000E+000,-9.05007E-004,-1.33544E-002,1.00000E+000,1
799,1307,-8.55069E+000,-1.22554E+000,-1.30794E-002,2.14747E-001,8.70562E-002,-3.42641E-002,2.34242E-001,6.20191E-003,5.63820E-001,0,3.39991E+000,1.40284E+000,9.99948E-001,-4.13556E+001,-3.60603E+001,9.99424E-001,7.10179E-003,-2.84029E-003,-1.45962E-004,7.10393E-003,-2.84244E-003,-8.40932E-001,7.15102E-003,1.00713E+000,1.48702E-004,0.00000E+000,-4.41131E-004,9.97291E-001,0.00000E+000,1.76664E-004,-1.59933E-002,1.00000E+000,1
799,1317,-8.54917E+000,-5.94416E-001,-7.88359E-002,2.15290E-001,8.50003E-002,-4.19937E-002,2.35241E-001,7.78610E-003,5.85177E-001,0,3.43224E+000,1.38557E+000,9.99939E-001,-4.13681E+001,-3.61853E+001,9.98784E-001,6.96346E-003,-2.84037E-003,-1.76696E-004,6.96664E-003,-2.84355E-003,-1.03221E+000,7.00570E-003,1.00699E+000,1.48483E-004,0.00000E+000,-4.99168E-004,9.97291E-001,0.00000E+000,-1.52660E-005,-1.59936E-002,1.00000E+000,1
789,1327,-9.19162E+000,3.42355E-002,-1.11755E-001,2.11646E-001,8.27187E-002,-5.00288E-002,2.32678E-001,5.78971E-003,5.36771E-001,0,3.40186E+000,1.37956E+000,9.99952E-001,-4.11819E+001,-3.65456E+001,9.99407E-001,6.74037E-003,-2.81494E-003,-1.73643E-004,6.74352E-003,-2.81810E-003,-1.04075E+000,6.77376E-003,1.00676E+000,2.83909E-004,0.00000E+000,-6.22010E-004,9.97312E-001,0.00000E+000,-3.49420E-004,-1.57288E-002,1.00000E+000,1
789,1337,-9.17655E+000,6.75772E-001,-1.09373E-001,2.11650E-001,8.10479E-002,-6.17178E-002,2.34890E-001,3.40375E-003,5.39881E-001,0,3.43691E+000,1.37978E+000,9.99939E-001,-4.08075E+001,-3.66702E+001,9.99728E-001,6.60383E-003,-2.81641E-003,-2.07062E-004,6.60838E-003,-2.82096E-003,-1.25859E+000,6.63189E-003,1.00663E+000,2.80690E-004,0.00000E+000,-6.83409E-004,9.97311E-001,0.00000E+000,-4.83299E-004,-1.57319E-002,1.00000E+000,1
789,1347,-9.15801E+000,1.32103E+000,-8.48830E-002,2.11429E-001,7.98299E-002,-7.01417E-002,2.36632E-001,3.71808E-003,5.56765E-001,0,3.45835E+000,1.37640E+000,9.99921E-001,-4.03221E+001,-3.67825E+001,9.99613E-001,6.46655E-003,-2.81823E-003,-2.41038E-004,6.47280E-003,-2.82449E-003,-1.48610E+000,6.49025E-003,1.00649E+000,2.76681E-004,0.00000E+000,-7.45123E-004,9.97309E-001,0.00000E+000,-6.17864E-004,-1.57358E-002,1.00000E+000,1
789,1357,-9.13105E+000,1.97270E+000,-2.01246E-002,2.11828E-001,7.92044E-002,-7.80925E-002,2.39255E-001,3.64204E-003,5.54972E-001,0,3.48746E+000,1.38377E+000,9.99902E-001,-3.96023E+001,-3.68986E+001,9.99489E-001,6.32798E-003,-2.82083E-003,-2.76135E-004,6.33631E-003,-2.82916E-003,-1.72724E+000,6.34839E-003,1.00635E+000,2.71004E-004,0.00000E+000,-8.07397E-004,9.97306E-001,0.00000E+000,-7.53651E-004,-1.57414E-002,1.00000E+000,1
1069,1327,9.21191E+000,2.52885E-001,-7.43901E-002,3.36745E-001,1.27346E-001,-9.25032E-002,3.71714E-001,6.85912E-003,4.69098E-001,0,5.39865E+000,2.13308E+000,9.99932E-001,-3.71690E+001,-3.07605E+001,9.98794E-001,6.78486E-003,-2.81825E-003,-1.14642E-004,6.78623E-003,-2.81962E-003,-6.83867E-001,6.81846E-003,1.00680E+000,-4.44149E-003,0.00000E+000,4.17817E-003,9.97265E-001,0.00000E+000,-6.14094E-004,-1.33210E-002,1.00000E+000,1
1069,1337,9.22438E+000,8.99316E-001,-7.58949E-002,3.32302E-001,1.26900E-001,-9.95929E-002,3.69388E-001,4.31191E-003,4.28497E-001,0,5.35577E+000,2.14031E+000,9.99934E-001,-3.68860E+001,-3.07789E+001,9.99267E-001,6.81083E-003,-2.81740E-003,-1.00228E-004,6.81187E-003,-2.81844E-003,-5.96352E-001,6.84557E-003,1.00682E+000,-4.44081E-003,0.00000E+000,4.20677E-003,9.97266E-001,0.00000E+000,-6.62602E-004,-1.33223E-002,1.00000E+000,1
1069,1347,9.24565E+000,1.55006E+000,-5.26598E-002,3.29698E-001,1.24486E-001,-1.10938E-001,3.69465E-001,4.26068E-003,4.49684E-001,0,5.35640E+000,2.12256E+000,9.99936E-001,-3.64177E+001,-3.07575E+001,9.99493E-001,6.83703E-003,-2.81625E-003,-8.55530E-005,6.83779E-003,-2.81701E-003,-5.07736E-001,6.87302E-003,1.00685E+000,-4.43985E-003,0.00000E+000,4.23564E-003,9.97267E-001,0.00000E+000,-7.11542E-004,-1.33241E-002,1.00000E+000,1
789,1307,-9.20258E+000,-1.23062E+000,-1.69647E-002,2.10383E-001,8.81405E-002,-3.12913E-002,2.30236E-001,7.06381E-003,5.59744E-001,0,3.32479E+000,1.41694E+000,9.99937E-001,-4.13747E+001,-3.62207E+001,9.98083E-001,7.00988E-003,-2.81404E-003,-1.09784E-004,7.01111E-003,-2.81527E-003,-6.40185E-001,7.05627E-003,1.00703E+000,2.85975E-004,0.00000E+000,-5.00766E-004,9.97313E-001,0.00000E+000,-8.50499E-005,-1.57268E-002,1.00000E+000,1
789,1317,-9.19765E+000,-5.99635E-001,-6.96663E-002,2.11549E-001,8.49256E-002,-4.03801E-002,2.31508E-001,8.02536E-003,5.51474E-001,0,3.37094E+000,1.38664E+000,9.99917E-001,-4.13010E+001,-3.63918E+001,9.97746E-001,6.87535E-003,-2.81439E-003,-1.41551E-004,6.87741E-003,-2.81645E-003,-8.36759E-001,6.91485E-003,1.00690E+000,2.85175E-004,0.00000E+000,-5.61297E-004,9.97313E-001,0.00000E+000,-2.17038E-004,-1.57275E-002,1.00000E+000,1
1069,1297,9.18583E+000,-1.67523E+000,7.55933E-003,3.44116E-001,1.34167E-001,-6.70132E-002,3.75377E-001,4.51505E-003,4.27489E-001,0,5.41872E+000,2.17630E+000,9.99928E-001,-3.76868E+001,-3.07972E+001,9.99264E-001,6.70709E-003,-2.82006E-003,-1.57452E-004,6.70970E-003,-2.82267E-003,-9.46565E-001,6.73778E-003,1.00672E+000,-4.44285E-003,0.00000E+000,4.09254E-003,9.97264E-001,0.00000E+000,-4.68895E-004,-1.33185E-002,1.00000E+000,1
1069,1307,9.19069E+000,-1.03751E+000,-3.83800E-002,3.41479E-001,1.31182E-001,-7.90312E-002,3.74250E-001,4.84136E-003,3.77812E-001,0,5.42239E+000,2.15974E+000,9.99953E-001,-3.76107E+001,-3.08521E+001,9.99102E-001,6.73286E-003,-2.81961E-003,-1.43341E-004,6.73501E-003,-2.82177E-003,-8.59500E-001,6.76443E-003,1.00675E+000,-4.44254E-003,0.00000E+000,4.12090E-003,9.97264E-001,0.00000E+000,-5.16994E-004,-1.33191E-002,1.00000E+000,1
1069,1317,9.20151E+000,-3.92572E-001,-5.76366E-002,3.39437E-001,1.29156E-001,-8.65422E-002,3.73347E-001,6.59364E-003,4.30798E-001,0,5.41826E+000,2.14293E+000,9.99922E-001,-3.73891E+001,-3.08026E+001,9.98726E-001,6.75886E-003,-2.81894E-003,-1.28996E-004,6.76059E-003,-2.82067E-003,-7.71489E-001,6.79140E-003,1.00677E+000,-4.44202E-003,0.00000E+000,4.14953E-003,9.97265E-001,0.00000E+000,-5.65533E-004,-1.33201E-002,1.00000E+000,1
779,1327,-9.84173E+000,3.09523E-002,-1.10201E-001,2.07434E-001,8.36120E-002,-4.81025E-002,2.28765E-001,8.76534E-003,5.87187E-001,0,3.33187E+000,1.38849E+000,9.99961E-001,-4.11550E+001,-3.66660E+001,9.99186E-001,6.63532E-003,-2.76136E-003,-1.63583E-004,6.63816E-003,-2.76420E-003,-9.97039E-001,6.66901E-003,1.00666E+000,3.88923E-004,0.00000E+000,-7.07127E-004,9.97360E-001,0.00000E+000,-2.85533E-004,-1.53890E-002,1.00000E+000,1
779,1337,-9.82693E+000,6.70771E-001,-1.09094E-001,2.07645E-001,8.15491E-002,-5.94094E-002,2.30860E-001,3.23129E-003,5.63758E-001,0,3.36890E+000,1.38161E+000,9.99932E-001,-4.07868E+001,-3.68292E+001,9.99649E-001,6.51704E-003,-2.76255E-003,-1.91738E-004,6.52100E-003,-2.76651E-003,-1.18319E+000,6.54590E-003,1.00654E+000,3.86217E-004,0.00000E+000,-7.59019E-004,9.97359E-001,0.00000E+000,-3.91587E-004,-1.53914E-002,1.00000E+000,1
779,1347,-9.80825E+000,1.31460E+000,-8.40636E-002,2.07179E-001,7.98497E-002,-7.02310E-002,2.32877E-001,3.63083E-003,5.38732E-001,0,3.39366E+000,1.37945E+000,9.99915E-001,-4.02960E+001,-3.69872E+001,9.99601E-001,6.39806E-003,-2.76412E-003,-2.20469E-004,6.40336E-003,-2.76942E-003,-1.37765E+000,6.42278E-003,1.00642E+000,3.82663E-004,0.00000E+000,-8.11208E-004,9.97358E-001,0.00000E+000,-4.98251E-004,-1.53945E-002,1.00000E+000,1
779,1357,-9.78234E+000,1.96559E+000,-2.51655E-002,2.07485E-001,7.89687E-002,-8.02742E-002,2.36072E-001,3.00496E-003,5.55350E-001,0,3.42752E+000,1.38379E+000,9.99908E-001,-3.96048E+001,-3.70934E+001,9.99646E-001,6.27787E-003,-2.76623E-003,-2.50067E-004,6.28478E-003,-2.77314E-003,-1.58260E+000,6.29922E-003,1.00630E+000,3.77906E-004,0.00000E+000,-8.63913E-004,9.97355E-001,0.00000E+000,-6.05968E-004,-1.53988E-002,1.00000E+000,1
779,1317,-9.84784E+000,-6.04864E-001,-6.61538E-002,2.07078E-001,8.55269E-002,-3.73361E-002,2.27134E-001,1.05715E-002,5.36177E-001,0,3.29390E+000,1.39080E+000,9.99947E-001,-4.12708E+001,-3.65774E+001,9.98857E-001,6.75279E-003,-2.76091E-003,-1.36422E-004,6.75474E-003,-2.76286E-003,-8.21368E-001,6.79191E-003,1.00678E+000,3.89985E-004,0.00000E+000,-6.55577E-004,9.97361E-001,0.00000E+000,-1.80177E-004,-1.53880E-002,1.00000E+000,1
1079,1337,9.88781E+000,9.07511E-001,-8.21688E-002,3.37716E-001,1.28679E-001,-1.02193E-001,3.75571E-001,4.52493E-003,4.48130E-001,0,5.44480E+000,2.17141E+000,9.99963E-001,-3.66142E+001,-3.05384E+001,9.99558E-001,6.76131E-003,-2.80894E-003,-1.13539E-004,6.76266E-003,-2.81028E-003,-6.79617E-001,6.79473E-003,1.00677E+000,-4.37921E-003,0.00000E+000,4.11529E-003,9.97276E-001,0.00000E+000,-3.47182E-004,-1.33724E-002,1.00000E+000,1
1079,1347,9.90869E+000,1.55906E+000,-5.56316E-002,3.34448E-001,1.26895E-001,-1.10633E-001,3.74430E-001,3.01836E-003,4.60229E-001,0,5.42492E+000,2.15985E+000,9.99963E-001,-3.61475E+001,-3.05147E+001,9.99796E-001,6.79966E-003,-2.80744E-003,-9.43912E-005,6.80059E-003,-2.80837E-003,-5.62867E-001,6.83485E-003,1.00681E+000,-4.37779E-003,0.00000E+000,4.15269E-003,9.97277E-001,0.00000E+000,-4.04355E-004,-1.33745E-002,1.00000E+000,1
1079,1297,9.84862E+000,-1.66604E+000,7.67905E-003,3.48393E-001,1.37438E-001,-6.70240E-002,3.80472E-001,5.15250E-003,4.19969E-001,0,5.47983E+000,2.23663E+000,9.99923E-001,-3.74075E+001,-3.05754E+001,9.99258E-001,6.60948E-003,-2.81236E-003,-1.88017E-004,6.61323E-003,-2.81611E-003,-1.14275E+000,6.63744E-003,1.00662E+000,-4.38216E-003,0.00000E+000,3.96731E-003,9.97273E-001,0.00000E+000,-1.20928E-004,-1.33680E-002,1.00000E+000,1
1079,1307,9.85154E+000,-1.02894E+000,-4.41040E-002,3.45172E-001,1.33820E-001,-7.88832E-002,3.78516E-001,5.25354E-003,3.95278E-001,0,5.47464E+000,2.20749E+000,9.99952E-001,-3.73737E+001,-3.06135E+001,9.99162E-001,6.64718E-003,-2.81185E-003,-1.69702E-004,6.65023E-003,-2.81490E-003,-1.02749E+000,6.67627E-003,1.00666E+000,-4.38179E-003,0.00000E+000,4.00405E-003,9.97273E-001,0.00000E+000,-1.77104E-004,-1.33686E-002,1.00000E+000,1
1079,1327,9.87449E+000,2.61833E-001,-7.71988E-002,3.40945E-001,1.30115E-001,-9.37250E-002,3.76773E-001,5.69902E-003,4.91503E-001,0,5.46370E+000,2.17042E+000,9.99959E-001,-3.69020E+001,-3.05163E+001,9.99510E-001,6.72329E-003,-2.81002E-003,-1.32310E-004,6.72512E-003,-2.81185E-003,-7.94988E-001,6.75512E-003,1.00674E+000,-4.38018E-003,0.00000E+000,4.07823E-003,9.97275E-001,0.00000E+000,-2.90509E-004,-1.33709E-002,1.00000E+000,1
1079,1317,9.86268E+000,-3.83182E-001,-6.47418E-002,3.43505E-001,1.32249E-001,-8.70473E-002,3.78236E-001,5.26795E-003,4.82249E-001,0,5.47853E+000,2.18579E+000,9.99957E-001,-3.71512E+001,-3.05295E+001,9.99245E-001,6.68525E-003,-2.81098E-003,-1.51024E-004,6.68765E-003,-2.81338E-003,-9.10903E-001,6.71564E-003,1.00670E+000,-4.38103E-003,0.00000E+000,4.04115E-003,9.97274E-001,0.00000E+000,-2.33819E-004,-1.33697E-002,1.00000E+000,1
779,1307,-9.85257E+000,-1.23537E+000,-1.21596E-002,2.05836E-001,8.77770E-002,-2.79740E-002,2.25512E-001,6.07558E-003,5.63080E-001,0,3.24624E+000,1.41288E+000,9.99917E-001,-4.13385E+001,-3.63906E+001,9.99082E-001,6.86931E-003,-2.76064E-003,-1.09679E-004,6.87056E-003,-2.76189E-003,-6.52447E-001,6.91442E-003,1.00689E+000,3.90625E-004,0.00000E+000,-6.04431E-004,9.97361E-001,0.00000E+000,-7.56448E-005,-1.53875E-002,1.00000E+000,1
1089,1337,1.05501E+001,9.16562E-001,-8.80354E-002,3.41590E-001,1.30683E-001,-1.04154E-001,3.80276E-001,3.57090E-003,4.98812E-001,0,5.50803E+000,2.19927E+000,9.99933E-001,-3.63555E+001,-3.02703E+001,9.99680E-001,6.77350E-003,-2.79422E-003,-1.22929E-004,6.77507E-003,-2.79580E-003,-7.35994E-001,6.80944E-003,1.00679E+000,-4.32235E-003,0.00000E+000,4.03657E-003,9.97292E-001,0.00000E+000,-7.02709E-005,-1.34834E-002,1.00000E+000,1
1089,1347,1.05716E+001,1.56754E+000,-6.18039E-002,3.38835E-001,1.29158E-001,-1.12460E-001,3.79655E-001,3.57981E-003,4.63885E-001,0,5.49558E+000,2.19934E+000,9.99946E-001,-3.58827E+001,-3.02766E+001,9.99536E-001,6.83109E-003,-2.79258E-003,-1.01565E-004,6.83216E-003,-2.79365E-003,-6.04588E-001,6.86986E-003,1.00685E+000,-4.32022E-003,0.00000E+000,4.07833E-003,9.97294E-001,0.00000E+000,-1.80981E-004,-1.34874E-002,1.00000E+000,1
769,1347,-1.04592E+001,1.30861E+000,-8.77529E-002,2.02546E-001,8.01653E-002,-7.08020E-002,2.29050E-001,3.30908E-003,5.41754E-001,0,3.32431E+000,1.38875E+000,9.99919E-001,-4.02891E+001,-3.71651E+001,9.99489E-001,6.30584E-003,-2.74960E-003,-2.14846E-004,6.31093E-003,-2.75469E-003,-1.35836E+000,6.32788E-003,1.00633E+000,5.11582E-004,0.00000E+000,-9.29833E-004,9.97370E-001,0.00000E+000,-3.67534E-004,-1.52740E-002,1.00000E+000,1
769,1357,-1.04334E+001,1.95912E+000,-3.10207E-002,2.03352E-001,7.92041E-002,-8.12400E-002,2.32863E-001,3.06462E-003,5.61075E-001,0,3.36693E+000,1.39273E+000,9.99927E-001,-3.96019E+001,-3.72740E+001,9.99689E-001,6.18511E-003,-2.75146E-003,-2.41751E-004,6.19165E-003,-2.75799E-003,-1.54845E+000,6.20392E-003,1.00620E+000,5.06910E-004,0.00000E+000,-9.77563E-004,9.97368E-001,0.00000E+000,-4.56723E-004,-1.52774E-002,1.00000E+000,1
769,1327,-1.04897E+001,2.59995E-002,-9.70928E-002,2.02649E-001,8.36375E-002,-4.68778E-002,2.24186E-001,6.72491E-003,5.61650E-001,0,3.25524E+000,1.38356E+000,9.99955E-001,-4.10608E+001,-3.68749E+001,9.98746E-001,6.54409E-003,-2.74736E-003,-1.63491E-004,6.54696E-003,-2.75023E-003,-1.00775E+000,6.57478E-003,1.00657E+000,5.17279E-004,0.00000E+000,-8.35609E-004,9.97372E-001,0.00000E+000,-1.91468E-004,-1.52698E-002,1.00000E+000,1
769,1337,-1.04778E+001,6.64981E-001,-1.09503E-001,2.02514E-001,8.14882E-002,-5.90380E-002,2.26137E-001,3.28411E-003,5.70383E-001,0,3.28934E+000,1.38138E+000,9.99935E-001,-4.07715E+001,-3.70078E+001,9.99477E-001,6.42533E-003,-2.74823E-003,-1.88795E-004,6.42921E-003,-2.75212E-003,-1.17850E+000,6.45136E-003,1.00645E+000,5.15036E-004,0.00000E+000,-8.82580E-004,9.97371E-001,0.00000E+000,-2.79239E-004,-1.52714E-002,1.00000E+000,1
1089,1327,1.05350E+001,2.67779E-001,-8.92512E-002,3.44828E-001,1.32598E-001,-9.53460E-002,3.81548E-001,5.48837E-003,4.65470E-001,0,5.52555E+000,2.20603E+000,9.99918E-001,-3.66809E+001,-3.03229E+001,9.99178E-001,6.71601E-003,-2.79552E-003,-1.43998E-004,6.71819E-003,-2.79770E-003,-8.67155E-001,6.74940E-003,1.00673E+000,-4.32396E-003,0.00000E+000,3.99491E-003,9.97291E-001,0.00000E+000,4.01915E-005,-1.34803E-002,1.00000E+000,1
1089,1317,1.05244E+001,-3.75679E-001,-6.97373E-002,3.47123E-001,1.34863E-001,-8.78257E-002,3.82617E-001,5.10033E-003,4.82632E-001,0,5.53303E+000,2.22006E+000,9.99940E-001,-3.68975E+001,-3.03159E+001,9.99466E-001,6.65893E-003,-2.79649E-003,-1.64693E-004,6.66180E-003,-2.79936E-003,-9.97565E-001,6.69001E-003,1.00667E+000,-4.32512E-003,0.00000E+000,3.95354E-003,9.97290E-001,0.00000E+000,1.49862E-004,-1.34781E-002,1.00000E+000,1
1089,1297,1.05120E+001,-1.65691E+000,8.48915E-003,3.52960E-001,1.39962E-001,-6.55275E-002,3.85310E-001,4.45823E-003,4.66250E-001,0,5.54001E+000,2.26757E+000,9.99914E-001,-3.71149E+001,-3.03292E+001,9.99587E-001,6.54512E-003,-2.79796E-003,-2.05608E-004,6.54964E-003,-2.80248E-003,-1.26006E+000,6.57231E-003,1.00656E+000,-4.32676E-003,0.00000E+000,3.87112E-003,9.97289E-001,0.00000E+000,3.68412E-004,-1.34750E-002,1.00000E+000,1
1089,1307,1.05155E+001,-1.01908E+000,-4.39777E-002,3.49920E-001,1.36540E-001,-7.94079E-002,3.83918E-001,4.95453E-003,4.76236E-001,0,5.54503E+000,2.23009E+000,9.99934E-001,-3.70742E+001,-3.03354E+001,9.99493E-001,6.60187E-003,-2.79738E-003,-1.85315E-004,6.60553E-003,-2.80103E-003,-1.12906E+000,6.63088E-003,1.00661E+000,-4.32616E-003,0.00000E+000,3.91222E-003,9.97289E-001,0.00000E+000,2.59436E-004,-1.34761E-002,1.00000E+000,1
769,1317,-1.04970E+001,-6.08219E-001,-6.39643E-002,2.03368E-001,8.52405E-002,-3.45523E-002,2.23200E-001,8.56018E-003,5.75292E-001,0,3.22980E+000,1.39927E+000,9.99950E-001,-4.12242E+001,-3.67042E+001,9.99244E-001,6.66184E-003,-2.74678E-003,-1.38759E-004,6.66388E-003,-2.74883E-003,-8.44760E-001,6.69781E-003,1.00668E+000,5.18773E-004,0.00000E+000,-7.89027E-004,9.97373E-001,0.00000E+000,-1.04425E-004,-1.52687E-002,1.00000E+000,1
1099,1327,1.11964E+001,2.75451E-001,-9.84115E-002,3.49000E-001,1.34970E-001,-9.44240E-002,3.85919E-001,4.41854E-003,4.71141E-001,0,5.58255E+000,2.24579E+000,9.99873E-001,-3.64372E+001,-3.00934E+001,9.99274E-001,6.68996E-003,-2.78470E-003,-1.73388E-004,6.69313E-003,-2.78787E-003,-1.04805E+000,6.72415E-003,1.00670E+000,-4.27496E-003,0.00000E+000,3.88695E-003,9.97305E-001,0.00000E+000,1.08861E-004,-1.37026E-002,1.00000E+000,1
1099,1337,1.12138E+001,9.25737E-001,-9.00072E-002,3.46238E-001,1.34119E-001,-1.02982E-001,3.85323E-001,4.23232E-003,4.85466E-001,0,5.57105E+000,2.25185E+000,9.99890E-001,-3.60640E+001,-3.00410E+001,9.99467E-001,6.76991E-003,-2.78315E-003,-1.49658E-004,6.77225E-003,-2.78549E-003,-8.97304E-001,6.80767E-003,1.00678E+000,-4.27249E-003,0.00000E+000,3.93371E-003,9.97307E-001,0.00000E+000,-5.27940E-005,-1.37075E-002,1.00000E+000,1
1099,1347,1.12371E+001,1.57817E+000,-5.70485E-002,3.43080E-001,1.32212E-001,-1.12929E-001,3.84626E-001,4.15967E-003,4.74342E-001,0,5.55866E+000,2.24336E+000,9.99918E-001,-3.55523E+001,-3.00262E+001,9.99384E-001,6.85017E-003,-2.78118E-003,-1.25457E-004,6.85181E-003,-2.78281E-003,-7.46159E-001,6.89193E-003,1.00686E+000,-4.26927E-003,0.00000E+000,3.98068E-003,9.97309E-001,0.00000E+000,-2.15169E-004,-1.37140E-002,1.00000E+000,1
759,1347,-1.11091E+001,1.30326E+000,-8.99480E-002,1.98720E-001,8.08464E-002,-6.92693E-002,2.25442E-001,2.86344E-003,5.51691E-001,0,3.26108E+000,1.40074E+000,9.99930E-001,-4.02574E+001,-3.73329E+001,9.99532E-001,6.22969E-003,-2.74457E-003,-1.86899E-004,6.23358E-003,-2.74846E-003,-1.19256E+000,6.24808E-003,1.00625E+000,6.92559E-004,0.00000E+000,-1.05548E-003,9.97374E-001,0.00000E+000,-2.37028E-004,-1.51799E-002,1.00000E+000,1
759,1357,-1.10840E+001,1.95361E+000,-3.46948E-002,1.99280E-001,8.03147E-002,-7.96356E-002,2.29139E-001,3.27849E-003,5.69625E-001,0,3.29937E+000,1.41007E+000,9.99929E-001,-3.95831E+001,-3.74433E+001,9.99535E-001,6.09389E-003,-2.74590E-003,-2.07506E-004,6.09875E-003,-2.75077E-003,-1.34398E+000,6.10849E-003,1.00611E+000,6.87411E-004,0.00000E+000,-1.09025E-003,9.97372E-001,0.00000E+000,-3.24255E-004,-1.51832E-002,1.00000E+000,1
1099,1297,1.11740E+001,-1.65087E+000,-4.80298E-003,3.57457E-001,1.40909E-001,-7.08175E-002,3.90700E-001,4.29973E-003,5.04313E-001,0,5.62438E+000,2.28514E+000,9.99815E-001,-3.68679E+001,-3.01049E+001,9.99387E-001,6.45232E-003,-2.78738E-003,-2.42147E-004,6.45866E-003,-2.79372E-003,-1.50019E+000,6.47822E-003,1.00646E+000,-4.27882E-003,0.00000E+000,3.74808E-003,9.97303E-001,0.00000E+000,5.88921E-004,-1.36948E-002,1.00000E+000,1
1099,1307,1.11782E+001,-1.01113E+000,-5.17645E-002,3.55145E-001,1.38760E-001,-7.90830E-002,3.89405E-001,5.00943E-003,4.89016E-001,0,5.61984E+000,2.27429E+000,9.99896E-001,-3.68047E+001,-3.01044E+001,9.99488E-001,6.53132E-003,-2.78674E-003,-2.19518E-004,6.53649E-003,-2.79191E-003,-1.34880E+000,6.55959E-003,1.00654E+000,-4.27798E-003,0.00000E+000,3.79423E-003,9.97303E-001,0.00000E+000,4.29404E-004,-1.36965E-002,1.00000E+000,1
1099,1317,1.11855E+001,-3.68762E-001,-8.15783E-002,3.51913E-001,1.37048E-001,-8.63089E-002,3.87394E-001,4.95160E-003,4.84437E-001,0,5.59718E+000,2.25937E+000,9.99929E-001,-3.66621E+001,-3.00958E+001,9.99447E-001,6.61053E-003,-2.78583E-003,-1.96588E-004,6.61464E-003,-2.78994E-003,-1.19803E+000,6.64156E-003,1.00662E+000,-4.27667E-003,0.00000E+000,3.84051E-003,9.97304E-001,0.00000E+000,2.69387E-004,-1.36991E-002,1.00000E+000,1
759,1327,-1.11397E+001,1.95513E-002,-9.98357E-002,1.97574E-001,8.31264E-002,-5.01444E-002,2.20136E-001,3.82926E-003,5.45940E-001,0,3.18754E+000,1.38588E+000,9.99934E-001,-4.10364E+001,-3.70680E+001,9.99681E-001,6.49794E-003,-2.74299E-003,-1.48165E-004,6.50032E-003,-2.74537E-003,-9.18341E-001,6.52640E-003,1.00652E+000,6.98746E-004,0.00000E+000,-9.86783E-004,9.97375E-001,0.00000E+000,-6.46837E-005,-1.51760E-002,1.00000E+000,1
759,1337,-1.11270E+001,6.59808E-001,-1.07993E-001,1.98055E-001,8.19896E-002,-5.95486E-002,2.22473E-001,2.87629E-003,5.68549E-001,0,3.22251E+000,1.39030E+000,9.99930E-001,-4.07222E+001,-3.71851E+001,9.99573E-001,6.36416E-003,-2.74364E-003,-1.67224E-004,6.36723E-003,-2.74671E-003,-1.05151E+000,6.38719E-003,1.00638E+000,6.96183E-004,0.00000E+000,-1.02105E-003,9.97374E-001,0.00000E+000,-1.50643E-004,-1.51776E-002,1.00000E+000,1
759,1317,-1.11471E+001,-6.12656E-001,-6.22552E-002,1.97240E-001,8.63568E-002,-3.81718E-002,2.18674E-001,6.65009E-003,5.66312E-001,0,3.14651E+000,1.41622E+000,9.99930E-001,-4.11893E+001,-3.68708E+001,9.99365E-001,6.63045E-003,-2.74263E-003,-1.29812E-004,6.63225E-003,-2.74443E-003,-7.93311E-001,6.66502E-003,1.00665E+000,7.00222E-004,0.00000E+000,-9.52836E-004,9.97376E-001,0.00000E+000,2.04789E-005,-1.51750E-002,1.00000E+000,1
749,1317,-1.17928E+001,-6.15257E-001,-5.06579E-002,1.93848E-001,8.70171E-002,-3.81620E-002,2.15882E-001,4.96055E-003,5.88791E-001,0,3.09491E+000,1.42330E+000,9.99927E-001,-4.10573E+001,-3.70143E+001,9.99284E-001,6.59503E-003,-2.73482E-003,-1.12576E-004,6.59639E-003,-2.73618E-003,-6.91208E-001,6.62824E-003,1.00662E+000,8.84538E-004,0.00000E+000,-1.10430E-003,9.97378E-001,0.00000E+000,2.38110E-004,-1.48625E-002,1.00000E+000,1
749,1327,-1.17876E+001,1.75301E-002,-9.49771E-002,1.93610E-001,8.51318E-002,-4.87586E-002,2.17047E-001,3.32782E-003,5.82225E-001,0,3.12248E+000,1.41344E+000,9.99922E-001,-4.09550E+001,-3.71833E+001,9.99461E-001,6.45108E-003,-2.73507E-003,-1.29477E-004,6.45290E-003,-2.73689E-003,-8.07362E-001,6.47761E-003,1.00647E+000,8.83295E-004,0.00000E+000,-1.13480E-003,9.97378E-001,0.00000E+000,9.66362E-005,-1.48637E-002,1.00000E+000,1
749,1337,-1.17749E+001,6.56065E-001,-1.04367E-001,1.94470E-001,8.33094E-002,-5.83449E-002,2.19461E-001,2.59845E-003,5.85722E-001,0,3.16388E+000,1.40673E+000,9.99932E-001,-4.06423E+001,-3.73356E+001,9.99730E-001,6.30579E-003,-2.73565E-003,-1.47255E-004,6.30819E-003,-2.73804E-003,-9.32826E-001,6.32646E-003,1.00633E+000,8.80582E-004,0.00000E+000,-1.16559E-003,9.97378E-001,0.00000E+000,-4.60956E-005,-1.48664E-002,1.00000E+000,1
749,1347,-1.17582E+001,1.29766E+000,-9.13353E-002,1.94792E-001,8.15157E-002,-6.93952E-002,2.22271E-001,2.60887E-003,5.49402E-001,0,3.20106E+000,1.41295E+000,9.99947E-001,-4.02078E+001,-3.75125E+001,9.99767E-001,6.15979E-003,-2.73646E-003,-1.65621E-004,6.16287E-003,-2.73954E-003,-1.06618E+000,6.17550E-003,1.00618E+000,8.76841E-004,0.00000E+000,-1.19651E-003,9.97377E-001,0.00000E+000,-1.89496E-004,-1.48700E-002,1.00000E+000,1
1109,1297,1.18344E+001,-1.64585E+000,-2.05353E-002,3.61692E-001,1.43000E-001,-7.16734E-002,3.95484E-001,3.54873E-003,4.88077E-001,0,5.68830E+000,2.31918E+000,9.99843E-001,-3.66452E+001,-2.99189E+001,9.99432E-001,6.42181E-003,-2.78473E-003,-2.66830E-004,6.42954E-003,-2.79245E-003,-1.65873E+000,6.44801E-003,1.00643E+000,-4.18760E-003,0.00000E+000,3.60665E-003,9.97309E-001,0.00000E+000,7.22769E-004,-1.38683E-002,1.00000E+000,1
1109,1307,1.18387E+001,-1.00554E+000,-6.47713E-002,3.59347E-001,1.41510E-001,-7.70112E-002,3.93809E-001,4.28183E-003,4.60194E-001,0,5.67248E+000,2.31431E+000,9.99917E-001,-3.65777E+001,-2.99197E+001,9.99491E-001,6.50146E-003,-2.78394E-003,-2.39139E-004,6.50762E-003,-2.79009E-003,-1.47431E+000,6.52961E-003,1.00651E+000,-4.18675E-003,0.00000E+000,3.66376E-003,9.97309E-001,0.00000E+000,5.01614E-004,-1.38706E-002,1.00000E+000,1
1109,1317,1.18463E+001,-3.62754E-001,-9.50530E-002,3.56590E-001,1.39876E-001,-8.39726E-002,3.92139E-001,4.26675E-003,4.63274E-001,0,5.65620E+000,2.29959E+000,9.99929E-001,-3.64309E+001,-2.98981E+001,9.99408E-001,6.58136E-003,-2.78283E-003,-2.11115E-004,6.58612E-003,-2.78759E-003,-1.29085E+000,6.61193E-003,1.00659E+000,-4.18543E-003,0.00000E+000,3.72110E-003,9.97310E-001,0.00000E+000,2.79599E-004,-1.38743E-002,1.00000E+000,1
749,1357,-1.17333E+001,1.94757E+000,-3.63957E-002,1.95613E-001,8.13360E-002,-7.85700E-002,2.25949E-001,3.52885E-003,5.55770E-001,0,3.23963E+000,1.42546E+000,9.99941E-001,-3.95356E+001,-3.76365E+001,9.99697E-001,6.01223E-003,-2.73766E-003,-1.85022E-004,6.01614E-003,-2.74157E-003,-1.21084E+000,6.02400E-003,1.00603E+000,8.71364E-004,0.00000E+000,-1.22776E-003,9.97376E-001,0.00000E+000,-3.34380E-004,-1.48754E-002,1.00000E+000,1
1109,1327,1.18584E+001,2.82840E-001,-1.06968E-001,3.53482E-001,1.38076E-001,-9.23221E-002,3.90561E-001,3.43505E-003,4.66083E-001,0,5.63947E+000,2.28483E+000,9.99898E-001,-3.61796E+001,-2.98750E+001,9.99438E-001,6.66155E-003,-2.78133E-003,-1.82683E-004,6.66508E-003,-2.78486E-003,-1.10790E+000,6.69502E-003,1.00668E+000,-4.18354E-003,0.00000E+000,3.77868E-003,9.97311E-001,0.00000E+000,5.66143E-005,-1.38795E-002,1.00000E+000,1
1109,1337,1.18762E+001,9.33215E-001,-9.78084E-002,3.50641E-001,1.36695E-001,-1.01383E-001,3.89760E-001,4.71654E-003,4.85072E-001,0,5.62898E+000,2.28470E+000,9.99913E-001,-3.58008E+001,-2.98188E+001,9.99388E-001,6.74220E-003,-2.77939E-003,-1.53756E-004,6.74468E-003,-2.78187E-003,-9.24898E-001,6.77906E-003,1.00676E+000,-4.18099E-003,0.00000E+000,3.83664E-003,9.97313E-001,0.00000E+000,-1.67813E-004,-1.38865E-002,1.00000E+000,1
1109,1347,1.19034E+001,1.58849E+000,-5.08905E-002,3.47852E-001,1.35095E-001,-1.11282E-001,3.89404E-001,4.51421E-003,4.79936E-001,0,5.62193E+000,2.28156E+000,9.99920E-001,-3.52033E+001,-2.97861E+001,9.99391E-001,6.82338E-003,-2.77667E-003,-1.24064E-004,6.82498E-003,-2.77828E-003,-7.40284E-001,6.86416E-003,1.00684E+000,-4.17731E-003,0.00000E+000,3.89502E-003,9.97316E-001,0.00000E+000,-3.93897E-004,-1.38967E-002,1.00000E+000,1
739,1337,-1.24224E+001,6.51005E-001,-1.03514E-001,1.90980E-001,8.40103E-002,-5.91637E-002,2.16867E-001,2.85368E-003,5.82859E-001,0,3.11276E+000,1.41881E+000,9.99936E-001,-4.05608E+001,-3.75103E+001,9.99697E-001,6.23956E-003,-2.71443E-003,-1.65278E-004,6.24261E-003,-2.71748E-003,-1.05712E+000,6.26000E-003,1.00626E+000,1.01115E-003,0.00000E+000,-1.33082E-003,9.97395E-001,0.00000E+000,-6.01815E-005,-1.46130E-002,1.00000E+000,1
739,1347,-1.24059E+001,1.29292E+000,-9.12940E-002,1.91538E-001,8.28606E-002,-6.94433E-002,2.19943E-001,2.85528E-003,5.53753E-001,0,3.15097E+000,1.43169E+000,9.99947E-001,-4.01300E+001,-3.76786E+001,9.99718E-001,6.07288E-003,-2.71526E-003,-1.84926E-004,6.07677E-003,-2.71915E-003,-1.20494E+000,6.08794E-003,1.00609E+000,1.00700E-003,0.00000E+000,-1.36303E-003,9.97394E-001,0.00000E+000,-2.67996E-004,-1.46182E-002,1.00000E+000,1
739,1357,-1.23822E+001,1.94135E+000,-3.77331E-002,1.91831E-001,8.18509E-002,-7.80374E-002,2.22685E-001,2.73657E-003,5.45049E-001,0,3.17978E+000,1.43545E+000,9.99944E-001,-3.94761E+001,-3.78316E+001,9.99751E-001,5.90449E-003,-2.71651E-003,-2.05714E-004,5.90940E-003,-2.72141E-003,-1.36615E+000,5.91554E-003,1.00592E+000,1.00090E-003,0.00000E+000,-1.39555E-003,9.97393E-001,0.00000E+000,-4.77846E-004,-1.46257E-002,1.00000E+000,1
739,1327,-1.24354E+001,1.24879E-002,-9.39657E-002,1.89720E-001,8.58745E-002,-4.96022E-002,2.14076E-001,4.23092E-003,5.59009E-001,0,3.06543E+000,1.43252E+000,9.99942E-001,-4.08781E+001,-3.73666E+001,9.99522E-001,6.40549E-003,-2.71382E-003,-1.46246E-004,6.40783E-003,-2.71617E-003,-9.18534E-001,6.43253E-003,1.00643E+000,1.01421E-003,0.00000E+000,-1.29874E-003,9.97395E-001,0.00000E+000,1.46780E-004,-1.46092E-002,1.00000E+000,1
1119,1297,1.24947E+001,-1.63944E+000,-3.09388E-002,3.65338E-001,1.46279E-001,-6.69196E-002,3.99184E-001,3.71186E-003,4.69379E-001,0,5.72210E+000,2.36418E+000,9.99944E-001,-3.64119E+001,-2.97241E+001,9.99646E-001,6.39064E-003,-2.74579E-003,-2.93267E-004,6.40004E-003,-2.75520E-003,-1.83660E+000,6.42062E-003,1.00640E+000,-4.08847E-003,0.00000E+000,3.45680E-003,9.97349E-001,0.00000E+000,6.57986E-004,-1.39716E-002,1.00000E+000,1
1119,1307,1.25004E+001,-9.98578E-001,-7.33202E-002,3.63042E-001,1.44228E-001,-7.60480E-002,3.97976E-001,2.87625E-003,4.59429E-001,0,5.72126E+000,2.35135E+000,9.99949E-001,-3.63182E+001,-2.97094E+001,9.99816E-001,6.47289E-003,-2.74475E-003,-2.61198E-004,6.48028E-003,-2.75214E-003,-1.62184E+000,6.50474E-003,1.00649E+000,-4.08741E-003,0.00000E+000,3.52266E-003,9.97350E-001,0.00000E+000,4.22275E-004,-1.39747E-002,1.00000E+000,1
1119,1317,1.25098E+001,-3.55626E-001,-9.86588E-002,3.61162E-001,1.42513E-001,-8.12032E-002,3.96663E-001,3.33621E-003,4.52351E-001,0,5.71173E+000,2.32970E+000,9.99923E-001,-3.61363E+001,-2.96991E+001,9.99685E-001,6.55528E-003,-2.74340E-003,-2.28851E-004,6.56091E-003,-2.74903E-003,-1.40898E+000,6.58954E-003,1.00657E+000,-4.08595E-003,0.00000E+000,3.58869E-003,9.97351E-001,0.00000E+000,1.85953E-004,-1.39788E-002,1.00000E+000,1
1119,1327,1.25225E+001,2.90631E-001,-1.09895E-001,3.57838E-001,1.40936E-001,-9.19418E-002,3.95429E-001,3.13108E-003,4.42060E-001,0,5.70064E+000,2.32653E+000,9.99923E-001,-3.58748E+001,-2.96721E+001,9.99599E-001,6.63800E-003,-2.74159E-003,-1.96058E-004,6.64209E-003,-2.74568E-003,-1.19694E+000,6.67524E-003,1.00665E+000,-4.08388E-003,0.00000E+000,3.65504E-003,9.97353E-001,0.00000E+000,-5.14846E-005,-1.39847E-002,1.00000E+000,1
1119,1337,1.25413E+001,9.41060E-001,-9.81603E-002,3.55200E-001,1.38680E-001,-1.00997E-001,3.94461E-001,3.94176E-003,4.72999E-001,0,5.69369E+000,2.31180E+000,9.99932E-001,-3.54777E+001,-2.96131E+001,9.99363E-001,6.72125E-003,-2.73927E-003,-1.62711E-004,6.72405E-003,-2.74207E-003,-9.85039E-001,6.76205E-003,1.00674E+000,-4.08116E-003,0.00000E+000,3.72186E-003,9.97355E-001,0.00000E+000,-2.90652E-004,-1.39925E-002,1.00000E+000,1
1119,1347,1.25679E+001,1.59594E+000,-5.36456E-002,3.52334E-001,1.37356E-001,-1.10389E-001,3.93943E-001,4.69188E-003,4.53046E-001,0,5.68375E+000,2.31179E+000,9.99957E-001,-3.48965E+001,-2.95871E+001,9.99545E-001,6.80485E-003,-2.73619E-003,-1.28706E-004,6.80659E-003,-2.73793E-003,-7.72719E-001,6.84981E-003,1.00682E+000,-4.07744E-003,0.00000E+000,3.78903E-003,9.97358E-001,0.00000E+000,-5.31034E-004,-1.40031E-002,1.00000E+000,1
739,1317,-1.24408E+001,-6.19634E-001,-5.14708E-002,1.89415E-001,8.76814E-002,-4.23341E-002,2.12975E-001,4.79130E-003,5.80859E-001,0,3.03931E+000,1.44569E+000,9.99937E-001,-4.09887E+001,-3.71741E+001,9.99478E-001,6.56968E-003,-2.71358E-003,-1.28249E-004,6.57145E-003,-2.71535E-003,-7.91343E-001,6.60438E-003,1.00659E+000,1.01554E-003,0.00000E+000,-1.26698E-003,9.97396E-001,0.00000E+000,3.51679E-004,-1.46076E-002,1.00000E+000,1
1129,1297,1.31570E+001,-1.63337E+000,-3.92199E-002,3.69498E-001,1.48670E-001,-6.48507E-002,4.03531E-001,5.40745E-003,4.52930E-001,0,5.77361E+000,2.39798E+000,9.99960E-001,-3.61380E+001,-2.95378E+001,9.99326E-001,6.31947E-003,-2.69172E-003,-3.05967E-004,6.32985E-003,-2.70209E-003,-1.94244E+000,6.35237E-003,1.00633E+000,-3.95759E-003,0.00000E+000,3.30688E-003,9.97404E-001,0.00000E+000,3.25245E-004,-1.39588E-002,1.00000E+000,1
1129,1307,1.31627E+001,-9.92999E-001,-8.29970E-002,3.66901E-001,1.45980E-001,-7.60839E-002,4.02139E-001,8.05081E-003,4.57164E-001,0,5.77643E+000,2.36997E+000,9.99951E-001,-3.60486E+001,-2.95190E+001,9.98599E-001,6.42475E-003,-2.69048E-003,-2.68440E-004,6.43265E-003,-2.69838E-003,-1.68539E+000,6.46039E-003,1.00644E+000,-3.95619E-003,0.00000E+000,3.38249E-003,9.97405E-001,0.00000E+000,1.42198E-004,-1.39613E-002,1.00000E+000,1
1129,1317,1.31725E+001,-3.49516E-001,-1.08101E-001,3.65015E-001,1.44378E-001,-8.25804E-002,4.01124E-001,5.06812E-003,4.35751E-001,0,5.77186E+000,2.35958E+000,9.99939E-001,-3.58598E+001,-2.95062E+001,9.98618E-001,6.53029E-003,-2.68886E-003,-2.30529E-004,6.53606E-003,-2.69462E-003,-1.43152E+000,6.56951E-003,1.00654E+000,-3.95423E-003,0.00000E+000,3.45832E-003,9.97406E-001,0.00000E+000,-4.14080E-005,-1.39646E-002,1.00000E+000,1
729,1347,-1.30522E+001,1.28851E+000,-8.63480E-002,1.88177E-001,8.31097E-002,-7.07140E-002,2.17527E-001,3.44970E-003,5.86090E-001,0,3.10289E+000,1.42969E+000,9.99950E-001,-4.00127E+001,-3.78366E+001,9.99669E-001,5.99773E-003,-2.66204E-003,-1.85300E-004,6.00169E-003,-2.66600E-003,-1.22525E+000,6.01413E-003,1.00602E+000,1.15511E-003,0.00000E+000,-1.51098E-003,9.97443E-001,0.00000E+000,-2.56974E-004,-1.43126E-002,1.00000E+000,1
729,1357,-1.30298E+001,1.93672E+000,-3.70296E-002,1.88502E-001,8.28252E-002,-7.74476E-002,2.19980E-001,2.92115E-003,5.82106E-001,0,3.12653E+000,1.44089E+000,9.99951E-001,-3.93880E+001,-3.79831E+001,9.99756E-001,5.80506E-003,-2.66319E-003,-2.06108E-004,5.81007E-003,-2.66821E-003,-1.39342E+000,5.81651E-003,1.00582E+000,1.14854E-003,0.00000E+000,-1.54196E-003,9.97441E-001,0.00000E+000,-5.52964E-004,-1.43226E-002,1.00000E+000,1
1129,1327,1.31855E+001,2.96137E-001,-1.21520E-001,3.62312E-001,1.42841E-001,-9.32908E-002,4.00471E-001,6.68903E-003,4.07148E-001,0,5.77031E+000,2.35753E+000,9.99889E-001,-3.56008E+001,-2.94912E+001,9.98837E-001,6.63612E-003,-2.68680E-003,-1.92194E-004,6.64008E-003,-2.69076E-003,-1.18050E+000,6.67972E-003,1.00665E+000,-3.95166E-003,0.00000E+000,3.53439E-003,9.97408E-001,0.00000E+000,-2.25593E-004,-1.39691E-002,1.00000E+000,1
729,1337,-1.30704E+001,6.45772E-001,-1.03556E-001,1.86906E-001,8.47287E-002,-5.91719E-002,2.13575E-001,2.99915E-003,5.78301E-001,0,3.05015E+000,1.43102E+000,9.99935E-001,-4.04856E+001,-3.76868E+001,9.99709E-001,6.18906E-003,-2.66116E-003,-1.65357E-004,6.19215E-003,-2.66425E-003,-1.07001E+000,6.21219E-003,1.00621E+000,1.16017E-003,0.00000E+000,-1.48020E-003,9.97443E-001,0.00000E+000,3.71553E-005,-1.43048E-002,1.00000E+000,1
729,1327,-1.30825E+001,9.03022E-003,-8.83623E-002,1.85612E-001,8.64174E-002,-4.85644E-002,2.10424E-001,3.62960E-003,5.79111E-001,0,2.99949E+000,1.44375E+000,9.99905E-001,-4.07738E+001,-3.75138E+001,9.99576E-001,6.37853E-003,-2.66062E-003,-1.46495E-004,6.38090E-003,-2.66300E-003,-9.28254E-001,6.40990E-003,1.00640E+000,1.16338E-003,0.00000E+000,-1.44970E-003,9.97444E-001,0.00000E+000,3.28618E-004,-1.42999E-002,1.00000E+000,1
1129,1337,1.32095E+001,9.51472E-001,-8.95683E-002,3.58883E-001,1.40548E-001,-1.05663E-001,3.99644E-001,6.36534E-003,4.87677E-001,0,5.76358E+000,2.34451E+000,9.99901E-001,-3.50868E+001,-2.93740E+001,9.99096E-001,6.74357E-003,-2.68344E-003,-1.52349E-004,6.74603E-003,-2.68591E-003,-9.25628E-001,6.79253E-003,1.00676E+000,-3.94721E-003,0.00000E+000,3.61166E-003,9.97411E-001,0.00000E+000,-4.12688E-004,-1.39768E-002,1.00000E+000,1
729,1317,-1.30896E+001,-6.23984E-001,-5.21971E-002,1.84951E-001,8.88591E-002,-4.00357E-002,2.09059E-001,5.03114E-003,5.84853E-001,0,2.96421E+000,1.46222E+000,9.99916E-001,-4.09288E+001,-3.73280E+001,9.99141E-001,6.56701E-003,-2.66032E-003,-1.28346E-004,6.56880E-003,-2.66210E-003,-7.96741E-001,6.60798E-003,1.00659E+000,1.16532E-003,0.00000E+000,-1.41933E-003,9.97444E-001,0.00000E+000,6.18748E-004,-1.42970E-002,1.00000E+000,1
1129,1347,1.32335E+001,1.60554E+000,-5.52789E-002,3.56069E-001,1.39714E-001,-1.13678E-001,3.99034E-001,5.99834E-003,4.78292E-001,0,5.74948E+000,2.34630E+000,9.99940E-001,-3.45677E+001,-2.93313E+001,9.99249E-001,6.85052E-003,-2.68015E-003,-1.12707E-004,6.85185E-003,-2.68148E-003,-6.77438E-001,6.90557E-003,1.00687E+000,-3.94286E-003,0.00000E+000,3.68862E-003,9.97414E-001,0.00000E+000,-5.99011E-004,-1.39843E-002,1.00000E+000,1
719,1347,-1.37005E+001,1.28320E+000,-8.77051E-002,1.83757E-001,8.39385E-002,-7.05760E-002,2.13994E-001,4.46763E-003,5.73056E-001,0,3.03421E+000,1.45126E+000,9.99940E-001,-3.99409E+001,-3.80175E+001,9.99583E-001,5.95604E-003,-2.61169E-003,-1.89679E-004,5.96024E-003,-2.61589E-003,-1.26763E+000,5.97506E-003,1.00597E+000,1.32733E-003,0.00000E+000,-1.69101E-003,9.97488E-001,0.00000E+000,-2.31286E-004,-1.40268E-002,1.00000E+000,1
719,1357,-1.36780E+001,1.93160E+000,-3.94010E-002,1.84587E-001,8.35538E-002,-7.74870E-002,2.16928E-001,2.87784E-003,5.99630E-001,0,3.06607E+000,1.45559E+000,9.99960E-001,-3.93141E+001,-3.81452E+001,9.99774E-001,5.75576E-003,-2.61279E-003,-2.10218E-004,5.76104E-003,-2.61807E-003,-1.43806E+000,5.76901E-003,1.00577E+000,1.32061E-003,0.00000E+000,-1.72008E-003,9.97487E-001,0.00000E+000,-6.24017E-004,-1.40399E-002,1.00000E+000,1
719,1337,-1.37179E+001,6.41947E-001,-9.98339E-002,1.82427E-001,8.58315E-002,-5.82122E-002,2.09846E-001,3.93570E-003,5.78824E-001,0,2.97829E+000,1.45388E+000,9.99886E-001,-4.03877E+001,-3.78474E+001,9.99535E-001,6.15441E-003,-2.61089E-003,-1.70167E-004,6.15771E-003,-2.61419E-003,-1.11176E+000,6.18104E-003,1.00617E+000,1.33229E-003,0.00000E+000,-1.66219E-003,9.97489E-001,0.00000E+000,1.58084E-004,-1.40171E-002,1.00000E+000,1
719,1327,-1.37290E+001,5.62292E-003,-8.57925E-002,1.81695E-001,8.73962E-002,-5.04119E-002,2.07828E-001,2.77216E-003,6.03941E-001,0,2.94457E+000,1.45996E+000,9.99892E-001,-4.06653E+001,-3.76515E+001,9.99568E-001,6.35099E-003,-2.61038E-003,-1.51666E-004,6.35356E-003,-2.61295E-003,-9.69325E-001,6.38683E-003,1.00637E+000,1.33549E-003,0.00000E+000,-1.63360E-003,9.97490E-001,0.00000E+000,5.44331E-004,-1.40109E-002,1.00000E+000,1
719,1317,-1.37351E+001,-6.26875E-001,-4.40072E-002,1.80910E-001,8.98079E-002,-4.20365E-002,2.06303E-001,3.81989E-003,5.90977E-001,0,2.90796E+000,1.48010E+000,9.99918E-001,-4.07899E+001,-3.74772E+001,9.99368E-001,6.54649E-003,-2.61015E-003,-1.34007E-004,6.54845E-003,-2.61211E-003,-8.38282E-001,6.59293E-003,1.00657E+000,1.33716E-003,0.00000E+000,-1.60514E-003,9.97490E-001,0.00000E+000,9.28825E-004,-1.40076E-002,1.00000E+000,1
1139,1297,1.38218E+001,-1.62765E+000,-4.44357E-002,3.74212E-001,1.51028E-001,-6.55561E-002,4.08830E-001,4.61535E-003,3.97239E-001,0,5.84359E+000,2.43864E+000,9.99969E-001,-3.58170E+001,-2.93830E+001,9.99215E-001,6.27221E-003,-2.66307E-003,-3.01208E-004,6.28235E-003,-2.67321E-003,-1.92852E+000,6.30554E-003,1.00628E+000,-3.84787E-003,0.00000E+000,3.21105E-003,9.97434E-001,0.00000E+000,9.93309E-005,-1.40741E-002,1.00000E+000,1
1139,1307,1.38260E+001,-9.88088E-001,-9.33800E-002,3.71277E-001,1.47486E-001,-7.72169E-002,4.06892E-001,5.77088E-003,4.09298E-001,0,5.84354E+000,2.40208E+000,9.99962E-001,-3.57601E+001,-2.93600E+001,9.99004E-001,6.39775E-003,-2.66203E-003,-2.66036E-004,6.40555E-003,-2.66984E-003,-1.68053E+000,6.43505E-003,1.00641E+000,-3.84641E-003,0.00000E+000,3.28147E-003,9.97435E-001,0.00000E+000,-5.61302E-005,-1.40759E-002,1.00000E+000,1
1139,1337,1.38755E+001,9.60548E-001,-8.93209E-002,3.63691E-001,1.43695E-001,-1.03407E-001,4.04490E-001,7.13876E-003,4.94537E-001,0,5.82445E+000,2.37916E+000,9.99898E-001,-3.47422E+001,-2.91413E+001,9.98231E-001,6.77852E-003,-2.65525E-003,-1.55962E-004,6.78110E-003,-2.65783E-003,-9.46884E-001,6.83368E-003,1.00679E+000,-3.83527E-003,0.00000E+000,3.49520E-003,9.97441E-001,0.00000E+000,-5.27996E-004,-1.40896E-002,1.00000E+000,1
1139,1347,1.39040E+001,1.61708E+000,-3.94809E-002,3.61129E-001,1.42156E-001,-1.12350E-001,4.04036E-001,6.34190E-003,4.87503E-001,0,5.81786E+000,2.37816E+000,9.99926E-001,-3.41261E+001,-2.90923E+001,9.98344E-001,6.90674E-003,-2.65173E-003,-1.17747E-004,6.90819E-003,-2.65318E-003,-7.05662E-001,6.96981E-003,1.00692E+000,-3.82924E-003,0.00000E+000,3.56722E-003,9.97445E-001,0.00000E+000,-6.87004E-004,-1.40970E-002,1.00000E+000,1
1139,1327,1.38510E+001,3.05653E-001,-1.21609E-001,3.66608E-001,1.44894E-001,-9.22146E-002,4.04845E-001,6.97247E-003,4.49895E-001,0,5.82802E+000,2.38570E+000,9.99900E-001,-3.52615E+001,-2.92347E+001,9.98232E-001,6.65064E-003,-2.65837E-003,-1.93716E-004,6.65466E-003,-2.66240E-003,-1.19161E+000,6.69881E-003,1.00667E+000,-3.84057E-003,0.00000E+000,3.42339E-003,9.97438E-001,0.00000E+000,-3.69454E-004,-1.40830E-002,1.00000E+000,1
1139,1317,1.38336E+001,-3.44791E-001,-1.23898E-001,3.68165E-001,1.45380E-001,-8.46733E-002,4.04784E-001,6.41910E-003,4.21965E-001,0,5.82440E+000,2.38066E+000,9.99960E-001,-3.56169E+001,-2.93200E+001,9.98863E-001,6.52369E-003,-2.66063E-003,-2.30409E-004,6.52946E-003,-2.66641E-003,-1.43619E+000,6.56591E-003,1.00654E+000,-3.84427E-003,0.00000E+000,3.35213E-003,9.97436E-001,0.00000E+000,-2.12136E-004,-1.40785E-002,1.00000E+000,1
709,1347,-1.43486E+001,1.27856E+000,-8.95321E-002,1.79341E-001,8.55249E-002,-7.05478E-002,2.10843E-001,3.89817E-003,5.50158E-001,0,2.96562E+000,1.48915E+000,9.99925E-001,-3.98610E+001,-3.81921E+001,9.99636E-001,5.90499E-003,-2.57643E-003,-1.82538E-004,5.90892E-003,-2.58036E-003,-1.23237E+000,5.92469E-003,1.00592E+000,1.52296E-003,0.00000E+000,-1.87121E-003,9.97522E-001,0.00000E+000,-2.07956E-004,-1.39266E-002,1.00000E+000,1
709,1357,-1.43266E+001,1.92525E+000,-4.27494E-002,1.80339E-001,8.49899E-002,-7.59424E-002,2.13337E-001,2.88377E-003,5.57323E-001,0,2.99573E+000,1.48367E+000,9.99963E-001,-3.92455E+001,-3.83540E+001,9.99809E-001,5.69753E-003,-2.57685E-003,-1.92650E-004,5.70201E-003,-2.58134E-003,-1.33304E+000,5.71051E-003,1.00571E+000,1.51625E-003,0.00000E+000,-1.87882E-003,9.97522E-001,0.00000E+000,-6.54550E-004,-1.39410E-002,1.00000E+000,1
709,1337,-1.43639E+001,6.38330E-001,-9.72842E-002,1.78441E-001,8.71106E-002,-6.18117E-002,2.07967E-001,3.68892E-003,5.55698E-001,0,2.92696E+000,1.49429E+000,9.99896E-001,-4.02657E+001,-3.80140E+001,9.99492E-001,6.11052E-003,-2.57614E-003,-1.73527E-004,6.11399E-003,-2.57961E-003,-1.14394E+000,6.13879E-003,1.00613E+000,1.52759E-003,0.00000E+000,-1.86366E-003,9.97522E-001,0.00000E+000,2.35001E-004,-1.39167E-002,1.00000E+000,1
709,1317,-1.43789E+001,-6.28386E-001,-3.08151E-002,1.77303E-001,9.11909E-002,-4.35471E-002,2.04080E-001,4.82867E-003,6.07804E-001,0,2.85675E+000,1.50270E+000,9.99941E-001,-4.06076E+001,-3.76104E+001,9.99389E-001,6.51687E-003,-2.57589E-003,-1.58002E-004,6.51962E-003,-2.57864E-003,-9.95211E-001,6.56689E-003,1.00654E+000,1.53210E-003,0.00000E+000,-1.84870E-003,9.97522E-001,0.00000E+000,1.11229E-003,-1.39070E-002,1.00000E+000,1
709,1327,-1.43721E+001,3.68092E-003,-7.06120E-002,1.78387E-001,8.87405E-002,-5.26765E-002,2.06086E-001,5.03998E-003,5.95544E-001,0,2.89999E+000,1.48717E+000,9.99942E-001,-4.04657E+001,-3.78102E+001,9.99459E-001,6.31409E-003,-2.57599E-003,-1.65565E-004,6.31717E-003,-2.57907E-003,-1.06656E+000,6.35251E-003,1.00633E+000,1.53022E-003,0.00000E+000,-1.85617E-003,9.97522E-001,0.00000E+000,6.74234E-004,-1.39110E-002,1.00000E+000,1
1149,1297,1.44840E+001,-1.62107E+000,-5.95617E-002,3.77794E-001,1.52867E-001,-6.82234E-002,4.13221E-001,7.63651E-003,4.25944E-001,0,5.90401E+000,2.47205E+000,9.99954E-001,-3.55511E+001,-2.91520E+001,9.98747E-001,6.27411E-003,-2.67560E-003,-2.89372E-004,6.28346E-003,-2.68495E-003,-1.84997E+000,6.30556E-003,1.00629E+000,-3.73039E-003,0.00000E+000,3.12227E-003,9.97424E-001,0.00000E+000,-1.90613E-004,-1.41858E-002,1.00000E+000,1
1149,1307,1.44905E+001,-9.79896E-001,-9.57759E-002,3.75834E-001,1.50939E-001,-7.21654E-002,4.11390E-001,5.54978E-003,4.21889E-001,0,5.88931E+000,2.43717E+000,9.99947E-001,-3.54363E+001,-2.91374E+001,9.99109E-001,6.40944E-003,-2.67459E-003,-2.58227E-004,6.41678E-003,-2.68192E-003,-1.62696E+000,6.44551E-003,1.00642E+000,-3.72855E-003,0.00000E+000,3.18389E-003,9.97424E-001,0.00000E+000,-3.18328E-004,-1.41876E-002,1.00000E+000,1
1149,1317,1.45007E+001,-3.35478E-001,-1.19759E-001,3.73061E-001,1.48224E-001,-8.17291E-002,4.09664E-001,4.76258E-003,4.37886E-001,0,5.88349E+000,2.41299E+000,9.99949E-001,-3.52418E+001,-2.90906E+001,9.99113E-001,6.54558E-003,-2.67316E-003,-2.26432E-004,6.55113E-003,-2.67872E-003,-1.40618E+000,6.58729E-003,1.00656E+000,-3.72578E-003,0.00000E+000,3.24589E-003,9.97426E-001,0.00000E+000,-4.46838E-004,-1.41902E-002,1.00000E+000,1
1149,1327,1.45163E+001,3.12185E-001,-1.24737E-001,3.71301E-001,1.47849E-001,-9.00577E-002,4.09675E-001,5.09115E-003,3.95691E-001,0,5.88720E+000,2.42255E+000,9.99953E-001,-3.49282E+001,-2.90662E+001,9.98701E-001,6.68185E-003,-2.67133E-003,-1.94146E-004,6.68588E-003,-2.67536E-003,-1.18862E+000,6.73017E-003,1.00670E+000,-3.72210E-003,0.00000E+000,3.30797E-003,9.97427E-001,0.00000E+000,-5.75523E-004,-1.41936E-002,1.00000E+000,1
1149,1337,1.45392E+001,9.67686E-001,-1.00047E-001,3.68211E-001,1.45910E-001,-1.02144E-001,4.09026E-001,9.68761E-003,4.84814E-001,0,5.88504E+000,2.41681E+000,9.99952E-001,-3.44499E+001,-2.89231E+001,9.98399E-001,6.82005E-003,-2.66872E-003,-1.60551E-004,6.82277E-003,-2.67144E-003,-9.69083E-001,6.87606E-003,1.00684E+000,-3.71667E-003,0.00000E+000,3.37094E-003,9.97430E-001,0.00000E+000,-7.06065E-004,-1.41987E-002,1.00000E+000,1
1149,1347,1.45720E+001,1.62774E+000,-3.52595E-002,3.65853E-001,1.44762E-001,-1.11243E-001,4.08876E-001,8.56111E-003,5.02986E-001,0,5.88193E+000,2.41984E+000,9.99943E-001,-3.37438E+001,-2.88381E+001,9.98557E-001,6.95899E-003,-2.66527E-003,-1.25837E-004,6.96063E-003,-2.66691E-003,-7.48973E-001,7.02372E-003,1.00698E+000,-3.70932E-003,0.00000E+000,3.43428E-003,9.97433E-001,0.00000E+000,-8.37343E-004,-1.42056E-002,1.00000E+000,1
699,1347,-1.49936E+001,1.27683E+000,-8.16136E-002,1.76111E-001,8.75584E-002,-6.85136E-002,2.08268E-001,4.12455E-003,5.98194E-001,0,2.90950E+000,1.51362E+000,9.99935E-001,-3.97035E+001,-3.83078E+001,9.99695E-001,5.86504E-003,-2.49070E-003,-1.59843E-004,5.86810E-003,-2.49375E-003,-1.09552E+000,5.89008E-003,1.00588E+000,1.72344E-003,0.00000E+000,-2.02593E-003,9.97604E-001,0.00000E+000,-1.39001E-004,-1.37194E-002,1.00000E+000,1
699,1357,-1.49724E+001,1.92214E+000,-4.00075E-002,1.76804E-001,8.61274E-002,-7.73484E-002,2.11330E-001,2.95169E-003,5.86300E-001,0,2.94477E+000,1.51150E+000,9.99958E-001,-3.91126E+001,-3.84910E+001,9.99805E-001,5.65568E-003,-2.48986E-003,-1.48736E-004,5.65840E-003,-2.49257E-003,-1.04574E+000,5.67173E-003,1.00567E+000,1.71683E-003,0.00000E+000,-1.99200E-003,9.97605E-001,0.00000E+000,-5.45529E-004,-1.37322E-002,1.00000E+000,1
699,1337,-1.50096E+001,6.34494E-001,-9.20120E-002,1.74518E-001,8.81999E-002,-6.14012E-002,2.04953E-001,3.67562E-003,5.72229E-001,0,2.86503E+000,1.50476E+000,9.99917E-001,-4.01293E+001,-3.81702E+001,9.99508E-001,6.07303E-003,-2.49128E-003,-1.71828E-004,6.07647E-003,-2.49472E-003,-1.14893E+000,6.10880E-003,1.00609E+000,1.72813E-003,0.00000E+000,-2.05967E-003,9.97603E-001,0.00000E+000,2.65257E-004,-1.37104E-002,1.00000E+000,1
699,1317,-1.50228E+001,-6.27844E-001,-9.14580E-003,1.72842E-001,9.35669E-002,-3.87880E-002,2.00334E-001,6.79213E-003,6.37915E-001,0,2.77418E+000,1.53171E+000,9.99930E-001,-4.03981E+001,-3.77237E+001,9.98930E-001,6.48262E-003,-2.49168E-003,-1.98191E-004,6.48699E-003,-2.49606E-003,-1.26451E+000,6.54416E-003,1.00650E+000,1.73193E-003,0.00000E+000,-2.12622E-003,9.97603E-001,0.00000E+000,1.06260E-003,-1.37030E-002,1.00000E+000,1
699,1327,-1.50180E+001,3.53710E-003,-6.11317E-002,1.73624E-001,9.04304E-002,-5.09815E-002,2.02292E-001,5.81610E-003,6.82444E-001,0,2.82140E+000,1.50700E+000,9.99905E-001,-4.03206E+001,-3.78818E+001,9.98398E-001,6.27769E-003,-2.49155E-003,-1.84721E-004,6.28158E-003,-2.49544E-003,-1.20620E+000,6.32563E-003,1.00630E+000,1.73058E-003,0.00000E+000,-2.09290E-003,9.97603E-001,0.00000E+000,6.63479E-004,-1.37057E-002,1.00000E+000,1
1159,1307,1.51538E+001,-9.73534E-001,-1.07991E-001,3.80057E-001,1.53208E-001,-7.20527E-002,4.16062E-001,4.46936E-003,4.23591E-001,0,5.94887E+000,2.47056E+000,9.99859E-001,-3.51439E+001,-2.89277E+001,9.99288E-001,6.41385E-003,-2.68821E-003,-2.42782E-004,6.42032E-003,-2.69468E-003,-1.52682E+000,6.44785E-003,1.00643E+000,-3.60980E-003,0.00000E+000,3.10155E-003,9.97413E-001,0.00000E+000,-6.36380E-004,-1.43272E-002,1.00000E+000,1
1159,1317,1.51647E+001,-3.27570E-001,-1.31372E-001,3.77783E-001,1.51203E-001,-8.11111E-002,4.14924E-001,4.45023E-003,4.57671E-001,0,5.94862E+000,2.45643E+000,9.99914E-001,-3.49393E+001,-2.88473E+001,9.99521E-001,6.57081E-003,-2.68733E-003,-2.22549E-004,6.57616E-003,-2.69268E-003,-1.37623E+000,6.61200E-003,1.00659E+000,-3.60657E-003,0.00000E+000,3.13984E-003,9.97414E-001,0.00000E+000,-7.54426E-004,-1.43296E-002,1.00000E+000,1
1159,1327,1.51822E+001,3.21455E-001,-1.30238E-001,3.75327E-001,1.49474E-001,-9.26821E-002,4.14491E-001,3.74117E-003,4.32419E-001,0,5.95465E+000,2.46127E+000,9.99952E-001,-3.45880E+001,-2.88048E+001,9.99467E-001,6.72840E-003,-2.68609E-003,-2.01434E-004,6.73271E-003,-2.69039E-003,-1.22516E+000,6.77780E-003,1.00675E+000,-3.60173E-003,0.00000E+000,3.17830E-003,9.97415E-001,0.00000E+000,-8.72980E-004,-1.43332E-002,1.00000E+000,1
1159,1297,1.51468E+001,-1.61496E+000,-7.02786E-002,3.82329E-001,1.54830E-001,-6.35924E-002,4.17363E-001,5.34236E-003,4.66165E-001,0,5.95127E+000,2.48272E+000,9.99914E-001,-3.52633E+001,-2.89317E+001,9.98568E-001,6.25804E-003,-2.68886E-003,-2.62418E-004,6.26573E-003,-2.69655E-003,-1.67859E+000,6.28595E-003,1.00627E+000,-3.61210E-003,0.00000E+000,3.06355E-003,9.97412E-001,0.00000E+000,-5.19232E-004,-1.43254E-002,1.00000E+000,1
1159,1337,1.52098E+001,9.77875E-001,-8.97402E-002,3.73410E-001,1.47965E-001,-1.02852E-001,4.14617E-001,6.35180E-003,4.54558E-001,0,5.96290E+000,2.46345E+000,9.99968E-001,-3.40085E+001,-2.87138E+001,9.99586E-001,6.88769E-003,-2.68430E-003,-1.78973E-004,6.89103E-003,-2.68764E-003,-1.07079E+000,6.94638E-003,1.00691E+000,-3.59459E-003,0.00000E+000,3.21719E-003,9.97417E-001,0.00000E+000,-9.92842E-004,-1.43385E-002,1.00000E+000,1
1159,1347,1.52398E+001,1.63568E+000,-3.55975E-002,3.70793E-001,1.47414E-001,-1.11787E-001,4.14385E-001,5.34146E-003,4.57979E-001,0,5.95531E+000,2.45972E+000,9.99949E-001,-3.33679E+001,-2.86463E+001,9.99554E-001,7.04703E-003,-2.68234E-003,-1.56136E-004,7.04954E-003,-2.68485E-003,-9.19163E-001,7.11594E-003,1.00707E+000,-3.58671E-003,0.00000E+000,3.25610E-003,9.97419E-001,0.00000E+000,-1.11278E-003,-1.43444E-002,1.00000E+000,1
689,1347,-1.56378E+001,1.27386E+000,-7.70187E-002,1.72813E-001,8.82461E-002,-7.23028E-002,2.07073E-001,4.86459E-003,6.18405E-001,0,2.86903E+000,1.54029E+000,9.99924E-001,-3.95396E+001,-3.84490E+001,9.99453E-001,5.84533E-003,-2.47895E-003,-1.35128E-004,5.84752E-003,-2.48114E-003,-9.29756E-001,5.86981E-003,1.00586E+000,1.93400E-003,0.00000E+000,-2.18626E-003,9.97610E-001,0.00000E+000,-8.52341E-005,-1.32853E-002,1.00000E+000,1
689,1357,-1.56189E+001,1.91722E+000,-4.36364E-002,1.73562E-001,8.73498E-002,-7.76019E-002,2.09227E-001,3.54226E-003,5.78653E-001,0,2.89511E+000,1.54427E+000,9.99947E-001,-3.90044E+001,-3.86600E+001,9.99769E-001,5.65492E-003,-2.47804E-003,-1.20139E-004,5.65670E-003,-2.47982E-003,-8.46122E-001,5.67099E-003,1.00567E+000,1.92865E-003,0.00000E+000,-2.14707E-003,9.97611E-001,0.00000E+000,-4.13128E-004,-1.32945E-002,1.00000E+000,1
689,1337,-1.56548E+001,6.31370E-001,-8.80006E-002,1.71150E-001,9.01449E-002,-6.04683E-002,2.02669E-001,4.78266E-003,5.96752E-001,0,2.81001E+000,1.52498E+000,9.99932E-001,-3.99827E+001,-3.83088E+001,9.99616E-001,6.03566E-003,-2.47970E-003,-1.50534E-004,6.03832E-003,-2.48236E-003,-1.01245E+000,6.07005E-003,1.00605E+000,1.93854E-003,0.00000E+000,-2.22548E-003,9.97609E-001,0.00000E+000,2.42788E-004,-1.32775E-002,1.00000E+000,1
1169,1327,1.58479E+001,3.29551E-001,-1.36506E-001,3.79363E-001,1.51936E-001,-9.39331E-002,4.19314E-001,4.15952E-003,4.44255E-001,0,6.01669E+000,2.49575E+000,9.99961E-001,-3.42473E+001,-2.85725E+001,9.99509E-001,6.77434E-003,-2.69274E-003,-1.88066E-004,6.77807E-003,-2.69648E-003,-1.13760E+000,6.82509E-003,1.00679E+000,-3.44849E-003,0.00000E+000,3.05730E-003,9.97409E-001,0.00000E+000,-1.17003E-003,-1.43791E-002,1.00000E+000,1
1169,1337,1.58774E+001,9.85967E-001,-8.93738E-002,3.77323E-001,1.50101E-001,-1.04899E-001,4.19412E-001,5.37819E-003,4.36371E-001,0,6.02633E+000,2.49418E+000,9.99976E-001,-3.36285E+001,-2.85095E+001,9.99559E-001,6.95213E-003,-2.69222E-003,-1.78352E-004,6.95543E-003,-2.69551E-003,-1.05908E+000,7.01383E-003,1.00697E+000,-3.43995E-003,0.00000E+000,3.06931E-003,9.97410E-001,0.00000E+000,-1.28762E-003,-1.43847E-002,1.00000E+000,1
1169,1347,1.59097E+001,1.64430E+000,-3.16778E-002,3.74877E-001,1.48421E-001,-1.17768E-001,4.20037E-001,4.44886E-003,4.49351E-001,0,6.03673E+000,2.48165E+000,9.99942E-001,-3.29487E+001,-2.84353E+001,9.99562E-001,7.13036E-003,-2.69164E-003,-1.68206E-004,7.13324E-003,-2.69452E-003,-9.80830E-001,7.20397E-003,1.00715E+000,-3.43057E-003,0.00000E+000,3.08135E-003,9.97411E-001,0.00000E+000,-1.40554E-003,-1.43908E-002,1.00000E+000,1
689,1327,-1.56665E+001,-2.89088E-003,-7.17032E-002,1.69036E-001,9.19589E-002,-5.23692E-002,1.99429E-001,5.02209E-003,6.51453E-001,0,2.75430E+000,1.53357E+000,9.99918E-001,-4.02678E+001,-3.80660E+001,9.99243E-001,6.22346E-003,-2.48015E-003,-1.66551E-004,6.22664E-003,-2.48334E-003,-1.09587E+000,6.26899E-003,1.00624E+000,1.94141E-003,0.00000E+000,-2.26420E-003,9.97608E-001,0.00000E+000,5.66690E-004,-1.32726E-002,1.00000E+000,1
1169,1317,1.58295E+001,-3.23600E-001,-1.41822E-001,3.80676E-001,1.51928E-001,-8.83417E-002,4.19286E-001,5.73021E-003,3.62397E-001,0,6.01654E+000,2.49341E+000,9.99946E-001,-3.46181E+001,-2.87251E+001,9.99604E-001,6.59790E-003,-2.69309E-003,-1.96153E-004,6.60204E-003,-2.69723E-003,-1.20892E+000,6.63875E-003,1.00661E+000,-3.45384E-003,0.00000E+000,3.04539E-003,9.97409E-001,0.00000E+000,-1.05337E-003,-1.43755E-002,1.00000E+000,1
1169,1307,1.58180E+001,-9.66902E-001,-1.20130E-001,3.83766E-001,1.54036E-001,-7.51109E-002,4.20291E-001,4.45116E-003,4.43836E-001,0,6.01311E+000,2.49837E+000,9.99938E-001,-3.48354E+001,-2.87046E+001,9.99614E-001,6.42351E-003,-2.69335E-003,-2.03504E-004,6.42805E-003,-2.69789E-003,-1.27809E+000,6.45562E-003,1.00644E+000,-3.45782E-003,0.00000E+000,3.03362E-003,9.97409E-001,0.00000E+000,-9.38095E-004,-1.43729E-002,1.00000E+000,1
1169,1297,1.58122E+001,-1.60837E+000,-7.51360E-002,3.86471E-001,1.56668E-001,-6.31174E-002,4.21769E-001,5.07608E-003,4.71830E-001,0,6.00799E+000,2.50489E+000,9.99923E-001,-3.49215E+001,-2.87339E+001,9.98820E-001,6.24945E-003,-2.69352E-003,-2.10026E-004,6.25438E-003,-2.69845E-003,-1.34460E+000,6.27394E-003,1.00626E+000,-3.46016E-003,0.00000E+000,3.02187E-003,9.97409E-001,0.00000E+000,-8.23066E-004,-1.43714E-002,1.00000E+000,1
689,1317,-1.56716E+001,-6.32923E-001,-1.95792E-002,1.67797E-001,9.46384E-002,-4.07366E-002,1.96906E-001,5.09609E-003,6.55997E-001,0,2.70190E+000,1.55064E+000,9.99918E-001,-4.03491E+001,-3.78615E+001,9.99173E-001,6.41019E-003,-2.48029E-003,-1.83327E-004,6.41397E-003,-2.48407E-003,-1.18081E+000,6.46806E-003,1.00643E+000,1.94257E-003,0.00000E+000,-2.30273E-003,9.97608E-001,0.00000E+000,8.88999E-004,-1.32706E-002,1.00000E+000,1
679,1347,-1.62846E+001,1.26673E+000,-7.42071E-002,1.68435E-001,8.95417E-002,-6.79639E-002,2.02502E-001,7.16159E-003,5.76278E-001,0,2.78875E+000,1.53774E+000,9.99927E-001,-3.94164E+001,-3.86821E+001,9.99177E-001,5.83496E-003,-2.46803E-003,-1.33697E-004,5.83711E-003,-2.47018E-003,-9.22274E-001,5.86002E-003,1.00585E+000,2.09756E-003,0.00000E+000,-2.34689E-003,9.97617E-001,0.00000E+000,9.07447E-006,-1.30159E-002,1.00000E+000,1
679,1357,-1.62662E+001,1.91096E+000,-5.23467E-002,1.70251E-001,8.84148E-002,-7.65862E-002,2.06562E-001,2.82781E-003,5.99497E-001,0,2.84073E+000,1.55324E+000,9.99943E-001,-3.89196E+001,-3.88243E+001,9.99757E-001,5.64650E-003,-2.46736E-003,-1.21579E-004,5.64832E-003,-2.46918E-003,-8.58266E-001,5.66318E-003,1.00566E+000,2.09272E-003,0.00000E+000,-2.31449E-003,9.97618E-001,0.00000E+000,-2.84787E-004,-1.30234E-002,1.00000E+000,1
1179,1297,1.64736E+001,-1.60419E+000,-1.00713E-001,3.90732E-001,1.58447E-001,-6.52389E-002,4.26653E-001,9.58882E-003,4.82426E-001,0,6.07653E+000,2.53203E+000,9.99951E-001,-3.46752E+001,-2.85274E+001,9.98687E-001,6.27382E-003,-2.73445E-003,-1.62248E-004,6.27674E-003,-2.73738E-003,-1.03151E+000,6.29379E-003,1.00629E+000,-3.26498E-003,0.00000E+000,2.92964E-003,9.97369E-001,0.00000E+000,-1.23982E-003,-1.44715E-002,1.00000E+000,1
1179,1307,1.64819E+001,-9.63283E-001,-1.35532E-001,3.88074E-001,1.55946E-001,-7.69442E-002,4.25254E-001,3.93777E-003,3.91670E-001,0,6.08133E+000,2.52267E+000,9.99965E-001,-3.45317E+001,-2.85577E+001,9.99334E-001,6.46129E-003,-2.73443E-003,-1.59633E-004,6.46406E-003,-2.73720E-003,-9.94224E-001,6.48926E-003,1.00648E+000,-3.26174E-003,0.00000E+000,2.93205E-003,9.97370E-001,0.00000E+000,-1.30964E-003,-1.44727E-002,1.00000E+000,1
1179,1317,1.64907E+001,-3.19441E-001,-1.67288E-001,3.86863E-001,1.55310E-001,-8.15545E-002,4.24777E-001,1.10721E-002,3.88361E-001,0,6.08017E+000,2.50618E+000,9.99969E-001,-3.43760E+001,-2.85073E+001,9.99140E-001,6.64903E-003,-2.73440E-003,-1.57158E-004,6.65166E-003,-2.73703E-003,-9.59261E-001,6.68631E-003,1.00667E+000,-3.25878E-003,0.00000E+000,2.93446E-003,9.97370E-001,0.00000E+000,-1.37957E-003,-1.44738E-002,1.00000E+000,1
1179,1337,1.65449E+001,9.93693E-001,-9.08444E-002,3.81240E-001,1.52510E-001,-1.06394E-001,4.24173E-001,4.52461E-003,4.08482E-001,0,6.08762E+000,2.52796E+000,9.99966E-001,-3.32503E+001,-2.83118E+001,9.99220E-001,7.03237E-003,-2.73426E-003,-1.46434E-004,7.03457E-003,-2.73645E-003,-8.58794E-001,7.09211E-003,1.00705E+000,-3.24130E-003,0.00000E+000,2.93937E-003,9.97370E-001,0.00000E+000,-1.52242E-003,-1.44802E-002,1.00000E+000,1
1179,1347,1.65803E+001,1.65480E+000,-2.51019E-002,3.79194E-001,1.50741E-001,-1.20560E-001,4.25495E-001,4.39396E-003,4.54438E-001,0,6.10916E+000,2.51941E+000,9.99943E-001,-3.25119E+001,-2.81944E+001,9.99558E-001,7.22544E-003,-2.73417E-003,-1.39990E-004,7.22740E-003,-2.73614E-003,-8.05122E-001,7.29809E-003,1.00725E+000,-3.23039E-003,0.00000E+000,2.94185E-003,9.97370E-001,0.00000E+000,-1.59440E-003,-1.44843E-002,1.00000E+000,1
679,1327,-1.63119E+001,-7.75682E-003,-7.09193E-002,1.65185E-001,9.28448E-002,-5.35619E-002,1.96914E-001,4.47526E-003,6.23206E-001,0,2.69814E+000,1.55722E+000,9.99922E-001,-4.01305E+001,-3.82491E+001,9.99509E-001,6.20786E-003,-2.46897E-003,-1.58964E-004,6.21077E-003,-2.47188E-003,-1.04922E+000,6.25370E-003,1.00623E+000,2.10461E-003,0.00000E+000,-2.41106E-003,9.97616E-001,0.00000E+000,5.91123E-004,-1.30050E-002,1.00000E+000,1
679,1337,-1.63016E+001,6.27112E-001,-8.96315E-002,1.66783E-001,9.16474E-002,-5.92147E-002,1.99304E-001,3.92832E-003,6.09521E-001,0,2.73871E+000,1.54622E+000,9.99946E-001,-3.98737E+001,-3.84588E+001,9.99836E-001,6.02224E-003,-2.46864E-003,-1.45907E-004,6.02475E-003,-2.47115E-003,-9.84179E-001,6.05707E-003,1.00604E+000,2.10205E-003,0.00000E+000,-2.37911E-003,9.97616E-001,0.00000E+000,3.01305E-004,-1.30089E-002,1.00000E+000,1
1179,1327,1.65150E+001,3.36455E-001,-1.39954E-001,3.85362E-001,1.56141E-001,-8.88938E-002,4.25189E-001,7.54608E-003,4.24583E-001,0,6.08357E+000,2.52092E+000,9.99967E-001,-3.38754E+001,-2.83807E+001,9.98610E-001,6.83986E-003,-2.73434E-003,-1.52389E-004,6.84229E-003,-2.73676E-003,-9.11648E-001,6.88777E-003,1.00686E+000,-3.25122E-003,0.00000E+000,2.93690E-003,9.97370E-001,0.00000E+000,-1.45068E-003,-1.44766E-002,1.00000E+000,1
679,1317,-1.63170E+001,-6.37734E-001,-2.38815E-002,1.63901E-001,9.52921E-002,-4.63540E-002,1.95174E-001,4.90813E-003,6.42200E-001,0,2.65759E+000,1.57577E+000,9.99933E-001,-4.02282E+001,-3.80239E+001,9.99097E-001,6.39236E-003,-2.46908E-003,-1.72637E-004,6.39573E-003,-2.47244E-003,-1.11566E+000,6.45035E-003,1.00641E+000,2.10577E-003,0.00000E+000,-2.44285E-003,9.97615E-001,0.00000E+000,8.79399E-004,-1.30032E-002,1.00000E+000,1
669,1327,-1.69573E+001,-1.34635E-002,-7.08128E-002,1.61513E-001,9.39470E-002,-5.14646E-002,1.93807E-001,5.58504E-003,5.81370E-001,0,2.63556E+000,1.57601E+000,9.99936E-001,-3.99936E+001,-3.84506E+001,9.99318E-001,6.19727E-003,-2.42269E-003,-1.29267E-004,6.19920E-003,-2.42463E-003,-8.58967E-001,6.24801E-003,1.00621E+000,2.33085E-003,0.00000E+000,-2.57469E-003,9.97658E-001,0.00000E+000,4.79875E-004,-1.27840E-002,1.00000E+000,1
669,1337,-1.69469E+001,6.23125E-001,-8.92524E-002,1.62876E-001,9.25060E-002,-5.91653E-002,1.96435E-001,3.45483E-003,6.26530E-001,0,2.67805E+000,1.56466E+000,9.99937E-001,-3.97329E+001,-3.86068E+001,9.99710E-001,6.00420E-003,-2.42255E-003,-1.24418E-004,6.00604E-003,-2.42439E-003,-8.45709E-001,6.04309E-003,1.00602E+000,2.32810E-003,0.00000E+000,-2.55984E-003,9.97659E-001,0.00000E+000,2.53511E-004,-1.27872E-002,1.00000E+000,1
669,1347,-1.69332E+001,1.26119E+000,-8.88229E-002,1.64706E-001,9.16366E-002,-6.45049E-002,1.99214E-001,3.54909E-003,6.07544E-001,0,2.72108E+000,1.56273E+000,9.99911E-001,-3.93665E+001,-3.88158E+001,9.99562E-001,5.81084E-003,-2.42236E-003,-1.19996E-004,5.81259E-003,-2.42410E-003,-8.34833E-001,5.83919E-003,1.00583E+000,2.32447E-003,0.00000E+000,-2.54498E-003,9.97659E-001,0.00000E+000,2.68930E-005,-1.27915E-002,1.00000E+000,1
669,1357,-1.69122E+001,1.90514E+000,-5.16117E-002,1.66297E-001,9.01730E-002,-7.50178E-002,2.03503E-001,3.69038E-003,5.87859E-001,0,2.77451E+000,1.56339E+000,9.99860E-001,-3.87838E+001,-3.90191E+001,9.99650E-001,5.61557E-003,-2.42202E-003,-1.16639E-004,5.61726E-003,-2.42372E-003,-8.31223E-001,5.63482E-003,1.00563E+000,2.31859E-003,0.00000E+000,-2.52998E-003,9.97659E-001,0.00000E+000,-2.01843E-004,-1.27983E-002,1.00000E+000,1
1189,1337,1.72144E+001,1.00249E+000,-9.02963E-002,3.86147E-001,1.53735E-001,-1.07555E-001,4.29316E-001,6.41168E-003,4.35158E-001,0,6.16294E+000,2.54598E+000,9.99959E-001,-3.28351E+001,-2.80747E+001,9.99269E-001,7.09867E-003,-2.78223E-003,-1.20626E-004,7.10014E-003,-2.78370E-003,-6.99327E-001,7.15507E-003,1.00712E+000,-3.05404E-003,0.00000E+000,2.80669E-003,9.97323E-001,0.00000E+000,-1.62787E-003,-1.45257E-002,1.00000E+000,1
669,1317,-1.69610E+001,-6.42437E-001,-1.67467E-002,1.60482E-001,9.69322E-002,-4.40489E-002,1.92589E-001,8.27541E-003,5.80574E-001,0,2.59832E+000,1.60113E+000,9.99940E-001,-4.00484E+001,-3.82328E+001,9.98796E-001,6.38853E-003,-2.42271E-003,-1.35022E-004,6.39059E-003,-2.42478E-003,-8.77715E-001,6.45223E-003,1.00641E+000,2.33168E-003,0.00000E+000,-2.58941E-003,9.97658E-001,0.00000E+000,7.04237E-004,-1.27831E-002,1.00000E+000,1
1189,1297,1.71459E+001,-1.59580E+000,-8.45148E-002,3.95306E-001,1.60671E-001,-6.56037E-002,4.31724E-001,7.69484E-003,4.42234E-001,0,6.14229E+000,2.55831E+000,9.99937E-001,-3.41821E+001,-2.83690E+001,9.98164E-001,6.30637E-003,-2.78091E-003,-1.13475E-004,6.30779E-003,-2.78233E-003,-7.15314E-001,6.32236E-003,1.00632E+000,-3.07780E-003,0.00000E+000,2.84812E-003,9.97324E-001,0.00000E+000,-1.71220E-003,-1.45282E-002,1.00000E+000,1
1189,1307,1.71491E+001,-9.54739E-001,-1.38982E-001,3.91976E-001,1.57657E-001,-7.89552E-002,4.29808E-001,4.75844E-003,4.35515E-001,0,6.14401E+000,2.54863E+000,9.99920E-001,-3.41532E+001,-2.83119E+001,9.99138E-001,6.50227E-003,-2.78104E-003,-1.17153E-004,6.50375E-003,-2.78252E-003,-7.22902E-001,6.52630E-003,1.00652E+000,-3.07578E-003,0.00000E+000,2.83788E-003,9.97324E-001,0.00000E+000,-1.69136E-003,-1.45280E-002,1.00000E+000,1
1189,1317,1.71669E+001,-3.03066E-001,-1.39442E-001,3.90211E-001,1.56596E-001,-8.87792E-002,4.29730E-001,5.31021E-003,4.93140E-001,0,6.15423E+000,2.54925E+000,9.99952E-001,-3.38047E+001,-2.81754E+001,9.99638E-001,6.70080E-003,-2.78137E-003,-1.18931E-004,6.70229E-003,-2.78287E-003,-7.18484E-001,6.73434E-003,1.00672E+000,-3.06980E-003,0.00000E+000,2.82750E-003,9.97324E-001,0.00000E+000,-1.67023E-003,-1.45273E-002,1.00000E+000,1
1189,1327,1.71892E+001,3.48873E-001,-1.20564E-001,3.88910E-001,1.55617E-001,-9.53544E-002,4.29605E-001,7.66566E-003,4.58941E-001,0,6.15879E+000,2.55249E+000,9.99961E-001,-3.33522E+001,-2.81260E+001,9.99376E-001,6.89936E-003,-2.78177E-003,-1.20098E-004,6.90085E-003,-2.78326E-003,-7.10628E-001,6.94371E-003,1.00692E+000,-3.06258E-003,0.00000E+000,2.81711E-003,9.97323E-001,0.00000E+000,-1.64909E-003,-1.45266E-002,1.00000E+000,1
659,1327,-1.76012E+001,-1.62299E-002,-6.88265E-002,1.57795E-001,9.57182E-002,-5.42143E-002,1.92355E-001,9.68023E-003,5.93794E-001,0,2.58525E+000,1.60859E+000,9.99906E-001,-3.98229E+001,-3.85837E+001,9.98222E-001,6.15438E-003,-2.38612E-003,-1.40197E-004,6.15668E-003,-2.38842E-003,-9.40205E-001,6.20801E-003,1.00617E+000,2.49794E-003,0.00000E+000,-2.76115E-003,9.97694E-001,0.00000E+000,3.88183E-004,-1.27150E-002,1.00000E+000,1
659,1337,-1.75893E+001,6.20675E-001,-8.00183E-002,1.60749E-001,9.46587E-002,-5.48729E-002,1.94452E-001,8.33749E-003,6.54604E-001,0,2.63306E+000,1.58091E+000,9.99929E-001,-3.95170E+001,-3.87447E+001,9.99509E-001,5.97247E-003,-2.38614E-003,-1.42213E-004,5.97489E-003,-2.38856E-003,-9.74453E-001,6.01478E-003,1.00599E+000,2.49536E-003,0.00000E+000,-2.76083E-003,9.97694E-001,0.00000E+000,2.11830E-004,-1.27175E-002,1.00000E+000,1
659,1347,-1.75762E+001,1.25789E+000,-8.24308E-002,1.61835E-001,9.32364E-002,-6.40013E-002,1.97433E-001,5.14743E-003,6.41401E-001,0,2.67484E+000,1.57241E+000,9.99922E-001,-3.91683E+001,-3.89597E+001,9.99761E-001,5.79037E-003,-2.38617E-003,-1.44653E-004,5.79293E-003,-2.38873E-003,-1.01321E+000,5.82252E-003,1.00580E+000,2.49193E-003,0.00000E+000,-2.76050E-003,9.97694E-001,0.00000E+000,3.53589E-005,-1.27208E-002,1.00000E+000,1
659,1357,-1.75567E+001,1.90127E+000,-4.82880E-002,1.62660E-001,9.20179E-002,-7.43828E-002,2.01143E-001,3.19691E-003,6.05078E-001,0,2.71576E+000,1.58326E+000,9.99902E-001,-3.86153E+001,-3.91752E+001,9.99819E-001,5.60665E-003,-2.38622E-003,-1.48044E-004,5.60940E-003,-2.38897E-003,-1.06075E+000,5.62990E-003,1.00562E+000,2.48660E-003,0.00000E+000,-2.76018E-003,9.97694E-001,0.00000E+000,-1.42611E-004,-1.27259E-002,1.00000E+000,1
1199,1307,1.78195E+001,-9.44977E-001,-1.33763E-001,3.95506E-001,1.59359E-001,-8.42140E-002,4.34640E-001,6.71719E-003,4.45314E-001,0,6.21340E+000,2.59084E+000,9.99924E-001,-3.37069E+001,-2.80828E+001,9.98973E-001,6.53301E-003,-2.78586E-003,-7.98068E-005,6.53370E-003,-2.78654E-003,-4.90633E-001,6.55719E-003,1.00655E+000,-2.90650E-003,0.00000E+000,2.74757E-003,9.97319E-001,0.00000E+000,-1.90195E-003,-1.44969E-002,1.00000E+000,1
1199,1317,1.78350E+001,-2.96522E-001,-1.42366E-001,3.93824E-001,1.57974E-001,-9.28740E-002,4.34372E-001,4.93236E-003,4.54420E-001,0,6.22087E+000,2.58015E+000,9.99893E-001,-3.34086E+001,-2.80014E+001,9.99122E-001,6.73836E-003,-2.78650E-003,-8.77011E-005,6.73917E-003,-2.78731E-003,-5.27497E-001,6.77263E-003,1.00676E+000,-2.90103E-003,0.00000E+000,2.72447E-003,9.97318E-001,0.00000E+000,-1.80974E-003,-1.44944E-002,1.00000E+000,1
1199,1327,1.78543E+001,3.53399E-001,-1.37048E-001,3.93128E-001,1.56968E-001,-9.83828E-002,4.34589E-001,5.55057E-003,4.27224E-001,0,6.23074E+000,2.57558E+000,9.99938E-001,-3.30281E+001,-2.79488E+001,9.99212E-001,6.94401E-003,-2.78723E-003,-9.51793E-005,6.94494E-003,-2.78816E-003,-5.60327E-001,6.98975E-003,1.00697E+000,-2.89468E-003,0.00000E+000,2.70133E-003,9.97318E-001,0.00000E+000,-1.71737E-003,-1.44916E-002,1.00000E+000,1
659,1317,-1.76079E+001,-6.46818E-001,-2.70263E-002,1.56149E-001,9.80250E-002,-4.50616E-002,1.89795E-001,8.15276E-003,6.21840E-001,0,2.53409E+000,1.61818E+000,9.99872E-001,-3.99600E+001,-3.83488E+001,9.96498E-001,6.33487E-003,-2.38611E-003,-1.38743E-004,6.33708E-003,-2.38832E-003,-9.11215E-001,6.40080E-003,1.00635E+000,2.49940E-003,0.00000E+000,-2.76147E-003,9.97694E-001,0.00000E+000,5.63221E-004,-1.27136E-002,1.00000E+000,1
1199,1337,1.78878E+001,1.01278E+000,-7.97330E-002,3.91832E-001,1.55572E-001,-1.08984E-001,4.35446E-001,5.89326E-003,4.46629E-001,0,6.25050E+000,2.57160E+000,9.99960E-001,-3.23388E+001,-2.78440E+001,9.98764E-001,7.15274E-003,-2.78846E-003,-1.00491E-004,7.15376E-003,-2.78947E-003,-5.79095E-001,7.21130E-003,1.00718E+000,-2.88363E-003,0.00000E+000,2.67784E-003,9.97317E-001,0.00000E+000,-1.62359E-003,-1.44867E-002,1.00000E+000,1
1199,1297,1.78145E+001,-1.58767E+000,-8.49147E-002,3.97811E-001,1.61381E-001,-7.38451E-002,4.35604E-001,4.86417E-003,4.45556E-001,0,6.20789E+000,2.59471E+000,9.99908E-001,-3.37725E+001,-2.81580E+001,9.98899E-001,6.32925E-003,-2.78555E-003,-7.04310E-005,6.32979E-003,-2.78610E-003,-4.42695E-001,6.34489E-003,1.00635E+000,-2.90883E-003,0.00000E+000,2.77048E-003,9.97319E-001,0.00000E+000,-1.99343E-003,-1.44979E-002,1.00000E+000,1
649,1347,-1.82208E+001,1.25511E+000,-8.09576E-002,1.57313E-001,9.51610E-002,-6.68148E-002,1.95620E-001,4.42386E-003,6.63596E-001,0,2.61180E+000,1.60751E+000,9.99945E-001,-3.90033E+001,-3.90909E+001,9.99510E-001,5.74859E-003,-2.38100E-003,-1.51168E-004,5.75140E-003,-2.38381E-003,-1.06491E+000,5.77938E-003,1.00576E+000,2.65276E-003,0.00000E+000,-2.93401E-003,9.97697E-001,0.00000E+000,1.04774E-004,-1.26038E-002,1.00000E+000,1
649,1357,-1.82016E+001,1.89749E+000,-4.59807E-002,1.58550E-001,9.39915E-002,-7.38360E-002,1.98556E-001,2.84351E-003,6.02452E-001,0,2.64987E+000,1.61669E+000,9.99954E-001,-3.84493E+001,-3.93378E+001,9.99774E-001,5.56286E-003,-2.38100E-003,-1.53673E-004,5.56583E-003,-2.38398E-003,-1.10783E+000,5.58486E-003,1.00557E+000,2.64754E-003,0.00000E+000,-2.93314E-003,9.97697E-001,0.00000E+000,1.08924E-005,-1.26064E-002,1.00000E+000,1
649,1337,-1.82351E+001,6.17994E-001,-7.76817E-002,1.54761E-001,9.82022E-002,-5.78650E-002,1.92206E-001,5.32898E-003,6.08975E-001,0,2.54737E+000,1.64704E+000,9.99962E-001,-3.93689E+001,-3.89085E+001,9.99418E-001,5.93347E-003,-2.38099E-003,-1.49568E-004,5.93616E-003,-2.38368E-003,-1.03024E+000,5.97439E-003,1.00595E+000,2.65615E-003,0.00000E+000,-2.93487E-003,9.97697E-001,0.00000E+000,1.98247E-004,-1.26021E-002,1.00000E+000,1
649,1327,-1.82446E+001,-1.78906E-002,-6.18252E-002,1.53722E-001,9.78739E-002,-5.46503E-002,1.90254E-001,4.72870E-003,6.09936E-001,0,2.52286E+000,1.64519E+000,9.99960E-001,-3.96257E+001,-3.87089E+001,9.99637E-001,6.11706E-003,-2.38099E-003,-1.48430E-004,6.11965E-003,-2.38358E-003,-1.00035E+000,6.16927E-003,1.00613E+000,2.65862E-003,0.00000E+000,-2.93573E-003,9.97697E-001,0.00000E+000,2.91092E-004,-1.26008E-002,1.00000E+000,1
1209,1307,1.84915E+001,-9.35297E-001,-1.23220E-001,4.00818E-001,1.62238E-001,-8.15391E-002,4.40028E-001,4.61137E-003,4.48749E-001,0,6.27854E+000,2.62297E+000,9.99945E-001,-3.32240E+001,-2.78696E+001,9.99226E-001,6.53858E-003,-2.74073E-003,-3.17953E-005,6.53869E-003,-2.74084E-003,-1.96319E-001,6.56710E-003,1.00656E+000,-2.69861E-003,0.00000E+000,2.63832E-003,9.97361E-001,0.00000E+000,-1.99304E-003,-1.42475E-002,1.00000E+000,1
1209,1317,1.85054E+001,-2.88585E-001,-1.39289E-001,3.99191E-001,1.59911E-001,-9.06335E-002,4.39476E-001,4.95232E-003,4.38175E-001,0,6.28921E+000,2.60780E+000,9.99955E-001,-3.29652E+001,-2.78078E+001,9.99106E-001,6.74933E-003,-2.74125E-003,-3.87766E-005,6.74949E-003,-2.74141E-003,-2.34094E-001,6.78900E-003,1.00677E+000,-2.69355E-003,0.00000E+000,2.61692E-003,9.97360E-001,0.00000E+000,-1.85995E-003,-1.42443E-002,1.00000E+000,1
1209,1327,1.85284E+001,3.63257E-001,-1.23122E-001,3.97475E-001,1.58551E-001,-1.02950E-001,4.40140E-001,4.75622E-003,4.05582E-001,0,6.31006E+000,2.60716E+000,9.99952E-001,-3.25107E+001,-2.77501E+001,9.99424E-001,6.96138E-003,-2.74205E-003,-4.43298E-005,6.96159E-003,-2.74225E-003,-2.61747E-001,7.01362E-003,1.00698E+000,-2.68548E-003,0.00000E+000,2.59537E-003,9.97359E-001,0.00000E+000,-1.72599E-003,-1.42393E-002,1.00000E+000,1
1209,1337,1.85625E+001,1.02448E+000,-6.28057E-002,3.96322E-001,1.57514E-001,-1.11567E-001,4.40827E-001,6.25983E-003,4.58922E-001,0,6.32432E+000,2.60381E+000,9.99956E-001,-3.18090E+001,-2.76053E+001,9.98496E-001,7.17631E-003,-2.74316E-003,-4.82968E-005,7.17655E-003,-2.74340E-003,-2.78958E-001,7.24256E-003,1.00720E+000,-2.67395E-003,0.00000E+000,2.57353E-003,9.97358E-001,0.00000E+000,-1.59017E-003,-1.42320E-002,1.00000E+000,1
1209,1297,1.84838E+001,-1.58003E+000,-8.33966E-002,4.02284E-001,1.63942E-001,-7.33189E-002,4.40551E-001,4.25038E-003,4.22499E-001,0,6.26874E+000,2.63225E+000,9.99915E-001,-3.33462E+001,-2.79720E+001,9.99163E-001,6.32860E-003,-2.74040E-003,-2.38187E-005,6.32867E-003,-2.74047E-003,-1.50480E-001,6.34756E-003,1.00635E+000,-2.70160E-003,0.00000E+000,2.65964E-003,9.97361E-001,0.00000E+000,-2.12560E-003,-1.42494E-002,1.00000E+000,1
649,1317,-1.82503E+001,-6.47457E-001,-1.40093E-002,1.51759E-001,9.99718E-002,-4.69493E-002,1.87695E-001,3.53493E-003,6.39160E-001,0,2.47085E+000,1.65361E+000,9.99930E-001,-3.97297E+001,-3.84687E+001,9.99669E-001,6.29961E-003,-2.38099E-003,-1.47980E-004,6.30214E-003,-2.38351E-003,-9.76354E-001,6.36415E-003,1.00632E+000,2.65970E-003,0.00000E+000,-2.93658E-003,9.97697E-001,0.00000E+000,3.83434E-004,-1.26003E-002,1.00000E+000,1
639,1347,-1.88654E+001,1.25060E+000,-8.47176E-002,1.53541E-001,9.68817E-002,-6.88119E-002,1.94155E-001,4.25550E-003,6.19537E-001,0,2.55828E+000,1.66107E+000,9.99933E-001,-3.88486E+001,-3.92703E+001,9.99512E-001,5.68268E-003,-2.35026E-003,-1.45223E-004,5.68530E-003,-2.35288E-003,-1.03537E+000,5.71336E-003,1.00569E+000,2.85267E-003,0.00000E+000,-3.12117E-003,9.97725E-001,0.00000E+000,1.43465E-004,-1.24554E-002,1.00000E+000,1
639,1357,-1.88457E+001,1.89381E+000,-4.82390E-002,1.55197E-001,9.59295E-002,-7.53907E-002,1.97414E-001,2.74444E-003,6.06955E-001,0,2.60144E+000,1.65842E+000,9.99947E-001,-3.82814E+001,-3.94851E+001,9.99770E-001,5.49121E-003,-2.35039E-003,-1.50206E-004,5.49409E-003,-2.35326E-003,-1.09696E+000,5.51287E-003,1.00550E+000,2.84729E-003,0.00000E+000,-3.12553E-003,9.97725E-001,0.00000E+000,8.02600E-005,-1.24571E-002,1.00000E+000,1
639,1317,-1.88924E+001,-6.45509E-001,1.88261E-003,1.47456E-001,1.03291E-001,-4.42562E-002,1.85394E-001,5.30198E-003,6.95823E-001,0,2.39616E+000,1.70286E+000,9.99923E-001,-3.94836E+001,-3.85352E+001,9.99260E-001,6.24894E-003,-2.35013E-003,-1.35273E-004,6.25107E-003,-2.35226E-003,-9.01031E-001,6.31452E-003,1.00626E+000,2.85895E-003,0.00000E+000,-3.10827E-003,9.97725E-001,0.00000E+000,3.30480E-004,-1.24533E-002,1.00000E+000,1
639,1327,-1.88880E+001,-2.04157E-002,-5.48406E-002,1.49671E-001,1.00103E-001,-5.31082E-002,1.87729E-001,4.05546E-003,6.21026E-001,0,2.45534E+000,1.67072E+000,9.99946E-001,-3.94240E+001,-3.88500E+001,9.99372E-001,6.06184E-003,-2.35014E-003,-1.37869E-004,6.06410E-003,-2.35240E-003,-9.38720E-001,6.11467E-003,1.00608E+000,2.85827E-003,0.00000E+000,-3.11253E-003,9.97725E-001,0.00000E+000,2.68672E-004,-1.24535E-002,1.00000E+000,1
639,1337,-1.88795E+001,6.13413E-001,-8.58423E-002,1.51478E-001,9.81484E-002,-6.10432E-002,1.90538E-001,3.88323E-003,6.63458E-001,0,2.50520E+000,1.65587E+000,9.99951E-001,-3.92275E+001,-3.90286E+001,9.99542E-001,5.87259E-003,-2.35018E-003,-1.41136E-004,5.87501E-003,-2.35260E-003,-9.83044E-001,5.91371E-003,1.00589E+000,2.85628E-003,0.00000E+000,-3.11685E-003,9.97725E-001,0.00000E+000,2.06171E-004,-1.24542E-002,1.00000E+000,1
1219,1317,1.91789E+001,-2.77003E-001,-1.27560E-001,4.03629E-001,1.61176E-001,-9.34827E-002,4.44559E-001,5.83112E-003,4.98617E-001,0,6.36321E+000,2.63392E+000,9.99963E-001,-3.24545E+001,-2.75379E+001,9.99060E-001,6.74529E-003,-2.74811E-003,-6.29704E-006,6.74530E-003,-2.74811E-003,-3.80047E-002,6.78374E-003,1.00677E+000,-2.52368E-003,0.00000E+000,2.51352E-003,9.97352E-001,0.00000E+000,-1.88043E-003,-1.41268E-002,1.00000E+000,1
1219,1327,1.92006E+001,3.72849E-001,-1.17074E-001,4.02516E-001,1.59871E-001,-1.03503E-001,4.45299E-001,3.72308E-003,4.18654E-001,0,6.38456E+000,2.63478E+000,9.99959E-001,-3.20322E+001,-2.75212E+001,9.99426E-001,6.94941E-003,-2.74906E-003,-1.52551E-005,6.94944E-003,-2.74909E-003,-9.01226E-002,6.99977E-003,1.00697E+000,-2.51651E-003,0.00000E+000,2.48550E-003,9.97351E-001,0.00000E+000,-1.70083E-003,-1.41205E-002,1.00000E+000,1
1219,1337,1.92358E+001,1.03485E+000,-5.34768E-002,4.01487E-001,1.59044E-001,-1.11385E-001,4.45975E-001,4.64632E-003,4.62944E-001,0,6.39789E+000,2.63656E+000,9.99961E-001,-3.13121E+001,-2.73747E+001,9.99194E-001,7.15710E-003,-2.75055E-003,-2.23273E-005,7.15715E-003,-2.75060E-003,-1.29118E-001,7.22072E-003,1.00718E+000,-2.50509E-003,0.00000E+000,2.45697E-003,9.97350E-001,0.00000E+000,-1.51802E-003,-1.41105E-002,1.00000E+000,1
1219,1297,1.91554E+001,-1.57075E+000,-7.89977E-002,4.07448E-001,1.66137E-001,-7.40520E-002,4.46205E-001,5.19756E-003,4.38467E-001,0,6.34482E+000,2.66903E+000,9.99880E-001,-3.28762E+001,-2.77470E+001,9.99009E-001,6.33793E-003,-2.74690E-003,1.43934E-005,6.33795E-003,-2.74693E-003,9.07753E-002,6.35666E-003,1.00636E+000,-2.53230E-003,0.00000E+000,2.56942E-003,9.97353E-001,0.00000E+000,-2.23865E-003,-1.41344E-002,1.00000E+000,1
1219,1307,1.91657E+001,-9.24329E-001,-1.08789E-001,4.06051E-001,1.64426E-001,-8.17901E-002,4.45649E-001,5.60125E-003,4.84297E-001,0,6.35381E+000,2.65014E+000,9.99941E-001,-3.26971E+001,-2.76287E+001,9.99005E-001,6.54127E-003,-2.74743E-003,3.76421E-006,6.54127E-003,-2.74743E-003,2.32189E-002,6.56911E-003,1.00656E+000,-2.52861E-003,0.00000E+000,2.54152E-003,9.97353E-001,0.00000E+000,-2.05987E-003,-1.41311E-002,1.00000E+000,1
629,1347,-1.95101E+001,1.24585E+000,-8.99499E-002,1.49610E-001,9.84971E-002,-6.96147E-002,1.92174E-001,3.60481E-003,6.10619E-001,0,2.49891E+000,1.69624E+000,9.99917E-001,-3.86978E+001,-3.94328E+001,9.99613E-001,5.62200E-003,-2.36448E-003,-1.40951E-004,5.62449E-003,-2.36697E-003,-1.01077E+000,5.64794E-003,1.00563E+000,3.06091E-003,0.00000E+000,-3.31985E-003,9.97707E-001,0.00000E+000,1.86984E-004,-1.21923E-002,1.00000E+000,1
629,1357,-1.94900E+001,1.88911E+000,-5.15082E-002,1.51514E-001,9.75063E-002,-7.60620E-002,1.95574E-001,3.20365E-003,5.98346E-001,0,2.54549E+000,1.69306E+000,9.99934E-001,-3.81168E+001,-3.96525E+001,9.99643E-001,5.45668E-003,-2.36403E-003,-1.34056E-004,5.45897E-003,-2.36633E-003,-9.81734E-001,5.47506E-003,1.00547E+000,3.05624E-003,0.00000E+000,-3.30027E-003,9.97708E-001,0.00000E+000,4.76663E-005,-1.21962E-002,1.00000E+000,1
629,1327,-1.95323E+001,-2.39297E-002,-5.71488E-002,1.45590E-001,1.02364E-001,-5.31048E-002,1.85728E-001,3.38897E-003,6.15091E-001,0,2.39154E+000,1.71026E+000,9.99935E-001,-3.92604E+001,-3.89950E+001,9.99521E-001,5.94931E-003,-2.36487E-003,-1.56876E-004,5.95227E-003,-2.36783E-003,-1.08057E+000,5.99357E-003,1.00596E+000,3.06560E-003,0.00000E+000,-3.35863E-003,9.97706E-001,0.00000E+000,4.62929E-004,-1.21884E-002,1.00000E+000,1
629,1337,-1.95235E+001,6.09235E-001,-8.87362E-002,1.47738E-001,1.00048E-001,-6.20897E-002,1.88921E-001,3.59934E-003,6.43910E-001,0,2.44950E+000,1.69659E+000,9.99908E-001,-3.90597E+001,-3.91909E+001,9.99625E-001,5.78594E-003,-2.36474E-003,-1.48615E-004,5.78865E-003,-2.36745E-003,-1.04423E+000,5.82053E-003,1.00580E+000,3.06388E-003,0.00000E+000,-3.33927E-003,9.97707E-001,0.00000E+000,3.25175E-004,-1.21898E-002,1.00000E+000,1
1229,1317,1.98498E+001,-2.69215E-001,-1.27679E-001,4.07974E-001,1.62583E-001,-9.64951E-002,4.49652E-001,5.21170E-003,4.99392E-001,0,6.43654E+000,2.65722E+000,9.99965E-001,-3.20023E+001,-2.73313E+001,9.99468E-001,6.74812E-003,-2.74327E-003,3.70583E-005,6.74826E-003,-2.74342E-003,2.23702E-001,6.78745E-003,1.00677E+000,-2.35558E-003,0.00000E+000,2.43183E-003,9.97355E-001,0.00000E+000,-1.78093E-003,-1.39737E-002,1.00000E+000,1
1229,1327,1.98725E+001,3.84087E-001,-1.13959E-001,4.07321E-001,1.61440E-001,-1.04601E-001,4.50460E-001,4.41757E-003,5.00266E-001,0,6.45743E+000,2.66005E+000,9.99958E-001,-3.15605E+001,-2.72264E+001,9.99197E-001,6.94976E-003,-2.74431E-003,2.72761E-005,6.94984E-003,-2.74439E-003,1.61211E-001,7.00084E-003,1.00697E+000,-2.34834E-003,0.00000E+000,2.40101E-003,9.97354E-001,0.00000E+000,-1.51812E-003,-1.39644E-002,1.00000E+000,1
1229,1337,1.99049E+001,1.04098E+000,-6.47892E-002,4.06279E-001,1.60510E-001,-1.15773E-001,4.51917E-001,4.79908E-003,4.30333E-001,0,6.48377E+000,2.66844E+000,9.99944E-001,-3.09103E+001,-2.71829E+001,9.98966E-001,7.15229E-003,-2.74577E-003,1.89785E-005,7.15233E-003,-2.74580E-003,1.09858E-001,7.21631E-003,1.00718E+000,-2.33798E-003,0.00000E+000,2.37003E-003,9.97352E-001,0.00000E+000,-1.25400E-003,-1.39509E-002,1.00000E+000,1
629,1317,-1.95365E+001,-6.50287E-001,2.01978E-003,1.43417E-001,1.04475E-001,-4.29141E-002,1.82552E-001,4.09332E-003,6.78379E-001,0,2.32988E+000,1.71965E+000,9.99939E-001,-3.93094E+001,-3.87089E+001,9.99457E-001,6.11098E-003,-2.36487E-003,-1.65628E-004,6.11422E-003,-2.36811E-003,-1.11906E+000,6.16576E-003,1.00613E+000,3.06614E-003,0.00000E+000,-3.37780E-003,9.97706E-001,0.00000E+000,5.99295E-004,-1.21879E-002,1.00000E+000,1
1229,1297,1.98265E+001,-1.56159E+000,-7.63571E-002,4.11617E-001,1.67903E-001,-7.64133E-002,4.51064E-001,4.66114E-003,4.83130E-001,0,6.41235E+000,2.69336E+000,9.99913E-001,-3.24142E+001,-2.75062E+001,9.98944E-001,6.34787E-003,-2.74202E-003,5.94398E-005,6.34826E-003,-2.74241E-003,3.74642E-001,6.36781E-003,1.00637E+000,-2.36392E-003,0.00000E+000,2.49297E-003,9.97356E-001,0.00000E+000,-2.30213E-003,-1.39846E-002,1.00000E+000,1
1229,1307,1.98358E+001,-9.16440E-001,-1.10390E-001,4.10503E-001,1.65994E-001,-8.30944E-002,4.50524E-001,6.12000E-003,5.18516E-001,0,6.42177E+000,2.66556E+000,9.99961E-001,-3.22591E+001,-2.74023E+001,9.99042E-001,6.54751E-003,-2.74252E-003,4.78078E-005,6.54776E-003,-2.74276E-003,2.94842E-001,6.57642E-003,1.00657E+000,-2.36071E-003,0.00000E+000,2.46248E-003,9.97356E-001,0.00000E+000,-2.04223E-003,-1.39804E-002,1.00000E+000,1
619,1327,-2.01756E+001,-2.75317E-002,-5.97118E-002,1.41863E-001,1.04295E-001,-5.46769E-002,1.84370E-001,3.23354E-003,6.16022E-001,0,2.33746E+000,1.74529E+000,9.99916E-001,-3.90788E+001,-3.91374E+001,9.99499E-001,5.86423E-003,-2.33089E-003,-1.85490E-004,5.86843E-003,-2.33509E-003,-1.29596E+000,5.90906E-003,1.00588E+000,3.27503E-003,0.00000E+000,-3.62411E-003,9.97734E-001,0.00000E+000,5.05969E-004,-1.17123E-002,1.00000E+000,1
619,1337,-2.01663E+001,6.06451E-001,-8.59430E-002,1.43863E-001,1.02404E-001,-6.29117E-002,1.87459E-001,3.20407E-003,6.42871E-001,0,2.39081E+000,1.73656E+000,9.99875E-001,-3.88528E+001,-3.93350E+001,9.99531E-001,5.70901E-003,-2.33065E-003,-1.70866E-004,5.71264E-003,-2.33428E-003,-1.21697E+000,5.74435E-003,1.00572E+000,3.27323E-003,0.00000E+000,-3.59159E-003,9.97734E-001,0.00000E+000,3.30073E-004,-1.17144E-002,1.00000E+000,1
619,1347,-2.01539E+001,1.24223E+000,-9.12623E-002,1.46123E-001,1.01212E-001,-6.73261E-002,1.90076E-001,3.35563E-003,6.17585E-001,0,2.43786E+000,1.73174E+000,9.99900E-001,-3.85166E+001,-3.95788E+001,9.99639E-001,5.55357E-003,-2.33027E-003,-1.56570E-004,5.55668E-003,-2.33337E-003,-1.13727E+000,5.58038E-003,1.00556E+000,3.27074E-003,0.00000E+000,-3.55905E-003,9.97735E-001,0.00000E+000,1.54001E-004,-1.17172E-002,1.00000E+000,1
619,1357,-2.01348E+001,1.88392E+000,-5.96547E-002,1.48130E-001,9.98064E-002,-7.49019E-002,1.93685E-001,3.45652E-003,6.03235E-001,0,2.48906E+000,1.72430E+000,9.99942E-001,-3.79699E+001,-3.98102E+001,9.99652E-001,5.39683E-003,-2.32956E-003,-1.42970E-004,5.39947E-003,-2.33221E-003,-1.05973E+000,5.41612E-003,1.00541E+000,3.26660E-003,0.00000E+000,-3.52624E-003,9.97735E-001,0.00000E+000,-2.34745E-005,-1.17218E-002,1.00000E+000,1
619,1317,-2.01793E+001,-6.54582E-001,-7.57382E-004,1.40252E-001,1.07156E-001,-4.41962E-002,1.81952E-001,4.64543E-003,6.29858E-001,0,2.28382E+000,1.76607E+000,9.99924E-001,-3.91212E+001,-3.88843E+001,9.99493E-001,6.01814E-003,-2.33090E-003,-2.00614E-004,6.02296E-003,-2.33571E-003,-1.37567E+000,6.07329E-003,1.00603E+000,3.27557E-003,0.00000E+000,-3.65636E-003,9.97734E-001,0.00000E+000,6.80439E-004,-1.17117E-002,1.00000E+000,1
1239,1307,2.05049E+001,-9.10318E-001,-1.16284E-001,4.14380E-001,1.67401E-001,-8.57531E-002,4.55069E-001,6.74186E-003,4.79973E-001,0,6.48653E+000,2.69900E+000,9.99931E-001,-3.18385E+001,-2.72305E+001,9.99210E-001,6.54207E-003,-2.72041E-003,7.33819E-005,6.54265E-003,-2.72099E-003,4.53887E-001,6.57344E-003,1.00656E+000,-2.20020E-003,0.00000E+000,2.35327E-003,9.97374E-001,0.00000E+000,-1.98927E-003,-1.37062E-002,1.00000E+000,1
1239,1317,2.05201E+001,-2.62544E-001,-1.30709E-001,4.13207E-001,1.65354E-001,-9.49882E-002,4.55088E-001,6.43119E-003,4.61368E-001,0,6.50500E+000,2.68880E+000,9.99940E-001,-3.15611E+001,-2.71553E+001,9.99256E-001,6.73833E-003,-2.72094E-003,6.64753E-005,6.73880E-003,-2.72140E-003,4.02621E-001,6.78021E-003,1.00676E+000,-2.19525E-003,0.00000E+000,2.32962E-003,9.97374E-001,0.00000E+000,-1.65753E-003,-1.36978E-002,1.00000E+000,1
1239,1327,2.05473E+001,3.95176E-001,-1.01557E-001,4.12272E-001,1.63694E-001,-1.04989E-001,4.55836E-001,5.07948E-003,5.26492E-001,0,6.52920E+000,2.68933E+000,9.99957E-001,-3.10261E+001,-2.69818E+001,9.99279E-001,6.93724E-003,-2.72181E-003,6.12241E-005,6.93762E-003,-2.72220E-003,3.63151E-001,6.99098E-003,1.00696E+000,-2.18670E-003,0.00000E+000,2.30562E-003,9.97373E-001,0.00000E+000,-1.32104E-003,-1.36834E-002,1.00000E+000,1
1239,1337,2.05762E+001,1.04933E+000,-6.43335E-002,4.11274E-001,1.62771E-001,-1.14212E-001,4.56821E-001,4.20989E-003,4.22953E-001,0,6.54899E+000,2.69533E+000,9.99932E-001,-3.04513E+001,-2.69702E+001,9.99057E-001,7.13468E-003,-2.72274E-003,5.62956E-005,7.13500E-003,-2.72306E-003,3.27201E-001,7.20132E-003,1.00716E+000,-2.17761E-003,0.00000E+000,2.28179E-003,9.97372E-001,0.00000E+000,-9.86773E-004,-1.36681E-002,1.00000E+000,1
1239,1297,2.04970E+001,-1.55488E+000,-7.62386E-002,4.15921E-001,1.69538E-001,-7.70891E-002,4.55715E-001,3.79565E-003,4.67780E-001,0,6.47540E+000,2.71507E+000,9.99944E-001,-3.19612E+001,-2.73279E+001,9.99390E-001,6.34656E-003,-2.72009E-003,8.12916E-005,6.34729E-003,-2.72082E-003,5.13659E-001,6.36879E-003,1.00637E+000,-2.20304E-003,0.00000E+000,2.37681E-003,9.97375E-001,0.00000E+000,-2.31949E-003,-1.37110E-002,1.00000E+000,1
609,1347,-2.07965E+001,1.23944E+000,-9.10933E-002,1.42464E-001,1.03531E-001,-6.89691E-002,1.89133E-001,4.39315E-003,6.44466E-001,0,2.38451E+000,1.76648E+000,9.99918E-001,-3.83093E+001,-3.97051E+001,9.99481E-001,5.49102E-003,-2.28899E-003,-2.05273E-004,5.49644E-003,-2.29440E-003,-1.51033E+000,5.52136E-003,1.00550E+000,3.40591E-003,0.00000E+000,-3.79161E-003,9.97770E-001,0.00000E+000,2.39888E-004,-1.13127E-002,1.00000E+000,1
609,1357,-2.07783E+001,1.87992E+000,-6.51836E-002,1.44665E-001,1.02020E-001,-7.68885E-002,1.92997E-001,3.66534E-003,6.28405E-001,0,2.43957E+000,1.75744E+000,9.99927E-001,-3.77912E+001,-3.99453E+001,9.99651E-001,5.33863E-003,-2.28802E-003,-1.83973E-004,5.34307E-003,-2.29246E-003,-1.38104E+000,5.36097E-003,1.00535E+000,3.40214E-003,0.00000E+000,-3.74393E-003,9.97771E-001,0.00000E+000,6.65759E-005,-1.13170E-002,1.00000E+000,1
609,1317,-2.08220E+001,-6.58232E-001,-8.01847E-004,1.36296E-001,1.09071E-001,-4.60472E-002,1.80536E-001,6.80429E-003,5.96828E-001,0,2.22697E+000,1.80852E+000,9.99938E-001,-3.89181E+001,-3.90481E+001,9.98731E-001,5.94363E-003,-2.28988E-003,-2.71842E-004,5.95260E-003,-2.29885E-003,-1.88896E+000,6.00378E-003,1.00596E+000,3.41056E-003,0.00000E+000,-3.93333E-003,9.97769E-001,0.00000E+000,7.55029E-004,-1.13075E-002,1.00000E+000,1
609,1327,-2.08186E+001,-3.05408E-002,-6.21810E-002,1.38141E-001,1.05801E-001,-5.60585E-002,1.82809E-001,4.27964E-003,6.35404E-001,0,2.28294E+000,1.77978E+000,9.99930E-001,-3.88868E+001,-3.92618E+001,9.99129E-001,5.79343E-003,-2.28992E-003,-2.49181E-004,5.80111E-003,-2.29760E-003,-1.76399E+000,5.84274E-003,1.00580E+000,3.41014E-003,0.00000E+000,-3.88629E-003,9.97769E-001,0.00000E+000,5.84013E-004,-1.13079E-002,1.00000E+000,1
609,1337,-2.08089E+001,6.02332E-001,-8.67936E-002,1.40513E-001,1.04499E-001,-6.31469E-002,1.86149E-001,3.97314E-003,6.27052E-001,0,2.33879E+000,1.77125E+000,9.99913E-001,-3.86501E+001,-3.94992E+001,9.99378E-001,5.64265E-003,-2.28957E-003,-2.27100E-004,5.64915E-003,-2.29606E-003,-1.63859E+000,5.68202E-003,1.00565E+000,3.40840E-003,0.00000E+000,-3.83907E-003,9.97770E-001,0.00000E+000,4.12401E-004,-1.13099E-002,1.00000E+000,1
1249,1297,2.11695E+001,-1.54631E+000,-7.17396E-002,4.20090E-001,1.71024E-001,-7.90584E-002,4.60408E-001,4.67124E-003,4.83280E-001,0,6.54143E+000,2.74006E+000,9.99949E-001,-3.14684E+001,-2.71150E+001,9.99423E-001,6.30688E-003,-2.64354E-003,1.09631E-004,6.30823E-003,-2.64489E-003,7.01655E-001,6.33557E-003,1.00633E+000,-1.98074E-003,0.00000E+000,2.21309E-003,9.97446E-001,0.00000E+000,-2.36809E-003,-1.33296E-002,1.00000E+000,1
1249,1307,2.11754E+001,-9.03320E-001,-1.19861E-001,4.19043E-001,1.68985E-001,-8.63538E-002,4.60011E-001,6.37014E-003,4.82253E-001,0,6.55484E+000,2.72025E+000,9.99940E-001,-3.13898E+001,-2.70298E+001,9.99244E-001,6.50581E-003,-2.64343E-003,1.15356E-004,6.50726E-003,-2.64488E-003,7.22248E-001,6.54512E-003,1.00653E+000,-1.97861E-003,0.00000E+000,2.21718E-003,9.97446E-001,0.00000E+000,-2.00514E-003,-1.33257E-002,1.00000E+000,1
1249,1317,2.11897E+001,-2.56629E-001,-1.40321E-001,4.17874E-001,1.66539E-001,-9.77874E-002,4.60343E-001,6.82228E-003,4.38151E-001,0,6.58248E+000,2.71569E+000,9.99896E-001,-3.11373E+001,-2.69696E+001,9.98580E-001,6.70574E-003,-2.64320E-003,1.22416E-004,6.70734E-003,-2.64480E-003,7.50067E-001,6.75710E-003,1.00673E+000,-1.97385E-003,0.00000E+000,2.22129E-003,9.97446E-001,0.00000E+000,-1.64004E-003,-1.33171E-002,1.00000E+000,1
1249,1327,2.12153E+001,3.98372E-001,-1.19090E-001,4.17942E-001,1.65292E-001,-1.05491E-001,4.61655E-001,6.10704E-003,4.49862E-001,0,6.61283E+000,2.71493E+000,9.99893E-001,-3.06417E+001,-2.68458E+001,9.98860E-001,6.90757E-003,-2.64283E-003,1.31092E-004,6.90937E-003,-2.64463E-003,7.86265E-001,6.97240E-003,1.00693E+000,-1.96594E-003,0.00000E+000,2.22544E-003,9.97446E-001,0.00000E+000,-1.27112E-003,-1.33026E-002,1.00000E+000,1
1249,1337,2.12464E+001,1.05631E+000,-7.24337E-002,4.16198E-001,1.64163E-001,-1.15453E-001,4.62061E-001,3.82273E-003,4.24187E-001,0,6.62443E+000,2.71564E+000,9.99943E-001,-3.00200E+001,-2.67557E+001,9.99592E-001,7.11001E-003,-2.64235E-003,1.40913E-004,7.11205E-003,-2.64439E-003,8.27645E-001,7.18953E-003,1.00713E+000,-1.95574E-003,0.00000E+000,2.22961E-003,9.97447E-001,0.00000E+000,-9.00754E-004,-1.32841E-002,1.00000E+000,1
1259,1327,2.18858E+001,4.03828E-001,-1.24209E-001,4.21994E-001,1.66121E-001,-1.07134E-001,4.65997E-001,5.57572E-003,4.12631E-001,0,6.67671E+000,2.72778E+000,9.99936E-001,-3.01954E+001,-2.66825E+001,9.99157E-001,6.88579E-003,-2.64238E-003,2.53209E-004,6.89251E-003,-2.64910E-003,1.52119E+000,6.95370E-003,1.00691E+000,-1.72192E-003,0.00000E+000,2.22414E-003,9.97442E-001,0.00000E+000,-1.05391E-003,-1.29410E-002,1.00000E+000,1
1259,1337,2.19179E+001,1.06236E+000,-7.74581E-002,4.20532E-001,1.64807E-001,-1.18639E-001,4.66995E-001,5.32442E-003,3.94354E-001,0,6.69891E+000,2.73000E+000,9.99954E-001,-2.95615E+001,-2.65780E+001,9.99453E-001,7.06972E-003,-2.64088E-003,2.72236E-004,7.07735E-003,-2.64851E-003,1.60461E+000,7.15160E-003,1.00709E+000,-1.71248E-003,0.00000E+000,2.24722E-003,9.97443E-001,0.00000E+000,-6.51062E-004,-1.29205E-002,1.00000E+000,1
599,1347,-2.14377E+001,1.23731E+000,-8.60389E-002,1.39285E-001,1.06531E-001,-6.87103E-002,1.88336E-001,4.28102E-003,6.49755E-001,0,2.33344E+000,1.81102E+000,9.99941E-001,-3.80625E+001,-3.98428E+001,9.99672E-001,5.45384E-003,-2.31594E-003,-1.95388E-004,5.45875E-003,-2.32085E-003,-1.43961E+000,5.47909E-003,1.00546E+000,3.53591E-003,0.00000E+000,-3.90154E-003,9.97741E-001,0.00000E+000,3.00582E-004,-1.11562E-002,1.00000E+000,1
599,1357,-2.14202E+001,1.87717E+000,-6.30882E-002,1.41477E-001,1.04717E-001,-7.67938E-002,1.92038E-001,3.24617E-003,6.52897E-001,0,2.38871E+000,1.79250E+000,9.99937E-001,-3.75612E+001,-4.00785E+001,9.99694E-001,5.30949E-003,-2.31443E-003,-1.58832E-004,5.31280E-003,-2.31774E-003,-1.19297E+000,5.32717E-003,1.00532E+000,3.53249E-003,0.00000E+000,-3.82333E-003,9.97743E-001,0.00000E+000,8.64481E-005,-1.11612E-002,1.00000E+000,1
1259,1287,2.18380E+001,-2.18244E+000,-1.16413E-002,4.25357E-001,1.75086E-001,-7.18008E-002,4.65552E-001,6.45277E-003,4.11229E-001,0,6.58664E+000,2.78883E+000,9.99937E-001,-3.10092E+001,-2.70762E+001,9.97749E-001,6.15940E-003,-2.64479E-003,1.89589E-004,6.16348E-003,-2.64887E-003,1.23304E+000,6.18371E-003,1.00618E+000,-1.73625E-003,0.00000E+000,2.13323E-003,9.97440E-001,0.00000E+000,-2.64056E-003,-1.29723E-002,1.00000E+000,1
1259,1297,2.18381E+001,-1.54126E+000,-8.28812E-002,4.24083E-001,1.72386E-001,-8.10305E-002,4.64897E-001,4.40775E-003,4.59501E-001,0,6.60508E+000,2.76420E+000,9.99941E-001,-3.10575E+001,-2.69432E+001,9.98927E-001,6.34005E-003,-2.64468E-003,2.03798E-004,6.34467E-003,-2.64930E-003,1.29873E+000,6.37335E-003,1.00636E+000,-1.73588E-003,0.00000E+000,2.15581E-003,9.97440E-001,0.00000E+000,-2.24660E-003,-1.29715E-002,1.00000E+000,1
1259,1307,2.18454E+001,-8.96898E-001,-1.27873E-001,4.23138E-001,1.70037E-001,-8.98058E-002,4.64783E-001,4.70490E-003,4.83389E-001,0,6.62611E+000,2.74268E+000,9.99949E-001,-3.09524E+001,-2.68292E+001,9.99070E-001,6.52122E-003,-2.64427E-003,2.19030E-004,6.52645E-003,-2.64951E-003,1.36817E+000,6.56481E-003,1.00654E+000,-1.73358E-003,0.00000E+000,2.17847E-003,9.97441E-001,0.00000E+000,-1.85109E-003,-1.29664E-002,1.00000E+000,1
599,1327,-2.14603E+001,-3.15349E-002,-5.09597E-002,1.33861E-001,1.08886E-001,-5.20079E-002,1.80221E-001,3.81451E-003,6.57900E-001,0,2.20491E+000,1.81327E+000,9.99946E-001,-3.86312E+001,-3.93832E+001,9.99458E-001,5.74018E-003,-2.31740E-003,-2.69410E-004,5.74918E-003,-2.32640E-003,-1.91287E+000,5.78392E-003,1.00575E+000,3.53978E-003,0.00000E+000,-4.05681E-003,9.97739E-001,0.00000E+000,7.25676E-004,-1.11504E-002,1.00000E+000,1
599,1337,-2.14516E+001,5.99839E-001,-8.53417E-002,1.36855E-001,1.07630E-001,-6.02364E-002,1.84233E-001,3.61299E-003,6.40246E-001,0,2.27339E+000,1.81121E+000,9.99935E-001,-3.84370E+001,-3.96290E+001,9.99522E-001,5.59759E-003,-2.31700E-003,-2.32230E-004,5.60440E-003,-2.32381E-003,-1.67925E+000,5.63155E-003,1.00561E+000,3.53848E-003,0.00000E+000,-3.97947E-003,9.97740E-001,0.00000E+000,5.13936E-004,-1.11524E-002,1.00000E+000,1
1259,1317,2.18608E+001,-2.48653E-001,-1.42149E-001,4.22668E-001,1.68161E-001,-9.61963E-002,4.64952E-001,5.53577E-003,4.63765E-001,0,6.64417E+000,2.73261E+000,9.99954E-001,-3.06740E+001,-2.67444E+001,9.98962E-001,6.70305E-003,-2.64354E-003,2.35390E-004,6.70897E-003,-2.64946E-003,1.44175E+000,6.75818E-003,1.00673E+000,-1.72913E-003,0.00000E+000,2.20123E-003,9.97441E-001,0.00000E+000,-1.45371E-003,-1.29568E-002,1.00000E+000,1
599,1317,-2.14644E+001,-6.60161E-001,7.68064E-003,1.31110E-001,1.10248E-001,-4.57640E-002,1.77310E-001,5.08665E-003,6.36056E-001,0,2.14525E+000,1.82191E+000,9.99944E-001,-3.86817E+001,-3.91677E+001,9.99437E-001,5.88230E-003,-2.31730E-003,-3.06960E-004,5.89377E-003,-2.32877E-003,-2.14093E+000,5.93683E-003,1.00589E+000,3.54013E-003,0.00000E+000,-4.13393E-003,9.97739E-001,0.00000E+000,9.36820E-004,-1.11499E-002,1.00000E+000,1
589,1347,-2.20802E+001,1.23436E+000,-8.58280E-002,1.35157E-001,1.09203E-001,-6.87709E-002,1.86875E-001,3.44785E-003,6.55197E-001,0,2.26839E+000,1.85380E+000,9.99936E-001,-3.78464E+001,-3.99827E+001,9.99663E-001,5.41853E-003,-2.32991E-003,-1.60959E-004,5.42187E-003,-2.33325E-003,-1.18953E+000,5.43938E-003,1.00543E+000,3.71003E-003,0.00000E+000,-4.00520E-003,9.97725E-001,0.00000E+000,2.60486E-004,-1.09966E-002,1.00000E+000,1
589,1357,-2.20624E+001,1.87579E+000,-5.88832E-002,1.37305E-001,1.07957E-001,-7.61790E-002,1.90553E-001,3.14933E-003,6.55694E-001,0,2.32102E+000,1.85531E+000,9.99927E-001,-3.73252E+001,-4.02061E+001,9.99653E-001,5.27707E-003,-2.32838E-003,-1.24846E-004,5.27912E-003,-2.33043E-003,-9.40192E-001,5.29118E-003,1.00528E+000,3.70660E-003,0.00000E+000,-3.92762E-003,9.97727E-001,0.00000E+000,2.00390E-005,-1.10024E-002,1.00000E+000,1
589,1337,-2.20931E+001,5.97296E-001,-7.97262E-002,1.32692E-001,1.09993E-001,-6.06242E-002,1.82705E-001,3.53674E-003,6.28827E-001,0,2.20887E+000,1.85329E+000,9.99942E-001,-3.81901E+001,-3.97809E+001,9.99610E-001,5.55908E-003,-2.33082E-003,-1.97428E-004,5.56402E-003,-2.33576E-003,-1.43251E+000,5.58783E-003,1.00557E+000,3.71231E-003,0.00000E+000,-4.08233E-003,9.97724E-001,0.00000E+000,4.99537E-004,-1.09928E-002,1.00000E+000,1
589,1327,-2.21003E+001,-3.17863E-002,-4.43155E-002,1.31371E-001,1.12733E-001,-5.00283E-002,1.80194E-001,5.81697E-003,6.94981E-001,0,2.16019E+000,1.86091E+000,9.99950E-001,-3.83582E+001,-3.94759E+001,9.99416E-001,5.69842E-003,-2.33122E-003,-2.34076E-004,5.70524E-003,-2.33804E-003,-1.66837E+000,5.73610E-003,1.00571E+000,3.71362E-003,0.00000E+000,-4.15884E-003,9.97723E-001,0.00000E+000,7.36668E-004,-1.09906E-002,1.00000E+000,1
1269,1327,2.25573E+001,4.11477E-001,-1.26907E-001,4.26059E-001,1.67038E-001,-1.07894E-001,4.70180E-001,4.81421E-003,4.31199E-001,0,6.73716E+000,2.74103E+000,9.99959E-001,-2.97271E+001,-2.64626E+001,9.99201E-001,6.85295E-003,-2.63227E-003,3.36819E-004,6.86489E-003,-2.64422E-003,2.03116E+000,6.92496E-003,1.00688E+000,-1.51221E-003,0.00000E+000,2.18056E-003,9.97447E-001,0.00000E+000,-8.69639E-004,-1.25226E-002,1.00000E+000,1
1269,1337,2.25910E+001,1.07045E+000,-7.52179E-002,4.25125E-001,1.66112E-001,-1.17776E-001,4.71376E-001,4.38508E-003,3.90564E-001,0,6.76080E+000,2.74615E+000,9.99958E-001,-2.90630E+001,-2.63718E+001,9.99170E-001,7.01901E-003,-2.63022E-003,3.60143E-004,7.03243E-003,-2.64365E-003,2.13452E+000,7.10424E-003,1.00704E+000,-1.50341E-003,0.00000E+000,2.21276E-003,9.97449E-001,0.00000E+000,-4.40718E-004,-1.25000E-002,1.00000E+000,1
589,1317,-2.21047E+001,-6.61235E-001,1.58644E-002,1.28015E-001,1.13276E-001,-4.39753E-002,1.76503E-001,4.11532E-003,6.52283E-001,0,2.09186E+000,1.86075E+000,9.99908E-001,-3.84088E+001,-3.92848E+001,9.99211E-001,5.83749E-003,-2.33107E-003,-2.71189E-004,5.84649E-003,-2.34007E-003,-1.89938E+000,5.88514E-003,1.00585E+000,3.71389E-003,0.00000E+000,-4.23524E-003,9.97723E-001,0.00000E+000,9.73484E-004,-1.09901E-002,1.00000E+000,1
1269,1317,2.25346E+001,-2.40687E-001,-1.36757E-001,4.27017E-001,1.69487E-001,-9.71568E-002,4.69584E-001,5.04214E-003,4.47961E-001,0,6.70917E+000,2.75346E+000,9.99954E-001,-3.01550E+001,-2.65557E+001,9.99042E-001,6.68787E-003,-2.63369E-003,3.15017E-004,6.69850E-003,-2.64433E-003,1.93334E+000,6.74778E-003,1.00671E+000,-1.51821E-003,0.00000E+000,2.14859E-003,9.97446E-001,0.00000E+000,-1.29546E-003,-1.25380E-002,1.00000E+000,1
1269,1307,2.25195E+001,-8.88535E-001,-1.22181E-001,4.27853E-001,1.71539E-001,-9.04435E-002,4.69748E-001,4.63331E-003,4.72019E-001,0,6.69511E+000,2.77073E+000,9.99946E-001,-3.04276E+001,-2.66341E+001,9.99007E-001,6.52368E-003,-2.63467E-003,2.94307E-004,6.53313E-003,-2.64412E-003,1.83869E+000,6.57254E-003,1.00655E+000,-1.52224E-003,0.00000E+000,2.11683E-003,9.97445E-001,0.00000E+000,-1.71844E-003,-1.25484E-002,1.00000E+000,1
1269,1297,2.25096E+001,-1.53457E+000,-8.57255E-002,4.28763E-001,1.73472E-001,-8.08955E-002,4.69547E-001,5.26730E-003,4.43687E-001,0,6.67064E+000,2.79132E+000,9.99949E-001,-3.05857E+001,-2.67597E+001,9.98783E-001,6.35971E-003,-2.63535E-003,2.74288E-004,6.36806E-003,-2.64371E-003,1.74497E+000,6.39855E-003,1.00638E+000,-1.52499E-003,0.00000E+000,2.08515E-003,9.97445E-001,0.00000E+000,-2.14033E-003,-1.25554E-002,1.00000E+000,1
1269,1287,2.25110E+001,-2.17510E+000,-1.00348E-002,4.29332E-001,1.75570E-001,-7.55345E-002,4.69953E-001,9.40826E-003,4.23428E-001,0,6.65696E+000,2.80615E+000,9.99954E-001,-3.05070E+001,-2.68794E+001,9.97314E-001,6.19674E-003,-2.63537E-003,2.55888E-004,6.20415E-003,-2.64278E-003,1.65815E+000,6.22677E-003,1.00622E+000,-1.52476E-003,0.00000E+000,2.05371E-003,9.97445E-001,0.00000E+000,-2.55910E-003,-1.25548E-002,1.00000E+000,1
579,1347,-2.27210E+001,1.23167E+000,-8.29152E-002,1.31747E-001,1.11261E-001,-7.03633E-002,1.86245E-001,2.88788E-003,6.62281E-001,0,2.21861E+000,1.89317E+000,9.99949E-001,-3.75905E+001,-4.01237E+001,9.99713E-001,5.33581E-003,-2.35009E-003,-1.28245E-004,5.33795E-003,-2.35223E-003,-9.55669E-001,5.35046E-003,1.00534E+000,3.88444E-003,0.00000E+000,-4.11164E-003,9.97703E-001,0.00000E+000,1.17612E-004,-1.08384E-002,1.00000E+000,1
579,1357,-2.27028E+001,1.87314E+000,-5.37605E-002,1.34064E-001,1.09721E-001,-7.74285E-002,1.89755E-001,4.17475E-003,6.72057E-001,0,2.27295E+000,1.88854E+000,9.99928E-001,-3.70559E+001,-4.03486E+001,9.99663E-001,5.18930E-003,-2.34870E-003,-9.56783E-005,5.19052E-003,-2.34992E-003,-7.27087E-001,5.19824E-003,1.00520E+000,3.88086E-003,0.00000E+000,-4.04028E-003,9.97705E-001,0.00000E+000,-1.95516E-004,-1.08460E-002,1.00000E+000,1
579,1337,-2.27335E+001,5.94675E-001,-7.67771E-002,1.29499E-001,1.11887E-001,-6.22110E-002,1.82096E-001,2.76627E-003,6.46088E-001,0,2.16262E+000,1.88531E+000,9.99946E-001,-3.79303E+001,-3.99140E+001,9.99698E-001,5.48123E-003,-2.35089E-003,-1.61214E-004,5.48455E-003,-2.35421E-003,-1.17869E+000,5.50283E-003,1.00549E+000,3.88677E-003,0.00000E+000,-4.18253E-003,9.97702E-001,0.00000E+000,4.28704E-004,-1.08334E-002,1.00000E+000,1
579,1327,-2.27424E+001,-3.44612E-002,-4.55212E-002,1.26960E-001,1.14361E-001,-5.20617E-002,1.78628E-001,4.77383E-003,7.07196E-001,0,2.09636E+000,1.90096E+000,9.99943E-001,-3.81383E+001,-3.96017E+001,9.99117E-001,5.62535E-003,-2.35130E-003,-1.94332E-004,5.63009E-003,-2.35603E-003,-1.39477E+000,5.65498E-003,1.00563E+000,3.88824E-003,0.00000E+000,-4.25284E-003,9.97701E-001,0.00000E+000,7.37265E-004,-1.08303E-002,1.00000E+000,1
579,1317,-2.27465E+001,-6.60356E-001,1.46514E-002,1.24119E-001,1.16931E-001,-4.43970E-002,1.76209E-001,5.72311E-003,7.14743E-001,0,2.03155E+000,1.92767E+000,9.99906E-001,-3.81838E+001,-3.93292E+001,9.98840E-001,5.76889E-003,-2.35118E-003,-2.27909E-004,5.77528E-003,-2.35757E-003,-1.60646E+000,5.80762E-003,1.00578E+000,3.88857E-003,0.00000E+000,-4.32293E-003,9.97701E-001,0.00000E+000,1.04483E-003,-1.08296E-002,1.00000E+000,1
1279,1317,2.32053E+001,-2.35089E-001,-1.42841E-001,4.31182E-001,1.70806E-001,-9.71115E-002,4.73839E-001,4.76686E-003,4.14786E-001,0,6.76750E+000,2.77191E+000,9.99928E-001,-2.96982E+001,-2.63880E+001,9.98580E-001,6.63161E-003,-2.61957E-003,3.54242E-004,6.64515E-003,-2.63311E-003,2.18967E+000,6.69267E-003,1.00665E+000,-1.35935E-003,0.00000E+000,2.06880E-003,9.97456E-001,0.00000E+000,-1.27140E-003,-1.21601E-002,1.00000E+000,1
1279,1327,2.32304E+001,4.20311E-001,-1.23930E-001,4.30906E-001,1.69109E-001,-1.04226E-001,4.74490E-001,6.46877E-003,4.40095E-001,0,6.79099E+000,2.76436E+000,9.99954E-001,-2.92219E+001,-2.62418E+001,9.99035E-001,6.80311E-003,-2.61713E-003,3.87940E-004,6.81906E-003,-2.63308E-003,2.35422E+000,6.87774E-003,1.00683E+000,-1.35272E-003,0.00000E+000,2.12273E-003,9.97458E-001,0.00000E+000,-7.38004E-004,-1.21396E-002,1.00000E+000,1
1279,1337,2.32640E+001,1.08068E+000,-7.37882E-002,4.29771E-001,1.68023E-001,-1.15166E-001,4.75603E-001,4.17482E-003,4.29754E-001,0,6.81614E+000,2.77540E+000,9.99970E-001,-2.85640E+001,-2.61094E+001,9.99458E-001,6.97530E-003,-2.61382E-003,4.23041E-004,6.99393E-003,-2.63245E-003,2.52117E+000,7.06481E-003,1.00700E+000,-1.34359E-003,0.00000E+000,2.17699E-003,9.97461E-001,0.00000E+000,-2.01454E-004,-1.21113E-002,1.00000E+000,1
1279,1307,2.31889E+001,-8.82433E-001,-1.31675E-001,4.32027E-001,1.73382E-001,-8.92941E-002,4.74006E-001,5.34049E-003,4.61569E-001,0,6.74887E+000,2.79684E+000,9.99952E-001,-2.99950E+001,-2.64415E+001,9.98323E-001,6.46156E-003,-2.62126E-003,3.21899E-004,6.47295E-003,-2.63265E-003,2.02719E+000,6.51040E-003,1.00648E+000,-1.36388E-003,0.00000E+000,2.01541E-003,9.97454E-001,0.00000E+000,-1.79930E-003,-1.21741E-002,1.00000E+000,1
1279,1297,2.31818E+001,-1.52868E+000,-8.30837E-002,4.32354E-001,1.74601E-001,-8.04763E-002,4.73172E-001,8.51081E-003,3.88828E-001,0,6.71852E+000,2.81341E+000,9.99964E-001,-3.00904E+001,-2.66198E+001,9.98800E-001,6.29171E-003,-2.62204E-003,2.90921E-004,6.30120E-003,-2.63153E-003,1.86733E+000,6.32964E-003,1.00631E+000,-1.36583E-003,0.00000E+000,1.96219E-003,9.97454E-001,0.00000E+000,-2.32560E-003,-1.21802E-002,1.00000E+000,1
1279,1287,2.31794E+001,-2.17241E+000,-2.49262E-002,4.33035E-001,1.75267E-001,-7.80748E-002,4.73639E-001,8.43487E-003,3.66465E-001,0,6.71912E+000,2.82158E+000,9.99940E-001,-3.00981E+001,-2.67550E+001,9.98276E-001,6.12231E-003,-2.62243E-003,2.60645E-004,6.13007E-003,-2.63019E-003,1.70574E+000,6.15060E-003,1.00614E+000,-1.36665E-003,0.00000E+000,1.90921E-003,9.97453E-001,0.00000E+000,-2.84959E-003,-1.21827E-002,1.00000E+000,1
569,1347,-2.33608E+001,1.23035E+000,-7.94605E-002,1.29156E-001,1.14594E-001,-6.97379E-002,1.86216E-001,2.69923E-003,6.83085E-001,0,2.17559E+000,1.94548E+000,9.99962E-001,-3.73145E+001,-4.02380E+001,9.99690E-001,5.29799E-003,-2.35007E-003,-1.16399E-004,5.29977E-003,-2.35184E-003,-8.71740E-001,5.31093E-003,1.00530E+000,4.05912E-003,0.00000E+000,-4.26013E-003,9.97700E-001,0.00000E+000,-8.63245E-006,-1.06075E-002,1.00000E+000,1
569,1357,-2.33434E+001,1.86975E+000,-5.66312E-002,1.32077E-001,1.13343E-001,-7.54663E-002,1.89700E-001,3.20685E-003,6.75857E-001,0,2.23582E+000,1.93517E+000,9.99939E-001,-3.68103E+001,-4.04908E+001,9.99663E-001,5.15591E-003,-2.34906E-003,-8.98711E-005,5.15698E-003,-2.35014E-003,-6.85979E-001,5.16372E-003,1.00516E+000,4.05596E-003,0.00000E+000,-4.20017E-003,9.97701E-001,0.00000E+000,-4.30297E-004,-1.06169E-002,1.00000E+000,1
569,1327,-2.33839E+001,-3.76202E-002,-5.13838E-002,1.23538E-001,1.16568E-001,-5.45485E-002,1.78397E-001,6.63558E-003,7.12182E-001,0,2.04888E+000,1.94737E+000,9.99957E-001,-3.79183E+001,-3.97285E+001,9.99554E-001,5.57962E-003,-2.35111E-003,-1.70300E-004,5.58327E-003,-2.35477E-003,-1.22958E+000,5.60602E-003,1.00559E+000,4.06299E-003,0.00000E+000,-4.37923E-003,9.97698E-001,0.00000E+000,8.28900E-004,-1.05961E-002,1.00000E+000,1
569,1337,-2.33733E+001,5.94151E-001,-7.06088E-002,1.26141E-001,1.15025E-001,-6.26208E-002,1.81835E-001,2.42933E-003,6.67984E-001,0,2.11040E+000,1.94030E+000,9.99959E-001,-3.76477E+001,-4.00196E+001,9.99773E-001,5.43923E-003,-2.35066E-003,-1.43331E-004,5.44187E-003,-2.35329E-003,-1.05374E+000,5.45840E-003,1.00545E+000,4.06123E-003,0.00000E+000,-4.31982E-003,9.97699E-001,0.00000E+000,4.11111E-004,-1.06013E-002,1.00000E+000,1
1289,1327,2.38994E+001,4.25816E-001,-1.38532E-001,4.34172E-001,1.70120E-001,-1.07312E-001,4.78500E-001,5.03112E-003,4.24540E-001,0,6.84874E+000,2.78763E+000,9.99951E-001,-2.88029E+001,-2.60467E+001,9.99028E-001,6.73074E-003,-2.55152E-003,4.45599E-004,6.75208E-003,-2.57286E-003,2.74210E+000,6.81548E-003,1.00675E+000,-1.19014E-003,0.00000E+000,2.07520E-003,9.97517E-001,0.00000E+000,-6.23986E-004,-1.15755E-002,1.00000E+000,1
1289,1337,2.39338E+001,1.08638E+000,-8.63347E-002,4.33729E-001,1.68788E-001,-1.15517E-001,4.79536E-001,4.76972E-003,4.31314E-001,0,6.87353E+000,2.78504E+000,9.99979E-001,-2.81334E+001,-2.59054E+001,9.99216E-001,6.89696E-003,-2.54724E-003,4.89575E-004,6.92227E-003,-2.57255E-003,2.95957E+000,6.99790E-003,1.00692E+000,-1.18133E-003,0.00000E+000,2.14725E-003,9.97520E-001,0.00000E+000,-3.71171E-005,-1.15446E-002,1.00000E+000,1
569,1317,-2.33863E+001,-6.62261E-001,1.96898E-002,1.20838E-001,1.20055E-001,-4.52336E-002,1.76242E-001,6.37563E-003,6.87394E-001,0,1.98196E+000,1.98245E+000,9.99927E-001,-3.79050E+001,-3.94743E+001,9.99085E-001,5.71906E-003,-2.35088E-003,-1.98004E-004,5.72392E-003,-2.35573E-003,-1.40468E+000,5.75369E-003,1.00573E+000,4.06298E-003,0.00000E+000,-4.43834E-003,9.97698E-001,0.00000E+000,1.24450E-003,-1.05961E-002,1.00000E+000,1
1289,1317,2.38775E+001,-2.24973E-001,-1.47729E-001,4.35194E-001,1.72835E-001,-9.93880E-002,4.78689E-001,7.06789E-003,4.77789E-001,0,6.83241E+000,2.80902E+000,9.99959E-001,-2.92149E+001,-2.61046E+001,9.98399E-001,6.56610E-003,-2.55439E-003,4.03559E-004,6.58392E-003,-2.57221E-003,2.52861E+000,6.63617E-003,1.00659E+000,-1.19594E-003,0.00000E+000,2.00400E-003,9.97514E-001,0.00000E+000,-1.20398E-003,-1.15959E-002,1.00000E+000,1
1289,1287,2.38507E+001,-2.16427E+000,-3.09180E-002,4.37445E-001,1.77775E-001,-7.79944E-002,4.78587E-001,7.04608E-003,4.13886E-001,0,6.77994E+000,2.84970E+000,9.99952E-001,-2.96268E+001,-2.65125E+001,9.98838E-001,6.07353E-003,-2.55822E-003,2.83257E-004,6.08281E-003,-2.56750E-003,1.87751E+000,6.10738E-003,1.00610E+000,-1.20330E-003,0.00000E+000,1.79193E-003,9.97511E-001,0.00000E+000,-2.93146E-003,-1.16217E-002,1.00000E+000,1
1289,1297,2.38570E+001,-1.52155E+000,-7.64421E-002,4.37083E-001,1.76313E-001,-8.07750E-002,4.78176E-001,7.93058E-003,3.61373E-001,0,6.78583E+000,2.83185E+000,9.99968E-001,-2.95405E+001,-2.64556E+001,9.98927E-001,6.23713E-003,-2.55731E-003,3.22754E-004,6.24896E-003,-2.56914E-003,2.09897E+000,6.28178E-003,1.00626E+000,-1.20162E-003,0.00000E+000,1.86222E-003,9.97512E-001,0.00000E+000,-2.35895E-003,-1.16158E-002,1.00000E+000,1
1289,1307,2.38626E+001,-8.74352E-001,-1.30832E-001,4.36343E-001,1.74495E-001,-9.09189E-002,4.78655E-001,7.46811E-003,4.98418E-001,0,6.81583E+000,2.80683E+000,9.99969E-001,-2.94782E+001,-2.62166E+001,9.98379E-001,6.40161E-003,-2.55643E-003,3.62506E-004,6.41626E-003,-2.57107E-003,2.31355E+000,6.45829E-003,1.00642E+000,-1.20000E-003,0.00000E+000,1.93303E-003,9.97512E-001,0.00000E+000,-1.78212E-003,-1.16101E-002,1.00000E+000,1
559,1327,-2.40235E+001,-3.74115E-002,-5.18540E-002,1.20659E-001,1.20522E-001,-5.72563E-002,1.79896E-001,1.14003E-002,7.56177E-001,0,2.00982E+000,2.01431E+000,9.99956E-001,-3.76490E+001,-3.97958E+001,9.99600E-001,5.53296E-003,-2.33531E-003,-1.58037E-004,5.53613E-003,-2.33848E-003,-1.15019E+000,5.55831E-003,1.00554E+000,4.23506E-003,0.00000E+000,-4.52616E-003,9.97709E-001,0.00000E+000,9.02509E-004,-1.01817E-002,1.00000E+000,1
559,1337,-2.40135E+001,5.92105E-001,-7.15194E-002,1.22998E-001,1.17876E-001,-6.42721E-002,1.82083E-001,3.24326E-003,6.89145E-001,0,2.06467E+000,1.98775E+000,9.99953E-001,-3.73886E+001,-4.01336E+001,9.99762E-001,5.38966E-003,-2.33485E-003,-1.28499E-004,5.39180E-003,-2.33699E-003,-9.52777E-001,5.40771E-003,1.00540E+000,4.23334E-003,0.00000E+000,-4.46127E-003,9.97710E-001,0.00000E+000,4.26299E-004,-1.01873E-002,1.00000E+000,1
559,1347,-2.40011E+001,1.22677E+000,-7.74331E-002,1.25951E-001,1.17668E-001,-6.90654E-002,1.85687E-001,3.44904E-003,6.56691E-001,0,2.12288E+000,1.98974E+000,9.99945E-001,-3.70468E+001,-4.04076E+001,9.99682E-001,5.24560E-003,-2.33422E-003,-9.90569E-005,5.24690E-003,-2.33552E-003,-7.48599E-001,5.25742E-003,1.00525E+000,4.23120E-003,0.00000E+000,-4.39616E-003,9.97711E-001,0.00000E+000,-5.16192E-005,-1.01944E-002,1.00000E+000,1
559,1357,-2.39845E+001,1.86518E+000,-5.84959E-002,1.28906E-001,1.16500E-001,-7.49434E-002,1.89224E-001,2.96416E-003,6.38754E-001,0,2.18393E+000,1.98173E+000,9.99949E-001,-3.65640E+001,-4.06741E+001,9.99747E-001,5.10044E-003,-2.33321E-003,-6.98975E-005,5.10109E-003,-2.33387E-003,-5.38681E-001,5.10722E-003,1.00510E+000,4.22814E-003,0.00000E+000,-4.33066E-003,9.97712E-001,0.00000E+000,-5.32347E-004,-1.02045E-002,1.00000E+000,1
559,1317,-2.40251E+001,-6.62806E-001,2.10803E-002,1.18373E-001,1.22639E-001,-4.88113E-002,1.77299E-001,1.06668E-002,7.45201E-001,0,1.95206E+000,2.02292E+000,9.99947E-001,-3.76170E+001,-3.95483E+001,9.99445E-001,5.67539E-003,-2.33500E-003,-1.88353E-004,5.67982E-003,-2.33943E-003,-1.34624E+000,5.70915E-003,1.00568E+000,4.23495E-003,0.00000E+000,-4.59076E-003,9.97709E-001,0.00000E+000,1.37670E-003,-1.01820E-002,1.00000E+000,1
1299,1327,2.45745E+001,4.34639E-001,-1.37457E-001,4.38900E-001,1.71515E-001,-1.09690E-001,4.83821E-001,5.23714E-003,4.38780E-001,0,6.92506E+000,2.81150E+000,9.99958E-001,-2.82629E+001,-2.58192E+001,9.99562E-001,6.65929E-003,-2.46554E-003,4.78806E-004,6.68434E-003,-2.49059E-003,2.99551E+000,6.75628E-003,1.00668E+000,-1.05185E-003,0.00000E+000,2.00226E-003,9.97595E-001,0.00000E+000,-4.38311E-004,-1.08905E-002,1.00000E+000,1
1299,1337,2.46107E+001,1.09692E+000,-7.82061E-002,4.38743E-001,1.70242E-001,-1.15390E-001,4.84554E-001,6.09066E-003,4.70594E-001,0,6.94402E+000,2.80317E+000,9.99962E-001,-2.75583E+001,-2.56530E+001,9.99056E-001,6.80793E-003,-2.46077E-003,5.25308E-004,6.83761E-003,-2.49044E-003,3.23347E+000,6.92113E-003,1.00683E+000,-1.04365E-003,0.00000E+000,2.07967E-003,9.97599E-001,0.00000E+000,2.16242E-004,-1.08546E-002,1.00000E+000,1
1299,1287,2.45266E+001,-2.15392E+000,-2.37626E-002,4.41551E-001,1.79299E-001,-8.05391E-002,4.83324E-001,6.07316E-003,5.03459E-001,0,6.84686E+000,2.86237E+000,9.99958E-001,-2.90624E+001,-2.62422E+001,9.98707E-001,6.07202E-003,-2.47249E-003,3.06631E-004,6.08301E-003,-2.48348E-003,2.05261E+000,6.11704E-003,1.00609E+000,-1.06329E-003,0.00000E+000,1.69874E-003,9.97589E-001,0.00000E+000,-3.00495E-003,-1.09405E-002,1.00000E+000,1
1299,1297,2.45313E+001,-1.51249E+000,-7.84082E-002,4.41052E-001,1.76806E-001,-8.70633E-002,4.83081E-001,6.42336E-003,4.64724E-001,0,6.86643E+000,2.83372E+000,9.99956E-001,-2.90143E+001,-2.61777E+001,9.99019E-001,6.21843E-003,-2.47170E-003,3.48544E-004,6.23238E-003,-2.48566E-003,2.29311E+000,6.27477E-003,1.00624E+000,-1.06211E-003,0.00000E+000,1.77407E-003,9.97590E-001,0.00000E+000,-2.36795E-003,-1.09354E-002,1.00000E+000,1
1299,1307,2.45425E+001,-8.63513E-001,-1.06474E-001,4.41708E-001,1.76219E-001,-8.62703E-002,4.83324E-001,1.16202E-002,5.17933E-001,0,6.87249E+000,2.81605E+000,9.99957E-001,-2.88258E+001,-2.60079E+001,9.99075E-001,6.36560E-003,-2.47023E-003,3.91401E-004,6.38290E-003,-2.48754E-003,2.53142E+000,6.43445E-003,1.00639E+000,-1.05972E-003,0.00000E+000,1.85002E-003,9.97591E-001,0.00000E+000,-1.72569E-003,-1.09249E-002,1.00000E+000,1
1299,1317,2.45559E+001,-2.15176E-001,-1.30180E-001,4.39625E-001,1.73621E-001,-9.90073E-002,4.82925E-001,8.35566E-003,4.90755E-001,0,6.89302E+000,2.81603E+000,9.99956E-001,-2.85974E+001,-2.58997E+001,9.99140E-001,6.51258E-003,-2.46813E-003,4.34866E-004,6.53359E-003,-2.48914E-003,2.76576E+000,6.59500E-003,1.00653E+000,-1.05623E-003,0.00000E+000,1.92610E-003,9.97593E-001,0.00000E+000,-1.08237E-003,-1.09096E-002,1.00000E+000,1
559,1307,-2.40265E+001,-1.28729E+000,1.01807E-001,1.14451E-001,1.24513E-001,-4.36222E-002,1.74658E-001,4.57196E-003,7.14389E-001,0,1.87682E+000,2.03854E+000,9.99896E-001,-3.75584E+001,-3.93133E+001,9.99276E-001,5.81741E-003,-2.33453E-003,-2.18823E-004,5.82328E-003,-2.34040E-003,-1.53652E+000,5.86052E-003,1.00583E+000,4.23446E-003,0.00000E+000,-4.65530E-003,9.97709E-001,0.00000E+000,1.85034E-003,-1.01836E-002,1.00000E+000,1
549,1347,-2.46409E+001,1.22609E+000,-7.42406E-002,1.22812E-001,1.21366E-001,-6.70754E-002,1.85234E-001,2.92118E-003,6.92677E-001,0,2.06775E+000,2.04495E+000,9.99939E-001,-3.67640E+001,-4.05040E+001,9.99696E-001,5.20351E-003,-2.34523E-003,-6.69057E-005,5.20410E-003,-2.34582E-003,-5.07769E-001,5.21250E-003,1.00521E+000,4.40160E-003,0.00000E+000,-4.50141E-003,9.97694E-001,0.00000E+000,-3.98948E-005,-9.71049E-003,1.00000E+000,1
549,1357,-2.46239E+001,1.86522E+000,-5.01528E-002,1.25440E-001,1.20099E-001,-7.30857E-002,1.88416E-001,2.76254E-003,6.84798E-001,0,2.12391E+000,2.03400E+000,9.99949E-001,-3.62576E+001,-4.07680E+001,9.99790E-001,5.05610E-003,-2.34396E-003,-3.18039E-005,5.05624E-003,-2.34409E-003,-2.46239E-001,5.06070E-003,1.00506E+000,4.39835E-003,0.00000E+000,-4.42388E-003,9.97696E-001,0.00000E+000,-5.46017E-004,-9.72160E-003,1.00000E+000,1
549,1327,-2.46620E+001,-3.79431E-002,-3.86016E-002,1.16901E-001,1.24373E-001,-5.62217E-002,1.79709E-001,8.15995E-003,7.44337E-001,0,1.94743E+000,2.06699E+000,9.99899E-001,-3.73172E+001,-3.99317E+001,9.98836E-001,5.49506E-003,-2.34629E-003,-1.38020E-004,5.49749E-003,-2.34872E-003,-1.00807E+000,5.51686E-003,1.00550E+000,4.40508E-003,0.00000E+000,-4.65519E-003,9.97693E-001,0.00000E+000,9.64107E-004,-9.69859E-003,1.00000E+000,1
549,1337,-2.46528E+001,5.90172E-001,-6.67759E-002,1.20066E-001,1.22224E-001,-6.27655E-002,1.82467E-001,3.16885E-003,6.80176E-001,0,2.01383E+000,2.03934E+000,9.99941E-001,-3.70932E+001,-4.02732E+001,9.99733E-001,5.35009E-003,-2.34593E-003,-1.02462E-004,5.35145E-003,-2.34729E-003,-7.62634E-001,5.36487E-003,1.00535E+000,4.40368E-003,0.00000E+000,-4.57865E-003,9.97693E-001,0.00000E+000,4.64401E-004,-9.70339E-003,1.00000E+000,1
1309,1317,2.52267E+001,-2.10867E-001,-1.43502E-001,4.43899E-001,1.74130E-001,-1.00518E-001,4.87311E-001,5.63810E-003,4.64831E-001,0,6.95943E+000,2.82609E+000,9.99948E-001,-2.81409E+001,-2.57330E+001,9.99405E-001,6.43427E-003,-2.39497E-003,4.26860E-004,6.45486E-003,-2.41555E-003,2.76145E+000,6.52259E-003,1.00646E+000,-9.66101E-004,0.00000E+000,1.82059E-003,9.97659E-001,0.00000E+000,-1.10908E-003,-1.02528E-002,1.00000E+000,1
1309,1327,2.52485E+001,4.41470E-001,-1.38638E-001,4.43505E-001,1.72571E-001,-1.08797E-001,4.88175E-001,6.37837E-003,4.20195E-001,0,6.98646E+000,2.82595E+000,9.99947E-001,-2.77410E+001,-2.56344E+001,9.99322E-001,6.55635E-003,-2.39218E-003,4.68372E-004,6.58080E-003,-2.41663E-003,2.98801E+000,6.65770E-003,1.00658E+000,-9.61947E-004,0.00000E+000,1.89253E-003,9.97661E-001,0.00000E+000,-4.58762E-004,-1.02307E-002,1.00000E+000,1
1309,1337,2.52828E+001,1.10247E+000,-8.73058E-002,4.42593E-001,1.70684E-001,-1.17544E-001,4.88711E-001,6.09197E-003,4.47156E-001,0,7.00698E+000,2.81433E+000,9.99970E-001,-2.70801E+001,-2.54716E+001,9.99496E-001,6.67950E-003,-2.38783E-003,5.11566E-004,6.70827E-003,-2.41661E-003,3.21893E+000,6.79506E-003,1.00670E+000,-9.55359E-004,0.00000E+000,1.96536E-003,9.97665E-001,0.00000E+000,1.99659E-004,-1.01957E-002,1.00000E+000,1
549,1317,-2.46653E+001,-6.64181E-001,2.26646E-002,1.14007E-001,1.25009E-001,-5.20856E-002,1.77024E-001,6.99110E-003,7.72499E-001,0,1.89143E+000,2.06565E+000,9.99919E-001,-3.73480E+001,-3.96509E+001,9.99293E-001,5.63930E-003,-2.34604E-003,-1.74082E-004,5.64309E-003,-2.34984E-003,-1.24827E+000,5.66932E-003,1.00565E+000,4.40523E-003,0.00000E+000,-4.73149E-003,9.97692E-001,0.00000E+000,1.46223E-003,-9.69808E-003,1.00000E+000,1
549,1307,-2.46669E+001,-1.28769E+000,9.93779E-002,1.10943E-001,1.28497E-001,-4.52747E-002,1.75697E-001,4.64804E-003,7.27747E-001,0,1.82537E+000,2.10945E+000,9.99900E-001,-3.73021E+001,-3.93976E+001,9.99365E-001,5.78340E-003,-2.34557E-003,-2.10396E-004,5.78884E-003,-2.35102E-003,-1.48162E+000,5.82275E-003,1.00579E+000,4.40494E-003,0.00000E+000,-4.80786E-003,9.97693E-001,0.00000E+000,1.96084E-003,-9.69907E-003,1.00000E+000,1
1309,1287,2.52042E+001,-2.14780E+000,-1.21280E-002,4.46060E-001,1.79603E-001,-8.19257E-002,4.87789E-001,5.90606E-003,4.56295E-001,0,6.91559E+000,2.86778E+000,9.99955E-001,-2.84609E+001,-2.61155E+001,9.98505E-001,6.06851E-003,-2.39825E-003,3.07180E-004,6.07964E-003,-2.40938E-003,2.07510E+000,6.12307E-003,1.00609E+000,-9.70728E-004,0.00000E+000,1.60660E-003,9.97656E-001,0.00000E+000,-3.04356E-003,-1.02773E-002,1.00000E+000,1
1309,1297,2.52064E+001,-1.50484E+000,-7.62073E-002,4.44763E-001,1.76937E-001,-9.11514E-002,4.87267E-001,7.23515E-003,4.90848E-001,0,6.93455E+000,2.84270E+000,9.99937E-001,-2.84666E+001,-2.59695E+001,9.98816E-001,6.19058E-003,-2.39773E-003,3.46541E-004,6.20454E-003,-2.41169E-003,2.30691E+000,6.25557E-003,1.00621E+000,-9.70072E-004,0.00000E+000,1.67776E-003,9.97657E-001,0.00000E+000,-2.40026E-003,-1.02739E-002,1.00000E+000,1
1309,1307,2.52108E+001,-8.61939E-001,-1.29046E-001,4.44367E-001,1.75821E-001,-9.43930E-002,4.87119E-001,6.50302E-003,4.28388E-001,0,6.94189E+000,2.83936E+000,9.99945E-001,-2.84200E+001,-2.58974E+001,9.99499E-001,6.31189E-003,-2.39704E-003,3.85926E-004,6.32896E-003,-2.41411E-003,2.53238E+000,6.38800E-003,1.00633E+000,-9.69159E-004,0.00000E+000,1.74874E-003,9.97657E-001,0.00000E+000,-1.75865E-003,-1.02690E-002,1.00000E+000,1
539,1347,-2.52812E+001,1.22313E+000,-7.31547E-002,1.18772E-001,1.24133E-001,-6.82799E-002,1.84873E-001,3.26227E-003,6.69620E-001,0,2.00667E+000,2.09912E+000,9.99945E-001,-3.64895E+001,-4.06606E+001,9.99584E-001,5.15182E-003,-2.38593E-003,-4.60061E-005,5.15210E-003,-2.38622E-003,-3.49683E-001,5.15676E-003,1.00515E+000,4.56231E-003,0.00000E+000,-4.61839E-003,9.97647E-001,0.00000E+000,-1.40240E-004,-9.04592E-003,1.00000E+000,1
539,1357,-2.52651E+001,1.86222E+000,-5.47901E-002,1.21579E-001,1.23520E-001,-7.40289E-002,1.88465E-001,2.86932E-003,6.65440E-001,0,2.06481E+000,2.10238E+000,9.99955E-001,-3.60130E+001,-4.09125E+001,9.99748E-001,5.01391E-003,-2.38444E-003,5.91801E-007,5.01391E-003,-2.38444E-003,4.58314E-003,5.01590E-003,1.00502E+000,4.55951E-003,0.00000E+000,-4.51765E-003,9.97649E-001,0.00000E+000,-7.62031E-004,-9.05853E-003,1.00000E+000,1
539,1327,-2.53018E+001,-4.29478E-002,-4.24379E-002,1.13591E-001,1.26878E-001,-5.95978E-002,1.80424E-001,3.90948E-003,6.87400E-001,0,1.90338E+000,2.11104E+000,9.99902E-001,-3.70537E+001,-4.01222E+001,9.99209E-001,5.42474E-003,-2.38734E-003,-1.39774E-004,5.42724E-003,-2.38984E-003,-1.02470E+000,5.44010E-003,1.00543E+000,4.56562E-003,0.00000E+000,-4.81866E-003,9.97645E-001,0.00000E+000,1.09580E-003,-9.03106E-003,1.00000E+000,1
539,1337,-2.52926E+001,5.87960E-001,-6.56254E-002,1.16242E-001,1.25470E-001,-6.42727E-002,1.82718E-001,3.12901E-003,6.67520E-001,0,1.95679E+000,2.09660E+000,9.99945E-001,-3.68139E+001,-4.04114E+001,9.99598E-001,5.28887E-003,-2.38681E-003,-9.29004E-005,5.28999E-003,-2.38793E-003,-6.93328E-001,5.29832E-003,1.00529E+000,4.56421E-003,0.00000E+000,-4.71881E-003,9.97646E-001,0.00000E+000,4.79527E-004,-9.03737E-003,1.00000E+000,1
1319,1297,2.58766E+001,-1.50171E+000,-8.72378E-002,4.48115E-001,1.77921E-001,-9.07724E-002,4.90614E-001,5.79820E-003,4.07071E-001,0,6.97905E+000,2.86529E+000,9.99929E-001,-2.80095E+001,-2.58584E+001,9.99127E-001,6.15103E-003,-2.24927E-003,3.29514E-004,6.16394E-003,-2.26217E-003,2.24292E+000,6.23620E-003,1.00617E+000,-9.19179E-004,0.00000E+000,1.59184E-003,9.97797E-001,0.00000E+000,-2.41946E-003,-9.45606E-003,1.00000E+000,1
1319,1307,2.58842E+001,-8.57503E-001,-1.32683E-001,4.47499E-001,1.75308E-001,-9.82614E-002,4.90554E-001,6.01710E-003,3.75545E-001,0,7.00100E+000,2.84673E+000,9.99950E-001,-2.79050E+001,-2.57647E+001,9.99481E-001,6.25053E-003,-2.24790E-003,3.79448E-004,6.26744E-003,-2.26481E-003,2.55144E+000,6.34724E-003,1.00627E+000,-9.17934E-004,0.00000E+000,1.68353E-003,9.97798E-001,0.00000E+000,-1.71884E-003,-9.44722E-003,1.00000E+000,1
539,1307,-2.53061E+001,-1.28985E+000,1.01902E-001,1.07627E-001,1.32326E-001,-4.51824E-002,1.76452E-001,3.77571E-003,6.81178E-001,0,1.77251E+000,2.17210E+000,9.99904E-001,-3.70106E+001,-3.95493E+001,9.99346E-001,5.69345E-003,-2.38629E-003,-2.34378E-004,5.70024E-003,-2.39308E-003,-1.66018E+000,5.72462E-003,1.00570E+000,4.56539E-003,0.00000E+000,-5.01702E-003,9.97645E-001,0.00000E+000,2.32006E-003,-9.03209E-003,1.00000E+000,1
539,1317,-2.53054E+001,-6.68134E-001,2.05819E-002,1.10761E-001,1.29252E-001,-5.17486E-002,1.77910E-001,3.67036E-003,6.84496E-001,0,1.83888E+000,2.13488E+000,9.99901E-001,-3.70824E+001,-3.98428E+001,9.99364E-001,5.55951E-003,-2.38704E-003,-1.86994E-004,5.56390E-003,-2.39143E-003,-1.34726E+000,5.58215E-003,1.00557E+000,4.56582E-003,0.00000E+000,-4.91800E-003,9.97644E-001,0.00000E+000,1.70889E-003,-9.03014E-003,1.00000E+000,1
1319,1287,2.58773E+001,-2.14316E+000,-1.87464E-002,4.49888E-001,1.79435E-001,-8.57697E-002,4.91886E-001,6.93858E-003,4.41461E-001,0,6.98459E+000,2.87333E+000,9.99937E-001,-2.79528E+001,-2.59574E+001,9.98919E-001,6.05155E-003,-2.24955E-003,2.80375E-004,6.06101E-003,-2.25901E-003,1.93227E+000,6.12613E-003,1.00607E+000,-9.19345E-004,0.00000E+000,1.50061E-003,9.97797E-001,0.00000E+000,-3.11647E-003,-9.45723E-003,1.00000E+000,1
529,1327,-2.59407E+001,-4.52768E-002,-3.80769E-002,1.09876E-001,1.29869E-001,-6.02679E-002,1.80474E-001,3.52980E-003,6.57095E-001,0,1.84601E+000,2.16473E+000,9.99935E-001,-3.67469E+001,-4.02760E+001,9.98942E-001,5.32562E-003,-2.48910E-003,-1.40529E-004,5.32815E-003,-2.49162E-003,-1.02988E+000,5.33187E-003,1.00533E+000,4.69249E-003,0.00000E+000,-4.94826E-003,9.97536E-001,0.00000E+000,1.47424E-003,-8.22433E-003,1.00000E+000,1
529,1307,-2.59441E+001,-1.29244E+000,1.08674E-001,1.04311E-001,1.34354E-001,-4.69140E-002,1.76445E-001,4.10505E-003,6.61819E-001,0,1.72447E+000,2.20444E+000,9.99928E-001,-3.66816E+001,-3.97028E+001,9.99671E-001,5.56140E-003,-2.48763E-003,-2.60451E-004,5.56982E-003,-2.49604E-003,-1.85140E+000,5.57980E-003,1.00557E+000,4.69217E-003,0.00000E+000,-5.19819E-003,9.97536E-001,0.00000E+000,2.94461E-003,-8.22626E-003,1.00000E+000,1
529,1317,-2.59455E+001,-6.71205E-001,1.94440E-002,1.06718E-001,1.31827E-001,-5.21933E-002,1.77458E-001,4.06955E-003,6.69568E-001,0,1.77604E+000,2.17840E+000,9.99940E-001,-3.68115E+001,-3.99870E+001,9.99305E-001,5.44405E-003,-2.48885E-003,-2.00378E-004,5.44910E-003,-2.49391E-003,-1.44601E+000,5.45561E-003,1.00545E+000,4.69282E-003,0.00000E+000,-5.07349E-003,9.97535E-001,0.00000E+000,2.21099E-003,-8.22227E-003,1.00000E+000,1
