Coordinates.Image X [Pixel],Coordinates.Image Y [Pixel],coor.X [mm],coor.Y [mm],coor.Z [mm],disp.Horizontal Displacement U [mm],disp.Vertical Displacement V [mm],disp.Out-Of-Plane: W [mm],disp.Displacement Magnitude [mm],stats.Sigma [mm],stats.Epipolar Distance [Pixel],stats.Shape Index [-],SameCamera.Horizontal: u [Pixel],SameCamera.Vertical: v [Pixel],SameCamera.Correlation Value 2D [-],CrossCamera.Horizontal: q [Pixel],CrossCamera.Vertical: r [Pixel],CrossCamera.Correlation Value Persp [-],strain.Strain-global frame: Exx [ ],strain.Strain-global frame: Eyy [ ],strain.Strain-global frame: Exy [ ],strain.Maximum Principal Strain: EI [ ],strain.Minimum Principal Strain: EII [ ],strain.Shear Angle Gamma [deg],strain.Von Mises Equivalent Strain [ ],defgradient.F[0,0] [-],defgradient.F[0,1] [-],defgradient.F[0,2] [-],defgradient.F[1,0] [-],defgradient.F[1,1] [-],defgradient.F[1,2] [-],defgradient.F[2,0] [-],defgradient.F[2,1] [-],defgradient.F[2,2] [-],ext.Current Image [#]
929,1317,9.22996E+000,-1.25650E+000,9.53439E-002,9.56603E+000,-6.40138E-001,1.82065E-001,9.58915E+000,1.98000E-002,6.32962E-001,0,1.45620E+002,-1.16474E+001,9.96907E-001,1.03229E+002,-4.43958E+001,9.95005E-001,2.53826E-001,-1.06838E-001,-7.20189E-004,2.53827E-001,-1.06839E-001,-1.14410E-001,2.54883E-001,1.28888E+000,-2.37600E-002,0.00000E+000,1.67144E-002,9.03202E-001,0.00000E+000,-1.70552E-002,-1.01949E-001,1.00000E+000,40
919,1307,8.39202E+000,-1.84022E+000,1.72803E-001,9.39464E+000,-5.74586E-001,2.64321E-001,9.41591E+000,2.25030E-002,6.58975E-001,0,1.42827E+002,-1.07444E+001,9.94025E-001,1.00313E+002,-4.36866E+001,9.91636E-001,2.58175E-001,-1.06592E-001,-1.49494E-003,2.58181E-001,-1.06598E-001,-2.34813E-001,2.59484E-001,1.29452E+000,-2.09422E-002,0.00000E+000,1.31512E-002,9.03525E-001,0.00000E+000,-1.56224E-002,-1.02474E-001,1.00000E+000,40
919,1317,8.37248E+000,-1.27904E+000,5.45098E-002,9.37229E+000,-6.48407E-001,1.96938E-001,9.39676E+000,2.92603E-002,6.31194E-001,0,1.42746E+002,-1.17942E+001,9.89683E-001,9.98559E+001,-4.47677E+001,9.88194E-001,2.55621E-001,-1.06598E-001,-1.67239E-003,2.55629E-001,-1.06606E-001,-2.64531E-001,2.56799E-001,1.29119E+000,-2.09566E-002,0.00000E+000,1.27146E-002,9.03523E-001,0.00000E+000,-1.38990E-002,-1.02466E-001,1.00000E+000,40
919,1327,8.37587E+000,-7.08205E-001,2.95763E-003,9.35855E+000,-7.24636E-001,1.30255E-001,9.38747E+000,2.12977E-002,6.68394E-001,0,1.42772E+002,-1.28738E+001,9.95095E-001,9.98883E+001,-4.58063E+001,9.93448E-001,2.53035E-001,-1.06611E-001,-1.87909E-003,2.53045E-001,-1.06621E-001,-2.99350E-001,2.54086E-001,1.28783E+000,-2.10441E-002,0.00000E+000,1.22740E-002,9.03512E-001,0.00000E+000,-1.21596E-002,-1.02421E-001,1.00000E+000,40
929,1307,9.24351E+000,-1.81656E+000,2.00580E-001,9.58676E+000,-5.61925E-001,2.56280E-001,9.60663E+000,1.89614E-002,6.84133E-001,0,1.45654E+002,-1.05583E+001,9.97625E-001,1.03566E+002,-4.32599E+001,9.96115E-001,2.56447E-001,-1.06842E-001,-7.46445E-004,2.56448E-001,-1.06843E-001,-1.17724E-001,2.57634E-001,1.29230E+000,-2.37221E-002,0.00000E+000,1.67946E-002,9.03202E-001,0.00000E+000,-1.92205E-002,-1.01973E-001,1.00000E+000,40
929,1327,9.22125E+000,-6.79791E-001,2.50256E-002,9.54388E+000,-7.05775E-001,1.13926E-001,9.57062E+000,1.80933E-002,6.24485E-001,0,1.45527E+002,-1.25760E+001,9.97221E-001,1.03037E+002,-4.53264E+001,9.96128E-001,2.51188E-001,-1.06833E-001,-7.06515E-004,2.51189E-001,-1.06834E-001,-1.13066E-001,2.52122E-001,1.28544E+000,-2.38309E-002,0.00000E+000,1.66341E-002,9.03200E-001,0.00000E+000,-1.48855E-002,-1.01904E-001,1.00000E+000,40
939,1307,1.00868E+001,-1.79923E+000,1.84445E-001,9.77577E+000,-5.51505E-001,2.29752E-001,9.79400E+000,2.09099E-002,6.83723E-001,0,1.48506E+002,-1.03628E+001,9.97705E-001,1.06610E+002,-4.28518E+001,9.96389E-001,2.54427E-001,-1.06038E-001,-2.49715E-004,2.54427E-001,-1.06039E-001,-3.96921E-002,2.55599E-001,1.28968E+000,-2.72078E-002,0.00000E+000,2.03684E-002,9.03721E-001,0.00000E+000,-2.16493E-002,-1.00387E-001,1.00000E+000,40
939,1317,1.00706E+001,-1.23563E+000,8.70005E-002,9.75151E+000,-6.26122E-001,1.59905E-001,9.77290E+000,2.00250E-002,6.14866E-001,0,1.48402E+002,-1.14088E+001,9.96922E-001,1.06248E+002,-4.39568E+001,9.95007E-001,2.52062E-001,-1.06031E-001,-1.73720E-004,2.52062E-001,-1.06031E-001,-2.77957E-002,2.53118E-001,1.28657E+000,-2.72460E-002,0.00000E+000,2.03667E-002,9.03721E-001,0.00000E+000,-1.92939E-002,-1.00358E-001,1.00000E+000,40
939,1327,1.00669E+001,-6.50179E-001,2.35115E-002,9.73275E+000,-6.86279E-001,9.17982E-002,9.75735E+000,1.78627E-002,6.39549E-001,0,1.48358E+002,-1.22384E+001,9.96183E-001,1.06149E+002,-4.47475E+001,9.95185E-001,2.49670E-001,-1.06020E-001,-1.10182E-004,2.49670E-001,-1.06020E-001,-1.77485E-002,2.50613E-001,1.28345E+000,-2.73183E-002,0.00000E+000,2.03651E-002,9.03721E-001,0.00000E+000,-1.69224E-002,-1.00303E-001,1.00000E+000,40
919,1337,8.38551E+000,-1.20831E-001,-1.84262E-002,9.34615E+000,-7.85856E-001,7.06690E-002,9.37940E+000,2.06156E-002,6.35018E-001,0,1.42780E+002,-1.37306E+001,9.94796E-001,1.00081E+002,-4.66900E+001,9.93952E-001,2.50442E-001,-1.06626E-001,-2.09559E-003,2.50454E-001,-1.06639E-001,-3.36247E-001,2.51372E-001,1.28447E+000,-2.11566E-002,0.00000E+000,1.18338E-002,9.03497E-001,0.00000E+000,-1.04218E-002,-1.02363E-001,1.00000E+000,40
929,1337,9.22732E+000,-1.02988E-001,-1.18097E-002,9.53034E+000,-7.76922E-001,5.09834E-002,9.56210E+000,1.85024E-002,6.11708E-001,0,1.45539E+002,-1.35767E+001,9.97655E-001,1.03141E+002,-4.63287E+001,9.96835E-001,2.48527E-001,-1.06827E-001,-7.05351E-004,2.48528E-001,-1.06828E-001,-1.13727E-001,2.49342E-001,1.28199E+000,-2.39343E-002,0.00000E+000,1.65533E-002,9.03198E-001,0.00000E+000,-1.27058E-002,-1.01839E-001,1.00000E+000,40
939,1337,1.00697E+001,-7.30664E-002,-1.45093E-002,9.71679E+000,-7.56097E-001,3.22515E-002,9.74621E+000,1.66377E-002,6.31579E-001,0,1.48323E+002,-1.32379E+001,9.97426E-001,1.06199E+002,-4.57389E+001,9.96894E-001,2.47267E-001,-1.06009E-001,-5.37245E-005,2.47267E-001,-1.06009E-001,-8.71327E-003,2.48103E-001,1.28033E+000,-2.74081E-002,0.00000E+000,2.03635E-002,9.03721E-001,0.00000E+000,-1.45520E-002,-1.00235E-001,1.00000E+000,40
949,1317,1.09181E+001,-1.20443E+000,9.09844E-002,9.94213E+000,-6.04479E-001,1.44253E-001,9.96153E+000,3.16927E-002,6.41334E-001,0,1.51230E+002,-1.10607E+001,9.91136E-001,1.09405E+002,-4.33611E+001,9.88630E-001,2.50227E-001,-1.05138E-001,2.71655E-004,2.50228E-001,-1.05138E-001,4.37990E-002,2.51289E-001,1.28418E+000,-3.03600E-002,0.00000E+000,2.35397E-002,9.04258E-001,0.00000E+000,-2.11427E-002,-9.80882E-002,1.00000E+000,40
949,1327,1.09069E+001,-6.21304E-001,1.36150E-002,9.91686E+000,-6.65062E-001,6.75766E-002,9.93937E+000,2.70518E-002,6.31597E-001,0,1.51122E+002,-1.18823E+001,9.93333E-001,1.09162E+002,-4.41744E+001,9.91357E-001,2.48302E-001,-1.05123E-001,3.88480E-004,2.48303E-001,-1.05124E-001,6.29785E-002,2.49273E-001,1.28165E+000,-3.04147E-002,0.00000E+000,2.35821E-002,9.04259E-001,0.00000E+000,-1.83024E-002,-9.80269E-002,1.00000E+000,40
949,1337,1.09117E+001,-4.57424E-002,-1.89724E-002,9.90344E+000,-7.36484E-001,1.64273E-002,9.93080E+000,2.03889E-002,6.42366E-001,0,1.51098E+002,-1.29313E+001,9.95866E-001,1.09253E+002,-4.51900E+001,9.94703E-001,2.46361E-001,-1.05106E-001,4.98947E-004,2.46362E-001,-1.05107E-001,8.13375E-002,2.47244E-001,1.27911E+000,-3.04860E-002,0.00000E+000,2.36247E-002,9.04260E-001,0.00000E+000,-1.54556E-002,-9.79471E-002,1.00000E+000,40
949,1307,1.09369E+001,-1.77834E+000,1.76773E-001,9.96859E+000,-5.39376E-001,2.00665E-001,9.98519E+000,2.68118E-002,6.70835E-001,0,1.51417E+002,-1.01254E+001,9.94606E-001,1.09782E+002,-4.24120E+001,9.92489E-001,2.52135E-001,-1.05150E-001,1.45722E-004,2.52135E-001,-1.05150E-001,2.33686E-002,2.53290E-001,1.28671E+000,-3.03299E-002,0.00000E+000,2.34974E-002,9.04258E-001,0.00000E+000,-2.39740E-002,-9.81219E-002,1.00000E+000,40
909,1317,7.53495E+000,-1.29360E+000,5.45934E-002,9.18647E+000,-6.55155E-001,1.99330E-001,9.21196E+000,2.57691E-002,6.07287E-001,0,1.40013E+002,-1.18978E+001,9.86730E-001,9.68795E+001,-4.51124E+001,9.87026E-001,2.57405E-001,-1.07462E-001,-2.73119E-003,2.57426E-001,-1.07482E-001,-4.28852E-001,2.58590E-001,1.29350E+000,-1.80010E-002,0.00000E+000,8.35486E-003,9.02796E-001,0.00000E+000,-1.02279E-002,-1.02524E-001,1.00000E+000,40
909,1327,7.54622E+000,-7.14978E-001,-1.49258E-003,9.18111E+000,-7.24149E-001,1.29882E-001,9.21054E+000,2.16836E-002,6.44619E-001,0,1.40173E+002,-1.28442E+001,9.90826E-001,9.70265E+001,-4.60216E+001,9.92526E-001,2.54901E-001,-1.07472E-001,-2.90318E-003,2.54924E-001,-1.07495E-001,-4.58991E-001,2.55964E-001,1.29025E+000,-1.80827E-002,0.00000E+000,8.02288E-003,9.02788E-001,0.00000E+000,-9.08009E-003,-1.02495E-001,1.00000E+000,40
909,1337,7.55321E+000,-1.24391E-001,-1.99799E-002,9.16595E+000,-7.85062E-001,7.22155E-002,9.19979E+000,2.33940E-002,6.98122E-001,0,1.40131E+002,-1.36965E+001,9.95188E-001,9.71850E+001,-4.68207E+001,9.94934E-001,2.52382E-001,-1.07483E-001,-3.08609E-003,2.52409E-001,-1.07510E-001,-4.91302E-001,2.53330E-001,1.28700E+000,-1.81914E-002,0.00000E+000,7.69011E-003,9.02777E-001,0.00000E+000,-7.92952E-003,-1.02457E-001,1.00000E+000,40
909,1307,7.54621E+000,-1.85428E+000,1.76647E-001,9.19951E+000,-5.81033E-001,2.65777E-001,9.22168E+000,2.43295E-002,5.96725E-001,0,1.39957E+002,-1.08322E+001,9.90123E-001,9.72179E+001,-4.40500E+001,9.85683E-001,2.59878E-001,-1.07458E-001,-2.58816E-003,2.59896E-001,-1.07476E-001,-4.03666E-001,2.61188E-001,1.29672E+000,-1.79920E-002,0.00000E+000,8.68344E-003,9.02797E-001,0.00000E+000,-1.13640E-002,-1.02527E-001,1.00000E+000,40
919,1347,8.40697E+000,4.77695E-001,-2.85753E-002,9.34231E+000,-8.39877E-001,7.40827E-003,9.37999E+000,3.02485E-002,6.59881E-001,0,1.42924E+002,-1.44730E+001,9.97121E-001,1.00480E+002,-4.73974E+001,9.96261E-001,2.47828E-001,-1.06643E-001,-2.31966E-003,2.47843E-001,-1.06659E-001,-3.74923E-001,2.48644E-001,1.28110E+000,-2.12857E-002,0.00000E+000,1.13919E-002,9.03480E-001,0.00000E+000,-8.67712E-003,-1.02296E-001,1.00000E+000,40
929,1347,9.24583E+000,4.86746E-001,-1.43912E-002,9.52407E+000,-8.38741E-001,-1.52731E-003,9.56093E+000,1.73356E-002,6.14093E-001,0,1.45612E+002,-1.44645E+001,9.97506E-001,1.03507E+002,-4.71987E+001,9.97106E-001,2.45848E-001,-1.06820E-001,-7.14970E-004,2.45850E-001,-1.06821E-001,-1.16156E-001,2.46552E-001,1.27853E+000,-2.40649E-002,0.00000E+000,1.64725E-002,9.03194E-001,0.00000E+000,-1.05217E-002,-1.01756E-001,1.00000E+000,40
939,1347,1.00894E+001,5.15346E-001,-1.75380E-002,9.71201E+000,-8.19340E-001,-1.83967E-002,9.74652E+000,2.16141E-002,6.39486E-001,0,1.48415E+002,-1.41523E+001,9.97433E-001,1.06580E+002,-4.66236E+001,9.96266E-001,2.44845E-001,-1.05995E-001,-7.84236E-006,2.44845E-001,-1.05995E-001,-1.28074E-003,2.45579E-001,1.27719E+000,-2.75253E-002,0.00000E+000,2.03618E-002,9.03721E-001,0.00000E+000,-1.21732E-002,-1.00146E-001,1.00000E+000,40
949,1347,1.09348E+001,5.38715E-001,-1.32563E-002,9.89999E+000,-8.06056E-001,-3.37984E-002,9.93281E+000,1.94316E-002,6.41985E-001,0,1.51209E+002,-1.39267E+001,9.95637E-001,1.09701E+002,-4.61572E+001,9.94039E-001,2.44397E-001,-1.05085E-001,5.97433E-004,2.44398E-001,-1.05086E-001,9.79455E-002,2.45196E-001,1.27655E+000,-3.05896E-002,0.00000E+000,2.36674E-002,9.04262E-001,0.00000E+000,-1.25929E-002,-9.78310E-002,1.00000E+000,40
959,1317,1.17581E+001,-1.18289E+000,6.99589E-002,1.01265E+001,-5.90008E-001,1.12230E-001,1.01443E+001,2.88531E-002,6.13118E-001,0,1.54024E+002,-1.07802E+001,9.92637E-001,1.12400E+002,-4.28898E+001,9.91103E-001,2.48553E-001,-1.04103E-001,2.52151E-004,2.48553E-001,-1.04103E-001,4.09668E-002,2.49642E-001,1.28196E+000,-3.37246E-002,0.00000E+000,2.59391E-002,9.04913E-001,0.00000E+000,-2.18846E-002,-9.55328E-002,1.00000E+000,40
959,1327,1.17555E+001,-5.98909E-001,3.53501E-004,1.01117E+001,-6.48978E-001,5.13911E-002,1.01326E+001,3.93724E-002,6.13024E-001,0,1.54021E+002,-1.16154E+001,9.96764E-001,1.12308E+002,-4.36985E+001,9.95308E-001,2.46999E-001,-1.04080E-001,4.64822E-004,2.47000E-001,-1.04080E-001,7.58584E-002,2.48015E-001,1.27990E+000,-3.37639E-002,0.00000E+000,2.61415E-002,9.04917E-001,0.00000E+000,-1.89521E-002,-9.54768E-002,1.00000E+000,40
959,1337,1.17596E+001,-2.45168E-002,-1.77191E-002,1.00951E+001,-7.24099E-001,4.83481E-003,1.01211E+001,2.89042E-002,6.47447E-001,0,1.53932E+002,-1.27300E+001,9.94918E-001,1.12413E+002,-4.47503E+001,9.94369E-001,2.45427E-001,-1.04050E-001,6.68301E-004,2.45428E-001,-1.04051E-001,1.09566E-001,2.46372E-001,1.27783E+000,-3.38296E-002,0.00000E+000,2.63450E-002,9.04923E-001,0.00000E+000,-1.60053E-002,-9.53833E-002,1.00000E+000,40
959,1307,1.17695E+001,-1.75174E+000,1.61741E-001,1.01465E+001,-5.18224E-001,1.78171E-001,1.01613E+001,2.21309E-002,6.57777E-001,0,1.54077E+002,-9.78254E+000,9.94471E-001,1.12675E+002,-4.18708E+001,9.92543E-001,2.50094E-001,-1.04122E-001,3.49426E-005,2.50094E-001,-1.04122E-001,5.65209E-003,2.51258E-001,1.28402E+000,-3.36973E-002,0.00000E+000,2.57369E-002,9.04910E-001,0.00000E+000,-2.48137E-002,-9.55717E-002,1.00000E+000,40
959,1347,1.17734E+001,5.54508E-001,-1.84847E-002,1.00843E+001,-7.96866E-001,-4.25044E-002,1.01158E+001,2.14764E-002,6.29874E-001,0,1.53925E+002,-1.37892E+001,9.94625E-001,1.12702E+002,-4.57954E+001,9.94322E-001,2.43842E-001,-1.04017E-001,8.66641E-004,2.43844E-001,-1.04019E-001,1.42743E-001,2.44719E-001,1.27576E+000,-3.39080E-002,0.00000E+000,2.65486E-002,9.04931E-001,0.00000E+000,-1.30556E-002,-9.52716E-002,1.00000E+000,40
909,1347,7.57332E+000,4.67851E-001,-1.62325E-002,9.15886E+000,-8.44871E-001,1.28552E-002,9.19776E+000,2.58357E-002,6.74228E-001,0,1.40210E+002,-1.45381E+001,9.97118E-001,9.75925E+001,-4.76820E+001,9.95256E-001,2.49863E-001,-1.07497E-001,-3.27844E-003,2.49893E-001,-1.07527E-001,-5.25576E-001,2.50701E-001,1.28375E+000,-1.83248E-002,0.00000E+000,7.35816E-003,9.02763E-001,0.00000E+000,-6.78180E-003,-1.02410E-001,1.00000E+000,40
899,1327,6.70741E+000,-7.12880E-001,3.61393E-002,8.98597E+000,-7.21995E-001,1.33840E-001,9.01592E+000,1.63236E-002,6.45715E-001,0,1.37273E+002,-1.27806E+001,9.93985E-001,9.41154E+001,-4.61795E+001,9.94440E-001,2.56197E-001,-1.08168E-001,-3.73864E-003,2.56235E-001,-1.08206E-001,-5.87813E-001,2.57265E-001,1.29194E+000,-1.53768E-002,0.00000E+000,4.30755E-003,9.02187E-001,0.00000E+000,-5.92038E-003,-1.02493E-001,1.00000E+000,40
899,1337,6.72579E+000,-1.26162E-001,-6.35871E-003,8.98608E+000,-7.82384E-001,6.93563E-002,9.02034E+000,2.46433E-002,6.74823E-001,0,1.37491E+002,-1.36259E+001,9.97401E-001,9.44017E+001,-4.69994E+001,9.96985E-001,2.53974E-001,-1.08175E-001,-3.88139E-003,2.54016E-001,-1.08217E-001,-6.13983E-001,2.54941E-001,1.28907E+000,-1.54560E-002,0.00000E+000,4.07982E-003,9.02181E-001,0.00000E+000,-5.41659E-003,-1.02479E-001,1.00000E+000,40
899,1347,6.75954E+000,4.59435E-001,-5.71540E-003,8.99281E+000,-8.49014E-001,6.74714E-003,9.03280E+000,2.10291E-002,6.69707E-001,0,1.37793E+002,-1.45709E+001,9.97218E-001,9.50147E+001,-4.79475E+001,9.96423E-001,2.51741E-001,-1.08186E-001,-4.03897E-003,2.51786E-001,-1.08231E-001,-6.42845E-001,2.52611E-001,1.28619E+000,-1.55730E-002,0.00000E+000,3.85155E-003,9.02172E-001,0.00000E+000,-4.91160E-003,-1.02458E-001,1.00000E+000,40
899,1317,6.70587E+000,-1.28666E+000,1.13092E-001,8.99710E+000,-6.52485E-001,2.06345E-001,9.02308E+000,2.04099E-002,6.55933E-001,0,1.37186E+002,-1.18330E+001,9.92864E-001,9.41622E+001,-4.52127E+001,9.91133E-001,2.58410E-001,-1.08162E-001,-3.60552E-003,2.58445E-001,-1.08197E-001,-5.63476E-001,2.59583E-001,1.29481E+000,-1.53218E-002,0.00000E+000,4.53475E-003,9.02192E-001,0.00000E+000,-6.42300E-003,-1.02502E-001,1.00000E+000,40
899,1307,6.70733E+000,-1.84854E+000,2.11832E-001,9.00555E+000,-5.75422E-001,2.74050E-001,9.02808E+000,2.01193E-002,6.00466E-001,0,1.37063E+002,-1.07151E+001,9.93087E-001,9.43025E+001,-4.41399E+001,9.89531E-001,2.60611E-001,-1.08157E-001,-3.48211E-003,2.60644E-001,-1.08190E-001,-5.40954E-001,2.61893E-001,1.29767E+000,-1.52913E-002,0.00000E+000,4.76124E-003,9.02194E-001,0.00000E+000,-6.92402E-003,-1.02508E-001,1.00000E+000,40
889,1327,5.87199E+000,-7.19376E-001,5.09140E-002,8.79858E+000,-7.24795E-001,1.37048E-001,8.82944E+000,1.45481E-002,6.45724E-001,0,1.34498E+002,-1.28003E+001,9.95962E-001,9.12155E+001,-4.64214E+001,9.95683E-001,2.57558E-001,-1.07486E-001,-4.67165E-003,2.57618E-001,-1.07546E-001,-7.33082E-001,2.58785E-001,1.29372E+000,-1.34354E-002,0.00000E+000,9.16763E-004,9.02882E-001,0.00000E+000,-2.36682E-003,-1.03181E-001,1.00000E+000,40
889,1337,5.88210E+000,-1.32941E-001,-5.16485E-004,8.79169E+000,-7.83839E-001,6.88701E-002,8.82683E+000,2.23948E-002,6.59449E-001,0,1.34622E+002,-1.36176E+001,9.97165E-001,9.13560E+001,-4.72371E+001,9.96778E-001,2.55384E-001,-1.07483E-001,-4.65964E-003,2.55444E-001,-1.07543E-001,-7.35584E-001,2.56504E-001,1.29091E+000,-1.35076E-002,0.00000E+000,1.08828E-003,9.02887E-001,0.00000E+000,-3.20263E-003,-1.03202E-001,1.00000E+000,40
889,1347,5.91755E+000,4.50617E-001,-1.21032E-003,8.80090E+000,-8.51775E-001,7.57644E-003,8.84202E+000,1.80307E-002,6.58020E-001,0,1.34957E+002,-1.45893E+001,9.96685E-001,9.19938E+001,-4.82136E+001,9.96336E-001,2.53196E-001,-1.07479E-001,-4.66244E-003,2.53256E-001,-1.07539E-001,-7.40496E-001,2.54214E-001,1.28809E+000,-1.36188E-002,0.00000E+000,1.26041E-003,9.02893E-001,0.00000E+000,-4.04146E-003,-1.03235E-001,1.00000E+000,40
969,1297,1.26427E+001,-2.29166E+000,2.63323E-001,1.03651E+001,-4.28355E-001,2.09599E-001,1.03760E+001,2.72433E-002,6.55397E-001,0,1.57125E+002,-8.44095E+000,9.97392E-001,1.16347E+002,-4.03413E+001,9.95428E-001,2.49377E-001,-1.03509E-001,-2.89314E-004,2.49378E-001,-1.03510E-001,-4.69738E-002,2.50574E-001,1.28311E+000,-3.65138E-002,0.00000E+000,2.73374E-002,9.05177E-001,0.00000E+000,-2.78270E-002,-9.26079E-002,1.00000E+000,40
969,1307,1.25960E+001,-1.74262E+000,1.21465E-001,1.03164E+001,-5.16743E-001,1.23486E-001,1.03301E+001,5.71095E-002,6.27213E-001,0,1.56733E+002,-9.64628E+000,9.96050E-001,1.15431E+002,-4.15559E+001,9.93285E-001,2.48178E-001,-1.03492E-001,-3.82249E-005,2.48178E-001,-1.03492E-001,-6.22779E-003,2.49315E-001,1.28148E+000,-3.65189E-002,0.00000E+000,2.75839E-002,9.05178E-001,0.00000E+000,-2.48397E-002,-9.25985E-002,1.00000E+000,40
969,1317,1.25989E+001,-1.17040E+000,6.82533E-002,1.03096E+001,-5.85394E-001,9.16568E-002,1.03266E+001,1.72339E-002,5.80704E-001,0,1.56754E+002,-1.06797E+001,9.98109E-001,1.15451E+002,-4.26023E+001,9.97382E-001,2.46967E-001,-1.03468E-001,2.05653E-004,2.46967E-001,-1.03468E-001,3.36240E-002,2.48046E-001,1.27985E+000,-3.65433E-002,0.00000E+000,2.78305E-002,9.05182E-001,0.00000E+000,-2.18510E-002,-9.25538E-002,1.00000E+000,40
889,1317,5.86281E+000,-1.29117E+000,1.24993E-001,8.80149E+000,-6.53924E-001,2.04529E-001,8.82812E+000,1.93110E-002,6.83574E-001,0,1.34303E+002,-1.18324E+001,9.95947E-001,9.11386E+001,-4.54028E+001,9.95056E-001,2.59725E-001,-1.07489E-001,-4.69157E-003,2.59784E-001,-1.07548E-001,-7.31860E-001,2.61062E-001,1.29653E+000,-1.33840E-002,0.00000E+000,7.45476E-004,9.02879E-001,0.00000E+000,-1.53213E-003,-1.03166E-001,1.00000E+000,40
969,1327,1.25879E+001,-5.88079E-001,2.12019E-003,1.02856E+001,-6.46529E-001,3.16205E-002,1.03060E+001,2.65712E-002,6.01111E-001,0,1.56611E+002,-1.15612E+001,9.96483E-001,1.15234E+002,-4.34332E+001,9.94502E-001,2.45744E-001,-1.03441E-001,4.46446E-004,2.45745E-001,-1.03442E-001,7.32545E-002,2.46767E-001,1.27822E+000,-3.65763E-002,0.00000E+000,2.80776E-002,9.05187E-001,0.00000E+000,-1.88567E-002,-9.24934E-002,1.00000E+000,40
889,1307,5.85737E+000,-1.85467E+000,2.25665E-001,8.80235E+000,-5.79287E-001,2.71167E-001,8.82556E+000,2.21889E-002,6.52024E-001,0,1.34071E+002,-1.07588E+001,9.94591E-001,9.11768E+001,-4.43460E+001,9.92150E-001,2.61878E-001,-1.07490E-001,-4.72064E-003,2.61938E-001,-1.07550E-001,-7.32098E-001,2.63331E-001,1.29932E+000,-1.33571E-002,0.00000E+000,5.74784E-004,9.02877E-001,0.00000E+000,-7.00328E-004,-1.03158E-001,1.00000E+000,40
969,1337,1.25906E+001,-1.31523E-002,-3.37282E-002,1.02697E+001,-7.18164E-001,-2.30203E-002,1.02948E+001,2.47261E-002,5.63100E-001,0,1.56565E+002,-1.25965E+001,9.96054E-001,1.15283E+002,-4.44725E+001,9.95586E-001,2.44509E-001,-1.03409E-001,6.81902E-004,2.44510E-001,-1.03411E-001,1.12296E-001,2.45477E-001,1.27658E+000,-3.66233E-002,0.00000E+000,2.83250E-002,9.05194E-001,0.00000E+000,-1.58584E-002,-9.24072E-002,1.00000E+000,40
969,1347,1.25979E+001,5.90579E-001,-3.79991E-002,1.02537E+001,-7.67129E-001,-6.72163E-002,1.02826E+001,2.00832E-002,6.05722E-001,0,1.56462E+002,-1.32998E+001,9.95998E-001,1.15467E+002,-4.50963E+001,9.95089E-001,2.43255E-001,-1.03373E-001,9.13908E-004,2.43258E-001,-1.03376E-001,1.51063E-001,2.44169E-001,1.27493E+000,-3.66824E-002,0.00000E+000,2.85740E-002,9.05203E-001,0.00000E+000,-1.28406E-002,-9.22989E-002,1.00000E+000,40
879,1327,5.04318E+000,-7.19911E-001,7.00956E-002,8.61726E+000,-7.21443E-001,1.43980E-001,8.64861E+000,2.06366E-002,6.66094E-001,0,1.31795E+002,-1.27488E+001,9.95966E-001,8.84344E+001,-4.65698E+001,9.95917E-001,2.58528E-001,-1.07828E-001,-5.22615E-003,2.58603E-001,-1.07902E-001,-8.17115E-001,2.59781E-001,1.29500E+000,-1.15852E-002,0.00000E+000,-1.59919E-003,9.02523E-001,0.00000E+000,-6.98107E-005,-1.02566E-001,1.00000E+000,40
879,1337,5.05227E+000,-1.39135E-001,1.28322E-002,8.61001E+000,-7.85258E-001,7.24156E-002,8.64605E+000,2.03088E-002,6.53958E-001,0,1.31927E+002,-1.36240E+001,9.94268E-001,8.85463E+001,-4.74755E+001,9.94476E-001,2.56620E-001,-1.07821E-001,-5.13553E-003,2.56692E-001,-1.07893E-001,-8.07173E-001,2.57776E-001,1.29253E+000,-1.16462E-002,0.00000E+000,-1.23647E-003,9.02531E-001,0.00000E+000,-1.56199E-003,-1.02603E-001,1.00000E+000,40
879,1347,5.08280E+000,4.50668E-001,5.97106E-003,8.61580E+000,-8.47208E-001,1.12751E-002,8.65736E+000,2.30047E-002,6.73233E-001,0,1.32209E+002,-1.44911E+001,9.94448E-001,8.90975E+001,-4.83345E+001,9.94814E-001,2.54694E-001,-1.07811E-001,-5.05620E-003,2.54764E-001,-1.07881E-001,-7.98952E-001,2.55758E-001,1.29004E+000,-1.17386E-002,0.00000E+000,-8.71592E-004,9.02545E-001,0.00000E+000,-3.06308E-003,-1.02659E-001,1.00000E+000,40
879,1307,5.00967E+000,-1.85240E+000,2.45014E-001,8.60044E+000,-5.74891E-001,2.71043E-001,8.62389E+000,2.61724E-002,6.54614E-001,0,1.31079E+002,-1.06601E+001,9.93024E-001,8.81057E+001,-4.44583E+001,9.90961E-001,2.62317E-001,-1.07836E-001,-5.42928E-003,2.62397E-001,-1.07916E-001,-8.40154E-001,2.63771E-001,1.29993E+000,-1.15225E-002,0.00000E+000,-2.32248E-003,9.02513E-001,0.00000E+000,2.90577E-003,-1.02528E-001,1.00000E+000,40
879,1317,5.02501E+000,-1.28779E+000,1.48865E-001,8.61089E+000,-6.46297E-001,2.15212E-001,8.63780E+000,1.96929E-002,5.88250E-001,0,1.31446E+002,-1.16749E+001,9.96373E-001,8.82300E+001,-4.55573E+001,9.95208E-001,2.60432E-001,-1.07833E-001,-5.32325E-003,2.60509E-001,-1.07910E-001,-8.27976E-001,2.61783E-001,1.29747E+000,-1.15409E-002,0.00000E+000,-1.96204E-003,9.02516E-001,0.00000E+000,1.42295E-003,-1.02539E-001,1.00000E+000,40
979,1307,1.34804E+001,-1.72224E+000,1.53126E-001,1.05404E+001,-5.06069E-001,1.26585E-001,1.05533E+001,2.93615E-002,5.82608E-001,0,1.59983E+002,-9.49115E+000,9.97916E-001,1.19225E+002,-4.12200E+001,9.97944E-001,2.46450E-001,-1.02811E-001,-7.21768E-005,2.46450E-001,-1.02811E-001,-1.18405E-002,2.47575E-001,1.27918E+000,-3.85868E-002,0.00000E+000,2.88935E-002,9.05478E-001,0.00000E+000,-2.38838E-002,-8.92397E-002,1.00000E+000,40
979,1317,1.34490E+001,-1.14356E+000,6.41082E-002,1.05009E+001,-5.67857E-001,6.61434E-002,1.05165E+001,1.73603E-002,5.80837E-001,0,1.59618E+002,-1.03705E+001,9.96969E-001,1.18648E+002,-4.20701E+001,9.96489E-001,2.45718E-001,-1.02784E-001,2.25141E-004,2.45719E-001,-1.02784E-001,3.70145E-002,2.46810E-001,1.27817E+000,-3.85995E-002,0.00000E+000,2.92330E-002,9.05483E-001,0.00000E+000,-2.09519E-002,-8.92028E-002,1.00000E+000,40
979,1327,1.34294E+001,-5.64094E-001,-4.36906E-003,1.04691E+001,-6.31070E-001,7.75370E-003,1.04881E+001,1.87697E-002,5.85737E-001,0,1.59353E+002,-1.12862E+001,9.94512E-001,1.18292E+002,-4.29471E+001,9.93304E-001,2.44977E-001,-1.02752E-001,5.20011E-004,2.44977E-001,-1.02753E-001,8.56828E-002,2.46035E-001,1.27716E+000,-3.86187E-002,0.00000E+000,2.95728E-002,9.05489E-001,0.00000E+000,-1.80174E-002,-8.91470E-002,1.00000E+000,40
979,1337,1.34253E+001,2.13789E-002,-4.42258E-002,1.04486E+001,-6.91324E-001,-4.05459E-002,1.04715E+001,2.57213E-002,5.85289E-001,0,1.59215E+002,-1.21719E+001,9.91270E-001,1.18230E+002,-4.37946E+001,9.91007E-001,2.44224E-001,-1.02716E-001,8.12704E-004,2.44226E-001,-1.02718E-001,1.34214E-001,2.45251E-001,1.27614E+000,-3.86445E-002,0.00000E+000,2.99133E-002,9.05498E-001,0.00000E+000,-1.50766E-002,-8.90723E-002,1.00000E+000,40
979,1347,1.34304E+001,6.19994E-001,-4.01483E-002,1.04288E+001,-7.45148E-001,-8.24951E-002,1.04557E+001,2.67215E-002,6.03358E-001,0,1.59047E+002,-1.29643E+001,9.88088E-001,1.18392E+002,-4.45268E+001,9.87553E-001,2.43458E-001,-1.02672E-001,1.10147E-003,2.43462E-001,-1.02675E-001,1.82326E-001,2.44454E-001,1.27512E+000,-3.86836E-002,0.00000E+000,3.02557E-002,9.05511E-001,0.00000E+000,-1.21206E-002,-8.89589E-002,1.00000E+000,40
979,1297,1.34826E+001,-2.27263E+000,2.51032E-001,1.05492E+001,-4.16538E-001,1.88736E-001,1.05591E+001,2.31156E-002,6.55574E-001,0,1.59865E+002,-8.22532E+000,9.97443E-001,1.19369E+002,-3.99177E+001,9.97029E-001,2.47173E-001,-1.02836E-001,-3.70729E-004,2.47174E-001,-1.02837E-001,-6.06874E-002,2.48332E-001,1.28019E+000,-3.85765E-002,0.00000E+000,2.85539E-002,9.05475E-001,0.00000E+000,-2.68162E-002,-8.92695E-002,1.00000E+000,40
869,1317,4.17241E+000,-1.28280E+000,1.41405E-001,8.40668E+000,-6.37292E-001,2.02277E-001,8.43323E+000,1.45666E-002,6.16423E-001,0,1.28460E+002,-1.14848E+001,9.97220E-001,8.50320E+001,-4.55607E+001,9.95556E-001,2.60664E-001,-1.08357E-001,-5.44103E-003,2.60744E-001,-1.08437E-001,-8.44553E-001,2.61971E-001,1.29780E+000,-9.45367E-003,0.00000E+000,-3.77752E-003,9.01962E-001,0.00000E+000,3.22387E-003,-1.01682E-001,1.00000E+000,40
869,1327,4.19313E+000,-7.14200E-001,7.12026E-002,8.41607E+000,-7.10276E-001,1.41253E-001,8.44717E+000,2.08721E-002,7.03901E-001,0,1.28818E+002,-1.25672E+001,9.95304E-001,8.52936E+001,-4.65771E+001,9.94394E-001,2.59183E-001,-1.08352E-001,-5.33709E-003,2.59260E-001,-1.08430E-001,-8.31776E-001,2.60413E-001,1.29587E+000,-9.48685E-003,0.00000E+000,-3.38693E-003,9.01968E-001,0.00000E+000,1.39984E-003,-1.01713E-001,1.00000E+000,40
869,1337,4.21100E+000,-1.41194E-001,2.35529E-002,8.41714E+000,-7.82620E-001,7.64572E-002,8.45379E+000,2.24761E-002,6.79038E-001,0,1.29055E+002,-1.35746E+001,9.93010E-001,8.55611E+001,-4.76310E+001,9.92923E-001,2.57692E-001,-1.08346E-001,-5.23891E-003,2.57767E-001,-1.08421E-001,-8.19821E-001,2.58848E-001,1.29393E+000,-9.53593E-003,0.00000E+000,-2.99538E-003,9.01978E-001,0.00000E+000,-4.28690E-004,-1.01759E-001,1.00000E+000,40
869,1347,4.23690E+000,4.53500E-001,1.17487E-002,8.42103E+000,-8.36344E-001,2.23810E-002,8.46249E+000,2.72543E-002,6.62231E-001,0,1.29283E+002,-1.43323E+001,9.94763E-001,8.60326E+001,-4.84242E+001,9.94759E-001,2.56194E-001,-1.08337E-001,-5.14638E-003,2.56267E-001,-1.08409E-001,-8.08676E-001,2.57277E-001,1.29200E+000,-9.60012E-003,0.00000E+000,-2.60322E-003,9.01991E-001,0.00000E+000,-2.26005E-003,-1.01820E-001,1.00000E+000,40
869,1307,4.16549E+000,-1.84587E+000,2.55338E-001,8.40411E+000,-5.64309E-001,2.73485E-001,8.42747E+000,2.16061E-002,6.58439E-001,0,1.28161E+002,-1.04774E+001,9.94172E-001,8.50774E+001,-4.44847E+001,9.92607E-001,2.62133E-001,-1.08360E-001,-5.55209E-003,2.62216E-001,-1.08443E-001,-8.58360E-001,2.63519E-001,1.29972E+000,-9.44080E-003,0.00000E+000,-4.16642E-003,9.01959E-001,0.00000E+000,5.04000E-003,-1.01669E-001,1.00000E+000,40
989,1307,1.42995E+001,-1.68087E+000,1.30355E-001,1.07027E+001,-4.71670E-001,9.32058E-002,1.07135E+001,2.23427E-002,6.33808E-001,0,1.62429E+002,-8.93585E+000,9.95987E-001,1.21914E+002,-4.04032E+001,9.95800E-001,2.45006E-001,-1.02531E-001,-1.21835E-004,2.45006E-001,-1.02531E-001,-2.00860E-002,2.46088E-001,1.27726E+000,-3.94532E-002,0.00000E+000,2.92642E-002,9.05481E-001,0.00000E+000,-2.21051E-002,-8.62789E-002,1.00000E+000,40
989,1317,1.42652E+001,-1.09915E+000,5.23976E-002,1.06615E+001,-5.31560E-001,4.93446E-002,1.06748E+001,2.36735E-002,6.88855E-001,0,1.61978E+002,-9.82362E+000,9.96443E-001,1.21312E+002,-4.11998E+001,9.95896E-001,2.44676E-001,-1.02500E-001,2.34869E-004,2.44676E-001,-1.02500E-001,3.87613E-002,2.45746E-001,1.27677E+000,-3.94585E-002,0.00000E+000,2.97057E-002,9.05486E-001,0.00000E+000,-1.91791E-002,-8.62473E-002,1.00000E+000,40
989,1327,1.42655E+001,-5.26446E-001,-1.00028E-002,1.06474E+001,-6.03844E-001,-1.15553E-002,1.06645E+001,2.71224E-002,6.61698E-001,0,1.61994E+002,-1.08477E+001,9.94942E-001,1.21275E+002,-4.22064E+001,9.93073E-001,2.44337E-001,-1.02461E-001,5.89498E-004,2.44338E-001,-1.02462E-001,9.73928E-002,2.45395E-001,1.27628E+000,-3.94693E-002,0.00000E+000,3.01474E-002,9.05496E-001,0.00000E+000,-1.62510E-002,-8.61826E-002,1.00000E+000,40
989,1297,1.43281E+001,-2.24894E+000,2.43792E-001,1.07371E+001,-3.99564E-001,1.66979E-001,1.07458E+001,2.01467E-002,6.41428E-001,0,1.62658E+002,-7.94269E+000,9.95890E-001,1.22493E+002,-3.94392E+001,9.95064E-001,2.45326E-001,-1.02560E-001,-4.78632E-004,2.45327E-001,-1.02561E-001,-7.88289E-002,2.46422E-001,1.27775E+000,-3.94489E-002,0.00000E+000,2.88234E-002,9.05477E-001,0.00000E+000,-2.50268E-002,-8.63048E-002,1.00000E+000,40
989,1337,1.42618E+001,5.27153E-002,-3.56152E-002,1.06244E+001,-6.70302E-001,-5.79403E-002,1.06457E+001,2.26761E-002,5.97167E-001,0,1.61810E+002,-1.18344E+001,9.90715E-001,1.21243E+002,-4.32131E+001,9.91277E-001,2.43990E-001,-1.02416E-001,9.41560E-004,2.43993E-001,-1.02418E-001,1.55733E-001,2.45038E-001,1.27579E+000,-3.94838E-002,0.00000E+000,3.05883E-002,9.05509E-001,0.00000E+000,-1.33289E-002,-8.60954E-002,1.00000E+000,40
989,1347,1.42658E+001,6.50307E-001,-3.11584E-002,1.06057E+001,-7.22987E-001,-8.95207E-002,1.06307E+001,2.48825E-002,6.25621E-001,0,1.61623E+002,-1.26529E+001,9.94879E-001,1.21387E+002,-4.39554E+001,9.95594E-001,2.43633E-001,-1.02366E-001,1.29395E-003,2.43638E-001,-1.02371E-001,2.14267E-001,2.44670E-001,1.27530E+000,-3.95010E-002,0.00000E+000,3.10314E-002,9.05524E-001,0.00000E+000,-1.03919E-002,-8.59924E-002,1.00000E+000,40
859,1327,3.34845E+000,-7.07147E-001,6.50706E-002,8.21964E+000,-6.98538E-001,1.30386E-001,8.25029E+000,1.95330E-002,7.07641E-001,0,1.25936E+002,-1.23326E+001,9.93702E-001,8.22267E+001,-4.65648E+001,9.92918E-001,2.59406E-001,-1.08487E-001,-5.12883E-003,2.59477E-001,-1.08559E-001,-7.98559E-001,2.60627E-001,1.29617E+000,-7.64285E-003,0.00000E+000,-4.33802E-003,9.01737E-001,0.00000E+000,2.11258E-003,-1.00567E-001,1.00000E+000,40
859,1337,3.37301E+000,-1.30216E-001,1.96475E-002,8.22769E+000,-7.65899E-001,6.84738E-002,8.26354E+000,2.26627E-002,6.95447E-001,0,1.26266E+002,-1.32873E+001,9.92871E-001,8.26032E+001,-4.75573E+001,9.92156E-001,2.58365E-001,-1.08485E-001,-5.09636E-003,2.58436E-001,-1.08556E-001,-7.95761E-001,2.59535E-001,1.29482E+000,-7.67662E-003,0.00000E+000,-4.06767E-003,9.01744E-001,0.00000E+000,9.84543E-005,-1.00617E-001,1.00000E+000,40
859,1347,3.39879E+000,4.50120E-001,4.89507E-003,8.23101E+000,-8.34257E-001,8.35467E-003,8.27318E+000,2.97991E-002,6.61466E-001,0,1.26510E+002,-1.42480E+001,9.95753E-001,8.30657E+001,-4.85763E+001,9.95360E-001,2.57315E-001,-1.08482E-001,-5.06844E-003,2.57386E-001,-1.08552E-001,-7.93680E-001,2.58434E-001,1.29346E+000,-7.72254E-003,0.00000E+000,-3.79647E-003,9.01753E-001,0.00000E+000,-1.92206E-003,-1.00685E-001,1.00000E+000,40
859,1307,3.31935E+000,-1.84034E+000,2.52417E-001,8.20579E+000,-5.56354E-001,2.64756E-001,8.22889E+000,2.58316E-002,7.72270E-001,0,1.25247E+002,-1.03369E+001,9.95417E-001,8.19955E+001,-4.44444E+001,9.95059E-001,2.61462E-001,-1.08490E-001,-5.20708E-003,2.61536E-001,-1.08563E-001,-8.06225E-001,2.62789E-001,1.29886E+000,-7.61142E-003,0.00000E+000,-4.87612E-003,9.01731E-001,0.00000E+000,6.12150E-003,-1.00520E-001,1.00000E+000,40
859,1317,3.33731E+000,-1.28510E+000,1.42530E-001,8.21941E+000,-6.36562E-001,1.97296E-001,8.24638E+000,1.98117E-002,7.02565E-001,0,1.25703E+002,-1.14577E+001,9.95048E-001,8.21269E+001,-4.56640E+001,9.92708E-001,2.60438E-001,-1.08489E-001,-5.16551E-003,2.60510E-001,-1.08561E-001,-8.02013E-001,2.61712E-001,1.29752E+000,-7.62044E-003,0.00000E+000,-4.60746E-003,9.01732E-001,0.00000E+000,4.11996E-003,-1.00533E-001,1.00000E+000,40
999,1337,1.50915E+001,7.89830E-002,-4.41906E-002,1.07991E+001,-6.48470E-001,-6.57693E-002,1.08188E+001,1.76882E-002,5.45128E-001,0,1.64356E+002,-1.15051E+001,9.98238E-001,1.24125E+002,-4.27054E+001,9.97196E-001,2.43662E-001,-1.02276E-001,7.92530E-004,2.43664E-001,-1.02278E-001,1.31261E-001,2.44708E-001,1.27534E+000,-3.97070E-002,0.00000E+000,3.02675E-002,9.05409E-001,0.00000E+000,-1.08213E-002,-8.30756E-002,1.00000E+000,40
999,1347,1.51056E+001,6.78454E-001,-2.88957E-002,1.07880E+001,-7.02422E-001,-9.62933E-002,1.08113E+001,1.65524E-002,5.72422E-001,0,1.64279E+002,-1.23237E+001,9.98248E-001,1.24443E+002,-4.34400E+001,9.97729E-001,2.43676E-001,-1.02227E-001,1.13041E-003,2.43679E-001,-1.02231E-001,1.87239E-001,2.44729E-001,1.27533E+000,-3.97073E-002,0.00000E+000,3.06797E-002,9.05425E-001,0.00000E+000,-8.01324E-003,-8.29673E-002,1.00000E+000,40
999,1307,1.51338E+001,-1.64934E+000,1.23376E-001,1.08798E+001,-4.47175E-001,7.58424E-002,1.08892E+001,1.56309E-002,6.14477E-001,0,1.65038E+002,-8.53358E+000,9.96791E-001,1.24872E+002,-3.98061E+001,9.96895E-001,2.43576E-001,-1.02380E-001,-2.15290E-004,2.43576E-001,-1.02380E-001,-3.56555E-002,2.44605E-001,1.27536E+000,-3.97066E-002,0.00000E+000,2.90412E-002,9.05385E-001,0.00000E+000,-1.91751E-002,-8.32403E-002,1.00000E+000,40
999,1317,1.51116E+001,-1.07256E+000,4.47300E-002,1.08502E+001,-5.11639E-001,2.98049E-002,1.08623E+001,2.14026E-002,6.47095E-001,0,1.64775E+002,-9.49065E+000,9.95304E-001,1.24457E+002,-4.06856E+001,9.93196E-001,2.43612E-001,-1.02351E-001,1.21056E-004,2.43612E-001,-1.02351E-001,2.00483E-002,2.44646E-001,1.27535E+000,-3.97067E-002,0.00000E+000,2.94501E-002,9.05389E-001,0.00000E+000,-1.63899E-002,-8.32086E-002,1.00000E+000,40
999,1327,1.51046E+001,-5.07129E-001,-1.41386E-002,1.08304E+001,-5.89881E-001,-2.07422E-002,1.08464E+001,2.56031E-002,6.55996E-001,0,1.64670E+002,-1.06554E+001,9.96282E-001,1.24311E+002,-4.17935E+001,9.94105E-001,2.43641E-001,-1.02316E-001,4.57260E-004,2.43642E-001,-1.02317E-001,7.57289E-002,2.44681E-001,1.27535E+000,-3.97068E-002,0.00000E+000,2.98591E-002,9.05397E-001,0.00000E+000,-1.36034E-002,-8.31533E-002,1.00000E+000,40
999,1297,1.51648E+001,-2.22843E+000,2.40547E-001,1.09162E+001,-3.86296E-001,1.51447E-001,1.09240E+001,1.63444E-002,6.30820E-001,0,1.65292E+002,-7.71869E+000,9.94605E-001,1.25493E+002,-3.90179E+001,9.92328E-001,2.43531E-001,-1.02407E-001,-5.51640E-004,2.43532E-001,-1.02408E-001,-9.13647E-002,2.44556E-001,1.27537E+000,-3.97065E-002,0.00000E+000,2.86327E-002,9.05381E-001,0.00000E+000,-2.19582E-002,-8.32632E-002,1.00000E+000,40
849,1337,2.53286E+000,-1.27451E-001,2.93805E-002,8.03482E+000,-7.59842E-001,7.02550E-002,8.07097E+000,2.66863E-002,7.14847E-001,0,1.23391E+002,-1.31587E+001,9.95419E-001,7.96459E+001,-4.76394E+001,9.94540E-001,2.58621E-001,-1.08178E-001,-4.59111E-003,2.58678E-001,-1.08236E-001,-7.17004E-001,2.59823E-001,1.29515E+000,-6.09633E-003,0.00000E+000,-4.22088E-003,9.01894E-001,0.00000E+000,-2.42126E-005,-9.92777E-002,1.00000E+000,40
849,1347,2.55089E+000,4.48321E-001,9.44567E-003,8.03320E+000,-8.29551E-001,1.76271E-002,8.07594E+000,2.33318E-002,6.45567E-001,0,1.23537E+002,-1.41559E+001,9.96325E-001,7.99782E+001,-4.87383E+001,9.95927E-001,2.58098E-001,-1.08177E-001,-4.57152E-003,2.58155E-001,-1.08234E-001,-7.14968E-001,2.59274E-001,1.29447E+000,-6.11638E-003,0.00000E+000,-3.98995E-003,9.01901E-001,0.00000E+000,-2.03566E-003,-9.93374E-002,1.00000E+000,40
849,1357,2.58665E+000,1.04185E+000,4.24885E-002,8.03887E+000,-8.91096E-001,-3.26942E-002,8.08817E+000,2.02581E-002,6.62973E-001,0,1.23769E+002,-1.50454E+001,9.96592E-001,8.07028E+001,-4.96365E+001,9.96593E-001,2.57566E-001,-1.08174E-001,-4.55588E-003,2.57623E-001,-1.08231E-001,-7.13563E-001,2.58717E-001,1.29379E+000,-6.14706E-003,0.00000E+000,-3.75704E-003,9.01912E-001,0.00000E+000,-4.06428E-003,-9.94287E-002,1.00000E+000,40
849,1327,2.51820E+000,-6.97590E-001,7.18578E-002,8.03539E+000,-6.86102E-001,1.23635E-001,8.06557E+000,2.66176E-002,7.10075E-001,0,1.23219E+002,-1.20889E+001,9.95884E-001,7.94167E+001,-4.65406E+001,9.95608E-001,2.59139E-001,-1.08180E-001,-4.61249E-003,2.59197E-001,-1.08237E-001,-7.19323E-001,2.60368E-001,1.29583E+000,-6.08075E-003,0.00000E+000,-4.45186E-003,9.01889E-001,0.00000E+000,1.98774E-003,-9.92314E-002,1.00000E+000,40
1009,1337,1.59340E+001,1.23906E-001,-4.88485E-002,1.09879E+001,-6.10337E-001,-6.20257E-002,1.10050E+001,2.57386E-002,5.76627E-001,0,1.67064E+002,-1.09412E+001,9.97878E-001,1.27220E+002,-4.18740E+001,9.97988E-001,2.43341E-001,-1.02039E-001,4.26552E-004,2.43342E-001,-1.02040E-001,7.07612E-002,2.44395E-001,1.27492E+000,-3.95050E-002,0.00000E+000,2.92883E-002,9.05450E-001,0.00000E+000,-8.63232E-003,-8.03751E-002,1.00000E+000,40
1009,1347,1.59374E+001,6.90355E-001,-3.40734E-002,1.09639E+001,-6.96923E-001,-1.02179E-001,1.09865E+001,1.78895E-002,5.76614E-001,0,1.66837E+002,-1.22561E+001,9.98936E-001,1.27366E+002,-4.31323E+001,9.98521E-001,2.43632E-001,-1.02003E-001,6.79264E-004,2.43633E-001,-1.02004E-001,1.12601E-001,2.44705E-001,1.27527E+000,-3.94900E-002,0.00000E+000,2.95552E-002,9.05461E-001,0.00000E+000,-6.14318E-003,-8.02706E-002,1.00000E+000,40
1009,1297,1.59941E+001,-2.20801E+000,2.33231E-001,1.10889E+001,-3.71122E-001,1.38693E-001,1.10960E+001,2.13201E-002,5.40983E-001,0,1.67817E+002,-7.44765E+000,9.92258E-001,1.28375E+002,-3.86300E+001,9.90621E-001,2.42122E-001,-1.02131E-001,-5.67577E-004,2.42123E-001,-1.02132E-001,-9.44642E-002,2.43108E-001,1.27350E+000,-3.95273E-002,0.00000E+000,2.82269E-002,9.05433E-001,0.00000E+000,-1.85317E-002,-8.05312E-002,1.00000E+000,40
1009,1307,1.59719E+001,-1.62300E+000,1.26255E-001,1.10614E+001,-4.25551E-001,7.33325E-002,1.10698E+001,2.09918E-002,5.51481E-001,0,1.67659E+002,-8.21174E+000,9.95295E-001,1.27912E+002,-3.93317E+001,9.96048E-001,2.42436E-001,-1.02112E-001,-3.20266E-004,2.42436E-001,-1.02112E-001,-5.32578E-002,2.43438E-001,1.27385E+000,-3.95244E-002,0.00000E+000,2.84916E-002,9.05435E-001,0.00000E+000,-1.60626E-002,-8.05107E-002,1.00000E+000,40
1009,1317,1.59516E+001,-1.04883E+000,3.67615E-002,1.10334E+001,-4.92719E-001,1.52212E-002,1.10444E+001,2.12154E-002,5.98270E-001,0,1.67466E+002,-9.19715E+000,9.96417E-001,1.27507E+002,-4.02192E+001,9.95933E-001,2.42744E-001,-1.02091E-001,-7.22959E-005,2.42744E-001,-1.02091E-001,-1.20123E-002,2.43762E-001,1.27421E+000,-3.95202E-002,0.00000E+000,2.87568E-002,9.05438E-001,0.00000E+000,-1.35896E-002,-8.04813E-002,1.00000E+000,40
849,1317,2.49364E+000,-1.26885E+000,1.47426E-001,8.02301E+000,-6.16391E-001,1.95238E-001,8.04902E+000,2.52291E-002,7.73103E-001,0,1.22784E+002,-1.11425E+001,9.95507E-001,7.91068E+001,-4.54983E+001,9.93697E-001,2.59652E-001,-1.08181E-001,-4.63505E-003,2.59711E-001,-1.08239E-001,-7.21829E-001,2.60907E-001,1.29650E+000,-6.06829E-003,0.00000E+000,-4.68224E-003,9.01885E-001,0.00000E+000,3.99435E-003,-9.91942E-002,1.00000E+000,40
1009,1327,1.59454E+001,-4.69486E-001,-1.54104E-002,1.10125E+001,-5.59004E-001,-3.58111E-002,1.10268E+001,1.98587E-002,5.69536E-001,0,1.67343E+002,-1.01478E+001,9.97845E-001,1.27387E+002,-4.11431E+001,9.97746E-001,2.43046E-001,-1.02065E-001,1.77514E-004,2.43046E-001,-1.02065E-001,2.94712E-002,2.44082E-001,1.27456E+000,-3.95122E-002,0.00000E+000,2.90226E-002,9.05444E-001,0.00000E+000,-1.11102E-002,-8.04255E-002,1.00000E+000,40
849,1307,2.46709E+000,-1.83707E+000,2.46201E-001,8.00080E+000,-5.48400E-001,2.51739E-001,8.02352E+000,2.73805E-002,8.12051E-001,0,1.22240E+002,-1.01866E+001,9.95758E-001,7.88177E+001,-4.44700E+001,9.94688E-001,2.60160E-001,-1.08181E-001,-4.66052E-003,2.60219E-001,-1.08240E-001,-7.24794E-001,2.61441E-001,1.29717E+000,-6.06378E-003,0.00000E+000,-4.91202E-003,9.01883E-001,0.00000E+000,5.99578E-003,-9.91808E-002,1.00000E+000,40
839,1337,1.69053E+000,-1.41155E-001,3.97644E-002,7.83910E+000,-7.68512E-001,7.11713E-002,7.87700E+000,4.71363E-002,7.13140E-001,0,1.20475E+002,-1.32763E+001,9.96462E-001,7.66602E+001,-4.79883E+001,9.95310E-001,2.58505E-001,-1.08321E-001,-3.81202E-003,2.58545E-001,-1.08361E-001,-5.95327E-001,2.59670E-001,1.29500E+000,-4.68149E-003,0.00000E+000,-3.69366E-003,9.01595E-001,0.00000E+000,-8.45078E-004,-9.73993E-002,1.00000E+000,40
839,1347,1.70852E+000,4.42524E-001,1.57229E-002,7.83954E+000,-8.29065E-001,2.39400E-002,7.88329E+000,1.99720E-002,6.48542E-001,0,1.20632E+002,-1.41402E+001,9.96619E-001,7.69852E+001,-4.89557E+001,9.96071E-001,2.58282E-001,-1.08320E-001,-3.79333E-003,2.58321E-001,-1.08359E-001,-5.92770E-001,2.59436E-001,1.29472E+000,-4.68908E-003,0.00000E+000,-3.45993E-003,9.01601E-001,0.00000E+000,-3.06561E-003,-9.74586E-002,1.00000E+000,40
839,1357,1.74576E+000,1.04241E+000,3.89526E-002,7.84782E+000,-8.83279E-001,-3.18769E-002,7.89743E+000,1.70287E-002,6.39355E-001,0,1.20921E+002,-1.48920E+001,9.97267E-001,7.77148E+001,-4.97493E+001,9.97022E-001,2.58052E-001,-1.08318E-001,-3.77652E-003,2.58091E-001,-1.08357E-001,-5.90518E-001,2.59194E-001,1.29443E+000,-4.70159E-003,0.00000E+000,-3.22422E-003,9.01611E-001,0.00000E+000,-5.30489E-003,-9.75563E-002,1.00000E+000,40
1019,1337,1.67863E+001,1.51474E-001,-4.49167E-002,1.11798E+001,-5.93036E-001,-7.62913E-002,1.11958E+001,2.34211E-002,6.63247E-001,0,1.69880E+002,-1.06928E+001,9.96913E-001,1.30484E+002,-4.13017E+001,9.97351E-001,2.43073E-001,-1.01920E-001,9.37453E-005,2.43073E-001,-1.01920E-001,1.55690E-002,2.44126E-001,1.27457E+000,-3.92882E-002,0.00000E+000,2.83855E-002,9.05446E-001,0.00000E+000,-6.69277E-003,-7.84733E-002,1.00000E+000,40
1019,1347,1.67782E+001,7.21378E-001,-3.60393E-002,1.11499E+001,-6.73322E-001,-9.71575E-002,1.11706E+001,2.06936E-002,6.01418E-001,0,1.69499E+002,-1.19135E+001,9.97790E-001,1.30439E+002,-4.25243E+001,9.97766E-001,2.43531E-001,-1.01894E-001,3.01779E-004,2.43532E-001,-1.01895E-001,5.00561E-002,2.44610E-001,1.27514E+000,-3.92689E-002,0.00000E+000,2.85934E-002,9.05453E-001,0.00000E+000,-4.58127E-003,-7.84027E-002,1.00000E+000,40
839,1327,1.65091E+000,-6.95572E-001,5.95741E-002,7.81907E+000,-6.76690E-001,1.23972E-001,7.84928E+000,4.17250E-002,7.12191E-001,0,1.19990E+002,-1.19154E+001,9.97452E-001,7.59974E+001,-4.65973E+001,9.96630E-001,2.58724E-001,-1.08323E-001,-3.83056E-003,2.58763E-001,-1.08363E-001,-5.97863E-001,2.59899E-001,1.29528E+000,-4.67302E-003,0.00000E+000,-3.92785E-003,9.01588E-001,0.00000E+000,1.37970E-003,-9.73332E-002,1.00000E+000,40
1019,1327,1.67846E+001,-4.44729E-001,-2.49669E-002,1.11964E+001,-5.40505E-001,-4.22853E-002,1.12096E+001,2.17650E-002,6.12251E-001,0,1.70015E+002,-9.88527E+000,9.96709E-001,1.30426E+002,-4.06102E+001,9.96712E-001,2.42610E-001,-1.01943E-001,-1.13357E-004,2.42610E-001,-1.01943E-001,-1.88501E-002,2.43638E-001,1.27399E+000,-3.93043E-002,0.00000E+000,2.81776E-002,9.05440E-001,0.00000E+000,-8.80394E-003,-7.85323E-002,1.00000E+000,40
1019,1317,1.67929E+001,-1.02935E+000,3.40625E-002,1.12158E+001,-4.80506E-001,-4.97836E-004,1.12261E+001,2.13570E-002,6.10668E-001,0,1.70146E+002,-9.01170E+000,9.97317E-001,1.30590E+002,-3.97997E+001,9.97035E-001,2.42143E-001,-1.01962E-001,-3.17842E-004,2.42144E-001,-1.01962E-001,-5.29227E-002,2.43147E-001,1.27342E+000,-3.93140E-002,0.00000E+000,2.79701E-002,9.05436E-001,0.00000E+000,-1.09105E-002,-7.85680E-002,1.00000E+000,40
839,1317,1.64593E+000,-1.26063E+000,1.42909E-001,7.82206E+000,-6.02401E-001,1.83048E-001,7.84736E+000,2.10077E-002,7.10775E-001,0,1.19827E+002,-1.08642E+001,9.95807E-001,7.60090E+001,-4.55035E+001,9.93135E-001,2.58936E-001,-1.08323E-001,-3.85097E-003,2.58977E-001,-1.08364E-001,-6.00698E-001,2.60123E-001,1.29557E+000,-4.66956E-003,0.00000E+000,-4.16118E-003,9.01585E-001,0.00000E+000,3.59638E-003,-9.73061E-002,1.00000E+000,40
1019,1297,1.68222E+001,-2.17975E+000,1.99184E-001,1.12614E+001,-3.47795E-001,1.05278E-001,1.12672E+001,2.05215E-002,5.62445E-001,0,1.70413E+002,-7.05498E+000,9.97489E-001,1.31198E+002,-3.80086E+001,9.96999E-001,2.41199E-001,-1.01996E-001,-7.24251E-004,2.41200E-001,-1.01997E-001,-1.20912E-001,2.42155E-001,1.27227E+000,-3.93285E-002,0.00000E+000,2.75565E-002,9.05431E-001,0.00000E+000,-1.51106E-002,-7.86209E-002,1.00000E+000,40
1019,1307,1.67987E+001,-1.60405E+000,9.89484E-002,1.12318E+001,-4.13814E-001,4.35667E-002,1.12395E+001,2.48819E-002,6.25868E-001,0,1.70214E+002,-8.00649E+000,9.97713E-001,1.30726E+002,-3.88403E+001,9.97631E-001,2.41674E-001,-1.01980E-001,-5.21344E-004,2.41675E-001,-1.01981E-001,-8.69209E-002,2.42654E-001,1.27284E+000,-3.93230E-002,0.00000E+000,2.77636E-002,9.05433E-001,0.00000E+000,-1.30075E-002,-7.86009E-002,1.00000E+000,40
839,1307,1.63689E+000,-1.82471E+000,2.49688E-001,7.81685E+000,-5.30450E-001,2.45231E-001,7.83866E+000,1.88012E-002,6.93945E-001,0,1.19523E+002,-9.83972E+000,9.94265E-001,7.60102E+001,-4.44520E+001,9.91692E-001,2.59143E-001,-1.08323E-001,-3.87201E-003,2.59184E-001,-1.08364E-001,-6.03637E-001,2.60341E-001,1.29585E+000,-4.66787E-003,0.00000E+000,-4.39390E-003,9.01583E-001,0.00000E+000,5.80722E-003,-9.72930E-002,1.00000E+000,40
829,1337,8.46627E-001,-1.33618E-001,4.01629E-002,7.64463E+000,-7.53103E-001,7.78939E-002,7.68204E+000,3.44145E-002,7.21884E-001,0,1.17550E+002,-1.30477E+001,9.93989E-001,7.36378E+001,-4.79828E+001,9.92868E-001,2.57771E-001,-1.08256E-001,-3.03030E-003,2.57797E-001,-1.08281E-001,-4.74302E-001,2.58893E-001,1.29405E+000,-3.66931E-003,0.00000E+000,-2.87802E-003,9.01489E-001,0.00000E+000,-1.75699E-003,-9.55326E-002,1.00000E+000,40
829,1347,8.69471E-001,4.45293E-001,2.15205E-002,7.64750E+000,-8.21561E-001,2.35278E-002,7.69154E+000,1.88079E-002,6.75255E-001,0,1.17767E+002,-1.40032E+001,9.93836E-001,7.40499E+001,-4.90280E+001,9.93555E-001,2.57767E-001,-1.08262E-001,-3.11511E-003,2.57794E-001,-1.08288E-001,-4.87572E-001,2.58890E-001,1.29405E+000,-3.66920E-003,0.00000E+000,-2.83098E-003,9.01490E-001,0.00000E+000,-4.12978E-003,-9.56049E-002,1.00000E+000,40
829,1357,9.00259E-001,1.04175E+000,4.41814E-002,7.65097E+000,-8.78082E-001,-2.58315E-002,7.70124E+000,1.91145E-002,6.83330E-001,0,1.17963E+002,-1.48105E+001,9.96163E-001,7.46802E+001,-4.98675E+001,9.96151E-001,2.57758E-001,-1.08269E-001,-3.20051E-003,2.57786E-001,-1.08297E-001,-5.00940E-001,2.58880E-001,1.29406E+000,-3.66906E-003,0.00000E+000,-2.78374E-003,9.01492E-001,0.00000E+000,-6.51274E-003,-9.57037E-002,1.00000E+000,40
1029,1337,1.76023E+001,1.67285E-001,-5.70063E-002,1.13410E+001,-5.81711E-001,-8.12744E-002,1.13562E+001,1.96779E-002,6.38765E-001,0,1.72205E+002,-1.05302E+001,9.95556E-001,1.33163E+002,-4.09367E+001,9.95397E-001,2.42952E-001,-1.01540E-001,-1.03113E-004,2.42952E-001,-1.01540E-001,-1.71497E-002,2.44040E-001,1.27442E+000,-3.88276E-002,0.00000E+000,2.75659E-002,9.05688E-001,0.00000E+000,-4.68506E-003,-7.67243E-002,1.00000E+000,40
1029,1347,1.75993E+001,7.60538E-001,-4.62502E-002,1.13150E+001,-6.40455E-001,-1.04079E-001,1.13336E+001,1.92264E-002,6.45008E-001,0,1.71882E+002,-1.14344E+001,9.96829E-001,1.33199E+002,-4.17653E+001,9.96387E-001,2.43557E-001,-1.01514E-001,1.10218E-004,2.43557E-001,-1.01514E-001,1.83007E-002,2.44678E-001,1.27519E+000,-3.88007E-002,0.00000E+000,2.77882E-002,9.05696E-001,0.00000E+000,-2.72297E-003,-7.66557E-002,1.00000E+000,40
1029,1327,1.76176E+001,-4.20016E-001,-2.07113E-002,1.13719E+001,-5.21130E-001,-4.24997E-002,1.13839E+001,2.12125E-002,6.10549E-001,0,1.72529E+002,-9.63095E+000,9.95842E-001,1.33396E+002,-4.01313E+001,9.95605E-001,2.42344E-001,-1.01561E-001,-3.13072E-004,2.42344E-001,-1.01562E-001,-5.21588E-002,2.43400E-001,1.27365E+000,-3.88460E-002,0.00000E+000,2.73440E-002,9.05683E-001,0.00000E+000,-6.64273E-003,-7.67713E-002,1.00000E+000,40
829,1327,8.14485E-001,-6.96136E-001,5.89343E-002,7.62808E+000,-6.72124E-001,1.10701E-001,7.65844E+000,3.76205E-002,7.32609E-001,0,1.17184E+002,-1.18210E+001,9.94980E-001,7.30856E+001,-4.67059E+001,9.95095E-001,2.57770E-001,-1.08252E-001,-2.94593E-003,2.57794E-001,-1.08276E-001,-4.61105E-001,2.58891E-001,1.29405E+000,-3.66939E-003,0.00000E+000,-2.92490E-003,9.01488E-001,0.00000E+000,6.07795E-004,-9.54761E-002,1.00000E+000,40
829,1307,8.18093E-001,-1.83399E+000,2.70915E-001,7.64399E+000,-5.34840E-001,2.56965E-001,7.66698E+000,2.33158E-002,6.37129E-001,0,1.16918E+002,-9.89902E+000,9.95281E-001,7.34203E+001,-4.47740E+001,9.92441E-001,2.57750E-001,-1.08249E-001,-2.77795E-003,2.57771E-001,-1.08270E-001,-4.34844E-001,2.58868E-001,1.29404E+000,-3.66946E-003,0.00000E+000,-3.01833E-003,9.01487E-001,0.00000E+000,5.32076E-003,-9.54313E-002,1.00000E+000,40
829,1317,8.08925E-001,-1.26319E+000,1.41737E-001,7.63176E+000,-5.99686E-001,1.75971E-001,7.65730E+000,2.69083E-002,6.77237E-001,0,1.17015E+002,-1.07764E+001,9.94000E-001,7.30875E+001,-4.56671E+001,9.93771E-001,2.57763E-001,-1.08249E-001,-2.86184E-003,2.57785E-001,-1.08272E-001,-4.47957E-001,2.58883E-001,1.29404E+000,-3.66944E-003,0.00000E+000,-2.97167E-003,9.01487E-001,0.00000E+000,2.96694E-003,-9.54425E-002,1.00000E+000,40
1029,1317,1.76265E+001,-1.01244E+000,2.55460E-002,1.13922E+001,-4.70386E-001,-1.22829E-002,1.14019E+001,2.22857E-002,6.20903E-001,0,1.72722E+002,-8.85165E+000,9.97417E-001,1.33548E+002,-3.94097E+001,9.96200E-001,2.41734E-001,-1.01580E-001,-5.20345E-004,2.41735E-001,-1.01581E-001,-8.68401E-002,2.42759E-001,1.27289E+000,-3.88594E-002,0.00000E+000,2.71232E-002,9.05679E-001,0.00000E+000,-8.59092E-003,-7.68054E-002,1.00000E+000,40
1029,1307,1.76422E+001,-1.58587E+000,1.14699E-001,1.14168E+001,-4.02511E-001,4.97007E-002,1.14240E+001,1.83925E-002,6.63031E-001,0,1.72846E+002,-7.88931E+000,9.97641E-001,1.33879E+002,-3.84697E+001,9.95691E-001,2.41122E-001,-1.01597E-001,-7.26382E-004,2.41123E-001,-1.01599E-001,-1.21436E-001,2.42115E-001,1.27213E+000,-3.88697E-002,0.00000E+000,2.69028E-002,9.05676E-001,0.00000E+000,-1.05363E-002,-7.68318E-002,1.00000E+000,40
1029,1297,1.76609E+001,-2.15458E+000,2.13255E-001,1.14421E+001,-3.29484E-001,1.11478E-001,1.14474E+001,1.83685E-002,6.26065E-001,0,1.72976E+002,-6.83457E+000,9.96781E-001,1.34275E+002,-3.75149E+001,9.95894E-001,2.40503E-001,-1.01613E-001,-9.32024E-004,2.40506E-001,-1.01616E-001,-1.56089E-001,2.41467E-001,1.27136E+000,-3.88775E-002,0.00000E+000,2.66819E-002,9.05674E-001,0.00000E+000,-1.24856E-002,-7.68517E-002,1.00000E+000,40
819,1317,-2.41793E-002,-1.27599E+000,1.49772E-001,7.44421E+000,-6.08000E-001,1.74458E-001,7.47103E+000,2.67806E-002,6.59645E-001,0,1.14224E+002,-1.08765E+001,9.92249E-001,7.02509E+001,-4.60001E+001,9.91539E-001,2.56075E-001,-1.07894E-001,-2.16002E-003,2.56088E-001,-1.07907E-001,-3.40013E-001,2.57142E-001,1.29185E+000,-3.50179E-003,0.00000E+000,-1.71589E-003,9.01620E-001,0.00000E+000,2.09272E-003,-9.32416E-002,1.00000E+000,40
819,1327,-2.03366E-002,-7.08486E-001,7.00318E-002,7.44111E+000,-6.77919E-001,1.23175E-001,7.47294E+000,2.66214E-002,6.69761E-001,0,1.14357E+002,-1.18939E+001,9.94234E-001,7.02294E+001,-4.70634E+001,9.93881E-001,2.56207E-001,-1.07898E-001,-2.32741E-003,2.56222E-001,-1.07913E-001,-3.66222E-001,2.57282E-001,1.29202E+000,-3.49998E-003,0.00000E+000,-1.84310E-003,9.01619E-001,0.00000E+000,-8.66041E-005,-9.32651E-002,1.00000E+000,40
819,1337,2.13374E-003,-1.30789E-001,2.84278E-002,7.44879E+000,-7.43984E-001,7.09415E-002,7.48619E+000,2.26545E-002,6.95005E-001,0,1.14646E+002,-1.28474E+001,9.94013E-001,7.05839E+001,-4.80418E+001,9.93205E-001,2.56335E-001,-1.07907E-001,-2.49498E-003,2.56353E-001,-1.07924E-001,-3.92440E-001,2.57417E-001,1.29219E+000,-3.49614E-003,0.00000E+000,-1.97098E-003,9.01616E-001,0.00000E+000,-2.27730E-003,-9.33149E-002,1.00000E+000,40
819,1307,-2.73994E-002,-1.84193E+000,2.42785E-001,7.44488E+000,-5.39899E-001,2.23859E-001,7.46778E+000,2.49036E-002,6.66581E-001,0,1.14057E+002,-9.87187E+000,9.94557E-001,7.03126E+001,-4.49316E+001,9.93313E-001,2.55939E-001,-1.07892E-001,-1.99295E-003,2.55950E-001,-1.07903E-001,-3.13836E-001,2.56997E-001,1.29169E+000,-3.50281E-003,0.00000E+000,-1.58912E-003,9.01621E-001,0.00000E+000,4.26450E-003,-9.32284E-002,1.00000E+000,40
819,1347,3.31826E-002,4.58774E-001,2.25733E-002,7.45964E+000,-8.02124E-001,2.74880E-002,7.50269E+000,2.17423E-002,7.08609E-001,0,1.14945E+002,-1.36933E+001,9.96273E-001,7.11544E+001,-4.89212E+001,9.96375E-001,2.56459E-001,-1.07917E-001,-2.66266E-003,2.56478E-001,-1.07937E-001,-4.18656E-001,2.57548E-001,1.29236E+000,-3.49091E-003,0.00000E+000,-2.09922E-003,9.01612E-001,0.00000E+000,-4.47439E-003,-9.33828E-002,1.00000E+000,40
819,1357,6.05270E-002,1.03297E+000,5.14858E-002,7.45934E+000,-8.80876E-001,-1.84228E-002,7.51119E+000,2.69592E-002,7.00066E-001,0,1.15077E+002,-1.48472E+001,9.95081E-001,7.17443E+001,-5.01286E+001,9.94806E-001,2.56578E-001,-1.07932E-001,-2.83047E-003,2.56600E-001,-1.07954E-001,-4.44873E-001,2.57673E-001,1.29253E+000,-3.48375E-003,0.00000E+000,-2.22795E-003,9.01607E-001,0.00000E+000,-6.67962E-003,-9.34758E-002,1.00000E+000,40
1039,1337,1.84400E+001,1.93651E-001,-5.72454E-002,1.15217E+001,-5.62190E-001,-8.12574E-002,1.15357E+001,1.72719E-002,6.49092E-001,0,1.74795E+002,-1.02523E+001,9.96940E-001,1.36203E+002,-4.04142E+001,9.95713E-001,2.43031E-001,-1.01019E-001,-6.12768E-004,2.43032E-001,-1.01020E-001,-1.02046E-001,2.44182E-001,1.27452E+000,-3.86952E-002,0.00000E+000,2.63899E-002,9.06119E-001,0.00000E+000,-2.44259E-003,-7.56695E-002,1.00000E+000,40
1039,1347,1.84336E+001,7.66755E-001,-4.99127E-002,1.14926E+001,-6.39004E-001,-1.05711E-001,1.15108E+001,1.75205E-002,6.05675E-001,0,1.74440E+002,-1.14379E+001,9.98165E-001,1.36177E+002,-4.15710E+001,9.97415E-001,2.43735E-001,-1.01005E-001,-4.82288E-004,2.43736E-001,-1.01005E-001,-8.01561E-002,2.44923E-001,1.27542E+000,-3.86641E-002,0.00000E+000,2.64627E-002,9.06122E-001,0.00000E+000,-5.83225E-004,-7.56054E-002,1.00000E+000,40
1039,1317,1.84587E+001,-9.75806E-001,2.72277E-002,1.15686E+001,-4.38527E-001,-6.58759E-003,1.15770E+001,1.91541E-002,5.66658E-001,0,1.75221E+002,-8.37848E+000,9.96717E-001,1.36510E+002,-3.87684E+001,9.95184E-001,2.41611E-001,-1.01041E-001,-8.65463E-004,2.41613E-001,-1.01044E-001,-1.44715E-001,2.42688E-001,1.27272E+000,-3.87341E-002,0.00000E+000,2.62444E-002,9.06116E-001,0.00000E+000,-6.15980E-003,-7.57497E-002,1.00000E+000,40
1039,1327,1.84516E+001,-3.95474E-001,-1.55110E-002,1.15494E+001,-5.01729E-001,-3.63458E-002,1.15603E+001,1.65551E-002,5.71474E-001,0,1.75046E+002,-9.36360E+000,9.97008E-001,1.36391E+002,-3.96757E+001,9.96174E-001,2.42320E-001,-1.01031E-001,-7.40453E-004,2.42322E-001,-1.01032E-001,-1.23560E-001,2.43434E-001,1.27362E+000,-3.87173E-002,0.00000E+000,2.63169E-002,9.06117E-001,0.00000E+000,-4.30793E-003,-7.57151E-002,1.00000E+000,40
1039,1307,1.84763E+001,-1.56096E+000,9.50241E-002,1.15956E+001,-3.81582E-001,3.59239E-002,1.16019E+001,1.97719E-002,6.01039E-001,0,1.75458E+002,-7.54298E+000,9.96316E-001,1.36834E+002,-3.79699E+001,9.95164E-001,2.40898E-001,-1.01051E-001,-9.89090E-004,2.40900E-001,-1.01054E-001,-1.65727E-001,2.41939E-001,1.27182E+000,-3.87470E-002,0.00000E+000,2.61719E-002,9.06115E-001,0.00000E+000,-8.01051E-003,-7.57762E-002,1.00000E+000,40
1039,1297,1.84973E+001,-2.13675E+000,1.96207E-001,1.16226E+001,-3.16144E-001,9.78587E-002,1.16273E+001,2.02928E-002,5.95026E-001,0,1.75614E+002,-6.61458E+000,9.94456E-001,1.37266E+002,-3.71167E+001,9.94288E-001,2.40180E-001,-1.01060E-001,-1.11124E-003,2.40184E-001,-1.01063E-001,-1.86580E-001,2.41187E-001,1.27092E+000,-3.87554E-002,0.00000E+000,2.60995E-002,9.06114E-001,0.00000E+000,-9.86210E-003,-7.57936E-002,1.00000E+000,40
1049,1337,1.92873E+001,2.20051E-001,-5.35753E-002,1.17109E+001,-5.40607E-001,-8.03109E-002,1.17237E+001,2.36045E-002,6.45822E-001,0,1.77502E+002,-9.97776E+000,9.98544E-001,1.39405E+002,-3.99055E+001,9.97327E-001,2.43040E-001,-1.00948E-001,-1.37928E-003,2.43046E-001,-1.00953E-001,-2.29733E-001,2.44204E-001,1.27454E+000,-3.84622E-002,0.00000E+000,2.47144E-002,9.06129E-001,0.00000E+000,-9.55709E-004,-7.41846E-002,1.00000E+000,40
1049,1347,1.92930E+001,7.97842E-001,-4.03515E-002,1.16914E+001,-6.16665E-001,-1.08405E-001,1.17082E+001,1.88855E-002,6.42720E-001,0,1.77302E+002,-1.11305E+001,9.98098E-001,1.39575E+002,-4.09796E+001,9.96363E-001,2.43862E-001,-1.00947E-001,-1.34933E-003,2.43867E-001,-1.00953E-001,-2.24209E-001,2.45068E-001,1.27560E+000,-3.84221E-002,0.00000E+000,2.46205E-002,9.06126E-001,0.00000E+000,5.16035E-004,-7.41286E-002,1.00000E+000,40
1049,1307,1.93179E+001,-1.53272E+000,1.00411E-001,1.17775E+001,-3.58951E-001,3.07596E-002,1.17830E+001,2.34829E-002,5.41600E-001,0,1.78073E+002,-7.20188E+000,9.97036E-001,1.39951E+002,-3.74699E+001,9.96174E-001,2.40574E-001,-1.00949E-001,-1.44578E-003,2.40580E-001,-1.00955E-001,-2.42546E-001,2.41614E-001,1.27140E+000,-3.85199E-002,0.00000E+000,2.49943E-002,9.06134E-001,0.00000E+000,-5.34053E-003,-7.42651E-002,1.00000E+000,40
1049,1317,1.92972E+001,-9.51287E-001,2.89760E-002,1.17471E+001,-4.20461E-001,-1.66741E-002,1.17546E+001,1.96198E-002,5.85101E-001,0,1.77804E+002,-8.12937E+000,9.96034E-001,1.39573E+002,-3.82782E+001,9.94607E-001,2.41398E-001,-1.00948E-001,-1.42491E-003,2.41404E-001,-1.00954E-001,-2.38470E-001,2.42478E-001,1.27245E+000,-3.85043E-002,0.00000E+000,2.49011E-002,9.06133E-001,0.00000E+000,-3.88135E-003,-7.42433E-002,1.00000E+000,40
1049,1327,1.92895E+001,-3.78567E-001,-2.22683E-002,1.17302E+001,-4.90925E-001,-4.13821E-002,1.17405E+001,1.29561E-002,5.55945E-001,0,1.77655E+002,-9.20037E+000,9.97600E-001,1.39428E+002,-3.93004E+001,9.95710E-001,2.42219E-001,-1.00948E-001,-1.40451E-003,2.42225E-001,-1.00954E-001,-2.34494E-001,2.43341E-001,1.27349E+000,-3.84896E-002,0.00000E+000,2.48079E-002,9.06132E-001,0.00000E+000,-2.42115E-003,-7.42229E-002,1.00000E+000,40
809,1347,-8.20558E-001,4.43532E-001,1.77904E-002,7.25423E+000,-8.09868E-001,2.71082E-002,7.29935E+000,1.79748E-002,6.94072E-001,0,1.11873E+002,-1.37899E+001,9.97763E-001,6.79775E+001,-4.92714E+001,9.97664E-001,2.55005E-001,-1.07492E-001,-2.25139E-003,2.55019E-001,-1.07506E-001,-3.55834E-001,2.56063E-001,1.29048E+000,-3.87349E-003,0.00000E+000,-1.07349E-003,9.01814E-001,0.00000E+000,-4.59859E-003,-9.11740E-002,1.00000E+000,40
809,1357,-7.92954E-001,1.02484E+000,5.39818E-002,7.25370E+000,-8.82372E-001,-1.50356E-002,7.30719E+000,2.14764E-002,6.73363E-001,0,1.11986E+002,-1.48395E+001,9.96497E-001,6.85920E+001,-5.03930E+001,9.95983E-001,2.55310E-001,-1.07518E-001,-2.53519E-003,2.55327E-001,-1.07535E-001,-4.00317E-001,2.56383E-001,1.29089E+000,-3.85594E-003,0.00000E+000,-1.44471E-003,9.01798E-001,0.00000E+000,-6.59047E-003,-9.12596E-002,1.00000E+000,40
809,1327,-8.60409E-001,-7.24425E-001,5.76403E-002,7.24845E+000,-6.89877E-001,1.12437E-001,7.28208E+000,1.64601E-002,7.07583E-001,0,1.11516E+002,-1.20214E+001,9.97318E-001,6.72431E+001,-4.73764E+001,9.96421E-001,2.54389E-001,-1.07459E-001,-1.68414E-003,2.54397E-001,-1.07467E-001,-2.66663E-001,2.55415E-001,1.28967E+000,-3.89475E-003,0.00000E+000,-3.37545E-004,9.01833E-001,0.00000E+000,-6.49719E-004,-9.10702E-002,1.00000E+000,40
809,1337,-8.38582E-001,-1.44903E-001,3.65663E-002,7.25518E+000,-7.52741E-001,7.83819E-002,7.29455E+000,1.56777E-002,6.95483E-001,0,1.11729E+002,-1.29687E+001,9.97260E-001,6.76362E+001,-4.83917E+001,9.97160E-001,2.54699E-001,-1.07474E-001,-1.96779E-003,2.54709E-001,-1.07484E-001,-3.11293E-001,2.55741E-001,1.29007E+000,-3.88533E-003,0.00000E+000,-7.05024E-004,9.01825E-001,0.00000E+000,-2.62152E-003,-9.11162E-002,1.00000E+000,40
809,1307,-8.69791E-001,-1.84075E+000,2.54411E-001,7.24987E+000,-5.33797E-001,2.37423E-001,7.27337E+000,2.98272E-002,7.55990E-001,0,1.11098E+002,-9.81921E+000,9.88805E-001,6.73500E+001,-4.50022E+001,9.87949E-001,2.53760E-001,-1.07447E-001,-1.11468E-003,2.53763E-001,-1.07450E-001,-1.76812E-001,2.54753E-001,1.28887E+000,-3.90153E-003,0.00000E+000,3.94521E-004,9.01839E-001,0.00000E+000,3.27836E-003,-9.10371E-002,1.00000E+000,40
809,1317,-8.62324E-001,-1.27965E+000,1.49027E-001,7.25365E+000,-6.07691E-001,1.76586E-001,7.28120E+000,2.64436E-002,7.31575E-001,0,1.11371E+002,-1.08602E+001,9.95870E-001,6.73237E+001,-4.61295E+001,9.94680E-001,2.54076E-001,-1.07452E-001,-1.39956E-003,2.54082E-001,-1.07457E-001,-2.21801E-001,2.55086E-001,1.28927E+000,-3.89921E-003,0.00000E+000,2.88104E-005,9.01837E-001,0.00000E+000,1.31605E-003,-9.10484E-002,1.00000E+000,40
1049,1297,1.93279E+001,-2.12221E+000,1.89513E-001,1.17961E+001,-3.06393E-001,9.08518E-002,1.18004E+001,2.02910E-002,5.46765E-001,0,1.78116E+002,-6.45824E+000,9.95177E-001,1.40191E+002,-3.68011E+001,9.93334E-001,2.39748E-001,-1.00949E-001,-1.46604E-003,2.39755E-001,-1.00955E-001,-2.46541E-001,2.40748E-001,1.27036E+000,-3.85336E-002,0.00000E+000,2.50873E-002,9.06136E-001,0.00000E+000,-6.79861E-003,-7.42842E-002,1.00000E+000,40
799,1337,-1.68036E+000,-1.53506E-001,3.30245E-002,7.06104E+000,-7.54766E-001,7.87769E-002,7.10170E+000,1.63395E-002,6.83144E-001,0,1.08821E+002,-1.29723E+001,9.97324E-001,6.46522E+001,-4.86378E+001,9.97529E-001,2.52535E-001,-1.07009E-001,-1.40837E-003,2.52540E-001,-1.07015E-001,-2.24429E-001,2.53517E-001,1.28728E+000,-4.44447E-003,0.00000E+000,7.44348E-004,9.02063E-001,0.00000E+000,-3.01744E-003,-8.89031E-002,1.00000E+000,40
799,1347,-1.66005E+000,4.30023E-001,1.74069E-002,7.06288E+000,-8.16682E-001,3.24622E-002,7.11002E+000,1.91882E-002,6.86102E-001,0,1.08993E+002,-1.38751E+001,9.96383E-001,6.50365E+001,-4.95995E+001,9.96276E-001,2.52916E-001,-1.07034E-001,-1.79595E-003,2.52925E-001,-1.07043E-001,-2.85864E-001,2.53917E-001,1.28778E+000,-4.43024E-003,0.00000E+000,1.54891E-004,9.02047E-001,0.00000E+000,-4.69122E-003,-8.89507E-002,1.00000E+000,40
799,1357,-1.62666E+000,1.02202E+000,5.51999E-002,7.06819E+000,-8.78175E-001,-8.98799E-003,7.12254E+000,1.95691E-002,6.77316E-001,0,1.09190E+002,-1.47652E+001,9.95475E-001,6.57483E+001,-5.05549E+001,9.95118E-001,2.53297E-001,-1.07070E-001,-2.18361E-003,2.53310E-001,-1.07083E-001,-3.47162E-001,2.54316E-001,1.28829E+000,-4.40861E-003,0.00000E+000,-4.38707E-004,9.02021E-001,0.00000E+000,-6.37677E-003,-8.90232E-002,1.00000E+000,40
799,1327,-1.69123E+000,-7.37399E-001,8.86441E-002,7.06471E+000,-6.95711E-001,1.45134E-001,7.10037E+000,2.42154E-002,6.85820E-001,0,1.08664E+002,-1.21696E+001,9.97945E-001,6.45068E+001,-4.77657E+001,9.96951E-001,2.52151E-001,-1.06989E-001,-1.02036E-003,2.52154E-001,-1.06992E-001,-1.62782E-001,2.53115E-001,1.28678E+000,-4.45568E-003,0.00000E+000,1.33284E-003,9.02077E-001,0.00000E+000,-1.34638E-003,-8.88655E-002,1.00000E+000,40
1059,1327,2.01282E+001,-3.65908E-001,-2.36305E-002,1.19107E+001,-4.84766E-001,-4.45891E-002,1.19206E+001,1.96744E-002,5.84940E-001,0,1.80248E+002,-9.13679E+000,9.98149E-001,1.42492E+002,-3.89806E+001,9.96578E-001,2.42421E-001,-1.01354E-001,-1.78459E-003,2.42430E-001,-1.01363E-001,-2.97420E-001,2.43511E-001,1.27379E+000,-3.74039E-002,0.00000E+000,2.32222E-002,9.05697E-001,0.00000E+000,-8.69066E-004,-7.25959E-002,1.00000E+000,40
1059,1337,2.01314E+001,2.38253E-001,-5.23147E-002,1.18962E+001,-5.29317E-001,-8.25180E-002,1.19083E+001,1.62403E-002,6.28206E-001,0,1.80162E+002,-9.81686E+000,9.98827E-001,1.42557E+002,-3.95264E+001,9.98080E-001,2.43259E-001,-1.01361E-001,-1.82702E-003,2.43269E-001,-1.01371E-001,-3.03745E-001,2.44392E-001,1.27486E+000,-3.73750E-002,0.00000E+000,2.30380E-002,9.05692E-001,0.00000E+000,9.40148E-005,-7.25700E-002,1.00000E+000,40
1059,1347,2.01408E+001,8.19634E-001,-3.79365E-002,1.18800E+001,-6.01173E-001,-1.10483E-001,1.18958E+001,2.21744E-002,5.98702E-001,0,1.80008E+002,-1.09087E+001,9.98570E-001,1.42784E+002,-4.05586E+001,9.96593E-001,2.44098E-001,-1.01370E-001,-1.86482E-003,2.44109E-001,-1.01380E-001,-3.09268E-001,2.45273E-001,1.27593E+000,-3.73334E-002,0.00000E+000,2.28532E-002,9.05685E-001,0.00000E+000,1.05993E-003,-7.25326E-002,1.00000E+000,40
1059,1297,2.01592E+001,-2.10054E+000,1.72505E-001,1.19718E+001,-2.87834E-001,8.21098E-002,1.19755E+001,1.97520E-002,4.82229E-001,0,1.80654E+002,-6.16304E+000,9.95937E-001,1.43116E+002,-3.63611E+001,9.92716E-001,2.39903E-001,-1.01337E-001,-1.64387E-003,2.39911E-001,-1.01345E-001,-2.76005E-001,2.40871E-001,1.27058E+000,-3.74532E-002,0.00000E+000,2.37728E-002,9.05705E-001,0.00000E+000,-3.74806E-003,-7.26401E-002,1.00000E+000,40
1059,1307,2.01506E+001,-1.51614E+000,9.31667E-002,1.19546E+001,-3.44795E-001,3.17447E-002,1.19596E+001,2.00415E-002,4.98000E-001,0,1.80597E+002,-7.02037E+000,9.97571E-001,1.42914E+002,-3.71171E+001,9.96899E-001,2.40741E-001,-1.01342E-001,-1.69143E-003,2.40750E-001,-1.01351E-001,-2.83290E-001,2.41750E-001,1.27164E+000,-3.74391E-002,0.00000E+000,2.35898E-002,9.05703E-001,0.00000E+000,-2.79142E-003,-7.26275E-002,1.00000E+000,40
1059,1317,2.01271E+001,-9.41796E-001,5.29089E-003,1.19218E+001,-4.14220E-001,-2.97873E-002,1.19290E+001,2.09001E-002,5.92424E-001,0,1.80353E+002,-8.05020E+000,9.96939E-001,1.42464E+002,-3.79729E+001,9.95063E-001,2.41581E-001,-1.01348E-001,-1.73882E-003,2.41589E-001,-1.01357E-001,-2.90509E-001,2.42630E-001,1.27271E+000,-3.74239E-002,0.00000E+000,2.34062E-002,9.05700E-001,0.00000E+000,-1.83150E-003,-7.26138E-002,1.00000E+000,40
799,1307,-1.69646E+000,-1.84890E+000,2.64829E-001,7.06898E+000,-5.36302E-001,2.43644E-001,7.09348E+000,3.79720E-002,7.37457E-001,0,1.08376E+002,-9.85690E+000,9.92238E-001,6.46325E+001,-4.52665E+001,9.91881E-001,2.51379E-001,-1.06973E-001,-2.43438E-004,2.51379E-001,-1.06973E-001,-3.89226E-002,2.52307E-001,1.28579E+000,-4.46306E-003,0.00000E+000,2.50269E-003,9.02085E-001,0.00000E+000,1.97545E-003,-8.88408E-002,1.00000E+000,40
799,1317,-1.69567E+000,-1.28980E+000,1.62766E-001,7.06879E+000,-6.10385E-001,1.99608E-001,7.09790E+000,3.17591E-002,7.54547E-001,0,1.08536E+002,-1.09526E+001,9.95124E-001,6.45091E+001,-4.64139E+001,9.93775E-001,2.51766E-001,-1.06976E-001,-6.32470E-004,2.51767E-001,-1.06978E-001,-1.01013E-001,2.52712E-001,1.28629E+000,-4.46227E-003,0.00000E+000,1.91858E-003,9.02084E-001,0.00000E+000,3.16833E-004,-8.88434E-002,1.00000E+000,40
789,1327,-2.52189E+000,-7.43150E-001,8.69369E-002,6.88137E+000,-6.94667E-001,1.48664E-001,6.91795E+000,2.39889E-002,7.01855E-001,0,1.05908E+002,-1.21533E+001,9.96934E-001,6.17043E+001,-4.79545E+001,9.96303E-001,2.49991E-001,-1.06522E-001,-6.59877E-004,2.49992E-001,-1.06523E-001,-1.06049E-001,2.50900E-001,1.28401E+000,-5.24259E-003,0.00000E+000,2.60046E-003,9.02353E-001,0.00000E+000,-1.99524E-003,-8.70598E-002,1.00000E+000,40
789,1337,-2.50824E+000,-1.52992E-001,3.97438E-002,6.87995E+000,-7.47716E-001,8.73988E-002,6.92102E+000,1.96366E-002,6.68593E-001,0,1.06079E+002,-1.28580E+001,9.95979E-001,6.19139E+001,-4.87651E+001,9.96019E-001,2.50502E-001,-1.06548E-001,-1.13023E-003,2.50505E-001,-1.06552E-001,-1.81365E-001,2.51434E-001,1.28467E+000,-5.22718E-003,0.00000E+000,1.83069E-003,9.02335E-001,0.00000E+000,-3.36247E-003,-8.70916E-002,1.00000E+000,40
789,1347,-2.48341E+000,4.30195E-001,2.61619E-002,6.88602E+000,-8.11005E-001,4.09033E-002,6.93374E+000,2.10313E-002,7.10860E-001,0,1.06316E+002,-1.37872E+001,9.94838E-001,6.23735E+001,-4.97184E+001,9.94278E-001,2.51011E-001,-1.06579E-001,-1.60061E-003,2.51019E-001,-1.06586E-001,-2.56454E-001,2.51968E-001,1.28533E+000,-5.20800E-003,0.00000E+000,1.05860E-003,9.02312E-001,0.00000E+000,-4.73383E-003,-8.71313E-002,1.00000E+000,40
789,1357,-2.45929E+000,1.01604E+000,5.30884E-002,6.88359E+000,-8.77453E-001,-4.87959E-003,6.93929E+000,1.94733E-002,7.13608E-001,0,1.06410E+002,-1.47490E+001,9.93832E-001,6.29186E+001,-5.07421E+001,9.93424E-001,2.51521E-001,-1.06621E-001,-2.07027E-003,2.51533E-001,-1.06633E-001,-3.31188E-001,2.52501E-001,1.28600E+000,-5.18087E-003,0.00000E+000,2.82908E-004,9.02281E-001,0.00000E+000,-6.11159E-003,-8.71874E-002,1.00000E+000,40
1069,1327,2.09688E+001,-3.52406E-001,-3.38542E-002,1.20936E+001,-4.77946E-001,-5.19673E-002,1.21032E+001,2.07535E-002,6.14150E-001,0,1.82890E+002,-9.04174E+000,9.97713E-001,1.45576E+002,-3.86283E+001,9.95854E-001,2.42710E-001,-1.01444E-001,-2.13463E-003,2.42723E-001,-1.01457E-001,-3.55361E-001,2.43809E-001,1.27418E+000,-3.65229E-002,0.00000E+000,2.18769E-002,9.05580E-001,0.00000E+000,1.96908E-004,-7.15341E-002,1.00000E+000,40
1069,1337,2.09635E+001,2.47062E-001,-5.12971E-002,1.20714E+001,-5.25354E-001,-7.49950E-002,1.20831E+001,1.36251E-002,5.55891E-001,0,1.82633E+002,-9.77121E+000,9.98284E-001,1.45525E+002,-3.93216E+001,9.97265E-001,2.43470E-001,-1.01456E-001,-2.22439E-003,2.43484E-001,-1.01470E-001,-3.69473E-001,2.44607E-001,1.27516E+000,-3.64978E-002,0.00000E+000,2.16436E-002,9.05574E-001,0.00000E+000,6.61987E-004,-7.15221E-002,1.00000E+000,40
1069,1347,2.09686E+001,8.34020E-001,-5.11276E-002,1.20527E+001,-5.91550E-001,-1.09406E-001,1.20677E+001,1.41248E-002,6.00254E-001,0,1.82468E+002,-1.07862E+001,9.98656E-001,1.45661E+002,-4.01977E+001,9.97503E-001,2.44234E-001,-1.01470E-001,-2.31084E-003,2.44249E-001,-1.01485E-001,-3.82968E-001,2.45409E-001,1.27613E+000,-3.64624E-002,0.00000E+000,2.14089E-002,9.05565E-001,0.00000E+000,1.12999E-003,-7.15052E-002,1.00000E+000,40
789,1307,-2.51920E+000,-1.86090E+000,2.62458E-001,6.89376E+000,-5.42137E-001,2.48131E-001,6.91950E+000,2.52453E-002,7.15577E-001,0,1.05747E+002,-9.92608E+000,9.94792E-001,6.19509E+001,-4.55645E+001,9.91286E-001,2.48969E-001,-1.06500E-001,2.82279E-004,2.48969E-001,-1.06500E-001,4.54987E-002,2.49834E-001,1.28269E+000,-5.25256E-003,0.00000E+000,4.12948E-003,9.02364E-001,0.00000E+000,7.20540E-004,-8.70391E-002,1.00000E+000,40
789,1317,-2.52380E+000,-1.30708E+000,1.78448E-001,6.88540E+000,-6.22523E-001,2.07734E-001,6.91660E+000,2.57072E-002,7.32191E-001,0,1.05767E+002,-1.11383E+001,9.94989E-001,6.17851E+001,-4.68347E+001,9.91737E-001,2.49481E-001,-1.06509E-001,-1.88834E-004,2.49481E-001,-1.06510E-001,-3.03923E-002,2.50367E-001,1.28335E+000,-5.24869E-003,0.00000E+000,3.36562E-003,9.02360E-001,0.00000E+000,-6.36193E-004,-8.70471E-002,1.00000E+000,40
1069,1297,2.09756E+001,-2.08144E+000,1.57368E-001,1.21339E+001,-2.72048E-001,8.27960E-002,1.21372E+001,2.56539E-002,5.18126E-001,0,1.82951E+002,-5.95957E+000,9.93106E-001,1.45816E+002,-3.59167E+001,9.88500E-001,2.40424E-001,-1.01414E-001,-1.85566E-003,2.40434E-001,-1.01425E-001,-3.11016E-001,2.41412E-001,1.27127E+000,-3.65726E-002,0.00000E+000,2.25767E-002,9.05592E-001,0.00000E+000,-1.19826E-003,-7.15579E-002,1.00000E+000,40
1069,1307,2.09739E+001,-1.50157E+000,6.79298E-002,1.21247E+001,-3.32874E-001,2.72786E-002,1.21293E+001,1.76296E-002,4.92631E-001,0,1.83039E+002,-6.84924E+000,9.97197E-001,1.45705E+002,-3.67392E+001,9.95513E-001,2.41183E-001,-1.01423E-001,-1.95023E-003,2.41195E-001,-1.01434E-001,-3.26133E-001,2.42207E-001,1.27223E+000,-3.65614E-002,0.00000E+000,2.23445E-002,9.05589E-001,0.00000E+000,-7.35450E-004,-7.15526E-002,1.00000E+000,40
1069,1317,2.09731E+001,-9.18358E-001,1.14773E-002,1.21110E+001,-3.96631E-001,-1.74283E-002,1.21175E+001,1.76904E-002,6.21735E-001,0,1.83009E+002,-7.83462E+000,9.98153E-001,1.45659E+002,-3.75031E+001,9.96098E-001,2.41947E-001,-1.01433E-001,-2.04246E-003,2.41959E-001,-1.01446E-001,-3.40786E-001,2.43008E-001,1.27321E+000,-3.65423E-002,0.00000E+000,2.21107E-002,9.05585E-001,0.00000E+000,-2.69352E-004,-7.15434E-002,1.00000E+000,40
779,1327,-3.34500E+000,-7.40926E-001,9.83977E-002,6.70416E+000,-6.88267E-001,1.60496E-001,6.74131E+000,3.36264E-002,7.37443E-001,0,1.03213E+002,-1.20528E+001,9.96471E-001,5.90565E+001,-4.80382E+001,9.95383E-001,2.47720E-001,-1.05729E-001,-6.38719E-004,2.47721E-001,-1.05730E-001,-1.03539E-001,2.48604E-001,1.28109E+000,-6.41897E-003,0.00000E+000,3.49454E-003,9.02948E-001,0.00000E+000,-2.30167E-003,-8.55298E-002,1.00000E+000,40
779,1337,-3.32999E+000,-1.69824E-001,4.36531E-002,6.70458E+000,-7.59046E-001,9.33377E-002,6.74806E+000,1.92362E-002,6.90555E-001,0,1.03436E+002,-1.30268E+001,9.94922E-001,5.92660E+001,-4.91349E+001,9.94746E-001,2.48468E-001,-1.05762E-001,-1.23379E-003,2.48473E-001,-1.05766E-001,-1.99560E-001,2.49386E-001,1.28205E+000,-6.39717E-003,0.00000E+000,2.45971E-003,9.02924E-001,0.00000E+000,-3.30834E-003,-8.55526E-002,1.00000E+000,40
779,1347,-3.31307E+000,4.20463E-001,2.92661E-002,6.70236E+000,-8.14292E-001,4.30988E-002,6.75178E+000,2.36229E-002,6.93301E-001,0,1.03553E+002,-1.38188E+001,9.92828E-001,5.96048E+001,-4.99997E+001,9.92175E-001,2.49217E-001,-1.05803E-001,-1.82817E-003,2.49226E-001,-1.05813E-001,-2.95033E-001,2.50170E-001,1.28302E+000,-6.36857E-003,0.00000E+000,1.42162E-003,9.02893E-001,0.00000E+000,-4.31819E-003,-8.55825E-002,1.00000E+000,40
779,1357,-3.29229E+000,1.01179E+000,5.72512E-002,6.69754E+000,-8.74835E-001,2.14252E-003,6.75444E+000,1.95075E-002,7.18937E-001,0,1.03594E+002,-1.47049E+001,9.93648E-001,6.01044E+001,-5.09324E+001,9.93679E-001,2.49968E-001,-1.05856E-001,-2.42268E-003,2.49985E-001,-1.05872E-001,-3.90082E-001,2.50958E-001,1.28399E+000,-6.33033E-003,0.00000E+000,3.76999E-004,9.02852E-001,0.00000E+000,-5.33439E-003,-8.56224E-002,1.00000E+000,40
779,1317,-3.33363E+000,-1.29635E+000,1.74631E-001,6.72129E+000,-6.05959E-001,2.03449E-001,6.75162E+000,3.17026E-002,7.17312E-001,0,1.03323E+002,-1.08522E+001,9.97391E-001,5.93081E+001,-4.67758E+001,9.96156E-001,2.46971E-001,-1.05712E-001,-3.94831E-005,2.46971E-001,-1.05712E-001,-6.41431E-003,2.47822E-001,1.28013E+000,-6.42761E-003,0.00000E+000,4.52777E-003,9.02957E-001,0.00000E+000,-1.29655E-003,-8.55208E-002,1.00000E+000,40
1079,1337,2.18015E+001,2.63061E-001,-6.97976E-002,1.22514E+001,-5.15771E-001,-8.98222E-002,1.22626E+001,2.34084E-002,5.70276E-001,0,1.85257E+002,-9.61664E+000,9.96535E-001,1.48560E+002,-3.89184E+001,9.96915E-001,2.44088E-001,-1.01786E-001,-2.58079E-003,2.44107E-001,-1.01805E-001,-4.27489E-001,2.45224E-001,1.27597E+000,-3.55824E-002,0.00000E+000,2.03034E-002,9.05272E-001,0.00000E+000,9.00791E-004,-7.09664E-002,1.00000E+000,40
1079,1347,2.18128E+001,8.50501E-001,-5.61124E-002,1.22386E+001,-5.81667E-001,-1.11114E-001,1.22529E+001,1.30535E-002,5.97393E-001,0,1.85129E+002,-1.06504E+001,9.98684E-001,1.48812E+002,-3.98230E+001,9.98526E-001,2.44766E-001,-1.01808E-001,-2.73543E-003,2.44787E-001,-1.01830E-001,-4.52185E-001,2.45936E-001,1.27684E+000,-3.55506E-002,0.00000E+000,1.99818E-002,9.05260E-001,0.00000E+000,8.46256E-004,-7.09684E-002,1.00000E+000,40
1079,1297,2.18189E+001,-2.05802E+000,1.57488E-001,1.23187E+001,-2.54537E-001,8.27850E-002,1.23216E+001,2.43839E-002,5.94963E-001,0,1.85578E+002,-5.74612E+000,9.95280E-001,1.48965E+002,-3.54141E+001,9.92931E-001,2.41386E-001,-1.01722E-001,-1.94282E-003,2.41397E-001,-1.01733E-001,-3.24420E-001,2.42388E-001,1.27252E+000,-3.56481E-002,0.00000E+000,2.15818E-002,9.05297E-001,0.00000E+000,1.11753E-003,-7.09623E-002,1.00000E+000,40
1079,1307,2.18091E+001,-1.48938E+000,6.31845E-002,1.23027E+001,-3.26612E-001,2.84053E-002,1.23071E+001,2.00291E-002,5.30815E-001,0,1.85569E+002,-6.78201E+000,9.97515E-001,1.48720E+002,-3.64190E+001,9.96067E-001,2.42059E-001,-1.01734E-001,-2.10478E-003,2.42072E-001,-1.01747E-001,-3.50760E-001,2.43094E-001,1.27338E+000,-3.56399E-002,0.00000E+000,2.12637E-002,9.05294E-001,0.00000E+000,1.06359E-003,-7.09628E-002,1.00000E+000,40
1079,1327,2.18051E+001,-3.36953E-001,-4.76725E-002,1.22716E+001,-4.68672E-001,-6.41987E-002,1.22807E+001,2.46315E-002,5.89901E-001,0,1.85472E+002,-8.88230E+000,9.97147E-001,1.48595E+002,-3.82653E+001,9.96619E-001,2.43413E-001,-1.01768E-001,-2.42330E-003,2.43430E-001,-1.01785E-001,-4.02212E-001,2.44515E-001,1.27511E+000,-3.56041E-002,0.00000E+000,2.06232E-002,9.05280E-001,0.00000E+000,9.54999E-004,-7.09651E-002,1.00000E+000,40
1079,1317,2.18028E+001,-9.01328E-001,-2.75663E-003,1.22837E+001,-3.85897E-001,-2.50622E-002,1.22897E+001,1.96426E-002,6.04406E-001,0,1.85493E+002,-7.64867E+000,9.97265E-001,1.48575E+002,-3.71139E+001,9.96204E-001,2.42736E-001,-1.01751E-001,-2.26452E-003,2.42751E-001,-1.01765E-001,-3.76618E-001,2.43805E-001,1.27425E+000,-3.56231E-002,0.00000E+000,2.09432E-002,9.05287E-001,0.00000E+000,1.00927E-003,-7.09639E-002,1.00000E+000,40
779,1307,-3.35165E+000,-1.87831E+000,2.76641E-001,6.70675E+000,-5.55165E-001,2.60827E-001,6.73474E+000,2.24799E-002,7.35075E-001,0,1.02907E+002,-1.01352E+001,9.96620E-001,5.91634E+001,-4.59618E+001,9.94446E-001,2.46224E-001,-1.05699E-001,5.57183E-004,2.46225E-001,-1.05700E-001,9.07134E-002,2.47045E-001,1.27917E+000,-6.43287E-003,0.00000E+000,5.55425E-003,9.02963E-001,0.00000E+000,-2.98000E-004,-8.55153E-002,1.00000E+000,40
1089,1337,2.26377E+001,2.84513E-001,-7.91205E-002,1.24292E+001,-5.01366E-001,-9.52394E-002,1.24397E+001,1.98028E-002,6.35493E-001,0,1.87803E+002,-9.42381E+000,9.96017E-001,1.51587E+002,-3.84259E+001,9.95813E-001,2.45331E-001,-1.02210E-001,-2.65810E-003,2.45351E-001,-1.02230E-001,-4.38182E-001,2.46484E-001,1.27760E+000,-3.41560E-002,0.00000E+000,1.90824E-002,9.04838E-001,0.00000E+000,1.46982E-003,-6.97517E-002,1.00000E+000,40
1089,1347,2.26460E+001,8.70626E-001,-6.93822E-002,1.24133E+001,-5.67758E-001,-1.20039E-001,1.24269E+001,1.40037E-002,6.04376E-001,0,1.87644E+002,-1.04442E+001,9.97997E-001,1.51785E+002,-3.93700E+001,9.97230E-001,2.46107E-001,-1.02238E-001,-2.85783E-003,2.46130E-001,-1.02261E-001,-4.70014E-001,2.47300E-001,1.27860E+000,-3.41195E-002,0.00000E+000,1.86863E-002,9.04823E-001,0.00000E+000,1.19614E-003,-6.97618E-002,1.00000E+000,40
769,1347,-4.14223E+000,4.09547E-001,3.47121E-002,6.51955E+000,-8.18900E-001,5.16630E-002,6.57099E+000,1.97004E-002,6.78979E-001,0,1.00780E+002,-1.38761E+001,9.93596E-001,5.68554E+001,-5.03030E+001,9.93835E-001,2.46808E-001,-1.05040E-001,-1.91253E-003,2.46818E-001,-1.05050E-001,-3.11429E-001,2.47727E-001,1.27992E+000,-7.32685E-003,0.00000E+000,1.92754E-003,9.03468E-001,0.00000E+000,-4.07198E-003,-8.40793E-002,1.00000E+000,40
769,1357,-4.11719E+000,1.00553E+000,5.77789E-002,6.51954E+000,-8.74379E-001,7.55958E-003,6.57792E+000,1.92315E-002,7.24057E-001,0,1.00903E+002,-1.46851E+001,9.95315E-001,5.74116E+001,-5.11447E+001,9.95306E-001,2.47411E-001,-1.05091E-001,-2.50083E-003,2.47428E-001,-1.05109E-001,-4.06458E-001,2.48359E-001,1.28070E+000,-7.29691E-003,0.00000E+000,8.94261E-004,9.03429E-001,0.00000E+000,-5.03076E-003,-8.41161E-002,1.00000E+000,40
769,1327,-4.16767E+000,-7.50478E-001,1.09493E-001,6.52466E+000,-6.92840E-001,1.59708E-001,6.56328E+000,2.41248E-002,7.60321E-001,0,1.00519E+002,-1.21287E+001,9.95961E-001,5.64189E+001,-4.83091E+001,9.94646E-001,2.45606E-001,-1.04971E-001,-7.36156E-004,2.45607E-001,-1.04972E-001,-1.20311E-001,2.46469E-001,1.27838E+000,-7.36342E-003,0.00000E+000,3.97835E-003,9.03517E-001,0.00000E+000,-2.16903E-003,-8.40343E-002,1.00000E+000,40
769,1337,-4.16020E+000,-1.86964E-001,4.72730E-002,6.52010E+000,-7.70457E-001,9.77379E-002,6.56619E+000,1.72382E-002,6.87993E-001,0,1.00653E+002,-1.31866E+001,9.95243E-001,5.64934E+001,-4.95225E+001,9.95100E-001,2.46207E-001,-1.04999E-001,-1.32514E-003,2.46212E-001,-1.05004E-001,-2.16179E-001,2.47098E-001,1.27915E+000,-7.34901E-003,0.00000E+000,2.95413E-003,9.03498E-001,0.00000E+000,-3.11940E-003,-8.40521E-002,1.00000E+000,40
1089,1327,2.26381E+001,-3.06584E-001,-6.63715E-002,1.24479E+001,-4.41765E-001,-7.24663E-002,1.24559E+001,2.14233E-002,5.73608E-001,0,1.88004E+002,-8.48733E+000,9.96064E-001,1.51559E+002,-3.76569E+001,9.94920E-001,2.44554E-001,-1.02186E-001,-2.45500E-003,2.44571E-001,-1.02204E-001,-4.05641E-001,2.45668E-001,1.27661E+000,-3.41836E-002,0.00000E+000,1.94784E-002,9.04849E-001,0.00000E+000,1.74346E-003,-6.97441E-002,1.00000E+000,40
1089,1317,2.26436E+001,-8.94065E-001,-1.10899E-002,1.24664E+001,-3.83523E-001,-2.91782E-002,1.24723E+001,2.02456E-002,6.11103E-001,0,1.88112E+002,-7.63920E+000,9.97360E-001,1.51676E+002,-3.68760E+001,9.96604E-001,2.43780E-001,-1.02166E-001,-2.24991E-003,2.43795E-001,-1.02181E-001,-3.72611E-001,2.44855E-001,1.27562E+000,-3.42032E-002,0.00000E+000,1.98723E-002,9.04856E-001,0.00000E+000,2.01565E-003,-6.97387E-002,1.00000E+000,40
1089,1297,2.26619E+001,-2.03437E+000,1.64502E-001,1.25028E+001,-2.37492E-001,9.04849E-002,1.25054E+001,1.73484E-002,6.41377E-001,0,1.88160E+002,-5.52911E+000,9.97595E-001,1.52123E+002,-3.49381E+001,9.97496E-001,2.42233E-001,-1.02131E-001,-1.83618E-003,2.42243E-001,-1.02140E-001,-3.05495E-001,2.43233E-001,1.27365E+000,-3.42308E-002,0.00000E+000,2.06584E-002,9.04867E-001,0.00000E+000,2.55884E-003,-6.97311E-002,1.00000E+000,40
1089,1307,2.26499E+001,-1.46923E+000,5.95629E-002,1.24844E+001,-3.13610E-001,2.41327E-002,1.24883E+001,1.70581E-002,6.10105E-001,0,1.88165E+002,-6.61654E+000,9.98053E-001,1.51830E+002,-3.59569E+001,9.98101E-001,2.43006E-001,-1.02147E-001,-2.04417E-003,2.43018E-001,-1.02159E-001,-3.39319E-001,2.44043E-001,1.27463E+000,-3.42209E-002,0.00000E+000,2.02660E-002,9.04863E-001,0.00000E+000,2.28774E-003,-6.97339E-002,1.00000E+000,40
769,1317,-4.17446E+000,-1.31243E+000,1.63100E-001,6.52590E+000,-6.18973E-001,1.92512E-001,6.55801E+000,2.96203E-002,7.71753E-001,0,1.00424E+002,-1.09977E+001,9.96624E-001,5.63352E+001,-4.70838E+001,9.97226E-001,2.45007E-001,-1.04949E-001,-1.48904E-004,2.45007E-001,-1.04949E-001,-2.43790E-002,2.45844E-001,1.27761E+000,-7.37305E-003,0.00000E+000,4.99635E-003,9.03529E-001,0.00000E+000,-1.22442E-003,-8.40225E-002,1.00000E+000,40
1099,1327,2.34680E+001,-2.89714E-001,-7.24978E-002,1.26205E+001,-4.30195E-001,-6.85103E-002,1.26280E+001,2.43803E-002,5.97683E-001,0,1.90435E+002,-8.34689E+000,9.92066E-001,1.54499E+002,-3.72657E+001,9.88417E-001,2.45935E-001,-1.02520E-001,-2.58731E-003,2.45954E-001,-1.02539E-001,-4.25396E-001,2.47084E-001,1.27840E+000,-3.31411E-002,0.00000E+000,1.84220E-002,9.04566E-001,0.00000E+000,2.35209E-003,-6.96982E-002,1.00000E+000,40
1099,1337,2.34779E+001,3.06940E-001,-7.95634E-002,1.26103E+001,-4.84678E-001,-9.25381E-002,1.26199E+001,2.30451E-002,6.21678E-001,0,1.90361E+002,-9.19763E+000,9.93520E-001,1.54694E+002,-3.79770E+001,9.93151E-001,2.46884E-001,-1.02545E-001,-2.79302E-003,2.46907E-001,-1.02567E-001,-4.57932E-001,2.48082E-001,1.27962E+000,-3.31039E-002,0.00000E+000,1.80157E-002,9.04554E-001,0.00000E+000,2.00237E-003,-6.97089E-002,1.00000E+000,40
1099,1347,2.34891E+001,8.99369E-001,-6.57567E-002,1.25951E+001,-5.46586E-001,-1.21637E-001,1.26076E+001,1.80783E-002,6.32447E-001,0,1.90224E+002,-1.01557E+001,9.95727E-001,1.54942E+002,-3.88094E+001,9.95586E-001,2.47835E-001,-1.02575E-001,-2.99480E-003,2.47860E-001,-1.02601E-001,-4.89634E-001,2.49081E-001,1.28084E+000,-3.30553E-002,0.00000E+000,1.76086E-002,9.04538E-001,0.00000E+000,1.65187E-003,-6.97229E-002,1.00000E+000,40
759,1347,-4.96045E+000,4.07050E-001,3.59864E-002,6.34736E+000,-8.15363E-001,5.66650E-002,6.39976E+000,1.71968E-002,6.90991E-001,0,9.81753E+001,-1.38082E+001,9.93898E-001,5.42713E+001,-5.04530E+001,9.93967E-001,2.44429E-001,-1.04337E-001,-1.87822E-003,2.44439E-001,-1.04347E-001,-3.08545E-001,2.45309E-001,1.27688E+000,-8.06075E-003,0.00000E+000,2.48267E-003,9.04005E-001,0.00000E+000,-3.60513E-003,-8.27829E-002,1.00000E+000,40
759,1357,-4.94218E+000,9.95644E-001,5.51405E-002,6.34110E+000,-8.77655E-001,1.01997E-002,6.40156E+000,1.85613E-002,7.24559E-001,0,9.82120E+001,-1.47126E+001,9.94724E-001,5.47150E+001,-5.14085E+001,9.94459E-001,2.44760E-001,-1.04375E-001,-2.31137E-003,2.44775E-001,-1.04390E-001,-3.79292E-001,2.45656E-001,1.27730E+000,-8.04463E-003,0.00000E+000,1.74181E-003,9.03977E-001,0.00000E+000,-4.53151E-003,-8.28178E-002,1.00000E+000,40
1099,1297,2.34929E+001,-2.02598E+000,1.34274E-001,1.26764E+001,-2.34203E-001,6.82599E-002,1.26787E+001,1.70286E-002,6.49470E-001,0,1.90708E+002,-5.44763E+000,9.96232E-001,1.55043E+002,-3.46405E+001,9.94551E-001,2.43098E-001,-1.02463E-001,-1.95370E-003,2.43109E-001,-1.02474E-001,-3.23920E-001,2.44105E-001,1.27478E+000,-3.31985E-002,0.00000E+000,1.96326E-002,9.04586E-001,0.00000E+000,3.39427E-003,-6.96817E-002,1.00000E+000,40
1099,1307,2.34882E+001,-1.44856E+000,5.57661E-002,1.26651E+001,-2.98664E-001,2.84476E-002,1.26687E+001,1.94523E-002,6.44156E-001,0,1.90710E+002,-6.42038E+000,9.97164E-001,1.54904E+002,-3.55092E+001,9.96326E-001,2.44043E-001,-1.02480E-001,-2.16716E-003,2.44056E-001,-1.02493E-001,-3.58310E-001,2.45097E-001,1.27599E+000,-3.31862E-002,0.00000E+000,1.92298E-002,9.04581E-001,0.00000E+000,3.04750E-003,-6.96852E-002,1.00000E+000,40
1099,1317,2.34752E+001,-8.72882E-001,-2.68014E-002,1.26416E+001,-3.67072E-001,-3.15321E-002,1.26470E+001,2.58641E-002,6.21796E-001,0,1.90606E+002,-7.40129E+000,9.94835E-001,1.54629E+002,-3.64055E+001,9.92410E-001,2.44988E-001,-1.02498E-001,-2.37821E-003,2.45005E-001,-1.02515E-001,-3.92110E-001,2.46089E-001,1.27719E+000,-3.31667E-002,0.00000E+000,1.88263E-002,9.04575E-001,0.00000E+000,2.70014E-003,-6.96908E-002,1.00000E+000,40
759,1327,-4.99874E+000,-7.65674E-001,9.97063E-002,6.33855E+000,-7.02099E-001,1.49398E-001,6.37906E+000,2.09227E-002,7.09495E-001,0,9.77537E+001,-1.22087E+001,9.95585E-001,5.36068E+001,-4.86603E+001,9.96496E-001,2.43768E-001,-1.04287E-001,-1.01300E-003,2.43771E-001,-1.04290E-001,-1.66755E-001,2.44616E-001,1.27603E+000,-8.08015E-003,0.00000E+000,3.95435E-003,9.04038E-001,0.00000E+000,-1.76493E-003,-8.27410E-002,1.00000E+000,40
759,1337,-4.97955E+000,-1.77699E-001,5.52695E-002,6.34552E+000,-7.55518E-001,1.03714E-001,6.39118E+000,1.69169E-002,7.04958E-001,0,9.80040E+001,-1.29569E+001,9.94369E-001,5.39093E+001,-4.95015E+001,9.94795E-001,2.44099E-001,-1.04309E-001,-1.44578E-003,2.44105E-001,-1.04315E-001,-2.37753E-001,2.44963E-001,1.27645E+000,-8.07211E-003,0.00000E+000,3.21930E-003,9.04024E-001,0.00000E+000,-2.68405E-003,-8.27584E-002,1.00000E+000,40
759,1317,-5.00148E+000,-1.32978E+000,1.82080E-001,6.34284E+000,-6.30771E-001,2.06164E-001,6.37746E+000,2.62725E-002,7.27934E-001,0,9.76304E+001,-1.11820E+001,9.96430E-001,5.36549E+001,-4.75238E+001,9.96549E-001,2.43438E-001,-1.04272E-001,-5.81707E-004,2.43439E-001,-1.04273E-001,-9.58532E-002,2.44272E-001,1.27560E+000,-8.08479E-003,0.00000E+000,4.68470E-003,9.04046E-001,0.00000E+000,-8.51701E-004,-8.27310E-002,1.00000E+000,40
749,1317,-5.81335E+000,-1.33223E+000,2.00159E-001,6.17331E+000,-6.29957E-001,2.12654E-001,6.20901E+000,1.94081E-002,7.61284E-001,0,9.50590E+001,-1.11736E+001,9.96579E-001,5.12147E+001,-4.76916E+001,9.95493E-001,2.41842E-001,-1.03665E-001,-8.53214E-004,2.41844E-001,-1.03667E-001,-1.41488E-001,2.42664E-001,1.27357E+000,-8.13164E-003,0.00000E+000,4.22574E-003,9.04536E-001,0.00000E+000,-7.88687E-004,-8.18883E-002,1.00000E+000,40
749,1327,-5.81025E+000,-7.63956E-001,1.03598E-001,6.17099E+000,-6.96354E-001,1.49816E-001,6.21196E+000,1.66740E-002,7.04834E-001,0,9.52305E+001,-1.20815E+001,9.94841E-001,5.11378E+001,-4.87547E+001,9.95327E-001,2.41938E-001,-1.03674E-001,-1.17795E-003,2.41942E-001,-1.03678E-001,-1.95278E-001,2.42764E-001,1.27369E+000,-8.13060E-003,0.00000E+000,3.68191E-003,9.04532E-001,0.00000E+000,-1.53239E-003,-8.18946E-002,1.00000E+000,40
749,1337,-5.80073E+000,-1.80079E-001,5.69783E-002,6.16863E+000,-7.52834E-001,1.03000E-001,6.21525E+000,1.62834E-002,7.42706E-001,0,9.53405E+001,-1.29048E+001,9.95022E-001,5.12855E+001,-4.96365E+001,9.95452E-001,2.42033E-001,-1.03690E-001,-1.50392E-003,2.42039E-001,-1.03697E-001,-2.49234E-001,2.42864E-001,1.27381E+000,-8.12832E-003,0.00000E+000,3.13521E-003,9.04521E-001,0.00000E+000,-2.28001E-003,-8.19084E-002,1.00000E+000,40
749,1347,-5.78604E+000,4.00630E-001,3.05218E-002,6.16692E+000,-8.15513E-001,5.24618E-002,6.22083E+000,1.81326E-002,6.94368E-001,0,9.54691E+001,-1.37811E+001,9.95477E-001,5.15627E+001,-5.06544E+001,9.95544E-001,2.42127E-001,-1.03710E-001,-1.83028E-003,2.42137E-001,-1.03720E-001,-3.03215E-001,2.42964E-001,1.27394E+000,-8.12519E-003,0.00000E+000,2.58733E-003,9.04508E-001,0.00000E+000,-3.02926E-003,-8.19274E-002,1.00000E+000,40
1109,1297,2.43336E+001,-2.00791E+000,1.31622E-001,1.28608E+001,-2.19059E-001,8.04840E-002,1.28630E+001,1.80294E-002,6.75539E-001,0,1.93274E+002,-5.28634E+000,9.94699E-001,1.58161E+002,-3.42413E+001,9.91718E-001,2.44203E-001,-1.03150E-001,-1.98842E-003,2.44214E-001,-1.03162E-001,-3.27976E-001,2.45192E-001,1.27624E+000,-3.14548E-002,0.00000E+000,1.82389E-002,9.03984E-001,0.00000E+000,4.37229E-003,-6.95455E-002,1.00000E+000,40
1109,1307,2.43253E+001,-1.43043E+000,4.33760E-002,1.28459E+001,-2.83385E-001,3.11361E-002,1.28491E+001,2.03402E-002,6.09830E-001,0,1.93262E+002,-6.21154E+000,9.95725E-001,1.57952E+002,-3.51172E+001,9.94708E-001,2.45209E-001,-1.03163E-001,-2.15389E-003,2.45222E-001,-1.03176E-001,-3.54227E-001,2.46247E-001,1.27752E+000,-3.14417E-002,0.00000E+000,1.79411E-002,9.03981E-001,0.00000E+000,3.75080E-003,-6.95519E-002,1.00000E+000,40
1109,1317,2.43155E+001,-8.51344E-001,-2.57443E-002,1.28258E+001,-3.48714E-001,-1.46638E-002,1.28306E+001,2.40873E-002,6.01234E-001,0,1.93150E+002,-7.18038E+000,9.93245E-001,1.57748E+002,-3.59804E+001,9.92008E-001,2.46215E-001,-1.03177E-001,-2.31693E-003,2.46231E-001,-1.03192E-001,-3.79924E-001,2.47303E-001,1.27881E+000,-3.14212E-002,0.00000E+000,1.76425E-002,9.03976E-001,0.00000E+000,3.12775E-003,-6.95618E-002,1.00000E+000,40
749,1357,-5.76149E+000,9.88056E-001,5.60542E-002,6.16745E+000,-8.78177E-001,1.38798E-002,6.22967E+000,2.14861E-002,7.12534E-001,0,9.55857E+001,-1.47072E+001,9.95479E-001,5.21206E+001,-5.16505E+001,9.95289E-001,2.42222E-001,-1.03738E-001,-2.15812E-003,2.42235E-001,-1.03752E-001,-3.57396E-001,2.43064E-001,1.27406E+000,-8.12060E-003,0.00000E+000,2.03607E-003,9.04487E-001,0.00000E+000,-3.78311E-003,-8.19552E-002,1.00000E+000,40
1109,1327,2.43071E+001,-2.71158E-001,-7.31169E-002,1.28022E+001,-4.15922E-001,-5.84713E-002,1.28090E+001,2.14647E-002,5.99075E-001,0,1.92970E+002,-8.18307E+000,9.91398E-001,1.57596E+002,-3.68709E+001,9.90007E-001,2.47223E-001,-1.03194E-001,-2.47682E-003,2.47241E-001,-1.03212E-001,-4.04951E-001,2.48361E-001,1.28010E+000,-3.13912E-002,0.00000E+000,1.73430E-002,9.03969E-001,0.00000E+000,2.50304E-003,-6.95763E-002,1.00000E+000,40
1109,1337,2.43078E+001,3.24822E-001,-9.27419E-002,1.27822E+001,-4.71697E-001,-9.63166E-002,1.27913E+001,2.21748E-002,6.54625E-001,0,1.92806E+002,-9.03525E+000,9.94955E-001,1.57627E+002,-3.75487E+001,9.95098E-001,2.48234E-001,-1.03214E-001,-2.63350E-003,2.48254E-001,-1.03234E-001,-4.29301E-001,2.49423E-001,1.28139E+000,-3.13508E-002,0.00000E+000,1.70423E-002,9.03960E-001,0.00000E+000,1.87546E-003,-6.95959E-002,1.00000E+000,40
1109,1347,2.43278E+001,9.16499E-001,-5.53759E-002,1.27722E+001,-5.36894E-001,-1.15768E-001,1.27840E+001,2.04097E-002,6.41909E-001,0,1.92704E+002,-1.00507E+001,9.95896E-001,1.58043E+002,-3.84541E+001,9.95119E-001,2.49247E-001,-1.03239E-001,-2.78387E-003,2.49269E-001,-1.03261E-001,-4.52474E-001,2.50488E-001,1.28269E+000,-3.12920E-002,0.00000E+000,1.67402E-002,9.03946E-001,0.00000E+000,1.24531E-003,-6.96244E-002,1.00000E+000,40
739,1337,-6.61804E+000,-1.95455E-001,5.80706E-002,5.99535E+000,-7.62449E-001,1.02421E-001,6.04451E+000,1.93795E-002,7.46794E-001,0,9.27324E+001,-1.30377E+001,9.94610E-001,4.87232E+001,-4.99870E+001,9.94180E-001,2.39871E-001,-1.02773E-001,-1.69737E-003,2.39879E-001,-1.02781E-001,-2.83819E-001,2.40696E-001,1.27106E+000,-8.33086E-003,0.00000E+000,2.91193E-003,9.05352E-001,0.00000E+000,-1.91560E-003,-8.18947E-002,1.00000E+000,40
739,1347,-6.61098E+000,3.90108E-001,3.26359E-002,5.98646E+000,-8.19952E-001,5.44867E-002,6.04260E+000,1.46997E-002,7.03269E-001,0,9.27398E+001,-1.38380E+001,9.97301E-001,4.88876E+001,-5.09329E+001,9.97197E-001,2.39689E-001,-1.02794E-001,-2.05491E-003,2.39702E-001,-1.02807E-001,-3.43759E-001,2.40508E-001,1.27083E+000,-8.33646E-003,0.00000E+000,2.31917E-003,9.05337E-001,0.00000E+000,-2.73147E-003,-8.19148E-002,1.00000E+000,40
739,1357,-6.58690E+000,9.82539E-001,5.72168E-002,5.98710E+000,-8.76962E-001,1.69125E-002,6.05101E+000,1.59645E-002,7.06669E-001,0,9.28534E+001,-1.46726E+001,9.96375E-001,4.94394E+001,-5.18591E+001,9.96525E-001,2.39506E-001,-1.02824E-001,-2.41551E-003,2.39523E-001,-1.02841E-001,-4.04256E-001,2.40319E-001,1.27061E+000,-8.34467E-003,0.00000E+000,1.72308E-003,9.05316E-001,0.00000E+000,-3.55193E-003,-8.19443E-002,1.00000E+000,40
739,1327,-6.62993E+000,-7.72277E-001,1.04947E-001,5.99520E+000,-6.98891E-001,1.49310E-001,6.03765E+000,1.78978E-002,6.92917E-001,0,9.25821E+001,-1.21006E+001,9.97120E-001,4.85408E+001,-4.90033E+001,9.97197E-001,2.40051E-001,-1.02756E-001,-1.34105E-003,2.40056E-001,-1.02761E-001,-2.24135E-001,2.40882E-001,1.27129E+000,-8.32674E-003,0.00000E+000,3.50366E-003,9.05363E-001,0.00000E+000,-1.10116E-003,-8.18799E-002,1.00000E+000,40
1119,1297,2.51694E+001,-1.99278E+000,1.16774E-001,1.30401E+001,-2.07053E-001,8.07931E-002,1.30420E+001,1.94276E-002,6.35193E-001,0,1.95806E+002,-5.11150E+000,9.97035E-001,1.61192E+002,-3.38958E+001,9.95886E-001,2.45717E-001,-1.03102E-001,-2.20331E-003,2.45731E-001,-1.03116E-001,-3.61888E-001,2.46786E-001,1.27822E+000,-3.00198E-002,0.00000E+000,1.67734E-002,9.04094E-001,0.00000E+000,4.74489E-003,-7.01335E-002,1.00000E+000,40
1119,1307,2.51619E+001,-1.41620E+000,4.08470E-002,1.30246E+001,-2.73398E-001,3.81192E-002,1.30275E+001,1.78276E-002,5.84749E-001,0,1.95757E+002,-6.08846E+000,9.96796E-001,1.61013E+002,-3.48025E+001,9.96679E-001,2.46585E-001,-1.03110E-001,-2.30282E-003,2.46600E-001,-1.03125E-001,-3.77284E-001,2.47698E-001,1.27932E+000,-3.00061E-002,0.00000E+000,1.66148E-002,9.04092E-001,0.00000E+000,3.90234E-003,-7.01440E-002,1.00000E+000,40
1119,1317,2.51608E+001,-8.35191E-001,-2.58734E-002,1.30122E+001,-3.37052E-001,-8.41788E-003,1.30166E+001,1.93607E-002,5.81475E-001,0,1.95764E+002,-7.04111E+000,9.95163E-001,1.60948E+002,-3.56356E+001,9.95392E-001,2.47453E-001,-1.03119E-001,-2.40045E-003,2.47469E-001,-1.03136E-001,-3.92294E-001,2.48610E-001,1.28043E+000,-2.99870E-002,0.00000E+000,1.64559E-002,9.04089E-001,0.00000E+000,3.05857E-003,-7.01585E-002,1.00000E+000,40
1119,1327,2.51545E+001,-2.52074E-001,-6.98457E-002,1.29899E+001,-4.01769E-001,-5.18927E-002,1.29962E+001,1.77416E-002,5.87816E-001,0,1.95601E+002,-8.01504E+000,9.94802E-001,1.60833E+002,-3.64820E+001,9.95360E-001,2.48322E-001,-1.03130E-001,-2.49531E-003,2.48339E-001,-1.03148E-001,-4.06773E-001,2.49523E-001,1.28154E+000,-2.99597E-002,0.00000E+000,1.62965E-002,9.04086E-001,0.00000E+000,2.21227E-003,-7.01793E-002,1.00000E+000,40
1119,1337,2.51543E+001,3.34202E-001,-9.08953E-002,1.29682E+001,-4.68178E-001,-9.37324E-002,1.29770E+001,1.59000E-002,6.46073E-001,0,1.95433E+002,-9.01841E+000,9.97118E-001,1.60846E+002,-3.73044E+001,9.96951E-001,2.49194E-001,-1.03142E-001,-2.58739E-003,2.49213E-001,-1.03161E-001,-4.20723E-001,2.50440E-001,1.28265E+000,-2.99237E-002,0.00000E+000,1.61363E-002,9.04080E-001,0.00000E+000,1.36136E-003,-7.02068E-002,1.00000E+000,40
1119,1347,2.51684E+001,9.23800E-001,-6.53459E-002,1.29528E+001,-5.34786E-001,-1.22090E-001,1.29645E+001,2.27641E-002,6.12428E-001,0,1.95288E+002,-1.00327E+001,9.97004E-001,1.61150E+002,-3.82254E+001,9.96085E-001,2.50066E-001,-1.03158E-001,-2.67456E-003,2.50086E-001,-1.03178E-001,-4.33803E-001,2.51358E-001,1.28377E+000,-2.98740E-002,0.00000E+000,1.59757E-002,9.04073E-001,0.00000E+000,5.08544E-004,-7.02447E-002,1.00000E+000,40
739,1317,-6.62530E+000,-1.33567E+000,1.98510E-001,6.00490E+000,-6.28351E-001,2.07647E-001,6.04126E+000,2.13188E-002,7.43254E-001,0,9.25385E+001,-1.11118E+001,9.96996E-001,4.87309E+001,-4.78586E+001,9.96225E-001,2.40229E-001,-1.02746E-001,-9.87868E-004,2.40232E-001,-1.02749E-001,-1.65027E-001,2.41067E-001,1.27151E+000,-8.32495E-003,0.00000E+000,4.09169E-003,9.05367E-001,0.00000E+000,-2.91803E-004,-8.18735E-002,1.00000E+000,40
1129,1297,2.60022E+001,-1.96650E+000,1.15558E-001,1.32146E+001,-1.84460E-001,8.99268E-002,1.32162E+001,1.91818E-002,5.91888E-001,0,1.98221E+002,-4.79319E+000,9.98149E-001,1.64198E+002,-3.34081E+001,9.97176E-001,2.46857E-001,-1.03264E-001,-2.55472E-003,2.46876E-001,-1.03282E-001,-4.18039E-001,2.47970E-001,1.27970E+000,-2.87411E-002,0.00000E+000,1.52325E-002,9.04011E-001,0.00000E+000,4.19358E-003,-7.06399E-002,1.00000E+000,40
1129,1307,2.59944E+001,-1.40477E+000,2.21434E-002,1.31986E+001,-2.65790E-001,2.90565E-002,1.32013E+001,2.57873E-002,5.40593E-001,0,1.98245E+002,-5.96409E+000,9.97622E-001,1.63990E+002,-3.45066E+001,9.94630E-001,2.47756E-001,-1.03265E-001,-2.55960E-003,2.47774E-001,-1.03284E-001,-4.17764E-001,2.48914E-001,1.28085E+000,-2.87264E-002,0.00000E+000,1.52501E-002,9.04011E-001,0.00000E+000,3.31735E-003,-7.06511E-002,1.00000E+000,40
1129,1317,2.59995E+001,-8.25801E-001,-3.17100E-002,1.31920E+001,-3.31906E-001,-6.18897E-003,1.31962E+001,1.56257E-002,5.41722E-001,0,1.98294E+002,-6.98273E+000,9.97513E-001,1.64039E+002,-3.53945E+001,9.95663E-001,2.48654E-001,-1.03267E-001,-2.56226E-003,2.48673E-001,-1.03285E-001,-4.17129E-001,2.49858E-001,1.28199E+000,-2.87058E-002,0.00000E+000,1.52678E-002,9.04011E-001,0.00000E+000,2.43952E-003,-7.06669E-002,1.00000E+000,40
729,1347,-7.41408E+000,3.72583E-001,4.48615E-002,5.82627E+000,-8.32815E-001,6.04955E-002,5.88580E+000,1.31985E-002,7.25404E-001,0,9.03085E+001,-1.40368E+001,9.98412E-001,4.65779E+001,-5.13318E+001,9.98077E-001,2.37212E-001,-1.02012E-001,-1.88968E-003,2.37223E-001,-1.02023E-001,-3.19157E-001,2.37995E-001,1.26769E+000,-7.74463E-003,0.00000E+000,2.21859E-003,9.05977E-001,0.00000E+000,-2.72351E-003,-8.09890E-002,1.00000E+000,40
729,1357,-7.40067E+000,9.73873E-001,5.95823E-002,5.81759E+000,-8.80024E-001,1.91643E-002,5.88380E+000,1.56001E-002,7.33065E-001,0,9.02877E+001,-1.47080E+001,9.97053E-001,4.69452E+001,-5.21014E+001,9.97235E-001,2.36699E-001,-1.02034E-001,-2.17603E-003,2.36713E-001,-1.02048E-001,-3.68050E-001,2.37461E-001,1.26705E+000,-7.76651E-003,0.00000E+000,1.78784E-003,9.05962E-001,0.00000E+000,-3.78992E-003,-8.10251E-002,1.00000E+000,40
1129,1327,2.59992E+001,-2.39536E-001,-7.74700E-002,1.31761E+001,-3.92831E-001,-4.92404E-002,1.31820E+001,1.88421E-002,5.65544E-001,0,1.98225E+002,-7.91833E+000,9.97167E-001,1.64016E+002,-3.61768E+001,9.96673E-001,2.49553E-001,-1.03268E-001,-2.56239E-003,2.49572E-001,-1.03287E-001,-4.16086E-001,2.50803E-001,1.28314E+000,-2.86783E-002,0.00000E+000,1.52855E-002,9.04011E-001,0.00000E+000,1.56015E-003,-7.06879E-002,1.00000E+000,40
729,1337,-7.43496E+000,-2.02392E-001,6.51119E-002,5.82237E+000,-7.63436E-001,1.09496E-001,5.87323E+000,1.76555E-002,7.30897E-001,0,9.00990E+001,-1.30426E+001,9.96161E-001,4.61895E+001,-5.02303E+001,9.95239E-001,2.37722E-001,-1.01995E-001,-1.60632E-003,2.37730E-001,-1.02003E-001,-2.70909E-001,2.38526E-001,1.26834E+000,-7.72779E-003,0.00000E+000,2.64784E-003,9.05988E-001,0.00000E+000,-1.66081E-003,-8.09612E-002,1.00000E+000,40
729,1327,-7.44413E+000,-7.76973E-001,1.12571E-001,5.82394E+000,-6.99585E-001,1.52369E-001,5.86779E+000,1.74544E-002,7.13864E-001,0,8.99874E+001,-1.20945E+001,9.96198E-001,4.60501E+001,-4.91927E+001,9.95756E-001,2.38228E-001,-1.01983E-001,-1.32697E-003,2.38233E-001,-1.01988E-001,-2.23473E-001,2.39053E-001,1.26898E+000,-7.71712E-003,0.00000E+000,3.07468E-003,9.05995E-001,0.00000E+000,-6.04075E-004,-8.09436E-002,1.00000E+000,40
1129,1337,2.60132E+001,3.47832E-001,-7.83536E-002,1.31626E+001,-4.63092E-001,-9.44481E-002,1.31711E+001,2.22005E-002,6.49926E-001,0,1.98184E+002,-8.96831E+000,9.96092E-001,1.64278E+002,-3.70103E+001,9.96486E-001,2.50460E-001,-1.03271E-001,-2.55494E-003,2.50479E-001,-1.03289E-001,-4.13810E-001,2.51758E-001,1.28431E+000,-2.86305E-002,0.00000E+000,1.53034E-002,9.04012E-001,0.00000E+000,6.70495E-004,-7.07245E-002,1.00000E+000,40
729,1317,-7.44481E+000,-1.34501E+000,1.92301E-001,5.82971E+000,-6.32170E-001,2.04463E-001,5.86745E+000,1.90489E-002,7.41737E-001,0,8.99064E+001,-1.11398E+001,9.96307E-001,4.61238E+001,-4.81001E+001,9.95638E-001,2.38731E-001,-1.01975E-001,-1.04989E-003,2.38734E-001,-1.01978E-001,-1.76556E-001,2.39577E-001,1.26962E+000,-7.71070E-003,0.00000E+000,3.50060E-003,9.05999E-001,0.00000E+000,4.50392E-004,-8.09330E-002,1.00000E+000,40
1129,1347,2.60157E+001,9.45847E-001,-6.07038E-002,1.31383E+001,-5.19984E-001,-1.19103E-001,1.31491E+001,2.60056E-002,6.58233E-001,0,1.97893E+002,-9.85994E+000,9.95185E-001,1.64387E+002,-3.77623E+001,9.94565E-001,2.51362E-001,-1.03273E-001,-2.54793E-003,2.51380E-001,-1.03291E-001,-4.11622E-001,2.52707E-001,1.28547E+000,-2.85836E-002,0.00000E+000,1.53213E-002,9.04013E-001,0.00000E+000,-2.15632E-004,-7.07603E-002,1.00000E+000,40
719,1347,-8.23447E+000,3.75111E-001,4.53856E-002,5.64983E+000,-8.24148E-001,6.25147E-002,5.70997E+000,1.97014E-002,7.34759E-001,0,8.76299E+001,-1.38884E+001,9.96726E-001,4.39834E+001,-5.14054E+001,9.96795E-001,2.35232E-001,-1.01520E-001,-1.73439E-003,2.35241E-001,-1.01529E-001,-2.95082E-001,2.35974E-001,1.26519E+000,-6.74930E-003,0.00000E+000,1.79080E-003,9.06300E-001,0.00000E+000,-2.51728E-003,-7.92858E-002,1.00000E+000,40
719,1357,-8.22478E+000,9.61978E-001,5.74184E-002,5.63778E+000,-8.86070E-001,1.93325E-002,5.70702E+000,1.75894E-002,7.30798E-001,0,8.75666E+001,-1.47679E+001,9.96830E-001,4.42861E+001,-5.23994E+001,9.97056E-001,2.34429E-001,-1.01532E-001,-1.91247E-003,2.34440E-001,-1.01543E-001,-3.26144E-001,2.35138E-001,1.26418E+000,-6.78296E-003,0.00000E+000,1.57929E-003,9.06293E-001,0.00000E+000,-3.75139E-003,-7.93269E-002,1.00000E+000,40
719,1337,-8.25278E+000,-2.03917E-001,6.35044E-002,5.64756E+000,-7.60033E-001,1.05126E-001,5.69944E+000,2.17347E-002,7.49290E-001,0,8.74664E+001,-1.29614E+001,9.94297E-001,4.36272E+001,-5.03549E+001,9.93139E-001,2.36028E-001,-1.01511E-001,-1.56073E-003,2.36036E-001,-1.01518E-001,-2.64920E-001,2.36803E-001,1.26620E+000,-6.72446E-003,0.00000E+000,2.00116E-003,9.06306E-001,0.00000E+000,-1.28992E-003,-7.92555E-002,1.00000E+000,40
719,1327,-8.25731E+000,-7.77063E-001,1.18567E-001,5.65335E+000,-6.95289E-001,1.53948E-001,5.69802E+000,1.58206E-002,7.46796E-001,0,8.74023E+001,-1.20195E+001,9.94390E-001,4.35781E+001,-4.93017E+001,9.93289E-001,2.36819E-001,-1.01504E-001,-1.39137E-003,2.36825E-001,-1.01510E-001,-2.35626E-001,2.37627E-001,1.26720E+000,-6.70844E-003,0.00000E+000,2.21048E-003,9.06309E-001,0.00000E+000,-6.85704E-005,-7.92359E-002,1.00000E+000,40
719,1317,-8.26048E+000,-1.34815E+000,2.03077E-001,5.65549E+000,-6.31470E-001,2.05048E-001,5.69433E+000,2.07820E-002,7.30153E-001,0,8.72696E+001,-1.11037E+001,9.94006E-001,4.36258E+001,-4.82867E+001,9.92838E-001,2.37606E-001,-1.01500E-001,-1.22533E-003,2.37610E-001,-1.01504E-001,-2.07030E-001,2.38448E-001,1.26819E+000,-6.70015E-003,0.00000E+000,2.41944E-003,9.06311E-001,0.00000E+000,1.15065E-003,-7.92258E-002,1.00000E+000,40
1139,1297,2.68621E+001,-1.95834E+000,1.18292E-001,1.34146E+001,-1.79658E-001,9.71717E-002,1.34161E+001,1.19151E-002,5.29321E-001,0,2.01021E+002,-4.75537E+000,9.98966E-001,1.67640E+002,-3.32170E+001,9.98307E-001,2.47748E-001,-1.03514E-001,-2.83318E-003,2.47771E-001,-1.03537E-001,-4.62091E-001,2.48883E-001,1.28086E+000,-2.74246E-002,0.00000E+000,1.38523E-002,9.03844E-001,0.00000E+000,2.91470E-003,-7.11784E-002,1.00000E+000,40
1139,1307,2.68498E+001,-1.39755E+000,1.41701E-002,1.33950E+001,-2.61979E-001,3.03332E-002,1.33976E+001,1.82563E-002,4.78841E-001,0,2.01022E+002,-5.92211E+000,9.97962E-001,1.67345E+002,-3.43057E+001,9.96845E-001,2.48786E-001,-1.03512E-001,-2.78260E-003,2.48808E-001,-1.03534E-001,-4.52508E-001,2.49973E-001,1.28219E+000,-2.74098E-002,0.00000E+000,1.39655E-002,9.03846E-001,0.00000E+000,2.11562E-003,-7.11873E-002,1.00000E+000,40
1139,1337,2.68569E+001,3.73527E-001,-7.54456E-002,1.33452E+001,-4.43325E-001,-8.95315E-002,1.33528E+001,2.19622E-002,6.74344E-001,0,2.00732E+002,-8.72072E+000,9.94817E-001,1.67464E+002,-3.64996E+001,9.94150E-001,2.51914E-001,-1.03501E-001,-2.60318E-003,2.51933E-001,-1.03520E-001,-4.19624E-001,2.53263E-001,1.28620E+000,-2.72942E-002,0.00000E+000,1.43078E-002,9.03855E-001,0.00000E+000,-2.99726E-004,-7.12569E-002,1.00000E+000,40
1139,1347,2.68762E+001,9.61745E-001,-5.51639E-002,1.33333E+001,-5.13175E-001,-1.28033E-001,1.33438E+001,2.26799E-002,6.93716E-001,0,2.00681E+002,-9.78060E+000,9.94365E-001,1.67836E+002,-3.74004E+001,9.93301E-001,2.52959E-001,-1.03496E-001,-2.53403E-003,2.52977E-001,-1.03514E-001,-4.07286E-001,2.54365E-001,1.28755E+000,-2.72313E-002,0.00000E+000,1.44227E-002,9.03861E-001,0.00000E+000,-1.11023E-003,-7.12948E-002,1.00000E+000,40
1139,1327,2.68516E+001,-2.25903E-001,-8.49126E-002,1.33671E+001,-3.86662E-001,-5.55181E-002,1.33728E+001,2.10524E-002,6.09943E-001,0,2.00950E+002,-7.83960E+000,9.96220E-001,1.67323E+002,-3.58211E+001,9.94477E-001,2.50868E-001,-1.03506E-001,-2.66949E-003,2.50888E-001,-1.03526E-001,-4.31575E-001,2.52162E-001,1.28486E+000,-2.73495E-002,0.00000E+000,1.41932E-002,9.03851E-001,0.00000E+000,5.09466E-004,-7.12236E-002,1.00000E+000,40
1139,1317,2.68392E+001,-8.17056E-001,-5.00923E-002,1.33738E+001,-3.26884E-001,-1.08677E-002,1.33778E+001,1.80012E-002,5.38042E-001,0,2.00879E+002,-6.92555E+000,9.98429E-001,1.67135E+002,-3.51183E+001,9.96662E-001,2.49825E-001,-1.03509E-001,-2.72927E-003,2.49846E-001,-1.03530E-001,-4.42536E-001,2.51065E-001,1.28352E+000,-2.73879E-002,0.00000E+000,1.40790E-002,9.03847E-001,0.00000E+000,1.31475E-003,-7.12005E-002,1.00000E+000,40
709,1347,-9.06224E+000,3.76766E-001,4.02183E-002,5.46568E+000,-8.16268E-001,5.92026E-002,5.52662E+000,1.89391E-002,7.27135E-001,0,8.48444E+001,-1.37313E+001,9.95779E-001,4.12672E+001,-5.14898E+001,9.96010E-001,2.33324E-001,-1.00018E-001,-1.92004E-003,2.33335E-001,-1.00029E-001,-3.30007E-001,2.34124E-001,1.26278E+000,-5.87586E-003,0.00000E+000,8.17634E-004,9.07577E-001,0.00000E+000,-2.26491E-003,-7.80528E-002,1.00000E+000,40
709,1357,-9.04588E+000,9.65601E-001,5.35175E-002,5.46107E+000,-8.74663E-001,2.03245E-002,5.53071E+000,1.85633E-002,7.13621E-001,0,8.48821E+001,-1.45751E+001,9.96680E-001,4.16778E+001,-5.24621E+001,9.96927E-001,2.32386E-001,-1.00038E-001,-2.20860E-003,2.32401E-001,-1.00052E-001,-3.80647E-001,2.33148E-001,1.26160E+000,-5.91371E-003,0.00000E+000,4.02346E-004,9.07564E-001,0.00000E+000,-3.47393E-003,-7.80917E-002,1.00000E+000,40
709,1337,-9.06123E+000,-2.11957E-001,7.18299E-002,5.48109E+000,-7.63177E-001,1.07302E-001,5.53501E+000,1.75605E-002,7.25939E-001,0,8.49404E+001,-1.29843E+001,9.95530E-001,4.12389E+001,-5.06211E+001,9.94867E-001,2.34254E-001,-1.00004E-001,-1.63746E-003,2.34263E-001,-1.00012E-001,-2.80670E-001,2.35095E-001,1.26396E+000,-5.84982E-003,0.00000E+000,1.23100E-003,9.07586E-001,0.00000E+000,-1.06149E-003,-7.80261E-002,1.00000E+000,40
709,1317,-9.06901E+000,-1.34924E+000,2.24077E-001,5.48720E+000,-6.29661E-001,2.11345E-001,5.52725E+000,2.21784E-002,7.42153E-001,0,8.47022E+001,-1.10710E+001,9.96003E-001,4.12706E+001,-4.84508E+001,9.95592E-001,2.36098E-001,-9.99884E-002,-1.08609E-003,2.36102E-001,-9.99919E-002,-1.85153E-001,2.37021E-001,1.26629E+000,-5.82460E-003,0.00000E+000,2.05304E-003,9.07595E-001,0.00000E+000,1.33170E-003,-7.80003E-002,1.00000E+000,40
709,1327,-9.06146E+000,-7.80745E-001,1.31514E-001,5.48900E+000,-6.95685E-001,1.49449E-001,5.53493E+000,2.43133E-002,7.73475E-001,0,8.49271E+001,-1.20142E+001,9.96098E-001,4.12681E+001,-4.94830E+001,9.95238E-001,2.35178E-001,-9.99953E-002,-1.36071E-003,2.35184E-001,-1.00001E-001,-2.32600E-001,2.36059E-001,1.26512E+000,-5.83506E-003,0.00000E+000,1.64230E-003,9.07591E-001,0.00000E+000,1.35916E-004,-7.80110E-002,1.00000E+000,40
1149,1297,2.77055E+001,-1.95288E+000,1.01665E-001,1.35994E+001,-1.78945E-001,9.30029E-002,1.36009E+001,2.99035E-002,5.54183E-001,0,2.03642E+002,-4.75927E+000,9.97054E-001,1.70800E+002,-3.29852E+001,9.94337E-001,2.48420E-001,-1.03671E-001,-3.06022E-003,2.48446E-001,-1.03698E-001,-4.97939E-001,2.49574E-001,1.28175E+000,-2.61730E-002,0.00000E+000,1.26260E-002,9.03776E-001,0.00000E+000,1.54877E-003,-7.19902E-002,1.00000E+000,40
1149,1307,2.77128E+001,-1.36950E+000,2.20015E-002,1.35981E+001,-2.38660E-001,4.56119E-002,1.36003E+001,1.90812E-002,5.57562E-001,0,2.03826E+002,-5.66529E+000,9.97804E-001,1.70847E+002,-3.37441E+001,9.96157E-001,2.49623E-001,-1.03669E-001,-3.01045E-003,2.49648E-001,-1.03695E-001,-4.88178E-001,2.50838E-001,1.28329E+000,-2.61528E-002,0.00000E+000,1.27278E-002,9.03777E-001,0.00000E+000,8.20473E-004,-7.19997E-002,1.00000E+000,40
1149,1317,2.77042E+001,-7.92264E-001,-4.74216E-002,1.35766E+001,-3.08562E-001,-9.39190E-003,1.35801E+001,1.81035E-002,5.80873E-001,0,2.03735E+002,-6.69493E+000,9.97552E-001,1.70661E+002,-3.46124E+001,9.95438E-001,2.50829E-001,-1.03667E-001,-2.95656E-003,2.50854E-001,-1.03691E-001,-4.77813E-001,2.52106E-001,1.28484E+000,-2.61221E-002,0.00000E+000,1.28300E-002,9.03779E-001,0.00000E+000,8.88102E-005,-7.20143E-002,1.00000E+000,40
1149,1327,2.76970E+001,-2.02064E-001,-9.50397E-002,1.35519E+001,-3.66400E-001,-6.03605E-002,1.35570E+001,1.97520E-002,5.60012E-001,0,2.03566E+002,-7.55191E+000,9.96857E-001,1.70525E+002,-3.53491E+001,9.94617E-001,2.52033E-001,-1.03664E-001,-2.89887E-003,2.52057E-001,-1.03687E-001,-4.66909E-001,2.53373E-001,1.28638E+000,-2.60811E-002,0.00000E+000,1.29321E-002,9.03782E-001,0.00000E+000,-6.42697E-004,-7.20337E-002,1.00000E+000,40
1149,1337,2.77099E+001,3.79744E-001,-1.01565E-001,1.35390E+001,-4.42032E-001,-1.03662E-001,1.35466E+001,2.97603E-002,6.67623E-001,0,2.03532E+002,-8.69429E+000,9.96309E-001,1.70759E+002,-3.62416E+001,9.95310E-001,2.53248E-001,-1.03660E-001,-2.83326E-003,2.53271E-001,-1.03682E-001,-4.54796E-001,2.54654E-001,1.28795E+000,-2.60201E-002,0.00000E+000,1.30355E-002,9.03786E-001,0.00000E+000,-1.38260E-003,-7.20624E-002,1.00000E+000,40
1149,1347,2.77388E+001,9.71993E-001,-5.24890E-002,1.35326E+001,-5.10987E-001,-1.28472E-001,1.35429E+001,2.64411E-002,6.60007E-001,0,2.03501E+002,-9.74809E+000,9.96626E-001,1.71317E+002,-3.71543E+001,9.95785E-001,2.54464E-001,-1.03655E-001,-2.75952E-003,2.54486E-001,-1.03677E-001,-4.41462E-001,2.55936E-001,1.28952E+000,-2.59376E-002,0.00000E+000,1.31391E-002,9.03791E-001,0.00000E+000,-2.12429E-003,-7.21015E-002,1.00000E+000,40
699,1347,-9.86104E+000,3.70775E-001,5.61368E-002,5.30863E+000,-8.18494E-001,6.92368E-002,5.37181E+000,1.97774E-002,7.39795E-001,0,8.24358E+001,-1.37553E+001,9.97027E-001,3.90540E+001,-5.17240E+001,9.96997E-001,2.31253E-001,-9.86991E-002,-1.71203E-003,2.31262E-001,-9.87080E-002,-2.97281E-001,2.32086E-001,1.26018E+000,-4.20105E-003,0.00000E+000,-1.08589E-005,9.08674E-001,0.00000E+000,-1.97106E-003,-7.66198E-002,1.00000E+000,40
699,1357,-9.84829E+000,9.50636E-001,6.88338E-002,5.30092E+000,-8.85380E-001,3.14929E-002,5.37445E+000,2.00967E-002,7.46751E-001,0,8.24244E+001,-1.47441E+001,9.96693E-001,3.94077E+001,-5.28255E+001,9.96603E-001,2.30300E-001,-9.87157E-002,-1.97349E-003,2.30312E-001,-9.87275E-002,-3.43653E-001,2.31092E-001,1.25898E+000,-4.23852E-003,0.00000E+000,-3.95293E-004,9.08662E-001,0.00000E+000,-2.95030E-003,-7.66504E-002,1.00000E+000,40
699,1337,-9.87500E+000,-2.24419E-001,7.69064E-002,5.30916E+000,-7.70714E-001,1.07517E-001,5.36588E+000,1.44512E-002,7.21550E-001,0,8.23334E+001,-1.30781E+001,9.97105E-001,3.87657E+001,-5.09398E+001,9.97147E-001,2.32203E-001,-9.86870E-002,-1.45551E-003,2.32209E-001,-9.86934E-002,-2.52025E-001,2.33078E-001,1.26137E+000,-4.17449E-003,0.00000E+000,3.72654E-004,9.08683E-001,0.00000E+000,-9.94168E-004,-7.65980E-002,1.00000E+000,40
699,1317,-9.88570E+000,-1.35160E+000,2.33975E-001,5.30996E+000,-6.30188E-001,2.04333E-001,5.35113E+000,2.04323E-002,7.91813E-001,0,8.20328E+001,-1.10522E+001,9.97286E-001,3.87676E+001,-4.85936E+001,9.96860E-001,2.34078E-001,-9.86758E-002,-9.59621E-004,2.34081E-001,-9.86786E-002,-1.65232E-001,2.35039E-001,1.26374E+000,-4.15322E-003,0.00000E+000,1.13264E-003,9.08690E-001,0.00000E+000,9.41668E-004,-7.65806E-002,1.00000E+000,40
699,1327,-9.88004E+000,-7.83357E-001,1.39386E-001,5.31158E+000,-6.96464E-001,1.49536E-001,5.35913E+000,1.57109E-002,8.63128E-001,0,8.22340E+001,-1.20112E+001,9.97178E-001,3.87298E+001,-4.96077E+001,9.96287E-001,2.33139E-001,-9.86802E-002,-1.20683E-003,2.33144E-001,-9.86846E-002,-2.08381E-001,2.34057E-001,1.26255E+000,-4.16074E-003,0.00000E+000,7.51856E-004,9.08687E-001,0.00000E+000,-2.82587E-005,-7.65868E-002,1.00000E+000,40
1159,1307,2.85462E+001,-1.36461E+000,-1.11361E-002,1.37724E+001,-2.37864E-001,2.48025E-002,1.37745E+001,2.33478E-002,5.68774E-001,0,2.06357E+002,-5.63900E+000,9.93564E-001,1.73835E+002,-3.34917E+001,9.91241E-001,2.50504E-001,-1.04118E-001,-3.11236E-003,2.50532E-001,-1.04146E-001,-5.02807E-001,2.51716E-001,1.28444E+000,-2.49646E-002,0.00000E+000,1.17916E-002,9.03427E-001,0.00000E+000,-8.14389E-004,-7.26393E-002,1.00000E+000,40
1159,1317,2.85540E+001,-7.73639E-001,-6.03448E-002,1.37671E+001,-2.94866E-001,-1.00835E-002,1.37703E+001,2.45774E-002,6.01289E-001,0,2.06419E+002,-6.51250E+000,9.94063E-001,1.73932E+002,-3.41817E+001,9.94106E-001,2.51826E-001,-1.04122E-001,-3.13645E-003,2.51854E-001,-1.04150E-001,-5.04812E-001,2.53106E-001,1.28614E+000,-2.49305E-002,0.00000E+000,1.17440E-002,9.03426E-001,0.00000E+000,-1.49725E-003,-7.26530E-002,1.00000E+000,40
1159,1327,2.85648E+001,-1.88767E-001,-8.10111E-002,1.37580E+001,-3.60748E-001,-4.34551E-002,1.37628E+001,1.72316E-002,5.94752E-001,0,2.06409E+002,-7.52324E+000,9.96896E-001,1.74113E+002,-3.50492E+001,9.96447E-001,2.53148E-001,-1.04127E-001,-3.15410E-003,2.53176E-001,-1.04154E-001,-5.05768E-001,2.54498E-001,1.28784E+000,-2.48790E-002,0.00000E+000,1.16963E-002,9.03425E-001,0.00000E+000,-2.18140E-003,-7.26737E-002,1.00000E+000,40
1159,1297,2.85468E+001,-1.94048E+000,7.36698E-002,1.37823E+001,-1.70699E-001,8.03560E-002,1.37836E+001,2.20444E-002,5.96036E-001,0,2.06264E+002,-4.64136E+000,9.95221E-001,1.73916E+002,-3.26132E+001,9.90910E-001,2.49189E-001,-1.04115E-001,-3.08482E-003,2.49215E-001,-1.04142E-001,-5.00219E-001,2.50333E-001,1.28275E+000,-2.49889E-002,0.00000E+000,1.18388E-002,9.03428E-001,0.00000E+000,-1.35807E-004,-7.26296E-002,1.00000E+000,40
1159,1337,2.85881E+001,3.92959E-001,-7.29337E-002,1.37518E+001,-4.36951E-001,-8.60454E-002,1.37590E+001,2.26940E-002,6.21102E-001,0,2.06467E+002,-8.66507E+000,9.98558E-001,1.74527E+002,-3.60133E+001,9.98473E-001,2.54477E-001,-1.04133E-001,-3.16280E-003,2.54505E-001,-1.04160E-001,-5.05274E-001,2.55898E-001,1.28956E+000,-2.48029E-002,0.00000E+000,1.16483E-002,9.03423E-001,0.00000E+000,-2.87080E-003,-7.27043E-002,1.00000E+000,40
1159,1347,2.86045E+001,9.86479E-001,-4.55321E-002,1.37355E+001,-5.01791E-001,-1.21721E-001,1.37452E+001,2.41821E-002,5.78381E-001,0,2.06336E+002,-9.63754E+000,9.97125E-001,1.74860E+002,-3.68759E+001,9.96817E-001,2.55804E-001,-1.04139E-001,-3.16864E-003,2.55832E-001,-1.04167E-001,-5.04332E-001,2.57297E-001,1.29128E+000,-2.47189E-002,0.00000E+000,1.16003E-002,9.03421E-001,0.00000E+000,-3.55990E-003,-7.27380E-002,1.00000E+000,40
689,1347,-1.06686E+001,3.57468E-001,5.87230E-002,5.14199E+000,-8.28149E-001,6.34389E-002,5.20864E+000,1.58894E-002,7.72297E-001,0,7.99239E+001,-1.38727E+001,9.98090E-001,3.66763E+001,-5.20332E+001,9.97272E-001,2.29058E-001,-9.76470E-002,-1.67221E-003,2.29067E-001,-9.76556E-002,-2.93253E-001,2.29894E-001,1.25742E+000,-2.77654E-003,0.00000E+000,-9.50102E-004,9.09616E-001,0.00000E+000,-2.03385E-003,-7.64142E-002,1.00000E+000,40
689,1357,-1.06611E+001,9.35318E-001,6.21319E-002,5.13138E+000,-8.94556E-001,2.81664E-002,5.20884E+000,1.85391E-002,7.42065E-001,0,7.98618E+001,-1.48484E+001,9.97324E-001,3.69271E+001,-5.31664E+001,9.97390E-001,2.27889E-001,-9.76649E-002,-1.99603E-003,2.27901E-001,-9.76771E-002,-3.51273E-001,2.28674E-001,1.25595E+000,-2.81733E-003,0.00000E+000,-1.45304E-003,9.09602E-001,0.00000E+000,-2.94117E-003,-7.64395E-002,1.00000E+000,40
689,1337,-1.06751E+001,-2.14331E-001,8.14244E-002,5.15082E+000,-7.55556E-001,1.08957E-001,5.20708E+000,1.73826E-002,7.21954E-001,0,7.99232E+001,-1.28232E+001,9.98050E-001,3.65117E+001,-5.09061E+001,9.98311E-001,2.30228E-001,-9.76317E-002,-1.35039E-003,2.30233E-001,-9.76373E-002,-2.35984E-001,2.31116E-001,1.25889E+000,-2.74202E-003,0.00000E+000,-4.46183E-004,9.09627E-001,0.00000E+000,-1.12475E-003,-7.63929E-002,1.00000E+000,40
1169,1327,2.94121E+001,-1.79196E-001,-8.60309E-002,1.39436E+001,-3.56811E-001,-4.34581E-002,1.39482E+001,1.61799E-002,5.87809E-001,0,2.09013E+002,-7.48708E+000,9.97806E-001,1.77359E+002,-3.47890E+001,9.97658E-001,2.53887E-001,-1.04493E-001,-3.13035E-003,2.53915E-001,-1.04521E-001,-5.00411E-001,2.55233E-001,1.28882E+000,-2.36571E-002,0.00000E+000,1.09724E-002,9.03126E-001,0.00000E+000,-3.73216E-003,-7.30069E-002,1.00000E+000,40
1169,1337,2.94403E+001,4.14282E-001,-6.72415E-002,1.39402E+001,-4.21584E-001,-8.27669E-002,1.39468E+001,2.03845E-002,5.91711E-001,0,2.09092E+002,-8.46675E+000,9.98393E-001,1.77862E+002,-3.56032E+001,9.98023E-001,2.55192E-001,-1.04504E-001,-3.17488E-003,2.55220E-001,-1.04532E-001,-5.05673E-001,2.56607E-001,1.29051E+000,-2.35770E-002,0.00000E+000,1.08593E-002,9.03120E-001,0.00000E+000,-4.44871E-003,-7.30408E-002,1.00000E+000,40
1169,1347,2.94689E+001,1.00216E+000,-3.70494E-002,1.39340E+001,-4.93720E-001,-1.23140E-001,1.39433E+001,2.08009E-002,5.77832E-001,0,2.09130E+002,-9.55221E+000,9.96848E-001,1.78385E+002,-3.65423E+001,9.96767E-001,2.56496E-001,-1.04516E-001,-3.21666E-003,2.56524E-001,-1.04545E-001,-5.10458E-001,2.57982E-001,1.29220E+000,-2.34890E-002,0.00000E+000,1.07461E-002,9.03114E-001,0.00000E+000,-5.16642E-003,-7.30782E-002,1.00000E+000,40
689,1327,-1.07002E+001,-7.93954E-001,1.26280E-001,5.13532E+000,-6.99104E-001,1.45614E-001,5.18473E+000,1.89884E-002,8.04160E-001,0,7.95705E+001,-1.20114E+001,9.96294E-001,3.61172E+001,-4.98851E+001,9.96237E-001,2.31384E-001,-9.76217E-002,-1.03661E-003,2.31387E-001,-9.76250E-002,-1.80521E-001,2.32326E-001,1.26034E+000,-2.72027E-003,0.00000E+000,5.29264E-005,9.09635E-001,0.00000E+000,-2.24328E-004,-7.63794E-002,1.00000E+000,40
1169,1317,2.94060E+001,-7.62716E-001,-5.21065E-002,1.39572E+001,-2.87187E-001,1.37391E-003,1.39601E+001,3.09616E-002,5.02867E-001,0,2.09038E+002,-6.43559E+000,9.96204E-001,1.77271E+002,-3.39761E+001,9.96282E-001,2.52586E-001,-1.04485E-001,-3.07484E-003,2.52612E-001,-1.04512E-001,-4.93341E-001,2.53862E-001,1.28714E+000,-2.37071E-002,0.00000E+000,1.10850E-002,9.03129E-001,0.00000E+000,-3.01832E-003,-7.29856E-002,1.00000E+000,40
1169,1307,2.93978E+001,-1.35291E+000,-5.81952E-003,1.39636E+001,-2.31972E-001,3.92000E-002,1.39655E+001,2.36421E-002,5.47273E-001,0,2.08983E+002,-5.57716E+000,9.96323E-001,1.77163E+002,-3.32309E+001,9.94863E-001,2.51295E-001,-1.04479E-001,-3.01532E-003,2.51320E-001,-1.04505E-001,-4.85558E-001,2.52505E-001,1.28548E+000,-2.37443E-002,0.00000E+000,1.11965E-002,9.03131E-001,0.00000E+000,-2.31176E-003,-7.29698E-002,1.00000E+000,40
1169,1297,2.93999E+001,-1.92887E+000,8.26941E-002,1.39741E+001,-1.63838E-001,9.47127E-002,1.39754E+001,1.87619E-002,6.27692E-001,0,2.08898E+002,-4.61038E+000,9.96768E-001,1.77273E+002,-3.23364E+001,9.93986E-001,2.50001E-001,-1.04474E-001,-2.94996E-003,2.50026E-001,-1.04499E-001,-4.76775E-001,2.51145E-001,1.28382E+000,-2.37661E-002,0.00000E+000,1.13080E-002,9.03133E-001,0.00000E+000,-1.60514E-003,-7.29605E-002,1.00000E+000,40
689,1317,-1.07044E+001,-1.36075E+000,2.23364E-001,5.13501E+000,-6.33184E-001,2.02207E-001,5.17785E+000,2.16025E-002,7.70940E-001,0,7.93856E+001,-1.10589E+001,9.96021E-001,3.61858E+001,-4.88330E+001,9.94085E-001,2.32536E-001,-9.76171E-002,-7.28516E-004,2.32537E-001,-9.76187E-002,-1.26428E-001,2.33532E-001,1.26179E+000,-2.71154E-003,0.00000E+000,5.51181E-004,9.09638E-001,0.00000E+000,6.74550E-004,-7.63740E-002,1.00000E+000,40
679,1347,-1.14871E+001,3.51820E-001,5.61352E-002,4.96592E+000,-8.25366E-001,6.23784E-002,5.03443E+000,2.67550E-002,7.56277E-001,0,7.72459E+001,-1.38331E+001,9.96459E-001,3.41256E+001,-5.22393E+001,9.95663E-001,2.26776E-001,-9.66178E-002,-1.69108E-003,2.26785E-001,-9.66266E-002,-2.99598E-001,2.27610E-001,1.25455E+000,-1.25792E-003,0.00000E+000,-2.06753E-003,9.10513E-001,0.00000E+000,-2.17234E-003,-7.58755E-002,1.00000E+000,40
679,1357,-1.14576E+001,9.30866E-001,5.60130E-002,4.97883E+000,-8.91683E-001,3.17735E-002,5.05814E+000,1.33249E-002,7.41961E-001,0,7.75359E+001,-1.47895E+001,9.97618E-001,3.47050E+001,-5.33371E+001,9.97579E-001,2.25245E-001,-9.66423E-002,-2.19710E-003,2.25260E-001,-9.66573E-002,-3.91058E-001,2.26014E-001,1.25264E+000,-1.30647E-003,0.00000E+000,-2.90444E-003,9.10492E-001,0.00000E+000,-3.05709E-003,-7.58979E-002,1.00000E+000,40
1179,1297,3.02411E+001,-1.92418E+000,5.37140E-002,1.41583E+001,-1.61535E-001,8.91883E-002,1.41595E+001,2.98183E-002,6.78217E-001,0,2.11505E+002,-4.61313E+000,9.97961E-001,1.80399E+002,-3.20781E+001,9.95847E-001,2.50478E-001,-1.04663E-001,-3.03864E-003,2.50504E-001,-1.04689E-001,-4.90184E-001,2.51627E-001,1.28445E+000,-2.29909E-002,0.00000E+000,1.07035E-002,9.03021E-001,0.00000E+000,-3.28002E-003,-7.37141E-002,1.00000E+000,40
1179,1307,3.02504E+001,-1.34505E+000,-1.90820E-002,1.41565E+001,-2.25819E-001,3.95062E-002,1.41584E+001,1.50186E-002,5.03926E-001,0,2.11692E+002,-5.52424E+000,9.98429E-001,1.80489E+002,-3.30006E+001,9.96839E-001,2.51658E-001,-1.04662E-001,-3.01562E-003,2.51684E-001,-1.04688E-001,-4.84860E-001,2.52866E-001,1.28596E+000,-2.29652E-002,0.00000E+000,1.07463E-002,9.03022E-001,0.00000E+000,-3.85552E-003,-7.37239E-002,1.00000E+000,40
1179,1317,3.02523E+001,-7.55818E-001,-1.02095E-001,1.41484E+001,-2.81067E-001,-1.63615E-002,1.41512E+001,3.36273E-002,4.72868E-001,0,2.11808E+002,-6.32848E+000,9.98265E-001,1.80450E+002,-3.36731E+001,9.97789E-001,2.52839E-001,-1.04662E-001,-2.99349E-003,2.52864E-001,-1.04687E-001,-4.79714E-001,2.54108E-001,1.28749E+000,-2.29417E-002,0.00000E+000,1.07891E-002,9.03023E-001,0.00000E+000,-4.43216E-003,-7.37328E-002,1.00000E+000,40
1179,1337,3.02958E+001,4.20013E-001,-8.46171E-002,1.41321E+001,-4.21171E-001,-1.00167E-001,1.41388E+001,1.69177E-002,5.84475E-001,0,2.11857E+002,-8.46808E+000,9.97957E-001,1.81224E+002,-3.53730E+001,9.96629E-001,2.55228E-001,-1.04661E-001,-2.91441E-003,2.55251E-001,-1.04684E-001,-4.63947E-001,2.56622E-001,1.29057E+000,-2.28030E-002,0.00000E+000,1.08761E-002,9.03027E-001,0.00000E+000,-5.60192E-003,-7.37853E-002,1.00000E+000,40
1179,1347,3.03400E+001,1.01635E+000,-4.44242E-002,1.41389E+001,-4.87704E-001,-1.39883E-001,1.41480E+001,1.69463E-002,5.93108E-001,0,2.12078E+002,-9.46394E+000,9.98119E-001,1.82001E+002,-3.61879E+001,9.97503E-001,2.56425E-001,-1.04660E-001,-2.86849E-003,2.56448E-001,-1.04683E-001,-4.55125E-001,2.57884E-001,1.29213E+000,-2.27164E-002,0.00000E+000,1.09198E-002,9.03029E-001,0.00000E+000,-6.18974E-003,-7.38182E-002,1.00000E+000,40
679,1327,-1.15092E+001,-8.00834E-001,1.38100E-001,4.96787E+000,-7.00232E-001,1.55457E-001,5.01939E+000,2.29403E-002,7.57250E-001,0,7.69965E+001,-1.20163E+001,9.95220E-001,3.37495E+001,-5.01513E+001,9.94453E-001,2.29807E-001,-9.65813E-002,-6.97167E-004,2.29808E-001,-9.65827E-002,-1.22384E-001,2.30780E-001,1.25836E+000,-1.18723E-003,0.00000E+000,-4.05857E-004,9.10544E-001,0.00000E+000,-4.15667E-004,-7.58428E-002,1.00000E+000,40
679,1337,-1.14954E+001,-2.20790E-001,8.24966E-002,4.97292E+000,-7.56254E-001,1.12913E-001,5.03137E+000,2.82093E-002,7.94986E-001,0,7.72044E+001,-1.28532E+001,9.96233E-001,3.39403E+001,-5.10865E+001,9.95813E-001,2.28297E-001,-9.65946E-002,-1.18907E-003,2.28301E-001,-9.65990E-002,-2.09693E-001,2.29199E-001,1.25646E+000,-1.21280E-003,0.00000E+000,-1.23477E-003,9.10533E-001,0.00000E+000,-1.29197E-003,-7.58546E-002,1.00000E+000,40
1179,1327,3.02651E+001,-1.77106E-001,-1.00739E-001,1.41354E+001,-3.57420E-001,-4.96789E-002,1.41400E+001,2.39251E-002,5.53190E-001,0,2.11735E+002,-7.53188E+000,9.97294E-001,1.80687E+002,-3.46371E+001,9.96249E-001,2.54031E-001,-1.04661E-001,-2.95750E-003,2.54055E-001,-1.04686E-001,-4.72374E-001,2.55361E-001,1.28903E+000,-2.28818E-002,0.00000E+000,1.08325E-002,9.03025E-001,0.00000E+000,-5.01523E-003,-7.37555E-002,1.00000E+000,40
679,1317,-1.15139E+001,-1.36836E+000,2.38244E-001,4.96700E+000,-6.35333E-001,2.15771E-001,5.01212E+000,1.87415E-002,8.03425E-001,0,7.67938E+001,-1.11257E+001,9.96257E-001,3.38168E+001,-4.90751E+001,9.94972E-001,2.31309E-001,-9.65747E-002,-2.12207E-004,2.31309E-001,-9.65749E-002,-3.70819E-002,2.32356E-001,1.26025E+000,-1.17568E-003,0.00000E+000,4.20843E-004,9.10549E-001,0.00000E+000,4.58295E-004,-7.58375E-002,1.00000E+000,40
669,1327,-1.23106E+001,-8.18805E-001,1.43463E-001,4.80823E+000,-7.11395E-001,1.62812E-001,4.86330E+000,1.52203E-002,7.40291E-001,0,7.45511E+001,-1.21967E+001,9.98471E-001,3.14829E+001,-5.05584E+001,9.98281E-001,2.28102E-001,-9.56748E-002,-3.07892E-004,2.28102E-001,-9.56751E-002,-5.44848E-002,2.29087E-001,1.25621E+000,1.35011E-003,0.00000E+000,-1.49187E-003,9.11324E-001,0.00000E+000,-7.55717E-004,-7.51923E-002,1.00000E+000,40
669,1337,-1.23019E+001,-2.30937E-001,8.42342E-002,4.80789E+000,-7.61555E-001,1.14321E-001,4.86917E+000,1.65503E-002,7.61274E-001,0,7.46898E+001,-1.28903E+001,9.97110E-001,3.15890E+001,-5.13766E+001,9.97200E-001,2.26134E-001,-9.56893E-002,-8.94867E-004,2.26136E-001,-9.56918E-002,-1.59316E-001,2.27025E-001,1.25375E+000,1.31558E-003,0.00000E+000,-2.50298E-003,9.11310E-001,0.00000E+000,-1.50465E-003,-7.52028E-002,1.00000E+000,40
669,1347,-1.22881E+001,3.43722E-001,4.93186E-002,4.80974E+000,-8.25836E-001,7.36366E-002,4.88068E+000,1.47681E-002,7.33584E-001,0,7.48409E+001,-1.38217E+001,9.96891E-001,3.18357E+001,-5.24749E+001,9.96598E-001,2.24162E-001,-9.57085E-002,-1.48618E-003,2.24169E-001,-9.57154E-002,-2.66200E-001,2.24964E-001,1.25128E+000,1.27007E-003,0.00000E+000,-3.51358E-003,9.11291E-001,0.00000E+000,-2.25322E-003,-7.52166E-002,1.00000E+000,40
669,1357,-1.22619E+001,9.34495E-001,6.01038E-002,4.81659E+000,-8.80470E-001,3.66976E-002,4.89654E+000,1.56116E-002,7.23293E-001,0,7.50484E+001,-1.46172E+001,9.96572E-001,3.23996E+001,-5.34166E+001,9.96743E-001,2.22174E-001,-9.57407E-002,-2.09204E-003,2.22188E-001,-9.57545E-002,-3.77013E-001,2.22893E-001,1.24880E+000,1.19618E-003,0.00000E+000,-4.52949E-003,9.11261E-001,0.00000E+000,-3.00571E-003,-7.52390E-002,1.00000E+000,40
1189,1337,3.11590E+001,4.29553E-001,-1.02718E-001,1.43307E+001,-4.19198E-001,-1.19977E-001,1.43373E+001,2.17837E-002,5.91445E-001,0,2.14726E+002,-8.41816E+000,9.98263E-001,1.84709E+002,-3.50742E+001,9.97266E-001,2.54645E-001,-1.05021E-001,-2.56164E-003,2.54663E-001,-1.05039E-001,-4.08050E-001,2.55961E-001,1.28984E+000,-2.20207E-002,0.00000E+000,1.10101E-002,9.02680E-001,0.00000E+000,-5.98399E-003,-7.35081E-002,1.00000E+000,40
669,1317,-1.23103E+001,-1.37872E+000,2.56778E-001,4.81115E+000,-6.39352E-001,2.29475E-001,4.85886E+000,1.87456E-002,7.83222E-001,0,7.43871E+001,-1.12187E+001,9.98100E-001,3.16654E+001,-4.93920E+001,9.98405E-001,2.30054E-001,-9.56712E-002,2.66239E-004,2.30055E-001,-9.56714E-002,4.68319E-002,2.31138E-001,1.25867E+000,1.36031E-003,0.00000E+000,-4.86154E-004,9.11328E-001,0.00000E+000,-1.07717E-005,-7.51892E-002,1.00000E+000,40
1189,1297,3.11056E+001,-1.91736E+000,6.98536E-002,1.43550E+001,-1.60891E-001,8.87647E-002,1.43561E+001,2.01312E-002,6.38107E-001,0,2.14253E+002,-4.63737E+000,9.97651E-001,1.83951E+002,-3.19263E+001,9.95941E-001,2.50809E-001,-1.05021E-001,-2.63989E-003,2.50829E-001,-1.05040E-001,-4.25044E-001,2.51930E-001,1.28489E+000,-2.21664E-002,0.00000E+000,1.09813E-002,9.02679E-001,0.00000E+000,-5.26156E-003,-7.34868E-002,1.00000E+000,40
1189,1307,3.10985E+001,-1.34176E+000,-3.09307E-002,1.43413E+001,-2.29361E-001,2.90964E-002,1.43432E+001,1.80069E-002,6.07899E-001,0,2.14317E+002,-5.61611E+000,9.96206E-001,1.83749E+002,-3.27718E+001,9.96185E-001,2.51763E-001,-1.05021E-001,-2.62938E-003,2.51783E-001,-1.05040E-001,-4.22221E-001,2.52931E-001,1.28612E+000,-2.21539E-002,0.00000E+000,1.09885E-002,9.02679E-001,0.00000E+000,-5.44094E-003,-7.34886E-002,1.00000E+000,40
1189,1317,3.11191E+001,-7.40246E-001,-8.50274E-002,1.43424E+001,-2.80584E-001,-3.43645E-002,1.43452E+001,2.15176E-002,5.75964E-001,0,2.14583E+002,-6.30130E+000,9.98046E-001,1.84040E+002,-3.33126E+001,9.98188E-001,2.52725E-001,-1.05021E-001,-2.60968E-003,2.52744E-001,-1.05040E-001,-4.17932E-001,2.53941E-001,1.28736E+000,-2.21173E-002,0.00000E+000,1.09957E-002,9.02679E-001,0.00000E+000,-5.62194E-003,-7.34939E-002,1.00000E+000,40
1189,1327,3.11349E+001,-1.62655E-001,-1.13313E-001,1.43346E+001,-3.55910E-001,-8.81042E-002,1.43393E+001,2.79765E-002,6.01260E-001,0,2.14678E+002,-7.43596E+000,9.98491E-001,1.84285E+002,-3.42547E+001,9.97026E-001,2.53684E-001,-1.05021E-001,-2.58718E-003,2.53703E-001,-1.05040E-001,-4.13221E-001,2.54950E-001,1.28860E+000,-2.20730E-002,0.00000E+000,1.10029E-002,9.02679E-001,0.00000E+000,-5.80274E-003,-7.35004E-002,1.00000E+000,40
659,1327,-1.31091E+001,-8.01695E-001,1.50673E-001,4.64987E+000,-6.89747E-001,1.65285E-001,4.70366E+000,2.33837E-002,7.27828E-001,0,7.21261E+001,-1.18357E+001,9.98031E-001,2.92798E+001,-5.04275E+001,9.96781E-001,2.26033E-001,-9.50735E-002,-2.23260E-004,2.26033E-001,-9.50736E-002,-3.98368E-002,2.26981E-001,1.25361E+000,4.03935E-003,0.00000E+000,-3.25849E-003,9.11840E-001,0.00000E+000,-1.12524E-003,-7.47916E-002,1.00000E+000,40
659,1337,-1.30742E+001,-2.49305E-001,1.16218E-001,4.67584E+000,-7.75322E-001,1.41363E-001,4.74179E+000,3.75237E-002,7.55643E-001,0,7.26116E+001,-1.31425E+001,9.97297E-001,2.98468E+001,-5.18397E+001,9.97189E-001,2.23854E-001,-9.50854E-002,-8.05644E-004,2.23856E-001,-9.50874E-002,-1.44729E-001,2.24699E-001,1.25088E+000,4.00146E-003,0.00000E+000,-4.27135E-003,9.11826E-001,0.00000E+000,-1.76022E-003,-7.48004E-002,1.00000E+000,40
659,1347,-1.30696E+001,3.38252E-001,7.52900E-002,4.66846E+000,-8.26405E-001,9.37195E-002,4.74197E+000,2.22411E-002,7.79494E-001,0,7.26344E+001,-1.38806E+001,9.98170E-001,2.99398E+001,-5.27047E+001,9.98102E-001,2.21671E-001,-9.51021E-002,-1.39273E-003,2.21677E-001,-9.51083E-002,-2.51902E-001,2.22420E-001,1.24816E+000,3.95103E-003,0.00000E+000,-5.28319E-003,9.11807E-001,0.00000E+000,-2.39457E-003,-7.48121E-002,1.00000E+000,40
659,1357,-1.30570E+001,9.34670E-001,6.92234E-002,4.66242E+000,-8.74585E-001,4.31285E-002,4.74393E+000,1.58365E-002,7.56764E-001,0,7.26794E+001,-1.45382E+001,9.97371E-001,3.02525E+001,-5.35332E+001,9.97422E-001,2.19472E-001,-9.51303E-002,-1.99400E-003,2.19484E-001,-9.51430E-002,-3.63130E-001,2.20131E-001,1.24542E+000,3.87259E-003,0.00000E+000,-6.29990E-003,9.11778E-001,0.00000E+000,-3.03198E-003,-7.48304E-002,1.00000E+000,40
1199,1307,3.19530E+001,-1.33328E+000,-3.14318E-002,1.45290E+001,-2.28941E-001,1.81171E-002,1.45308E+001,2.32264E-002,6.07786E-001,0,2.16975E+002,-5.60296E+000,9.96564E-001,1.87129E+002,-3.25382E+001,9.95741E-001,2.51623E-001,-1.04919E-001,-2.13879E-003,2.51635E-001,-1.04932E-001,-3.43684E-001,2.52788E-001,1.28596E+000,-2.10388E-002,0.00000E+000,1.11808E-002,9.02749E-001,0.00000E+000,-6.44846E-003,-7.32186E-002,1.00000E+000,40
1199,1317,3.19630E+001,-7.46258E-001,-8.44563E-002,1.45217E+001,-2.91762E-001,-3.49639E-002,1.45247E+001,2.00001E-002,5.90875E-001,0,2.17085E+002,-6.52203E+000,9.95426E-001,1.87254E+002,-3.32989E+001,9.93960E-001,2.52427E-001,-1.04919E-001,-2.12885E-003,2.52440E-001,-1.04932E-001,-3.41316E-001,2.53634E-001,1.28700E+000,-2.10116E-002,0.00000E+000,1.11616E-002,9.02748E-001,0.00000E+000,-6.35358E-003,-7.32161E-002,1.00000E+000,40
1199,1327,3.19828E+001,-1.54194E-001,-1.23542E-001,1.45216E+001,-3.50625E-001,-8.48769E-002,1.45261E+001,2.06300E-002,5.74076E-001,0,2.17279E+002,-7.39676E+000,9.96849E-001,1.87550E+002,-3.40112E+001,9.95610E-001,2.53232E-001,-1.04920E-001,-2.11729E-003,2.53245E-001,-1.04932E-001,-3.38701E-001,2.54480E-001,1.28803E+000,-2.09801E-002,0.00000E+000,1.11425E-002,9.02748E-001,0.00000E+000,-6.25863E-003,-7.32132E-002,1.00000E+000,40
659,1317,-1.31213E+001,-1.37968E+000,2.28732E-001,4.64274E+000,-6.34835E-001,2.10697E-001,4.69068E+000,1.75458E-002,7.62658E-001,0,7.18762E+001,-1.10610E+001,9.96487E-001,2.91733E+001,-4.94679E+001,9.94901E-001,2.28195E-001,-9.50681E-002,3.49342E-004,2.28195E-001,-9.50684E-002,6.19180E-002,2.29251E-001,1.25632E+000,4.06075E-003,0.00000E+000,-2.25100E-003,9.11848E-001,0.00000E+000,-4.93615E-004,-7.47866E-002,1.00000E+000,40
1199,1337,3.20191E+001,4.41730E-001,-9.78433E-002,1.45231E+001,-4.15479E-001,-1.27095E-001,1.45296E+001,1.61824E-002,6.05551E-001,0,2.17438E+002,-8.38159E+000,9.97995E-001,1.88181E+002,-3.47825E+001,9.97123E-001,2.54044E-001,-1.04921E-001,-2.09701E-003,2.54056E-001,-1.04933E-001,-3.34697E-001,2.55334E-001,1.28908E+000,-2.09255E-002,0.00000E+000,1.11231E-002,9.02747E-001,0.00000E+000,-6.16271E-003,-7.32082E-002,1.00000E+000,40
1199,1297,3.19576E+001,-1.90038E+000,5.40496E-002,1.45408E+001,-1.51328E-001,6.51192E-002,1.45418E+001,1.76300E-002,6.07988E-001,0,2.16934E+002,-4.44263E+000,9.96258E-001,1.87273E+002,-3.15446E+001,9.94665E-001,2.50820E-001,-1.04918E-001,-2.14285E-003,2.50833E-001,-1.04931E-001,-3.45113E-001,2.51946E-001,1.28493E+000,-2.10504E-002,0.00000E+000,1.11998E-002,9.02749E-001,0.00000E+000,-6.54291E-003,-7.32196E-002,1.00000E+000,40
649,1347,-1.38798E+001,3.44540E-001,6.77330E-002,4.49839E+000,-8.15412E-001,8.18758E-002,4.57243E+000,2.14440E-002,7.97316E-001,0,7.00666E+001,-1.36623E+001,9.97151E-001,2.75234E+001,-5.26991E+001,9.95610E-001,2.18976E-001,-9.42625E-002,-1.20583E-003,2.18981E-001,-9.42671E-002,-2.20559E-001,2.19685E-001,1.24479E+000,6.99454E-003,0.00000E+000,-7.14860E-003,9.12522E-001,0.00000E+000,-2.69527E-003,-7.42652E-002,1.00000E+000,40
649,1357,-1.38598E+001,9.30769E-001,7.49668E-002,4.50028E+000,-8.72731E-001,4.71116E-002,4.58437E+000,1.43961E-002,7.51267E-001,0,7.01920E+001,-1.44946E+001,9.97939E-001,2.79835E+001,-5.37258E+001,9.97250E-001,2.16414E-001,-9.42860E-002,-1.78611E-003,2.16424E-001,-9.42962E-002,-3.29360E-001,2.17020E-001,1.24161E+000,6.90644E-003,0.00000E+000,-8.12641E-003,9.12495E-001,0.00000E+000,-3.33723E-003,-7.42829E-002,1.00000E+000,40
649,1337,-1.39001E+001,-2.35878E-001,1.05562E-001,4.48978E+000,-7.55670E-001,1.25379E-001,4.55465E+000,2.36913E-002,7.65823E-001,0,6.98053E+001,-1.28037E+001,9.97484E-001,2.71823E+001,-5.17218E+001,9.96615E-001,2.21529E-001,-9.42494E-002,-6.38628E-004,2.21530E-001,-9.42507E-002,-1.15874E-001,2.22349E-001,1.24797E+000,7.05187E-003,0.00000E+000,-6.17163E-003,9.12540E-001,0.00000E+000,-2.05386E-003,-7.42536E-002,1.00000E+000,40
649,1327,-1.39224E+001,-7.93493E-001,1.44764E-001,4.47593E+000,-6.77729E-001,1.51939E-001,4.52949E+000,1.85724E-002,7.22777E-001,0,6.95027E+001,-1.15870E+001,9.98444E-001,2.68197E+001,-5.04041E+001,9.98154E-001,2.24061E-001,-9.42414E-002,-8.07239E-005,2.24061E-001,-9.42414E-002,-1.45306E-002,2.25001E-001,1.25113E+000,7.09344E-003,0.00000E+000,-5.19952E-003,9.12552E-001,0.00000E+000,-1.41564E-003,-7.42452E-002,1.00000E+000,40
1209,1307,3.28059E+001,-1.31849E+000,-4.08112E-002,1.47153E+001,-2.20959E-001,8.70019E-004,1.47169E+001,1.65251E-002,6.22071E-001,0,2.19633E+002,-5.48183E+000,9.97604E-001,1.90480E+002,-3.21807E+001,9.96364E-001,2.50857E-001,-1.04410E-001,-1.56881E-003,2.50864E-001,-1.04417E-001,-2.53003E-001,2.52035E-001,1.28500E+000,-1.96359E-002,0.00000E+000,1.13088E-002,9.03170E-001,0.00000E+000,-7.14118E-003,-7.26863E-002,1.00000E+000,40
1209,1317,3.28155E+001,-7.39737E-001,-9.19624E-002,1.47093E+001,-2.91241E-001,-4.33068E-002,1.47122E+001,1.89312E-002,6.02039E-001,0,2.19731E+002,-6.53377E+000,9.97422E-001,1.90599E+002,-3.30738E+001,9.94778E-001,2.51720E-001,-1.04410E-001,-1.54782E-003,2.51727E-001,-1.04416E-001,-2.49014E-001,2.52942E-001,1.28611E+000,-1.96097E-002,0.00000E+000,1.12900E-002,9.03169E-001,0.00000E+000,-6.72845E-003,-7.26765E-002,1.00000E+000,40
1209,1327,3.28480E+001,-1.38568E-001,-1.15026E-001,1.47171E+001,-3.43274E-001,-9.48531E-002,1.47214E+001,1.93677E-002,5.42490E-001,0,2.20039E+002,-7.28954E+000,9.97741E-001,1.91113E+002,-3.36978E+001,9.96189E-001,2.52585E-001,-1.04409E-001,-1.52099E-003,2.52591E-001,-1.04416E-001,-2.44105E-001,2.53851E-001,1.28722E+000,-1.95681E-002,0.00000E+000,1.12710E-002,9.03169E-001,0.00000E+000,-6.31436E-003,-7.26610E-002,1.00000E+000,40
1209,1337,3.28825E+001,4.53738E-001,-8.16370E-002,1.47163E+001,-4.13230E-001,-1.30398E-001,1.47227E+001,1.85734E-002,6.20340E-001,0,2.20137E+002,-8.37347E+000,9.97288E-001,1.91721E+002,-3.45182E+001,9.95830E-001,2.53457E-001,-1.04408E-001,-1.48734E-003,2.53463E-001,-1.04415E-001,-2.38125E-001,2.54770E-001,1.28834E+000,-1.95087E-002,0.00000E+000,1.12519E-002,9.03168E-001,0.00000E+000,-5.89598E-003,-7.26389E-002,1.00000E+000,40
1209,1297,3.28128E+001,-1.88751E+000,4.58572E-002,1.47312E+001,-1.43532E-001,5.59350E-002,1.47320E+001,1.54810E-002,5.87412E-001,0,2.19621E+002,-4.33220E+000,9.97435E-001,1.90659E+002,-3.12382E+001,9.95448E-001,2.49995E-001,-1.04410E-001,-1.58574E-003,2.50002E-001,-1.04417E-001,-2.56356E-001,2.51129E-001,1.28390E+000,-1.96515E-002,0.00000E+000,1.13277E-002,9.03170E-001,0.00000E+000,-7.55317E-003,-7.26921E-002,1.00000E+000,40
649,1317,-1.39257E+001,-1.37447E+000,2.30705E-001,4.47631E+000,-6.27045E-001,1.97765E-001,4.52434E+000,1.55898E-002,7.61138E-001,0,6.93694E+001,-1.08832E+001,9.97440E-001,2.68705E+001,-4.95025E+001,9.97358E-001,2.26580E-001,-9.42411E-002,4.66177E-004,2.26580E-001,-9.42418E-002,8.32549E-002,2.27645E-001,1.25428E+000,7.11161E-003,0.00000E+000,-4.23007E-003,9.12558E-001,0.00000E+000,-7.79165E-004,-7.42415E-002,1.00000E+000,40
639,1347,-1.46850E+001,3.51923E-001,6.20279E-002,4.33388E+000,-8.01798E-001,7.79336E-002,4.40812E+000,2.21884E-002,7.66282E-001,0,6.75590E+001,-1.34071E+001,9.96003E-001,2.51930E+001,-5.27046E+001,9.94814E-001,2.16517E-001,-9.31638E-002,-1.06152E-003,2.16521E-001,-9.31675E-002,-1.96394E-001,2.17221E-001,1.24171E+000,1.03870E-002,0.00000E+000,-9.36825E-003,9.13445E-001,0.00000E+000,-2.95788E-003,-7.33917E-002,1.00000E+000,40
639,1357,-1.46626E+001,9.42927E-001,7.19555E-002,4.33830E+000,-8.54957E-001,4.48038E-002,4.42197E+000,1.47152E-002,7.60754E-001,0,6.77172E+001,-1.41878E+001,9.97407E-001,2.57021E+001,-5.36452E+001,9.97066E-001,2.13708E-001,-9.31833E-002,-1.61284E-003,2.13717E-001,-9.31918E-002,-3.01101E-001,2.14299E-001,1.23823E+000,1.02907E-002,0.00000E+000,-1.02917E-002,9.13420E-001,0.00000E+000,-3.65999E-003,-7.34111E-002,1.00000E+000,40
639,1317,-1.47183E+001,-1.38882E+000,2.52269E-001,4.32152E+000,-6.40016E-001,2.06130E-001,4.37351E+000,2.02095E-002,8.40699E-001,0,6.69854E+001,-1.10972E+001,9.97320E-001,2.48022E+001,-4.98371E+001,9.96456E-001,2.24824E-001,-9.31567E-002,5.08271E-004,2.24825E-001,-9.31575E-002,9.15830E-002,2.25922E-001,1.25206E+000,1.04992E-002,0.00000E+000,-6.61929E-003,9.13475E-001,0.00000E+000,-8.67786E-004,-7.33690E-002,1.00000E+000,40
639,1327,-1.47129E+001,-8.18308E-001,1.63727E-001,4.32471E+000,-6.97789E-001,1.65460E-001,4.38376E+000,1.49283E-002,7.42810E-001,0,6.71617E+001,-1.19256E+001,9.97921E-001,2.47742E+001,-5.09261E+001,9.97136E-001,2.22080E-001,-9.31519E-002,-1.71032E-006,2.22080E-001,-9.31519E-002,-3.10863E-004,2.23039E-001,1.24863E+000,1.04871E-002,0.00000E+000,-7.53023E-003,9.13472E-001,0.00000E+000,-1.56039E-003,-7.33714E-002,1.00000E+000,40
639,1337,-1.47046E+001,-2.31082E-001,9.51164E-002,4.32641E+000,-7.46347E-001,1.19916E-001,4.39195E+000,1.88343E-002,7.86637E-001,0,6.73221E+001,-1.26087E+001,9.96872E-001,2.48486E+001,-5.17291E+001,9.96029E-001,2.19303E-001,-9.31536E-002,-5.25591E-004,2.19304E-001,-9.31545E-002,-9.63782E-002,2.20130E-001,1.24517E+000,1.04517E-002,0.00000E+000,-8.44914E-003,9.13463E-001,0.00000E+000,-2.25905E-003,-7.33786E-002,1.00000E+000,40
1219,1317,3.36760E+001,-7.29370E-001,-8.79600E-002,1.49007E+001,-2.91191E-001,-5.38830E-002,1.49036E+001,2.32994E-002,6.61278E-001,0,2.22432E+002,-6.53646E+000,9.97271E-001,1.94087E+002,-3.27894E+001,9.94963E-001,2.50761E-001,-1.04484E-001,-8.00072E-004,2.50762E-001,-1.04485E-001,-1.29039E-001,2.51921E-001,1.28490E+000,-1.78119E-002,0.00000E+000,1.14058E-002,9.03047E-001,0.00000E+000,-6.55530E-003,-7.18807E-002,1.00000E+000,40
1219,1327,3.37048E+001,-1.28866E-001,-1.12948E-001,1.49067E+001,-3.41844E-001,-9.93767E-002,1.49109E+001,1.16161E-002,5.95619E-001,0,2.22691E+002,-7.29934E+000,9.98896E-001,1.94538E+002,-3.34215E+001,9.97977E-001,2.51612E-001,-1.04484E-001,-7.89658E-004,2.51614E-001,-1.04486E-001,-1.27055E-001,2.52815E-001,1.28599E+000,-1.77741E-002,0.00000E+000,1.13480E-002,9.03045E-001,0.00000E+000,-5.94028E-003,-7.18593E-002,1.00000E+000,40
1219,1337,3.37424E+001,4.69526E-001,-8.76062E-002,1.49081E+001,-4.06285E-001,-1.45514E-001,1.49144E+001,1.84615E-002,6.61434E-001,0,2.22865E+002,-8.27212E+000,9.97754E-001,1.95184E+002,-3.41335E+001,9.95697E-001,2.52474E-001,-1.04486E-001,-7.70879E-004,2.52475E-001,-1.04487E-001,-1.23733E-001,2.53721E-001,1.28710E+000,-1.77140E-002,0.00000E+000,1.12893E-002,9.03042E-001,0.00000E+000,-5.31704E-003,-7.18255E-002,1.00000E+000,40
1219,1297,3.36720E+001,-1.87509E+000,4.38451E-002,1.49241E+001,-1.38202E-001,4.87908E-002,1.49248E+001,1.64157E-002,5.55123E-001,0,2.22328E+002,-4.23698E+000,9.97662E-001,1.94121E+002,-3.09577E+001,9.95597E-001,2.49053E-001,-1.04482E-001,-8.09578E-004,2.49055E-001,-1.04484E-001,-1.31203E-001,2.50128E-001,1.28272E+000,-1.78576E-002,0.00000E+000,1.15217E-002,9.03050E-001,0.00000E+000,-7.78581E-003,-7.19064E-002,1.00000E+000,40
1219,1307,3.36704E+001,-1.30393E+000,-3.05759E-002,1.49107E+001,-2.15174E-001,-3.57673E-003,1.49123E+001,2.12666E-002,5.81768E-001,0,2.22364E+002,-5.38097E+000,9.97551E-001,1.94038E+002,-3.18951E+001,9.94904E-001,2.49907E-001,-1.04483E-001,-8.06041E-004,2.49908E-001,-1.04485E-001,-1.30315E-001,2.51024E-001,1.28381E+000,-1.78380E-002,0.00000E+000,1.14638E-002,9.03049E-001,0.00000E+000,-7.17130E-003,-7.18954E-002,1.00000E+000,40
629,1347,-1.54819E+001,3.43029E-001,5.59775E-002,4.17787E+000,-8.04324E-001,7.63127E-002,4.25527E+000,2.01233E-002,7.50969E-001,0,6.51780E+001,-1.34149E+001,9.94914E-001,2.29924E+001,-5.29508E+001,9.94279E-001,2.14446E-001,-9.34968E-002,-1.03454E-003,2.14450E-001,-9.35002E-002,-1.92484E-001,2.15034E-001,1.23911E+000,1.38968E-002,0.00000E+000,-1.19170E-002,9.13094E-001,0.00000E+000,-2.76361E-003,-7.31374E-002,1.00000E+000,40
629,1357,-1.54517E+001,9.35430E-001,7.12897E-002,4.18985E+000,-8.56178E-001,4.67360E-002,4.27669E+000,1.67826E-002,7.54138E-001,0,6.54430E+001,-1.41876E+001,9.95725E-001,2.36364E+001,-5.38781E+001,9.95438E-001,2.11759E-001,-9.35059E-002,-1.34366E-003,2.11765E-001,-9.35118E-002,-2.52187E-001,2.12246E-001,1.23579E+000,1.38045E-002,0.00000E+000,-1.24130E-002,9.13080E-001,0.00000E+000,-3.28645E-003,-7.31520E-002,1.00000E+000,40
629,1327,-1.55069E+001,-8.18034E-001,1.58716E-001,4.17098E+000,-6.91741E-001,1.62760E-001,4.23108E+000,1.62654E-002,7.31948E-001,0,6.48184E+001,-1.18027E+001,9.96276E-001,2.26216E+001,-5.10272E+001,9.96226E-001,2.19771E-001,-9.34943E-002,-4.56152E-004,2.19772E-001,-9.34949E-002,-8.34291E-002,2.20586E-001,1.24572E+000,1.39891E-002,0.00000E+000,-1.09296E-002,9.13108E-001,0.00000E+000,-1.72281E-003,-7.31229E-002,1.00000E+000,40
629,1337,-1.54941E+001,-2.39993E-001,8.89642E-002,4.17713E+000,-7.49180E-001,1.15611E-001,4.24536E+000,1.90422E-002,7.78285E-001,0,6.50538E+001,-1.26250E+001,9.96044E-001,2.27585E+001,-5.19689E+001,9.95774E-001,2.17113E-001,-9.34934E-002,-7.40256E-004,2.17115E-001,-9.34952E-002,-1.36550E-001,2.17811E-001,1.24241E+000,1.39554E-002,0.00000E+000,-1.14232E-002,9.13103E-001,0.00000E+000,-2.24310E-003,-7.31282E-002,1.00000E+000,40
1229,1317,3.45354E+001,-7.06224E-001,-1.17189E-001,1.50935E+001,-2.74426E-001,-8.60049E-002,1.50963E+001,2.75558E-002,6.38377E-001,0,2.25241E+002,-6.23330E+000,9.96904E-001,1.97526E+002,-3.22749E+001,9.94469E-001,2.49973E-001,-1.03792E-001,-5.50088E-005,2.49973E-001,-1.03792E-001,-8.90922E-003,2.51168E-001,1.28392E+000,-1.58221E-002,0.00000E+000,1.14063E-002,9.03555E-001,0.00000E+000,-6.77462E-003,-7.00507E-002,1.00000E+000,40
1229,1327,3.45593E+001,-1.22865E-001,-1.13935E-001,1.50941E+001,-3.45512E-001,-1.04577E-001,1.50984E+001,1.56003E-002,6.58362E-001,0,2.25312E+002,-7.36364E+000,9.97886E-001,1.97929E+002,-3.31918E+001,9.96903E-001,2.50789E-001,-1.03785E-001,2.86662E-005,2.50789E-001,-1.03785E-001,4.63218E-003,2.52028E-001,1.28496E+000,-1.57851E-002,0.00000E+000,1.14635E-002,9.03557E-001,0.00000E+000,-5.79383E-003,-7.00159E-002,1.00000E+000,40
1229,1337,3.46007E+001,4.81486E-001,-9.76046E-002,1.51021E+001,-3.98985E-001,-1.48588E-001,1.51081E+001,1.65586E-002,6.12871E-001,0,2.25575E+002,-8.17656E+000,9.96935E-001,1.98622E+002,-3.38447E+001,9.95968E-001,2.51605E-001,-1.03777E-001,1.18401E-004,2.51605E-001,-1.03777E-001,1.90889E-002,2.52887E-001,1.28600E+000,-1.57324E-002,0.00000E+000,1.15208E-002,9.03560E-001,0.00000E+000,-4.81135E-003,-6.99663E-002,1.00000E+000,40
629,1317,-1.55211E+001,-1.38556E+000,2.57098E-001,4.15876E+000,-6.30799E-001,2.12164E-001,4.21167E+000,1.78433E-002,8.19757E-001,0,6.44771E+001,-1.09468E+001,9.96857E-001,2.25438E+001,-4.99177E+001,9.96401E-001,2.22402E-001,-9.34991E-002,-1.83396E-004,2.22402E-001,-9.34992E-002,-3.32630E-002,2.23340E-001,1.24900E+000,1.39995E-002,0.00000E+000,-1.04398E-002,9.13109E-001,0.00000E+000,-1.20644E-003,-7.31213E-002,1.00000E+000,40
1229,1297,3.45326E+001,-1.86045E+000,3.77915E-002,1.51177E+001,-1.30949E-001,3.77354E-002,1.51183E+001,1.94273E-002,6.05906E-001,0,2.25058E+002,-4.14047E+000,9.95810E-001,1.97603E+002,-3.05926E+001,9.93232E-001,2.48344E-001,-1.03800E-001,-2.09993E-004,2.48344E-001,-1.03801E-001,-3.41669E-002,2.49456E-001,1.28184E+000,-1.58649E-002,0.00000E+000,1.12925E-002,9.03553E-001,0.00000E+000,-8.72600E-003,-7.00910E-002,1.00000E+000,40
1229,1307,3.45413E+001,-1.28024E+000,-3.54433E-002,1.51160E+001,-1.97801E-001,-8.14754E-003,1.51173E+001,2.96975E-002,5.95003E-001,0,2.25238E+002,-5.13649E+000,9.94648E-001,1.97684E+002,-3.14075E+001,9.93516E-001,2.49158E-001,-1.03797E-001,-1.34448E-004,2.49158E-001,-1.03797E-001,-2.18252E-002,2.50311E-001,1.28288E+000,-1.58483E-002,0.00000E+000,1.13493E-002,9.03553E-001,0.00000E+000,-7.75196E-003,-7.00754E-002,1.00000E+000,40
619,1327,-1.63064E+001,-8.18601E-001,1.63624E-001,4.01109E+000,-6.86775E-001,1.68659E-001,4.07296E+000,1.34320E-002,7.42498E-001,0,6.23518E+001,-1.17253E+001,9.96287E-001,2.04177E+001,-5.11528E+001,9.96947E-001,2.18036E-001,-9.26365E-002,-7.15546E-004,2.18038E-001,-9.26382E-002,-1.31964E-001,2.18856E-001,1.24351E+000,1.77462E-002,0.00000E+000,-1.41777E-002,9.13864E-001,0.00000E+000,-1.79936E-003,-7.33846E-002,1.00000E+000,40
619,1337,-1.62881E+001,-2.39358E-001,9.93554E-002,4.02209E+000,-7.43406E-001,1.22387E-001,4.09204E+000,1.60459E-002,7.99241E-001,0,6.26583E+001,-1.25434E+001,9.94073E-001,2.06548E+001,-5.20839E+001,9.94597E-001,2.15198E-001,-9.26352E-002,-8.84572E-004,2.15200E-001,-9.26378E-002,-1.64640E-001,2.15893E-001,1.23999E+000,1.77068E-002,0.00000E+000,-1.44674E-002,9.13861E-001,0.00000E+000,-2.26193E-003,-7.33898E-002,1.00000E+000,40
619,1347,-1.62688E+001,3.47535E-001,5.85049E-002,4.03118E+000,-7.93480E-001,8.24412E-002,4.10935E+000,1.89536E-002,7.75352E-001,0,6.29133E+001,-1.32541E+001,9.94115E-001,2.09752E+001,-5.29887E+001,9.93720E-001,2.12353E-001,-9.26354E-002,-1.05969E-003,2.12356E-001,-9.26391E-002,-1.99072E-001,2.12931E-001,1.23647E+000,1.76520E-002,0.00000E+000,-1.47570E-002,9.13856E-001,0.00000E+000,-2.72421E-003,-7.33970E-002,1.00000E+000,40
619,1357,-1.62405E+001,9.38982E-001,6.02571E-002,4.04245E+000,-8.45136E-001,4.50099E-002,4.13010E+000,1.71990E-002,7.71188E-001,0,6.31898E+001,-1.40033E+001,9.96388E-001,2.15544E+001,-5.39070E+001,9.96201E-001,2.09487E-001,-9.26392E-002,-1.25019E-003,2.09492E-001,-9.26444E-002,-2.37082E-001,2.09958E-001,1.23293E+000,1.75606E-002,0.00000E+000,-1.50478E-002,9.13849E-001,0.00000E+000,-3.18839E-003,-7.34090E-002,1.00000E+000,40
619,1317,-1.63166E+001,-1.38131E+000,2.63380E-001,4.00303E+000,-6.19577E-001,2.19941E-001,4.05667E+000,2.17999E-002,7.82382E-001,0,6.20697E+001,-1.07769E+001,9.95164E-001,2.04085E+001,-4.99934E+001,9.95117E-001,2.20851E-001,-9.26406E-002,-5.58421E-004,2.20852E-001,-9.26416E-002,-1.02060E-001,2.21805E-001,1.24701E+000,1.77576E-002,0.00000E+000,-1.38894E-002,9.13865E-001,0.00000E+000,-1.33917E-003,-7.33831E-002,1.00000E+000,40
1239,1307,3.53911E+001,-1.26936E+000,-4.61078E-002,1.53005E+001,-1.91643E-001,-1.55770E-002,1.53017E+001,2.98653E-002,6.13720E-001,0,2.27818E+002,-5.07527E+000,9.94388E-001,2.00996E+002,-3.11069E+001,9.92437E-001,2.48355E-001,-1.02921E-001,1.64537E-004,2.48355E-001,-1.02921E-001,2.68372E-002,2.49565E-001,1.28186E+000,-1.46951E-002,0.00000E+000,1.11198E-002,9.04345E-001,0.00000E+000,-7.92527E-003,-7.00229E-002,1.00000E+000,40
1239,1317,3.54020E+001,-6.77315E-001,-1.07026E-001,1.52951E+001,-2.49417E-001,-7.13054E-002,1.52973E+001,2.96940E-002,6.07277E-001,0,2.27971E+002,-5.92415E+000,9.94951E-001,2.01126E+002,-3.17602E+001,9.94284E-001,2.49259E-001,-1.02908E-001,3.53292E-004,2.49259E-001,-1.02908E-001,5.74787E-002,2.50518E-001,1.28301E+000,-1.46665E-002,0.00000E+000,1.13473E-002,9.04350E-001,0.00000E+000,-6.48745E-003,-6.99870E-002,1.00000E+000,40
1239,1327,3.54214E+001,-1.00002E-001,-1.05117E-001,1.52864E+001,-3.31485E-001,-1.08548E-001,1.52904E+001,2.26075E-002,6.77967E-001,0,2.27982E+002,-7.17257E+000,9.96012E-001,2.01455E+002,-3.27422E+001,9.95369E-001,2.50169E-001,-1.02889E-001,5.51638E-004,2.50170E-001,-1.02890E-001,8.95220E-002,2.51479E-001,1.28417E+000,-1.46172E-002,0.00000E+000,1.15772E-002,9.04360E-001,0.00000E+000,-5.03452E-003,-6.99252E-002,1.00000E+000,40
1239,1337,3.54451E+001,5.01295E-001,-9.96423E-002,1.52802E+001,-3.85268E-001,-1.49521E-001,1.52858E+001,1.85642E-002,5.88164E-001,0,2.28030E+002,-7.98886E+000,9.95432E-001,2.01857E+002,-3.34414E+001,9.93291E-001,2.51069E-001,-1.02869E-001,7.49655E-004,2.51071E-001,-1.02870E-001,1.21354E-001,2.52431E-001,1.28532E+000,-1.45649E-002,0.00000E+000,1.18055E-002,9.04371E-001,0.00000E+000,-3.59209E-003,-6.98596E-002,1.00000E+000,40
1239,1297,3.53865E+001,-1.84911E+000,3.24435E-002,1.53054E+001,-1.24696E-001,3.15930E-002,1.53060E+001,1.85576E-002,6.36177E-001,0,2.27677E+002,-4.08536E+000,9.95931E-001,2.00987E+002,-3.02917E+001,9.93979E-001,2.47451E-001,-1.02930E-001,-1.93043E-005,2.47451E-001,-1.02930E-001,-3.15673E-003,2.48613E-001,1.28072E+000,-1.47117E-002,0.00000E+000,1.08928E-002,9.04341E-001,0.00000E+000,-9.35974E-003,-7.00436E-002,1.00000E+000,40
609,1347,-1.70564E+001,3.44030E-001,6.24390E-002,3.88253E+000,-7.91880E-001,8.45633E-002,3.96337E+000,2.40493E-002,8.09383E-001,0,6.06280E+001,-1.32268E+001,9.93478E-001,1.89565E+001,-5.31483E+001,9.93276E-001,2.10321E-001,-9.08527E-002,-1.32180E-003,2.10327E-001,-9.08585E-002,-2.51454E-001,2.10975E-001,1.23390E+000,2.12084E-002,0.00000E+000,-1.79353E-002,9.15386E-001,0.00000E+000,-2.51908E-003,-7.27256E-002,1.00000E+000,40
609,1357,-1.70310E+001,9.44698E-001,5.72690E-002,3.89195E+000,-8.33203E-001,4.55641E-002,3.98040E+000,1.90825E-002,7.87806E-001,0,6.08774E+001,-1.38030E+001,9.95965E-001,1.94751E+001,-5.39209E+001,9.95772E-001,2.07358E-001,-9.08542E-002,-1.45835E-003,2.07365E-001,-9.08614E-002,-2.80185E-001,2.07893E-001,1.23026E+000,2.11201E-002,0.00000E+000,-1.81230E-002,9.15381E-001,0.00000E+000,-3.20806E-003,-7.27423E-002,1.00000E+000,40
609,1317,-1.71186E+001,-1.38763E+000,2.56436E-001,3.83974E+000,-6.20325E-001,2.11191E-001,3.89526E+000,2.09414E-002,8.16191E-001,0,5.95893E+001,-1.07788E+001,9.96267E-001,1.81383E+001,-5.01691E+001,9.95441E-001,2.19119E-001,-9.08591E-002,-9.76294E-004,2.19122E-001,-9.08621E-002,-1.80454E-001,2.20183E-001,1.24480E+000,2.13160E-002,0.00000E+000,-1.73743E-002,9.15391E-001,0.00000E+000,-4.60145E-004,-7.27053E-002,1.00000E+000,40
609,1327,-1.71026E+001,-8.27001E-001,1.63478E-001,3.85411E+000,-6.90659E-001,1.69601E-001,3.91918E+000,1.49936E-002,8.14447E-001,0,5.99432E+001,-1.17913E+001,9.96975E-001,1.82539E+001,-5.13570E+001,9.96861E-001,2.16200E-001,-9.08551E-002,-1.08067E-003,2.16203E-001,-9.08589E-002,-2.01648E-001,2.17118E-001,1.24117E+000,2.13070E-002,0.00000E+000,-1.75610E-002,9.15391E-001,0.00000E+000,-1.14557E-003,-7.27070E-002,1.00000E+000,40
609,1337,-1.70801E+001,-2.38956E-001,1.04221E-001,3.86934E+000,-7.36789E-001,1.27868E-001,3.94094E+000,1.94760E-002,7.97419E-001,0,6.02995E+001,-1.24419E+001,9.94212E-001,1.85719E+001,-5.22020E+001,9.94193E-001,2.13270E-001,-9.08533E-002,-1.19749E-003,2.13275E-001,-9.08580E-002,-2.25599E-001,2.14052E-001,1.23754E+000,2.12666E-002,0.00000E+000,-1.77478E-002,9.15389E-001,0.00000E+000,-1.83115E-003,-7.27146E-002,1.00000E+000,40
1249,1297,3.62465E+001,-1.82911E+000,3.81049E-002,1.54971E+001,-1.11767E-001,3.07860E-002,1.54975E+001,2.08521E-002,6.57405E-001,0,2.30319E+002,-3.91800E+000,9.96457E-001,2.04481E+002,-2.98835E+001,9.95007E-001,2.46222E-001,-1.01986E-001,1.96209E-004,2.46223E-001,-1.01986E-001,3.22852E-002,2.47428E-001,1.27917E+000,-1.30200E-002,0.00000E+000,1.01368E-002,9.05196E-001,0.00000E+000,-9.61812E-003,-6.99058E-002,1.00000E+000,40
1249,1307,3.62423E+001,-1.25734E+000,-5.64817E-002,1.54859E+001,-1.85032E-001,-2.29741E-002,1.54871E+001,2.55020E-002,6.14125E-001,0,2.30406E+002,-4.98878E+000,9.96372E-001,2.04338E+002,-3.07982E+001,9.94405E-001,2.47343E-001,-1.01969E-001,5.99632E-004,2.47344E-001,-1.01970E-001,9.83540E-002,2.48610E-001,1.28058E+000,-1.30048E-002,0.00000E+000,1.07393E-002,9.05202E-001,0.00000E+000,-7.71276E-003,-6.98854E-002,1.00000E+000,40
1249,1317,3.62486E+001,-6.73563E-001,-1.04874E-001,1.54768E+001,-2.50395E-001,-6.23409E-002,1.54789E+001,2.63578E-002,5.92680E-001,0,2.30439E+002,-5.98670E+000,9.92974E-001,2.04407E+002,-3.16140E+001,9.91747E-001,2.48462E-001,-1.01942E-001,1.01109E-003,2.48465E-001,-1.01944E-001,1.65325E-001,2.49794E-001,1.28200E+000,-1.29713E-002,0.00000E+000,1.13437E-002,9.05216E-001,0.00000E+000,-5.80135E-003,-6.98402E-002,1.00000E+000,40
1249,1327,3.62622E+001,-7.56090E-002,-1.29022E-001,1.54649E+001,-3.08689E-001,-1.15422E-001,1.54684E+001,2.56609E-002,6.34290E-001,0,2.30468E+002,-6.85408E+000,9.93174E-001,2.04617E+002,-3.22310E+001,9.92648E-001,2.49583E-001,-1.01901E-001,1.43347E-003,2.49589E-001,-1.01907E-001,2.33666E-001,2.50984E-001,1.28343E+000,-1.29157E-002,0.00000E+000,1.19524E-002,9.05240E-001,0.00000E+000,-3.87621E-003,-6.97655E-002,1.00000E+000,40
1249,1337,3.62908E+001,5.25760E-001,-1.08908E-001,1.54605E+001,-3.66383E-001,-1.51928E-001,1.54656E+001,1.99428E-002,5.99677E-001,0,2.30520E+002,-7.73295E+000,9.96693E-001,2.05108E+002,-3.29317E+001,9.96122E-001,2.50701E-001,-1.01852E-001,1.86211E-003,2.50711E-001,-1.01862E-001,3.02613E-001,2.52174E-001,1.28487E+000,-1.28443E-002,0.00000E+000,1.25621E-002,9.05270E-001,0.00000E+000,-1.94803E-003,-6.96693E-002,1.00000E+000,40
1259,1327,3.71141E+001,-6.06141E-002,-1.29057E-001,1.56503E+001,-2.98321E-001,-1.11982E-001,1.56535E+001,2.02367E-002,6.14051E-001,0,2.33004E+002,-6.74367E+000,9.97010E-001,2.07982E+002,-3.19060E+001,9.96615E-001,2.49276E-001,-1.01333E-001,2.22190E-003,2.49290E-001,-1.01347E-001,3.63078E-001,2.50738E-001,1.28305E+000,-1.18998E-002,0.00000E+000,1.25853E-002,9.05706E-001,0.00000E+000,-2.03212E-003,-6.91031E-002,1.00000E+000,40
1259,1337,3.71436E+001,5.38272E-001,-1.03087E-001,1.56462E+001,-3.59279E-001,-1.44268E-001,1.56510E+001,1.91826E-002,5.70584E-001,0,2.33043E+002,-7.67347E+000,9.97864E-001,2.08491E+002,-3.26612E+001,9.97911E-001,2.50479E-001,-1.01265E-001,2.79884E-003,2.50501E-001,-1.01287E-001,4.55866E-001,2.52025E-001,1.28459E+000,-1.18211E-002,0.00000E+000,1.34228E-002,9.05749E-001,0.00000E+000,5.85607E-004,-6.89699E-002,1.00000E+000,40
599,1347,-1.78343E+001,3.56930E-001,7.08558E-002,3.74268E+000,-7.73850E-001,8.81844E-002,3.82286E+000,2.45184E-002,8.30609E-001,0,5.84679E+001,-1.29477E+001,9.96064E-001,1.71083E+001,-5.30709E+001,9.96140E-001,2.09254E-001,-9.07479E-002,-1.04936E-003,2.09258E-001,-9.07516E-002,-2.00407E-001,2.09871E-001,1.23254E+000,2.38911E-002,0.00000E+000,-1.94488E-002,9.15373E-001,0.00000E+000,-2.30605E-003,-7.15453E-002,1.00000E+000,40
599,1357,-1.78036E+001,9.41168E-001,6.39089E-002,3.75801E+000,-8.31282E-001,5.02032E-002,3.84918E+000,1.57661E-002,7.97721E-001,0,5.88110E+001,-1.37686E+001,9.96759E-001,1.77000E+001,-5.40989E+001,9.96697E-001,2.06478E-001,-9.07467E-002,-8.53559E-004,2.06480E-001,-9.07491E-002,-1.64538E-001,2.06983E-001,1.22912E+000,2.38119E-002,0.00000E+000,-1.90250E-002,9.15382E-001,0.00000E+000,-3.08472E-003,-7.15634E-002,1.00000E+000,40
1259,1287,3.71018E+001,-2.38978E+000,1.19334E-001,1.56892E+001,-3.22567E-002,5.91742E-002,1.56893E+001,2.09401E-002,6.18619E-001,0,2.32818E+002,-2.71940E+000,9.94992E-001,2.07964E+002,-2.87122E+001,9.91705E-001,2.44421E-001,-1.01464E-001,2.26059E-006,2.44421E-001,-1.01464E-001,3.74466E-004,2.45593E-001,1.27691E+000,-1.20202E-002,0.00000E+000,9.26516E-003,9.05641E-001,0.00000E+000,-1.24105E-002,-6.93068E-002,1.00000E+000,40
1259,1297,3.70956E+001,-1.81786E+000,9.47654E-003,1.56816E+001,-1.04206E-001,1.13273E-002,1.56819E+001,1.94789E-002,6.20397E-001,0,2.32944E+002,-3.78249E+000,9.95502E-001,2.07774E+002,-2.95687E+001,9.93131E-001,2.45644E-001,-1.01451E-001,5.45742E-004,2.45645E-001,-1.01452E-001,9.00865E-002,2.46882E-001,1.27844E+000,-1.20168E-002,0.00000E+000,1.00926E-002,9.05643E-001,0.00000E+000,-9.82408E-003,-6.93011E-002,1.00000E+000,40
1259,1307,3.70937E+001,-1.23958E+000,-7.29317E-002,1.56714E+001,-1.72649E-001,-3.48642E-002,1.56724E+001,1.93241E-002,6.25196E-001,0,2.33008E+002,-4.80775E+000,9.96182E-001,2.07680E+002,-3.03821E+001,9.95166E-001,2.46861E-001,-1.01426E-001,1.09608E-003,2.46864E-001,-1.01429E-001,1.80312E-001,2.48168E-001,1.27997E+000,-1.19973E-002,0.00000E+000,1.09214E-002,9.05654E-001,0.00000E+000,-7.23328E-003,-6.92680E-002,1.00000E+000,40
599,1327,-1.78934E+001,-8.06826E-001,1.74137E-001,3.70076E+000,-6.66405E-001,1.73089E-001,3.76427E+000,1.67456E-002,8.09856E-001,0,5.75725E+001,-1.13953E+001,9.97108E-001,1.62168E+001,-5.11830E+001,9.96576E-001,2.14761E-001,-9.07420E-002,-1.46651E-003,2.14768E-001,-9.07491E-002,-2.75030E-001,2.15625E-001,1.23934E+000,2.39801E-002,0.00000E+000,-2.02931E-002,9.15362E-001,0.00000E+000,-7.54408E-004,-7.15250E-002,1.00000E+000,40
599,1337,-1.78682E+001,-2.29578E-001,1.02165E-001,3.72018E+000,-7.21787E-001,1.27270E-001,3.79169E+000,1.62576E-002,8.06620E-001,0,5.80081E+001,-1.21906E+001,9.96448E-001,1.65362E+001,-5.21614E+001,9.96631E-001,2.12018E-001,-9.07467E-002,-1.25268E-003,2.12023E-001,-9.07519E-002,-2.37054E-001,2.12754E-001,1.23594E+000,2.39503E-002,0.00000E+000,-1.98719E-002,9.15365E-001,0.00000E+000,-1.52852E-003,-7.15318E-002,1.00000E+000,40
1259,1317,3.70999E+001,-6.53759E-001,-1.12633E-001,1.56617E+001,-2.36945E-001,-6.66804E-002,1.56637E+001,2.08838E-002,6.41093E-001,0,2.33000E+002,-5.81554E+000,9.96795E-001,2.07755E+002,-3.11644E+001,9.95562E-001,2.48071E-001,-1.01388E-001,1.65408E-003,2.48079E-001,-1.01396E-001,2.71187E-001,2.49453E-001,1.28151E+000,-1.19601E-002,0.00000E+000,1.17521E-002,9.05674E-001,0.00000E+000,-4.63652E-003,-6.92050E-002,1.00000E+000,40
599,1317,-1.79194E+001,-1.38260E+000,2.70439E-001,3.67618E+000,-6.12191E-001,2.16994E-001,3.73312E+000,2.07172E-002,7.95545E-001,0,5.70581E+001,-1.06216E+001,9.96778E-001,1.59556E+001,-5.02419E+001,9.96761E-001,2.17494E-001,-9.07346E-002,-1.68894E-003,2.17503E-001,-9.07439E-002,-3.13939E-001,2.18495E-001,1.24273E+000,2.39873E-002,0.00000E+000,-2.07143E-002,9.15361E-001,0.00000E+000,1.94515E-005,-7.15234E-002,1.00000E+000,40
589,1347,-1.86246E+001,3.70728E-001,7.49912E-002,3.59075E+000,-7.54433E-001,9.20483E-002,3.67030E+000,1.74639E-002,8.14404E-001,0,5.61162E+001,-1.26242E+001,9.96730E-001,1.50646E+001,-5.29912E+001,9.96414E-001,2.08306E-001,-9.02923E-002,-2.60045E-004,2.08306E-001,-9.02926E-002,-4.98980E-002,2.08920E-001,1.23129E+000,2.77626E-002,0.00000E+000,-2.08859E-002,9.15681E-001,0.00000E+000,-2.20559E-003,-7.03653E-002,1.00000E+000,40
589,1357,-1.85873E+001,9.53400E-001,7.40026E-002,3.61234E+000,-8.14436E-001,5.67067E-002,3.70345E+000,1.35821E-002,8.07533E-001,0,5.65498E+001,-1.34937E+001,9.97326E-001,1.57759E+001,-5.40445E+001,9.97652E-001,2.05456E-001,-9.02919E-002,-5.96606E-005,2.05456E-001,-9.02919E-002,-1.15582E-002,2.05957E-001,1.22778E+000,2.76794E-002,0.00000E+000,-2.04715E-002,9.15690E-001,0.00000E+000,-2.82405E-003,-7.03800E-002,1.00000E+000,40
589,1337,-1.86521E+001,-2.22735E-001,1.10275E-001,3.57372E+000,-7.10038E-001,1.29377E-001,3.64587E+000,1.21833E-002,7.88541E-001,0,5.57482E+001,-1.19884E+001,9.98067E-001,1.46013E+001,-5.21950E+001,9.98127E-001,2.11140E-001,-9.02894E-002,-4.70901E-004,2.11140E-001,-9.02902E-002,-8.95088E-002,2.11876E-001,1.23478E+000,2.78175E-002,0.00000E+000,-2.12991E-002,9.15674E-001,0.00000E+000,-1.58888E-003,-7.03556E-002,1.00000E+000,40
589,1327,-1.86687E+001,-7.81560E-001,1.81441E-001,3.56294E+000,-6.37041E-001,1.75728E-001,3.62371E+000,2.10490E-002,8.45033E-001,0,5.54424E+001,-1.09343E+001,9.98190E-001,1.44139E+001,-5.09020E+001,9.97271E-001,2.13949E-001,-9.02838E-002,-6.89682E-004,2.13950E-001,-9.02853E-002,-1.29886E-001,2.14816E-001,1.23825E+000,2.78486E-002,0.00000E+000,-2.17099E-002,9.15670E-001,0.00000E+000,-9.75594E-004,-7.03501E-002,1.00000E+000,40
1269,1327,3.79725E+001,-4.36128E-002,-1.28328E-001,1.58413E+001,-2.88052E-001,-1.09316E-001,1.58443E+001,1.75151E-002,6.05773E-001,0,2.35618E+002,-6.61172E+000,9.97519E-001,2.11453E+002,-3.15449E+001,9.96862E-001,2.49109E-001,-1.00501E-001,2.91509E-003,2.49133E-001,-1.00526E-001,4.77695E-001,2.50675E-001,1.28285E+000,-1.06665E-002,0.00000E+000,1.29706E-002,9.06285E-001,0.00000E+000,-1.45728E-003,-6.62580E-002,1.00000E+000,40
1269,1337,3.80127E+001,5.44917E-001,-1.02753E-001,1.58468E+001,-3.59422E-001,-1.45311E-001,1.58516E+001,1.62152E-002,5.66045E-001,0,2.35819E+002,-7.70620E+000,9.97432E-001,2.12127E+002,-3.24558E+001,9.96359E-001,2.50447E-001,-1.00416E-001,3.62166E-003,2.50484E-001,-1.00453E-001,5.91332E-001,2.52114E-001,1.28457E+000,-1.05758E-002,0.00000E+000,1.40465E-002,9.06341E-001,0.00000E+000,1.16802E-003,-6.61200E-002,1.00000E+000,40
589,1317,-1.87024E+001,-1.35951E+000,2.84927E-001,3.53035E+000,-5.85000E-001,2.25087E-001,3.58556E+000,1.72707E-002,7.67549E-001,0,5.47897E+001,-1.01808E+001,9.95654E-001,1.40569E+001,-5.00400E+001,9.94709E-001,2.16753E-001,-9.02751E-002,-9.18564E-004,2.16755E-001,-9.02779E-002,-1.71415E-001,2.17761E-001,1.24173E+000,2.78543E-002,0.00000E+000,-2.21214E-002,9.15670E-001,0.00000E+000,-3.61433E-004,-7.03491E-002,1.00000E+000,40
1269,1317,3.79645E+001,-6.34773E-001,-1.11607E-001,1.58569E+001,-2.24599E-001,-7.20070E-002,1.58586E+001,1.79975E-002,6.04709E-001,0,2.35705E+002,-5.63657E+000,9.97172E-001,2.11326E+002,-3.07879E+001,9.96245E-001,2.47766E-001,-1.00564E-001,2.22121E-003,2.47780E-001,-1.00578E-001,3.65341E-001,2.49238E-001,1.28113E+000,-1.07283E-002,0.00000E+000,1.18990E-002,9.06246E-001,0.00000E+000,-4.07245E-003,-6.63522E-002,1.00000E+000,40
1269,1307,3.79556E+001,-1.22276E+000,-6.55514E-002,1.58639E+001,-1.62684E-001,-3.38135E-002,1.58648E+001,1.86340E-002,6.18641E-001,0,2.35647E+002,-4.68469E+000,9.95898E-001,2.11214E+002,-3.00399E+001,9.95065E-001,2.46420E-001,-1.00610E-001,1.53722E-003,2.46426E-001,-1.00617E-001,2.53793E-001,2.47804E-001,1.27942E+000,-1.07701E-002,0.00000E+000,1.08319E-002,9.06220E-001,0.00000E+000,-6.67642E-003,-6.64158E-002,1.00000E+000,40
1269,1297,3.79454E+001,-1.80845E+000,-5.31537E-003,1.58646E+001,-1.00401E-001,-4.85417E-004,1.58650E+001,1.90289E-002,6.25828E-001,0,2.35507E+002,-3.72529E+000,9.95404E-001,2.11097E+002,-2.92911E+001,9.94491E-001,2.45065E-001,-1.00645E-001,8.58509E-004,2.45067E-001,-1.00647E-001,1.42282E-001,2.46367E-001,1.27771E+000,-1.07986E-002,0.00000E+000,9.76588E-003,9.06202E-001,0.00000E+000,-9.27779E-003,-6.64591E-002,1.00000E+000,40
1269,1287,3.79583E+001,-2.38305E+000,1.22190E-001,1.58766E+001,-3.23816E-002,5.66904E-002,1.58768E+001,2.36283E-002,5.92968E-001,0,2.35401E+002,-2.72113E+000,9.96096E-001,2.11407E+002,-2.85306E+001,9.94555E-001,2.43706E-001,-1.00656E-001,1.93683E-004,2.43707E-001,-1.00656E-001,3.22255E-002,2.44933E-001,1.27601E+000,-1.07966E-002,0.00000E+000,8.70384E-003,9.06204E-001,0.00000E+000,-1.18695E-002,-6.64560E-002,1.00000E+000,40
579,1347,-1.94052E+001,3.77885E-001,8.34239E-002,3.44753E+000,-7.42524E-001,9.59758E-002,3.52789E+000,1.50884E-002,8.00251E-001,0,5.38987E+001,-1.24167E+001,9.96719E-001,1.31872E+001,-5.30207E+001,9.96946E-001,2.06668E-001,-8.95392E-002,6.49315E-004,2.06670E-001,-8.95406E-002,1.25597E-001,2.07283E-001,1.22918E+000,3.17974E-002,0.00000E+000,-2.22040E-002,9.16301E-001,0.00000E+000,-2.82705E-003,-6.97688E-002,1.00000E+000,40
579,1357,-1.93606E+001,9.73443E-001,8.48697E-002,3.47627E+000,-7.89972E-001,6.12017E-002,3.56543E+000,1.47974E-002,8.25833E-001,0,5.44388E+001,-1.31040E+001,9.98105E-001,1.40215E+001,-5.38665E+001,9.98315E-001,2.03584E-001,-8.95399E-002,9.32345E-004,2.03587E-001,-8.95429E-002,1.82239E-001,2.04078E-001,1.22540E+000,3.17071E-002,0.00000E+000,-2.16371E-002,9.16314E-001,0.00000E+000,-3.58167E-003,-6.97869E-002,1.00000E+000,40
579,1337,-1.94415E+001,-2.12187E-001,1.20897E-001,3.42146E+000,-6.94976E-001,1.35463E-001,3.49395E+000,1.50664E-002,7.86543E-001,0,5.33834E+001,-1.17412E+001,9.96132E-001,1.25945E+001,-5.21701E+001,9.96694E-001,2.09731E-001,-8.95335E-002,3.54849E-004,2.09732E-001,-8.95339E-002,6.79375E-002,2.10477E-001,1.23294E+000,3.18557E-002,0.00000E+000,-2.27690E-002,9.16292E-001,0.00000E+000,-2.07497E-003,-6.97572E-002,1.00000E+000,40
579,1327,-1.94719E+001,-7.74552E-001,1.81495E-001,3.39748E+000,-6.25729E-001,1.74955E-001,3.45905E+000,1.45933E-002,8.42929E-001,0,5.28921E+001,-1.07208E+001,9.97956E-001,1.21665E+001,-5.09087E+001,9.97362E-001,2.12765E-001,-8.95246E-002,5.39226E-005,2.12765E-001,-8.95246E-002,1.02204E-002,2.13654E-001,1.23669E+000,3.18921E-002,0.00000E+000,-2.33306E-002,9.16287E-001,0.00000E+000,-1.32740E-003,-6.97499E-002,1.00000E+000,40
579,1317,-1.94934E+001,-1.34298E+000,2.79511E-001,3.37731E+000,-5.65691E-001,2.20462E-001,3.43145E+000,2.14775E-002,8.25849E-001,0,5.24428E+001,-9.84203E+000,9.95554E-001,1.19830E+001,-4.98550E+001,9.94270E-001,2.15788E-001,-8.95112E-002,-2.58057E-004,2.15788E-001,-8.95114E-002,-4.84297E-002,2.16830E-001,1.24043E+000,3.18994E-002,0.00000E+000,-2.38920E-002,9.16286E-001,0.00000E+000,-5.80044E-004,-6.97485E-002,1.00000E+000,40
1279,1317,3.88143E+001,-6.29113E-001,-1.16676E-001,1.60402E+001,-2.23218E-001,-7.09467E-002,1.60419E+001,1.47860E-002,5.56295E-001,0,2.38214E+002,-5.63963E+000,9.96934E-001,2.14664E+002,-3.06135E+001,9.95577E-001,2.47261E-001,-9.93701E-002,2.70329E-003,2.47282E-001,-9.93912E-002,4.46799E-001,2.48862E-001,1.28049E+000,-9.28191E-003,0.00000E+000,1.17376E-002,9.07173E-001,0.00000E+000,-3.37978E-003,-6.36167E-002,1.00000E+000,40
1279,1327,3.88419E+001,-3.07488E-002,-1.28500E-001,1.60424E+001,-2.81951E-001,-1.08796E-001,1.60452E+001,2.60835E-002,6.10463E-001,0,2.38387E+002,-6.54903E+000,9.95285E-001,2.15100E+002,-3.12388E+001,9.95117E-001,2.48817E-001,-9.92925E-002,3.53223E-003,2.48852E-001,-9.93284E-002,5.81296E-001,2.50534E-001,1.28249E+000,-9.20532E-003,0.00000E+000,1.30449E-002,9.07223E-001,0.00000E+000,-5.64320E-004,-6.35086E-002,1.00000E+000,40
1279,1337,3.88770E+001,5.56294E-001,-1.06502E-001,1.60428E+001,-3.56363E-001,-1.47880E-001,1.60474E+001,2.06410E-002,5.98259E-001,0,2.38527E+002,-7.67556E+000,9.96533E-001,2.15688E+002,-3.21503E+001,9.96269E-001,2.50365E-001,-9.91910E-002,4.37341E-003,2.50420E-001,-9.92457E-002,7.16695E-001,2.52208E-001,1.28449E+000,-9.10012E-003,0.00000E+000,1.43561E-002,9.07292E-001,0.00000E+000,2.25971E-003,-6.33600E-002,1.00000E+000,40
1279,1307,3.87956E+001,-1.21598E+000,-7.69410E-002,1.60387E+001,-1.60164E-001,-3.45603E-002,1.60395E+001,1.61636E-002,6.08172E-001,0,2.38040E+002,-4.67010E+000,9.96860E-001,2.14392E+002,-2.98182E+001,9.95066E-001,2.45706E-001,-9.94270E-002,1.88912E-003,2.45717E-001,-9.94374E-002,3.13602E-001,2.47200E-001,1.27851E+000,-9.33419E-003,0.00000E+000,1.04407E-002,9.07138E-001,0.00000E+000,-6.17289E-003,-6.36905E-002,1.00000E+000,40
1279,1297,3.87885E+001,-1.78807E+000,-7.93629E-003,1.60391E+001,-8.47840E-002,-5.32898E-003,1.60393E+001,3.12648E-002,5.90861E-001,0,2.37899E+002,-3.50638E+000,9.94762E-001,2.14331E+002,-2.88900E+001,9.93292E-001,2.44140E-001,-9.94591E-002,1.08565E-003,2.44144E-001,-9.94625E-002,1.81032E-001,2.45535E-001,1.27654E+000,-9.35693E-003,0.00000E+000,9.14373E-003,9.07123E-001,0.00000E+000,-8.96601E-003,-6.37226E-002,1.00000E+000,40
1279,1287,3.88002E+001,-2.39010E+000,9.45182E-002,1.60539E+001,-4.24219E-002,4.13696E-002,1.60540E+001,2.85665E-002,5.02488E-001,0,2.37899E+002,-2.83573E+000,9.95496E-001,2.14597E+002,-2.85328E+001,9.92737E-001,2.42568E-001,-9.94795E-002,2.89245E-004,2.42568E-001,-9.94797E-002,4.84509E-002,2.43871E-001,1.27456E+000,-9.36653E-003,0.00000E+000,7.85080E-003,9.07117E-001,0.00000E+000,-1.17506E-002,-6.37362E-002,1.00000E+000,40
569,1347,-2.01859E+001,3.97197E-001,9.16249E-002,3.30401E+000,-7.18555E-001,1.01347E-001,3.38276E+000,1.60601E-002,8.28126E-001,0,5.16671E+001,-1.20397E+001,9.96200E-001,1.13155E+001,-5.28425E+001,9.95934E-001,2.05579E-001,-8.86561E-002,1.39463E-003,2.05586E-001,-8.86627E-002,2.71566E-001,2.06232E-001,1.22773E+000,3.59994E-002,0.00000E+000,-2.39701E-002,9.17042E-001,0.00000E+000,-3.16367E-003,-6.93682E-002,1.00000E+000,40
569,1357,-2.01448E+001,9.82048E-001,8.37865E-002,3.33067E+000,-7.74363E-001,6.49514E-002,3.42012E+000,1.46788E-002,8.20116E-001,0,5.21818E+001,-1.28526E+001,9.97372E-001,1.20677E+001,-5.38516E+001,9.97090E-001,2.02302E-001,-8.86617E-002,1.84480E-003,2.02313E-001,-8.86734E-002,3.63254E-001,2.02826E-001,1.22372E+000,3.59124E-002,0.00000E+000,-2.30903E-002,9.17061E-001,0.00000E+000,-4.23925E-003,-6.93915E-002,1.00000E+000,40
569,1327,-2.02530E+001,-7.73323E-001,1.78330E-001,3.25443E+000,-6.19135E-001,1.75165E-001,3.31743E+000,2.24945E-002,8.59101E-001,0,5.06878E+001,-1.06031E+001,9.98200E-001,1.02509E+001,-5.09854E+001,9.97674E-001,2.12073E-001,-8.86289E-002,4.71846E-004,2.12073E-001,-8.86297E-002,8.99054E-002,2.13024E-001,1.23572E+000,3.61047E-002,0.00000E+000,-2.57233E-002,9.17019E-001,0.00000E+000,-1.02032E-003,-6.93399E-002,1.00000E+000,40
569,1337,-2.02221E+001,-1.89849E-001,1.26116E-001,3.27735E+000,-6.68974E-001,1.34104E-001,3.34761E+000,1.46289E-002,8.10314E-001,0,5.11598E+001,-1.13114E+001,9.96747E-001,1.07164E+001,-5.19388E+001,9.96792E-001,2.08838E-001,-8.86436E-002,9.33937E-004,2.08841E-001,-8.86465E-002,1.79876E-001,2.09634E-001,1.23173E+000,3.60567E-002,0.00000E+000,-2.48484E-002,9.17029E-001,0.00000E+000,-2.08996E-003,-6.93528E-002,1.00000E+000,40
1289,1327,3.96881E+001,-2.56916E-002,-1.33475E-001,1.62228E+001,-2.81387E-001,-1.02256E-001,1.62256E+001,2.32711E-002,5.91981E-001,0,2.40828E+002,-6.58026E+000,9.94328E-001,2.18383E+002,-3.10582E+001,9.93593E-001,2.48558E-001,-9.76625E-002,4.18034E-003,2.48609E-001,-9.77129E-002,6.91666E-001,2.50498E-001,1.28217E+000,-7.23019E-003,0.00000E+000,1.28212E-002,9.08543E-001,0.00000E+000,3.40090E-004,-6.05087E-002,1.00000E+000,40
1289,1337,3.97268E+001,5.71942E-001,-1.09850E-001,1.62267E+001,-3.45651E-001,-1.39032E-001,1.62310E+001,2.22240E-002,6.10321E-001,0,2.41005E+002,-7.56919E+000,9.96218E-001,2.19026E+002,-3.17913E+001,9.95708E-001,2.50428E-001,-9.75491E-002,5.13709E-003,2.50504E-001,-9.76249E-002,8.45597E-001,2.52527E-001,1.28459E+000,-7.10300E-003,0.00000E+000,1.43259E-002,9.08622E-001,0.00000E+000,3.45449E-003,-6.03449E-002,1.00000E+000,40
569,1317,-2.02847E+001,-1.33141E+000,2.79668E-001,3.22254E+000,-5.49098E-001,2.14744E-001,3.27603E+000,2.44597E-002,8.28676E-001,0,5.00681E+001,-9.56509E+000,9.96050E-001,9.92552E+000,-4.97862E+001,9.94276E-001,2.15292E-001,-8.86031E-002,-8.94822E-006,2.15292E-001,-8.86031E-002,-1.68708E-003,2.16412E-001,1.23970E+000,3.61032E-002,0.00000E+000,-2.65978E-002,9.17019E-001,0.00000E+000,4.88026E-005,-6.93404E-002,1.00000E+000,40
1289,1317,3.96620E+001,-6.23244E-001,-1.12791E-001,1.62197E+001,-2.25436E-001,-6.44497E-002,1.62214E+001,2.21398E-002,6.33210E-001,0,2.40638E+002,-5.71972E+000,9.97160E-001,2.17979E+002,-3.03935E+001,9.94675E-001,2.46690E-001,-9.77418E-002,3.24616E-003,2.46720E-001,-9.77724E-002,5.39931E-001,2.48483E-001,1.27978E+000,-7.31414E-003,0.00000E+000,1.13290E-002,9.08491E-001,0.00000E+000,-2.74853E-003,-6.06168E-002,1.00000E+000,40
1289,1287,3.96455E+001,-2.36241E+000,8.73119E-002,1.62322E+001,-2.03653E-002,4.02356E-002,1.62323E+001,2.97658E-002,5.92965E-001,0,2.40328E+002,-2.55359E+000,9.95604E-001,2.17864E+002,-2.79469E+001,9.92099E-001,2.41015E-001,-9.78626E-002,5.02698E-004,2.41016E-001,-9.78633E-002,8.49935E-002,2.42430E-001,1.27260E+000,-7.42074E-003,0.00000E+000,6.86672E-003,9.08424E-001,0.00000E+000,-1.19847E-002,-6.07541E-002,1.00000E+000,40
1289,1297,3.96255E+001,-1.77062E+000,1.12939E-002,1.62056E+001,-7.27490E-002,6.96104E-003,1.62058E+001,4.19002E-002,4.93843E-001,0,2.40093E+002,-3.34737E+000,9.92975E-001,2.17495E+002,-2.86132E+001,9.90393E-001,2.42912E-001,-9.78321E-002,1.40920E-003,2.42918E-001,-9.78379E-002,2.36950E-001,2.44444E-001,1.27498E+000,-7.39634E-003,0.00000E+000,8.34693E-003,9.08440E-001,0.00000E+000,-8.92090E-003,-6.07227E-002,1.00000E+000,40
1289,1307,3.96511E+001,-1.20783E+000,-7.48251E-002,1.62249E+001,-1.58981E-001,-3.49121E-002,1.62257E+001,1.90623E-002,6.03200E-001,0,2.40587E+002,-4.66836E+000,9.98251E-001,2.17830E+002,-2.96001E+001,9.96587E-001,2.44809E-001,-9.78009E-002,2.32160E-003,2.44824E-001,-9.78167E-002,3.88226E-001,2.46466E-001,1.27738E+000,-7.37285E-003,0.00000E+000,9.83845E-003,9.08454E-001,0.00000E+000,-5.83372E-003,-6.06925E-002,1.00000E+000,40
559,1327,-2.10230E+001,-7.63810E-001,1.78449E-001,3.12111E+000,-6.05876E-001,1.73047E-001,3.18408E+000,3.80516E-002,9.40260E-001,0,4.86363E+001,-1.03973E+001,9.98570E-001,8.52098E+000,-5.09082E+001,9.97625E-001,2.11335E-001,-8.83445E-002,1.19869E-003,2.11340E-001,-8.83493E-002,2.29173E-001,2.12284E-001,1.23467E+000,4.06100E-002,0.00000E+000,-2.77544E-002,9.17158E-001,0.00000E+000,-6.95962E-004,-6.83217E-002,1.00000E+000,40
559,1337,-2.10038E+001,-1.77573E-001,1.22417E-001,3.13271E+000,-6.51802E-001,1.29664E-001,3.20242E+000,1.15932E-002,8.28328E-001,0,4.89359E+001,-1.10163E+001,9.98869E-001,8.79863E+000,-5.18462E+001,9.98716E-001,2.08171E-001,-8.83572E-002,1.53897E-003,2.08179E-001,-8.83652E-002,2.97351E-001,2.08969E-001,1.23077E+000,4.05654E-002,0.00000E+000,-2.71038E-002,9.17166E-001,0.00000E+000,-1.99606E-003,-6.83366E-002,1.00000E+000,40
559,1347,-2.09741E+001,4.10991E-001,8.67221E-002,3.15300E+000,-6.98106E-001,9.50899E-002,3.23076E+000,1.83723E-002,8.07112E-001,0,4.93470E+001,-1.16935E+001,9.96606E-001,9.29760E+000,-5.27463E+001,9.96148E-001,2.04986E-001,-8.83681E-002,1.87624E-003,2.04998E-001,-8.83801E-002,3.66433E-001,2.05645E-001,1.22686E+000,4.05098E-002,0.00000E+000,-2.64516E-002,9.17175E-001,0.00000E+000,-3.29940E-003,-6.83551E-002,1.00000E+000,40
559,1357,-2.09278E+001,9.96320E-001,8.32781E-002,3.18555E+000,-7.52362E-001,6.68306E-002,3.27388E+000,1.65530E-002,8.05535E-001,0,4.99324E+001,-1.25093E+001,9.96396E-001,1.01422E+001,-5.37557E+001,9.96569E-001,2.01778E-001,-8.83750E-002,2.20530E-003,2.01795E-001,-8.83918E-002,4.35442E-001,2.02311E-001,1.22294E+000,4.04296E-002,0.00000E+000,-2.57971E-002,9.17188E-001,0.00000E+000,-4.60724E-003,-6.83819E-002,1.00000E+000,40
559,1317,-2.10640E+001,-1.30851E+000,2.92920E-001,3.07940E+000,-5.23070E-001,2.23028E-001,3.13146E+000,3.48149E-002,8.66197E-001,0,4.78332E+001,-9.15818E+000,9.98039E-001,8.09692E+000,-4.95524E+001,9.96933E-001,2.14489E-001,-8.83238E-002,8.39405E-004,2.14491E-001,-8.83262E-002,1.58824E-001,2.15601E-001,1.23856E+000,4.06058E-002,0.00000E+000,-2.84053E-002,9.17159E-001,0.00000E+000,6.04949E-004,-6.83231E-002,1.00000E+000,40
1299,1327,4.05380E+001,-1.02179E-002,-1.32217E-001,1.64024E+001,-2.73343E-001,-1.04450E-001,1.64050E+001,2.92736E-002,5.99786E-001,0,2.43278E+002,-6.48037E+000,9.94262E-001,2.21734E+002,-3.07159E+001,9.92995E-001,2.48383E-001,-9.58072E-002,4.81148E-003,2.48451E-001,-9.58745E-002,8.00737E-001,2.50598E-001,1.28197E+000,-4.41417E-003,0.00000E+000,1.19996E-002,9.10071E-001,0.00000E+000,7.96982E-004,-5.71935E-002,1.00000E+000,40
1299,1337,4.05978E+001,5.83692E-001,-1.07846E-001,1.64258E+001,-3.42990E-001,-1.45030E-001,1.64300E+001,2.70651E-002,6.26261E-001,0,2.43759E+002,-7.53924E+000,9.94237E-001,2.22706E+002,-3.15007E+001,9.92253E-001,2.50629E-001,-9.56818E-002,5.86814E-003,2.50728E-001,-9.57812E-002,9.70490E-001,2.53045E-001,1.28487E+000,-4.25510E-003,0.00000E+000,1.36755E-002,9.10163E-001,0.00000E+000,4.03916E-003,-5.70160E-002,1.00000E+000,40
1299,1287,4.05038E+001,-2.35425E+000,1.01139E-001,1.64188E+001,-2.10278E-002,4.43626E-002,1.64189E+001,2.11535E-002,6.53281E-001,0,2.42849E+002,-2.59930E+000,9.96610E-001,2.21359E+002,-2.77240E+001,9.95165E-001,2.39346E-001,-9.60078E-002,7.81690E-004,2.39348E-001,-9.60096E-002,1.33552E-001,2.40903E-001,1.27050E+000,-4.63666E-003,0.00000E+000,5.38286E-003,9.09943E-001,0.00000E+000,-1.20035E-002,-5.74419E-002,1.00000E+000,40
1299,1297,4.04826E+001,-1.79602E+000,-5.30941E-002,1.63923E+001,-1.06726E-001,-6.17492E-002,1.63928E+001,2.67997E-002,4.20027E-001,0,2.42966E+002,-3.67868E+000,9.97867E-001,2.20900E+002,-2.88111E+001,9.88940E-001,2.41619E-001,-9.59824E-002,1.77293E-003,2.41629E-001,-9.59918E-002,3.00880E-001,2.43323E-001,1.27335E+000,-4.61355E-003,0.00000E+000,7.02863E-003,9.09956E-001,0.00000E+000,-8.81966E-003,-5.74161E-002,1.00000E+000,40
1299,1307,4.05076E+001,-1.20679E+000,-1.13485E-001,1.64068E+001,-1.67058E-001,-9.32814E-002,1.64079E+001,5.45004E-002,4.35153E-001,0,2.43322E+002,-4.60947E+000,9.96717E-001,2.21251E+002,-2.94860E+001,9.90080E-001,2.43891E-001,-9.59392E-002,2.77902E-003,2.43913E-001,-9.59620E-002,4.68505E-001,2.45753E-001,1.27622E+000,-4.56696E-003,0.00000E+000,8.68537E-003,9.09983E-001,0.00000E+000,-5.61458E-003,-5.73641E-002,1.00000E+000,40
1299,1317,4.05406E+001,-6.00785E-001,-9.35263E-002,1.64243E+001,-2.11988E-001,-6.23537E-002,1.64258E+001,3.71112E-002,6.55123E-001,0,2.43425E+002,-5.55853E+000,9.94531E-001,2.21798E+002,-2.99729E+001,9.92931E-001,2.46145E-001,-9.58798E-002,3.79256E-003,2.46188E-001,-9.59219E-002,6.35222E-001,2.48179E-001,1.27910E+000,-4.49910E-003,0.00000E+000,1.03425E-002,9.10022E-001,0.00000E+000,-2.40879E-003,-5.72883E-002,1.00000E+000,40
559,1307,-2.11009E+001,-1.87799E+000,4.07259E-001,3.04008E+000,-4.66181E-001,2.61830E-001,3.08674E+000,1.81339E-002,8.52112E-001,0,4.71019E+001,-8.33731E+000,9.96015E-001,7.72928E+000,-4.85439E+001,9.95112E-001,2.17629E-001,-8.83015E-002,4.76741E-004,2.17630E-001,-8.83022E-002,8.92853E-002,2.18915E-001,1.24246E+000,4.05913E-002,0.00000E+000,-2.90562E-002,9.17161E-001,0.00000E+000,1.90571E-003,-6.83279E-002,1.00000E+000,40
549,1347,-2.17457E+001,4.28636E-001,8.76255E-002,3.01809E+000,-6.76092E-001,9.47907E-002,3.09434E+000,1.65231E-002,8.46855E-001,0,4.72599E+001,-1.13333E+001,9.96275E-001,7.55479E+000,-5.25713E+001,9.95855E-001,2.04438E-001,-8.79243E-002,2.45868E-003,2.04458E-001,-8.79450E-002,4.81795E-001,2.05122E-001,1.22604E+000,4.47624E-002,0.00000E+000,-2.85827E-002,9.17445E-001,0.00000E+000,-3.13655E-003,-6.71212E-002,1.00000E+000,40
549,1357,-2.17000E+001,1.02553E+000,8.51917E-002,3.04932E+000,-7.19583E-001,6.22588E-002,3.13369E+000,1.83132E-002,8.36042E-001,0,4.78323E+001,-1.19616E+001,9.96200E-001,8.39726E+000,-5.34123E+001,9.96269E-001,2.01365E-001,-8.79319E-002,2.76915E-003,2.01391E-001,-8.79584E-002,5.48369E-001,2.01928E-001,1.22229E+000,4.46820E-002,0.00000E+000,-2.79583E-002,9.17458E-001,0.00000E+000,-4.63135E-003,-6.71532E-002,1.00000E+000,40
549,1327,-2.18438E+001,-7.35844E-001,1.98680E-001,2.93511E+000,-5.73528E-001,1.81060E-001,2.99610E+000,2.93094E-002,8.96727E-001,0,4.57249E+001,-9.87642E+000,9.97109E-001,6.09004E+000,-5.06603E+001,9.95626E-001,2.10520E-001,-8.78970E-002,1.81149E-003,2.10531E-001,-8.79079E-002,3.47786E-001,2.11483E-001,1.23351E+000,4.48471E-002,0.00000E+000,-2.98262E-002,9.17430E-001,0.00000E+000,-1.59486E-004,-6.70874E-002,1.00000E+000,40
549,1337,-2.17822E+001,-1.54507E-001,1.29126E-001,2.99063E+000,-6.22454E-001,1.33137E-001,3.05762E+000,1.25826E-002,8.22868E-001,0,4.67250E+001,-1.05636E+001,9.98036E-001,6.97098E+000,-5.16219E+001,9.98069E-001,2.07496E-001,-8.79119E-002,2.13695E-003,2.07512E-001,-8.79274E-002,4.14442E-001,2.08315E-001,1.22979E+000,4.48132E-002,0.00000E+000,-2.92067E-002,9.17436E-001,0.00000E+000,-1.64251E-003,-6.71009E-002,1.00000E+000,40
1309,1317,4.13727E+001,-6.02523E-001,-1.28021E-001,1.65899E+001,-2.17526E-001,-8.50369E-002,1.65915E+001,3.05092E-002,6.25371E-001,0,2.45772E+002,-5.61859E+000,9.94191E-001,2.24841E+002,-2.98430E+001,9.92448E-001,2.46045E-001,-9.43525E-002,4.46733E-003,2.46103E-001,-9.44111E-002,7.51771E-001,2.48315E-001,1.27898E+000,-6.18056E-004,0.00000E+000,8.86176E-003,9.11277E-001,0.00000E+000,-2.73370E-003,-5.41659E-002,1.00000E+000,40
1309,1327,4.13998E+001,-4.34966E-003,-1.56878E-001,1.65948E+001,-2.73248E-001,-1.27037E-001,1.65976E+001,3.51302E-002,5.92808E-001,0,2.46011E+002,-6.46548E+000,9.93135E-001,2.25253E+002,-3.04722E+001,9.90629E-001,2.48686E-001,-9.42816E-002,5.43038E-003,2.48772E-001,-9.43676E-002,9.06889E-001,2.51176E-001,1.28237E+000,-5.03662E-004,0.00000E+000,1.04116E-002,9.11329E-001,0.00000E+000,4.82493E-004,-5.40573E-002,1.00000E+000,40
1309,1337,4.14545E+001,5.99092E-001,-1.16323E-001,1.66143E+001,-3.32697E-001,-1.46561E-001,1.66183E+001,3.69078E-002,6.34881E-001,0,2.46336E+002,-7.42575E+000,9.95230E-001,2.26156E+002,-3.11356E+001,9.93982E-001,2.51332E-001,-9.41731E-002,6.42529E-003,2.51452E-001,-9.42925E-002,1.06503E+000,2.54058E-001,1.28579E+000,-3.22423E-004,0.00000E+000,1.19751E-002,9.11412E-001,0.00000E+000,3.72691E-003,-5.38853E-002,1.00000E+000,40
549,1317,-2.18542E+001,-1.29466E+000,3.11812E-001,2.92516E+000,-5.05471E-001,2.37062E-001,2.97796E+000,2.69185E-002,9.58506E-001,0,4.54089E+001,-8.93240E+000,9.97549E-001,6.12525E+000,-4.94437E+001,9.96565E-001,2.13533E-001,-8.78770E-002,1.47401E-003,2.13540E-001,-8.78842E-002,2.80189E-001,2.14650E-001,1.23723E+000,4.48494E-002,0.00000E+000,-3.04458E-002,9.17430E-001,0.00000E+000,1.32380E-003,-6.70865E-002,1.00000E+000,40
549,1307,-2.18813E+001,-1.86207E+000,4.00166E-001,2.89648E+000,-4.45882E-001,2.55514E-001,2.94172E+000,1.77409E-002,8.67696E-001,0,4.48977E+001,-7.98755E+000,9.96890E-001,5.83056E+000,-4.83838E+001,9.96328E-001,2.16540E-001,-8.78552E-002,1.13203E-003,2.16544E-001,-8.78594E-002,2.13076E-001,2.17823E-001,1.24096E+000,4.48406E-002,0.00000E+000,-3.10667E-002,9.17432E-001,0.00000E+000,2.81033E-003,-6.70900E-002,1.00000E+000,40
1309,1287,4.13579E+001,-2.35482E+000,9.24208E-002,1.65998E+001,-2.74153E-002,2.26231E-002,1.65999E+001,1.80437E-002,6.44040E-001,0,2.45403E+002,-2.69680E+000,9.97105E-001,2.24772E+002,-2.76247E+001,9.95185E-001,2.38042E-001,-9.44395E-002,1.66693E-003,2.38050E-001,-9.44478E-002,2.87248E-001,2.39736E-001,1.26886E+000,-7.46070E-004,0.00000E+000,4.23275E-003,9.11219E-001,0.00000E+000,-1.23395E-002,-5.42874E-002,1.00000E+000,40
1309,1297,4.13561E+001,-1.78822E+000,-1.22505E-002,1.65945E+001,-1.06444E-001,-2.71947E-002,1.65948E+001,2.58962E-002,5.98615E-001,0,2.45576E+002,-3.85121E+000,9.96509E-001,2.24662E+002,-2.85903E+001,9.93499E-001,2.40726E-001,-9.44252E-002,2.59085E-003,2.40746E-001,-9.44452E-002,4.42884E-001,2.42600E-001,1.27223E+000,-7.27748E-004,0.00000E+000,5.77422E-003,9.11227E-001,0.00000E+000,-9.14071E-003,-5.42700E-002,1.00000E+000,40
1309,1307,4.13598E+001,-1.18782E+000,-8.75783E-002,1.65934E+001,-1.50065E-001,-5.29250E-002,1.65941E+001,2.86319E-002,5.66478E-001,0,2.45683E+002,-4.56025E+000,9.96206E-001,2.24666E+002,-2.90841E+001,9.94932E-001,2.43382E-001,-9.44057E-002,3.51406E-003,2.43419E-001,-9.44422E-002,5.95971E-001,2.45447E-001,1.27559E+000,-7.02355E-004,0.00000E+000,7.31102E-003,9.11239E-001,0.00000E+000,-5.95167E-003,-5.42459E-002,1.00000E+000,40
539,1347,-2.25233E+001,4.51228E-001,8.83309E-002,2.87661E+000,-6.47767E-001,9.32057E-002,2.95012E+000,1.51003E-002,8.31834E-001,0,4.50687E+001,-1.08661E+001,9.96782E-001,5.72692E+000,-5.23485E+001,9.96886E-001,2.03968E-001,-8.72359E-002,2.64318E-003,2.03992E-001,-8.72599E-002,5.20001E-001,2.04700E-001,1.22532E+000,4.85186E-002,0.00000E+000,-3.10959E-002,9.17910E-001,0.00000E+000,-2.95124E-003,-6.57044E-002,1.00000E+000,40
539,1357,-2.24765E+001,1.05176E+000,8.15377E-002,2.91009E+000,-6.86936E-001,6.22989E-002,2.99072E+000,1.34401E-002,8.40776E-001,0,4.56716E+001,-1.14340E+001,9.97834E-001,6.57590E+000,-5.31163E+001,9.97776E-001,2.01123E-001,-8.72441E-002,2.89623E-003,2.01152E-001,-8.72732E-002,5.75375E-001,2.01738E-001,1.22185E+000,4.84501E-002,0.00000E+000,-3.05868E-002,9.17920E-001,0.00000E+000,-4.48143E-003,-6.57346E-002,1.00000E+000,40
539,1327,-2.26005E+001,-7.06814E-001,1.83715E-001,2.81488E+000,-5.36988E-001,1.66555E-001,2.87048E+000,1.68709E-002,8.25760E-001,0,4.38990E+001,-9.25436E+000,9.93967E-001,4.53594E+000,-5.03262E+001,9.94087E-001,2.09608E-001,-8.72119E-002,2.11686E-003,2.09623E-001,-8.72270E-002,4.08594E-001,2.10604E-001,1.23225E+000,4.85983E-002,0.00000E+000,-3.21110E-002,9.17898E-001,0.00000E+000,1.00544E-004,-6.56692E-002,1.00000E+000,40
539,1337,-2.25612E+001,-1.26396E-001,1.26896E-001,2.84764E+000,-5.88886E-001,1.28249E-001,2.91072E+000,1.55314E-002,8.13780E-001,0,4.45178E+001,-1.00095E+001,9.96246E-001,5.11488E+000,-5.13033E+001,9.96218E-001,2.06799E-001,-8.72247E-002,2.38169E-003,2.06819E-001,-8.72440E-002,4.64073E-001,2.07659E-001,1.22879E+000,4.85647E-002,0.00000E+000,-3.16045E-002,9.17903E-001,0.00000E+000,-1.42211E-003,-6.56841E-002,1.00000E+000,40
1319,1297,4.21877E+001,-1.77623E+000,-2.62431E-002,1.67592E+001,-9.66046E-002,-2.97777E-002,1.67595E+001,2.29658E-002,5.38803E-001,0,2.47807E+002,-3.72375E+000,9.97104E-001,2.27723E+002,-2.83102E+001,9.94785E-001,2.40134E-001,-9.28646E-002,3.66697E-003,2.40174E-001,-9.29050E-002,6.30837E-001,2.42217E-001,1.27148E+000,4.04754E-003,0.00000E+000,4.34765E-003,9.12522E-001,0.00000E+000,-9.36360E-003,-5.12861E-002,1.00000E+000,40
1319,1307,4.22032E+001,-1.19105E+000,-1.02108E-001,1.67665E+001,-1.58234E-001,-6.76863E-002,1.67674E+001,2.81545E-002,5.35820E-001,0,2.48095E+002,-4.68267E+000,9.96507E-001,2.27910E+002,-2.90223E+001,9.95692E-001,2.43180E-001,-9.28420E-002,4.56592E-003,2.43242E-001,-9.29040E-002,7.78353E-001,2.45492E-001,1.27534E+000,4.09595E-003,0.00000E+000,5.84634E-003,9.12541E-001,0.00000E+000,-6.21076E-003,-5.12465E-002,1.00000E+000,40
539,1307,-2.26652E+001,-1.85020E+000,3.85337E-001,2.74861E+000,-4.28017E-001,2.38253E-001,2.79192E+000,1.33945E-002,8.27857E-001,0,4.26517E+001,-7.65563E+000,9.97073E-001,3.86154E+000,-4.82980E+001,9.96870E-001,2.15179E-001,-8.71762E-002,1.55997E-003,2.15188E-001,-8.71843E-002,2.95600E-001,2.16474E-001,1.23913E+000,4.85896E-002,0.00000E+000,-3.31216E-002,9.17899E-001,0.00000E+000,3.13857E-003,-6.56730E-002,1.00000E+000,40
539,1317,-2.26340E+001,-1.28730E+000,2.78423E-001,2.78217E+000,-4.89914E-001,2.06093E-001,2.83249E+000,1.57253E-002,8.55394E-001,0,4.32754E+001,-8.59461E+000,9.95515E-001,4.16067E+000,-4.94207E+001,9.94961E-001,2.12401E-001,-8.71951E-002,1.84111E-003,2.12412E-001,-8.72064E-002,3.52083E-001,2.13542E-001,1.23569E+000,4.86020E-002,0.00000E+000,-3.26166E-002,9.17898E-001,0.00000E+000,1.62054E-003,-6.56676E-002,1.00000E+000,40
1319,1287,4.21981E+001,-2.36433E+000,7.44786E-002,1.67707E+001,-4.17268E-002,7.45535E-003,1.67707E+001,2.36259E-002,6.04117E-001,0,2.47786E+002,-2.89413E+000,9.96228E-001,2.27963E+002,-2.76622E+001,9.95719E-001,2.37077E-001,-9.28667E-002,2.78626E-003,2.37101E-001,-9.28902E-002,4.83796E-001,2.38945E-001,1.26764E+000,4.04069E-003,0.00000E+000,2.85367E-003,9.12519E-001,0.00000E+000,-1.25065E-002,-5.12917E-002,1.00000E+000,40
529,1327,-2.33753E+001,-6.88517E-001,1.88739E-001,2.67525E+000,-5.13371E-001,1.66548E-001,2.72915E+000,1.51764E-002,8.31108E-001,0,4.17315E+001,-8.88196E+000,9.93626E-001,2.76879E+000,-5.01641E+001,9.93700E-001,2.08916E-001,-8.57894E-002,2.57704E-003,2.08939E-001,-8.58120E-002,5.00968E-001,2.10047E-001,1.23129E+000,5.11185E-002,0.00000E+000,-3.32496E-002,9.19077E-001,0.00000E+000,8.92990E-004,-6.41080E-002,1.00000E+000,40
529,1307,-2.34416E+001,-1.82824E+000,3.86680E-001,2.60679E+000,-4.01447E-001,2.31092E-001,2.64763E+000,1.78868E-002,7.97707E-001,0,4.04683E+001,-7.20634E+000,9.97350E-001,2.06199E+000,-4.80858E+001,9.96815E-001,2.13711E-001,-8.57948E-002,2.54651E-003,2.13733E-001,-8.58165E-002,4.87103E-001,2.15111E-001,1.23722E+000,5.11084E-002,0.00000E+000,-3.33171E-002,9.19077E-001,0.00000E+000,4.33694E-003,-6.41139E-002,1.00000E+000,40
529,1317,-2.34105E+001,-1.26486E+000,2.74992E-001,2.64173E+000,-4.61825E-001,2.03355E-001,2.68949E+000,1.51489E-002,7.82494E-001,0,4.11024E+001,-8.10172E+000,9.96918E-001,2.34471E+000,-4.92143E+001,9.96496E-001,2.11320E-001,-8.57919E-002,2.56639E-003,2.11342E-001,-8.58140E-002,4.94860E-001,2.12582E-001,1.23426E+000,5.11255E-002,0.00000E+000,-3.32833E-002,9.19077E-001,0.00000E+000,2.61583E-003,-6.41039E-002,1.00000E+000,40
