Coordinates.Image X [Pixel],Coordinates.Image Y [Pixel],coor.X [mm],coor.Y [mm],coor.Z [mm],disp.Horizontal Displacement U [mm],disp.Vertical Displacement V [mm],disp.Out-Of-Plane: W [mm],disp.Displacement Magnitude [mm],stats.Sigma [mm],stats.Epipolar Distance [Pixel],stats.Shape Index [-],SameCamera.Horizontal: u [Pixel],SameCamera.Vertical: v [Pixel],SameCamera.Correlation Value 2D [-],CrossCamera.Horizontal: q [Pixel],CrossCamera.Vertical: r [Pixel],CrossCamera.Correlation Value Persp [-],strain.Strain-global frame: Exx [ ],strain.Strain-global frame: Eyy [ ],strain.Strain-global frame: Exy [ ],strain.Maximum Principal Strain: EI [ ],strain.Minimum Principal Strain: EII [ ],strain.Shear Angle Gamma [deg],strain.Von Mises Equivalent Strain [ ],defgradient.F[0,0] [-],defgradient.F[0,1] [-],defgradient.F[0,2] [-],defgradient.F[1,0] [-],defgradient.F[1,1] [-],defgradient.F[1,2] [-],defgradient.F[2,0] [-],defgradient.F[2,1] [-],defgradient.F[2,2] [-],ext.Current Image [#]
929,1317,3.93899E-001,-7.36304E-001,-4.59629E-002,7.29969E-001,-1.19945E-001,4.07578E-002,7.40880E-001,5.48809E-003,5.12237E-001,0,1.11005E+001,-2.04774E+000,9.99916E-001,-3.36472E+001,-3.72663E+001,9.99056E-001,2.02993E-002,-8.44810E-003,3.30426E-004,2.03031E-002,-8.45190E-003,6.58449E-001,2.03977E-002,1.02052E+000,-6.54117E-003,0.00000E+000,7.31752E-003,9.92321E-001,0.00000E+000,-8.02360E-003,-3.91170E-002,1.00000E+000,3
919,1307,-2.81824E-001,-1.38383E+000,-1.99761E-002,7.20796E-001,-1.18196E-001,7.15412E-002,7.33918E-001,7.89549E-003,5.20005E-001,0,1.08680E+001,-2.07985E+000,9.99884E-001,-3.41294E+001,-3.74067E+001,9.97088E-001,2.08774E-002,-8.30912E-003,2.24735E-004,2.08791E-002,-8.31086E-003,4.41141E-001,2.10233E-002,1.02111E+000,-5.88202E-003,0.00000E+000,6.44124E-003,9.92487E-001,0.00000E+000,-7.29403E-003,-3.96999E-002,1.00000E+000,3
919,1317,-2.83894E-001,-7.55619E-001,-9.57943E-002,7.15916E-001,-1.24982E-001,4.66342E-002,7.28238E-001,7.72593E-003,4.80421E-001,0,1.08768E+001,-2.13202E+000,9.99882E-001,-3.42221E+001,-3.75638E+001,9.97264E-001,2.02900E-002,-8.31122E-003,1.19666E-004,2.02905E-002,-8.31173E-003,2.39716E-001,2.04007E-002,1.02050E+000,-5.88466E-003,0.00000E+000,6.20725E-003,9.92486E-001,0.00000E+000,-6.49571E-003,-3.96964E-002,1.00000E+000,3
919,1327,-2.70227E-001,-1.15036E-001,-1.09334E-001,7.12457E-001,-1.31468E-001,1.79639E-002,7.24708E-001,7.16300E-003,5.29656E-001,0,1.09179E+001,-2.17691E+000,9.99904E-001,-3.39278E+001,-3.76190E+001,9.97907E-001,1.96925E-002,-8.31794E-003,6.30412E-006,1.96925E-002,-8.31794E-003,1.28952E-002,1.97714E-002,1.01989E+000,-5.90098E-003,0.00000E+000,5.96956E-003,9.92480E-001,0.00000E+000,-5.68477E-003,-3.96749E-002,1.00000E+000,3
929,1307,3.91799E-001,-1.36740E+000,1.03534E-002,7.35052E-001,-1.12763E-001,6.60532E-002,7.46579E-001,5.33787E-003,5.45262E-001,0,1.10934E+001,-1.98946E+000,9.99925E-001,-3.36636E+001,-3.71166E+001,9.99224E-001,2.09088E-002,-8.44584E-003,3.98987E-004,2.09142E-002,-8.45126E-003,7.78571E-001,2.10421E-002,1.02115E+000,-6.53412E-003,0.00000E+000,7.47972E-003,9.92323E-001,0.00000E+000,-8.97186E-003,-3.91276E-002,1.00000E+000,3
929,1327,4.02939E-001,-1.00173E-001,-7.50292E-002,7.25572E-001,-1.26157E-001,1.38709E-002,7.36588E-001,4.33771E-003,4.67208E-001,0,1.11223E+001,-2.08412E+000,9.99930E-001,-3.34609E+001,-3.74035E+001,9.99496E-001,1.96856E-002,-8.45162E-003,2.58487E-004,1.96880E-002,-8.45399E-003,5.26297E-001,1.97533E-002,1.01988E+000,-6.55450E-003,0.00000E+000,7.15453E-003,9.92318E-001,0.00000E+000,-7.07075E-003,-3.90970E-002,1.00000E+000,3
939,1307,1.05978E+000,-1.35473E+000,1.14492E-002,7.48694E-001,-1.06998E-001,5.67561E-002,7.58428E-001,6.21242E-003,5.31466E-001,0,1.13225E+001,-1.87388E+000,9.99924E-001,-3.33486E+001,-3.68426E+001,9.99174E-001,2.09483E-002,-8.31529E-003,5.96199E-004,2.09604E-002,-8.32743E-003,1.16667E+000,2.11073E-002,1.02120E+000,-7.14527E-003,0.00000E+000,8.50870E-003,9.92418E-001,0.00000E+000,-1.02809E-002,-3.84305E-002,1.00000E+000,3
939,1317,1.06297E+000,-7.23629E-001,-3.97531E-002,7.43909E-001,-1.14116E-001,3.31518E-002,7.53341E-001,6.26509E-003,4.70832E-001,0,1.13290E+001,-1.93322E+000,9.99912E-001,-3.33040E+001,-3.70153E+001,9.98807E-001,2.03738E-002,-8.31808E-003,5.20551E-004,2.03832E-002,-8.32752E-003,1.03905E+000,2.04966E-002,1.02060E+000,-7.15270E-003,0.00000E+000,8.32918E-003,9.92416E-001,0.00000E+000,-9.21956E-003,-3.84173E-002,1.00000E+000,3
939,1327,1.07254E+000,-8.41919E-002,-6.33236E-002,7.38382E-001,-1.20292E-001,4.96313E-003,7.48133E-001,4.02140E-003,4.84902E-001,0,1.13383E+001,-1.96398E+000,9.99880E-001,-3.30980E+001,-3.70824E+001,9.99418E-001,1.97922E-002,-8.32247E-003,4.40880E-004,1.97991E-002,-8.32939E-003,8.98190E-001,1.98819E-002,1.02000E+000,-7.16694E-003,0.00000E+000,8.14790E-003,9.92412E-001,0.00000E+000,-8.14775E-003,-3.83920E-002,1.00000E+000,3
919,1337,-2.50746E-001,5.28636E-001,-9.76746E-002,7.09894E-001,-1.36388E-001,-8.57934E-003,7.22928E-001,4.95901E-003,4.92216E-001,0,1.09646E+001,-2.19057E+000,9.99850E-001,-3.34848E+001,-3.77269E+001,9.99073E-001,1.90931E-002,-8.32623E-003,-1.09514E-004,1.90936E-002,-8.32666E-003,-2.28836E-001,1.91455E-002,1.01927E+000,-5.92200E-003,0.00000E+000,5.73158E-003,9.92472E-001,0.00000E+000,-4.87281E-003,-3.96471E-002,1.00000E+000,3
929,1337,4.18499E-001,5.42477E-001,-7.86161E-002,7.21520E-001,-1.31457E-001,-1.58231E-002,7.33569E-001,4.34171E-003,4.68373E-001,0,1.11577E+001,-2.10278E+000,9.99928E-001,-3.31153E+001,-3.74742E+001,9.99610E-001,1.90662E-002,-8.45638E-003,1.83028E-004,1.90674E-002,-8.45760E-003,3.81001E-001,1.91078E-002,1.01925E+000,-6.57402E-003,0.00000E+000,6.99037E-003,9.92313E-001,0.00000E+000,-6.11099E-003,-3.90676E-002,1.00000E+000,3
939,1337,1.08765E+000,5.58221E-001,-6.67288E-002,7.34734E-001,-1.24810E-001,-1.99681E-002,7.45527E-001,3.95431E-003,4.75273E-001,0,1.13644E+001,-1.98506E+000,9.99867E-001,-3.27605E+001,-3.71612E+001,9.99646E-001,1.92084E-002,-8.32768E-003,3.59384E-004,1.92131E-002,-8.33237E-003,7.47619E-001,1.92694E-002,1.01939E+000,-7.18468E-003,0.00000E+000,7.96640E-003,9.92407E-001,0.00000E+000,-7.07469E-003,-3.83605E-002,1.00000E+000,3
949,1317,1.73234E+000,-7.07953E-001,-3.06854E-002,7.56319E-001,-1.08004E-001,2.25836E-002,7.64326E-001,6.58083E-003,4.86258E-001,0,1.15438E+001,-1.80726E+000,9.99862E-001,-3.29465E+001,-3.66958E+001,9.99039E-001,2.04290E-002,-8.24383E-003,6.71301E-004,2.04447E-002,-8.25954E-003,1.34046E+000,2.05699E-002,1.02066E+000,-7.70984E-003,0.00000E+000,9.19401E-003,9.92450E-001,0.00000E+000,-1.00871E-002,-3.75308E-002,1.00000E+000,3
949,1327,1.74107E+000,-6.94902E-002,-5.59995E-002,7.51041E-001,-1.13248E-001,-2.03787E-003,7.59534E-001,6.03708E-003,4.72100E-001,0,1.15453E+001,-1.83882E+000,9.99817E-001,-3.27582E+001,-3.67869E+001,9.99421E-001,1.99051E-002,-8.24769E-003,5.99564E-004,1.99179E-002,-8.26045E-003,1.21948E+000,2.00142E-002,1.02011E+000,-7.72185E-003,0.00000E+000,9.02294E-003,9.92446E-001,0.00000E+000,-8.90460E-003,-3.75048E-002,1.00000E+000,3
949,1337,1.75594E+000,5.72680E-001,-6.11784E-002,7.47651E-001,-1.18061E-001,-2.57787E-002,7.57354E-001,5.72683E-003,4.77269E-001,0,1.15721E+001,-1.87091E+000,9.99800E-001,-3.24300E+001,-3.68568E+001,9.99237E-001,1.93774E-002,-8.25241E-003,5.25720E-004,1.93874E-002,-8.26241E-003,1.08966E+000,1.94577E-002,1.01957E+000,-7.73758E-003,0.00000E+000,8.85117E-003,9.92441E-001,0.00000E+000,-7.71726E-003,-3.74708E-002,1.00000E+000,3
949,1307,1.73069E+000,-1.34078E+000,2.20801E-002,7.62359E-001,-1.01819E-001,4.59726E-002,7.70501E-001,5.56494E-003,5.33571E-001,0,1.15569E+001,-1.76787E+000,9.99893E-001,-3.29635E+001,-3.65610E+001,9.99219E-001,2.09482E-002,-8.24128E-003,7.39970E-004,2.09669E-002,-8.26002E-003,1.45124E+000,2.11235E-002,1.02120E+000,-7.70337E-003,0.00000E+000,9.36409E-003,9.92452E-001,0.00000E+000,-1.12628E-002,-3.75449E-002,1.00000E+000,3
909,1317,-9.47835E-001,-7.68092E-001,-9.86147E-002,7.03686E-001,-1.29650E-001,4.61216E-002,7.17015E-001,7.22009E-003,4.30125E-001,0,1.07003E+001,-2.20597E+000,9.99866E-001,-3.44718E+001,-3.78644E+001,9.97242E-001,2.03489E-002,-8.32306E-003,-1.07921E-004,2.03493E-002,-8.32347E-003,-2.15656E-001,2.04613E-002,1.02056E+000,-5.17795E-003,0.00000E+000,5.00495E-003,9.92486E-001,0.00000E+000,-4.84924E-003,-3.98249E-002,1.00000E+000,3
909,1327,-9.33608E-001,-1.25772E-001,-1.12018E-001,7.01282E-001,-1.34942E-001,1.93565E-002,7.14410E-001,5.86011E-003,4.86435E-001,0,1.07504E+001,-2.22418E+000,9.99855E-001,-3.41670E+001,-3.78909E+001,9.98222E-001,1.97865E-002,-8.32882E-003,-2.10710E-004,1.97881E-002,-8.33040E-003,-4.29370E-001,1.98703E-002,1.01998E+000,-5.19273E-003,0.00000E+000,4.79435E-003,9.92481E-001,0.00000E+000,-4.24635E-003,-3.98095E-002,1.00000E+000,3
909,1337,-9.14075E-001,5.21074E-001,-1.01136E-001,6.98659E-001,-1.39598E-001,-8.94109E-003,7.12525E-001,5.69366E-003,5.40375E-001,0,1.08013E+001,-2.22910E+000,9.99875E-001,-3.37234E+001,-3.79042E+001,9.99075E-001,1.92206E-002,-8.33616E-003,-3.16375E-004,1.92242E-002,-8.33980E-003,-6.57688E-001,1.92803E-002,1.01940E+000,-5.21240E-003,0.00000E+000,4.58271E-003,9.92473E-001,0.00000E+000,-3.64051E-003,-3.97889E-002,1.00000E+000,3
909,1307,-9.45720E-001,-1.39549E+000,-1.38868E-002,7.07582E-001,-1.22243E-001,7.52437E-002,7.21995E-001,7.33701E-003,4.22942E-001,0,1.06630E+001,-2.14057E+000,9.99846E-001,-3.43573E+001,-3.77354E+001,9.96920E-001,2.09013E-002,-8.32160E-003,-1.31489E-005,2.09013E-002,-8.32161E-003,-2.57803E-002,2.10454E-002,1.02112E+000,-5.17631E-003,0.00000E+000,5.21201E-003,9.92487E-001,0.00000E+000,-5.44198E-003,-3.98266E-002,1.00000E+000,3
919,1347,-2.28269E-001,1.17744E+000,-7.71992E-002,7.07077E-001,-1.40131E-001,-4.12156E-002,7.22006E-001,7.50517E-003,5.00636E-001,0,1.10267E+001,-2.17220E+000,9.99913E-001,-3.29750E+001,-3.77558E+001,9.99520E-001,1.84895E-002,-8.33556E-003,-2.27460E-004,1.84914E-002,-8.33748E-003,-4.85786E-001,1.85212E-002,1.01865E+000,-5.94614E-003,0.00000E+000,5.49230E-003,9.92463E-001,0.00000E+000,-4.05645E-003,-3.96153E-002,1.00000E+000,3
929,1347,4.39850E-001,1.19054E+000,-5.67645E-002,7.18091E-001,-1.34945E-001,-4.39006E-002,7.31978E-001,4.34205E-003,4.51879E-001,0,1.11960E+001,-2.09033E+000,9.99918E-001,-3.26217E+001,-3.75289E+001,9.99583E-001,1.84428E-002,-8.46218E-003,1.04712E-004,1.84432E-002,-8.46259E-003,2.22986E-001,1.84640E-002,1.01860E+000,-6.59874E-003,0.00000E+000,6.82549E-003,9.92306E-001,0.00000E+000,-5.14708E-003,-3.90304E-002,1.00000E+000,3
939,1347,1.10722E+000,1.20615E+000,-4.71883E-002,7.29832E-001,-1.28534E-001,-4.80471E-002,7.42620E-001,7.44026E-003,4.51551E-001,0,1.13809E+001,-1.96956E+000,9.99883E-001,-3.23015E+001,-3.72154E+001,9.99014E-001,1.86197E-002,-8.33418E-003,2.74742E-004,1.86225E-002,-8.33698E-003,5.83937E-001,1.86565E-002,1.01879E+000,-7.20790E-003,0.00000E+000,7.78383E-003,9.92400E-001,0.00000E+000,-5.99526E-003,-3.83192E-002,1.00000E+000,3
949,1347,1.77851E+000,1.22217E+000,-3.02988E-002,7.43698E-001,-1.22601E-001,-5.08409E-002,7.55449E-001,5.89991E-003,4.97960E-001,0,1.15936E+001,-1.88328E+000,9.99811E-001,-3.19016E+001,-3.68882E+001,9.98787E-001,1.88433E-002,-8.25883E-003,4.47728E-004,1.88507E-002,-8.26622E-003,9.46183E-001,1.88982E-002,1.01901E+000,-7.76053E-003,0.00000E+000,8.67787E-003,9.92434E-001,0.00000E+000,-6.51930E-003,-3.74210E-002,1.00000E+000,3
959,1317,2.40030E+000,-6.94580E-001,-3.01278E-002,7.68780E-001,-1.01700E-001,1.21430E-002,7.75573E-001,5.51702E-003,5.03263E-001,0,1.17591E+001,-1.69925E+000,9.99859E-001,-3.26265E+001,-3.63931E+001,9.99465E-001,2.04974E-002,-8.19524E-003,7.28274E-004,2.05158E-002,-8.21371E-003,1.45303E+000,2.06512E-002,1.02073E+000,-8.29202E-003,0.00000E+000,9.88195E-003,9.92461E-001,0.00000E+000,-1.05690E-002,-3.67113E-002,1.00000E+000,3
959,1327,2.40735E+000,-5.55807E-002,-6.01778E-002,7.63493E-001,-1.05650E-001,-9.14018E-003,7.70822E-001,9.21989E-003,4.97190E-001,0,1.17495E+001,-1.71949E+000,9.99929E-001,-3.24756E+001,-3.64602E+001,9.99409E-001,2.00099E-002,-8.19811E-003,6.70453E-004,2.00259E-002,-8.21404E-003,1.36079E+000,2.01333E-002,1.02022E+000,-8.30189E-003,0.00000E+000,9.73556E-003,9.92459E-001,0.00000E+000,-9.33698E-003,-3.66874E-002,1.00000E+000,3
959,1337,2.42450E+000,5.87953E-001,-5.71111E-002,7.60009E-001,-1.11630E-001,-3.45571E-002,7.68941E-001,6.90596E-003,5.02530E-001,0,1.17812E+001,-1.75283E+000,9.99881E-001,-3.20952E+001,-3.65251E+001,9.99269E-001,1.95168E-002,-8.20235E-003,6.08882E-004,1.95301E-002,-8.21572E-003,1.25776E+000,1.96119E-002,1.01971E+000,-8.31856E-003,0.00000E+000,9.58797E-003,9.92454E-001,0.00000E+000,-8.09489E-003,-3.66471E-002,1.00000E+000,3
959,1307,2.39793E+000,-1.32877E+000,1.99059E-002,7.74978E-001,-9.52516E-002,3.63365E-002,7.81655E-001,4.41535E-003,5.17070E-001,0,1.17714E+001,-1.65461E+000,9.99865E-001,-3.26603E+001,-3.62919E+001,9.99498E-001,2.09817E-002,-8.19299E-003,7.84433E-004,2.10028E-002,-8.21406E-003,1.53905E+000,2.11682E-002,1.02124E+000,-8.28525E-003,0.00000E+000,1.00279E-002,9.92463E-001,0.00000E+000,-1.17977E-002,-3.67276E-002,1.00000E+000,3
959,1347,2.44578E+000,1.23424E+000,-3.52100E-002,7.56668E-001,-1.17133E-001,-5.92297E-002,7.67968E-001,4.62452E-003,4.95617E-001,0,1.18118E+001,-1.78429E+000,9.99855E-001,-3.16091E+001,-3.65984E+001,9.99498E-001,1.90206E-002,-8.20724E-003,5.45522E-004,1.90315E-002,-8.21817E-003,1.14733E+000,1.90904E-002,1.01919E+000,-8.33851E-003,0.00000E+000,9.44001E-003,9.92448E-001,0.00000E+000,-6.84964E-003,-3.65989E-002,1.00000E+000,3
909,1347,-8.89298E-001,1.17037E+000,-6.33555E-002,6.96240E-001,-1.42348E-001,-3.42678E-002,7.11469E-001,6.94501E-003,5.14676E-001,0,1.08444E+001,-2.22159E+000,9.99904E-001,-3.31358E+001,-3.79821E+001,9.99120E-001,1.86541E-002,-8.34495E-003,-4.24230E-004,1.86608E-002,-8.35162E-003,-8.99978E-001,1.86950E-002,1.01882E+000,-5.23654E-003,0.00000E+000,4.37111E-003,9.92465E-001,0.00000E+000,-3.03477E-003,-3.97637E-002,1.00000E+000,3
899,1327,-1.58925E+000,-1.27146E-001,-7.62382E-002,6.89309E-001,-1.36262E-001,2.14623E-002,7.02976E-001,3.35747E-003,5.03137E-001,0,1.05666E+001,-2.24257E+000,9.99768E-001,-3.41925E+001,-3.80712E+001,9.99604E-001,1.99075E-002,-8.34408E-003,-4.24721E-004,1.99139E-002,-8.35047E-003,-8.61097E-001,2.00001E-002,1.02010E+000,-4.50433E-003,0.00000E+000,3.64841E-003,9.92480E-001,0.00000E+000,-2.91014E-003,-4.00689E-002,1.00000E+000,3
899,1337,-1.57355E+000,5.14940E-001,-8.66261E-002,6.86739E-001,-1.41281E-001,-1.09110E-002,7.01206E-001,5.56584E-003,5.09741E-001,0,1.06315E+001,-2.24674E+000,9.99889E-001,-3.38563E+001,-3.81378E+001,9.99741E-001,1.93699E-002,-8.34818E-003,-4.97393E-004,1.93788E-002,-8.35710E-003,-1.02772E+000,1.94398E-002,1.01955E+000,-4.51972E-003,0.00000E+000,3.50830E-003,9.92476E-001,0.00000E+000,-2.57659E-003,-4.00596E-002,1.00000E+000,3
899,1347,-1.54819E+000,1.16442E+000,-5.03792E-002,6.85077E-001,-1.44028E-001,-3.79167E-002,7.01079E-001,4.31834E-003,4.94951E-001,0,1.06911E+001,-2.23541E+000,9.99934E-001,-3.32610E+001,-3.82059E+001,9.99641E-001,1.88284E-002,-8.35398E-003,-5.74059E-004,1.88405E-002,-8.36610E-003,-1.20930E+000,1.88798E-002,1.01900E+000,-4.54242E-003,0.00000E+000,3.36730E-003,9.92471E-001,0.00000E+000,-2.24093E-003,-4.00458E-002,1.00000E+000,3
899,1317,-1.59920E+000,-7.64569E-001,-4.29701E-002,6.92028E-001,-1.30390E-001,5.02830E-002,7.05998E-001,4.00175E-003,4.91015E-001,0,1.05145E+001,-2.21735E+000,9.99851E-001,-3.43855E+001,-3.79867E+001,9.99355E-001,2.04422E-002,-8.34107E-003,-3.54665E-004,2.04466E-002,-8.34544E-003,-7.05850E-001,2.05612E-002,1.02065E+000,-4.49361E-003,0.00000E+000,3.78784E-003,9.92483E-001,0.00000E+000,-3.24207E-003,-4.00754E-002,1.00000E+000,3
899,1307,-1.60309E+000,-1.39599E+000,1.62119E-002,6.95132E-001,-1.22876E-001,7.84300E-002,7.10252E-001,4.67271E-003,4.66734E-001,0,1.04694E+001,-2.15192E+000,9.99845E-001,-3.44236E+001,-3.78720E+001,9.98819E-001,2.09734E-002,-8.33915E-003,-2.87292E-004,2.09763E-002,-8.34197E-003,-5.61483E-001,2.11221E-002,1.02119E+000,-4.48761E-003,0.00000E+000,3.92647E-003,9.92485E-001,0.00000E+000,-3.57209E-003,-4.00791E-002,1.00000E+000,3
889,1327,-2.24991E+000,-1.32127E-001,-6.31439E-002,6.76681E-001,-1.37546E-001,2.29902E-002,6.90901E-001,2.81390E-003,5.31732E-001,0,1.03748E+001,-2.27224E+000,9.99812E-001,-3.43441E+001,-3.82528E+001,9.99775E-001,2.00717E-002,-8.16212E-003,-6.47426E-004,2.00865E-002,-8.17696E-003,-1.31292E+000,2.02018E-002,1.02027E+000,-3.84976E-003,0.00000E+000,2.51851E-003,9.92693E-001,0.00000E+000,-1.57143E-003,-4.07865E-002,1.00000E+000,3
889,1337,-2.23578E+000,5.09296E-001,-7.30077E-002,6.73806E-001,-1.41602E-001,-3.62110E-003,6.88534E-001,4.57383E-003,5.15018E-001,0,1.04156E+001,-2.27278E+000,9.99896E-001,-3.40297E+001,-3.83445E+001,9.99771E-001,1.95289E-002,-8.16236E-003,-6.59329E-004,1.95446E-002,-8.17805E-003,-1.36318E+000,1.96311E-002,1.01972E+000,-3.86418E-003,0.00000E+000,2.51823E-003,9.92693E-001,0.00000E+000,-1.75154E-003,-4.07912E-002,1.00000E+000,3
889,1347,-2.21085E+000,1.15713E+000,-4.11629E-002,6.72495E-001,-1.45263E-001,-3.23762E-002,6.88767E-001,3.57168E-003,4.93475E-001,0,1.04861E+001,-2.27028E+000,9.99924E-001,-3.34493E+001,-3.84336E+001,9.99682E-001,1.89816E-002,-8.16270E-003,-6.75051E-004,1.89984E-002,-8.17948E-003,-1.42371E+000,1.90594E-002,1.01916E+000,-3.88628E-003,0.00000E+000,2.51795E-003,9.92693E-001,0.00000E+000,-1.93307E-003,-4.07984E-002,1.00000E+000,3
969,1297,3.07312E+000,-1.94474E+000,9.74824E-002,7.95505E-001,-8.14321E-002,4.37585E-002,8.00858E-001,8.05072E-003,4.61587E-001,0,1.20469E+001,-1.43682E+000,9.99869E-001,-3.21608E+001,-3.59165E+001,9.99034E-001,2.14433E-002,-8.20353E-003,8.21514E-004,2.14661E-002,-8.22628E-003,1.58604E+000,2.16603E-002,1.02172E+000,-8.79920E-003,0.00000E+000,1.06353E-002,9.92415E-001,0.00000E+000,-1.31811E-002,-3.58207E-002,1.00000E+000,3
969,1307,3.06821E+000,-1.31462E+000,2.22577E-002,7.88590E-001,-8.87496E-002,2.42789E-002,7.93939E-001,1.22181E-002,5.05577E-001,0,1.20092E+001,-1.52112E+000,9.99839E-001,-3.22962E+001,-3.59967E+001,9.98466E-001,2.10056E-002,-8.20445E-003,7.80749E-004,2.10265E-002,-8.22531E-003,1.52999E+000,2.11918E-002,1.02126E+000,-8.80045E-003,0.00000E+000,1.05150E-002,9.92414E-001,0.00000E+000,-1.19362E-002,-3.58173E-002,1.00000E+000,3
969,1317,3.07236E+000,-6.79899E-001,-1.87877E-002,7.83109E-001,-9.48902E-002,4.61580E-003,7.88850E-001,5.27686E-003,4.82573E-001,0,1.19928E+001,-1.57652E+000,9.99919E-001,-3.22157E+001,-3.61118E+001,9.99416E-001,2.05647E-002,-8.20632E-003,7.37105E-004,2.05836E-002,-8.22519E-003,1.46662E+000,2.07214E-002,1.02080E+000,-8.80744E-003,0.00000E+000,1.03942E-002,9.92413E-001,0.00000E+000,-1.06870E-002,-3.57985E-002,1.00000E+000,3
889,1317,-2.25968E+000,-7.68892E-001,-2.90441E-002,6.79001E-001,-1.31642E-001,5.04920E-002,6.93485E-001,3.67461E-003,5.28303E-001,0,1.03214E+001,-2.24629E+000,9.99874E-001,-3.45333E+001,-3.81536E+001,9.99677E-001,2.06122E-002,-8.16195E-003,-6.37548E-004,2.06263E-002,-8.17607E-003,-1.26867E+000,2.07734E-002,1.02082E+000,-3.83943E-003,0.00000E+000,2.51879E-003,9.92693E-001,0.00000E+000,-1.39195E-003,-4.07831E-002,1.00000E+000,3
969,1327,3.07943E+000,-4.02197E-002,-4.80578E-002,7.77142E-001,-9.86702E-002,-1.85575E-002,7.83601E-001,5.58494E-003,5.01461E-001,0,1.19796E+001,-1.60439E+000,9.99947E-001,-3.20638E+001,-3.61563E+001,9.99415E-001,2.01206E-002,-8.20861E-003,6.92068E-004,2.01375E-002,-8.22551E-003,1.39859E+000,2.02497E-002,1.02033E+000,-8.81698E-003,0.00000E+000,1.02731E-002,9.92410E-001,0.00000E+000,-9.43379E-003,-3.57729E-002,1.00000E+000,3
889,1307,-2.26455E+000,-1.40104E+000,2.93263E-002,6.80429E-001,-1.25654E-001,7.48278E-002,6.95968E-001,4.79940E-003,5.03229E-001,0,1.02639E+001,-2.19302E+000,9.99834E-001,-3.45886E+001,-3.80469E+001,9.99334E-001,2.11491E-002,-8.16185E-003,-6.30066E-004,2.11626E-002,-8.17538E-003,-1.23087E+000,2.13442E-002,1.02137E+000,-3.83392E-003,0.00000E+000,2.51907E-003,9.92693E-001,0.00000E+000,-1.21357E-003,-4.07813E-002,1.00000E+000,3
969,1337,3.09413E+000,5.99626E-001,-5.28163E-002,7.73261E-001,-1.05386E-001,-4.21084E-002,7.81544E-001,4.97756E-003,4.53272E-001,0,1.19999E+001,-1.65414E+000,9.99906E-001,-3.17402E+001,-3.62866E+001,9.99595E-001,1.96733E-002,-8.21159E-003,6.44849E-004,1.96882E-002,-8.22649E-003,1.32404E+000,1.97766E-002,1.01986E+000,-8.83068E-003,0.00000E+000,1.01515E-002,9.92407E-001,0.00000E+000,-8.17628E-003,-3.57360E-002,1.00000E+000,3
969,1347,3.11313E+000,1.24834E+000,-3.88833E-002,7.68894E-001,-1.09364E-001,-6.81005E-002,7.79612E-001,4.49831E-003,4.62546E-001,0,1.20196E+001,-1.64150E+000,9.99883E-001,-3.13083E+001,-3.62955E+001,9.99515E-001,1.92204E-002,-8.21517E-003,5.95493E-004,1.92333E-002,-8.22809E-003,1.24283E+000,1.93000E-002,1.01939E+000,-8.84797E-003,0.00000E+000,1.00290E-002,9.92402E-001,0.00000E+000,-6.90831E-003,-3.56895E-002,1.00000E+000,3
879,1327,-2.90991E+000,-1.36831E-001,-5.03006E-002,6.64171E-001,-1.38363E-001,2.35837E-002,6.78840E-001,3.05942E-003,5.30514E-001,0,1.01875E+001,-2.28243E+000,9.99913E-001,-3.44817E+001,-3.84444E+001,9.99839E-001,2.02971E-002,-8.28150E-003,-7.98469E-004,2.03194E-002,-8.30379E-003,-1.59914E+000,2.04321E-002,1.02050E+000,-3.30082E-003,0.00000E+000,1.64371E-003,9.92574E-001,0.00000E+000,-5.58123E-004,-4.07328E-002,1.00000E+000,3
879,1337,-2.89641E+000,5.02912E-001,-6.60113E-002,6.61338E-001,-1.43210E-001,-6.42789E-003,6.76697E-001,2.79970E-003,5.05957E-001,0,1.02396E+001,-2.28861E+000,9.99916E-001,-3.41897E+001,-3.85552E+001,9.99794E-001,1.97608E-002,-8.28101E-003,-7.96884E-004,1.97834E-002,-8.30364E-003,-1.62647E+000,1.98682E-002,1.01995E+000,-3.31451E-003,0.00000E+000,1.67741E-003,9.92575E-001,0.00000E+000,-9.42644E-004,-4.07425E-002,1.00000E+000,3
879,1347,-2.87286E+000,1.15166E+000,-3.78999E-002,6.60139E-001,-1.46214E-001,-3.25958E-002,6.76923E-001,3.94721E-003,5.22921E-001,0,1.03029E+001,-2.27923E+000,9.99907E-001,-3.36376E+001,-3.86047E+001,9.99671E-001,1.92188E-002,-8.28029E-003,-7.98609E-004,1.92420E-002,-8.30346E-003,-1.66208E+000,1.93020E-002,1.01940E+000,-3.33508E-003,0.00000E+000,1.71144E-003,9.92577E-001,0.00000E+000,-1.33090E-003,-4.07569E-002,1.00000E+000,3
879,1307,-2.92473E+000,-1.40350E+000,4.75257E-002,6.66046E-001,-1.25987E-001,7.35546E-002,6.81836E-001,4.72518E-003,5.12185E-001,0,1.00546E+001,-2.19136E+000,9.99831E-001,-3.47170E+001,-3.82064E+001,9.99449E-001,2.13616E-002,-8.28205E-003,-8.07962E-004,2.13836E-002,-8.30406E-003,-1.56010E+000,2.15606E-002,1.02159E+000,-3.28652E-003,0.00000E+000,1.57675E-003,9.92574E-001,0.00000E+000,2.05899E-004,-4.07228E-002,1.00000E+000,3
879,1317,-2.91960E+000,-7.73967E-001,-1.56054E-002,6.66289E-001,-1.32474E-001,5.07413E-002,6.81223E-001,3.54165E-003,4.86003E-001,0,1.01327E+001,-2.24597E+000,9.99908E-001,-3.46688E+001,-3.83709E+001,9.99662E-001,2.08322E-002,-8.28187E-003,-8.01866E-004,2.08543E-002,-8.30394E-003,-1.57646E+000,2.09979E-002,1.02105E+000,-3.29084E-003,0.00000E+000,1.61007E-003,9.92574E-001,0.00000E+000,-1.74241E-004,-4.07258E-002,1.00000E+000,3
979,1307,3.74464E+000,-1.29802E+000,4.27837E-002,8.04676E-001,-8.18471E-002,1.62430E-002,8.08991E-001,9.28647E-003,4.98824E-001,0,1.22707E+001,-1.39239E+000,9.99943E-001,-3.17940E+001,-3.56994E+001,9.99484E-001,2.10215E-002,-8.18522E-003,7.67087E-004,2.10416E-002,-8.20535E-003,1.50344E+000,2.12108E-002,1.02127E+000,-9.20303E-003,0.00000E+000,1.08481E-002,9.92384E-001,0.00000E+000,-1.14865E-002,-3.45002E-002,1.00000E+000,3
979,1317,3.74659E+000,-6.63411E-001,-6.41737E-003,7.98523E-001,-8.77045E-002,-4.38217E-003,8.03337E-001,3.75144E-003,4.92438E-001,0,1.22479E+001,-1.44399E+000,9.99929E-001,-3.17659E+001,-3.57894E+001,9.99594E-001,2.06559E-002,-8.18644E-003,7.35579E-004,2.06747E-002,-8.20519E-003,1.45997E+000,2.08207E-002,1.02088E+000,-9.20788E-003,0.00000E+000,1.07541E-002,9.92383E-001,0.00000E+000,-1.03405E-002,-3.44858E-002,1.00000E+000,3
979,1327,3.75277E+000,-2.60943E-002,-3.72915E-002,7.92461E-001,-9.30704E-002,-2.51688E-002,7.98304E-001,3.73278E-003,4.76306E-001,0,1.22262E+001,-1.49109E+000,9.99895E-001,-3.16323E+001,-3.58832E+001,9.99412E-001,2.02881E-002,-8.18804E-003,7.02742E-004,2.03054E-002,-8.20537E-003,1.41282E+000,2.04295E-002,1.02049E+000,-9.21531E-003,0.00000E+000,1.06599E-002,9.92381E-001,0.00000E+000,-9.19178E-003,-3.44637E-002,1.00000E+000,3
979,1337,3.76363E+000,6.14474E-001,-5.29331E-002,7.86916E-001,-9.82288E-002,-4.92532E-002,7.94551E-001,5.06296E-003,4.71864E-001,0,1.22232E+001,-1.53065E+000,9.99811E-001,-3.13931E+001,-3.59558E+001,9.99286E-001,1.99174E-002,-8.19000E-003,6.68514E-004,1.99333E-002,-8.20589E-003,1.36171E+000,2.00367E-002,1.02011E+000,-9.22534E-003,0.00000E+000,1.05653E-002,9.92378E-001,0.00000E+000,-8.03881E-003,-3.44339E-002,1.00000E+000,3
979,1347,3.78231E+000,1.26271E+000,-3.36089E-002,7.80707E-001,-1.02427E-001,-7.59557E-002,7.91053E-001,5.38812E-003,4.59028E-001,0,1.22176E+001,-1.53008E+000,9.99731E-001,-3.09564E+001,-3.59935E+001,9.99023E-001,1.95423E-002,-8.19272E-003,6.31457E-004,1.95566E-002,-8.20709E-003,1.30358E+000,1.96406E-002,1.01971E+000,-9.24065E-003,0.00000E+000,1.04699E-002,9.92375E-001,0.00000E+000,-6.87631E-003,-3.43884E-002,1.00000E+000,3
979,1297,3.74340E+000,-1.92954E+000,1.01647E-001,8.09958E-001,-7.34472E-002,3.93511E-002,8.14233E-001,7.61771E-003,4.78725E-001,0,1.22707E+001,-1.30192E+000,9.99873E-001,-3.17894E+001,-3.55962E+001,9.99181E-001,2.13854E-002,-8.18413E-003,7.98084E-004,2.14069E-002,-8.20566E-003,1.54492E+000,2.16004E-002,1.02165E+000,-9.19917E-003,0.00000E+000,1.09421E-002,9.92385E-001,0.00000E+000,-1.26320E-002,-3.45117E-002,1.00000E+000,3
869,1317,-3.58286E+000,-7.78010E-001,-1.35675E-002,6.51418E-001,-1.32498E-001,4.73051E-002,6.66438E-001,3.23742E-003,5.02747E-001,0,9.92219E+000,-2.23417E+000,9.99915E-001,-3.48791E+001,-3.85188E+001,9.99539E-001,2.09949E-002,-8.40338E-003,-8.80580E-004,2.10213E-002,-8.42974E-003,-1.71416E+000,2.11582E-002,1.02121E+000,-2.71831E-003,0.00000E+000,8.59456E-004,9.92449E-001,0.00000E+000,7.77225E-004,-4.05925E-002,1.00000E+000,3
869,1327,-3.57299E+000,-1.42046E-001,-4.98177E-002,6.49953E-001,-1.38122E-001,2.02328E-002,6.64775E-001,3.50360E-003,5.27902E-001,0,9.98608E+000,-2.27211E+000,9.99908E-001,-3.46923E+001,-3.86184E+001,9.99668E-001,2.04903E-002,-8.40297E-003,-8.74763E-004,2.05168E-002,-8.42943E-003,-1.73255E+000,2.06252E-002,1.02070E+000,-2.72738E-003,0.00000E+000,9.04449E-004,9.92450E-001,0.00000E+000,1.97540E-004,-4.06027E-002,1.00000E+000,3
869,1337,-3.55785E+000,4.97641E-001,-6.16905E-002,6.48293E-001,-1.43785E-001,-8.78620E-003,6.64105E-001,3.29598E-003,5.28552E-001,0,1.00526E+001,-2.29723E+000,9.99879E-001,-3.43648E+001,-3.87273E+001,9.99711E-001,1.99827E-002,-8.40238E-003,-8.70974E-004,2.00094E-002,-8.42908E-003,-1.75587E+000,2.00919E-002,1.02018E+000,-2.74067E-003,0.00000E+000,9.49664E-004,9.92451E-001,0.00000E+000,-3.84997E-004,-4.06177E-002,1.00000E+000,3
869,1347,-3.53694E+000,1.14358E+000,-4.43182E-002,6.47190E-001,-1.46260E-001,-3.36859E-002,6.64366E-001,5.05376E-003,5.01982E-001,0,1.01129E+001,-2.28151E+000,9.99903E-001,-3.38771E+001,-3.88201E+001,9.99653E-001,1.94725E-002,-8.40162E-003,-8.69128E-004,1.94995E-002,-8.42870E-003,-1.78420E+000,1.95591E-002,1.01966E+000,-2.75797E-003,0.00000E+000,9.95053E-004,9.92452E-001,0.00000E+000,-9.69786E-004,-4.06371E-002,1.00000E+000,3
869,1307,-3.58619E+000,-1.40616E+000,5.75944E-002,6.52428E-001,-1.24607E-001,7.57408E-002,6.68525E-001,3.97599E-003,5.29362E-001,0,9.84535E+000,-2.17950E+000,9.99880E-001,-3.48802E+001,-3.83479E+001,9.99470E-001,2.14952E-002,-8.40357E-003,-8.88964E-004,2.15216E-002,-8.42998E-003,-1.70154E+000,2.16892E-002,1.02173E+000,-2.71463E-003,0.00000E+000,8.14797E-004,9.92449E-001,0.00000E+000,1.35260E-003,-4.05884E-002,1.00000E+000,3
989,1307,4.41582E+000,-1.28257E+000,4.16243E-002,8.19044E-001,-7.33713E-002,4.47527E-003,8.22336E-001,6.04239E-003,5.11217E-001,0,1.25186E+001,-1.24389E+000,9.99883E-001,-3.14169E+001,-3.53648E+001,9.99190E-001,2.10043E-002,-8.21427E-003,6.92428E-004,2.10207E-002,-8.23067E-003,1.35679E+000,2.11849E-002,1.02124E+000,-9.53641E-003,0.00000E+000,1.09786E-002,9.92318E-001,0.00000E+000,-1.04801E-002,-3.34725E-002,1.00000E+000,3
989,1317,4.41526E+000,-6.46761E-001,-1.29989E-002,8.11511E-001,-7.91744E-002,-1.60519E-002,8.15522E-001,5.91272E-003,5.44259E-001,0,1.24751E+001,-1.28794E+000,9.99930E-001,-3.14398E+001,-3.54036E+001,9.99302E-001,2.07143E-002,-8.21487E-003,6.74969E-004,2.07301E-002,-8.23061E-003,1.33584E+000,2.08761E-002,1.02093E+000,-9.53971E-003,0.00000E+000,1.09162E-002,9.92318E-001,0.00000E+000,-9.47298E-003,-3.34617E-002,1.00000E+000,3
989,1327,4.42431E+000,-8.47817E-003,-3.52838E-002,8.06246E-001,-8.58762E-002,-3.68363E-002,8.11643E-001,6.98282E-003,5.40896E-001,0,1.24663E+001,-1.34943E+000,9.99891E-001,-3.12444E+001,-3.54927E+001,9.99095E-001,2.04223E-002,-8.21581E-003,6.55723E-004,2.04373E-002,-8.23082E-003,1.31098E+000,2.05658E-002,1.02062E+000,-9.54660E-003,0.00000E+000,1.08536E-002,9.92316E-001,0.00000E+000,-8.46248E-003,-3.34390E-002,1.00000E+000,3
989,1297,4.41737E+000,-1.91561E+000,1.03974E-001,8.26307E-001,-6.62334E-002,2.71611E-002,8.29402E-001,6.14980E-003,4.81897E-001,0,1.25501E+001,-1.17651E+000,9.99796E-001,-3.13617E+001,-3.52984E+001,9.98940E-001,2.12926E-002,-8.21373E-003,7.09543E-004,2.13097E-002,-8.23078E-003,1.37674E+000,2.14927E-002,1.02154E+000,-9.53374E-003,0.00000E+000,1.10408E-002,9.92319E-001,0.00000E+000,-1.14853E-002,-3.34813E-002,1.00000E+000,3
989,1337,4.43660E+000,6.31067E-001,-4.00026E-002,7.99260E-001,-9.19499E-002,-6.23278E-002,8.06942E-001,4.73804E-003,4.65303E-001,0,1.24466E+001,-1.39749E+000,9.99763E-001,-3.09607E+001,-3.56389E+001,9.99335E-001,2.01293E-002,-8.21698E-003,6.35285E-004,2.01435E-002,-8.23121E-003,1.28323E+000,2.02553E-002,1.02031E+000,-9.55592E-003,0.00000E+000,1.07910E-002,9.92314E-001,0.00000E+000,-7.45232E-003,-3.34083E-002,1.00000E+000,3
989,1347,4.45368E+000,1.27741E+000,-2.69260E-002,7.93551E-001,-9.58875E-002,-8.52883E-002,8.03860E-001,5.03989E-003,4.44692E-001,0,1.24364E+001,-1.41213E+000,9.99883E-001,-3.05644E+001,-3.56949E+001,9.99647E-001,1.98333E-002,-8.21832E-003,6.13877E-004,1.98467E-002,-8.23175E-003,1.25305E+000,1.99426E-002,1.02001E+000,-9.56696E-003,0.00000E+000,1.07281E-002,9.92312E-001,0.00000E+000,-6.43576E-003,-3.33720E-002,1.00000E+000,3
859,1327,-4.23454E+000,-1.46132E-001,-5.03845E-002,6.36643E-001,-1.37523E-001,1.49312E-002,6.51498E-001,3.48205E-003,5.43928E-001,0,9.80425E+000,-2.25171E+000,9.99881E-001,-3.48779E+001,-3.87634E+001,9.99550E-001,2.06522E-002,-8.47311E-003,-9.05299E-004,2.06804E-002,-8.50123E-003,-1.77863E+000,2.07891E-002,1.02087E+000,-2.15705E-003,0.00000E+000,2.75812E-004,9.92369E-001,0.00000E+000,5.51899E-004,-4.03146E-002,1.00000E+000,3
859,1337,-4.21902E+000,4.92726E-001,-6.03210E-002,6.35657E-001,-1.42958E-001,-1.14947E-002,6.51636E-001,3.92510E-003,5.35541E-001,0,9.87225E+000,-2.28607E+000,9.99846E-001,-3.45388E+001,-3.88954E+001,9.99594E-001,2.02019E-002,-8.47256E-003,-9.00751E-004,2.02302E-002,-8.50083E-003,-1.79747E+000,2.03159E-002,1.02041E+000,-2.16865E-003,0.00000E+000,3.23555E-004,9.92370E-001,0.00000E+000,-1.11874E-004,-4.03313E-002,1.00000E+000,3
859,1347,-4.19756E+000,1.13758E+000,-3.83650E-002,6.34650E-001,-1.46796E-001,-3.49054E-002,6.52340E-001,5.78500E-003,5.00851E-001,0,9.92922E+000,-2.29015E+000,9.99882E-001,-3.40297E+001,-3.90207E+001,9.99725E-001,1.97484E-002,-8.47182E-003,-8.98161E-004,1.97769E-002,-8.50038E-003,-1.82109E+000,1.98418E-002,1.01994E+000,-2.18432E-003,0.00000E+000,3.71574E-004,9.92372E-001,0.00000E+000,-7.79493E-004,-4.03539E-002,1.00000E+000,3
859,1307,-4.24773E+000,-1.40620E+000,6.09497E-002,6.38713E-001,-1.22213E-001,7.32895E-002,6.54417E-001,5.93169E-003,6.09016E-001,0,9.64882E+000,-2.14377E+000,9.99869E-001,-3.50566E+001,-3.84037E+001,9.99366E-001,2.15431E-002,-8.47367E-003,-9.20188E-004,2.15713E-002,-8.50185E-003,-1.75425E+000,2.17319E-002,1.02178E+000,-2.14600E-003,0.00000E+000,1.81159E-004,9.92368E-001,0.00000E+000,1.86788E-003,-4.02986E-002,1.00000E+000,3
859,1317,-4.24418E+000,-7.80355E-001,-1.12115E-002,6.37922E-001,-1.31820E-001,4.35538E-002,6.52854E-001,4.22155E-003,5.43408E-001,0,9.73313E+000,-2.20902E+000,9.99846E-001,-3.50547E+001,-3.86292E+001,9.99381E-001,2.10993E-002,-8.47349E-003,-9.11671E-004,2.11274E-002,-8.50157E-003,-1.76408E+000,2.12611E-002,1.02132E+000,-2.14928E-003,0.00000E+000,2.28347E-004,9.92368E-001,0.00000E+000,1.21181E-003,-4.03033E-002,1.00000E+000,3
999,1337,5.10570E+000,6.42724E-001,-4.15039E-002,8.13366E-001,-8.47287E-002,-6.30826E-002,8.20197E-001,5.19686E-003,4.09779E-001,0,1.26549E+001,-1.28378E+000,9.99881E-001,-3.06160E+001,-3.53916E+001,9.99551E-001,2.02642E-002,-8.24566E-003,5.53060E-004,2.02749E-002,-8.25639E-003,1.11092E+000,2.03909E-002,1.02044E+000,-9.79387E-003,0.00000E+000,1.08230E-002,9.92252E-001,0.00000E+000,-6.60456E-003,-3.23828E-002,1.00000E+000,3
999,1347,5.12490E+000,1.29242E+000,-2.09615E-002,8.07334E-001,-8.84532E-002,-8.83591E-002,8.16957E-001,4.49344E-003,4.20630E-001,0,1.26480E+001,-1.28295E+000,9.99905E-001,-3.01727E+001,-3.53947E+001,9.99612E-001,2.00357E-002,-8.24725E-003,5.31311E-004,2.00456E-002,-8.25723E-003,1.07583E+000,2.01491E-002,1.02021E+000,-9.80320E-003,0.00000E+000,1.07643E-002,9.92249E-001,0.00000E+000,-5.77900E-003,-3.23504E-002,1.00000E+000,3
999,1307,5.08707E+000,-1.26863E+000,4.01030E-002,8.33055E-001,-6.64574E-002,-7.43040E-003,8.35734E-001,3.84270E-003,5.05997E-001,0,1.27623E+001,-1.10929E+000,9.99918E-001,-3.10360E+001,-3.50615E+001,9.99477E-001,2.09369E-002,-8.24279E-003,6.10858E-004,2.09497E-002,-8.25558E-003,1.19875E+000,2.11058E-002,1.02115E+000,-9.77978E-003,0.00000E+000,1.09967E-002,9.92255E-001,0.00000E+000,-9.05040E-003,-3.24316E-002,1.00000E+000,3
999,1317,5.08756E+000,-6.32813E-001,-9.33794E-003,8.26183E-001,-7.18891E-002,-2.42630E-002,8.29660E-001,7.14376E-003,5.24537E-001,0,1.27163E+001,-1.16120E+000,9.99795E-001,-3.10320E+001,-3.51169E+001,9.97893E-001,2.07137E-002,-8.24348E-003,5.92598E-004,2.07258E-002,-8.25560E-003,1.17188E+000,2.08682E-002,1.02092E+000,-9.78246E-003,0.00000E+000,1.09389E-002,9.92254E-001,0.00000E+000,-8.23644E-003,-3.24223E-002,1.00000E+000,3
999,1327,5.09494E+000,2.82512E-003,-3.64379E-002,8.20701E-001,-7.99271E-002,-4.30416E-002,8.25706E-001,7.56533E-003,4.88848E-001,0,1.26985E+001,-1.24031E+000,9.99870E-001,-3.08739E+001,-3.52512E+001,9.98879E-001,2.04893E-002,-8.24444E-003,5.73307E-004,2.05007E-002,-8.25587E-003,1.14258E+000,2.06297E-002,1.02068E+000,-9.78719E-003,0.00000E+000,1.08809E-002,9.92253E-001,0.00000E+000,-7.42058E-003,-3.24059E-002,1.00000E+000,3
999,1297,5.08934E+000,-1.90193E+000,1.05274E-001,8.40660E-001,-5.97972E-002,1.61745E-002,8.42939E-001,4.25264E-003,4.88398E-001,0,1.27953E+001,-1.05444E+000,9.99789E-001,-3.09635E+001,-3.50009E+001,9.98907E-001,2.11591E-002,-8.24221E-003,6.28721E-004,2.11725E-002,-8.25565E-003,1.22447E+000,2.13429E-002,1.02138E+000,-9.77785E-003,0.00000E+000,1.10545E-002,9.92256E-001,0.00000E+000,-9.86318E-003,-3.24383E-002,1.00000E+000,3
849,1337,-4.88025E+000,4.89316E-001,-5.37153E-002,6.21705E-001,-1.43075E-001,-1.28408E-002,6.38085E-001,5.24211E-003,5.61582E-001,0,9.66725E+000,-2.27300E+000,9.99888E-001,-3.46969E+001,-3.90425E+001,9.99655E-001,2.03731E-002,-8.47538E-003,-8.75728E-004,2.03997E-002,-8.50194E-003,-1.73715E+000,2.04937E-002,1.02058E+000,-1.66082E-003,0.00000E+000,-1.22139E-004,9.92350E-001,0.00000E+000,-6.24312E-005,-3.98918E-002,1.00000E+000,3
849,1347,-4.86180E+000,1.13123E+000,-4.08698E-002,6.20504E-001,-1.46642E-001,-3.26884E-002,6.38434E-001,4.58807E-003,5.03120E-001,0,9.70978E+000,-2.28638E+000,9.99873E-001,-3.42548E+001,-3.92071E+001,9.99793E-001,1.99733E-002,-8.47492E-003,-8.74294E-004,2.00001E-002,-8.50176E-003,-1.75865E+000,2.00748E-002,1.02017E+000,-1.67299E-003,0.00000E+000,-7.99101E-005,9.92351E-001,0.00000E+000,-7.42927E-004,-3.99121E-002,1.00000E+000,3
849,1357,-4.83226E+000,1.78349E+000,1.88412E-002,6.19953E-001,-1.49453E-001,-5.63416E-002,6.40198E-001,4.23416E-003,5.02752E-001,0,9.77284E+000,-2.28119E+000,9.99881E-001,-3.35263E+001,-3.92902E+001,9.99749E-001,1.95676E-002,-8.47422E-003,-8.75895E-004,1.95949E-002,-8.50155E-003,-1.78733E+000,1.96520E-002,1.01976E+000,-1.69151E-003,0.00000E+000,-3.71300E-005,9.92353E-001,0.00000E+000,-1.43231E-003,-3.99430E-002,1.00000E+000,3
849,1327,-4.89374E+000,-1.48049E-001,-4.16989E-002,6.23454E-001,-1.36561E-001,1.00782E-002,6.38314E-001,5.38663E-003,5.48302E-001,0,9.62211E+000,-2.21278E+000,9.99922E-001,-3.50005E+001,-3.89006E+001,9.99560E-001,2.07716E-002,-8.47574E-003,-8.78477E-004,2.07980E-002,-8.50210E-003,-1.71887E+000,2.09130E-002,1.02099E+000,-1.65132E-003,0.00000E+000,-1.64296E-004,9.92349E-001,0.00000E+000,6.16905E-004,-3.98759E-002,1.00000E+000,3
1009,1337,5.77537E+000,6.58904E-001,-5.26034E-002,8.29261E-001,-7.53391E-002,-6.57806E-002,8.35270E-001,6.40111E-003,4.72142E-001,0,1.28963E+001,-1.13806E+000,9.99922E-001,-3.02790E+001,-3.49945E+001,9.99648E-001,2.03257E-002,-8.30628E-003,4.46638E-004,2.03327E-002,-8.31325E-003,8.93482E-001,2.04449E-002,1.02050E+000,-9.95739E-003,0.00000E+000,1.07366E-002,9.92166E-001,0.00000E+000,-5.72049E-003,-3.15630E-002,1.00000E+000,3
1009,1347,5.79544E+000,1.30469E+000,-2.05733E-002,8.21864E-001,-8.25840E-002,-8.86790E-002,8.30749E-001,4.85152E-003,4.20522E-001,0,1.28619E+001,-1.19591E+000,9.99951E-001,-2.98005E+001,-3.51128E+001,9.99734E-001,2.01515E-002,-8.30857E-003,4.20325E-004,2.01577E-002,-8.31478E-003,8.45953E-001,2.02604E-002,1.02032E+000,-9.96509E-003,0.00000E+000,1.06740E-002,9.92163E-001,0.00000E+000,-5.09918E-003,-3.15366E-002,1.00000E+000,3
1009,1297,5.75901E+000,-1.88954E+000,1.03877E-001,8.53824E-001,-5.26512E-002,9.33969E-003,8.55497E-001,4.97439E-003,4.59841E-001,0,1.30081E+001,-9.28957E-001,9.99785E-001,-3.06031E+001,-3.47355E+001,9.98773E-001,2.10108E-002,-8.30179E-003,5.41452E-004,2.10208E-002,-8.31179E-003,1.05787E+000,2.11735E-002,1.02122E+000,-9.94598E-003,0.00000E+000,1.09844E-002,9.92170E-001,0.00000E+000,-8.17777E-003,-3.16021E-002,1.00000E+000,3
1009,1307,5.75783E+000,-1.25666E+000,4.07977E-002,8.47281E-001,-5.92069E-002,-1.21250E-002,8.49433E-001,4.65797E-003,4.47581E-001,0,1.29843E+001,-9.83748E-001,9.99887E-001,-3.06544E+001,-3.48202E+001,9.99518E-001,2.08408E-002,-8.30259E-003,5.18504E-004,2.08500E-002,-8.31181E-003,1.01895E+000,2.09923E-002,1.02104E+000,-9.94747E-003,0.00000E+000,1.09227E-002,9.92169E-001,0.00000E+000,-7.56585E-003,-3.15970E-002,1.00000E+000,3
1009,1317,5.76016E+000,-6.20756E-001,-3.77196E-003,8.41910E-001,-6.46475E-002,-2.53123E-002,8.44768E-001,5.03287E-003,4.49795E-001,0,1.29489E+001,-1.04066E+000,9.99908E-001,-3.06121E+001,-3.48912E+001,9.99499E-001,2.06700E-002,-8.30354E-003,4.95181E-004,2.06784E-002,-8.31200E-003,9.78852E-001,2.08105E-002,1.02086E+000,-9.94961E-003,0.00000E+000,1.08609E-002,9.92169E-001,0.00000E+000,-6.95250E-003,-3.15897E-002,1.00000E+000,3
849,1317,-4.90547E+000,-7.80617E-001,-5.42901E-003,6.23894E-001,-1.28157E-001,4.23833E-002,6.38329E-001,5.75962E-003,5.88491E-001,0,9.52627E+000,-2.16141E+000,9.99877E-001,-3.52173E+001,-3.87128E+001,9.99423E-001,2.11680E-002,-8.47603E-003,-8.82114E-004,2.11942E-002,-8.50226E-003,-1.70294E+000,2.13318E-002,1.02139E+000,-1.64367E-003,0.00000E+000,-2.06284E-004,9.92348E-001,0.00000E+000,1.29354E-003,-3.98632E-002,1.00000E+000,3
1009,1327,5.76738E+000,1.87660E-002,-2.71720E-002,8.34493E-001,-7.07520E-002,-4.75726E-002,8.38837E-001,5.57018E-003,4.71401E-001,0,1.29132E+001,-1.10029E+000,9.99915E-001,-3.04496E+001,-3.49435E+001,9.99617E-001,2.04979E-002,-8.30496E-003,4.70810E-004,2.05056E-002,-8.31265E-003,9.36219E-001,2.06277E-002,1.02068E+000,-9.95370E-003,0.00000E+000,1.07987E-002,9.92167E-001,0.00000E+000,-6.33618E-003,-3.15756E-002,1.00000E+000,3
849,1307,-4.91025E+000,-1.40992E+000,6.58657E-002,6.23460E-001,-1.21251E-001,7.14035E-002,6.39142E-001,6.58387E-003,5.63395E-001,0,9.42697E+000,-2.10552E+000,9.99874E-001,-3.52402E+001,-3.85823E+001,9.99271E-001,2.15613E-002,-8.47615E-003,-8.88033E-004,2.15875E-002,-8.50238E-003,-1.69193E+000,2.17491E-002,1.02180E+000,-1.64078E-003,0.00000E+000,-2.48020E-004,9.92348E-001,0.00000E+000,1.96608E-003,-3.98583E-002,1.00000E+000,3
839,1337,-5.54131E+000,4.84328E-001,-4.02031E-002,6.07266E-001,-1.43028E-001,-8.79629E-003,6.23944E-001,1.03966E-002,5.43329E-001,0,9.43745E+000,-2.27781E+000,9.99901E-001,-3.48313E+001,-3.92512E+001,9.99554E-001,2.04845E-002,-8.45462E-003,-8.40255E-004,2.05089E-002,-8.47899E-003,-1.66173E+000,2.06111E-002,1.02070E+000,-1.30006E-003,0.00000E+000,-3.95995E-004,9.92349E-001,0.00000E+000,-2.20605E-004,-3.93441E-002,1.00000E+000,3
839,1347,-5.52470E+000,1.12472E+000,-4.07505E-002,6.06319E-001,-1.46869E-001,-3.25334E-002,6.24702E-001,3.83498E-003,4.97233E-001,0,9.49593E+000,-2.28735E+000,9.99896E-001,-3.44491E+001,-3.94057E+001,9.99752E-001,2.01080E-002,-8.45464E-003,-8.45807E-004,2.01330E-002,-8.47966E-003,-1.69468E+000,2.02162E-002,1.02031E+000,-1.31038E-003,0.00000E+000,-3.69623E-004,9.92350E-001,0.00000E+000,-9.09663E-004,-3.93626E-002,1.00000E+000,3
839,1357,-5.49571E+000,1.77668E+000,1.59151E-002,6.06346E-001,-1.49008E-001,-5.49144E-002,6.26797E-001,3.42566E-003,4.99315E-001,0,9.56336E+000,-2.27760E+000,9.99920E-001,-3.37338E+001,-3.94872E+001,9.99722E-001,1.97258E-002,-8.45468E-003,-8.54620E-004,1.97517E-002,-8.48057E-003,-1.73547E+000,1.98173E-002,1.01992E+000,-1.32730E-003,0.00000E+000,-3.42899E-004,9.92351E-001,0.00000E+000,-1.60791E-003,-3.93929E-002,1.00000E+000,3
1019,1337,6.44924E+000,6.76981E-001,-3.82941E-002,8.42785E-001,-6.75284E-002,-6.96687E-002,8.48352E-001,5.31658E-003,5.01741E-001,0,1.31053E+001,-1.00417E+000,9.99911E-001,-2.98201E+001,-3.46400E+001,9.99677E-001,2.03527E-002,-8.35362E-003,3.48574E-004,2.03569E-002,-8.35785E-003,6.95594E-001,2.04652E-002,1.02052E+000,-1.00547E-002,0.00000E+000,1.06054E-002,9.92101E-001,0.00000E+000,-4.83545E-003,-3.09503E-002,1.00000E+000,3
1019,1347,6.46369E+000,1.32065E+000,-2.80850E-002,8.35368E-001,-7.40516E-002,-8.92032E-002,8.43374E-001,4.53040E-003,4.76539E-001,0,1.30598E+001,-1.06211E+000,9.99936E-001,-2.94764E+001,-3.47289E+001,9.99790E-001,2.02268E-002,-8.35514E-003,3.28441E-004,2.02306E-002,-8.35892E-003,6.58281E-001,2.03320E-002,1.02039E+000,-1.00591E-002,0.00000E+000,1.05552E-002,9.92099E-001,0.00000E+000,-4.32590E-003,-3.09331E-002,1.00000E+000,3
839,1327,-5.55936E+000,-1.53264E-001,-4.73518E-002,6.08802E-001,-1.34381E-001,1.70456E-002,6.23690E-001,1.05056E-002,5.44586E-001,0,9.38021E+000,-2.18846E+000,9.99931E-001,-3.52538E+001,-3.90627E+001,9.99419E-001,2.08615E-002,-8.45459E-003,-8.34144E-004,2.08852E-002,-8.47831E-003,-1.62850E+000,2.10081E-002,1.02108E+000,-1.28856E-003,0.00000E+000,-4.22441E-004,9.92348E-001,0.00000E+000,4.70362E-004,-3.93234E-002,1.00000E+000,3
1019,1327,6.43647E+000,3.19540E-002,-3.40649E-002,8.48289E-001,-6.38215E-002,-5.13833E-002,8.52237E-001,5.62667E-003,4.67783E-001,0,1.31266E+001,-9.73905E-001,9.99883E-001,-3.01078E+001,-3.46367E+001,9.99539E-001,2.04781E-002,-8.35228E-003,3.68326E-004,2.04828E-002,-8.35699E-003,7.31830E-001,2.05980E-002,1.02065E+000,-1.00510E-002,0.00000E+000,1.06555E-002,9.92102E-001,0.00000E+000,-5.34435E-003,-3.09647E-002,1.00000E+000,3
1019,1317,6.43208E+000,-6.07455E-001,1.25280E-003,8.54958E-001,-5.86120E-002,-3.33075E-002,8.57612E-001,6.44380E-003,4.38343E-001,0,1.31649E+001,-9.31572E-001,9.99936E-001,-3.02009E+001,-3.46137E+001,9.99289E-001,2.06027E-002,-8.35134E-003,3.87291E-004,2.06078E-002,-8.35652E-003,7.66210E-001,2.07302E-002,1.02078E+000,-1.00488E-002,0.00000E+000,1.07053E-002,9.92103E-001,0.00000E+000,-5.85097E-003,-3.09734E-002,1.00000E+000,3
839,1317,-5.56809E+000,-7.85824E-001,2.01933E-004,6.08045E-001,-1.27598E-001,4.03414E-002,6.22597E-001,4.86785E-003,5.37933E-001,0,9.29476E+000,-2.14228E+000,9.99871E-001,-3.53968E+001,-3.89203E+001,9.99232E-001,2.12346E-002,-8.45458E-003,-8.31330E-004,2.12579E-002,-8.47784E-003,-1.60267E+000,2.14025E-002,1.02146E+000,-1.28377E-003,0.00000E+000,-4.48657E-004,9.92348E-001,0.00000E+000,1.15535E-003,-3.93148E-002,1.00000E+000,3
1019,1297,6.42792E+000,-1.87709E+000,9.49864E-002,8.67137E-001,-4.51392E-002,1.08058E-003,8.68312E-001,6.18984E-003,4.38534E-001,0,1.32281E+001,-7.90413E-001,9.99917E-001,-3.02664E+001,-3.44500E+001,9.99115E-001,2.08500E-002,-8.34976E-003,4.24501E-004,2.08562E-002,-8.35593E-003,8.32720E-001,2.09930E-002,1.02104E+000,-1.00455E-002,0.00000E+000,1.08047E-002,9.92105E-001,0.00000E+000,-6.86018E-003,-3.09862E-002,1.00000E+000,3
1019,1307,6.42694E+000,-1.24182E+000,3.85073E-002,8.59987E-001,-5.15903E-002,-1.68743E-002,8.61698E-001,8.61514E-003,4.87321E-001,0,1.31832E+001,-8.56582E-001,9.99932E-001,-3.03012E+001,-3.44797E+001,9.99074E-001,2.07264E-002,-8.35044E-003,4.06077E-004,2.07320E-002,-8.35611E-003,7.99966E-001,2.08615E-002,1.02091E+000,-1.00467E-002,0.00000E+000,1.07550E-002,9.92104E-001,0.00000E+000,-6.35518E-003,-3.09814E-002,1.00000E+000,3
839,1307,-5.57180E+000,-1.41440E+000,7.00282E-002,6.08156E-001,-1.20131E-001,6.55712E-002,6.23366E-001,4.06319E-003,5.11690E-001,0,9.21607E+000,-2.07467E+000,9.99871E-001,-3.54068E+001,-3.87740E+001,9.99204E-001,2.16055E-002,-8.45458E-003,-8.29690E-004,2.16284E-002,-8.47746E-003,-1.57982E+000,2.17960E-002,1.02184E+000,-1.28137E-003,0.00000E+000,-4.74757E-004,9.92348E-001,0.00000E+000,1.83729E-003,-3.93105E-002,1.00000E+000,3
829,1337,-6.20545E+000,4.77999E-001,-4.73505E-002,5.92553E-001,-1.41486E-001,-9.61945E-003,6.09287E-001,6.64757E-003,5.32710E-001,0,9.21820E+000,-2.26087E+000,9.99876E-001,-3.50605E+001,-3.94320E+001,9.99524E-001,2.05136E-002,-8.46478E-003,-7.75992E-004,2.05343E-002,-8.48554E-003,-1.53282E+000,2.06371E-002,1.02073E+000,-9.83694E-004,0.00000E+000,-5.68746E-004,9.92318E-001,0.00000E+000,-4.02856E-004,-3.88161E-002,1.00000E+000,3
829,1347,-6.18472E+000,1.12091E+000,-3.35835E-002,5.93305E-001,-1.45939E-001,-3.15762E-002,6.11805E-001,3.21839E-003,5.14729E-001,0,9.29685E+000,-2.27467E+000,9.99860E-001,-3.45775E+001,-3.95662E+001,9.99632E-001,2.01391E-002,-8.46596E-003,-8.00943E-004,2.01615E-002,-8.48837E-003,-1.60261E+000,2.02452E-002,1.02034E+000,-9.95364E-004,0.00000E+000,-5.79374E-004,9.92318E-001,0.00000E+000,-1.10854E-003,-3.88377E-002,1.00000E+000,3
829,1357,-6.15699E+000,1.77084E+000,1.48503E-002,5.93719E-001,-1.48990E-001,-5.51626E-002,6.14608E-001,3.66849E-003,5.16684E-001,0,9.37404E+000,-2.27404E+000,9.99913E-001,-3.38998E+001,-3.96627E+001,9.99689E-001,1.97612E-002,-8.46757E-003,-8.28140E-004,1.97855E-002,-8.49184E-003,-1.67894E+000,1.98515E-002,1.01996E+000,-1.01128E-003,0.00000E+000,-5.90080E-004,9.92317E-001,0.00000E+000,-1.81945E-003,-3.88671E-002,1.00000E+000,3
1029,1337,7.11492E+000,6.87526E-001,-4.77969E-002,8.53554E-001,-6.14702E-002,-7.20651E-002,8.58794E-001,5.22842E-003,4.71115E-001,0,1.32684E+001,-9.02645E-001,9.99886E-001,-2.95344E+001,-3.43807E+001,9.99296E-001,2.03927E-002,-8.36493E-003,2.52118E-004,2.03949E-002,-8.36714E-003,5.02262E-001,2.05041E-002,1.02056E+000,-1.01299E-002,0.00000E+000,1.04534E-002,9.92079E-001,0.00000E+000,-3.79883E-003,-3.05710E-002,1.00000E+000,3
1029,1347,7.13120E+000,1.33432E+000,-3.64928E-002,8.46886E-001,-6.66717E-002,-9.43214E-002,8.54726E-001,4.30410E-003,4.93818E-001,0,1.32437E+001,-9.42399E-001,9.99932E-001,-2.91619E+001,-3.43978E+001,9.99460E-001,2.03170E-002,-8.36535E-003,2.45781E-004,2.03191E-002,-8.36745E-003,4.90923E-001,2.04242E-002,1.02048E+000,-1.01327E-002,0.00000E+000,1.04293E-002,9.92079E-001,0.00000E+000,-3.30708E-003,-3.05537E-002,1.00000E+000,3
1029,1327,7.10608E+000,4.41682E-002,-3.42112E-002,8.60453E-001,-5.69457E-002,-5.59996E-002,8.64152E-001,5.71451E-003,4.45721E-001,0,1.33176E+001,-8.68672E-001,9.99852E-001,-2.97405E+001,-3.43690E+001,9.99402E-001,2.04678E-002,-8.36461E-003,2.58008E-004,2.04701E-002,-8.36692E-003,5.12659E-001,2.05834E-002,1.02064E+000,-1.01280E-002,0.00000E+000,1.04774E-002,9.92080E-001,0.00000E+000,-4.28838E-003,-3.05829E-002,1.00000E+000,3
829,1327,-6.22044E+000,-1.57621E-001,-3.82986E-002,5.93155E-001,-1.33609E-001,1.34676E-002,6.08165E-001,6.28483E-003,5.43370E-001,0,9.15541E+000,-2.18556E+000,9.99923E-001,-3.53969E+001,-3.92417E+001,9.99688E-001,2.08854E-002,-8.46385E-003,-7.52402E-004,2.09047E-002,-8.48313E-003,-1.46756E+000,2.10280E-002,1.02111E+000,-9.74560E-004,0.00000E+000,-5.58174E-004,9.92318E-001,0.00000E+000,2.99135E-004,-3.87992E-002,1.00000E+000,3
829,1307,-6.23143E+000,-1.41973E+000,7.91398E-002,5.94466E-001,-1.20583E-001,6.51893E-002,6.10065E-001,5.38589E-003,4.74718E-001,0,9.01313E+000,-2.07581E+000,9.99839E-001,-3.55279E+001,-3.89821E+001,9.99074E-001,2.16217E-002,-8.46310E-003,-7.10879E-004,2.16385E-002,-8.47988E-003,-1.35285E+000,2.18064E-002,1.02186E+000,-9.67211E-004,0.00000E+000,-5.37191E-004,9.92319E-001,0.00000E+000,1.69249E-003,-3.87856E-002,1.00000E+000,3
829,1317,-6.22909E+000,-7.90647E-001,6.22085E-003,5.93738E-001,-1.27144E-001,4.04550E-002,6.08545E-001,5.15744E-003,5.21577E-001,0,9.07999E+000,-2.13558E+000,9.99883E-001,-3.55468E+001,-3.91056E+001,9.99575E-001,2.12548E-002,-8.46330E-003,-7.30720E-004,2.12727E-002,-8.48125E-003,-1.40768E+000,2.14178E-002,1.02148E+000,-9.69102E-004,0.00000E+000,-5.47657E-004,9.92319E-001,0.00000E+000,9.97532E-004,-3.87891E-002,1.00000E+000,3
1029,1317,7.10129E+000,-5.94571E-001,-3.13502E-003,8.67044E-001,-5.25170E-002,-4.09639E-002,8.69599E-001,6.44011E-003,4.69514E-001,0,1.33653E+001,-8.29573E-001,9.99913E-001,-2.98479E+001,-3.43015E+001,9.99361E-001,2.05422E-002,-8.36436E-003,2.63608E-004,2.05446E-002,-8.36676E-003,5.22440E-001,2.06621E-002,1.02071E+000,-1.01266E-002,0.00000E+000,1.05012E-002,9.92080E-001,0.00000E+000,-4.77493E-003,-3.05915E-002,1.00000E+000,3
1029,1307,7.09955E+000,-1.22924E+000,4.60202E-002,8.74101E-001,-4.58830E-002,-1.89779E-002,8.75510E-001,6.94625E-003,4.84361E-001,0,1.33944E+001,-7.64827E-001,9.99908E-001,-2.98703E+001,-3.42159E+001,9.98306E-001,2.06162E-002,-8.36414E-003,2.69043E-004,2.06187E-002,-8.36664E-003,5.31852E-001,2.07404E-002,1.02079E+000,-1.01255E-002,0.00000E+000,1.05250E-002,9.92081E-001,0.00000E+000,-5.26040E-003,-3.05982E-002,1.00000E+000,3
1029,1297,7.10087E+000,-1.86296E+000,1.02772E-001,8.82051E-001,-3.78694E-002,9.94895E-004,8.82864E-001,6.26448E-003,4.76829E-001,0,1.34434E+001,-6.92203E-001,9.99915E-001,-2.98293E+001,-3.41437E+001,9.98370E-001,2.06901E-002,-8.36395E-003,2.74354E-004,2.06927E-002,-8.36654E-003,5.40973E-001,2.08186E-002,1.02087E+000,-1.01247E-002,0.00000E+000,1.05489E-002,9.92081E-001,0.00000E+000,-5.74648E-003,-3.06032E-002,1.00000E+000,3
819,1317,-6.88801E+000,-7.96205E-001,1.71800E-002,5.80375E-001,-1.28215E-001,4.18663E-002,5.95842E-001,5.61325E-003,5.04554E-001,0,8.87594E+000,-2.15132E+000,9.99870E-001,-3.56484E+001,-3.93131E+001,9.99182E-001,2.11459E-002,-8.43643E-003,-6.19250E-004,2.11589E-002,-8.44939E-003,-1.19868E+000,2.13013E-002,1.02137E+000,-6.53703E-004,0.00000E+000,-6.19212E-004,9.92319E-001,0.00000E+000,6.65446E-004,-3.81051E-002,1.00000E+000,3
819,1327,-6.88174E+000,-1.64680E-001,-3.33261E-002,5.79711E-001,-1.34114E-001,1.98170E-002,5.95352E-001,6.97218E-003,5.22507E-001,0,8.93436E+000,-2.20594E+000,9.99870E-001,-3.55497E+001,-3.94634E+001,9.98987E-001,2.07948E-002,-8.43710E-003,-6.51812E-004,2.08093E-002,-8.45163E-003,-1.27673E+000,2.09312E-002,1.02101E+000,-6.57629E-004,0.00000E+000,-6.57469E-004,9.92318E-001,0.00000E+000,7.50197E-005,-3.81116E-002,1.00000E+000,3
819,1337,-6.86654E+000,4.73530E-001,-4.92713E-002,5.80111E-001,-1.39664E-001,-6.75765E-003,5.96725E-001,4.46876E-003,5.40320E-001,0,9.02225E+000,-2.23646E+000,9.99840E-001,-3.52258E+001,-3.95864E+001,9.99509E-001,2.04402E-002,-8.43851E-003,-6.86777E-004,2.04565E-002,-8.45484E-003,-1.36155E+000,2.05588E-002,1.02065E+000,-6.65910E-004,0.00000E+000,-6.96054E-004,9.92318E-001,0.00000E+000,-5.20475E-004,-3.81252E-002,1.00000E+000,3
819,1307,-6.89264E+000,-1.42254E+000,8.10894E-002,5.79642E-001,-1.20503E-001,6.21636E-002,5.95290E-001,6.27790E-003,5.35169E-001,0,8.80041E+000,-2.07113E+000,9.99853E-001,-3.56872E+001,-3.90877E+001,9.98998E-001,2.14949E-002,-8.43604E-003,-5.87665E-004,2.15064E-002,-8.44758E-003,-1.12437E+000,2.16706E-002,1.02173E+000,-6.51471E-004,0.00000E+000,-5.81138E-004,9.92319E-001,0.00000E+000,1.25306E-003,-3.81014E-002,1.00000E+000,3
819,1347,-6.84553E+000,1.11620E+000,-3.48894E-002,5.80927E-001,-1.44698E-001,-2.99747E-002,5.99427E-001,4.38671E-003,5.24825E-001,0,9.10552E+000,-2.25322E+000,9.99910E-001,-3.47353E+001,-3.97260E+001,9.99619E-001,2.00833E-002,-8.44044E-003,-7.23384E-004,2.01016E-002,-8.45877E-003,-1.45182E+000,2.01855E-002,1.02029E+000,-6.77187E-004,0.00000E+000,-7.34841E-004,9.92316E-001,0.00000E+000,-1.11907E-003,-3.81437E-002,1.00000E+000,3
819,1357,-6.81750E+000,1.76550E+000,1.95239E-002,5.81307E-001,-1.48355E-001,-5.03848E-002,6.02051E-001,4.62035E-003,5.28299E-001,0,9.17206E+000,-2.27340E+000,9.99932E-001,-3.40356E+001,-3.98464E+001,9.99606E-001,1.97234E-002,-8.44307E-003,-7.62250E-004,1.97440E-002,-8.46368E-003,-1.54904E+000,1.98109E-002,1.01992E+000,-6.92600E-004,0.00000E+000,-7.73892E-004,9.92315E-001,0.00000E+000,-1.72176E-003,-3.81691E-002,1.00000E+000,3
1039,1337,7.78539E+000,7.00448E-001,-5.33414E-002,8.67038E-001,-5.53935E-002,-7.73534E-002,8.72243E-001,5.46334E-003,4.90247E-001,0,1.34825E+001,-7.99165E-001,9.99878E-001,-2.91627E+001,-3.40679E+001,9.98970E-001,2.03686E-002,-8.34693E-003,1.38835E-004,2.03693E-002,-8.34760E-003,2.77007E-001,2.04795E-002,1.02053E+000,-1.01922E-002,0.00000E+000,1.02569E-002,9.92094E-001,0.00000E+000,-2.73135E-003,-3.04164E-002,1.00000E+000,3
1039,1347,7.80089E+000,1.34415E+000,-4.05613E-002,8.59887E-001,-6.16068E-002,-9.63592E-002,8.67459E-001,4.93784E-003,4.23004E-001,0,1.34399E+001,-8.48446E-001,9.99949E-001,-2.88010E+001,-3.41795E+001,9.99503E-001,2.03261E-002,-8.34685E-003,1.38684E-004,2.03268E-002,-8.34753E-003,2.77117E-001,2.04347E-002,1.02049E+000,-1.01937E-002,0.00000E+000,1.02449E-002,9.92094E-001,0.00000E+000,-2.28189E-003,-3.04008E-002,1.00000E+000,3
1039,1317,7.77012E+000,-5.82420E-001,-8.33141E-003,8.80016E-001,-4.51414E-002,-4.21467E-002,8.82180E-001,4.18257E-003,4.51241E-001,0,1.35560E+001,-7.12723E-001,9.99918E-001,-2.94985E+001,-3.40237E+001,9.99529E-001,2.04528E-002,-8.34703E-003,1.38567E-004,2.04535E-002,-8.34770E-003,2.75664E-001,2.05682E-002,1.02062E+000,-1.01903E-002,0.00000E+000,1.02808E-002,9.92095E-001,0.00000E+000,-3.62759E-003,-3.04359E-002,1.00000E+000,3
1039,1327,7.77604E+000,5.55846E-002,-3.78729E-002,8.73748E-001,-5.06711E-002,-5.87078E-002,8.77182E-001,4.97924E-003,4.19670E-001,0,1.35193E+001,-7.66343E-001,9.99881E-001,-2.93716E+001,-3.41080E+001,9.99216E-001,2.04110E-002,-8.34698E-003,1.38764E-004,2.04117E-002,-8.34765E-003,2.76458E-001,2.05241E-002,1.02057E+000,-1.01911E-002,0.00000E+000,1.02689E-002,9.92095E-001,0.00000E+000,-3.18135E-003,-3.04275E-002,1.00000E+000,3
1039,1307,7.76824E+000,-1.21881E+000,3.51246E-002,8.87463E-001,-3.94364E-002,-2.39756E-002,8.88662E-001,5.18488E-003,4.68651E-001,0,1.36044E+001,-6.60002E-001,9.99903E-001,-2.95343E+001,-3.39530E+001,9.99176E-001,2.04943E-002,-8.34707E-003,1.38274E-004,2.04950E-002,-8.34773E-003,2.74684E-001,2.06121E-002,1.02066E+000,-1.01896E-002,0.00000E+000,1.02926E-002,9.92095E-001,0.00000E+000,-4.07317E-003,-3.04424E-002,1.00000E+000,3
1039,1297,7.77006E+000,-1.85271E+000,9.45495E-002,8.95380E-001,-3.21104E-002,-3.79893E-003,8.95964E-001,5.31234E-003,4.74337E-001,0,1.36518E+001,-5.99128E-001,9.99868E-001,-2.94801E+001,-3.38844E+001,9.98931E-001,2.05357E-002,-8.34710E-003,1.37874E-004,2.05363E-002,-8.34776E-003,2.73498E-001,2.06557E-002,1.02071E+000,-1.01892E-002,0.00000E+000,1.03045E-002,9.92095E-001,0.00000E+000,-4.51853E-003,-3.04466E-002,1.00000E+000,3
1049,1337,8.45899E+000,7.11624E-001,-5.12091E-002,8.82558E-001,-4.90343E-002,-7.79447E-002,8.87349E-001,7.72846E-003,4.42486E-001,0,1.37105E+001,-7.06990E-001,9.99923E-001,-2.87233E+001,-3.38324E+001,9.99480E-001,2.03025E-002,-8.37997E-003,8.31061E-006,2.03025E-002,-8.37998E-003,1.66012E-002,2.04052E-002,1.02046E+000,-1.02444E-002,0.00000E+000,1.00201E-002,9.92054E-001,0.00000E+000,-1.78929E-003,-3.01003E-002,1.00000E+000,3
1049,1347,8.47720E+000,1.36081E+000,-2.74107E-002,8.75644E-001,-5.36996E-002,-9.54641E-002,8.82467E-001,6.87494E-003,4.65812E-001,0,1.36657E+001,-7.45866E-001,9.99917E-001,-2.82992E+001,-3.38368E+001,9.99135E-001,2.03090E-002,-8.37907E-003,1.78695E-005,2.03090E-002,-8.37908E-003,3.56889E-002,2.04122E-002,1.02047E+000,-1.02442E-002,0.00000E+000,1.00288E-002,9.92054E-001,0.00000E+000,-1.45500E-003,-3.00876E-002,1.00000E+000,3
1049,1307,8.44193E+000,-1.20534E+000,4.61675E-002,9.01529E-001,-3.15735E-002,-2.34842E-002,9.02387E-001,7.11976E-003,4.44044E-001,0,1.38044E+001,-5.52020E-001,9.99905E-001,-2.90726E+001,-3.36940E+001,9.99248E-001,2.02825E-002,-8.38157E-003,-1.98981E-005,2.02825E-002,-8.38158E-003,-3.97738E-002,2.03840E-002,1.02044E+000,-1.02448E-002,0.00000E+000,9.99437E-003,9.92054E-001,0.00000E+000,-2.78152E-003,-3.01187E-002,1.00000E+000,3
1049,1317,8.44380E+000,-5.68006E-001,5.28144E-003,8.93674E-001,-3.71798E-002,-4.03687E-002,8.95358E-001,6.98130E-003,4.32181E-001,0,1.37455E+001,-6.02485E-001,9.99858E-001,-2.90324E+001,-3.37516E+001,9.98337E-001,2.02893E-002,-8.38110E-003,-1.05252E-005,2.02893E-002,-8.38111E-003,-2.10338E-002,2.03912E-002,1.02045E+000,-1.02447E-002,0.00000E+000,1.00029E-002,9.92054E-001,0.00000E+000,-2.45155E-003,-3.01137E-002,1.00000E+000,3
1049,1327,8.44673E+000,6.84220E-002,-3.97545E-002,8.87470E-001,-4.39357E-002,-5.88683E-002,8.90505E-001,4.33679E-003,4.27712E-001,0,1.37180E+001,-6.63367E-001,9.99904E-001,-2.89841E+001,-3.38120E+001,9.98855E-001,2.02959E-002,-8.38065E-003,-1.15294E-006,2.02959E-002,-8.38065E-003,-2.30357E-003,2.03982E-002,1.02045E+000,-1.02446E-002,0.00000E+000,1.00115E-002,9.92054E-001,0.00000E+000,-2.12140E-003,-3.01091E-002,1.00000E+000,3
809,1347,-7.50834E+000,1.10777E+000,-4.12392E-002,5.66455E-001,-1.45626E-001,-3.19213E-002,5.85744E-001,4.17852E-003,5.29553E-001,0,8.89308E+000,-2.27538E+000,9.99943E-001,-3.49334E+001,-3.99350E+001,9.99658E-001,1.99862E-002,-8.42307E-003,-6.59538E-004,2.00015E-002,-8.43837E-003,-1.32920E+000,2.00827E-002,1.02019E+000,-3.94024E-004,0.00000E+000,-8.76023E-004,9.92312E-001,0.00000E+000,-1.32809E-003,-3.75739E-002,1.00000E+000,3
809,1357,-7.48097E+000,1.75767E+000,1.50879E-002,5.65684E-001,-1.49548E-001,-5.39296E-002,5.87598E-001,5.08264E-003,5.21363E-001,0,8.94647E+000,-2.28096E+000,9.99923E-001,-3.42362E+001,-4.00580E+001,9.99420E-001,1.96484E-002,-8.42776E-003,-7.21697E-004,1.96670E-002,-8.44629E-003,-1.47149E+000,1.97321E-002,1.01984E+000,-4.08769E-004,0.00000E+000,-9.63125E-004,9.92308E-001,0.00000E+000,-1.91033E-003,-3.75989E-002,1.00000E+000,3
809,1327,-7.54405E+000,-1.70131E-001,-4.01675E-002,5.64809E-001,-1.35583E-001,1.46288E-002,5.81038E-001,5.58235E-003,5.63170E-001,0,8.72639E+000,-2.20609E+000,9.99889E-001,-3.57442E+001,-3.96045E+001,9.98686E-001,2.06514E-002,-8.41740E-003,-5.42418E-004,2.06615E-002,-8.42752E-003,-1.06863E+000,2.07780E-002,1.02087E+000,-3.76137E-004,0.00000E+000,-7.04129E-004,9.92317E-001,0.00000E+000,-1.79059E-004,-3.75436E-002,1.00000E+000,3
809,1337,-7.52740E+000,4.67639E-001,-4.97214E-002,5.66371E-001,-1.40199E-001,-7.90588E-003,5.83519E-001,3.73287E-003,5.56665E-001,0,8.81896E+000,-2.24208E+000,9.99899E-001,-3.53804E+001,-3.97617E+001,9.99630E-001,2.03197E-002,-8.41991E-003,-6.00359E-004,2.03322E-002,-8.43245E-003,-1.19619E+000,2.04306E-002,1.02053E+000,-3.84067E-004,0.00000E+000,-7.89892E-004,9.92315E-001,0.00000E+000,-7.52344E-004,-3.75571E-002,1.00000E+000,3
809,1307,-7.55521E+000,-1.42726E+000,7.86321E-002,5.64445E-001,-1.20302E-001,6.16443E-002,5.80406E-001,5.94058E-003,5.66032E-001,0,8.57394E+000,-2.07168E+000,9.99829E-001,-3.58749E+001,-3.92284E+001,9.98682E-001,2.13081E-002,-8.41559E-003,-4.32382E-004,2.13144E-002,-8.42188E-003,-8.33232E-001,2.14701E-002,1.02154E+000,-3.70412E-004,0.00000E+000,-5.33977E-004,9.92318E-001,0.00000E+000,9.58333E-004,-3.75339E-002,1.00000E+000,3
809,1317,-7.54957E+000,-7.99964E-001,1.39415E-002,5.66410E-001,-1.28002E-001,4.15000E-002,5.82174E-001,7.04431E-003,5.69301E-001,0,8.66762E+000,-2.14897E+000,9.99910E-001,-3.58223E+001,-3.94220E+001,9.98917E-001,2.09805E-002,-8.41621E-003,-4.86873E-004,2.09885E-002,-8.42427E-003,-9.48597E-001,2.11242E-002,1.02120E+000,-3.72378E-004,0.00000E+000,-6.18916E-004,9.92318E-001,0.00000E+000,3.90554E-004,-3.75373E-002,1.00000E+000,3
1049,1297,8.43937E+000,-1.84277E+000,9.07132E-002,9.07511E-001,-2.69550E-002,-7.94808E-003,9.07946E-001,6.07176E-003,4.37141E-001,0,1.38398E+001,-5.03043E-001,9.99815E-001,-2.91162E+001,-3.36567E+001,9.98504E-001,2.02756E-002,-8.38200E-003,-2.92575E-005,2.02757E-002,-8.38203E-003,-5.84951E-002,2.03768E-002,1.02044E+000,-1.02448E-002,0.00000E+000,9.98581E-003,9.92053E-001,0.00000E+000,-3.11114E-003,-3.01231E-002,1.00000E+000,3
799,1337,-8.18892E+000,4.60196E-001,-5.30492E-002,5.52469E-001,-1.41064E-001,-7.29686E-003,5.70240E-001,3.38302E-003,5.37734E-001,0,8.60773E+000,-2.24778E+000,9.99944E-001,-3.55490E+001,-3.99723E+001,9.99724E-001,2.01335E-002,-8.39948E-003,-4.98740E-004,2.01422E-002,-8.40820E-003,-1.00109E+000,2.02335E-002,1.02034E+000,-1.00624E-004,0.00000E+000,-8.55911E-004,9.92313E-001,0.00000E+000,-9.72811E-004,-3.69629E-002,1.00000E+000,3
799,1347,-8.17036E+000,1.10137E+000,-4.43158E-002,5.52566E-001,-1.45332E-001,-2.92606E-002,5.72107E-001,3.98170E-003,5.36088E-001,0,8.67501E+000,-2.27456E+000,9.99921E-001,-3.51073E+001,-4.01192E+001,9.99602E-001,1.98179E-002,-8.40351E-003,-5.74721E-004,1.98296E-002,-8.41521E-003,-1.16617E+000,1.99051E-002,1.02002E+000,-1.09804E-004,0.00000E+000,-9.78297E-004,9.92309E-001,0.00000E+000,-1.50101E-003,-3.69780E-002,1.00000E+000,3
799,1357,-8.14140E+000,1.75184E+000,1.11899E-002,5.53453E-001,-1.48357E-001,-5.29980E-002,5.75438E-001,4.12418E-003,5.29274E-001,0,8.75854E+000,-2.26687E+000,9.99900E-001,-3.43848E+001,-4.02321E+001,9.99462E-001,1.94985E-002,-8.40965E-003,-6.53841E-004,1.95138E-002,-8.42496E-003,-1.34136E+000,1.95743E-002,1.01969E+000,-1.23753E-004,0.00000E+000,-1.10202E-003,9.92304E-001,0.00000E+000,-2.03498E-003,-3.70009E-002,1.00000E+000,3
799,1327,-8.20363E+000,-1.77100E-001,-3.95111E-002,5.52305E-001,-1.35412E-001,1.69790E-002,5.68916E-001,8.88119E-003,5.46441E-001,0,8.53147E+000,-2.21818E+000,9.99928E-001,-3.58739E+001,-3.98135E+001,9.98909E-001,2.04476E-002,-8.39631E-003,-4.23955E-004,2.04539E-002,-8.40254E-003,-8.41904E-001,2.05621E-002,1.02066E+000,-9.33892E-005,0.00000E+000,-7.33921E-004,9.92315E-001,0.00000E+000,-4.46329E-004,-3.69510E-002,1.00000E+000,3
1059,1327,9.11774E+000,8.18503E-002,-3.79407E-002,9.00213E-001,-3.70073E-002,-5.88993E-002,9.02896E-001,6.88710E-003,4.27794E-001,0,1.39009E+001,-5.55804E-001,9.99900E-001,-2.85808E+001,-3.35190E+001,9.99045E-001,2.01951E-002,-8.38909E-003,-1.10902E-004,2.01955E-002,-8.38952E-003,-2.22294E-001,2.02916E-002,1.02035E+000,-1.02074E-002,0.00000E+000,9.72821E-003,9.92039E-001,0.00000E+000,-1.11268E-003,-2.97938E-002,1.00000E+000,3
1059,1337,9.13047E+000,7.25843E-001,-4.65472E-002,8.95254E-001,-4.17271E-002,-7.67505E-002,8.99506E-001,5.64032E-003,4.55805E-001,0,1.38884E+001,-6.04007E-001,9.99902E-001,-2.83084E+001,-3.35252E+001,9.99538E-001,2.02477E-002,-8.38774E-003,-9.16843E-005,2.02480E-002,-8.38804E-003,-1.83446E-001,2.03469E-002,1.02040E+000,-1.02059E-002,0.00000E+000,9.75961E-003,9.92039E-001,0.00000E+000,-9.50217E-004,-2.97894E-002,1.00000E+000,3
1059,1347,9.14996E+000,1.37356E+000,-2.31680E-002,8.89218E-001,-4.72452E-002,-9.57147E-002,8.95602E-001,8.72741E-003,4.27001E-001,0,1.38629E+001,-6.42526E-001,9.99892E-001,-2.78673E+001,-3.35757E+001,9.99030E-001,2.03005E-002,-8.38596E-003,-7.20640E-005,2.03007E-002,-8.38614E-003,-1.43933E-001,2.04026E-002,1.02046E+000,-1.02038E-002,0.00000E+000,9.79118E-003,9.92041E-001,0.00000E+000,-7.86927E-004,-2.97831E-002,1.00000E+000,3
1059,1297,9.10830E+000,-1.83213E+000,8.80494E-002,9.20854E-001,-1.94239E-002,-2.34562E-003,9.21062E-001,4.97130E-003,4.14347E-001,0,1.40104E+001,-4.06127E-001,9.99883E-001,-2.87521E+001,-3.34136E+001,9.98970E-001,2.00381E-002,-8.39186E-003,-1.67338E-004,2.00391E-002,-8.39285E-003,-3.37226E-001,2.01269E-002,1.02019E+000,-1.02098E-002,0.00000E+000,9.63455E-003,9.92037E-001,0.00000E+000,-1.59728E-003,-2.98014E-002,1.00000E+000,3
1059,1307,9.11122E+000,-1.19603E+000,4.24094E-002,9.15160E-001,-2.46786E-002,-1.90126E-002,9.15690E-001,7.44668E-003,3.97684E-001,0,1.39840E+001,-4.65119E-001,9.99898E-001,-2.87060E+001,-3.34792E+001,9.99022E-001,2.00903E-002,-8.39102E-003,-1.48647E-004,2.00910E-002,-8.39179E-003,-2.99022E-001,2.01816E-002,1.02024E+000,-1.02091E-002,0.00000E+000,9.66566E-003,9.92038E-001,0.00000E+000,-1.43632E-003,-2.97992E-002,1.00000E+000,3
1059,1317,9.11254E+000,-5.58600E-001,-3.93584E-003,9.07203E-001,-3.10237E-002,-3.90141E-002,9.08572E-001,8.46295E-003,4.06438E-001,0,1.39356E+001,-5.16042E-001,9.99865E-001,-2.86859E+001,-3.35116E+001,9.98091E-001,2.01426E-002,-8.39014E-003,-1.29863E-004,2.01432E-002,-8.39073E-003,-2.60767E-001,2.02365E-002,1.02030E+000,-1.02084E-002,0.00000E+000,9.69688E-003,9.92038E-001,0.00000E+000,-1.27477E-003,-2.97969E-002,1.00000E+000,3
799,1307,-8.21358E+000,-1.43339E+000,8.33033E-002,5.51858E-001,-1.20798E-001,6.21186E-002,5.68330E-001,7.52661E-003,5.41834E-001,0,8.38455E+000,-2.08280E+000,9.99886E-001,-3.59760E+001,-3.94333E+001,9.99258E-001,2.10685E-002,-8.39427E-003,-2.80598E-004,2.10711E-002,-8.39694E-003,-5.45608E-001,2.12153E-002,1.02129E+000,-8.86329E-005,0.00000E+000,-4.92403E-004,9.92317E-001,0.00000E+000,5.96014E-004,-3.69432E-002,1.00000E+000,3
799,1317,-8.21270E+000,-8.06870E-001,2.04533E-003,5.51767E-001,-1.27454E-001,3.88876E-002,5.67630E-001,8.86081E-003,5.65467E-001,0,8.45534E+000,-2.14190E+000,9.99895E-001,-3.60390E+001,-3.95955E+001,9.98511E-001,2.07592E-002,-8.39446E-003,-3.51149E-004,2.07634E-002,-8.39869E-003,-6.89981E-001,2.08893E-002,1.02098E+000,-8.91374E-005,0.00000E+000,-6.12805E-004,9.92317E-001,0.00000E+000,7.63862E-005,-3.69440E-002,1.00000E+000,3
789,1327,-8.86453E+000,-1.82472E-001,-4.01516E-002,5.38733E-001,-1.33988E-001,2.15751E-002,5.55564E-001,6.80594E-003,5.50237E-001,0,8.31280E+000,-2.21284E+000,9.99908E-001,-3.60231E+001,-3.99852E+001,9.99254E-001,2.02316E-002,-8.35629E-003,-3.21152E-004,2.02352E-002,-8.35989E-003,-6.43543E-001,2.03367E-002,1.02044E+000,1.84444E-004,0.00000E+000,-7.95282E-004,9.92331E-001,0.00000E+000,-5.80903E-004,-3.62887E-002,1.00000E+000,3
789,1337,-8.84892E+000,4.55544E-001,-5.10258E-002,5.39277E-001,-1.39180E-001,-3.37073E-003,5.56958E-001,3.81342E-003,5.30954E-001,0,8.39630E+000,-2.22851E+000,9.99895E-001,-3.56761E+001,-4.01456E+001,9.99718E-001,1.99377E-002,-8.35990E-003,-4.03544E-004,1.99435E-002,-8.36566E-003,-8.16856E-001,2.00295E-002,1.02014E+000,1.77430E-004,0.00000E+000,-9.35563E-004,9.92328E-001,0.00000E+000,-1.03630E-003,-3.62994E-002,1.00000E+000,3
789,1347,-8.82955E+000,1.09785E+000,-4.18039E-002,5.39889E-001,-1.43352E-001,-2.70625E-002,5.59251E-001,3.78862E-003,5.52258E-001,0,8.47626E+000,-2.24716E+000,9.99908E-001,-3.52189E+001,-4.02664E+001,9.99624E-001,1.96423E-002,-8.36442E-003,-4.87145E-004,1.96507E-002,-8.37289E-003,-9.96195E-001,1.97222E-002,1.01984E+000,1.68696E-004,0.00000E+000,-1.07648E-003,9.92324E-001,0.00000E+000,-1.49376E-003,-3.63127E-002,1.00000E+000,3
789,1357,-8.80216E+000,1.74652E+000,7.95872E-003,5.40719E-001,-1.46975E-001,-5.00092E-002,5.62565E-001,3.73335E-003,5.64234E-001,0,8.55635E+000,-2.26005E+000,9.99887E-001,-3.45332E+001,-4.03867E+001,9.99491E-001,1.93442E-002,-8.37083E-003,-5.73160E-004,1.93560E-002,-8.38268E-003,-1.18423E+000,1.94137E-002,1.01953E+000,1.56335E-004,0.00000E+000,-1.21849E-003,9.92318E-001,0.00000E+000,-1.95478E-003,-3.63315E-002,1.00000E+000,3
1069,1327,9.79050E+000,9.38698E-002,-3.93087E-002,9.15335E-001,-3.16700E-002,-5.74217E-002,9.17681E-001,7.31184E-003,4.55723E-001,0,1.41148E+001,-4.77408E-001,9.99900E-001,-2.81536E+001,-3.32268E+001,9.98742E-001,2.00907E-002,-8.36294E-003,-2.12549E-004,2.00923E-002,-8.36453E-003,-4.27969E-001,2.01859E-002,1.02024E+000,-1.01177E-002,0.00000E+000,9.42313E-003,9.92062E-001,0.00000E+000,-5.16074E-004,-2.95989E-002,1.00000E+000,3
1069,1337,9.79939E+000,7.37118E-001,-5.21002E-002,9.07318E-001,-3.52981E-002,-7.57981E-002,9.11163E-001,4.89331E-003,4.13459E-001,0,1.40580E+001,-4.95831E-001,9.99876E-001,-2.79499E+001,-3.32693E+001,9.99197E-001,2.01582E-002,-8.36161E-003,-1.92584E-004,2.01595E-002,-8.36291E-003,-3.86874E-001,2.02568E-002,1.02031E+000,-1.01159E-002,0.00000E+000,9.46170E-003,9.92063E-001,0.00000E+000,-5.62542E-004,-2.96001E-002,1.00000E+000,3
1069,1347,9.81727E+000,1.38323E+000,-3.78556E-002,9.01309E-001,-4.23383E-002,-9.61340E-002,9.07410E-001,4.93123E-003,4.29703E-001,0,1.40391E+001,-5.64403E-001,9.99904E-001,-2.75543E+001,-3.33004E+001,9.99365E-001,2.02263E-002,-8.35987E-003,-1.72110E-004,2.02273E-002,-8.36091E-003,-3.44947E-001,2.03283E-002,1.02038E+000,-1.01134E-002,0.00000E+000,9.50060E-003,9.92064E-001,0.00000E+000,-6.09389E-004,-2.96018E-002,1.00000E+000,3
789,1307,-8.87393E+000,-1.43793E+000,8.03855E-002,5.39028E-001,-1.19171E-001,6.60589E-002,5.55983E-001,7.71406E-003,5.45455E-001,0,8.18029E+000,-2.06637E+000,9.99865E-001,-3.61229E+001,-3.95839E+001,9.97990E-001,2.08119E-002,-8.35403E-003,-1.62774E-004,2.08128E-002,-8.35494E-003,-3.19752E-001,2.09472E-002,1.02103E+000,1.88965E-004,0.00000E+000,-5.17800E-004,9.92333E-001,0.00000E+000,3.19896E-004,-3.62819E-002,1.00000E+000,3
789,1317,-8.86967E+000,-8.11993E-001,1.62853E-002,5.39528E-001,-1.27432E-001,4.55714E-002,5.56243E-001,8.93660E-003,5.30264E-001,0,8.25168E+000,-2.14969E+000,9.99861E-001,-3.60900E+001,-3.98125E+001,9.97350E-001,2.05223E-002,-8.35490E-003,-2.41611E-004,2.05243E-002,-8.35692E-003,-4.79341E-001,2.06419E-002,1.02073E+000,1.87212E-004,0.00000E+000,-6.56360E-004,9.92332E-001,0.00000E+000,-1.29916E-004,-3.62845E-002,1.00000E+000,3
1069,1297,9.77492E+000,-1.82194E+000,7.26210E-002,9.33208E-001,-1.25420E-002,-1.95150E-003,9.33294E-001,5.64030E-003,4.13160E-001,0,1.41847E+001,-2.99602E-001,9.99858E-001,-2.84456E+001,-3.31398E+001,9.98913E-001,1.98884E-002,-8.36597E-003,-2.71476E-004,1.98910E-002,-8.36858E-003,-5.50446E-001,1.99742E-002,1.02004E+000,-1.01213E-002,0.00000E+000,9.30758E-003,9.92060E-001,0.00000E+000,-3.76897E-004,-2.95965E-002,1.00000E+000,3
1069,1307,9.77649E+000,-1.18715E+000,2.11212E-002,9.27287E-001,-1.84574E-002,-1.95301E-002,9.27677E-001,5.59048E-003,3.91707E-001,0,1.41590E+001,-3.66992E-001,9.99925E-001,-2.84324E+001,-3.32140E+001,9.98844E-001,1.99555E-002,-8.36517E-003,-2.52130E-004,1.99577E-002,-8.36742E-003,-5.10033E-001,2.00443E-002,1.02011E+000,-1.01205E-002,0.00000E+000,9.34587E-003,9.92060E-001,0.00000E+000,-4.23019E-004,-2.95970E-002,1.00000E+000,3
1069,1317,9.78331E+000,-5.46333E-001,-9.91833E-003,9.21234E-001,-2.46050E-002,-3.88240E-002,9.22380E-001,7.11948E-003,4.46532E-001,0,1.41368E+001,-4.25847E-001,9.99912E-001,-2.82977E+001,-3.32014E+001,9.98494E-001,2.00231E-002,-8.36406E-003,-2.32349E-004,2.00250E-002,-8.36597E-003,-4.68925E-001,2.01150E-002,1.02017E+000,-1.01191E-002,0.00000E+000,9.38449E-003,9.92061E-001,0.00000E+000,-4.69537E-004,-2.95979E-002,1.00000E+000,3
779,1327,-9.52154E+000,-1.85358E-001,-3.87738E-002,5.27619E-001,-1.32699E-001,2.33249E-002,5.44550E-001,9.96766E-003,5.83126E-001,0,8.14064E+000,-2.18861E+000,9.99932E-001,-3.61033E+001,-4.01081E+001,9.99016E-001,1.99566E-002,-8.26764E-003,-2.95306E-004,1.99597E-002,-8.27073E-003,-5.99390E-001,2.00570E-002,1.02016E+000,3.91472E-004,0.00000E+000,-9.47750E-004,9.92396E-001,0.00000E+000,-5.21048E-004,-3.56536E-002,1.00000E+000,3
779,1337,-9.50713E+000,4.50255E-001,-5.14800E-002,5.27441E-001,-1.38966E-001,-1.79541E-003,5.45444E-001,3.74379E-003,5.56498E-001,0,8.21327E+000,-2.23037E+000,9.99874E-001,-3.57787E+001,-4.03070E+001,9.99597E-001,1.97163E-002,-8.27093E-003,-3.72687E-004,1.97213E-002,-8.27589E-003,-7.62789E-001,1.98060E-002,1.01991E+000,3.85904E-004,0.00000E+000,-1.08154E-003,9.92393E-001,0.00000E+000,-9.28084E-004,-3.56629E-002,1.00000E+000,3
779,1347,-9.48788E+000,1.09202E+000,-3.85112E-002,5.27558E-001,-1.42732E-001,-2.46786E-002,5.47082E-001,4.11700E-003,5.42247E-001,0,8.28253E+000,-2.24442E+000,9.99855E-001,-3.53118E+001,-4.04638E+001,9.99555E-001,1.94746E-002,-8.27527E-003,-4.51302E-004,1.94819E-002,-8.28261E-003,-9.31485E-001,1.95546E-002,1.01967E+000,3.78596E-004,0.00000E+000,-1.21600E-003,9.92389E-001,0.00000E+000,-1.33716E-003,-3.56750E-002,1.00000E+000,3
779,1357,-9.46173E+000,1.74029E+000,7.44021E-003,5.28101E-001,-1.46335E-001,-4.76685E-002,5.50070E-001,3.20787E-003,5.60829E-001,0,8.35797E+000,-2.25473E+000,9.99859E-001,-3.46525E+001,-4.05805E+001,9.99666E-001,1.92305E-002,-8.28112E-003,-5.31803E-004,1.92407E-002,-8.29139E-003,-1.10699E+000,1.93018E-002,1.01942E+000,3.68818E-004,0.00000E+000,-1.35165E-003,9.92384E-001,0.00000E+000,-1.74984E-003,-3.56913E-002,1.00000E+000,3
779,1317,-9.52837E+000,-8.16918E-001,1.75745E-002,5.26551E-001,-1.26527E-001,4.63921E-002,5.43523E-001,1.14933E-002,4.95422E-001,0,8.05407E+000,-2.12599E+000,9.99926E-001,-3.61966E+001,-3.99989E+001,9.98699E-001,2.01954E-002,-8.26639E-003,-2.19966E-004,2.01971E-002,-8.26809E-003,-4.42772E-001,2.03074E-002,1.02040E+000,3.93665E-004,0.00000E+000,-8.14643E-004,9.92397E-001,0.00000E+000,-1.16092E-004,-3.56500E-002,1.00000E+000,3
1079,1337,1.04711E+001,7.48284E-001,-6.00126E-002,9.20983E-001,-3.05477E-002,-8.00372E-002,9.24959E-001,4.41312E-003,4.23027E-001,0,1.42708E+001,-4.10675E-001,9.99957E-001,-2.75499E+001,-3.29838E+001,9.99620E-001,2.01047E-002,-8.34985E-003,-2.78400E-004,2.01075E-002,-8.35257E-003,-5.60510E-001,2.02032E-002,1.02026E+000,-1.00058E-002,0.00000E+000,9.17607E-003,9.92078E-001,0.00000E+000,-2.52809E-004,-2.96238E-002,1.00000E+000,3
1079,1347,1.04888E+001,1.39611E+000,-4.15185E-002,9.14607E-001,-3.60584E-002,-9.65196E-002,9.20393E-001,3.12638E-003,4.50031E-001,0,1.42322E+001,-4.71281E-001,9.99954E-001,-2.71495E+001,-3.29908E+001,9.99802E-001,2.01865E-002,-8.34796E-003,-2.55973E-004,2.01888E-002,-8.35025E-003,-5.13926E-001,2.02890E-002,1.02034E+000,-1.00028E-002,0.00000E+000,9.22189E-003,9.92079E-001,0.00000E+000,-4.25573E-004,-2.96301E-002,1.00000E+000,3
1079,1297,1.04468E+001,-1.80902E+000,7.44117E-002,9.46534E-001,-5.53735E-003,-2.91266E-004,9.46550E-001,6.01056E-003,4.12404E-001,0,1.43683E+001,-1.88918E-001,9.99886E-001,-2.80204E+001,-3.28598E+001,9.99004E-001,1.97803E-002,-8.35453E-003,-3.64486E-004,1.97851E-002,-8.35925E-003,-7.42098E-001,1.98641E-002,1.01993E+000,-1.00122E-002,0.00000E+000,8.99452E-003,9.92074E-001,0.00000E+000,4.31713E-004,-2.96106E-002,1.00000E+000,3
1079,1307,1.04460E+001,-1.17543E+000,1.19552E-002,9.39659E-001,-1.26679E-002,-2.28239E-002,9.40022E-001,6.01280E-003,4.12977E-001,0,1.43472E+001,-2.65498E-001,9.99933E-001,-2.80649E+001,-3.29168E+001,9.98933E-001,1.98610E-002,-8.35375E-003,-3.43476E-004,1.98652E-002,-8.35793E-003,-6.97360E-001,1.99482E-002,1.02001E+000,-1.00114E-002,0.00000E+000,9.03963E-003,9.92075E-001,0.00000E+000,2.61643E-004,-2.96123E-002,1.00000E+000,3
1079,1327,1.04612E+001,1.04764E-001,-4.50808E-002,9.27648E-001,-2.69549E-002,-6.16070E-002,9.30082E-001,6.04424E-003,4.47462E-001,0,1.43065E+001,-3.88641E-001,9.99957E-001,-2.77634E+001,-3.29609E+001,9.99454E-001,2.00236E-002,-8.35127E-003,-3.00199E-004,2.00267E-002,-8.35445E-003,-6.06085E-001,2.01181E-002,1.02018E+000,-1.00079E-002,0.00000E+000,9.13062E-003,9.92076E-001,0.00000E+000,-8.14207E-005,-2.96194E-002,1.00000E+000,3
1079,1317,1.04529E+001,-5.34147E-001,-2.03921E-002,9.33706E-001,-1.87165E-002,-4.26976E-002,9.34869E-001,5.92448E-003,4.71221E-001,0,1.43290E+001,-3.19592E-001,9.99939E-001,-2.79330E+001,-3.28907E+001,9.99096E-001,1.99423E-002,-8.35256E-003,-3.21878E-004,1.99460E-002,-8.35622E-003,-6.51675E-001,2.00332E-002,1.02009E+000,-1.00098E-002,0.00000E+000,9.08514E-003,9.92075E-001,0.00000E+000,9.00576E-005,-2.96157E-002,1.00000E+000,3
779,1307,-9.53322E+000,-1.44384E+000,8.37733E-002,5.25187E-001,-1.20688E-001,6.79589E-002,5.43144E-001,6.88877E-003,5.48482E-001,0,7.96719E+000,-2.08509E+000,9.99888E-001,-3.62337E+001,-3.97693E+001,9.98847E-001,2.04323E-002,-8.26567E-003,-1.45606E-004,2.04330E-002,-8.26641E-003,-2.90694E-001,2.05567E-002,1.02064E+000,3.94992E-004,0.00000E+000,-6.82528E-004,9.92398E-001,0.00000E+000,2.85845E-004,-3.56478E-002,1.00000E+000,3
1089,1337,1.11427E+001,7.60555E-001,-6.52035E-002,9.34197E-001,-2.53245E-002,-8.13223E-002,9.38072E-001,3.43342E-003,4.68337E-001,0,1.44657E+001,-3.32661E-001,9.99932E-001,-2.71416E+001,-3.26694E+001,9.99727E-001,2.01621E-002,-8.32273E-003,-3.31351E-004,2.01660E-002,-8.32659E-003,-6.66374E-001,2.02677E-002,1.02032E+000,-9.86587E-003,0.00000E+000,8.92466E-003,9.92107E-001,0.00000E+000,9.06232E-005,-2.96457E-002,1.00000E+000,3
1089,1347,1.11609E+001,1.40939E+000,-4.67838E-002,9.28189E-001,-2.89951E-002,-9.74403E-002,9.33740E-001,3.87679E-003,4.48286E-001,0,1.44310E+001,-3.57791E-001,9.99929E-001,-2.67365E+001,-3.26825E+001,9.99493E-001,2.02879E-002,-8.32008E-003,-2.99579E-004,2.02911E-002,-8.32321E-003,-5.99905E-001,2.03999E-002,1.02045E+000,-9.86117E-003,0.00000E+000,8.98832E-003,9.92110E-001,0.00000E+000,-1.26616E-004,-2.96537E-002,1.00000E+000,3
769,1347,-1.01465E+001,1.08644E+000,-3.91539E-002,5.15252E-001,-1.42005E-001,-2.22030E-002,5.34923E-001,3.66279E-003,5.49008E-001,0,8.08880E+000,-2.23755E+000,9.99873E-001,-3.54159E+001,-4.06406E+001,9.99446E-001,1.92701E-002,-8.23562E-003,-4.30704E-004,1.92769E-002,-8.24236E-003,-8.96883E-001,1.93441E-002,1.01946E+000,6.41726E-004,0.00000E+000,-1.43658E-003,9.92410E-001,0.00000E+000,-1.20003E-003,-3.51430E-002,1.00000E+000,3
769,1357,-1.01207E+001,1.73426E+000,4.21497E-003,5.16054E-001,-1.45651E-001,-4.60043E-002,5.38184E-001,3.39487E-003,5.54010E-001,0,8.17033E+000,-2.23849E+000,9.99880E-001,-3.47656E+001,-4.07669E+001,9.99683E-001,1.90442E-002,-8.24054E-003,-5.00645E-004,1.90534E-002,-8.24972E-003,-1.05084E+000,1.91104E-002,1.01923E+000,6.32883E-004,0.00000E+000,-1.55290E-003,9.92405E-001,0.00000E+000,-1.60029E-003,-3.51584E-002,1.00000E+000,3
769,1327,-1.01782E+001,-1.90140E-001,-2.71117E-002,5.14153E-001,-1.32502E-001,2.31033E-002,5.31454E-001,7.60401E-003,5.56867E-001,0,7.93778E+000,-2.18715E+000,9.99927E-001,-3.61470E+001,-4.03120E+001,9.98507E-001,1.97161E-002,-8.22971E-003,-2.95728E-004,1.97192E-002,-8.23283E-003,-6.06226E-001,1.98085E-002,1.01991E+000,6.52515E-004,0.00000E+000,-1.20660E-003,9.92415E-001,0.00000E+000,-4.08644E-004,-3.51242E-002,1.00000E+000,3
769,1337,-1.01657E+001,4.44823E-001,-5.01908E-002,5.14571E-001,-1.38670E-001,2.73993E-004,5.32929E-001,3.55320E-003,5.66098E-001,0,8.01256E+000,-2.23043E+000,9.99920E-001,-3.58787E+001,-4.04827E+001,9.99409E-001,1.94937E-002,-8.23201E-003,-3.62492E-004,1.94985E-002,-8.23675E-003,-7.48926E-001,1.95765E-002,1.01969E+000,6.48265E-004,0.00000E+000,-1.32131E-003,9.92413E-001,0.00000E+000,-8.03364E-004,-3.51316E-002,1.00000E+000,3
1089,1327,1.11307E+001,1.14229E-001,-6.30066E-002,9.40514E-001,-2.09522E-002,-6.91013E-002,9.43282E-001,5.48951E-003,4.26844E-001,0,1.45181E+001,-2.89068E-001,9.99931E-001,-2.74109E+001,-3.26969E+001,9.99155E-001,2.00365E-002,-8.32488E-003,-3.62529E-004,2.00411E-002,-8.32951E-003,-7.32224E-001,2.01360E-002,1.02019E+000,-9.86944E-003,0.00000E+000,8.86110E-003,9.92106E-001,0.00000E+000,3.07508E-004,-2.96397E-002,1.00000E+000,3
1089,1317,1.11239E+001,-5.25386E-001,-3.19904E-002,9.46645E-001,-1.48436E-002,-5.00787E-002,9.48085E-001,5.47649E-003,4.59631E-001,0,1.45416E+001,-2.46089E-001,9.99941E-001,-2.75445E+001,-3.26485E+001,9.99373E-001,1.99116E-002,-8.32656E-003,-3.93013E-004,1.99171E-002,-8.33203E-003,-7.97225E-001,2.00054E-002,1.02006E+000,-9.87198E-003,0.00000E+000,8.79796E-003,9.92104E-001,0.00000E+000,5.22956E-004,-2.96354E-002,1.00000E+000,3
1089,1297,1.11184E+001,-1.79645E+000,7.06585E-002,9.59387E-001,4.28977E-004,-3.35813E-003,9.59393E-001,4.94384E-003,4.68798E-001,0,1.45619E+001,-1.00490E-001,9.99901E-001,-2.76056E+001,-3.25449E+001,9.99492E-001,1.96624E-002,-8.32924E-003,-4.53076E-004,1.96698E-002,-8.33657E-003,-9.27071E-001,1.97457E-002,1.01981E+000,-9.87559E-003,0.00000E+000,8.67209E-003,9.92103E-001,0.00000E+000,9.52470E-004,-2.96292E-002,1.00000E+000,3
1089,1307,1.11184E+001,-1.16359E+000,5.68849E-003,9.52871E-001,-7.97313E-003,-2.97418E-002,9.53368E-001,5.45920E-003,4.90913E-001,0,1.45611E+001,-1.97464E-001,9.99928E-001,-2.76439E+001,-3.25953E+001,9.99385E-001,1.97868E-002,-8.32812E-003,-4.23357E-004,1.97931E-002,-8.33450E-003,-8.62505E-001,1.98752E-002,1.01994E+000,-9.87428E-003,0.00000E+000,8.73487E-003,9.92103E-001,0.00000E+000,7.38243E-004,-2.96315E-002,1.00000E+000,3
769,1317,-1.01860E+001,-8.19403E-001,2.22352E-002,5.14360E-001,-1.25943E-001,5.16472E-002,5.32067E-001,8.93113E-003,5.48193E-001,0,7.85535E+000,-2.11633E+000,9.99933E-001,-3.62741E+001,-4.01111E+001,9.99242E-001,1.99365E-002,-8.22820E-003,-2.30156E-004,1.99383E-002,-8.23008E-003,-4.68169E-001,2.00392E-002,1.02014E+000,6.55350E-004,0.00000E+000,-1.09277E-003,9.92416E-001,0.00000E+000,-1.69415E-005,-3.51193E-002,1.00000E+000,3
1099,1327,1.18013E+001,1.25523E-001,-6.93731E-002,9.53866E-001,-1.49581E-002,-6.53856E-002,9.56221E-001,4.74787E-003,4.54854E-001,0,1.46961E+001,-2.11436E-001,9.99845E-001,-2.70161E+001,-3.24056E+001,9.99191E-001,2.00258E-002,-8.31942E-003,-4.13438E-004,2.00318E-002,-8.32545E-003,-8.35468E-001,2.01267E-002,1.02018E+000,-9.71747E-003,0.00000E+000,8.60690E-003,9.92121E-001,0.00000E+000,4.94842E-004,-2.99064E-002,1.00000E+000,3
1099,1337,1.18158E+001,7.73138E-001,-6.79468E-002,9.48205E-001,-1.84803E-002,-8.09215E-002,9.51831E-001,4.60372E-003,4.55262E-001,0,1.46655E+001,-2.26666E-001,9.99833E-001,-2.67030E+001,-3.23848E+001,9.99448E-001,2.02044E-002,-8.31634E-003,-3.71120E-004,2.02092E-002,-8.32117E-003,-7.45383E-001,2.03138E-002,1.02036E+000,-9.71190E-003,0.00000E+000,8.69104E-003,9.92124E-001,0.00000E+000,2.49561E-004,-2.99139E-002,1.00000E+000,3
1099,1347,1.18364E+001,1.42351E+000,-4.27774E-002,9.42442E-001,-2.24410E-002,-9.86578E-002,9.47857E-001,4.37386E-003,4.46957E-001,0,1.46406E+001,-2.53033E-001,9.99878E-001,-2.62488E+001,-3.23814E+001,9.99406E-001,2.03835E-002,-8.31253E-003,-3.27823E-004,2.03872E-002,-8.31627E-003,-6.54432E-001,2.05021E-002,1.02055E+000,-9.70463E-003,0.00000E+000,8.77551E-003,9.92127E-001,0.00000E+000,3.34590E-006,-2.99237E-002,1.00000E+000,3
759,1347,-1.08045E+001,1.08137E+000,-4.27742E-002,5.03274E-001,-1.41046E-001,-2.20956E-002,5.23132E-001,3.26925E-003,5.31163E-001,0,7.90705E+000,-2.20386E+000,9.99871E-001,-3.55140E+001,-4.08154E+001,9.99488E-001,1.90725E-002,-8.22206E-003,-3.90630E-004,1.90780E-002,-8.22765E-003,-8.19774E-001,1.91380E-002,1.01926E+000,9.57334E-004,0.00000E+000,-1.67004E-003,9.92408E-001,0.00000E+000,-1.04363E-003,-3.47145E-002,1.00000E+000,3
759,1357,-1.07797E+001,1.72823E+000,-7.70403E-004,5.03602E-001,-1.45066E-001,-4.57113E-002,5.26069E-001,3.44543E-003,5.52519E-001,0,7.98032E+000,-2.22117E+000,9.99903E-001,-3.48803E+001,-4.09469E+001,9.99544E-001,1.88320E-002,-8.22537E-003,-4.40433E-004,1.88391E-002,-8.23253E-003,-9.32319E-001,1.88889E-002,1.01901E+000,9.48112E-004,0.00000E+000,-1.74595E-003,9.92405E-001,0.00000E+000,-1.45420E-003,-3.47300E-002,1.00000E+000,3
1099,1297,1.17893E+001,-1.78718E+000,5.75865E-002,9.72734E-001,4.59804E-003,-8.42798E-003,9.72781E-001,4.76215E-003,4.92204E-001,0,1.47711E+001,-2.67735E-002,9.99808E-001,-2.72180E+001,-3.22781E+001,9.99192E-001,1.94944E-002,-8.32521E-003,-5.35412E-004,1.95047E-002,-8.33551E-003,-1.10216E+000,1.95732E-002,1.01964E+000,-9.72615E-003,0.00000E+000,8.35678E-003,9.92117E-001,0.00000E+000,1.22398E-003,-2.98947E-002,1.00000E+000,3
1099,1307,1.17904E+001,-1.15179E+000,-5.71368E-004,9.67328E-001,-1.89884E-003,-2.78898E-002,9.67732E-001,5.50008E-003,4.84842E-001,0,1.47617E+001,-8.82332E-002,9.99885E-001,-2.72251E+001,-3.23167E+001,9.99374E-001,1.96712E-002,-8.32371E-003,-4.95355E-004,1.96799E-002,-8.33248E-003,-1.01340E+000,1.97568E-002,1.01982E+000,-9.72427E-003,0.00000E+000,8.43992E-003,9.92118E-001,0.00000E+000,9.81601E-004,-2.98972E-002,1.00000E+000,3
1099,1317,1.17944E+001,-5.14269E-001,-4.13158E-002,9.60786E-001,-8.45944E-003,-4.60465E-002,9.61926E-001,5.44346E-003,4.80821E-001,0,1.47298E+001,-1.57696E-001,9.99919E-001,-2.71560E+001,-3.23588E+001,9.99326E-001,1.98483E-002,-8.32176E-003,-4.54674E-004,1.98556E-002,-8.32910E-003,-9.24452E-001,1.99413E-002,1.02000E+000,-9.72133E-003,0.00000E+000,8.52329E-003,9.92119E-001,0.00000E+000,7.38565E-004,-2.99012E-002,1.00000E+000,3
759,1327,-1.08368E+001,-1.96361E-001,-2.88753E-002,5.00502E-001,-1.32785E-001,2.08160E-002,5.18235E-001,4.42157E-003,5.45022E-001,0,7.73826E+000,-2.18548E+000,9.99907E-001,-3.62523E+001,-4.05023E+001,9.99600E-001,1.95477E-002,-8.21818E-003,-2.95610E-004,1.95508E-002,-8.22132E-003,-6.09909E-001,1.96330E-002,1.01974E+000,9.68423E-004,0.00000E+000,-1.51984E-003,9.92411E-001,0.00000E+000,-2.31165E-004,-3.46959E-002,1.00000E+000,3
759,1337,-1.08233E+001,4.40732E-001,-4.84939E-002,5.01731E-001,-1.37087E-001,-4.95685E-005,5.20122E-001,3.32447E-003,5.56340E-001,0,7.81877E+000,-2.20097E+000,9.99860E-001,-3.59582E+001,-4.06483E+001,9.99541E-001,1.93107E-002,-8.21977E-003,-3.42559E-004,1.93149E-002,-8.22403E-003,-7.12779E-001,1.93857E-002,1.01950E+000,9.63828E-004,0.00000E+000,-1.59479E-003,9.92410E-001,0.00000E+000,-6.36558E-004,-3.47036E-002,1.00000E+000,3
759,1317,-1.08443E+001,-8.24102E-001,2.41222E-002,4.99996E-001,-1.25090E-001,4.82056E-002,5.17655E-001,6.85658E-003,5.83241E-001,0,7.64820E+000,-2.12616E+000,9.99919E-001,-3.63659E+001,-4.02607E+001,9.99368E-001,1.97824E-002,-8.21730E-003,-2.49996E-004,1.97847E-002,-8.21953E-003,-5.11512E-001,1.98787E-002,1.01998E+000,9.71073E-004,0.00000E+000,-1.44553E-003,9.92412E-001,0.00000E+000,1.70810E-004,-3.46915E-002,1.00000E+000,3
749,1317,-1.14983E+001,-8.26827E-001,3.59338E-002,4.88323E-001,-1.24553E-001,4.84296E-002,5.06279E-001,5.45039E-003,5.89476E-001,0,7.47178E+000,-2.11322E+000,9.99907E-001,-3.63607E+001,-4.04150E+001,9.99184E-001,1.96839E-002,-8.20472E-003,-2.63639E-004,1.96864E-002,-8.20721E-003,-5.41570E-001,1.97768E-002,1.01988E+000,1.31188E-003,0.00000E+000,-1.81298E-003,9.92407E-001,0.00000E+000,4.39033E-004,-3.42095E-002,1.00000E+000,3
749,1327,-1.14925E+001,-1.99172E-001,-2.54349E-002,4.88713E-001,-1.31570E-001,2.07836E-002,5.06540E-001,3.88577E-003,5.82961E-001,0,7.56011E+000,-2.16796E+000,9.99875E-001,-3.62956E+001,-4.06262E+001,9.99337E-001,1.94217E-002,-8.20512E-003,-2.93381E-004,1.94248E-002,-8.20824E-003,-6.08358E-001,1.95023E-002,1.01961E+000,1.30959E-003,0.00000E+000,-1.85579E-003,9.92407E-001,0.00000E+000,1.74320E-005,-3.42132E-002,1.00000E+000,3
749,1337,-1.14799E+001,4.36821E-001,-4.49152E-002,4.89497E-001,-1.35934E-001,1.10662E-003,5.08022E-001,3.04705E-003,5.76526E-001,0,7.62986E+000,-2.18846E+000,9.99858E-001,-3.60121E+001,-4.08002E+001,9.99715E-001,1.91572E-002,-8.20611E-003,-3.24678E-004,1.91611E-002,-8.20996E-003,-6.79711E-001,1.92263E-002,1.01934E+000,1.30459E-003,0.00000E+000,-1.89894E-003,9.92406E-001,0.00000E+000,-4.07471E-004,-3.42210E-002,1.00000E+000,3
749,1347,-1.14624E+001,1.07583E+000,-4.42539E-002,4.90606E-001,-1.40315E-001,-2.23138E-002,5.10764E-001,3.15544E-003,5.38199E-001,0,7.71520E+000,-2.19505E+000,9.99897E-001,-3.55999E+001,-4.09898E+001,9.99717E-001,1.88914E-002,-8.20750E-003,-3.57022E-004,1.88961E-002,-8.21220E-003,-7.54684E-001,1.89499E-002,1.01907E+000,1.29770E-003,0.00000E+000,-1.94226E-003,9.92405E-001,0.00000E+000,-8.34055E-004,-3.42319E-002,1.00000E+000,3
1109,1297,1.24591E+001,-1.77920E+000,4.65954E-002,9.86322E-001,9.64596E-003,-4.54275E-003,9.86379E-001,4.39195E-003,4.76417E-001,0,1.49507E+001,4.19512E-002,9.99779E-001,-2.68385E+001,-3.20556E+001,9.99103E-001,1.93924E-002,-8.35904E-003,-5.64963E-004,1.94039E-002,-8.37054E-003,-1.16578E+000,1.94647E-002,1.01954E+000,-9.46224E-003,0.00000E+000,8.03277E-003,9.92097E-001,0.00000E+000,1.52251E-003,-3.02617E-002,1.00000E+000,3
1109,1307,1.24603E+001,-1.14273E+000,-8.48179E-003,9.80974E-001,4.32115E-003,-2.07217E-002,9.81202E-001,5.10300E-003,4.58813E-001,0,1.49301E+001,-7.79137E-003,9.99845E-001,-2.68390E+001,-3.20872E+001,9.99367E-001,1.95935E-002,-8.35724E-003,-5.16414E-004,1.96030E-002,-8.36678E-003,-1.05811E+000,1.96729E-002,1.01974E+000,-9.46009E-003,0.00000E+000,8.13570E-003,9.92098E-001,0.00000E+000,1.17010E-003,-3.02654E-002,1.00000E+000,3
1109,1317,1.24639E+001,-5.04250E-001,-4.99277E-002,9.74179E-001,-1.62024E-003,-3.88473E-002,9.74955E-001,4.63975E-003,4.55904E-001,0,1.48945E+001,-6.50232E-002,9.99912E-001,-2.67771E+001,-3.21107E+001,9.99318E-001,1.97950E-002,-8.35491E-003,-4.67127E-004,1.98028E-002,-8.36266E-003,-9.50432E-001,1.98823E-002,1.01995E+000,-9.45677E-003,0.00000E+000,8.23900E-003,9.92100E-001,0.00000E+000,8.16458E-004,-3.02711E-002,1.00000E+000,3
749,1357,-1.14372E+001,1.72195E+000,-3.03382E-003,4.91689E-001,-1.44283E-001,-4.52082E-002,5.14412E-001,3.72344E-003,5.45673E-001,0,7.79765E+000,-2.21164E+000,9.99922E-001,-3.49623E+001,-4.11396E+001,9.99695E-001,1.86230E-002,-8.20958E-003,-3.91208E-004,1.86287E-002,-8.21528E-003,-8.35114E-001,1.86718E-002,1.01880E+000,1.28761E-003,0.00000E+000,-1.98597E-003,9.92404E-001,0.00000E+000,-1.26453E-003,-3.42478E-002,1.00000E+000,3
1109,1327,1.24721E+001,1.36539E-001,-7.50538E-002,9.67160E-001,-8.22539E-003,-6.04082E-002,9.69079E-001,3.72764E-003,4.47828E-001,0,1.48677E+001,-1.22416E-001,9.99869E-001,-2.66129E+001,-3.21378E+001,9.99363E-001,1.99972E-002,-8.35188E-003,-4.16933E-004,2.00033E-002,-8.35801E-003,-8.42414E-001,2.00931E-002,1.02016E+000,-9.45195E-003,0.00000E+000,8.34269E-003,9.92102E-001,0.00000E+000,4.61449E-004,-3.02794E-002,1.00000E+000,3
1109,1337,1.24861E+001,7.83589E-001,-7.75416E-002,9.60565E-001,-1.29303E-002,-8.11162E-002,9.64071E-001,4.98355E-003,4.61484E-001,0,1.48428E+001,-1.47788E-001,9.99882E-001,-2.63162E+001,-3.21088E+001,9.99379E-001,2.02003E-002,-8.34810E-003,-3.65655E-004,2.02050E-002,-8.35278E-003,-7.33698E-001,2.03058E-002,1.02036E+000,-9.44548E-003,0.00000E+000,8.44700E-003,9.92106E-001,0.00000E+000,1.04340E-004,-3.02906E-002,1.00000E+000,3
1109,1347,1.25106E+001,1.43649E+000,-3.76125E-002,9.55049E-001,-1.69007E-002,-9.80045E-002,9.60213E-001,5.01437E-003,4.62425E-001,0,1.48185E+001,-1.77077E-001,9.99863E-001,-2.57767E+001,-3.20925E+001,9.99359E-001,2.04046E-002,-8.34298E-003,-3.12659E-004,2.04080E-002,-8.34638E-003,-6.23051E-001,2.05204E-002,1.02057E+000,-9.43611E-003,0.00000E+000,8.55198E-003,9.92110E-001,0.00000E+000,-2.55060E-004,-3.03067E-002,1.00000E+000,3
739,1337,-1.21360E+001,4.32116E-001,-4.37722E-002,4.77376E-001,-1.34879E-001,5.77852E-004,4.96065E-001,3.26262E-003,5.73449E-001,0,7.44746E+000,-2.17132E+000,9.99886E-001,-3.60630E+001,-4.09707E+001,9.99667E-001,1.89781E-002,-8.17627E-003,-3.40578E-004,1.89824E-002,-8.18055E-003,-7.18470E-001,1.90426E-002,1.01916E+000,1.61187E-003,0.00000E+000,-2.23228E-003,9.92420E-001,0.00000E+000,-3.35092E-004,-3.37607E-002,1.00000E+000,3
739,1347,-1.21191E+001,1.07084E+000,-4.27148E-002,4.78362E-001,-1.39219E-001,-2.08641E-002,4.98645E-001,3.05886E-003,5.51764E-001,0,7.52466E+000,-2.18809E+000,9.99923E-001,-3.56572E+001,-4.11591E+001,9.99718E-001,1.86743E-002,-8.17750E-003,-3.70884E-004,1.86794E-002,-8.18262E-003,-7.91183E-001,1.87271E-002,1.01885E+000,1.60422E-003,0.00000E+000,-2.26853E-003,9.92419E-001,0.00000E+000,-8.39715E-004,-3.37732E-002,1.00000E+000,3
739,1357,-1.20947E+001,1.71690E+000,-2.37813E-003,4.79274E-001,-1.42604E-001,-4.26825E-002,5.01858E-001,2.59166E-003,5.40650E-001,0,7.60081E+000,-2.19084E+000,9.99946E-001,-3.50310E+001,-4.13190E+001,9.99788E-001,1.83675E-002,-8.17934E-003,-4.03187E-004,1.83736E-002,-8.18547E-003,-8.69925E-001,1.84100E-002,1.01854E+000,1.59298E-003,0.00000E+000,-2.30509E-003,9.92418E-001,0.00000E+000,-1.34868E-003,-3.37915E-002,1.00000E+000,3
739,1327,-1.21490E+001,-2.03382E-001,-2.41946E-002,4.76106E-001,-1.29996E-001,2.01689E-002,4.93946E-001,4.46271E-003,5.55314E-001,0,7.37069E+000,-2.13417E+000,9.99923E-001,-3.63523E+001,-4.07999E+001,9.99508E-001,1.92805E-002,-8.17540E-003,-3.11359E-004,1.92840E-002,-8.17893E-003,-6.49641E-001,1.93579E-002,1.01947E+000,1.61752E-003,0.00000E+000,-2.19615E-003,9.92420E-001,0.00000E+000,1.67801E-004,-3.37515E-002,1.00000E+000,3
1119,1297,1.31273E+001,-1.77043E+000,3.42840E-002,9.98014E-001,1.52976E-002,-1.69675E-003,9.98132E-001,4.86901E-003,4.69051E-001,0,1.51047E+001,1.21537E-001,9.99878E-001,-2.64814E+001,-3.18139E+001,9.99457E-001,1.92938E-002,-8.31890E-003,-6.01348E-004,1.93069E-002,-8.33199E-003,-1.24700E+000,1.93671E-002,1.01944E+000,-9.18307E-003,0.00000E+000,7.69628E-003,9.92149E-001,0.00000E+000,1.30963E-003,-3.05672E-002,1.00000E+000,3
1119,1307,1.31301E+001,-1.13370E+000,-1.73501E-002,9.92794E-001,9.10430E-003,-2.00779E-002,9.93039E-001,3.56387E-003,4.72818E-001,0,1.50947E+001,5.39998E-002,9.99881E-001,-2.64515E+001,-3.18364E+001,9.99783E-001,1.95063E-002,-8.31675E-003,-5.48372E-004,1.95171E-002,-8.32756E-003,-1.12867E+000,1.95869E-002,1.01966E+000,-9.18032E-003,0.00000E+000,7.80854E-003,9.92150E-001,0.00000E+000,9.22344E-004,-3.05721E-002,1.00000E+000,3
1119,1317,1.31353E+001,-4.95180E-001,-5.70115E-002,9.86692E-001,2.95915E-003,-3.95560E-002,9.87489E-001,3.23023E-003,4.43977E-001,0,1.50751E+001,2.70889E-003,9.99909E-001,-2.63629E+001,-3.18741E+001,9.99741E-001,1.97190E-002,-8.31411E-003,-4.94774E-004,1.97277E-002,-8.32284E-003,-1.01083E+000,1.98078E-002,1.01987E+000,-9.17653E-003,0.00000E+000,7.92105E-003,9.92152E-001,0.00000E+000,5.34184E-004,-3.05789E-002,1.00000E+000,3
1119,1327,1.31446E+001,1.47011E-001,-7.70205E-002,9.79911E-001,-2.68362E-003,-5.90676E-002,9.81694E-001,3.13325E-003,4.24069E-001,0,1.50443E+001,-4.21920E-002,9.99900E-001,-2.61730E+001,-3.18948E+001,9.99651E-001,1.99325E-002,-8.31072E-003,-4.40195E-004,1.99393E-002,-8.31758E-003,-8.92717E-001,2.00304E-002,1.02009E+000,-9.17117E-003,0.00000E+000,8.03403E-003,9.92155E-001,0.00000E+000,1.44389E-004,-3.05885E-002,1.00000E+000,3
1119,1337,1.31598E+001,7.94185E-001,-7.67722E-002,9.73702E-001,-8.19484E-003,-7.96092E-002,9.76985E-001,4.02581E-003,4.53077E-001,0,1.50253E+001,-8.32734E-002,9.99936E-001,-2.58545E+001,-3.18606E+001,9.99335E-001,2.01471E-002,-8.30652E-003,-3.84436E-004,2.01523E-002,-8.31171E-003,-7.73932E-001,2.02550E-002,1.02031E+000,-9.16408E-003,0.00000E+000,8.14778E-003,9.92159E-001,0.00000E+000,-2.48034E-004,-3.06012E-002,1.00000E+000,3
1119,1347,1.31830E+001,1.44675E+000,-3.94133E-002,9.67451E-001,-1.18344E-002,-9.61569E-002,9.72290E-001,5.26975E-003,4.44755E-001,0,1.49889E+001,-1.10911E-001,9.99921E-001,-2.53418E+001,-3.18471E+001,9.99515E-001,2.03625E-002,-8.30107E-003,-3.27180E-004,2.03662E-002,-8.30480E-003,-6.53890E-001,2.04814E-002,1.02053E+000,-9.15437E-003,0.00000E+000,8.26200E-003,9.92164E-001,0.00000E+000,-6.42121E-004,-3.06186E-002,1.00000E+000,3
739,1317,-1.21543E+001,-8.30795E-001,3.51429E-002,4.75888E-001,-1.23479E-001,4.42796E-002,4.93637E-001,4.98572E-003,5.72092E-001,0,7.29602E+000,-2.07984E+000,9.99929E-001,-3.64149E+001,-4.05736E+001,9.99469E-001,1.95799E-002,-8.17507E-003,-2.83942E-004,1.95828E-002,-8.17798E-003,-5.86073E-001,1.96712E-002,1.01977E+000,1.61997E-003,0.00000E+000,-2.16035E-003,9.92421E-001,0.00000E+000,6.66220E-004,-3.37475E-002,1.00000E+000,3
1129,1297,1.37975E+001,-1.76134E+000,2.75242E-002,1.00997E+000,2.07006E-002,1.89343E-003,1.01018E+000,6.35727E-003,4.51084E-001,0,1.52594E+001,1.98887E-001,9.99943E-001,-2.60810E+001,-3.15845E+001,9.99084E-001,1.91382E-002,-8.27065E-003,-6.70255E-004,1.91546E-002,-8.28703E-003,-1.39999E+000,1.92124E-002,1.01928E+000,-8.90881E-003,0.00000E+000,7.31305E-003,9.92207E-001,0.00000E+000,6.94843E-004,-3.07817E-002,1.00000E+000,3
1129,1307,1.38003E+001,-1.12540E+000,-2.44742E-002,1.00450E+000,1.35790E-002,-1.75611E-002,1.00474E+000,9.01061E-003,4.53300E-001,0,1.52505E+001,1.17222E-001,9.99926E-001,-2.60525E+001,-3.16174E+001,9.98368E-001,1.94048E-002,-8.26795E-003,-6.03732E-004,1.94179E-002,-8.28111E-003,-1.24922E+000,1.94878E-002,1.01956E+000,-8.90525E-003,0.00000E+000,7.44912E-003,9.92208E-001,0.00000E+000,3.71810E-004,-3.07860E-002,1.00000E+000,3
1129,1317,1.38071E+001,-4.86467E-001,-6.26386E-002,9.99579E-001,7.42773E-003,-3.71176E-002,1.00030E+000,5.41898E-003,4.28312E-001,0,1.52493E+001,6.32699E-002,9.99931E-001,-2.59360E+001,-3.16482E+001,9.98475E-001,1.96719E-002,-8.26458E-003,-5.36352E-004,1.96822E-002,-8.27487E-003,-1.09948E+000,1.97651E-002,1.01983E+000,-8.90029E-003,0.00000E+000,7.58555E-003,9.92211E-001,0.00000E+000,4.79080E-005,-3.07919E-002,1.00000E+000,3
729,1347,-1.27734E+001,1.06722E+000,-3.49839E-002,4.66968E-001,-1.38181E-001,-1.93499E-002,4.87368E-001,3.30270E-003,5.54435E-001,0,7.34695E+000,-2.16905E+000,9.99927E-001,-3.56562E+001,-4.13262E+001,9.99761E-001,1.84692E-002,-8.07572E-003,-3.38756E-004,1.84735E-002,-8.08004E-003,-7.31030E-001,1.85217E-002,1.01864E+000,1.99146E-003,0.00000E+000,-2.58454E-003,9.92493E-001,0.00000E+000,-7.90202E-004,-3.29828E-002,1.00000E+000,3
729,1357,-1.27505E+001,1.71252E+000,-3.96228E-004,4.67723E-001,-1.41378E-001,-4.08142E-002,4.90324E-001,2.89050E-003,5.53927E-001,0,7.41925E+000,-2.17222E+000,9.99934E-001,-3.50666E+001,-4.14817E+001,9.99801E-001,1.81126E-002,-8.07720E-003,-3.67774E-004,1.81178E-002,-8.08236E-003,-8.04371E-001,1.81529E-002,1.01828E+000,1.97915E-003,0.00000E+000,-2.60975E-003,9.92492E-001,0.00000E+000,-1.43363E-003,-3.30047E-002,1.00000E+000,3
1129,1327,1.38168E+001,1.55783E-001,-8.43671E-002,9.93609E-001,2.48782E-003,-5.61375E-002,9.95197E-001,6.50601E-003,3.81065E-001,0,1.52293E+001,3.30655E-002,9.99904E-001,-2.57445E+001,-3.16762E+001,9.98906E-001,1.99396E-002,-8.26045E-003,-4.68019E-004,1.99473E-002,-8.26821E-003,-9.50556E-001,2.00443E-002,1.02010E+000,-8.89373E-003,0.00000E+000,7.72235E-003,9.92214E-001,0.00000E+000,-2.76880E-004,-3.07997E-002,1.00000E+000,3
729,1337,-1.27919E+001,4.28097E-001,-4.23159E-002,4.65463E-001,-1.32947E-001,2.06794E-003,4.84082E-001,3.03879E-003,5.54670E-001,0,7.26202E+000,-2.13634E+000,9.99927E-001,-3.61043E+001,-4.11394E+001,9.99714E-001,1.88232E-002,-8.07460E-003,-3.11272E-004,1.88268E-002,-8.07821E-003,-6.62931E-001,1.88898E-002,1.01900E+000,2.00093E-003,0.00000E+000,-2.55947E-003,9.92494E-001,0.00000E+000,-1.50319E-004,-3.29660E-002,1.00000E+000,3
729,1327,-1.28041E+001,-2.05422E-001,-1.75206E-002,4.64014E-001,-1.28035E-001,2.22773E-002,4.81869E-001,3.88779E-003,5.64853E-001,0,7.18099E+000,-2.09773E+000,9.99904E-001,-3.63677E+001,-4.09334E+001,9.99493E-001,1.91738E-002,-8.07393E-003,-2.85685E-004,1.91768E-002,-8.07693E-003,-6.00643E-001,1.92560E-002,1.01936E+000,2.00693E-003,0.00000E+000,-2.53460E-003,9.92494E-001,0.00000E+000,4.84386E-004,-3.29553E-002,1.00000E+000,3
1129,1337,1.38384E+001,8.08319E-001,-6.28836E-002,9.87822E-001,-2.60496E-003,-7.89781E-002,9.90978E-001,5.96818E-003,4.82151E-001,0,1.52246E+001,-1.29859E-002,9.99933E-001,-2.52888E+001,-3.15675E+001,9.99169E-001,2.02109E-002,-8.25404E-003,-3.96405E-004,2.02164E-002,-8.25956E-003,-7.97699E-001,2.03288E-002,1.02038E+000,-8.88237E-003,0.00000E+000,7.86115E-003,9.92220E-001,0.00000E+000,-6.06404E-004,-3.08132E-002,1.00000E+000,3
729,1317,-1.28119E+001,-8.34182E-001,3.20210E-002,4.62647E-001,-1.21339E-001,4.41824E-002,4.80331E-001,5.16404E-003,5.78357E-001,0,7.09539E+000,-2.04411E+000,9.99913E-001,-3.64960E+001,-4.07070E+001,9.99117E-001,1.95225E-002,-8.07357E-003,-2.61359E-004,1.95250E-002,-8.07605E-003,-5.42577E-001,1.96218E-002,1.01971E+000,2.01056E-003,0.00000E+000,-2.50983E-003,9.92494E-001,0.00000E+000,1.11662E-003,-3.29489E-002,1.00000E+000,3
1129,1347,1.38584E+001,1.46000E+000,-3.67566E-002,9.80975E-001,-5.83019E-003,-9.51560E-002,9.85596E-001,6.40036E-003,4.68265E-001,0,1.51785E+001,-2.99211E-002,9.99899E-001,-2.48497E+001,-3.15445E+001,9.99268E-001,2.04809E-002,-8.24775E-003,-3.25186E-004,2.04846E-002,-8.25143E-003,-6.48433E-001,2.06132E-002,1.02065E+000,-8.87125E-003,0.00000E+000,7.99939E-003,9.92225E-001,0.00000E+000,-9.34584E-004,-3.08264E-002,1.00000E+000,3
719,1347,-1.34298E+001,1.06300E+000,-3.82291E-002,4.54458E-001,-1.36261E-001,-2.11000E-002,4.74916E-001,4.47981E-003,5.72269E-001,0,7.16089E+000,-2.14184E+000,9.99910E-001,-3.57144E+001,-4.14713E+001,9.99657E-001,1.83450E-002,-8.01911E-003,-3.28370E-004,1.83491E-002,-8.02320E-003,-7.13483E-001,1.83972E-002,1.01851E+000,2.36201E-003,0.00000E+000,-2.93176E-003,9.92529E-001,0.00000E+000,-5.96339E-004,-3.23994E-002,1.00000E+000,3
719,1357,-1.34066E+001,1.70791E+000,-2.35277E-003,4.55991E-001,-1.40139E-001,-4.04387E-002,4.78751E-001,3.21290E-003,5.85990E-001,0,7.23901E+000,-2.15788E+000,9.99924E-001,-3.51125E+001,-4.16302E+001,9.99780E-001,1.79533E-002,-8.01990E-003,-3.47236E-004,1.79579E-002,-8.02455E-003,-7.65806E-001,1.79917E-002,1.01811E+000,2.34872E-003,0.00000E+000,-2.93297E-003,9.92529E-001,0.00000E+000,-1.34780E-003,-3.24245E-002,1.00000E+000,3
719,1337,-1.34468E+001,4.25103E-001,-4.07403E-002,4.53538E-001,-1.31013E-001,8.81386E-004,4.72082E-001,3.99173E-003,5.66391E-001,0,7.08381E+000,-2.10139E+000,9.99871E-001,-3.61270E+001,-4.12773E+001,9.99552E-001,1.87330E-002,-8.01855E-003,-3.11328E-004,1.87366E-002,-8.02217E-003,-6.66675E-001,1.88009E-002,1.01891E+000,2.37182E-003,0.00000E+000,-2.93055E-003,9.92529E-001,0.00000E+000,1.49340E-004,-3.23808E-002,1.00000E+000,3
719,1327,-1.34589E+001,-2.07548E-001,-1.45744E-002,4.51750E-001,-1.25774E-001,2.08062E-002,4.69394E-001,2.91854E-003,5.86540E-001,0,6.99861E+000,-2.06071E+000,9.99867E-001,-3.63863E+001,-4.10541E+001,9.99557E-001,1.91175E-002,-8.01821E-003,-2.96091E-004,1.91207E-002,-8.02144E-003,-6.25084E-001,1.92031E-002,1.01930E+000,2.37816E-003,0.00000E+000,-2.92936E-003,9.92529E-001,0.00000E+000,8.89698E-004,-3.23689E-002,1.00000E+000,3
719,1317,-1.34665E+001,-8.36347E-001,3.88144E-002,4.49472E-001,-1.19663E-001,4.07851E-002,4.66914E-001,4.20956E-003,5.87645E-001,0,6.90488E+000,-2.01324E+000,9.99892E-001,-3.65011E+001,-4.08409E+001,9.99271E-001,1.94998E-002,-8.01806E-003,-2.82398E-004,1.95027E-002,-8.02096E-003,-5.87906E-001,1.96048E-002,1.01969E+000,2.38145E-003,0.00000E+000,-2.92817E-003,9.92529E-001,0.00000E+000,1.62728E-003,-3.23627E-002,1.00000E+000,3
1139,1297,1.44718E+001,-1.75312E+000,2.49259E-002,1.02420E+000,2.55562E-002,3.80551E-003,1.02453E+000,5.34685E-003,3.79237E-001,0,1.54545E+001,2.79813E-001,9.99957E-001,-2.56049E+001,-3.14039E+001,9.98980E-001,1.90436E-002,-8.24414E-003,-6.92061E-004,1.90612E-002,-8.26168E-003,-1.45187E+000,1.91174E-002,1.01919E+000,-8.61197E-003,0.00000E+000,6.99682E-003,9.92239E-001,0.00000E+000,2.10443E-004,-3.08941E-002,1.00000E+000,3
1139,1307,1.44729E+001,-1.11815E+000,-3.38860E-002,1.01819E+000,1.74209E-002,-1.77229E-002,1.01849E+000,6.19924E-003,4.00492E-001,0,1.54461E+001,1.85052E-001,9.99948E-001,-2.56148E+001,-3.14263E+001,9.98917E-001,1.93599E-002,-8.24155E-003,-6.21710E-004,1.93739E-002,-8.25555E-003,-1.28969E+000,1.94442E-002,1.01951E+000,-8.60828E-003,0.00000E+000,7.13941E-003,9.92240E-001,0.00000E+000,-9.17328E-005,-3.08976E-002,1.00000E+000,3
1139,1337,1.45121E+001,8.19820E-001,-6.74868E-002,1.00033E+000,2.96681E-003,-8.15727E-002,1.00365E+000,6.81354E-003,4.95344E-001,0,1.54118E+001,6.61445E-002,9.99909E-001,-2.48302E+001,-3.12830E+001,9.98413E-001,2.03172E-002,-8.22651E-003,-4.00130E-004,2.03228E-002,-8.23212E-003,-8.02971E-001,2.04445E-002,1.02049E+000,-8.58000E-003,0.00000E+000,7.57169E-003,9.92253E-001,0.00000E+000,-1.00779E-003,-3.09241E-002,1.00000E+000,3
1139,1347,1.45380E+001,1.47282E+000,-2.56734E-002,9.95056E-001,-2.10060E-003,-9.85428E-002,9.99925E-001,6.65226E-003,4.88135E-001,0,1.53929E+001,2.64306E-002,9.99874E-001,-2.42736E+001,-3.12690E+001,9.98406E-001,2.06389E-002,-8.21902E-003,-3.22747E-004,2.06426E-002,-8.22263E-003,-6.40689E-001,2.07843E-002,1.02082E+000,-8.56469E-003,0.00000E+000,7.71718E-003,9.92260E-001,0.00000E+000,-1.31610E-003,-3.09385E-002,1.00000E+000,3
1139,1327,1.44914E+001,1.67757E-001,-8.80746E-002,1.00696E+000,6.99779E-003,-5.86802E-002,1.00870E+000,7.09428E-003,4.34510E-001,0,1.54291E+001,1.01000E-001,9.99891E-001,-2.52681E+001,-3.13676E+001,9.98238E-001,1.99961E-002,-8.23323E-003,-4.76448E-004,2.00041E-002,-8.24127E-003,-9.66659E-001,2.01072E-002,1.02016E+000,-8.59347E-003,0.00000E+000,7.42657E-003,9.92247E-001,0.00000E+000,-7.00267E-004,-3.09115E-002,1.00000E+000,3
1139,1317,1.44771E+001,-4.78822E-001,-7.78665E-002,1.01158E+000,1.13498E-002,-3.86419E-002,1.01238E+000,6.87477E-003,4.18534E-001,0,1.54251E+001,1.25397E-001,9.99925E-001,-2.55515E+001,-3.14154E+001,9.98856E-001,1.96769E-002,-8.23823E-003,-5.50309E-004,1.96877E-002,-8.24907E-003,-1.12893E+000,1.97737E-002,1.01984E+000,-8.60287E-003,0.00000E+000,7.28245E-003,9.92243E-001,0.00000E+000,-3.94854E-004,-3.09026E-002,1.00000E+000,3
709,1347,-1.40863E+001,1.05987E+000,-4.02120E-002,4.41663E-001,-1.33169E-001,-2.12277E-002,4.61790E-001,4.14445E-003,5.69934E-001,0,6.96517E+000,-2.09040E+000,9.99892E-001,-3.57640E+001,-4.16127E+001,9.99646E-001,1.82140E-002,-7.87789E-003,-3.27096E-004,1.82181E-002,-7.88199E-003,-7.18128E-001,1.82731E-002,1.01838E+000,2.80300E-003,0.00000E+000,-3.36334E-003,9.92653E-001,0.00000E+000,-4.80433E-004,-3.19364E-002,1.00000E+000,3
709,1357,-1.40637E+001,1.70326E+000,-6.41254E-003,4.43256E-001,-1.37004E-001,-3.96055E-002,4.65634E-001,3.26253E-003,5.62247E-001,0,7.04118E+000,-2.11097E+000,9.99924E-001,-3.51767E+001,-4.18027E+001,9.99816E-001,1.77845E-002,-7.87795E-003,-3.34357E-004,1.77888E-002,-7.88231E-003,-7.46342E-001,1.78272E-002,1.01794E+000,2.78893E-003,0.00000E+000,-3.34146E-003,9.92654E-001,0.00000E+000,-1.22933E-003,-3.19605E-002,1.00000E+000,3
709,1337,-1.41015E+001,4.22332E-001,-3.83606E-002,4.40850E-001,-1.28887E-001,-2.88813E-003,4.59314E-001,3.96432E-003,5.55808E-001,0,6.90073E+000,-2.05373E+000,9.99847E-001,-3.61395E+001,-4.14247E+001,9.99483E-001,1.86397E-002,-7.87786E-003,-3.22008E-004,1.86436E-002,-7.88177E-003,-6.95618E-001,1.87176E-002,1.01881E+000,2.81269E-003,0.00000E+000,-3.38506E-003,9.92653E-001,0.00000E+000,2.63111E-004,-3.19198E-002,1.00000E+000,3
709,1317,-1.41177E+001,-8.36072E-001,5.37124E-002,4.38518E-001,-1.16495E-001,4.09804E-002,4.55575E-001,5.23383E-003,6.02287E-001,0,6.73780E+000,-1.96539E+000,9.99929E-001,-3.64266E+001,-4.09517E+001,9.99308E-001,1.94816E-002,-7.87783E-003,-3.16749E-004,1.94853E-002,-7.88149E-003,-6.63214E-001,1.96034E-002,1.01967E+000,2.82211E-003,0.00000E+000,-3.42812E-003,9.92652E-001,0.00000E+000,1.73742E-003,-3.19036E-002,1.00000E+000,3
709,1327,-1.41100E+001,-2.08351E-001,-1.69440E-004,4.40486E-001,-1.23291E-001,1.77661E-002,4.57760E-001,5.51953E-003,5.74363E-001,0,6.83568E+000,-2.01201E+000,9.99913E-001,-3.63111E+001,-4.11958E+001,9.99408E-001,1.90615E-002,-7.87784E-003,-3.18985E-004,1.90653E-002,-7.88161E-003,-6.78304E-001,1.91604E-002,1.01924E+000,2.81820E-003,0.00000E+000,-3.40661E-003,9.92652E-001,0.00000E+000,1.00112E-003,-3.19103E-002,1.00000E+000,3
1149,1297,1.51429E+001,-1.74399E+000,1.08928E-002,1.03672E+000,2.99477E-002,2.23109E-003,1.03715E+000,9.25068E-003,3.94251E-001,0,1.56367E+001,3.56397E-001,9.99923E-001,-2.51955E+001,-3.11420E+001,9.98260E-001,1.90207E-002,-8.21370E-003,-6.80014E-004,1.90377E-002,-8.23067E-003,-1.42943E+000,1.90957E-002,1.01917E+000,-8.30981E-003,0.00000E+000,6.74312E-003,9.92274E-001,0.00000E+000,-3.08566E-004,-3.09970E-002,1.00000E+000,3
1149,1307,1.51464E+001,-1.10712E+000,-4.10297E-002,1.03174E+000,2.37131E-002,-1.74192E-002,1.03216E+000,6.02195E-003,3.86982E-001,0,1.56364E+001,2.86415E-001,9.99948E-001,-2.51568E+001,-3.11618E+001,9.98936E-001,1.93729E-002,-8.21124E-003,-6.17432E-004,1.93867E-002,-8.22506E-003,-1.28163E+000,1.94607E-002,1.01953E+000,-8.30501E-003,0.00000E+000,6.86789E-003,9.92276E-001,0.00000E+000,-5.72579E-004,-3.10006E-002,1.00000E+000,3
1149,1317,1.51532E+001,-4.66621E-001,-7.65661E-002,1.02555E+000,1.70815E-002,-3.85364E-002,1.02642E+000,5.03395E-003,4.15215E-001,0,1.56230E+001,2.17368E-001,9.99940E-001,-2.50374E+001,-3.11441E+001,9.99040E-001,1.97268E-002,-8.20797E-003,-5.53311E-004,1.97378E-002,-8.21892E-003,-1.13428E+000,1.98295E-002,1.01989E+000,-8.29775E-003,0.00000E+000,6.99336E-003,9.92278E-001,0.00000E+000,-8.38112E-004,-3.10059E-002,1.00000E+000,3
1149,1327,1.51651E+001,1.77571E-001,-9.31782E-002,1.02010E+000,1.32350E-002,-5.84990E-002,1.02187E+000,5.50503E-003,3.93290E-001,0,1.56145E+001,1.85703E-001,9.99918E-001,-2.48038E+001,-3.11369E+001,9.98644E-001,2.00809E-002,-8.20390E-003,-4.87976E-004,2.00893E-002,-8.21232E-003,-9.88088E-001,2.02004E-002,1.02025E+000,-8.28811E-003,0.00000E+000,7.11896E-003,9.92281E-001,0.00000E+000,-1.10388E-003,-3.10130E-002,1.00000E+000,3
1149,1337,1.51844E+001,8.29546E-001,-7.99260E-002,1.01341E+000,7.77063E-003,-8.20227E-002,1.01676E+000,9.56518E-003,4.91442E-001,0,1.56002E+001,1.43774E-001,9.99931E-001,-2.44043E+001,-3.10173E+001,9.98551E-001,2.04395E-002,-8.19830E-003,-4.19570E-004,2.04457E-002,-8.20445E-003,-8.39195E-001,2.05781E-002,1.02062E+000,-8.27384E-003,0.00000E+000,7.24625E-003,9.92286E-001,0.00000E+000,-1.37326E-003,-3.10235E-002,1.00000E+000,3
1149,1347,1.52152E+001,1.48616E+000,-2.37200E-002,1.00907E+000,3.17611E-003,-9.97033E-002,1.01399E+000,8.88271E-003,5.01528E-001,0,1.55976E+001,1.14562E-001,9.99923E-001,-2.37475E+001,-3.09688E+001,9.98590E-001,2.07996E-002,-8.19105E-003,-3.48436E-004,2.08038E-002,-8.19523E-003,-6.88501E-001,2.09592E-002,1.02099E+000,-8.25455E-003,0.00000E+000,7.37415E-003,9.92293E-001,0.00000E+000,-1.64391E-003,-3.10377E-002,1.00000E+000,3
699,1347,-1.47389E+001,1.05866E+000,-3.23318E-002,4.30799E-001,-1.30604E-001,-1.92318E-002,4.50572E-001,3.98948E-003,6.03584E-001,0,6.79330E+000,-2.05022E+000,9.99937E-001,-3.57243E+001,-4.17277E+001,9.99729E-001,1.80564E-002,-7.69219E-003,-3.19908E-004,1.80604E-002,-7.69617E-003,-7.11711E-001,1.81260E-002,1.01822E+000,3.25118E-003,0.00000E+000,-3.79067E-003,9.92823E-001,0.00000E+000,-3.60439E-004,-3.15104E-002,1.00000E+000,3
699,1357,-1.47173E+001,1.70040E+000,-2.51303E-003,4.31934E-001,-1.35611E-001,-3.98540E-002,4.54473E-001,3.07690E-003,5.85071E-001,0,6.86855E+000,-2.07865E+000,9.99938E-001,-3.51610E+001,-4.19418E+001,9.99826E-001,1.75844E-002,-7.69091E-003,-3.03531E-004,1.75880E-002,-7.69455E-003,-6.87933E-001,1.76338E-002,1.01774E+000,3.23609E-003,0.00000E+000,-3.72254E-003,9.92825E-001,0.00000E+000,-1.07704E-003,-3.15329E-002,1.00000E+000,3
699,1337,-1.47560E+001,4.18944E-001,-3.13652E-002,4.28129E-001,-1.27350E-001,-7.54428E-004,4.46669E-001,3.77797E-003,5.72081E-001,0,6.70018E+000,-2.03982E+000,9.99899E-001,-3.61337E+001,-4.15785E+001,9.99523E-001,1.85255E-002,-7.69306E-003,-3.38340E-004,1.85299E-002,-7.69742E-003,-7.39215E-001,1.86181E-002,1.01869E+000,3.26188E-003,0.00000E+000,-3.85849E-003,9.92821E-001,0.00000E+000,3.52801E-004,-3.14944E-002,1.00000E+000,3
699,1317,-1.47705E+001,-8.34538E-001,7.02662E-002,4.25141E-001,-1.13127E-001,4.06239E-002,4.41807E-001,7.18440E-003,6.28000E-001,0,6.53433E+000,-1.90711E+000,9.99913E-001,-3.63678E+001,-4.10414E+001,9.98863E-001,1.94498E-002,-7.69356E-003,-3.80909E-004,1.94551E-002,-7.69890E-003,-8.03833E-001,1.95957E-002,1.01964E+000,3.27050E-003,0.00000E+000,-3.99241E-003,9.92820E-001,0.00000E+000,1.76143E-003,-3.14815E-002,1.00000E+000,3
699,1327,-1.47650E+001,-2.07203E-001,9.22476E-003,4.26580E-001,-1.20310E-001,1.93749E-002,4.43644E-001,6.48539E-003,6.59247E-001,0,6.61816E+000,-1.97054E+000,9.99879E-001,-3.63064E+001,-4.12490E+001,9.98059E-001,1.89874E-002,-7.69343E-003,-3.58977E-004,1.89922E-002,-7.69826E-003,-7.70700E-001,1.91053E-002,1.01916E+000,3.26744E-003,0.00000E+000,-3.92536E-003,9.92820E-001,0.00000E+000,1.05613E-003,-3.14861E-002,1.00000E+000,3
1159,1307,1.58177E+001,-1.09925E+000,-5.64699E-002,1.04388E+000,2.74887E-002,-2.05312E-002,1.04445E+000,4.94500E-003,4.01917E-001,0,1.58193E+001,3.42877E-001,9.99844E-001,-2.47442E+001,-3.09147E+001,9.99115E-001,1.94140E-002,-8.21984E-003,-5.88520E-004,1.94266E-002,-8.23237E-003,-1.21949E+000,1.95017E-002,1.01957E+000,-7.99696E-003,0.00000E+000,6.64155E-003,9.92274E-001,0.00000E+000,-1.09523E-003,-3.11838E-002,1.00000E+000,3
1159,1317,1.58256E+001,-4.56677E-001,-9.00930E-002,1.03867E+000,2.20959E-002,-3.98318E-002,1.03967E+000,4.76672E-003,4.33248E-001,0,1.58137E+001,2.96565E-001,9.99911E-001,-2.46047E+001,-3.08655E+001,9.99445E-001,1.97973E-002,-8.21793E-003,-5.48448E-004,1.98080E-002,-8.22866E-003,-1.12110E+000,1.99022E-002,1.01996E+000,-7.98902E-003,0.00000E+000,6.71885E-003,9.92276E-001,0.00000E+000,-1.36946E-003,-3.11894E-002,1.00000E+000,3
1159,1327,1.58405E+001,1.89400E-001,-9.53378E-002,1.03367E+000,1.74179E-002,-5.77817E-002,1.03543E+000,3.77428E-003,4.16265E-001,0,1.58048E+001,2.62527E-001,9.99944E-001,-2.43061E+001,-3.08495E+001,9.99490E-001,2.01816E-002,-8.21529E-003,-5.06299E-004,2.01906E-002,-8.22432E-003,-1.02112E+000,2.03059E-002,1.02036E+000,-7.97708E-003,0.00000E+000,6.79643E-003,9.92278E-001,0.00000E+000,-1.64469E-003,-3.11977E-002,1.00000E+000,3
1159,1297,1.58135E+001,-1.73611E+000,-6.34884E-003,1.04906E+000,3.36715E-002,3.37328E-004,1.04960E+000,6.74179E-003,4.52795E-001,0,1.58176E+001,3.98646E-001,9.99849E-001,-2.47955E+001,-3.08711E+001,9.97833E-001,1.90333E-002,-8.22135E-003,-6.27227E-004,1.90478E-002,-8.23578E-003,-1.31765E+000,1.91058E-002,1.01918E+000,-8.00263E-003,0.00000E+000,6.56481E-003,9.92273E-001,0.00000E+000,-8.22972E-004,-3.11798E-002,1.00000E+000,3
1159,1337,1.58660E+001,8.42526E-001,-6.47820E-002,1.02963E+000,1.26156E-002,-7.78937E-002,1.03265E+000,6.51649E-003,4.61778E-001,0,1.58173E+001,2.21407E-001,9.99956E-001,-2.37801E+001,-3.07744E+001,9.99616E-001,2.05695E-002,-8.21165E-003,-4.61023E-004,2.05769E-002,-8.21903E-003,-9.17462E-001,2.07152E-002,1.02075E+000,-7.95947E-003,0.00000E+000,6.87478E-003,9.92282E-001,0.00000E+000,-1.92268E-003,-3.12101E-002,1.00000E+000,3
1159,1347,1.58924E+001,1.49744E+000,-2.37202E-002,1.02342E+000,9.16831E-003,-9.99093E-002,1.02833E+000,5.95583E-003,4.64439E-001,0,1.58032E+001,2.00178E-001,9.99943E-001,-2.32213E+001,-3.07212E+001,9.99442E-001,2.09574E-002,-8.20767E-003,-4.14860E-004,2.09633E-002,-8.21357E-003,-8.14788E-001,2.11262E-002,1.02115E+000,-7.94005E-003,0.00000E+000,6.95317E-003,9.92286E-001,0.00000E+000,-2.20077E-003,-3.12237E-002,1.00000E+000,3
689,1347,-1.53909E+001,1.05604E+000,-2.65625E-002,4.19672E-001,-1.29574E-001,-2.18466E-002,4.39763E-001,5.18394E-003,6.37257E-001,0,6.63049E+000,-2.02766E+000,9.99923E-001,-3.56778E+001,-4.18600E+001,9.99364E-001,1.79125E-002,-7.64120E-003,-3.20548E-004,1.79166E-002,-7.64522E-003,-7.18572E-001,1.79806E-002,1.01807E+000,3.70433E-003,0.00000E+000,-4.23509E-003,9.92855E-001,0.00000E+000,-3.36272E-004,-3.09712E-002,1.00000E+000,3
689,1357,-1.53716E+001,1.69618E+000,-8.25780E-003,4.20880E-001,-1.33697E-001,-4.22233E-002,4.43619E-001,3.88404E-003,5.83089E-001,0,6.70580E+000,-2.03312E+000,9.99909E-001,-3.51792E+001,-4.20931E+001,9.99774E-001,1.74262E-002,-7.64022E-003,-3.06047E-004,1.74299E-002,-7.64395E-003,-6.99411E-001,1.74737E-002,1.01757E+000,3.69049E-003,0.00000E+000,-4.17621E-003,9.92856E-001,0.00000E+000,-9.33607E-004,-3.09879E-002,1.00000E+000,3
689,1337,-1.54091E+001,4.17698E-001,-2.58244E-002,4.16777E-001,-1.23527E-001,1.70786E-003,4.34701E-001,5.17542E-003,5.85186E-001,0,6.51927E+000,-1.98787E+000,9.99905E-001,-3.61051E+001,-4.16977E+001,9.99595E-001,1.83987E-002,-7.64200E-003,-3.36121E-004,1.84030E-002,-7.64634E-003,-7.39384E-001,1.84904E-002,1.01856E+000,3.71604E-003,0.00000E+000,-4.29402E-003,9.92853E-001,0.00000E+000,2.61557E-004,-3.09571E-002,1.00000E+000,3
1169,1327,1.65146E+001,1.99776E-001,-1.03128E-001,1.04609E+000,2.21609E-002,-6.05549E-002,1.04808E+000,4.21695E-003,4.32842E-001,0,1.59906E+001,3.32384E-001,9.99950E-001,-2.38346E+001,-3.05755E+001,9.99534E-001,2.02863E-002,-8.24845E-003,-4.95665E-004,2.02949E-002,-8.25706E-003,-9.94861E-001,2.04119E-002,1.02047E+000,-7.62751E-003,0.00000E+000,6.49701E-003,9.92254E-001,0.00000E+000,-2.28146E-003,-3.13973E-002,1.00000E+000,3
1169,1337,1.65422E+001,8.53317E-001,-6.56084E-002,1.04209E+000,1.74508E-002,-8.11337E-002,1.04539E+000,5.84317E-003,4.40048E-001,0,1.60054E+001,2.97344E-001,9.99956E-001,-2.32660E+001,-3.05268E+001,9.99551E-001,2.07060E-002,-8.24634E-003,-4.64832E-004,2.07135E-002,-8.25380E-003,-9.19571E-001,2.08554E-002,1.02090E+000,-7.60710E-003,0.00000E+000,6.54203E-003,9.92256E-001,0.00000E+000,-2.49818E-003,-3.14077E-002,1.00000E+000,3
1169,1347,1.65720E+001,1.50878E+000,-1.73224E-002,1.03714E+000,1.28989E-002,-1.03413E-001,1.04236E+000,4.53890E-003,4.32665E-001,0,1.60119E+001,2.69095E-001,9.99945E-001,-2.26444E+001,-3.04844E+001,9.99542E-001,2.11266E-002,-8.24404E-003,-4.32975E-004,2.11330E-002,-8.25042E-003,-8.44398E-001,2.13015E-002,1.02133E+000,-7.58467E-003,0.00000E+000,6.58716E-003,9.92258E-001,0.00000E+000,-2.71542E-003,-3.14190E-002,1.00000E+000,3
689,1327,-1.54220E+001,-2.12620E-001,-1.29117E-003,4.13571E-001,-1.17770E-001,1.80428E-002,4.30391E-001,5.72611E-003,6.34934E-001,0,6.42304E+000,-1.93174E+000,9.99888E-001,-3.63825E+001,-4.14150E+001,9.99057E-001,1.88785E-002,-7.64245E-003,-3.53572E-004,1.88832E-002,-7.64716E-003,-7.63675E-001,1.89966E-002,1.01905E+000,3.72344E-003,0.00000E+000,-4.35226E-003,9.92853E-001,0.00000E+000,8.52382E-004,-3.09481E-002,1.00000E+000,3
1169,1317,1.64993E+001,-4.49327E-001,-9.50656E-002,1.05046E+000,2.62016E-002,-4.15852E-002,1.05161E+000,6.28316E-003,3.45807E-001,0,1.59859E+001,3.69048E-001,9.99926E-001,-2.41325E+001,-3.06982E+001,9.99556E-001,1.98691E-002,-8.24988E-003,-5.22638E-004,1.98788E-002,-8.25959E-003,-1.06445E+000,1.99732E-002,1.02004E+000,-7.64028E-003,0.00000E+000,6.45229E-003,9.92252E-001,0.00000E+000,-2.06620E-003,-3.13909E-002,1.00000E+000,3
1169,1307,1.64895E+001,-1.08971E+000,-6.60213E-002,1.05531E+000,3.12225E-002,-2.10018E-002,1.05598E+000,5.12987E-003,4.20280E-001,0,1.59810E+001,4.10327E-001,9.99921E-001,-2.43082E+001,-3.06528E+001,9.99496E-001,1.94564E-002,-8.25101E-003,-5.47797E-004,1.94672E-002,-8.26183E-003,-1.13219E+000,1.95412E-002,1.01962E+000,-7.64982E-003,0.00000E+000,6.40808E-003,9.92251E-001,0.00000E+000,-1.85340E-003,-3.13861E-002,1.00000E+000,3
1169,1297,1.64872E+001,-1.72697E+000,-9.02010E-003,1.06141E+000,3.80636E-002,2.99854E-003,1.06210E+000,6.03281E-003,4.50171E-001,0,1.59805E+001,4.59068E-001,9.99877E-001,-2.43196E+001,-3.06419E+001,9.98419E-001,1.90440E-002,-8.25178E-003,-5.71003E-004,1.90560E-002,-8.26372E-003,-1.19788E+000,1.91118E-002,1.01920E+000,-7.65541E-003,0.00000E+000,6.36393E-003,9.92251E-001,0.00000E+000,-1.64090E-003,-3.13833E-002,1.00000E+000,3
689,1317,-1.54282E+001,-8.38670E-001,5.94256E-002,4.11206E-001,-1.11109E-001,3.82682E-002,4.27668E-001,5.75530E-003,6.43363E-001,0,6.32824E+000,-1.87118E+000,9.99886E-001,-3.64558E+001,-4.11657E+001,9.98997E-001,1.93558E-002,-7.64253E-003,-3.73100E-004,1.93610E-002,-7.64769E-003,-7.91589E-001,1.95028E-002,1.01954E+000,3.72643E-003,0.00000E+000,-4.41026E-003,9.92852E-001,0.00000E+000,1.44083E-003,-3.09445E-002,1.00000E+000,3
679,1347,-1.60465E+001,1.04997E+000,-3.06761E-002,4.06470E-001,-1.27212E-001,-2.44330E-002,4.26611E-001,7.37518E-003,5.90090E-001,0,6.43467E+000,-1.99508E+000,9.99881E-001,-3.57095E+001,-4.20646E+001,9.99255E-001,1.77766E-002,-7.55186E-003,-3.48551E-004,1.77814E-002,-7.55666E-003,-7.88260E-001,1.78480E-002,1.01793E+000,4.12448E-003,0.00000E+000,-4.70275E-003,9.92925E-001,0.00000E+000,-2.86094E-004,-3.04335E-002,1.00000E+000,3
679,1357,-1.60260E+001,1.69147E+000,-1.46136E-002,4.10472E-001,-1.31082E-001,-3.88531E-002,4.32642E-001,3.17853E-003,6.14800E-001,0,6.53660E+000,-2.01091E+000,9.99878E-001,-3.51971E+001,-4.22340E+001,9.99778E-001,1.72621E-002,-7.55165E-003,-3.49044E-004,1.72670E-002,-7.55656E-003,-8.05741E-001,1.73118E-002,1.01740E+000,4.11112E-003,0.00000E+000,-4.67670E-003,9.92926E-001,0.00000E+000,-8.18334E-004,-3.04471E-002,1.00000E+000,3
1179,1297,1.71564E+001,-1.72083E+000,-3.36605E-002,1.07351E+000,4.18080E-002,1.81385E-003,1.07433E+000,1.09494E-002,4.70167E-001,0,1.61547E+001,5.09178E-001,9.99929E-001,-2.39469E+001,-3.04019E+001,9.98350E-001,1.90958E-002,-8.28180E-003,-5.03879E-004,1.91051E-002,-8.29107E-003,-1.05404E+000,1.91605E-002,1.01926E+000,-7.28354E-003,0.00000E+000,6.16212E-003,9.92227E-001,0.00000E+000,-2.50474E-003,-3.15511E-002,1.00000E+000,3
1179,1307,1.71624E+001,-1.08393E+000,-7.80033E-002,1.06854E+000,3.53037E-002,-1.94150E-002,1.06930E+000,4.37044E-003,3.50062E-001,0,1.61618E+001,4.68886E-001,9.99947E-001,-2.38568E+001,-3.04880E+001,9.99245E-001,1.95312E-002,-8.28104E-003,-4.82720E-004,1.95396E-002,-8.28942E-003,-9.94048E-001,1.96142E-002,1.01970E+000,-7.27592E-003,0.00000E+000,6.19664E-003,9.92228E-001,0.00000E+000,-2.60189E-003,-3.15528E-002,1.00000E+000,3
1179,1317,1.71694E+001,-4.43760E-001,-1.22954E-001,1.06553E+000,3.09909E-002,-3.72204E-002,1.06663E+000,1.17599E-002,3.16213E-001,0,1.61845E+001,4.35540E-001,9.99937E-001,-2.37528E+001,-3.04806E+001,9.99156E-001,1.99672E-002,-8.28033E-003,-4.61864E-004,1.99748E-002,-8.28788E-003,-9.36484E-001,2.00710E-002,1.02015E+000,-7.26896E-003,0.00000E+000,6.23123E-003,9.92229E-001,0.00000E+000,-2.69921E-003,-3.15543E-002,1.00000E+000,3
1179,1337,1.72187E+001,8.61935E-001,-7.40505E-002,1.05497E+000,2.07514E-002,-8.96003E-002,1.05897E+000,4.95287E-003,4.20268E-001,0,1.62204E+001,3.55445E-001,9.99948E-001,-2.27572E+001,-3.02950E+001,9.99145E-001,2.08553E-002,-8.27695E-003,-4.06269E-004,2.08610E-002,-8.28261E-003,-7.98820E-001,2.10079E-002,1.02105E+000,-7.22801E-003,0.00000E+000,6.30173E-003,9.92232E-001,0.00000E+000,-2.89761E-003,-3.15633E-002,1.00000E+000,3
1179,1347,1.72527E+001,1.52088E+000,-1.55873E-002,1.05161E+000,1.68181E-002,-1.11046E-001,1.05759E+000,4.72469E-003,4.46474E-001,0,1.62476E+001,3.36966E-001,9.99942E-001,-2.20547E+001,-3.02027E+001,9.99480E-001,2.13021E-002,-8.27489E-003,-3.75883E-004,2.13068E-002,-8.27967E-003,-7.27995E-001,2.14824E-002,1.02151E+000,-7.20245E-003,0.00000E+000,6.33723E-003,9.92234E-001,0.00000E+000,-2.99749E-003,-3.15689E-002,1.00000E+000,3
679,1327,-1.60756E+001,-2.16113E-001,2.13080E-003,4.01409E-001,-1.15512E-001,1.94882E-002,4.18153E-001,5.39991E-003,6.20236E-001,0,6.23299E+000,-1.89941E+000,9.99896E-001,-3.63650E+001,-4.15764E+001,9.99272E-001,1.87947E-002,-7.55214E-003,-3.51042E-004,1.87994E-002,-7.55682E-003,-7.63221E-001,1.89195E-002,1.01896E+000,4.14393E-003,0.00000E+000,-4.75438E-003,9.92924E-001,0.00000E+000,7.68817E-004,-3.04137E-002,1.00000E+000,3
679,1337,-1.60639E+001,4.14810E-001,-2.90067E-002,4.04424E-001,-1.20654E-001,1.41014E-003,4.22040E-001,4.69431E-003,6.04716E-001,0,6.33069E+000,-1.94514E+000,9.99930E-001,-3.61229E+001,-4.18204E+001,9.99759E-001,1.82878E-002,-7.55205E-003,-3.48498E-004,1.82925E-002,-7.55675E-003,-7.72551E-001,1.83844E-002,1.01845E+000,4.13689E-003,0.00000E+000,-4.72866E-003,9.92924E-001,0.00000E+000,2.43281E-004,-3.04209E-002,1.00000E+000,3
1179,1327,1.71903E+001,2.07829E-001,-1.09637E-001,1.06065E+000,2.75150E-002,-5.85771E-002,1.06262E+000,8.21573E-003,3.93849E-001,0,1.61899E+001,3.90826E-001,9.99930E-001,-2.33316E+001,-3.03682E+001,9.98556E-001,2.04096E-002,-8.27884E-003,-4.35492E-004,2.04162E-002,-8.28545E-003,-8.69486E-001,2.05366E-002,1.02060E+000,-7.25127E-003,0.00000E+000,6.26634E-003,9.92230E-001,0.00000E+000,-2.79800E-003,-3.15582E-002,1.00000E+000,3
679,1317,-1.60826E+001,-8.42212E-001,5.90581E-002,3.98364E-001,-1.09186E-001,3.65856E-002,4.14673E-001,5.69880E-003,6.29478E-001,0,6.13682E+000,-1.83485E+000,9.99906E-001,-3.64606E+001,-4.13176E+001,9.98808E-001,1.92988E-002,-7.55216E-003,-3.55447E-004,1.93035E-002,-7.55687E-003,-7.58291E-001,1.94545E-002,1.01948E+000,4.14712E-003,0.00000E+000,-4.77999E-003,9.92924E-001,0.00000E+000,1.29194E-003,-3.04105E-002,1.00000E+000,3
669,1327,-1.67289E+001,-2.21190E-001,-6.22390E-004,3.89973E-001,-1.13779E-001,1.87259E-002,4.06664E-001,6.27337E-003,5.85128E-001,0,6.06041E+000,-1.86782E+000,9.99929E-001,-3.63551E+001,-4.17591E+001,9.99118E-001,1.86707E-002,-7.48205E-003,-3.06148E-004,1.86743E-002,-7.48563E-003,-6.70591E-001,1.87963E-002,1.01884E+000,4.68402E-003,0.00000E+000,-5.18892E-003,9.92972E-001,0.00000E+000,6.78474E-004,-2.97578E-002,1.00000E+000,3
669,1337,-1.67176E+001,4.11640E-001,-2.97599E-002,3.92204E-001,-1.18979E-001,3.27228E-004,4.09854E-001,3.65174E-003,6.26299E-001,0,6.14640E+000,-1.91357E+000,9.99930E-001,-3.61128E+001,-4.19517E+001,9.99680E-001,1.81272E-002,-7.48220E-003,-3.16621E-004,1.81311E-002,-7.48611E-003,-7.08230E-001,1.82226E-002,1.01828E+000,4.67619E-003,0.00000E+000,-5.19051E-003,9.92972E-001,0.00000E+000,2.02896E-004,-2.97646E-002,1.00000E+000,3
669,1347,-1.67025E+001,1.04588E+000,-4.07510E-002,3.95331E-001,-1.23681E-001,-1.64330E-002,4.14553E-001,3.35372E-003,6.05658E-001,0,6.24147E+000,-1.95012E+000,9.99925E-001,-3.57604E+001,-4.21946E+001,9.99601E-001,1.75828E-002,-7.48242E-003,-3.28323E-004,1.75871E-002,-7.48672E-003,-7.50329E-001,1.76518E-002,1.01773E+000,4.66587E-003,0.00000E+000,-5.19211E-003,9.92972E-001,0.00000E+000,-2.73006E-004,-2.97734E-002,1.00000E+000,3
669,1357,-1.66793E+001,1.68792E+000,-1.36874E-002,3.99133E-001,-1.27042E-001,-3.70936E-002,4.20503E-001,3.50963E-003,5.95807E-001,0,6.35678E+000,-1.96181E+000,9.99861E-001,-3.51740E+001,-4.23983E+001,9.99703E-001,1.70334E-002,-7.48282E-003,-3.43244E-004,1.70382E-002,-7.48762E-003,-8.01971E-001,1.70798E-002,1.01717E+000,4.64913E-003,0.00000E+000,-5.19371E-003,9.92972E-001,0.00000E+000,-7.52825E-004,-2.97878E-002,1.00000E+000,3
1189,1337,1.78971E+001,8.71903E-001,-7.83548E-002,1.06878E+000,2.31516E-002,-9.56138E-002,1.07330E+000,7.24871E-003,4.18093E-001,0,1.64404E+001,4.15841E-001,9.99936E-001,-2.22080E+001,-3.00427E+001,9.99142E-001,2.09490E-002,-8.29935E-003,-3.41075E-004,2.09530E-002,-8.30333E-003,-6.68025E-001,2.11027E-002,1.02115E+000,-6.85642E-003,0.00000E+000,6.07378E-003,9.92206E-001,0.00000E+000,-3.04801E-003,-3.13889E-002,1.00000E+000,3
669,1317,-1.67347E+001,-8.45290E-001,6.57537E-002,3.86815E-001,-1.05921E-001,3.84515E-002,4.02894E-001,9.27398E-003,5.64341E-001,0,5.95507E+000,-1.78117E+000,9.99925E-001,-3.64060E+001,-4.15029E+001,9.98490E-001,1.92093E-002,-7.48206E-003,-2.98429E-004,1.92127E-002,-7.48540E-003,-6.40501E-001,1.93681E-002,1.01938E+000,4.68635E-003,0.00000E+000,-5.18734E-003,9.92972E-001,0.00000E+000,1.15030E-003,-2.97558E-002,1.00000E+000,3
1189,1297,1.78369E+001,-1.70987E+000,-2.11490E-002,1.08629E+000,4.66000E-002,-2.23788E-003,1.08729E+000,8.41237E-003,4.35361E-001,0,1.63481E+001,5.79726E-001,9.99941E-001,-2.33303E+001,-3.01925E+001,9.97733E-001,1.92296E-002,-8.30023E-003,-3.84311E-004,1.92349E-002,-8.30559E-003,-7.99631E-001,1.92945E-002,1.01940E+000,-6.90857E-003,0.00000E+000,6.05590E-003,9.92205E-001,0.00000E+000,-3.23132E-003,-3.13944E-002,1.00000E+000,3
1189,1307,1.78381E+001,-1.07309E+000,-8.38786E-002,1.08094E+000,3.93020E-002,-2.38515E-002,1.08192E+000,4.92769E-003,4.06107E-001,0,1.63524E+001,5.28598E-001,9.99925E-001,-2.33475E+001,-3.01949E+001,9.99051E-001,1.96555E-002,-8.30013E-003,-3.77735E-004,1.96606E-002,-8.30523E-003,-7.73989E-001,1.97393E-002,1.01983E+000,-6.90410E-003,0.00000E+000,6.06033E-003,9.92205E-001,0.00000E+000,-3.18595E-003,-3.13939E-002,1.00000E+000,3
1189,1317,1.78542E+001,-4.25268E-001,-9.96244E-002,1.07750E+000,3.43934E-002,-4.89614E-002,1.07916E+000,5.42203E-003,4.53265E-001,0,1.63959E+001,5.04386E-001,9.99946E-001,-2.30529E+001,-3.00891E+001,9.99645E-001,2.00864E-002,-8.29991E-003,-3.66869E-004,2.00911E-002,-8.30465E-003,-7.40336E-001,2.01914E-002,1.02027E+000,-6.89098E-003,0.00000E+000,6.06481E-003,9.92205E-001,0.00000E+000,-3.14003E-003,-3.13925E-002,1.00000E+000,3
1189,1327,1.78722E+001,2.20672E-001,-9.71849E-002,1.07188E+000,2.74164E-002,-7.19757E-002,1.07465E+000,8.05617E-003,4.31122E-001,0,1.63990E+001,4.42348E-001,9.99950E-001,-2.26979E+001,-3.00897E+001,9.99378E-001,2.05170E-002,-8.29965E-003,-3.54687E-004,2.05214E-002,-8.30401E-003,-7.05077E-001,2.06454E-002,1.02071E+000,-6.87516E-003,0.00000E+000,6.06928E-003,9.92205E-001,0.00000E+000,-3.09410E-003,-3.13909E-002,1.00000E+000,3
659,1327,-1.73807E+001,-2.21300E-001,2.27443E-003,3.78328E-001,-1.09352E-001,1.68867E-002,3.94177E-001,1.07220E-002,5.93199E-001,0,5.88643E+000,-1.79342E+000,9.99881E-001,-3.63025E+001,-4.18561E+001,9.97914E-001,1.84842E-002,-7.44255E-003,-3.08575E-004,1.84879E-002,-7.44622E-003,-6.81792E-001,1.86041E-002,1.01864E+000,5.18945E-003,0.00000E+000,-5.68190E-003,9.92995E-001,0.00000E+000,5.09226E-004,-2.93054E-002,1.00000E+000,3
659,1337,-1.73663E+001,4.09197E-001,-2.72505E-002,3.83786E-001,-1.16819E-001,-2.10513E-003,4.01177E-001,8.82660E-003,6.50597E-001,0,6.02460E+000,-1.88026E+000,9.99917E-001,-3.60128E+001,-4.20769E+001,9.99475E-001,1.79446E-002,-7.44285E-003,-3.27848E-004,1.79488E-002,-7.44708E-003,-7.39741E-001,1.80353E-002,1.01809E+000,5.18172E-003,0.00000E+000,-5.70263E-003,9.92995E-001,0.00000E+000,7.15170E-005,-2.93116E-002,1.00000E+000,3
659,1347,-1.73517E+001,1.04537E+000,-2.96803E-002,3.86372E-001,-1.19286E-001,-1.12509E-002,4.04524E-001,4.86525E-003,6.28066E-001,0,6.08944E+000,-1.90168E+000,9.99946E-001,-3.56420E+001,-4.23117E+001,9.99761E-001,1.74043E-002,-7.44330E-003,-3.48382E-004,1.74092E-002,-7.44818E-003,-8.03119E-001,1.74696E-002,1.01754E+000,5.17145E-003,0.00000E+000,-5.72337E-003,9.92994E-001,0.00000E+000,-3.66291E-004,-2.93198E-002,1.00000E+000,3
659,1357,-1.73311E+001,1.68647E+000,-5.08232E-003,3.88264E-001,-1.22789E-001,-3.11772E-002,4.08410E-001,3.02807E-003,6.11666E-001,0,6.17267E+000,-1.91577E+000,9.99918E-001,-3.51015E+001,-4.25301E+001,9.99833E-001,1.68595E-002,-7.44410E-003,-3.71842E-004,1.68652E-002,-7.44978E-003,-8.76346E-001,1.69033E-002,1.01699E+000,5.15547E-003,0.00000E+000,-5.74426E-003,9.92994E-001,0.00000E+000,-8.07387E-004,-2.93325E-002,1.00000E+000,3
1199,1307,1.85173E+001,-1.06208E+000,-7.98256E-002,1.09326E+000,4.22606E-002,-3.02768E-002,1.09450E+000,7.31259E-003,4.27306E-001,0,1.65494E+001,5.86333E-001,9.99916E-001,-2.27640E+001,-2.99374E+001,9.98743E-001,1.97456E-002,-8.30729E-003,-2.71688E-004,1.97482E-002,-8.30993E-003,-5.54832E-001,1.98306E-002,1.01993E+000,-6.50340E-003,0.00000E+000,5.89390E-003,9.92195E-001,0.00000E+000,-3.62676E-003,-3.12655E-002,1.00000E+000,3
1199,1317,1.85309E+001,-4.18150E-001,-1.03608E-001,1.08971E+000,3.63455E-002,-5.41160E-002,1.09166E+000,5.61420E-003,4.16728E-001,0,1.65876E+001,5.44718E-001,9.99832E-001,-2.25219E+001,-2.99023E+001,9.98944E-001,2.01675E-002,-8.30793E-003,-2.74527E-004,2.01702E-002,-8.31057E-003,-5.52310E-001,2.02740E-002,1.02036E+000,-6.49202E-003,0.00000E+000,5.86912E-003,9.92194E-001,0.00000E+000,-3.45253E-003,-3.12609E-002,1.00000E+000,3
1199,1327,1.85476E+001,2.28185E-001,-1.13102E-001,1.08644E+000,3.17540E-002,-7.44362E-002,1.08945E+000,6.26481E-003,3.93652E-001,0,1.66155E+001,5.11857E-001,9.99897E-001,-2.22082E+001,-2.98695E+001,9.99079E-001,2.05899E-002,-8.30864E-003,-2.76495E-004,2.05925E-002,-8.31129E-003,-5.48128E-001,2.07197E-002,1.02079E+000,-6.47882E-003,0.00000E+000,5.84431E-003,9.92194E-001,0.00000E+000,-3.27805E-003,-3.12555E-002,1.00000E+000,3
659,1317,-1.73905E+001,-8.48369E-001,5.26263E-002,3.73543E-001,-1.03527E-001,3.45909E-002,3.89164E-001,8.89840E-003,6.14648E-001,0,5.76233E+000,-1.74207E+000,9.99796E-001,-3.64620E+001,-4.15890E+001,9.96071E-001,1.90197E-002,-7.44246E-003,-2.91056E-004,1.90229E-002,-7.44567E-003,-6.30093E-001,1.91719E-002,1.01919E+000,5.19382E-003,0.00000E+000,-5.66132E-003,9.92995E-001,0.00000E+000,9.43924E-004,-2.93020E-002,1.00000E+000,3
1199,1337,1.85804E+001,8.84721E-001,-6.62436E-002,1.08443E+000,2.75125E-002,-9.54950E-002,1.08897E+000,6.84813E-003,4.17683E-001,0,1.66629E+001,4.81731E-001,9.99910E-001,-2.15507E+001,-2.97814E+001,9.98523E-001,2.10178E-002,-8.30979E-003,-2.73833E-004,2.10204E-002,-8.31235E-003,-5.34911E-001,2.11730E-002,1.02122E+000,-6.45593E-003,0.00000E+000,5.81916E-003,9.92192E-001,0.00000E+000,-3.10116E-003,-3.12462E-002,1.00000E+000,3
1199,1297,1.85144E+001,-1.70043E+000,-2.30986E-002,1.09770E+000,4.86274E-002,-1.20289E-002,1.09884E+000,5.18066E-003,4.27765E-001,0,1.65442E+001,6.44481E-001,9.99928E-001,-2.27824E+001,-2.99626E+001,9.98650E-001,1.93263E-002,-8.30696E-003,-2.65713E-004,1.93289E-002,-8.30951E-003,-5.50871E-001,1.93921E-002,1.01950E+000,-6.50826E-003,0.00000E+000,5.91850E-003,9.92195E-001,0.00000E+000,-3.79977E-003,-3.12674E-002,1.00000E+000,3
649,1347,-1.80046E+001,1.04378E+000,-3.20720E-002,3.73570E-001,-1.16169E-001,-1.79292E-002,3.91626E-001,4.88906E-003,6.24012E-001,0,5.91019E+000,-1.82559E+000,9.99936E-001,-3.56148E+001,-4.24297E+001,9.99404E-001,1.72224E-002,-7.41553E-003,-3.48383E-004,1.72273E-002,-7.42046E-003,-8.09953E-001,1.72823E-002,1.01736E+000,5.68997E-003,0.00000E+000,-6.22887E-003,9.93005E-001,0.00000E+000,-4.19176E-004,-2.88511E-002,1.00000E+000,3
649,1357,-1.79837E+001,1.68415E+000,-5.59128E-003,3.76448E-001,-1.19353E-001,-3.34465E-002,3.96329E-001,3.01540E-003,5.93411E-001,0,5.99641E+000,-1.84490E+000,9.99938E-001,-3.50617E+001,-4.26723E+001,9.99775E-001,1.66698E-002,-7.41618E-003,-3.69116E-004,1.66754E-002,-7.42183E-003,-8.77779E-001,1.67089E-002,1.01679E+000,5.67430E-003,0.00000E+000,-6.24594E-003,9.93005E-001,0.00000E+000,-8.32708E-004,-2.88626E-002,1.00000E+000,3
649,1337,-1.80212E+001,4.08947E-001,-2.24407E-002,3.68678E-001,-1.10845E-001,-2.62398E-003,3.84990E-001,5.87511E-003,6.00454E-001,0,5.79196E+000,-1.77920E+000,9.99951E-001,-3.59969E+001,-4.22116E+001,9.99307E-001,1.77726E-002,-7.41517E-003,-3.30392E-004,1.77769E-002,-7.41951E-003,-7.51386E-001,1.78576E-002,1.01792E+000,5.70018E-003,0.00000E+000,-6.21185E-003,9.93006E-001,0.00000E+000,-7.06244E-006,-2.88436E-002,1.00000E+000,3
649,1327,-1.80326E+001,-2.20314E-001,8.30567E-003,3.65743E-001,-1.04549E-001,1.54806E-002,3.80708E-001,5.13967E-003,6.26885E-001,0,5.69615E+000,-1.72205E+000,9.99952E-001,-3.62379E+001,-4.19303E+001,9.99580E-001,1.83188E-002,-7.41496E-003,-3.13863E-004,1.83227E-002,-7.41879E-003,-6.98672E-001,1.84328E-002,1.01847E+000,5.70759E-003,0.00000E+000,-6.19494E-003,9.93006E-001,0.00000E+000,4.02470E-004,-2.88381E-002,1.00000E+000,3
1209,1307,1.91979E+001,-1.05149E+000,-7.73197E-002,1.10727E+000,4.60414E-002,-3.56384E-002,1.10880E+000,5.30996E-003,4.41712E-001,0,1.67671E+001,6.43636E-001,9.99927E-001,-2.21567E+001,-2.96868E+001,9.98995E-001,1.97821E-002,-8.28952E-003,-1.61504E-004,1.97830E-002,-8.29045E-003,-3.29624E-001,1.98692E-002,1.01997E+000,-6.08199E-003,0.00000E+000,5.70609E-003,9.92206E-001,0.00000E+000,-3.76141E-003,-3.10153E-002,1.00000E+000,3
1209,1317,1.92104E+001,-4.08115E-001,-1.02072E-001,1.10424E+000,4.03821E-002,-5.34167E-002,1.10627E+000,5.86886E-003,4.28190E-001,0,1.67904E+001,5.93459E-001,9.99908E-001,-2.19356E+001,-2.96582E+001,9.98873E-001,2.02159E-002,-8.29016E-003,-1.65759E-004,2.02168E-002,-8.29112E-003,-3.33154E-001,2.03254E-002,1.02041E+000,-6.07143E-003,0.00000E+000,5.67578E-003,9.92205E-001,0.00000E+000,-3.46817E-003,-3.10083E-002,1.00000E+000,3
1209,1327,1.92321E+001,2.40367E-001,-9.91926E-002,1.10122E+000,3.56613E-002,-7.90198E-002,1.10463E+000,5.57167E-003,3.90094E-001,0,1.68424E+001,5.69290E-001,9.99926E-001,-2.15255E+001,-2.96248E+001,9.99230E-001,2.06518E-002,-8.29109E-003,-1.67028E-004,2.06527E-002,-8.29206E-003,-3.30637E-001,2.07859E-002,1.02085E+000,-6.05467E-003,0.00000E+000,5.64531E-003,9.92204E-001,0.00000E+000,-3.17329E-003,-3.09972E-002,1.00000E+000,3
1209,1337,1.92654E+001,8.97942E-001,-4.95605E-002,1.09915E+000,3.09745E-002,-9.83217E-002,1.10397E+000,6.86173E-003,4.30007E-001,0,1.68826E+001,5.36916E-001,9.99931E-001,-2.08589E+001,-2.95176E+001,9.98262E-001,2.10929E-002,-8.29238E-003,-1.64914E-004,2.10939E-002,-8.29330E-003,-3.21536E-001,2.12538E-002,1.02130E+000,-6.03073E-003,0.00000E+000,5.61444E-003,9.92202E-001,0.00000E+000,-2.87461E-003,-3.09813E-002,1.00000E+000,3
1209,1297,1.91926E+001,-1.69122E+000,-2.48811E-002,1.11106E+000,5.27534E-002,-1.48033E-002,1.11241E+000,4.88717E-003,3.97545E-001,0,1.67420E+001,7.16087E-001,9.99928E-001,-2.22207E+001,-2.97482E+001,9.98779E-001,1.93495E-002,-8.28910E-003,-1.55170E-004,1.93503E-002,-8.28997E-003,-3.21661E-001,1.94163E-002,1.01953E+000,-6.08823E-003,0.00000E+000,5.73629E-003,9.92206E-001,0.00000E+000,-4.05366E-003,-3.10195E-002,1.00000E+000,3
649,1317,-1.80401E+001,-8.46361E-001,6.66498E-002,3.61935E-001,-9.89324E-002,3.37098E-002,3.76724E-001,3.76603E-003,6.32645E-001,0,5.58619E+000,-1.66781E+000,9.99913E-001,-3.63386E+001,-4.16701E+001,9.99641E-001,1.88620E-002,-7.41496E-003,-2.99438E-004,1.88655E-002,-7.41837E-003,-6.52797E-001,1.90083E-002,1.01903E+000,5.71084E-003,0.00000E+000,-6.17811E-003,9.93006E-001,0.00000E+000,8.10074E-004,-2.88357E-002,1.00000E+000,3
639,1347,-1.86566E+001,1.04311E+000,-3.48463E-002,3.62349E-001,-1.10614E-001,-1.89406E-002,3.79330E-001,4.90266E-003,6.06382E-001,0,5.73926E+000,-1.72770E+000,9.99906E-001,-3.55708E+001,-4.25398E+001,9.99391E-001,1.70266E-002,-7.34410E-003,-3.52812E-004,1.70317E-002,-7.34920E-003,-8.29232E-001,1.70849E-002,1.01715E+000,6.23352E-003,0.00000E+000,-6.77000E-003,9.93058E-001,0.00000E+000,-4.10148E-004,-2.83157E-002,1.00000E+000,3
639,1357,-1.86345E+001,1.68335E+000,-7.74303E-003,3.66402E-001,-1.14534E-001,-3.48948E-002,3.85469E-001,3.01635E-003,5.92492E-001,0,5.84493E+000,-1.75567E+000,9.99920E-001,-3.49958E+001,-4.27787E+001,9.99758E-001,1.64596E-002,-7.34484E-003,-3.76183E-004,1.64656E-002,-7.35078E-003,-9.05147E-001,1.64970E-002,1.01658E+000,6.21742E-003,0.00000E+000,-6.79160E-003,9.93057E-001,0.00000E+000,-8.55525E-004,-2.83282E-002,1.00000E+000,3
639,1317,-1.86905E+001,-8.43381E-001,8.30520E-002,3.49344E-001,-9.45811E-002,3.69132E-002,3.63799E-001,5.68456E-003,6.77718E-001,0,5.38358E+000,-1.59741E+000,9.99913E-001,-3.62173E+001,-4.17282E+001,9.99176E-001,1.87038E-002,-7.34363E-003,-2.97800E-004,1.87072E-002,-7.34703E-003,-6.54949E-001,1.88501E-002,1.01886E+000,6.25232E-003,0.00000E+000,-6.70597E-003,9.93058E-001,0.00000E+000,9.09743E-004,-2.83012E-002,1.00000E+000,3
639,1327,-1.86840E+001,-2.22046E-001,1.73882E-002,3.53647E-001,-1.01527E-001,1.91206E-002,3.68428E-001,4.49192E-003,6.08826E-001,0,5.50017E+000,-1.67379E+000,9.99933E-001,-3.61529E+001,-4.20788E+001,9.99257E-001,1.81496E-002,-7.34353E-003,-3.13942E-004,1.81535E-002,-7.34740E-003,-7.05441E-001,1.82630E-002,1.01830E+000,6.25028E-003,0.00000E+000,-6.72715E-003,9.93058E-001,0.00000E+000,4.73218E-004,-2.83028E-002,1.00000E+000,3
639,1337,-1.86734E+001,4.08558E-001,-2.49751E-002,3.57666E-001,-1.06706E-001,-1.76000E-004,3.73244E-001,4.22935E-003,6.36897E-001,0,5.61565E+000,-1.70826E+000,9.99947E-001,-3.59566E+001,-4.22890E+001,9.99456E-001,1.75891E-002,-7.34367E-003,-3.32155E-004,1.75935E-002,-7.34809E-003,-7.63116E-001,1.76729E-002,1.01773E+000,6.24434E-003,0.00000E+000,-6.74855E-003,9.93058E-001,0.00000E+000,3.20827E-005,-2.83074E-002,1.00000E+000,3
1219,1317,1.98938E+001,-3.94405E-001,-9.27031E-002,1.11847E+000,4.37735E-002,-5.86261E-002,1.12086E+000,6.83360E-003,4.93207E-001,0,1.70111E+001,6.54391E-001,9.99931E-001,-2.12734E+001,-2.93473E+001,9.98842E-001,2.02214E-002,-8.27497E-003,-4.52121E-005,2.02215E-002,-8.27505E-003,-9.09047E-002,2.03323E-002,1.02042E+000,-5.62098E-003,0.00000E+000,5.47224E-003,9.92208E-001,0.00000E+000,-3.34513E-003,-3.05767E-002,1.00000E+000,3
1219,1327,1.99138E+001,2.52317E-001,-9.36752E-002,1.11574E+000,3.93398E-002,-8.01043E-002,1.11930E+000,4.23485E-003,4.23413E-001,0,1.70519E+001,6.23433E-001,9.99945E-001,-2.08972E+001,-2.93474E+001,9.99278E-001,2.06503E-002,-8.27627E-003,-5.26473E-005,2.06504E-002,-8.27637E-003,-1.04280E-001,2.07855E-002,1.02085E+000,-5.60573E-003,0.00000E+000,5.42877E-003,9.92207E-001,0.00000E+000,-2.96485E-003,-3.05634E-002,1.00000E+000,3
1219,1337,1.99477E+001,9.10882E-001,-4.12857E-002,1.11341E+000,3.50709E-002,-9.91936E-002,1.11837E+000,5.22689E-003,4.53558E-001,0,1.70874E+001,6.00936E-001,9.99938E-001,-2.02189E+001,-2.92345E+001,9.99046E-001,2.10860E-002,-8.27824E-003,-5.59300E-005,2.10861E-002,-8.27834E-003,-1.09131E-001,2.12476E-002,1.02130E+000,-5.58149E-003,0.00000E+000,5.38458E-003,9.92204E-001,0.00000E+000,-2.57826E-003,-3.05423E-002,1.00000E+000,3
1219,1297,1.98731E+001,-1.68021E+000,-2.24213E-002,1.12517E+000,5.66791E-002,-1.74756E-002,1.12674E+000,5.35622E-003,4.14828E-001,0,1.69504E+001,7.82296E-001,9.99920E-001,-2.16119E+001,-2.94910E+001,9.98824E-001,1.93640E-002,-8.27327E-003,-2.44712E-005,1.93641E-002,-8.27329E-003,-5.07320E-002,1.94323E-002,1.01955E+000,-5.63935E-003,0.00000E+000,5.55903E-003,9.92210E-001,0.00000E+000,-4.10429E-003,-3.05927E-002,1.00000E+000,3
1219,1307,1.98819E+001,-1.03891E+000,-6.53551E-002,1.12226E+000,4.98401E-002,-3.83559E-002,1.12402E+000,6.42350E-003,4.68573E-001,0,1.69889E+001,7.04450E-001,9.99931E-001,-2.14793E+001,-2.94192E+001,9.98709E-001,1.97922E-002,-8.27402E-003,-3.54570E-005,1.97922E-002,-8.27407E-003,-7.23835E-002,1.98806E-002,1.01998E+000,-5.63147E-003,0.00000E+000,5.51571E-003,9.92209E-001,0.00000E+000,-3.72534E-003,-3.05858E-002,1.00000E+000,3
629,1347,-1.93086E+001,1.04040E+000,-4.07150E-002,3.51149E-001,-1.06956E-001,-2.03798E-002,3.67642E-001,3.89173E-003,5.99071E-001,0,5.57007E+000,-1.65997E+000,9.99898E-001,-3.55330E+001,-4.26693E+001,9.99571E-001,1.68662E-002,-7.41165E-003,-3.67906E-004,1.68718E-002,-7.41722E-003,-8.67995E-001,1.69127E-002,1.01699E+000,6.78612E-003,0.00000E+000,-7.34225E-003,9.92971E-001,0.00000E+000,-3.26065E-004,-2.77573E-002,1.00000E+000,3
629,1357,-1.92857E+001,1.68097E+000,-1.15283E-002,3.55791E-001,-1.10636E-001,-3.60821E-002,3.74338E-001,3.26622E-003,5.90524E-001,0,5.68391E+000,-1.68691E+000,9.99916E-001,-3.49387E+001,-4.29066E+001,9.99663E-001,1.63615E-002,-7.41083E-003,-3.53771E-004,1.63668E-002,-7.41609E-003,-8.52401E-001,1.63908E-002,1.01647E+000,6.77172E-003,0.00000E+000,-7.28984E-003,9.92972E-001,0.00000E+000,-8.20828E-004,-2.77712E-002,1.00000E+000,3
629,1327,-1.93360E+001,-2.23133E-001,1.35006E-002,3.41893E-001,-9.68396E-002,1.75447E-002,3.55776E-001,3.86519E-003,5.88626E-001,0,5.32312E+000,-1.58543E+000,9.99914E-001,-3.61104E+001,-4.21907E+001,9.99397E-001,1.78655E-002,-7.41220E-003,-4.02895E-004,1.78719E-002,-7.41862E-003,-9.12916E-001,1.79576E-002,1.01800E+000,6.80056E-003,0.00000E+000,-7.44620E-003,9.92969E-001,0.00000E+000,6.55156E-004,-2.77433E-002,1.00000E+000,3
629,1337,-1.93243E+001,4.06587E-001,-2.84734E-002,3.46995E-001,-1.02601E-001,-1.82692E-003,3.61850E-001,3.69674E-003,6.23981E-001,0,5.45546E+000,-1.63504E+000,9.99888E-001,-3.58962E+001,-4.24133E+001,9.99650E-001,1.73667E-002,-7.41207E-003,-3.84471E-004,1.73727E-002,-7.41803E-003,-8.88724E-001,1.74343E-002,1.01750E+000,6.79528E-003,0.00000E+000,-7.39429E-003,9.92970E-001,0.00000E+000,1.65152E-004,-2.77484E-002,1.00000E+000,3
1229,1317,2.05744E+001,-3.84706E-001,-9.23113E-002,1.13260E+000,4.70920E-002,-6.11274E-002,1.13522E+000,5.77467E-003,4.74913E-001,0,1.72199E+001,7.14452E-001,9.99921E-001,-2.06649E+001,-2.91209E+001,9.99466E-001,2.02357E-002,-8.24109E-003,9.92473E-005,2.02360E-002,-8.24144E-003,1.99684E-001,2.03517E-002,1.02043E+000,-5.15754E-003,0.00000E+000,5.30009E-003,9.92228E-001,0.00000E+000,-3.10710E-003,-3.00992E-002,1.00000E+000,3
1229,1327,2.05949E+001,2.64956E-001,-9.20305E-002,1.12974E+000,4.23097E-002,-8.26725E-002,1.13356E+000,4.85445E-003,5.03189E-001,0,1.72597E+001,6.73535E-001,9.99939E-001,-2.02813E+001,-2.90278E+001,9.99089E-001,2.06539E-002,-8.24259E-003,8.94235E-005,2.06541E-002,-8.24287E-003,1.77306E-001,2.07939E-002,1.02086E+000,-5.14235E-003,0.00000E+000,5.24960E-003,9.92226E-001,0.00000E+000,-2.63403E-003,-3.00824E-002,1.00000E+000,3
1229,1337,2.06262E+001,9.19056E-001,-5.35294E-002,1.12763E+000,3.85853E-002,-1.04513E-001,1.13312E+000,5.15724E-003,4.32978E-001,0,1.73098E+001,6.59359E-001,9.99924E-001,-1.96679E+001,-2.90022E+001,9.98862E-001,2.10733E-002,-8.24465E-003,8.27228E-005,2.10735E-002,-8.24489E-003,1.61663E-001,2.12390E-002,1.02129E+000,-5.12063E-003,0.00000E+000,5.19889E-003,9.92224E-001,0.00000E+000,-2.15905E-003,-3.00582E-002,1.00000E+000,3
629,1317,-1.93428E+001,-8.45835E-001,8.19819E-002,3.37100E-001,-9.10725E-002,3.70481E-002,3.51145E-001,4.69467E-003,6.53262E-001,0,5.19487E+000,-1.53789E+000,9.99916E-001,-3.61712E+001,-4.18676E+001,9.99313E-001,1.83590E-002,-7.41205E-003,-4.22898E-004,1.83660E-002,-7.41899E-003,-9.39874E-001,1.84786E-002,1.01851E+000,6.80221E-003,0.00000E+000,-7.49762E-003,9.92969E-001,0.00000E+000,1.14054E-003,-2.77417E-002,1.00000E+000,3
1229,1297,2.05539E+001,-1.66874E+000,-1.99888E-002,1.13901E+000,6.07610E-002,-2.00450E-002,1.14081E+000,5.35136E-003,4.61940E-001,0,1.71539E+001,8.40607E-001,9.99886E-001,-2.09971E+001,-2.92118E+001,9.98655E-001,1.94044E-002,-8.23920E-003,1.24899E-004,1.94049E-002,-8.23977E-003,2.58866E-001,1.94783E-002,1.01959E+000,-5.17509E-003,0.00000E+000,5.40034E-003,9.92230E-001,0.00000E+000,-4.04618E-003,-3.01187E-002,1.00000E+000,3
1229,1307,2.05620E+001,-1.02784E+000,-6.56872E-002,1.13674E+000,5.45966E-002,-3.83914E-002,1.13870E+000,7.28378E-003,4.75141E-001,0,1.71925E+001,7.78913E-001,9.99908E-001,-2.08798E+001,-2.91591E+001,9.98822E-001,1.98192E-002,-8.23997E-003,1.11132E-004,1.98197E-002,-8.24041E-003,2.26921E-001,1.99132E-002,1.02001E+000,-5.16832E-003,0.00000E+000,5.35034E-003,9.92230E-001,0.00000E+000,-3.57777E-003,-3.01112E-002,1.00000E+000,3
619,1327,-1.99874E+001,-2.24787E-001,1.22325E-002,3.30061E-001,-9.29609E-002,1.72674E-002,3.43337E-001,3.38131E-003,5.86415E-001,0,5.14125E+000,-1.52120E+000,9.99884E-001,-3.60482E+001,-4.23081E+001,9.99517E-001,1.76799E-002,-7.34078E-003,-4.48625E-004,1.76879E-002,-7.34882E-003,-1.02688E+000,1.77720E-002,1.01781E+000,7.39760E-003,0.00000E+000,-8.12226E-003,9.93020E-001,0.00000E+000,7.17558E-004,-2.71954E-002,1.00000E+000,3
619,1337,-1.99752E+001,4.05577E-001,-2.53324E-002,3.35020E-001,-9.84698E-002,-2.30107E-003,3.49199E-001,3.14019E-003,6.25114E-001,0,5.27140E+000,-1.56910E+000,9.99827E-001,-3.58118E+001,-4.25304E+001,9.99643E-001,1.71962E-002,-7.34049E-003,-4.10852E-004,1.72031E-002,-7.34737E-003,-9.59024E-001,1.72640E-002,1.01732E+000,7.39195E-003,0.00000E+000,-8.03169E-003,9.93021E-001,0.00000E+000,2.15504E-004,-2.72012E-002,1.00000E+000,3
619,1347,-1.99602E+001,1.03877E+000,-4.16633E-002,3.39764E-001,-1.02245E-001,-1.77271E-002,3.55258E-001,3.62607E-003,6.12608E-001,0,5.38652E+000,-1.59734E+000,9.99865E-001,-3.54713E+001,-4.27826E+001,9.99615E-001,1.67118E-002,-7.33985E-003,-3.74126E-004,1.67176E-002,-7.34567E-003,-8.90955E-001,1.67585E-002,1.01683E+000,7.38413E-003,0.00000E+000,-7.94107E-003,9.93023E-001,0.00000E+000,-2.86852E-004,-2.72091E-002,1.00000E+000,3
619,1357,-1.99380E+001,1.67827E+000,-2.01133E-002,3.44997E-001,-1.05847E-001,-3.53605E-002,3.62598E-001,3.56066E-003,6.08431E-001,0,5.51451E+000,-1.62232E+000,9.99926E-001,-3.49063E+001,-4.30192E+001,9.99660E-001,1.62234E-002,-7.33840E-003,-3.39674E-004,1.62283E-002,-7.34329E-003,-8.25764E-001,1.62527E-002,1.01633E+000,7.37111E-003,0.00000E+000,-7.84981E-003,9.93025E-001,0.00000E+000,-7.92725E-004,-2.72224E-002,1.00000E+000,3
619,1317,-1.99933E+001,-8.46594E-001,8.31227E-002,3.26286E-001,-8.48558E-002,3.96839E-002,3.39467E-001,4.90032E-003,6.27030E-001,0,5.02093E+000,-1.45616E+000,9.99899E-001,-3.60873E+001,-4.19864E+001,9.99484E-001,1.81595E-002,-7.34045E-003,-4.88044E-004,1.81688E-002,-7.34979E-003,-1.09605E+000,1.82789E-002,1.01830E+000,7.39928E-003,0.00000E+000,-8.21216E-003,9.93020E-001,0.00000E+000,1.21591E-003,-2.71937E-002,1.00000E+000,3
1239,1307,2.12395E+001,-1.02073E+000,-7.34848E-002,1.14902E+000,5.69841E-002,-4.29541E-002,1.15123E+000,7.63067E-003,4.59086E-001,0,1.73815E+001,8.19709E-001,9.99895E-001,-2.03284E+001,-2.89562E+001,9.99046E-001,1.98016E-002,-8.20416E-003,1.89425E-004,1.98029E-002,-8.20545E-003,3.87513E-001,1.98995E-002,1.01999E+000,-4.75921E-003,0.00000E+000,5.10613E-003,9.92256E-001,0.00000E+000,-3.54300E-003,-2.97735E-002,1.00000E+000,3
1239,1317,2.12536E+001,-3.75512E-001,-9.81771E-002,1.14671E+000,5.23858E-002,-6.24566E-002,1.14961E+000,7.12161E-003,4.40291E-001,0,1.74231E+001,7.88451E-001,9.99892E-001,-2.00864E+001,-2.88972E+001,9.99204E-001,2.02176E-002,-8.20429E-003,1.93550E-004,2.02189E-002,-8.20561E-003,3.90154E-001,2.03380E-002,1.02042E+000,-4.74860E-003,0.00000E+000,5.08297E-003,9.92256E-001,0.00000E+000,-2.89728E-003,-2.97573E-002,1.00000E+000,3
1239,1327,2.12790E+001,2.77438E-001,-8.05696E-002,1.14396E+000,4.59558E-002,-8.40013E-002,1.14796E+000,5.56910E-003,5.15884E-001,0,1.74649E+001,7.32143E-001,9.99939E-001,-1.96009E+001,-2.87655E+001,9.99183E-001,2.06384E-002,-8.20449E-003,2.01420E-004,2.06398E-002,-8.20590E-003,4.00090E-001,2.07836E-002,1.02084E+000,-4.73030E-003,0.00000E+000,5.05950E-003,9.92255E-001,0.00000E+000,-2.24302E-003,-2.97293E-002,1.00000E+000,3
1239,1337,2.13069E+001,9.29823E-001,-5.22756E-002,1.14193E+000,4.32602E-002,-1.02154E-001,1.14731E+000,4.74049E-003,4.17224E-001,0,1.75023E+001,7.24741E-001,9.99916E-001,-1.90589E+001,-2.87573E+001,9.98814E-001,2.10557E-002,-8.20471E-003,2.09830E-004,2.10572E-002,-8.20622E-003,4.10847E-001,2.12273E-002,1.02127E+000,-4.71085E-003,0.00000E+000,5.03619E-003,9.92254E-001,0.00000E+000,-1.59319E-003,-2.96996E-002,1.00000E+000,3
1239,1297,2.12335E+001,-1.66034E+000,-2.06319E-002,1.15236E+000,6.40785E-002,-2.14824E-002,1.15434E+000,4.56714E-003,4.61561E-001,0,1.73457E+001,8.81729E-001,9.99889E-001,-2.04018E+001,-2.89977E+001,9.99214E-001,1.93867E-002,-8.20408E-003,1.87495E-004,1.93880E-002,-8.20536E-003,3.89333E-001,1.94640E-002,1.01957E+000,-4.76532E-003,0.00000E+000,5.12920E-003,9.92257E-001,0.00000E+000,-4.18618E-003,-2.97829E-002,1.00000E+000,3
609,1347,-2.06098E+001,1.03867E+000,-3.99455E-002,3.29086E-001,-9.72357E-002,-1.78212E-002,3.43613E-001,4.73307E-003,6.33775E-001,0,5.22103E+000,-1.52108E+000,9.99869E-001,-3.53663E+001,-4.28743E+001,9.99484E-001,1.65591E-002,-7.17714E-003,-4.21432E-004,1.65665E-002,-7.18462E-003,-1.01685E+000,1.66150E-002,1.01667E+000,7.90444E-003,0.00000E+000,-8.54961E-003,9.93163E-001,0.00000E+000,-1.35606E-004,-2.65898E-002,1.00000E+000,3
609,1357,-2.05889E+001,1.67812E+000,-2.28516E-002,3.34082E-001,-9.97831E-002,-3.45566E-002,3.50373E-001,4.06314E-003,6.19633E-001,0,5.34248E+000,-1.52811E+000,9.99890E-001,-3.48326E+001,-4.31089E+001,9.99615E-001,1.60789E-002,-7.17556E-003,-3.77008E-004,1.60851E-002,-7.18167E-003,-9.28570E-001,1.61157E-002,1.01618E+000,7.89245E-003,0.00000E+000,-8.44005E-003,9.93165E-001,0.00000E+000,-6.41157E-004,-2.66022E-002,1.00000E+000,3
609,1317,-2.06442E+001,-8.48209E-001,8.11727E-002,3.14116E-001,-8.09062E-002,3.59273E-002,3.26352E-001,6.73472E-003,6.12523E-001,0,4.84310E+000,-1.38703E+000,9.99908E-001,-3.60145E+001,-4.21062E+001,9.98883E-001,1.79849E-002,-7.17769E-003,-5.63937E-004,1.79976E-002,-7.19032E-003,-1.28324E+000,1.81183E-002,1.01812E+000,7.91917E-003,0.00000E+000,-8.87567E-003,9.93159E-001,0.00000E+000,1.36905E-003,-2.65745E-002,1.00000E+000,3
609,1327,-2.06377E+001,-2.25154E-001,1.07578E-002,3.19026E-001,-8.88114E-002,1.68804E-002,3.31587E-001,4.44804E-003,6.16820E-001,0,4.97185E+000,-1.45320E+000,9.99882E-001,-3.59643E+001,-4.23889E+001,9.99212E-001,1.75117E-002,-7.17822E-003,-5.14827E-004,1.75225E-002,-7.18895E-003,-1.19402E+000,1.76163E-002,1.01764E+000,7.91788E-003,0.00000E+000,-8.76735E-003,9.93160E-001,0.00000E+000,8.69193E-004,-2.65758E-002,1.00000E+000,3
609,1337,-2.06254E+001,4.04207E-001,-2.65720E-002,3.24011E-001,-9.36257E-002,-2.92530E-003,3.37279E-001,4.16180E-003,6.12488E-001,0,5.10248E+000,-1.49203E+000,9.99862E-001,-3.57266E+001,-4.26504E+001,9.99431E-001,1.70368E-002,-7.17792E-003,-4.67658E-004,1.70458E-002,-7.18695E-003,-1.10600E+000,1.71155E-002,1.01715E+000,7.91236E-003,0.00000E+000,-8.65874E-003,9.93161E-001,0.00000E+000,3.67997E-004,-2.65815E-002,1.00000E+000,3
1249,1297,2.19150E+001,-1.64948E+000,-1.82503E-002,1.16553E+000,6.78591E-002,-2.55692E-002,1.16778E+000,5.42744E-003,4.80766E-001,0,1.75446E+001,9.43937E-001,9.99925E-001,-1.97696E+001,-2.87421E+001,9.99239E-001,1.92668E-002,-8.04352E-003,2.53284E-004,1.92692E-002,-8.04587E-003,5.31315E-001,1.93563E-002,1.01945E+000,-4.26810E-003,0.00000E+000,4.78011E-003,9.92404E-001,0.00000E+000,-4.33841E-003,-2.93307E-002,1.00000E+000,3
1249,1307,2.19186E+001,-1.01122E+000,-7.70713E-002,1.16217E+000,6.10811E-002,-4.35637E-002,1.16459E+000,7.88962E-003,4.73958E-001,0,1.75672E+001,8.72629E-001,9.99899E-001,-1.97444E+001,-2.87096E+001,9.98864E-001,1.97084E-002,-8.04219E-003,3.00446E-004,1.97116E-002,-8.04544E-003,6.20226E-001,1.98221E-002,1.01990E+000,-4.26329E-003,0.00000E+000,4.84345E-003,9.92405E-001,0.00000E+000,-3.52342E-003,-2.93219E-002,1.00000E+000,3
1249,1317,2.19315E+001,-3.68277E-001,-1.06330E-001,1.15972E+000,5.48908E-002,-6.37969E-002,1.16277E+000,7.06927E-003,4.26095E-001,0,1.76107E+001,8.27152E-001,9.99855E-001,-1.95271E+001,-2.86891E+001,9.98578E-001,2.01512E-002,-8.03971E-003,3.50708E-004,2.01556E-002,-8.04407E-003,7.12638E-001,2.02920E-002,1.02035E+000,-4.25263E-003,0.00000E+000,4.90711E-003,9.92407E-001,0.00000E+000,-2.70424E-003,-2.93025E-002,1.00000E+000,3
1249,1327,2.19555E+001,2.84281E-001,-9.75204E-002,1.15819E+000,5.12010E-002,-8.39208E-002,1.16235E+000,5.88392E-003,4.39421E-001,0,1.76648E+001,8.11475E-001,9.99889E-001,-1.90781E+001,-2.85737E+001,9.98988E-001,2.05974E-002,-8.03584E-003,4.04830E-004,2.06032E-002,-8.04156E-003,8.09856E-001,2.07678E-002,1.02080E+000,-4.23491E-003,0.00000E+000,4.97139E-003,9.92409E-001,0.00000E+000,-1.87725E-003,-2.92702E-002,1.00000E+000,3
1249,1337,2.19855E+001,9.39851E-001,-5.99238E-002,1.15526E+000,4.77081E-002,-1.02943E-001,1.16081E+000,4.07249E-003,4.16935E-001,0,1.76924E+001,7.90848E-001,9.99950E-001,-1.84921E+001,-2.84967E+001,9.99502E-001,2.10442E-002,-8.03097E-003,4.61551E-004,2.10515E-002,-8.03830E-003,9.09231E-001,2.12465E-002,1.02126E+000,-4.21212E-003,0.00000E+000,5.03587E-003,9.92412E-001,0.00000E+000,-1.04757E-003,-2.92287E-002,1.00000E+000,3
1259,1327,2.26351E+001,2.91933E-001,-1.01505E-001,1.17129E+000,5.42266E-002,-8.44294E-002,1.17558E+000,5.43585E-003,4.00214E-001,0,1.78502E+001,8.55589E-001,9.99937E-001,-1.84855E+001,-2.83791E+001,9.99221E-001,2.05856E-002,-7.97701E-003,6.45499E-004,2.06002E-002,-7.99159E-003,1.29397E+000,2.07719E-002,1.02079E+000,-3.76564E-003,0.00000E+000,4.97557E-003,9.92448E-001,0.00000E+000,-1.29045E-003,-2.85694E-002,1.00000E+000,3
1259,1337,2.26663E+001,9.47241E-001,-6.49882E-002,1.16897E+000,4.96899E-002,-1.06170E-001,1.17483E+000,5.35489E-003,3.89319E-001,0,1.78986E+001,8.23666E-001,9.99963E-001,-1.78838E+001,-2.82963E+001,9.99420E-001,2.10260E-002,-7.96949E-003,7.25582E-004,2.10441E-002,-7.98763E-003,1.43257E+000,2.12466E-002,1.02124E+000,-3.74270E-003,0.00000E+000,5.08343E-003,9.92453E-001,0.00000E+000,-3.29931E-004,-2.85203E-002,1.00000E+000,3
599,1347,-2.12571E+001,1.03984E+000,-3.41671E-002,3.19894E-001,-9.09358E-002,-1.68385E-002,3.32994E-001,4.74664E-003,6.26414E-001,0,5.07550E+000,-1.42009E+000,9.99915E-001,-3.52085E+001,-4.29696E+001,9.99641E-001,1.64797E-002,-7.24451E-003,-3.54306E-004,1.64850E-002,-7.24980E-003,-8.55423E-001,1.65248E-002,1.01658E+000,8.35249E-003,0.00000E+000,-8.85755E-003,9.93076E-001,0.00000E+000,3.18849E-006,-2.59336E-002,1.00000E+000,3
599,1357,-2.12363E+001,1.67771E+000,-1.85134E-002,3.25315E-001,-9.47426E-002,-3.22190E-002,3.40359E-001,3.60587E-003,6.37414E-001,0,5.20008E+000,-1.45829E+000,9.99900E-001,-3.46810E+001,-4.32146E+001,9.99669E-001,1.60310E-002,-7.24166E-003,-2.62897E-004,1.60340E-002,-7.24463E-003,-6.47124E-001,1.60588E-002,1.01613E+000,8.34175E-003,0.00000E+000,-8.65531E-003,9.93081E-001,0.00000E+000,-5.37494E-004,-2.59463E-002,1.00000E+000,3
1259,1287,2.25931E+001,-2.27936E+000,4.95657E-002,1.18049E+000,7.81641E-002,-1.05938E-002,1.18313E+000,7.28320E-003,3.93754E-001,0,1.76928E+001,1.08385E+000,9.99897E-001,-1.91439E+001,-2.86304E+001,9.97261E-001,1.88368E-002,-7.98983E-003,3.56403E-004,1.88416E-002,-7.99457E-003,7.61019E-001,1.89134E-002,1.01902E+000,-3.80055E-003,0.00000E+000,4.55001E-003,9.92439E-001,0.00000E+000,-5.08051E-003,-2.86440E-002,1.00000E+000,3
1259,1297,2.25921E+001,-1.64317E+000,-3.27479E-002,1.17806E+000,7.04833E-002,-3.08971E-002,1.18058E+000,5.32733E-003,4.48157E-001,0,1.77401E+001,9.98263E-001,9.99864E-001,-1.92275E+001,-2.85475E+001,9.98644E-001,1.92732E-002,-7.98900E-003,4.24472E-004,1.92798E-002,-7.99561E-003,8.91808E-001,1.93730E-002,1.01946E+000,-3.79962E-003,0.00000E+000,4.65579E-003,9.92439E-001,0.00000E+000,-4.13849E-003,-2.86421E-002,1.00000E+000,3
1259,1307,2.25985E+001,-1.00185E+000,-8.34158E-002,1.17615E+000,6.50816E-002,-4.53483E-002,1.17882E+000,5.63862E-003,4.59910E-001,0,1.77697E+001,9.43297E-001,9.99879E-001,-1.91471E+001,-2.84738E+001,9.98849E-001,1.97098E-002,-7.98674E-003,4.95077E-004,1.97187E-002,-7.99558E-003,1.02373E+000,1.98358E-002,1.01990E+000,-3.79398E-003,0.00000E+000,4.76191E-003,9.92441E-001,0.00000E+000,-3.19335E-003,-2.86300E-002,1.00000E+000,3
599,1327,-2.12861E+001,-2.22156E-001,1.80154E-002,3.08082E-001,-8.17353E-002,1.69672E-002,3.19192E-001,3.95773E-003,6.42191E-001,0,4.80156E+000,-1.34971E+000,9.99924E-001,-3.58211E+001,-4.24393E+001,9.99479E-001,1.73695E-002,-7.24629E-003,-5.40458E-004,1.73814E-002,-7.25815E-003,-1.25716E+000,1.74599E-002,1.01749E+000,8.36462E-003,0.00000E+000,-9.25939E-003,9.93071E-001,0.00000E+000,1.07752E-003,-2.59192E-002,1.00000E+000,3
599,1337,-2.12746E+001,4.05054E-001,-2.81196E-002,3.13868E-001,-8.71556E-002,-3.01426E-003,3.25758E-001,3.63519E-003,6.14361E-001,0,4.94513E+000,-1.38719E+000,9.99922E-001,-3.56207E+001,-4.27285E+001,9.99559E-001,1.69264E-002,-7.24622E-003,-4.46739E-004,1.69346E-002,-7.25448E-003,-1.05841E+000,1.69924E-002,1.01704E+000,8.36054E-003,0.00000E+000,-9.05915E-003,9.93072E-001,0.00000E+000,5.42185E-004,-2.59240E-002,1.00000E+000,3
1259,1317,2.26123E+001,-3.57209E-001,-1.07674E-001,1.17412E+000,5.96047E-002,-6.17216E-002,1.17725E+000,5.57353E-003,4.43608E-001,0,1.78041E+001,8.93593E-001,9.99941E-001,-1.89100E+001,-2.84204E+001,9.99028E-001,2.01471E-002,-7.98289E-003,5.68481E-004,2.01586E-002,-7.99438E-003,1.15726E+000,2.03019E-002,1.02035E+000,-3.78317E-003,0.00000E+000,4.86846E-003,9.92443E-001,0.00000E+000,-2.24438E-003,-2.86069E-002,1.00000E+000,3
599,1317,-2.12940E+001,-8.46231E-001,8.64972E-002,3.01539E-001,-7.58225E-002,3.30526E-002,3.12678E-001,5.62528E-003,6.31670E-001,0,4.65588E+000,-1.29500E+000,9.99901E-001,-3.58988E+001,-4.21695E+001,9.99424E-001,1.78111E-002,-7.24508E-003,-6.35444E-004,1.78272E-002,-7.26119E-003,-1.45182E+000,1.79290E-002,1.01794E+000,8.36567E-003,0.00000E+000,-9.45919E-003,9.93070E-001,0.00000E+000,1.61167E-003,-2.59179E-002,1.00000E+000,3
589,1347,-2.19067E+001,1.04083E+000,-3.18086E-002,3.08686E-001,-8.43311E-002,-1.47515E-002,3.20338E-001,3.64203E-003,6.40671E-001,0,4.89534E+000,-1.32502E+000,9.99911E-001,-3.50933E+001,-4.30499E+001,9.99670E-001,1.64128E-002,-7.25205E-003,-2.37699E-004,1.64152E-002,-7.25444E-003,-5.75425E-001,1.64520E-002,1.01651E+000,8.87659E-003,0.00000E+000,-9.13910E-003,9.93053E-001,0.00000E+000,3.61980E-005,-2.54220E-002,1.00000E+000,3
589,1357,-2.18851E+001,1.67971E+000,-1.27871E-002,3.14539E-001,-8.81301E-002,-3.00829E-002,3.28034E-001,3.28244E-003,6.53311E-001,0,5.02634E+000,-1.35281E+000,9.99913E-001,-3.45409E+001,-4.32877E+001,9.99647E-001,1.59732E-002,-7.24908E-003,-1.43496E-004,1.59741E-002,-7.24997E-003,-3.54026E-001,1.59967E-002,1.01606E+000,8.86581E-003,0.00000E+000,-8.93164E-003,9.93058E-001,0.00000E+000,-5.06735E-004,-2.54351E-002,1.00000E+000,3
589,1337,-2.19228E+001,4.06017E-001,-2.13604E-002,3.02965E-001,-8.12857E-002,-2.25834E-003,3.13688E-001,3.34840E-003,6.14267E-001,0,4.77353E+000,-1.29849E+000,9.99937E-001,-3.54725E+001,-4.28238E+001,9.99682E-001,1.68496E-002,-7.25342E-003,-3.33186E-004,1.68542E-002,-7.25802E-003,-7.91821E-001,1.69082E-002,1.01695E+000,8.88373E-003,0.00000E+000,-9.34550E-003,9.93050E-001,0.00000E+000,5.76372E-004,-2.54134E-002,1.00000E+000,3
589,1327,-2.19326E+001,-2.17710E-001,2.74191E-002,2.99018E-001,-7.31908E-002,2.17063E-002,3.08610E-001,6.55333E-003,6.77226E-001,0,4.64817E+000,-1.23354E+000,9.99938E-001,-3.56389E+001,-4.24672E+001,9.99282E-001,1.72827E-002,-7.25345E-003,-4.29432E-004,1.72902E-002,-7.26096E-003,-1.00238E+000,1.73639E-002,1.01739E+000,8.88781E-003,0.00000E+000,-9.55036E-003,9.93048E-001,0.00000E+000,1.11253E-003,-2.54084E-002,1.00000E+000,3
1269,1327,2.33166E+001,3.00887E-001,-1.05250E-001,1.18537E+000,5.64472E-002,-8.62377E-002,1.18984E+000,4.89377E-003,4.11190E-001,0,1.80554E+001,8.93885E-001,9.99951E-001,-1.78592E+001,-2.81398E+001,9.99215E-001,2.04936E-002,-7.85334E-003,8.22765E-004,2.05175E-002,-7.87720E-003,1.66113E+000,2.07010E-002,1.02070E+000,-3.29648E-003,0.00000E+000,4.86531E-003,9.92542E-001,0.00000E+000,-1.07397E-003,-2.75193E-002,1.00000E+000,3
1269,1337,2.33496E+001,9.55974E-001,-6.36477E-002,1.18370E+000,5.16348E-002,-1.06206E-001,1.18958E+000,4.65639E-003,3.86003E-001,0,1.81068E+001,8.50295E-001,9.99940E-001,-1.72251E+001,-2.80771E+001,9.99146E-001,2.09125E-002,-7.84595E-003,8.99709E-004,2.09407E-002,-7.87407E-003,1.79016E+000,2.11542E-002,1.02113E+000,-3.27396E-003,0.00000E+000,4.96897E-003,9.92547E-001,0.00000E+000,-1.26188E-004,-2.74693E-002,1.00000E+000,3
589,1317,-2.19414E+001,-8.43415E-001,9.57870E-002,2.91336E-001,-6.89041E-002,3.59473E-002,3.01524E-001,4.76495E-003,6.30647E-001,0,4.49013E+000,-1.18877E+000,9.99860E-001,-3.57297E+001,-4.22382E+001,9.99009E-001,1.77150E-002,-7.25203E-003,-5.27207E-004,1.77261E-002,-7.26316E-003,-1.20915E+000,1.78221E-002,1.01784E+000,8.88863E-003,0.00000E+000,-9.75509E-003,9.93047E-001,0.00000E+000,1.64834E-003,-2.54074E-002,1.00000E+000,3
1269,1317,2.32952E+001,-3.48194E-001,-1.07197E-001,1.18762E+000,6.19805E-002,-6.75967E-002,1.19115E+000,5.14057E-003,4.12770E-001,0,1.80161E+001,9.47800E-001,9.99937E-001,-1.82526E+001,-2.82114E+001,9.99077E-001,2.00763E-002,-7.85853E-003,7.49693E-004,2.00964E-002,-7.87864E-003,1.53619E+000,2.02519E-002,1.02028E+000,-3.31183E-003,0.00000E+000,4.76230E-003,9.92538E-001,0.00000E+000,-2.01578E-003,-2.75533E-002,1.00000E+000,3
1269,1307,2.32814E+001,-9.92379E-001,-8.15338E-002,1.18978E+000,6.76951E-002,-4.97959E-002,1.19274E+000,5.12195E-003,4.34966E-001,0,1.79775E+001,1.00258E+000,9.99879E-001,-1.84861E+001,-2.82593E+001,9.98997E-001,1.96603E-002,-7.86220E-003,6.79431E-004,1.96771E-002,-7.87896E-003,1.41328E+000,1.98068E-002,1.01985E+000,-3.32219E-003,0.00000E+000,4.65991E-003,9.92536E-001,0.00000E+000,-2.95195E-003,-2.75763E-002,1.00000E+000,3
1269,1297,2.32722E+001,-1.63470E+000,-3.69055E-002,1.19142E+000,7.33431E-002,-3.20755E-002,1.19411E+000,5.98587E-003,4.30999E-001,0,1.79306E+001,1.05530E+000,9.99868E-001,-1.86196E+001,-2.83336E+001,9.98698E-001,1.92442E-002,-7.86484E-003,6.10917E-004,1.92580E-002,-7.87860E-003,1.29032E+000,1.93638E-002,1.01943E+000,-3.32923E-003,0.00000E+000,4.55773E-003,9.92534E-001,0.00000E+000,-3.88610E-003,-2.75919E-002,1.00000E+000,3
1269,1287,2.32753E+001,-2.27040E+000,5.07382E-002,1.19365E+000,8.02742E-002,-1.47614E-002,1.19644E+000,1.02463E-002,4.04326E-001,0,1.78918E+001,1.12716E+000,9.99919E-001,-1.84967E+001,-2.84076E+001,9.97045E-001,1.88297E-002,-7.86516E-003,5.46551E-004,1.88409E-002,-7.87635E-003,1.17242E+000,1.89250E-002,1.01901E+000,-3.32868E-003,0.00000E+000,4.45621E-003,9.92534E-001,0.00000E+000,-4.81430E-003,-2.75907E-002,1.00000E+000,3
579,1347,-2.25547E+001,1.04147E+000,-2.99891E-002,2.98010E-001,-7.89354E-002,-1.74372E-002,3.08779E-001,3.06022E-003,6.45437E-001,0,4.73597E+000,-1.22953E+000,9.99924E-001,-3.49508E+001,-4.31389E+001,9.99727E-001,1.62553E-002,-7.27717E-003,-1.38055E-004,1.62561E-002,-7.27798E-003,-3.36114E-001,1.62857E-002,1.01634E+000,9.37824E-003,0.00000E+000,-9.42799E-003,9.93017E-001,0.00000E+000,-1.35561E-004,-2.50880E-002,1.00000E+000,3
579,1357,-2.25324E+001,1.68062E+000,-8.80346E-003,3.04408E-001,-8.27981E-002,-3.24715E-002,3.17135E-001,4.17273E-003,6.38943E-001,0,4.87461E+000,-1.24520E+000,9.99921E-001,-3.43793E+001,-4.33887E+001,9.99685E-001,1.58019E-002,-7.27434E-003,-4.71497E-005,1.58019E-002,-7.27443E-003,-1.17067E-001,1.58185E-002,1.01588E+000,9.36704E-003,0.00000E+000,-9.22377E-003,9.93022E-001,0.00000E+000,-8.15978E-004,-2.51045E-002,1.00000E+000,3
579,1337,-2.25712E+001,4.07784E-001,-1.60544E-002,2.91772E-001,-7.50048E-002,-1.48835E-003,3.01263E-001,2.79374E-003,6.28177E-001,0,4.59715E+000,-1.20114E+000,9.99916E-001,-3.53265E+001,-4.28968E+001,9.99754E-001,1.67055E-002,-7.27838E-003,-2.30344E-004,1.67077E-002,-7.28060E-003,-5.50209E-001,1.67536E-002,1.01680E+000,9.38551E-003,0.00000E+000,-9.63104E-003,9.93014E-001,0.00000E+000,5.40953E-004,-2.50772E-002,1.00000E+000,3
579,1327,-2.25836E+001,-2.17286E-001,2.19887E-002,2.85777E-001,-6.84639E-002,1.54482E-002,2.94270E-001,5.10391E-003,6.93061E-001,0,4.45864E+000,-1.13701E+000,9.99927E-001,-3.55652E+001,-4.25353E+001,9.99054E-001,1.71515E-002,-7.27849E-003,-3.23222E-004,1.71558E-002,-7.28276E-003,-7.57877E-001,1.72209E-002,1.01726E+000,9.39008E-003,0.00000E+000,-9.83254E-003,9.93012E-001,0.00000E+000,1.21231E-003,-2.50705E-002,1.00000E+000,3
579,1317,-2.25908E+001,-8.38885E-001,9.19965E-002,2.79862E-001,-6.15982E-002,3.29480E-002,2.88449E-001,6.17778E-003,6.97152E-001,0,4.31955E+000,-1.06086E+000,9.99882E-001,-3.56265E+001,-4.22196E+001,9.98736E-001,1.75957E-002,-7.27711E-003,-4.17612E-004,1.76028E-002,-7.28412E-003,-9.61627E-001,1.76897E-002,1.01771E+000,9.39107E-003,0.00000E+000,-1.00335E-002,9.93011E-001,0.00000E+000,1.88200E-003,-2.50690E-002,1.00000E+000,3
1279,1317,2.39745E+001,-3.42013E-001,-1.15742E-001,1.20030E+000,6.38818E-002,-7.00121E-002,1.20403E+000,4.89772E-003,3.71781E-001,0,1.82025E+001,9.83483E-001,9.99883E-001,-1.76632E+001,-2.80326E+001,9.98677E-001,1.99562E-002,-7.76527E-003,8.74675E-004,1.99838E-002,-7.79284E-003,1.80542E+000,2.01444E-002,1.02015E+000,-2.90328E-003,0.00000E+000,4.60776E-003,9.92606E-001,0.00000E+000,-1.85001E-003,-2.66024E-002,1.00000E+000,3
1279,1327,2.39993E+001,3.11001E-001,-1.02452E-001,1.19988E+000,5.97985E-002,-8.27480E-002,1.20422E+000,6.95562E-003,4.16148E-001,0,1.82450E+001,9.38125E-001,9.99910E-001,-1.72000E+001,-2.78998E+001,9.99035E-001,2.03871E-002,-7.75887E-003,9.59476E-004,2.04197E-002,-7.79154E-003,1.95016E+000,2.06098E-002,1.02059E+000,-2.88638E-003,0.00000E+000,4.73139E-003,9.92611E-001,0.00000E+000,-8.25495E-004,-2.65629E-002,1.00000E+000,3
1279,1337,2.40324E+001,9.67609E-001,-6.23273E-002,1.19819E+000,5.49517E-002,-1.03705E-001,1.20393E+000,4.70522E-003,4.21727E-001,0,1.83004E+001,9.01992E-001,9.99921E-001,-1.65691E+001,-2.77936E+001,9.99461E-001,2.08189E-002,-7.75028E-003,1.04770E-003,2.08573E-002,-7.78865E-003,2.09742E+000,2.10788E-002,1.02103E+000,-2.86316E-003,0.00000E+000,4.85566E-003,9.92617E-001,0.00000E+000,2.04259E-004,-2.65087E-002,1.00000E+000,3
1279,1307,2.39588E+001,-9.85039E-001,-9.30728E-002,1.20188E+000,7.07753E-002,-5.06921E-002,1.20503E+000,5.56427E-003,4.24287E-001,0,1.81484E+001,1.05143E+000,9.99912E-001,-1.79297E+001,-2.80427E+001,9.98377E-001,1.95282E-002,-7.76980E-003,7.93207E-004,1.95513E-002,-7.79283E-003,1.66299E+000,1.96849E-002,1.01972E+000,-2.91481E-003,0.00000E+000,4.48531E-003,9.92603E-001,0.00000E+000,-2.86463E-003,-2.66293E-002,1.00000E+000,3
1279,1297,2.39535E+001,-1.62691E+000,-3.44308E-002,1.20404E+000,7.63719E-002,-3.18235E-002,1.20688E+000,9.22256E-003,3.65032E-001,0,1.81038E+001,1.11161E+000,9.99917E-001,-1.79808E+001,-2.81688E+001,9.98777E-001,1.90999E-002,-7.77207E-003,7.15091E-004,1.91190E-002,-7.79108E-003,1.52326E+000,1.92277E-002,1.01929E+000,-2.91981E-003,0.00000E+000,4.36314E-003,9.92601E-001,0.00000E+000,-3.87705E-003,-2.66410E-002,1.00000E+000,3
1279,1287,2.39523E+001,-2.26621E+000,3.67223E-002,1.20598E+000,8.14650E-002,-1.64262E-002,1.20884E+000,8.93975E-003,3.64741E-001,0,1.80694E+001,1.15434E+000,9.99905E-001,-1.79491E+001,-2.82526E+001,9.98176E-001,1.86722E-002,-7.77332E-003,6.38701E-004,1.86876E-002,-7.78873E-003,1.38271E+000,1.87737E-002,1.01886E+000,-2.92190E-003,0.00000E+000,4.24145E-003,9.92601E-001,0.00000E+000,-4.88538E-003,-2.66459E-002,1.00000E+000,3
569,1347,-2.32019E+001,1.04428E+000,-2.83645E-002,2.88031E-001,-7.14755E-002,-1.86419E-002,2.97352E-001,2.86065E-003,6.56658E-001,0,4.58300E+000,-1.10319E+000,9.99947E-001,-3.47920E+001,-4.31913E+001,9.99687E-001,1.61880E-002,-7.27166E-003,-4.01259E-005,1.61881E-002,-7.27173E-003,-9.79994E-002,1.62159E-002,1.01627E+000,9.89637E-003,0.00000E+000,-9.74040E-003,9.93006E-001,0.00000E+000,-1.33609E-004,-2.45650E-002,1.00000E+000,3
569,1357,-2.31804E+001,1.68158E+000,-1.10344E-002,2.95112E-001,-7.48286E-002,-2.98695E-002,3.05913E-001,3.38705E-003,6.37769E-001,0,4.72233E+000,-1.12916E+000,9.99930E-001,-3.42423E+001,-4.34688E+001,9.99637E-001,1.57485E-002,-7.26915E-003,5.78345E-005,1.57486E-002,-7.26930E-003,1.43961E-001,1.57641E-002,1.01583E+000,9.88648E-003,0.00000E+000,-9.52109E-003,9.93011E-001,0.00000E+000,-9.29442E-004,-2.45826E-002,1.00000E+000,3
569,1327,-2.32323E+001,-2.17314E-001,1.43777E-002,2.75162E-001,-6.31252E-002,1.12131E-002,2.82532E-001,6.95133E-003,7.01610E-001,0,4.30452E+000,-1.03933E+000,9.99941E-001,-3.54592E+001,-4.26091E+001,9.99553E-001,1.70592E-002,-7.27315E-003,-2.38595E-004,1.70615E-002,-7.27548E-003,-5.61752E-001,1.71230E-002,1.01716E+000,9.90841E-003,0.00000E+000,-1.01764E-002,9.93000E-001,0.00000E+000,1.44836E-003,-2.45435E-002,1.00000E+000,3
569,1337,-2.32184E+001,4.10878E-001,-1.28965E-002,2.81056E-001,-6.82470E-002,-4.90849E-003,2.89265E-001,2.62241E-003,6.59802E-001,0,4.43861E+000,-1.08732E+000,9.99928E-001,-3.51643E+001,-4.29360E+001,9.99790E-001,1.66250E-002,-7.27265E-003,-1.39329E-004,1.66258E-002,-7.27346E-003,-3.34034E-001,1.66691E-002,1.01672E+000,9.90292E-003,0.00000E+000,-9.95887E-003,9.93003E-001,0.00000E+000,6.59137E-004,-2.45533E-002,1.00000E+000,3
1289,1327,2.46770E+001,3.17784E-001,-1.13896E-001,1.21172E+000,6.20886E-002,-8.26765E-002,1.21612E+000,5.75173E-003,4.20875E-001,0,1.84088E+001,9.63165E-001,9.99885E-001,-1.66391E+001,-2.76811E+001,9.98926E-001,2.02868E-002,-7.61520E-003,1.09247E-003,2.03295E-002,-7.65791E-003,2.23878E+000,2.05346E-002,1.02049E+000,-2.45295E-003,0.00000E+000,4.56872E-003,9.92727E-001,0.00000E+000,-6.09055E-004,-2.54836E-002,1.00000E+000,3
1289,1337,2.47111E+001,9.75315E-001,-7.20656E-002,1.21102E+000,5.77216E-002,-1.01248E-001,1.21661E+000,5.52162E-003,4.39023E-001,0,1.84694E+001,9.27385E-001,9.99924E-001,-1.59922E+001,-2.75563E+001,9.99172E-001,2.07428E-002,-7.60562E-003,1.19056E-003,2.07927E-002,-7.65553E-003,2.40063E+000,2.10322E-002,1.02096E+000,-2.42843E-003,0.00000E+000,4.71055E-003,9.92734E-001,0.00000E+000,5.00270E-004,-2.54252E-002,1.00000E+000,3
569,1317,-2.32389E+001,-8.36727E-001,9.53359E-002,2.68275E-001,-5.44115E-002,3.04125E-002,2.75422E-001,6.55417E-003,6.72918E-001,0,4.14564E+000,-9.39841E-001,9.99917E-001,-3.54781E+001,-4.22978E+001,9.99081E-001,1.74907E-002,-7.27112E-003,-3.40157E-004,1.74954E-002,-7.27579E-003,-7.86883E-001,1.75778E-002,1.01760E+000,9.90834E-003,0.00000E+000,-1.03930E-002,9.93000E-001,0.00000E+000,2.23435E-003,-2.45436E-002,1.00000E+000,3
1289,1317,2.46551E+001,-3.30633E-001,-1.16342E-001,1.21286E+000,6.71755E-002,-6.80012E-002,1.21662E+000,7.82454E-003,4.62716E-001,0,1.83682E+001,1.01613E+000,9.99906E-001,-1.70370E+001,-2.77245E+001,9.98271E-001,1.98343E-002,-7.62171E-003,9.99327E-004,1.98706E-002,-7.65804E-003,2.08175E+000,2.00438E-002,1.02003E+000,-2.46914E-003,0.00000E+000,4.42841E-003,9.92722E-001,0.00000E+000,-1.70644E-003,-2.55222E-002,1.00000E+000,3
1289,1287,2.46308E+001,-2.25671E+000,2.90606E-002,1.21758E+000,8.53365E-002,-1.80157E-002,1.22070E+000,8.18740E-003,4.06375E-001,0,1.82342E+001,1.20917E+000,9.99916E-001,-1.73653E+001,-2.79879E+001,9.98535E-001,1.84763E-002,-7.63089E-003,7.35010E-004,1.84970E-002,-7.65157E-003,1.61138E+000,1.85886E-002,1.01866E+000,-2.48966E-003,0.00000E+000,4.01006E-003,9.92715E-001,0.00000E+000,-4.97859E-003,-2.55711E-002,1.00000E+000,3
1289,1297,2.46364E+001,-1.61890E+000,-2.77787E-002,1.21648E+000,7.89664E-002,-3.21115E-002,1.21946E+000,9.30652E-003,3.35555E-001,0,1.82762E+001,1.14397E+000,9.99944E-001,-1.73079E+001,-2.79914E+001,9.98625E-001,1.89279E-002,-7.62864E-003,8.21613E-004,1.89532E-002,-7.65403E-003,1.77038E+000,1.90697E-002,1.01911E+000,-2.48497E-003,0.00000E+000,4.14874E-003,9.92717E-001,0.00000E+000,-3.89388E-003,-2.55599E-002,1.00000E+000,3
1289,1307,2.46408E+001,-9.76278E-001,-9.35792E-002,1.21455E+000,7.25692E-002,-5.36662E-002,1.21790E+000,7.90017E-003,4.45784E-001,0,1.83360E+001,1.08160E+000,9.99959E-001,-1.72813E+001,-2.78114E+001,9.98262E-001,1.93814E-002,-7.62643E-003,9.08748E-004,1.94120E-002,-7.65697E-003,1.92496E+000,1.95556E-002,1.01957E+000,-2.48045E-003,0.00000E+000,4.28848E-003,9.92718E-001,0.00000E+000,-2.80096E-003,-2.55491E-002,1.00000E+000,3
559,1327,-2.38774E+001,-2.13495E-001,9.35373E-003,2.66791E-001,-5.55610E-002,3.95138E-003,2.72543E-001,1.27480E-002,7.83605E-001,0,4.19219E+000,-9.25054E-001,9.99946E-001,-3.52866E+001,-4.25925E+001,9.99483E-001,1.69790E-002,-7.29529E-003,-1.69947E-004,1.69802E-002,-7.29648E-003,-4.01109E-001,1.70360E-002,1.01707E+000,1.04096E-002,0.00000E+000,-1.05316E-002,9.92956E-001,0.00000E+000,1.56769E-003,-2.37734E-002,1.00000E+000,3
559,1337,-2.38655E+001,4.13033E-001,-1.56721E-002,2.70992E-001,-6.11954E-002,-8.42482E-003,2.77944E-001,3.73671E-003,6.74675E-001,0,4.29023E+000,-9.66393E-001,9.99915E-001,-3.50151E+001,-4.29852E+001,9.99735E-001,1.65442E-002,-7.29500E-003,-7.52482E-005,1.65445E-002,-7.29523E-003,-1.80851E-001,1.65829E-002,1.01663E+000,1.04044E-002,0.00000E+000,-1.03229E-002,9.92959E-001,0.00000E+000,7.24020E-004,-2.37834E-002,1.00000E+000,3
559,1347,-2.38496E+001,1.04527E+000,-2.43941E-002,2.77488E-001,-6.38273E-002,-1.60264E-002,2.85185E-001,3.74692E-003,6.47957E-001,0,4.41120E+000,-1.00047E+000,9.99900E-001,-3.46293E+001,-4.32866E+001,9.99703E-001,1.61071E-002,-7.29415E-003,1.91567E-005,1.61071E-002,-7.29417E-003,4.69035E-002,1.61309E-002,1.01618E+000,1.03979E-002,0.00000E+000,-1.01135E-002,9.92962E-001,0.00000E+000,-1.22460E-004,-2.37959E-002,1.00000E+000,3
559,1357,-2.38287E+001,1.68123E+000,-1.37971E-002,2.84614E-001,-6.74558E-002,-3.02446E-002,2.94058E-001,3.13793E-003,6.18850E-001,0,4.55875E+000,-1.02352E+000,9.99935E-001,-3.41097E+001,-4.35770E+001,9.99734E-001,1.56666E-002,-7.29208E-003,1.12680E-004,1.56672E-002,-7.29264E-003,2.81195E-001,1.56796E-002,1.01574E+000,1.03885E-002,0.00000E+000,-9.90309E-003,9.92966E-001,0.00000E+000,-9.73426E-004,-2.38137E-002,1.00000E+000,3
559,1317,-2.38848E+001,-8.33209E-001,1.00745E-001,2.58652E-001,-4.77646E-002,3.08533E-002,2.64828E-001,1.14420E-002,7.19746E-001,0,3.99486E+000,-8.38840E-001,9.99946E-001,-3.52852E+001,-4.23238E+001,9.99360E-001,1.74115E-002,-7.29315E-003,-2.67090E-004,1.74144E-002,-7.29603E-003,-6.19348E-001,1.74904E-002,1.01751E+000,1.04093E-002,0.00000E+000,-1.07396E-002,9.92956E-001,0.00000E+000,2.40877E-003,-2.37741E-002,1.00000E+000,3
1299,1327,2.53610E+001,3.27676E-001,-1.14420E-001,1.22534E+000,6.45507E-002,-8.66523E-002,1.23009E+000,6.18782E-003,4.40409E-001,0,1.86145E+001,1.00342E+000,9.99914E-001,-1.59593E+001,-2.74303E+001,9.99470E-001,2.01956E-002,-7.43167E-003,1.22614E-003,2.02499E-002,-7.48599E-003,2.53623E+000,2.04779E-002,1.02040E+000,-1.98654E-003,0.00000E+000,4.37539E-003,9.92879E-001,0.00000E+000,-3.79635E-004,-2.42322E-002,1.00000E+000,3
1299,1337,2.53974E+001,9.86761E-001,-6.52127E-002,1.22548E+000,6.00797E-002,-1.02396E-001,1.23121E+000,6.39157E-003,4.75375E-001,0,1.86764E+001,9.62599E-001,9.99938E-001,-1.52682E+001,-2.72877E+001,9.99067E-001,2.06683E-002,-7.42053E-003,1.33592E-003,2.07317E-002,-7.48393E-003,2.71684E+000,2.09971E-002,1.02088E+000,-1.96006E-003,0.00000E+000,4.53751E-003,9.92888E-001,0.00000E+000,8.39374E-004,-2.41654E-002,1.00000E+000,3
1299,1287,2.53153E+001,-2.24556E+000,3.38173E-002,1.23027E+000,8.76543E-002,-2.29592E-002,1.23360E+000,6.84502E-003,4.89888E-001,0,1.84285E+001,1.24143E+000,9.99936E-001,-1.66680E+001,-2.77026E+001,9.98429E-001,1.83213E-002,-7.44865E-003,8.27155E-004,1.83478E-002,-7.47517E-003,1.83654E+000,1.84524E-002,1.01850E+000,-2.02353E-003,0.00000E+000,3.73849E-003,9.92867E-001,0.00000E+000,-5.16878E-003,-2.43255E-002,1.00000E+000,3
1299,1297,2.53191E+001,-1.60904E+000,-2.93658E-002,1.22889E+000,8.02562E-002,-3.80210E-002,1.23209E+000,7.30420E-003,4.50391E-001,0,1.84711E+001,1.15087E+000,9.99951E-001,-1.66467E+001,-2.76956E+001,9.98717E-001,1.87892E-002,-7.44659E-003,9.23647E-004,1.88217E-002,-7.47907E-003,2.01381E+000,1.89534E-002,1.01897E+000,-2.01970E-003,0.00000E+000,3.89666E-003,9.92868E-001,0.00000E+000,-3.97945E-003,-2.43158E-002,1.00000E+000,3
1299,1307,2.53306E+001,-9.63405E-001,-6.50887E-002,1.22978E+000,7.63264E-002,-4.48849E-002,1.23296E+000,1.30784E-002,4.88820E-001,0,1.85120E+001,1.10063E+000,9.99952E-001,-1.64668E+001,-2.75675E+001,9.98821E-001,1.92592E-002,-7.44295E-003,1.02279E-003,1.92983E-002,-7.48207E-003,2.19035E+000,1.94599E-002,1.01945E+000,-2.01195E-003,0.00000E+000,4.05606E-003,9.92871E-001,0.00000E+000,-2.78085E-003,-2.42963E-002,1.00000E+000,3
1299,1317,2.53433E+001,-3.18998E-001,-9.71708E-002,1.22700E+000,6.97979E-002,-6.59983E-002,1.23075E+000,9.45993E-003,4.79777E-001,0,1.85564E+001,1.04489E+000,9.99917E-001,-1.62630E+001,-2.74918E+001,9.98954E-001,1.97280E-002,-7.43789E-003,1.12375E-003,1.97744E-002,-7.48429E-003,2.36473E+000,1.99682E-002,1.01992E+000,-2.00067E-003,0.00000E+000,4.21566E-003,9.92874E-001,0.00000E+000,-1.58074E-003,-2.42678E-002,1.00000E+000,3
559,1307,-2.38903E+001,-1.45368E+000,1.89444E-001,2.50679E-001,-4.18748E-002,4.40148E-002,2.57936E-001,4.73015E-003,6.88693E-001,0,3.83506E+000,-7.74992E-001,9.99884E-001,-3.52628E+001,-4.20439E+001,9.99248E-001,1.78426E-002,-7.29049E-003,-3.64710E-004,1.78479E-002,-7.29578E-003,-8.31193E-001,1.79467E-002,1.01795E+000,1.04077E-002,0.00000E+000,-1.09474E-002,9.92957E-001,0.00000E+000,3.24908E-003,-2.37771E-002,1.00000E+000,3
549,1347,-2.44956E+001,1.04810E+000,-2.61406E-002,2.68134E-001,-5.66271E-002,-1.89753E-002,2.74705E-001,3.15058E-003,6.77281E-001,0,4.27213E+000,-8.75525E-001,9.99891E-001,-3.44553E+001,-4.33223E+001,9.99725E-001,1.60178E-002,-7.31927E-003,9.13620E-005,1.60182E-002,-7.31962E-003,2.24302E-001,1.60379E-002,1.01609E+000,1.08986E-002,0.00000E+000,-1.04647E-002,9.92915E-001,0.00000E+000,7.29700E-005,-2.30207E-002,1.00000E+000,3
549,1357,-2.44748E+001,1.68496E+000,-8.54252E-003,2.74563E-001,-6.01616E-002,-3.14755E-002,2.82834E-001,2.94428E-003,6.58037E-001,0,4.40414E+000,-9.02539E-001,9.99931E-001,-3.39123E+001,-4.36112E+001,9.99790E-001,1.55687E-002,-7.31717E-003,1.81357E-004,1.55701E-002,-7.31860E-003,4.53998E-001,1.55794E-002,1.01563E+000,1.08886E-002,0.00000E+000,-1.02614E-002,9.92920E-001,0.00000E+000,-7.85284E-004,-2.30396E-002,1.00000E+000,3
549,1327,-2.45263E+001,-2.08842E-001,2.90987E-002,2.52607E-001,-4.65267E-002,1.14786E-002,2.57112E-001,9.04558E-003,7.29173E-001,0,3.95085E+000,-7.83137E-001,9.99873E-001,-3.50917E+001,-4.26849E+001,9.98631E-001,1.69067E-002,-7.31965E-003,-9.18491E-005,1.69070E-002,-7.32000E-003,-2.17221E-001,1.69576E-002,1.01699E+000,1.09093E-002,0.00000E+000,-1.08683E-002,9.92911E-001,0.00000E+000,1.77710E-003,-2.30007E-002,1.00000E+000,3
549,1337,-2.45118E+001,4.15791E-001,-7.84996E-003,2.61085E-001,-5.21561E-002,-3.83956E-003,2.66271E-001,3.26552E-003,6.64155E-001,0,4.12314E+000,-8.47223E-001,9.99914E-001,-3.48153E+001,-4.30608E+001,9.99760E-001,1.64647E-002,-7.31988E-003,-1.47281E-007,1.64647E-002,-7.31988E-003,-3.54792E-004,1.64984E-002,1.01654E+000,1.09050E-002,0.00000E+000,-1.06674E-002,9.92912E-001,0.00000E+000,9.28753E-004,-2.30088E-002,1.00000E+000,3
1309,1317,2.60219E+001,-3.14030E-001,-1.14767E-001,1.23910E+000,7.09673E-002,-7.17825E-002,1.24320E+000,6.53749E-003,4.60613E-001,0,1.87476E+001,1.07028E+000,9.99926E-001,-1.56869E+001,-2.73017E+001,9.99219E-001,1.96394E-002,-7.28233E-003,1.22243E-003,1.96948E-002,-7.33772E-003,2.59451E+000,1.99068E-002,1.01984E+000,-1.52543E-003,0.00000E+000,3.94818E-003,9.93002E-001,0.00000E+000,-1.58370E-003,-2.30614E-002,1.00000E+000,3
1309,1327,2.60440E+001,3.35324E-001,-1.18692E-001,1.23901E+000,6.64258E-002,-8.88507E-002,1.24397E+000,7.35250E-003,4.18907E-001,0,1.88142E+001,1.03760E+000,9.99921E-001,-1.52969E+001,-2.72267E+001,9.99143E-001,2.01107E-002,-7.27576E-003,1.32062E-003,2.01743E-002,-7.33930E-003,2.75437E+000,2.04223E-002,1.02032E+000,-1.50916E-003,0.00000E+000,4.09920E-003,9.93007E-001,0.00000E+000,-3.84929E-004,-2.30208E-002,1.00000E+000,3
1309,1337,2.60787E+001,9.93405E-001,-7.50263E-002,1.23854E+000,6.16164E-002,-1.05264E-001,1.24453E+000,6.90435E-003,4.45306E-001,0,1.88703E+001,9.94343E-001,9.99956E-001,-1.46433E+001,-2.70904E+001,9.99383E-001,2.05857E-002,-7.26563E-003,1.42442E-003,2.06584E-002,-7.33829E-003,2.92016E+000,2.09451E-002,1.02080E+000,-1.48336E-003,0.00000E+000,4.25196E-003,9.93015E-001,0.00000E+000,8.27546E-004,-2.29563E-002,1.00000E+000,3
549,1317,-2.45329E+001,-8.30878E-001,1.01900E-001,2.46428E-001,-4.16885E-002,2.71501E-002,2.51399E-001,7.21421E-003,7.29064E-001,0,3.81365E+000,-7.27580E-001,9.99936E-001,-3.51356E+001,-4.23783E+001,9.99208E-001,1.73467E-002,-7.31784E-003,-1.85213E-004,1.73481E-002,-7.31923E-003,-4.30217E-001,1.74185E-002,1.01744E+000,1.09097E-002,0.00000E+000,-1.10688E-002,9.92910E-001,0.00000E+000,2.62342E-003,-2.29999E-002,1.00000E+000,3
549,1307,-2.45382E+001,-1.45051E+000,1.84996E-001,2.39567E-001,-3.43195E-002,4.03434E-002,2.45352E-001,5.08777E-003,7.02575E-001,0,3.67113E+000,-6.43707E-001,9.99893E-001,-3.51267E+001,-4.20694E+001,9.99222E-001,1.77863E-002,-7.31546E-003,-2.79347E-004,1.77894E-002,-7.31856E-003,-6.37515E-001,1.78823E-002,1.01789E+000,1.09088E-002,0.00000E+000,-1.12695E-002,9.92911E-001,0.00000E+000,3.47082E-003,-2.30017E-002,1.00000E+000,3
1309,1287,2.60012E+001,-2.23964E+000,4.02965E-002,1.24311E+000,8.77677E-002,-2.95012E-002,1.24656E+000,6.57469E-003,4.50763E-001,0,1.86323E+001,1.25015E+000,9.99935E-001,-1.59416E+001,-2.75633E+001,9.98213E-001,1.82257E-002,-7.29049E-003,9.44695E-004,1.82606E-002,-7.32542E-003,2.11742E+000,1.83791E-002,1.01841E+000,-1.54361E-003,0.00000E+000,3.49842E-003,9.92996E-001,0.00000E+000,-5.15369E-003,-2.31068E-002,1.00000E+000,3
1309,1297,2.60034E+001,-1.60102E+000,-2.78209E-002,1.24178E+000,8.07578E-002,-4.27651E-002,1.24514E+000,7.94308E-003,4.79005E-001,0,1.86688E+001,1.16489E+000,9.99924E-001,-1.59540E+001,-2.74784E+001,9.98582E-001,1.86976E-002,-7.28908E-003,1.03541E-003,1.87388E-002,-7.33027E-003,2.27806E+000,1.88862E-002,1.01888E+000,-1.54102E-003,0.00000E+000,3.64804E-003,9.92997E-001,0.00000E+000,-3.96605E-003,-2.31003E-002,1.00000E+000,3
1309,1307,2.60063E+001,-9.61182E-001,-8.94722E-002,1.23979E+000,7.65783E-002,-5.48189E-002,1.24336E+000,7.21625E-003,4.01957E-001,0,1.86890E+001,1.13573E+000,9.99929E-001,-1.59454E+001,-2.74413E+001,9.99395E-001,1.91667E-002,-7.28728E-003,1.12635E-003,1.92145E-002,-7.33515E-003,2.43366E+000,1.93928E-002,1.01936E+000,-1.53742E-003,0.00000E+000,3.79725E-003,9.92998E-001,0.00000E+000,-2.78166E-003,-2.30914E-002,1.00000E+000,3
539,1347,-2.51424E+001,1.05010E+000,-2.50088E-002,2.57520E-001,-4.88930E-002,-2.01340E-002,2.62893E-001,3.24619E-003,6.63063E-001,0,4.10841E+000,-7.47989E-001,9.99924E-001,-3.42796E+001,-4.33989E+001,9.99647E-001,1.59953E-002,-7.38395E-003,1.58914E-004,1.59964E-002,-7.38503E-003,3.89429E-001,1.60120E-002,1.01606E+000,1.13501E-002,0.00000E+000,-1.07757E-002,9.92832E-001,0.00000E+000,2.77286E-004,-2.22954E-002,1.00000E+000,3
539,1357,-2.51222E+001,1.68726E+000,-1.20335E-002,2.64403E-001,-5.14399E-002,-3.12723E-002,2.71170E-001,2.92490E-003,6.40873E-001,0,4.24388E+000,-7.54658E-001,9.99943E-001,-3.37589E+001,-4.36764E+001,9.99767E-001,1.55675E-002,-7.38208E-003,2.57845E-004,1.55704E-002,-7.38497E-003,6.43626E-001,1.55772E-002,1.01563E+000,1.13413E-002,0.00000E+000,-1.05575E-002,9.92836E-001,0.00000E+000,-5.29761E-004,-2.23118E-002,1.00000E+000,3
539,1327,-2.51727E+001,-2.09044E-001,2.64048E-002,2.42668E-001,-3.92183E-002,9.24496E-003,2.45990E-001,4.02912E-003,6.56219E-001,0,3.80102E+000,-6.57971E-001,9.99883E-001,-3.49239E+001,-4.28127E+001,9.99186E-001,1.68438E-002,-7.38429E-003,-4.14115E-005,1.68439E-002,-7.38436E-003,-9.79314E-002,1.68865E-002,1.01692E+000,1.13604E-002,0.00000E+000,-1.12096E-002,9.92826E-001,0.00000E+000,1.88281E-003,-2.22762E-002,1.00000E+000,3
539,1337,-2.51584E+001,4.18604E-001,-8.50400E-003,2.50443E-001,-4.38856E-002,-7.15124E-003,2.54360E-001,3.23370E-003,6.59261E-001,0,3.96440E+000,-7.10799E-001,9.99916E-001,-3.46439E+001,-4.31146E+001,9.99630E-001,1.64211E-002,-7.38449E-003,5.88611E-005,1.64213E-002,-7.38464E-003,1.41667E-001,1.64489E-002,1.01649E+000,1.13560E-002,0.00000E+000,-1.09932E-002,9.92829E-001,0.00000E+000,1.08218E-003,-2.22844E-002,1.00000E+000,3
1319,1297,2.66805E+001,-1.59814E+000,-4.53687E-002,1.25198E+000,8.14860E-002,-4.89032E-002,1.25558E+000,6.54705E-003,3.75658E-001,0,1.88326E+001,1.20654E+000,9.99911E-001,-1.53958E+001,-2.73669E+001,9.98915E-001,1.85854E-002,-7.07363E-003,1.12747E-003,1.86348E-002,-7.12308E-003,2.51116E+000,1.88063E-002,1.01877E+000,-1.04018E-003,0.00000E+000,3.33957E-003,9.93183E-001,0.00000E+000,-4.00368E-003,-2.18065E-002,1.00000E+000,3
1319,1307,2.66872E+001,-9.57169E-001,-9.81211E-002,1.25054E+000,7.56425E-002,-6.36992E-002,1.25444E+000,6.75976E-003,3.59699E-001,0,1.88729E+001,1.14156E+000,9.99915E-001,-1.53153E+001,-2.72986E+001,9.99415E-001,1.90672E-002,-7.07081E-003,1.22622E-003,1.91246E-002,-7.12821E-003,2.68009E+000,1.93300E-002,1.01926E+000,-1.03402E-003,0.00000E+000,3.50276E-003,9.93185E-001,0.00000E+000,-2.78302E-003,-2.17911E-002,1.00000E+000,3
539,1307,-2.51851E+001,-1.44865E+000,1.85207E-001,2.28657E-001,-2.64658E-002,3.81231E-002,2.33319E-001,4.10503E-003,6.56127E-001,0,3.50634E+000,-5.12691E-001,9.99881E-001,-3.49561E+001,-4.21550E+001,9.99248E-001,1.76818E-002,-7.37941E-003,-2.45439E-004,1.76842E-002,-7.38181E-003,-5.61059E-001,1.77644E-002,1.01778E+000,1.13595E-002,0.00000E+000,-1.16398E-002,9.92827E-001,0.00000E+000,3.47490E-003,-2.22778E-002,1.00000E+000,3
539,1317,-2.51806E+001,-8.31667E-001,9.53999E-002,2.35520E-001,-3.42810E-002,2.30694E-002,2.39118E-001,3.91998E-003,6.47882E-001,0,3.65342E+000,-6.02076E-001,9.99880E-001,-3.49988E+001,-4.25095E+001,9.99292E-001,1.72638E-002,-7.38232E-003,-1.43078E-004,1.72646E-002,-7.38315E-003,-3.32604E-001,1.73248E-002,1.01735E+000,1.13610E-002,0.00000E+000,-1.14250E-002,9.92826E-001,0.00000E+000,2.67994E-003,-2.22751E-002,1.00000E+000,3
1319,1287,2.66820E+001,-2.23536E+000,3.33174E-002,1.25458E+000,8.72342E-002,-3.37058E-002,1.25807E+000,7.55260E-003,4.33837E-001,0,1.88070E+001,1.25132E+000,9.99920E-001,-1.53118E+001,-2.74108E+001,9.98751E-001,1.81040E-002,-7.07436E-003,1.03177E-003,1.81462E-002,-7.11657E-003,2.34267E+000,1.82863E-002,1.01828E+000,-1.04102E-003,0.00000E+000,3.17714E-003,9.93183E-001,0.00000E+000,-5.21875E-003,-2.18086E-002,1.00000E+000,3
529,1327,-2.58178E+001,-2.06394E-001,2.66090E-002,2.32799E-001,-3.12487E-002,4.41794E-003,2.34929E-001,3.88290E-003,6.46131E-001,0,3.65815E+000,-5.26896E-001,9.99850E-001,-3.47221E+001,-4.28716E+001,9.98956E-001,1.68125E-002,-7.39400E-003,3.86823E-006,1.68125E-002,-7.39400E-003,9.15592E-003,1.68531E-002,1.01689E+000,1.16715E-002,0.00000E+000,-1.14284E-002,9.92801E-001,0.00000E+000,2.15328E-003,-2.16823E-002,1.00000E+000,3
529,1307,-2.58302E+001,-1.44654E+000,1.89276E-001,2.18173E-001,-1.97468E-002,3.36883E-002,2.21640E-001,4.66018E-003,6.38284E-001,0,3.35361E+000,-4.01245E-001,9.99910E-001,-3.47426E+001,-4.22306E+001,9.99571E-001,1.75522E-002,-7.38971E-003,-1.66128E-004,1.75533E-002,-7.39081E-003,-3.81601E-001,1.76261E-002,1.01765E+000,1.16704E-002,0.00000E+000,-1.17890E-002,9.92802E-001,0.00000E+000,3.66297E-003,-2.16845E-002,1.00000E+000,3
529,1317,-2.58268E+001,-8.29295E-001,9.13671E-002,2.25404E-001,-2.62624E-002,1.97298E-002,2.27785E-001,4.41548E-003,6.42135E-001,0,3.50328E+000,-4.71337E-001,9.99908E-001,-3.48273E+001,-4.25598E+001,9.99255E-001,1.71834E-002,-7.39254E-003,-8.05243E-005,1.71837E-002,-7.39280E-003,-1.87730E-001,1.72393E-002,1.01727E+000,1.16725E-002,0.00000E+000,-1.16090E-002,9.92801E-001,0.00000E+000,2.90945E-003,-2.16803E-002,1.00000E+000,3
