Coordinates.Image X [Pixel],Coordinates.Image Y [Pixel],coor.X [mm],coor.Y [mm],coor.Z [mm],disp.Horizontal Displacement U [mm],disp.Vertical Displacement V [mm],disp.Out-Of-Plane: W [mm],disp.Displacement Magnitude [mm],stats.Sigma [mm],stats.Epipolar Distance [Pixel],stats.Shape Index [-],SameCamera.Horizontal: u [Pixel],SameCamera.Vertical: v [Pixel],SameCamera.Correlation Value 2D [-],CrossCamera.Horizontal: q [Pixel],CrossCamera.Vertical: r [Pixel],CrossCamera.Correlation Value Persp [-],strain.Strain-global frame: Exx [ ],strain.Strain-global frame: Eyy [ ],strain.Strain-global frame: Exy [ ],strain.Maximum Principal Strain: EI [ ],strain.Minimum Principal Strain: EII [ ],strain.Shear Angle Gamma [deg],strain.Von Mises Equivalent Strain [ ],defgradient.F[0,0] [-],defgradient.F[0,1] [-],defgradient.F[0,2] [-],defgradient.F[1,0] [-],defgradient.F[1,1] [-],defgradient.F[1,2] [-],defgradient.F[2,0] [-],defgradient.F[2,1] [-],defgradient.F[2,2] [-],ext.Current Image [#]
929,1317,1.35488E+000,-8.84008E-001,1.00083E-002,1.69095E+000,-2.67649E-001,9.67289E-002,1.71473E+000,7.02264E-003,4.92379E-001,0,2.56881E+001,-4.58154E+000,9.99732E-001,-1.87143E+001,-3.95496E+001,9.98859E-001,4.74266E-002,-1.96749E-002,4.56134E-004,4.74297E-002,-1.96780E-002,3.89454E-001,4.76582E-002,1.04857E+000,-1.12490E-002,0.00000E+000,1.20771E-002,9.82339E-001,0.00000E+000,-1.12359E-002,-6.20856E-002,1.00000E+000,7
919,1307,6.65124E-001,-1.52495E+000,5.40993E-002,1.66774E+000,-2.59311E-001,1.45617E-001,1.69405E+000,8.97962E-003,5.19069E-001,0,2.51909E+001,-4.55323E+000,9.99637E-001,-1.93740E+001,-3.96204E+001,9.97121E-001,4.86337E-002,-1.94446E-002,2.46141E-004,4.86346E-002,-1.94454E-002,2.07153E-001,4.89589E-002,1.04983E+000,-1.01619E-002,0.00000E+000,1.05793E-002,9.82626E-001,0.00000E+000,-1.01023E-002,-6.28288E-002,1.00000E+000,7
919,1317,6.59267E-001,-9.05422E-001,-3.55306E-002,1.65908E+000,-2.74785E-001,1.06898E-001,1.68507E+000,9.15312E-003,4.86396E-001,0,2.51903E+001,-4.71930E+000,9.99657E-001,-1.95578E+001,-3.98778E+001,9.96967E-001,4.75887E-002,-1.94494E-002,6.89540E-005,4.75888E-002,-1.94495E-002,5.89332E-002,4.78525E-002,1.04873E+000,-1.01668E-002,0.00000E+000,1.01789E-002,9.82625E-001,0.00000E+000,-9.01394E-003,-6.28240E-002,1.00000E+000,7
919,1327,6.69780E-001,-2.73476E-001,-6.33654E-002,1.65246E+000,-2.89908E-001,6.39322E-002,1.67892E+000,8.31507E-003,5.25067E-001,0,2.52314E+001,-4.86651E+000,9.99723E-001,-1.93477E+001,-4.00392E+001,9.97779E-001,4.65275E-002,-1.94618E-002,-1.22278E-004,4.65277E-002,-1.94621E-002,-1.06168E-001,4.67344E-002,1.04761E+000,-1.01965E-002,0.00000E+000,9.77308E-003,9.82614E-001,0.00000E+000,-7.91100E-003,-6.27948E-002,1.00000E+000,7
929,1307,1.35684E+000,-1.50619E+000,8.35881E-002,1.70009E+000,-2.51555E-001,1.39288E-001,1.72423E+000,6.64208E-003,5.22710E-001,0,2.56831E+001,-4.41563E+000,9.99788E-001,-1.86273E+001,-3.93015E+001,9.99101E-001,4.84981E-002,-1.96707E-002,5.61974E-004,4.85028E-002,-1.96753E-002,4.72296E-001,4.87898E-002,1.04971E+000,-1.12361E-002,0.00000E+000,1.23443E-002,9.82342E-001,0.00000E+000,-1.25896E-002,-6.21008E-002,1.00000E+000,7
929,1327,1.36028E+000,-2.54635E-001,-3.28269E-002,1.68292E+000,-2.80619E-001,5.60731E-002,1.70707E+000,5.68965E-003,4.65028E-001,0,2.57009E+001,-4.70641E+000,9.99832E-001,-1.86174E+001,-3.97511E+001,9.99274E-001,4.63480E-002,-1.96809E-002,3.44571E-004,4.63498E-002,-1.96827E-002,2.98987E-001,4.65248E-002,1.04742E+000,-1.12730E-002,0.00000E+000,1.18089E-002,9.82334E-001,0.00000E+000,-9.87691E-003,-6.20571E-002,1.00000E+000,7
939,1307,2.04249E+000,-1.48992E+000,7.72658E-002,1.73141E+000,-2.42189E-001,1.22573E-001,1.75256E+000,7.68635E-003,5.17971E-001,0,2.61950E+001,-4.23441E+000,9.99806E-001,-1.80512E+001,-3.89499E+001,9.98973E-001,4.83604E-002,-1.94847E-002,8.61249E-004,4.83713E-002,-1.94956E-002,7.27177E-001,4.86735E-002,1.04958E+000,-1.23339E-002,0.00000E+000,1.40647E-002,9.82450E-001,0.00000E+000,-1.45199E-002,-6.11853E-002,1.00000E+000,7
939,1317,2.04145E+000,-8.67762E-001,1.18754E-002,1.72238E+000,-2.58249E-001,8.47803E-002,1.74369E+000,7.71284E-003,4.63007E-001,0,2.61864E+001,-4.40986E+000,9.99788E-001,-1.81057E+001,-3.92264E+001,9.98459E-001,4.73567E-002,-1.94891E-002,7.59556E-004,4.73653E-002,-1.94978E-002,6.50929E-001,4.76112E-002,1.04850E+000,-1.23474E-002,0.00000E+000,1.37969E-002,9.82446E-001,0.00000E+000,-1.29889E-002,-6.11661E-002,1.00000E+000,7
939,1327,2.04809E+000,-2.34800E-001,-2.61351E-002,1.71393E+000,-2.70900E-001,4.21517E-002,1.73572E+000,4.88147E-003,5.03639E-001,0,2.61998E+001,-4.52777E+000,9.99818E-001,-1.79797E+001,-3.93473E+001,9.99198E-001,4.63409E-002,-1.94956E-002,6.51294E-004,4.63473E-002,-1.95021E-002,5.66730E-001,4.65408E-002,1.04742E+000,-1.23729E-002,0.00000E+000,1.35268E-002,9.82440E-001,0.00000E+000,-1.14445E-002,-6.11297E-002,1.00000E+000,7
919,1337,6.86760E-001,3.63596E-001,-6.77102E-002,1.64740E+000,-3.01428E-001,2.13850E-002,1.67489E+000,5.91420E-003,4.93487E-001,0,2.52922E+001,-4.95451E+000,9.99663E-001,-1.89833E+001,-4.02091E+001,9.98987E-001,4.54635E-002,-1.94768E-002,-3.17706E-004,4.54651E-002,-1.94784E-002,-2.80298E-001,4.56201E-002,1.04648E+000,-1.02347E-002,0.00000E+000,9.36709E-003,9.82600E-001,0.00000E+000,-6.80755E-003,-6.27572E-002,1.00000E+000,7
929,1337,1.37351E+000,3.79943E-001,-5.27214E-002,1.67654E+000,-2.93991E-001,1.00717E-002,1.70215E+000,5.37953E-003,4.68338E-001,0,2.57553E+001,-4.81980E+000,9.99874E-001,-1.83478E+001,-3.99076E+001,9.99456E-001,4.52596E-002,-1.96888E-002,2.27062E-004,4.52604E-002,-1.96896E-002,2.00305E-001,4.53876E-002,1.04627E+000,-1.13081E-002,0.00000E+000,1.15390E-002,9.82325E-001,0.00000E+000,-8.50946E-003,-6.20154E-002,1.00000E+000,7
939,1337,2.05983E+000,3.99079E-001,-4.72276E-002,1.70692E+000,-2.83952E-001,-4.66879E-004,1.73037E+000,4.71626E-003,4.96817E-001,0,2.62343E+001,-4.64788E+000,9.99850E-001,-1.77369E+001,-3.95158E+001,9.99458E-001,4.53211E-002,-1.95031E-002,5.39933E-004,4.53256E-002,-1.95076E-002,4.77183E-001,4.54718E-002,1.04633E+000,-1.24046E-002,0.00000E+000,1.32565E-002,9.82432E-001,0.00000E+000,-9.89917E-003,-6.10845E-002,1.00000E+000,7
949,1317,2.73139E+000,-8.46567E-001,1.89423E-002,1.75538E+000,-2.46619E-001,7.22113E-002,1.77409E+000,8.40607E-003,4.95308E-001,0,2.67094E+001,-4.20454E+000,9.99701E-001,-1.74295E+001,-3.88069E+001,9.98635E-001,4.72722E-002,-1.93416E-002,1.00022E-003,4.72872E-002,-1.93566E-002,8.60047E-001,4.75456E-002,1.04842E+000,-1.33613E-002,0.00000E+000,1.52797E-002,9.82491E-001,0.00000E+000,-1.42944E-002,-5.98008E-002,1.00000E+000,7
949,1327,2.73565E+000,-2.15890E-001,-2.36463E-002,1.74562E+000,-2.59648E-001,3.03153E-002,1.76509E+000,7.30533E-003,4.92045E-001,0,2.67018E+001,-4.32930E+000,9.99707E-001,-1.73511E+001,-3.89738E+001,9.99201E-001,4.63802E-002,-1.93466E-002,9.14258E-004,4.63930E-002,-1.93593E-002,7.96777E-001,4.66041E-002,1.04746E+000,-1.33824E-002,0.00000E+000,1.50370E-002,9.82486E-001,0.00000E+000,-1.25211E-002,-5.97618E-002,1.00000E+000,7
949,1337,2.74608E+000,4.18353E-001,-4.25412E-002,1.73780E+000,-2.72388E-001,-7.14156E-003,1.75903E+000,6.78625E-003,5.05508E-001,0,2.67073E+001,-4.46247E+000,9.99689E-001,-1.71250E+001,-3.91299E+001,9.99007E-001,4.54813E-002,-1.93525E-002,8.24898E-004,4.54918E-002,-1.93630E-002,7.28832E-001,4.56592E-002,1.04650E+000,-1.34099E-002,0.00000E+000,1.47936E-002,9.82479E-001,0.00000E+000,-1.07417E-002,-5.97110E-002,1.00000E+000,7
949,1307,2.73383E+000,-1.47145E+000,8.66837E-002,1.76550E+000,-2.32489E-001,1.10576E-001,1.78417E+000,7.11383E-003,5.32952E-001,0,2.67323E+001,-4.06408E+000,9.99745E-001,-1.73486E+001,-3.85874E+001,9.98960E-001,4.81560E-002,-1.93380E-002,1.08126E-003,4.81734E-002,-1.93553E-002,9.17571E-001,4.84822E-002,1.04937E+000,-1.33498E-002,0.00000E+000,1.55212E-002,9.82494E-001,0.00000E+000,-1.60591E-002,-5.98221E-002,1.00000E+000,7
909,1317,-2.16351E-002,-9.19889E-001,-3.68960E-002,1.62989E+000,-2.81446E-001,1.07840E-001,1.65752E+000,8.87785E-003,4.60198E-001,0,2.47604E+001,-4.83789E+000,9.99476E-001,-2.00706E+001,-4.02019E+001,9.96906E-001,4.78233E-002,-1.95375E-002,-3.36643E-004,4.78249E-002,-1.95392E-002,-2.86333E-001,4.80908E-002,1.04897E+000,-8.96732E-003,0.00000E+000,8.12025E-003,9.82571E-001,0.00000E+000,-6.71057E-003,-6.30796E-002,1.00000E+000,7
909,1327,-9.56753E-003,-2.86112E-001,-6.58733E-002,1.62532E+000,-2.95282E-001,6.55011E-002,1.65323E+000,6.83792E-003,4.99516E-001,0,2.48296E+001,-4.95099E+000,9.99598E-001,-1.98378E+001,-4.03336E+001,9.98197E-001,4.67932E-002,-1.95486E-002,-5.19141E-004,4.67973E-002,-1.95527E-002,-4.48317E-001,4.70075E-002,1.04788E+000,-8.99499E-003,0.00000E+000,7.75236E-003,9.82562E-001,0.00000E+000,-5.99849E-003,-6.30615E-002,1.00000E+000,7
909,1337,6.81336E-003,3.54581E-001,-6.87889E-002,1.61955E+000,-3.06090E-001,2.34065E-002,1.64838E+000,6.93843E-003,5.47779E-001,0,2.48768E+001,-5.02226E+000,9.99653E-001,-1.94778E+001,-4.04126E+001,9.99025E-001,4.57575E-002,-1.95625E-002,-7.06707E-004,4.57651E-002,-1.95701E-002,-6.19796E-001,4.59247E-002,1.04679E+000,-9.03179E-003,0.00000E+000,7.38301E-003,9.82549E-001,0.00000E+000,-5.28358E-003,-6.30373E-002,1.00000E+000,7
909,1307,-1.74371E-002,-1.53839E+000,5.97400E-002,1.63586E+000,-2.65140E-001,1.48870E-001,1.66389E+000,9.18574E-003,4.46609E-001,0,2.47126E+001,-4.65125E+000,9.99461E-001,-1.98955E+001,-3.99651E+001,9.96214E-001,4.88371E-002,-1.95338E-002,-1.68219E-004,4.88375E-002,-1.95342E-002,-1.40968E-001,4.91621E-002,1.05004E+000,-8.96421E-003,0.00000E+000,8.48286E-003,9.82572E-001,0.00000E+000,-7.41241E-003,-6.30817E-002,1.00000E+000,7
919,1347,7.08596E-001,1.00737E+000,-6.24858E-002,1.64394E+000,-3.10205E-001,-2.65022E-002,1.67316E+000,8.80237E-003,5.21953E-001,0,2.53934E+001,-4.99444E+000,9.99846E-001,-1.85216E+001,-4.02694E+001,9.99422E-001,4.43919E-002,-1.94935E-002,-5.16781E-004,4.43961E-002,-1.94977E-002,-4.63436E-001,4.45054E-002,1.04536E+000,-1.02785E-002,0.00000E+000,8.95912E-003,9.82584E-001,0.00000E+000,-5.69872E-003,-6.27142E-002,1.00000E+000,7
929,1347,1.39327E+000,1.02114E+000,-4.44989E-002,1.67151E+000,-3.04345E-001,-3.16349E-002,1.69929E+000,4.92598E-003,4.74976E-001,0,2.58136E+001,-4.89916E+000,9.99892E-001,-1.79135E+001,-4.00241E+001,9.99487E-001,4.41645E-002,-1.96982E-002,1.04686E-004,4.41647E-002,-1.96984E-002,9.39207E-002,4.42504E-002,1.04511E+000,-1.13525E-002,0.00000E+000,1.12682E-002,9.82315E-001,0.00000E+000,-7.13722E-003,-6.19627E-002,1.00000E+000,7
939,1347,2.07827E+000,1.04129E+000,-3.31251E-002,1.70088E+000,-2.93397E-001,-3.39838E-002,1.72634E+000,8.30107E-003,5.11277E-001,0,2.62502E+001,-4.73241E+000,9.99809E-001,-1.73116E+001,-3.96244E+001,9.98950E-001,4.42928E-002,-1.95123E-002,4.23360E-004,4.42956E-002,-1.95151E-002,3.80147E-001,4.43998E-002,1.04524E+000,-1.24461E-002,0.00000E+000,1.29849E-002,9.82422E-001,0.00000E+000,-8.34607E-003,-6.10254E-002,1.00000E+000,7
949,1347,2.76733E+000,1.06029E+000,-2.39857E-002,1.73252E+000,-2.84477E-001,-4.45278E-002,1.75628E+000,6.73870E-003,5.16135E-001,0,2.67490E+001,-4.56348E+000,9.99654E-001,-1.66486E+001,-3.92527E+001,9.98667E-001,4.45715E-002,-1.93603E-002,7.28914E-004,4.45799E-002,-1.93686E-002,6.53141E-001,4.47073E-002,1.04553E+000,-1.34498E-002,0.00000E+000,1.45482E-002,9.82469E-001,0.00000E+000,-8.94869E-003,-5.96371E-002,1.00000E+000,7
959,1317,3.41763E+000,-8.30190E-001,1.15445E-002,1.78611E+000,-2.37311E-001,5.38153E-002,1.80261E+000,7.10709E-003,5.05469E-001,0,2.72186E+001,-4.03109E+000,9.99723E-001,-1.68392E+001,-3.84422E+001,9.99207E-001,4.72219E-002,-1.91782E-002,1.07901E-003,4.72394E-002,-1.91957E-002,9.30735E-001,4.75148E-002,1.04836E+000,-1.44236E-002,0.00000E+000,1.64514E-002,9.82549E-001,0.00000E+000,-1.50070E-002,-5.83329E-002,1.00000E+000,7
959,1327,3.42035E+000,-1.98774E-001,-3.71591E-002,1.77649E+000,-2.48843E-001,1.38786E-002,1.79389E+000,1.11330E-002,5.13207E-001,0,2.72073E+001,-4.13978E+000,9.99875E-001,-1.67983E+001,-3.85774E+001,9.99250E-001,4.64138E-002,-1.91809E-002,1.02516E-003,4.64299E-002,-1.91969E-002,8.95170E-001,4.66611E-002,1.04749E+000,-1.44406E-002,0.00000E+000,1.62626E-002,9.82546E-001,0.00000E+000,-1.31014E-002,-5.82960E-002,1.00000E+000,7
959,1337,3.43415E+000,4.36927E-001,-4.40133E-002,1.76967E+000,-2.62656E-001,-2.14594E-002,1.78918E+000,9.83292E-003,5.05467E-001,0,2.72216E+001,-4.27044E+000,9.99659E-001,-1.64948E+001,-3.87457E+001,9.98807E-001,4.55959E-002,-1.91847E-002,9.65518E-004,4.56103E-002,-1.91991E-002,8.53708E-001,4.58000E-002,1.04661E+000,-1.44690E-002,0.00000E+000,1.60725E-002,9.82539E-001,0.00000E+000,-1.11826E-002,-5.82341E-002,1.00000E+000,7
959,1307,3.41891E+000,-1.45521E+000,7.95237E-002,1.79596E+000,-2.21684E-001,9.59544E-002,1.81213E+000,5.83017E-003,5.09731E-001,0,2.72233E+001,-3.87281E+000,9.99687E-001,-1.67753E+001,-3.82439E+001,9.99280E-001,4.80240E-002,-1.91759E-002,1.13022E-003,4.80430E-002,-1.91949E-002,9.63279E-001,4.83652E-002,1.04923E+000,-1.44119E-002,0.00000E+000,1.66398E-002,9.82552E-001,0.00000E+000,-1.69085E-002,-5.83585E-002,1.00000E+000,7
959,1347,3.45291E+000,1.07637E+000,-3.07273E-002,1.76380E+000,-2.74999E-001,-5.47469E-002,1.78595E+000,6.38290E-003,4.93400E-001,0,2.72419E+001,-4.39020E+000,9.99613E-001,-1.60705E+001,-3.89053E+001,9.99238E-001,4.47721E-002,-1.91891E-002,9.02991E-004,4.47849E-002,-1.92018E-002,8.08676E-001,4.49361E-002,1.04573E+000,-1.45029E-002,0.00000E+000,1.58821E-002,9.82532E-001,0.00000E+000,-9.25996E-003,-5.81601E-002,1.00000E+000,7
909,1347,2.99765E-002,9.97920E-001,-4.89224E-002,1.61552E+000,-3.14802E-001,-1.98346E-002,1.64602E+000,8.43939E-003,5.17685E-001,0,2.49524E+001,-5.06899E+000,9.99800E-001,-1.89603E+001,-4.05425E+001,9.98911E-001,4.47212E-002,-1.95788E-002,-8.98132E-004,4.47338E-002,-1.95914E-002,-8.00089E-001,4.48484E-002,1.04571E+000,-9.07693E-003,0.00000E+000,7.01404E-003,9.82534E-001,0.00000E+000,-4.56941E-003,-6.30077E-002,1.00000E+000,7
899,1327,-6.83961E-001,-2.88551E-001,-3.17720E-002,1.59460E+000,-2.97667E-001,6.59284E-002,1.62349E+000,4.05023E-003,5.05970E-001,0,2.43730E+001,-4.97495E+000,9.99641E-001,-2.01620E+001,-4.05335E+001,9.99474E-001,4.70343E-002,-1.95978E-002,-8.84333E-004,4.70460E-002,-1.96096E-002,-7.60244E-001,4.72625E-002,1.04814E+000,-7.84532E-003,0.00000E+000,5.83706E-003,9.82542E-001,0.00000E+000,-3.99607E-003,-6.33338E-002,1.00000E+000,7
899,1337,-6.69649E-001,3.47277E-001,-5.64990E-002,1.59064E+000,-3.08944E-001,1.92161E-002,1.62048E+000,6.34025E-003,5.10584E-001,0,2.44634E+001,-5.04806E+000,9.99859E-001,-1.98832E+001,-4.06643E+001,9.99674E-001,4.60684E-002,-1.96064E-002,-1.02496E-003,4.60843E-002,-1.96224E-002,-8.93906E-001,4.62532E-002,1.04712E+000,-7.87359E-003,0.00000E+000,5.57402E-003,9.82535E-001,0.00000E+000,-3.66547E-003,-6.33246E-002,1.00000E+000,7
899,1347,-6.44525E-001,9.90556E-001,-3.40228E-002,1.58874E+000,-3.17892E-001,-2.15603E-002,1.62038E+000,5.72131E-003,5.00254E-001,0,2.45629E+001,-5.10843E+000,9.99857E-001,-1.93276E+001,-4.07926E+001,9.99447E-001,4.50967E-002,-1.96182E-002,-1.17263E-003,4.51180E-002,-1.96394E-002,-1.03774E+000,4.52437E-002,1.04610E+000,-7.91526E-003,0.00000E+000,5.30970E-003,9.82524E-001,0.00000E+000,-3.33326E-003,-6.33110E-002,1.00000E+000,7
899,1317,-6.91431E-001,-9.17385E-001,1.78870E-002,1.59979E+000,-2.83206E-001,1.11140E-001,1.62846E+000,5.59966E-003,5.08874E-001,0,2.43037E+001,-4.85502E+000,9.99607E-001,-2.02765E+001,-4.03458E+001,9.98968E-001,4.79954E-002,-1.95914E-002,-7.48322E-004,4.80037E-002,-1.95997E-002,-6.34276E-001,4.82721E-002,1.04914E+000,-7.82566E-003,0.00000E+000,6.09907E-003,9.82548E-001,0.00000E+000,-4.32538E-003,-6.33402E-002,1.00000E+000,7
899,1307,-6.93376E-001,-1.53958E+000,9.30708E-002,1.60485E+000,-2.66464E-001,1.55289E-001,1.63421E+000,6.22622E-003,4.71220E-001,0,2.42337E+001,-4.66876E+000,9.99631E-001,-2.02455E+001,-4.01305E+001,9.98185E-001,4.89509E-002,-1.95870E-002,-6.17055E-004,4.89565E-002,-1.95926E-002,-5.15785E-001,4.92805E-002,1.05015E+000,-7.81466E-003,0.00000E+000,6.35982E-003,9.82550E-001,0.00000E+000,-4.65311E-003,-6.33438E-002,1.00000E+000,7
889,1327,-1.36265E+000,-2.94826E-001,-2.18676E-002,1.56394E+000,-3.00245E-001,6.42665E-002,1.59379E+000,3.40961E-003,5.16081E-001,0,2.39247E+001,-5.00660E+000,9.99729E-001,-2.06040E+001,-4.07390E+001,9.99680E-001,4.73137E-002,-1.92125E-002,-1.25987E-003,4.73376E-002,-1.92363E-002,-1.08454E+000,4.76134E-002,1.04843E+000,-6.77747E-003,0.00000E+000,3.97482E-003,9.82968E-001,0.00000E+000,-1.91794E-003,-6.39378E-002,1.00000E+000,7
889,1337,-1.35017E+000,3.40281E-001,-4.92017E-002,1.55942E+000,-3.10617E-001,2.01849E-002,1.59019E+000,5.95131E-003,5.10211E-001,0,2.39971E+001,-5.07611E+000,9.99822E-001,-2.03585E+001,-4.08826E+001,9.99627E-001,4.63680E-002,-1.92138E-002,-1.29502E-003,4.63935E-002,-1.92393E-002,-1.13081E+000,4.66180E-002,1.04744E+000,-6.80314E-003,0.00000E+000,3.95725E-003,9.82968E-001,0.00000E+000,-2.25982E-003,-6.39466E-002,1.00000E+000,7
889,1347,-1.32551E+000,9.81619E-001,-2.81282E-002,1.55784E+000,-3.20773E-001,-1.93414E-002,1.59064E+000,5.01985E-003,4.91920E-001,0,2.40971E+001,-5.15591E+000,9.99801E-001,-1.98116E+001,-4.10437E+001,9.99484E-001,4.54154E-002,-1.92156E-002,-1.33690E-003,4.54430E-002,-1.92432E-002,-1.18450E+000,4.56202E-002,1.04644E+000,-6.84256E-003,0.00000E+000,3.93957E-003,9.82967E-001,0.00000E+000,-2.60384E-003,-6.39603E-002,1.00000E+000,7
969,1297,4.11826E+000,-2.05671E+000,1.71489E-001,1.84064E+000,-1.93405E-001,1.17765E-001,1.85451E+000,9.73089E-003,4.83013E-001,0,2.78011E+001,-3.47222E+000,9.99804E-001,-1.58651E+001,-3.76600E+001,9.98675E-001,4.85850E-002,-1.91033E-002,1.13607E-003,4.86041E-002,-1.91223E-002,9.61279E-001,4.89707E-002,1.04985E+000,-1.53540E-002,0.00000E+000,1.76156E-002,9.82515E-001,0.00000E+000,-1.90178E-002,-5.66943E-002,1.00000E+000,7
969,1307,4.10674E+000,-1.43809E+000,7.56446E-002,1.82712E+000,-2.12212E-001,7.76657E-002,1.84104E+000,1.53656E-002,4.92371E-001,0,2.77374E+001,-3.67869E+000,9.99647E-001,-1.61483E+001,-3.78907E+001,9.98179E-001,4.78763E-002,-1.91039E-002,1.11263E-003,4.78948E-002,-1.91224E-002,9.51412E-001,4.82178E-002,1.04907E+000,-1.53563E-002,0.00000E+000,1.74738E-002,9.82514E-001,0.00000E+000,-1.70835E-002,-5.66885E-002,1.00000E+000,7
969,1317,4.10664E+000,-8.13000E-001,1.46764E-002,1.81740E+000,-2.27991E-001,3.80799E-002,1.83204E+000,6.28181E-003,4.82831E-001,0,2.77266E+001,-3.85230E+000,9.99855E-001,-1.61789E+001,-3.81038E+001,9.99302E-001,4.71618E-002,-1.91049E-002,1.08474E-003,4.71796E-002,-1.91227E-002,9.37554E-001,4.74607E-002,1.04829E+000,-1.53681E-002,0.00000E+000,1.73317E-002,9.82512E-001,0.00000E+000,-1.51446E-002,-5.66592E-002,1.00000E+000,7
889,1317,-1.37105E+000,-9.22762E-001,3.09835E-002,1.56763E+000,-2.85513E-001,1.10520E-001,1.59725E+000,4.90072E-003,5.27836E-001,0,2.38298E+001,-4.88736E+000,9.99772E-001,-2.07258E+001,-4.05381E+001,9.99457E-001,4.82559E-002,-1.92115E-002,-1.22828E-003,4.82783E-002,-1.92339E-002,-1.04264E+000,4.86094E-002,1.04942E+000,-6.75910E-003,0.00000E+000,3.99234E-003,9.82968E-001,0.00000E+000,-1.57700E-003,-6.39315E-002,1.00000E+000,7
969,1327,4.11000E+000,-1.80659E-001,-2.90560E-002,1.80771E+000,-2.39110E-001,4.44340E-004,1.82345E+000,6.53200E-003,5.00772E-001,0,2.77070E+001,-3.96660E+000,9.99876E-001,-1.61181E+001,-3.82287E+001,9.99403E-001,4.64411E-002,-1.91062E-002,1.05470E-003,4.64581E-002,-1.91231E-002,9.21606E-001,4.66994E-002,1.04750E+000,-1.53842E-002,0.00000E+000,1.71892E-002,9.82509E-001,0.00000E+000,-1.32006E-002,-5.66194E-002,1.00000E+000,7
889,1307,-1.37466E+000,-1.54595E+000,1.06243E-001,1.57032E+000,-2.70563E-001,1.51744E-001,1.60066E+000,6.68975E-003,4.92813E-001,0,2.37344E+001,-4.72105E+000,9.99677E-001,-2.07203E+001,-4.03352E+001,9.98768E-001,4.91923E-002,-1.92109E-002,-1.20094E-003,4.92134E-002,-1.92320E-002,-1.00551E+000,4.96032E-002,1.05040E+000,-6.74937E-003,0.00000E+000,4.00978E-003,9.82969E-001,0.00000E+000,-1.23779E-003,-6.39281E-002,1.00000E+000,7
969,1337,4.12190E+000,4.52170E-001,-4.34005E-002,1.80103E+000,-2.52842E-001,-3.26925E-002,1.81899E+000,6.90734E-003,4.48410E-001,0,2.77173E+001,-4.10638E+000,9.99783E-001,-1.58617E+001,-3.84460E+001,9.99336E-001,4.57143E-002,-1.91077E-002,1.02125E-003,4.57304E-002,-1.91238E-002,9.02382E-001,4.59340E-002,1.04672E+000,-1.54071E-002,0.00000E+000,1.70463E-002,9.82505E-001,0.00000E+000,-1.12513E-002,-5.65625E-002,1.00000E+000,7
969,1347,4.13657E+000,1.09578E+000,-3.99004E-002,1.79234E+000,-2.61925E-001,-6.91175E-002,1.81269E+000,6.26584E-003,4.77532E-001,0,2.77051E+001,-4.16342E+000,9.99701E-001,-1.55228E+001,-3.84981E+001,9.99212E-001,4.49776E-002,-1.91095E-002,9.84669E-004,4.49927E-002,-1.91246E-002,8.80046E-001,4.51608E-002,1.04593E+000,-1.54359E-002,0.00000E+000,1.69023E-002,9.82500E-001,0.00000E+000,-9.28709E-003,-5.64909E-002,1.00000E+000,7
879,1327,-2.04002E+000,-2.98955E-001,-8.30452E-003,1.53406E+000,-3.00488E-001,6.55798E-002,1.56459E+000,4.49890E-003,5.23018E-001,0,2.34774E+001,-5.01173E+000,9.99812E-001,-2.10123E+001,-4.09209E+001,9.99674E-001,4.76617E-002,-1.93761E-002,-1.49680E-003,4.76951E-002,-1.94095E-002,-1.27844E+000,4.79696E-002,1.04880E+000,-5.86366E-003,0.00000E+000,2.55657E-003,9.82795E-001,0.00000E+000,-3.61503E-004,-6.36697E-002,1.00000E+000,7
879,1337,-2.02766E+000,3.33792E-001,-3.89720E-002,1.53009E+000,-3.12330E-001,2.06113E-002,1.56178E+000,4.56032E-003,5.22601E-001,0,2.35606E+001,-5.10996E+000,9.99714E-001,-2.07761E+001,-4.10929E+001,9.99562E-001,4.67577E-002,-1.93759E-002,-1.50729E-003,4.67920E-002,-1.94103E-002,-1.30496E+000,4.70178E-002,1.04785E+000,-5.88725E-003,0.00000E+000,2.60455E-003,9.82797E-001,0.00000E+000,-1.02759E-003,-6.36863E-002,1.00000E+000,7
879,1347,-2.00528E+000,9.76135E-001,-2.43560E-002,1.52772E+000,-3.21741E-001,-1.90519E-002,1.56135E+000,5.57411E-003,5.36150E-001,0,2.36484E+001,-5.17188E+000,9.99753E-001,-2.02775E+001,-4.12105E+001,9.99473E-001,4.58450E-002,-1.93757E-002,-1.52350E-003,4.58806E-002,-1.94113E-002,-1.33741E+000,4.60612E-002,1.04690E+000,-5.92279E-003,0.00000E+000,2.65294E-003,9.82798E-001,0.00000E+000,-1.69921E-003,-6.37113E-002,1.00000E+000,7
879,1307,-2.05443E+000,-1.54829E+000,1.23626E-001,1.53634E+000,-2.70777E-001,1.49655E-001,1.56718E+000,6.94165E-003,5.11150E-001,0,2.32365E+001,-4.71866E+000,9.99606E-001,-2.11567E+001,-4.04882E+001,9.98915E-001,4.94565E-002,-1.93763E-002,-1.48670E-003,4.94886E-002,-1.94084E-002,-1.23675E+000,4.98707E-002,1.05069E+000,-5.83918E-003,0.00000E+000,2.46110E-003,9.82794E-001,0.00000E+000,9.63751E-004,-6.36525E-002,1.00000E+000,7
879,1317,-2.04884E+000,-9.27776E-001,4.43146E-002,1.53704E+000,-2.86282E-001,1.10661E-001,1.56739E+000,4.75174E-003,4.73636E-001,0,2.33766E+001,-4.87816E+000,9.99830E-001,-2.11414E+001,-4.07617E+001,9.99437E-001,4.85636E-002,-1.93762E-002,-1.48941E-003,4.85962E-002,-1.94088E-002,-1.25526E+000,4.89230E-002,1.04975E+000,-5.84650E-003,0.00000E+000,2.50863E-003,9.82795E-001,0.00000E+000,3.03983E-004,-6.36577E-002,1.00000E+000,7
979,1307,4.80489E+000,-1.41884E+000,8.90011E-002,1.86492E+000,-2.02672E-001,6.24604E-002,1.87694E+000,1.02633E-002,5.06772E-001,0,2.83413E+001,-3.50644E+000,9.99912E-001,-1.53212E+001,-3.75244E+001,9.99435E-001,4.77676E-002,-1.90311E-002,1.07856E-003,4.77850E-002,-1.90485E-002,9.24798E-001,4.81112E-002,1.04893E+000,-1.61377E-002,0.00000E+000,1.80698E-002,9.82471E-001,0.00000E+000,-1.63466E-002,-5.48007E-002,1.00000E+000,7
979,1317,4.79953E+000,-7.91541E-001,2.57322E-002,1.85146E+000,-2.15834E-001,2.77674E-002,1.86421E+000,4.54390E-003,4.93914E-001,0,2.82571E+001,-3.64244E+000,9.99851E-001,-1.54378E+001,-3.76993E+001,9.99527E-001,4.71769E-002,-1.90311E-002,1.06971E-003,4.71942E-002,-1.90484E-002,9.25391E-001,4.74856E-002,1.04828E+000,-1.61459E-002,0.00000E+000,1.79711E-002,9.82470E-001,0.00000E+000,-1.45381E-002,-5.47777E-002,1.00000E+000,7
979,1327,4.80066E+000,-1.61317E-001,-1.97292E-002,1.84035E+000,-2.28293E-001,-7.60645E-003,1.85447E+000,4.75643E-003,4.80611E-001,0,2.82096E+001,-3.77378E+000,9.99762E-001,-1.54159E+001,-3.78677E+001,9.99219E-001,4.65816E-002,-1.90311E-002,1.05878E-003,4.65987E-002,-1.90482E-002,9.24254E-001,4.68565E-002,1.04763E+000,-1.61584E-002,0.00000E+000,1.78723E-002,9.82468E-001,0.00000E+000,-1.27263E-002,-5.47429E-002,1.00000E+000,7
979,1337,4.80803E+000,4.72626E-001,-4.70729E-002,1.83131E+000,-2.40077E-001,-4.33930E-002,1.84749E+000,6.76407E-003,4.75775E-001,0,2.81936E+001,-3.89450E+000,9.99618E-001,-1.52585E+001,-3.80147E+001,9.98837E-001,4.59808E-002,-1.90312E-002,1.04573E-003,4.59976E-002,-1.90480E-002,9.21300E-001,4.62233E-002,1.04698E+000,-1.61752E-002,0.00000E+000,1.77731E-002,9.82466E-001,0.00000E+000,-1.09088E-002,-5.46960E-002,1.00000E+000,7
979,1347,4.82263E+000,1.11519E+000,-3.83612E-002,1.82102E+000,-2.49954E-001,-8.07081E-002,1.83987E+000,7.31327E-003,4.72735E-001,0,2.81608E+001,-3.96708E+000,9.99376E-001,-1.49115E+001,-3.81090E+001,9.98473E-001,4.53722E-002,-1.90312E-002,1.02843E-003,4.53886E-002,-1.90476E-002,9.14622E-001,4.55835E-002,1.04633E+000,-1.62006E-002,0.00000E+000,1.76732E-002,9.82462E-001,0.00000E+000,-9.07844E-003,-5.46248E-002,1.00000E+000,7
979,1297,4.80622E+000,-2.03801E+000,1.66946E-001,1.87278E+000,-1.81924E-001,1.04650E-001,1.88450E+000,9.06295E-003,4.77608E-001,0,2.83110E+001,-3.25498E+000,9.99812E-001,-1.52339E+001,-3.72768E+001,9.98929E-001,4.83545E-002,-1.90311E-002,1.08656E-003,4.83720E-002,-1.90486E-002,9.23550E-001,4.87344E-002,1.04958E+000,-1.61311E-002,0.00000E+000,1.81685E-002,9.82472E-001,0.00000E+000,-1.81548E-002,-5.48191E-002,1.00000E+000,7
869,1317,-2.73196E+000,-9.31705E-001,4.27592E-002,1.50231E+000,-2.86194E-001,1.03632E-001,1.53284E+000,4.49070E-003,5.03235E-001,0,2.28820E+001,-4.86121E+000,9.99802E-001,-2.16701E+001,-4.08958E+001,9.99233E-001,4.87930E-002,-1.95173E-002,-1.58473E-003,4.88297E-002,-1.95540E-002,-1.32825E+000,4.91513E-002,1.05000E+000,-4.85308E-003,0.00000E+000,1.31681E-003,9.82634E-001,0.00000E+000,1.55346E-003,-6.32564E-002,1.00000E+000,7
869,1327,-2.72231E+000,-3.03339E-001,-7.68183E-003,1.50063E+000,-2.99416E-001,6.23687E-002,1.53148E+000,4.92631E-003,5.44478E-001,0,2.29893E+001,-4.99908E+000,9.99785E-001,-2.15228E+001,-4.10723E+001,9.99437E-001,4.79814E-002,-1.95168E-002,-1.58243E-003,4.80185E-002,-1.95539E-002,-1.34226E+000,4.82933E-002,1.04914E+000,-4.86795E-003,0.00000E+000,1.39609E-003,9.82635E-001,0.00000E+000,6.29928E-004,-6.32725E-002,1.00000E+000,7
869,1337,-2.70751E+000,3.28720E-001,-3.21618E-002,1.49863E+000,-3.12706E-001,2.07425E-002,1.53105E+000,5.01167E-003,5.47426E-001,0,2.30915E+001,-5.12023E+000,9.99676E-001,-2.12336E+001,-4.12681E+001,9.99428E-001,4.71652E-002,-1.95162E-002,-1.58345E-003,4.72027E-002,-1.95538E-002,-1.35956E+000,4.74336E-002,1.04829E+000,-4.88981E-003,0.00000E+000,1.47568E-003,9.82637E-001,0.00000E+000,-2.97308E-004,-6.32961E-002,1.00000E+000,7
869,1347,-2.68754E+000,9.68684E-001,-3.06186E-002,1.49659E+000,-3.21160E-001,-1.99863E-002,1.53079E+000,6.89972E-003,5.21328E-001,0,2.31872E+001,-5.16587E+000,9.99754E-001,-2.08014E+001,-4.14155E+001,9.99480E-001,4.63449E-002,-1.95155E-002,-1.58766E-003,4.63832E-002,-1.95537E-002,-1.38013E+000,4.65730E-002,1.04743E+000,-4.91833E-003,0.00000E+000,1.55551E-003,9.82640E-001,0.00000E+000,-1.22733E-003,-6.33270E-002,1.00000E+000,7
869,1307,-2.73499E+000,-1.55072E+000,1.33132E-001,1.50363E+000,-2.69163E-001,1.51278E-001,1.53501E+000,5.93338E-003,5.43190E-001,0,2.27455E+001,-4.70757E+000,9.99609E-001,-2.16193E+001,-4.06194E+001,9.99087E-001,4.95980E-002,-1.95175E-002,-1.59123E-003,4.96346E-002,-1.95541E-002,-1.31818E+000,5.00053E-002,1.05084E+000,-4.84716E-003,0.00000E+000,1.23804E-003,9.82633E-001,0.00000E+000,2.47120E-003,-6.32499E-002,1.00000E+000,7
989,1307,5.49199E+000,-1.39660E+000,8.24859E-002,1.89522E+000,-1.87396E-001,4.53368E-002,1.90500E+000,7.57585E-003,5.13007E-001,0,2.88362E+001,-3.23964E+000,9.99697E-001,-1.47029E+001,-3.70749E+001,9.99052E-001,4.76362E-002,-1.90398E-002,9.67782E-004,4.76502E-002,-1.90539E-002,8.31398E-001,4.79677E-002,1.04876E+000,-1.67099E-002,0.00000E+000,1.82944E-002,9.82368E-001,0.00000E+000,-1.50295E-002,-5.31251E-002,1.00000E+000,7
989,1317,5.48409E+000,-7.67961E-001,1.66538E-002,1.88034E+000,-2.00375E-001,1.36009E-002,1.89103E+000,7.17574E-003,5.53806E-001,0,2.87213E+001,-3.37947E+000,9.99831E-001,-1.48647E+001,-3.71954E+001,9.99181E-001,4.71697E-002,-1.90385E-002,9.85023E-004,4.71843E-002,-1.90531E-002,8.52176E-001,4.74745E-002,1.04825E+000,-1.67154E-002,0.00000E+000,1.82511E-002,9.82368E-001,0.00000E+000,-1.33207E-002,-5.31065E-002,1.00000E+000,7
989,1327,5.48971E+000,-1.37519E-001,-1.80749E-002,1.87164E+000,-2.14917E-001,-1.96273E-002,1.88404E+000,8.77119E-003,5.57939E-001,0,2.87041E+001,-3.54399E+000,9.99744E-001,-1.47515E+001,-3.73727E+001,9.98778E-001,4.66990E-002,-1.90366E-002,9.99497E-004,4.67142E-002,-1.90518E-002,8.70903E-001,4.69779E-002,1.04773E+000,-1.67270E-002,0.00000E+000,1.82078E-002,9.82367E-001,0.00000E+000,-1.16078E-002,-5.30682E-002,1.00000E+000,7
989,1297,5.49855E+000,-2.02017E+000,1.60229E-001,1.90749E+000,-1.70789E-001,8.34162E-002,1.91694E+000,7.52318E-003,4.84936E-001,0,2.88877E+001,-3.05346E+000,9.99615E-001,-1.45359E+001,-3.68955E+001,9.98674E-001,4.80988E-002,-1.90410E-002,9.50030E-004,4.81122E-002,-1.90545E-002,8.10521E-001,4.84576E-002,1.04927E+000,-1.67053E-002,0.00000E+000,1.83375E-002,9.82369E-001,0.00000E+000,-1.67354E-002,-5.31403E-002,1.00000E+000,7
989,1337,5.49819E+000,4.94689E-001,-3.51081E-002,1.86085E+000,-2.28328E-001,-5.74333E-002,1.87569E+000,5.96805E-003,4.85819E-001,0,2.86690E+001,-3.68476E+000,9.99537E-001,-1.45560E+001,-3.76011E+001,9.99071E-001,4.62256E-002,-1.90344E-002,1.01197E-003,4.62413E-002,-1.90501E-002,8.88188E-001,4.64796E-002,1.04722E+000,-1.67425E-002,0.00000E+000,1.81645E-002,9.82366E-001,0.00000E+000,-9.89658E-003,-5.30164E-002,1.00000E+000,7
989,1347,5.51182E+000,1.13562E+000,-2.96951E-002,1.85170E+000,-2.37677E-001,-8.80574E-002,1.86896E+000,6.42144E-003,4.73762E-001,0,2.86315E+001,-3.77465E+000,9.99789E-001,-1.42330E+001,-3.77166E+001,9.99474E-001,4.57464E-002,-1.90319E-002,1.02309E-003,4.57625E-002,-1.90481E-002,9.04616E-001,4.59761E-002,1.04670E+000,-1.67609E-002,0.00000E+000,1.81210E-002,9.82364E-001,0.00000E+000,-8.17531E-003,-5.29552E-002,1.00000E+000,7
859,1327,-3.40269E+000,-3.06608E-001,-9.25165E-003,1.46850E+000,-2.97999E-001,5.60640E-002,1.49948E+000,4.74355E-003,5.57338E-001,0,2.25301E+001,-4.96033E+000,9.99675E-001,-2.20048E+001,-4.12060E+001,9.99360E-001,4.82333E-002,-1.96202E-002,-1.60832E-003,4.82714E-002,-1.96583E-002,-1.35705E+000,4.85475E-002,1.04941E+000,-4.00423E-003,0.00000E+000,5.07086E-004,9.82509E-001,0.00000E+000,1.14642E-003,-6.28627E-002,1.00000E+000,7
859,1337,-3.38711E+000,3.24973E-001,-3.21172E-002,1.46756E+000,-3.10710E-001,1.67092E-002,1.50019E+000,4.92590E-003,5.45237E-001,0,2.26404E+001,-5.08144E+000,9.99734E-001,-2.16989E+001,-4.14218E+001,9.99413E-001,4.75351E-002,-1.96198E-002,-1.61013E-003,4.75737E-002,-1.96583E-002,-1.37269E+000,4.78120E-002,1.04868E+000,-4.02263E-003,0.00000E+000,5.91052E-004,9.82511E-001,0.00000E+000,4.60735E-005,-6.28904E-002,1.00000E+000,7
859,1347,-3.36648E+000,9.62592E-001,-2.47560E-002,1.46573E+000,-3.21784E-001,-2.12964E-002,1.50079E+000,7.22970E-003,4.97028E-001,0,2.27307E+001,-5.16208E+000,9.99843E-001,-2.12412E+001,-4.16307E+001,9.99532E-001,4.68319E-002,-1.96192E-002,-1.61506E-003,4.68711E-002,-1.96584E-002,-1.39145E+000,4.70736E-002,1.04794E+000,-4.04757E-003,0.00000E+000,6.75422E-004,9.82514E-001,0.00000E+000,-1.05956E-003,-6.29278E-002,1.00000E+000,7
859,1307,-3.41548E+000,-1.55068E+000,1.33660E-001,1.47096E+000,-2.66690E-001,1.46000E-001,1.50205E+000,8.60752E-003,6.16417E-001,0,2.22762E+001,-4.65955E+000,9.99617E-001,-2.20978E+001,-4.06729E+001,9.98937E-001,4.96146E-002,-1.96206E-002,-1.61391E-003,4.96522E-002,-1.96582E-002,-1.33463E+000,5.00095E-002,1.05087E+000,-3.98686E-003,0.00000E+000,3.40369E-004,9.82507E-001,0.00000E+000,3.33117E-003,-6.28367E-002,1.00000E+000,7
859,1317,-3.41157E+000,-9.34458E-001,4.47370E-002,1.47053E+000,-2.85923E-001,9.95023E-002,1.50137E+000,5.90236E-003,5.39985E-001,0,2.24225E+001,-4.83794E+000,9.99636E-001,-2.21322E+001,-4.10154E+001,9.98941E-001,4.89264E-002,-1.96205E-002,-1.60942E-003,4.89642E-002,-1.96582E-002,-1.34426E+000,4.92800E-002,1.05014E+000,-3.99194E-003,0.00000E+000,4.23530E-004,9.82508E-001,0.00000E+000,2.24139E-003,-6.28443E-002,1.00000E+000,7
999,1337,6.18417E+000,5.11811E-001,-3.90917E-002,1.89184E+000,-2.15641E-001,-6.06703E-002,1.90506E+000,6.60555E-003,4.37348E-001,0,2.91301E+001,-3.48649E+000,9.99836E-001,-1.39485E+001,-3.72587E+001,9.99251E-001,4.63682E-002,-1.90674E-002,8.95860E-004,4.63805E-002,-1.90797E-002,7.84223E-001,4.66227E-002,1.04735E+000,-1.71341E-002,0.00000E+000,1.82154E-002,9.82242E-001,0.00000E+000,-8.52160E-003,-5.12862E-002,1.00000E+000,7
999,1347,6.20047E+000,1.15499E+000,-2.67094E-002,1.88291E+000,-2.25885E-001,-9.41070E-002,1.89874E+000,5.54174E-003,4.48328E-001,0,2.91061E+001,-3.57284E+000,9.99866E-001,-1.35713E+001,-3.73414E+001,9.99443E-001,4.60192E-002,-1.90637E-002,9.19449E-004,4.60322E-002,-1.90767E-002,8.09223E-001,4.62564E-002,1.04697E+000,-1.71488E-002,0.00000E+000,1.82018E-002,9.82241E-001,0.00000E+000,-6.95325E-003,-5.12251E-002,1.00000E+000,7
999,1307,6.17997E+000,-1.37678E+000,7.90850E-002,1.92595E+000,-1.74607E-001,3.15516E-002,1.93411E+000,4.78013E-003,5.07844E-001,0,2.93270E+001,-3.01191E+000,9.99783E-001,-1.40609E+001,-3.66751E+001,9.99403E-001,4.73889E-002,-1.90748E-002,8.15390E-004,4.73989E-002,-1.90848E-002,7.02775E-001,4.76975E-002,1.04847E+000,-1.71118E-002,0.00000E+000,1.82560E-002,9.82243E-001,0.00000E+000,-1.31752E-002,-5.13789E-002,1.00000E+000,7
999,1317,6.17399E+000,-7.49113E-001,1.60211E-002,1.91261E+000,-1.88189E-001,1.09603E-003,1.92185E+000,9.14664E-003,5.34990E-001,0,2.92319E+001,-3.16994E+000,9.99556E-001,-1.41875E+001,-3.68215E+001,9.97131E-001,4.70515E-002,-1.90729E-002,8.43713E-004,4.70622E-002,-1.90837E-002,7.30906E-001,4.73416E-002,1.04810E+000,-1.71161E-002,0.00000E+000,1.82425E-002,9.82243E-001,0.00000E+000,-1.16255E-002,-5.13612E-002,1.00000E+000,7
999,1327,6.17761E+000,-1.21996E-001,-2.35373E-002,1.90338E+000,-2.04748E-001,-3.01410E-002,1.91459E+000,9.85380E-003,5.16233E-001,0,2.92016E+001,-3.36728E+000,9.99724E-001,-1.41164E+001,-3.70498E+001,9.98307E-001,4.67110E-002,-1.90705E-002,8.70545E-004,4.67225E-002,-1.90820E-002,7.58070E-001,4.69831E-002,1.04772E+000,-1.71236E-002,0.00000E+000,1.82289E-002,9.82242E-001,0.00000E+000,-1.00732E-002,-5.13300E-002,1.00000E+000,7
999,1297,6.18856E+000,-2.00264E+000,1.57460E-001,1.93988E+000,-1.60513E-001,6.83605E-002,1.94771E+000,5.70967E-003,5.01137E-001,0,2.94079E+001,-2.86999E+000,9.99508E-001,-1.38618E+001,-3.65234E+001,9.98330E-001,4.77234E-002,-1.90765E-002,7.86502E-004,4.77327E-002,-1.90858E-002,6.74476E-001,4.80508E-002,1.04884E+000,-1.71087E-002,0.00000E+000,1.82695E-002,9.82243E-001,0.00000E+000,-1.47232E-002,-5.13918E-002,1.00000E+000,7
849,1337,-4.06614E+000,3.21798E-001,-2.73195E-002,1.43581E+000,-3.10593E-001,1.35549E-002,1.46909E+000,6.95332E-003,5.75503E-001,0,2.21757E+001,-5.06109E+000,9.99767E-001,-2.21400E+001,-4.15608E+001,9.99449E-001,4.77834E-002,-1.96412E-002,-1.53196E-003,4.78182E-002,-1.96760E-002,-1.30093E+000,4.80674E-002,1.04894E+000,-3.26148E-003,0.00000E+000,3.16849E-005,9.82451E-001,0.00000E+000,7.62826E-005,-6.22452E-002,1.00000E+000,7
849,1347,-4.04971E+000,9.55722E-001,-2.75066E-002,1.43260E+000,-3.22150E-001,-1.93251E-002,1.46850E+000,5.80634E-003,5.01514E-001,0,2.22284E+001,-5.16497E+000,9.99809E-001,-2.17641E+001,-4.18254E+001,9.99656E-001,4.72100E-002,-1.96404E-002,-1.52811E-003,4.72449E-002,-1.96753E-002,-1.30879E+000,4.74643E-002,1.04834E+000,-3.27938E-003,0.00000E+000,1.23850E-004,9.82453E-001,0.00000E+000,-1.00860E-003,-6.22775E-002,1.00000E+000,7
849,1357,-4.02070E+000,1.60214E+000,2.17402E-002,1.43151E+000,-3.30801E-001,-5.34426E-002,1.47021E+000,5.19801E-003,4.96619E-001,0,2.23142E+001,-5.22752E+000,9.99798E-001,-2.10734E+001,-4.19745E+001,9.99664E-001,4.66286E-002,-1.96392E-002,-1.52864E-003,4.66639E-002,-1.96744E-002,-1.32074E+000,4.68546E-002,1.04773E+000,-3.30665E-003,0.00000E+000,2.17061E-004,9.82458E-001,0.00000E+000,-2.10579E-003,-6.23268E-002,1.00000E+000,7
849,1327,-4.07912E+000,-3.07344E-001,1.88437E-004,1.43807E+000,-2.95855E-001,5.19655E-002,1.46910E+000,7.20258E-003,5.63673E-001,0,2.20885E+001,-4.90396E+000,9.99753E-001,-2.23952E+001,-4.13273E+001,9.99445E-001,4.83548E-002,-1.96418E-002,-1.53773E-003,4.83895E-002,-1.96766E-002,-1.29485E+000,4.86700E-002,1.04954E+000,-3.24755E-003,0.00000E+000,-6.03910E-005,9.82448E-001,0.00000E+000,1.16012E-003,-6.22201E-002,1.00000E+000,7
1009,1337,6.87283E+000,5.34727E-001,-4.76830E-002,1.92672E+000,-1.99516E-001,-6.08602E-002,1.93798E+000,8.02885E-003,4.67702E-001,0,2.96383E+001,-3.22861E+000,9.99865E-001,-1.33049E+001,-3.67770E+001,9.99490E-001,4.64265E-002,-1.90869E-002,7.25180E-004,4.64346E-002,-1.90949E-002,6.34114E-001,4.66779E-002,1.04740E+000,-1.74037E-002,0.00000E+000,1.80523E-002,9.82152E-001,0.00000E+000,-7.13277E-003,-4.98365E-002,1.00000E+000,7
1009,1347,6.88797E+000,1.17099E+000,-3.10552E-002,1.91440E+000,-2.16288E-001,-9.91609E-002,1.92913E+000,5.80596E-003,4.31012E-001,0,2.95822E+001,-3.41106E+000,9.99920E-001,-1.29396E+001,-3.69983E+001,9.99669E-001,4.61875E-002,-1.90829E-002,7.51157E-004,4.61961E-002,-1.90916E-002,6.59265E-001,4.64272E-002,1.04714E+000,-1.74147E-002,0.00000E+000,1.80529E-002,9.82152E-001,0.00000E+000,-5.81860E-003,-4.97808E-002,1.00000E+000,7
1009,1297,6.87591E+000,-1.98563E+000,1.54203E-001,1.97072E+000,-1.48746E-001,5.96654E-002,1.97723E+000,7.00929E-003,4.50827E-001,0,2.98820E+001,-2.66013E+000,9.99364E-001,-1.32258E+001,-3.61917E+001,9.98117E-001,4.73568E-002,-1.90956E-002,6.09056E-004,4.73624E-002,-1.91012E-002,5.25074E-001,4.76568E-002,1.04842E+000,-1.73874E-002,0.00000E+000,1.80500E-002,9.82152E-001,0.00000E+000,-1.23412E-002,-4.99193E-002,1.00000E+000,7
1009,1307,6.86841E+000,-1.35943E+000,7.86240E-002,1.95786E+000,-1.61977E-001,2.57013E-002,1.96472E+000,6.66591E-003,4.46502E-001,0,2.98080E+001,-2.80109E+000,9.99631E-001,-1.34019E+001,-3.63480E+001,9.99266E-001,4.71276E-002,-1.90939E-002,6.38947E-004,4.71338E-002,-1.91001E-002,5.52757E-001,4.74152E-002,1.04817E+000,-1.73896E-002,0.00000E+000,1.80506E-002,9.82152E-001,0.00000E+000,-1.10434E-002,-4.99085E-002,1.00000E+000,7
1009,1317,6.86624E+000,-7.32507E-001,1.68177E-002,1.94799E+000,-1.76398E-001,-4.72260E-003,1.95597E+000,6.52928E-003,4.63721E-001,0,2.97666E+001,-2.97265E+000,9.99782E-001,-1.34671E+001,-3.65114E+001,9.99327E-001,4.68962E-002,-1.90920E-002,6.68432E-004,4.69030E-002,-1.90988E-002,5.80302E-001,4.71715E-002,1.04791E+000,-1.73926E-002,0.00000E+000,1.80512E-002,9.82152E-001,0.00000E+000,-9.74293E-003,-4.98929E-002,1.00000E+000,7
849,1317,-4.09178E+000,-9.31562E-001,5.09668E-002,1.43759E+000,-2.79102E-001,9.87790E-002,1.46776E+000,7.68026E-003,6.15870E-001,0,2.19311E+001,-4.75594E+000,9.99710E-001,-2.25886E+001,-4.10377E+001,9.99115E-001,4.89227E-002,-1.96423E-002,-1.54479E-003,4.89575E-002,-1.96771E-002,-1.29002E+000,4.92704E-002,1.05014E+000,-3.23636E-003,0.00000E+000,-1.52147E-004,9.82447E-001,0.00000E+000,2.24018E-003,-6.21999E-002,1.00000E+000,7
1009,1327,6.86826E+000,-1.01005E-001,-1.94383E-002,1.93537E+000,-1.90523E-001,-3.98389E-002,1.94514E+000,7.34100E-003,4.75123E-001,0,2.96978E+001,-3.12803E+000,9.99795E-001,-1.34144E+001,-3.66627E+001,9.99461E-001,4.66622E-002,-1.90894E-002,6.96724E-004,4.66695E-002,-1.90967E-002,6.07033E-001,4.69254E-002,1.04765E+000,-1.73985E-002,0.00000E+000,1.80518E-002,9.82152E-001,0.00000E+000,-8.43729E-003,-4.98632E-002,1.00000E+000,7
849,1307,-4.09819E+000,-1.55339E+000,1.35523E-001,1.43552E+000,-2.64721E-001,1.41061E-001,1.46653E+000,9.25303E-003,5.73595E-001,0,2.17625E+001,-4.59856E+000,9.99659E-001,-2.26030E+001,-4.08301E+001,9.98838E-001,4.94864E-002,-1.96425E-002,-1.55513E-003,4.95214E-002,-1.96775E-002,-1.28806E+000,4.98680E-002,1.05074E+000,-3.23220E-003,0.00000E+000,-2.43468E-004,9.82446E-001,0.00000E+000,3.31513E-003,-6.21924E-002,1.00000E+000,7
839,1337,-4.74610E+000,3.17379E-001,-3.15964E-003,1.40247E+000,-3.09978E-001,2.82472E-002,1.43660E+000,1.49182E-002,5.68166E-001,0,2.16291E+001,-5.08436E+000,9.99711E-001,-2.25440E+001,-4.17805E+001,9.99292E-001,4.79114E-002,-1.96658E-002,-1.40658E-003,4.79407E-002,-1.96950E-002,-1.19189E+000,4.81942E-002,1.04908E+000,-2.66906E-003,0.00000E+000,-2.58396E-004,9.82375E-001,0.00000E+000,-2.01574E-004,-6.14037E-002,1.00000E+000,7
839,1347,-4.73075E+000,9.49189E-001,-2.37863E-002,1.40027E+000,-3.22399E-001,-1.55691E-002,1.43699E+000,5.60259E-003,4.98847E-001,0,2.17320E+001,-5.17416E+000,9.99728E-001,-2.22334E+001,-4.20326E+001,9.99563E-001,4.74026E-002,-1.96654E-002,-1.40698E-003,4.74321E-002,-1.96949E-002,-1.20127E+000,4.76588E-002,1.04854E+000,-2.68335E-003,0.00000E+000,-1.77881E-004,9.82377E-001,0.00000E+000,-1.31047E-003,-6.14335E-002,1.00000E+000,7
839,1357,-4.70129E+000,1.59606E+000,1.79343E-002,1.40076E+000,-3.29621E-001,-5.28952E-002,1.44000E+000,4.77168E-003,4.86899E-001,0,2.18514E+001,-5.20557E+000,9.99759E-001,-2.15514E+001,-4.21631E+001,9.99614E-001,4.68865E-002,-1.96648E-002,-1.41174E-003,4.69164E-002,-1.96947E-002,-1.21468E+000,4.71172E-002,1.04800E+000,-2.70682E-003,0.00000E+000,-9.64422E-005,9.82381E-001,0.00000E+000,-2.43208E-003,-6.14823E-002,1.00000E+000,7
1019,1337,7.56520E+000,5.56769E-001,-3.78632E-002,1.95874E+000,-1.87741E-001,-6.92377E-002,1.96893E+000,6.55943E-003,5.14346E-001,0,3.01308E+001,-3.03430E+000,9.99826E-001,-1.25628E+001,-3.63409E+001,9.99590E-001,4.64161E-002,-1.90945E-002,5.37590E-004,4.64205E-002,-1.90989E-002,4.70135E-001,4.66627E-002,1.04737E+000,-1.76152E-002,0.00000E+000,1.78053E-002,9.82101E-001,0.00000E+000,-5.66102E-003,-4.88675E-002,1.00000E+000,7
1019,1347,7.57480E+000,1.19252E+000,-3.21672E-002,1.94648E+000,-2.02183E-001,-9.32854E-002,1.95917E+000,6.19540E-003,4.64831E-001,0,3.00271E+001,-3.19691E+000,9.99839E-001,-1.23073E+001,-3.65516E+001,9.99687E-001,4.62568E-002,-1.90906E-002,5.71675E-004,4.62618E-002,-1.90956E-002,5.01186E-001,4.64958E-002,1.04720E+000,-1.76210E-002,0.00000E+000,1.78254E-002,9.82101E-001,0.00000E+000,-4.51865E-003,-4.88290E-002,1.00000E+000,7
839,1327,-4.76596E+000,-3.10599E-001,1.67746E-003,1.40221E+000,-2.91716E-001,6.60749E-002,1.43376E+000,1.36308E-002,5.80881E-001,0,2.15058E+001,-4.87345E+000,9.99799E-001,-2.29611E+001,-4.14664E+001,9.99253E-001,4.84200E-002,-1.96662E-002,-1.40545E-003,4.84490E-002,-1.96952E-002,-1.18204E+000,4.87304E-002,1.04961E+000,-2.65313E-003,0.00000E+000,-3.39109E-004,9.82373E-001,0.00000E+000,9.10030E-004,-6.13706E-002,1.00000E+000,7
1019,1327,7.55645E+000,-8.26884E-002,-2.43667E-002,1.96826E+000,-1.78464E-001,-4.16850E-002,1.97678E+000,6.68628E-003,4.80713E-001,0,3.01814E+001,-2.93363E+000,9.99769E-001,-1.27661E+001,-3.62744E+001,9.99476E-001,4.65740E-002,-1.90980E-002,5.03032E-004,4.65779E-002,-1.91018E-002,4.38838E-001,4.68281E-002,1.04755E+000,-1.76103E-002,0.00000E+000,1.77852E-002,9.82100E-001,0.00000E+000,-6.80240E-003,-4.88996E-002,1.00000E+000,7
1019,1317,7.55645E+000,-7.14710E-001,2.13586E-002,1.97932E+000,-1.65866E-001,-1.32017E-002,1.98630E+000,8.08557E-003,4.61969E-001,0,3.02485E+001,-2.79993E+000,9.99790E-001,-1.27676E+001,-3.61566E+001,9.99175E-001,4.67301E-002,-1.91006E-002,4.67677E-004,4.67334E-002,-1.91039E-002,4.07016E-001,4.69919E-002,1.04772E+000,-1.76074E-002,0.00000E+000,1.77652E-002,9.82100E-001,0.00000E+000,-7.93967E-003,-4.89191E-002,1.00000E+000,7
839,1317,-4.77464E+000,-9.36040E-001,5.69214E-002,1.40149E+000,-2.77814E-001,9.70609E-002,1.43205E+000,6.65866E-003,5.29299E-001,0,2.13955E+001,-4.70594E+000,9.99693E-001,-2.30824E+001,-4.12547E+001,9.98755E-001,4.89236E-002,-1.96664E-002,-1.40875E-003,4.89525E-002,-1.96953E-002,-1.17612E+000,4.92629E-002,1.05014E+000,-2.64654E-003,0.00000E+000,-4.19277E-004,9.82372E-001,0.00000E+000,2.01414E-003,-6.13569E-002,1.00000E+000,7
1019,1297,7.56150E+000,-1.96873E+000,1.39202E-001,2.00072E+000,-1.36779E-001,4.52962E-002,2.00590E+000,7.91614E-003,4.47383E-001,0,3.03633E+001,-2.45038E+000,9.99765E-001,-1.26372E+001,-3.58140E+001,9.98899E-001,4.70371E-002,-1.91051E-002,3.96416E-004,4.70395E-002,-1.91075E-002,3.43379E-001,4.73146E-002,1.04806E+000,-1.76031E-002,0.00000E+000,1.77253E-002,9.82099E-001,0.00000E+000,-1.02059E-002,-4.89479E-002,1.00000E+000,7
1019,1307,7.55514E+000,-1.34082E+000,7.00340E-002,1.98818E+000,-1.50588E-001,1.46524E-002,1.99393E+000,1.07637E-002,4.91133E-001,0,3.02832E+001,-2.60641E+000,9.99793E-001,-1.27828E+001,-3.59314E+001,9.98887E-001,4.68841E-002,-1.91031E-002,4.32343E-004,4.68869E-002,-1.91059E-002,3.75377E-001,4.71537E-002,1.04789E+000,-1.76047E-002,0.00000E+000,1.77453E-002,9.82100E-001,0.00000E+000,-9.07161E-003,-4.89370E-002,1.00000E+000,7
839,1307,-4.77820E+000,-1.55538E+000,1.38893E-001,1.40176E+000,-2.61115E-001,1.34436E-001,1.43219E+000,5.69269E-003,4.97999E-001,0,2.12784E+001,-4.51349E+000,9.99673E-001,-2.30585E+001,-4.09956E+001,9.98640E-001,4.94239E-002,-1.96665E-002,-1.41361E-003,4.94529E-002,-1.96954E-002,-1.17163E+000,4.97929E-002,1.05067E+000,-2.64328E-003,0.00000E+000,-4.99144E-004,9.82371E-001,0.00000E+000,3.11411E-003,-6.13501E-002,1.00000E+000,7
829,1337,-5.43000E+000,3.11685E-001,-1.65229E-002,1.36800E+000,-3.07800E-001,2.12081E-002,1.40237E+000,9.88893E-003,5.32661E-001,0,2.11334E+001,-5.02900E+000,9.99591E-001,-2.30959E+001,-4.19526E+001,9.99191E-001,4.78633E-002,-1.96631E-002,-1.23846E-003,4.78860E-002,-1.96859E-002,-1.05035E+000,4.81376E-002,1.04903E+000,-2.14836E-003,0.00000E+000,-3.88497E-004,9.82325E-001,0.00000E+000,-6.35146E-004,-6.05259E-002,1.00000E+000,7
829,1347,-5.40896E+000,9.46581E-001,-1.82640E-002,1.36907E+000,-3.20273E-001,-1.62567E-002,1.40613E+000,4.56403E-003,5.07396E-001,0,2.12653E+001,-5.13265E+000,9.99576E-001,-2.26499E+001,-4.21774E+001,9.99479E-001,4.73901E-002,-1.96647E-002,-1.26997E-003,4.74142E-002,-1.96887E-002,-1.08462E+000,4.76407E-002,1.04853E+000,-2.16348E-003,0.00000E+000,-3.66004E-004,9.82325E-001,0.00000E+000,-1.80321E-003,-6.05616E-002,1.00000E+000,7
829,1357,-5.38129E+000,1.59098E+000,1.82290E-002,1.36942E+000,-3.28850E-001,-5.17839E-002,1.40930E+000,4.92838E-003,5.14998E-001,0,2.13770E+001,-5.19677E+000,9.99710E-001,-2.20066E+001,-4.23267E+001,9.99641E-001,4.69125E-002,-1.96667E-002,-1.30433E-003,4.69380E-002,-1.96923E-002,-1.12189E+000,4.71402E-002,1.04803E+000,-2.18411E-003,0.00000E+000,-3.43371E-004,9.82326E-001,0.00000E+000,-2.97854E-003,-6.06103E-002,1.00000E+000,7
1029,1337,8.24641E+000,5.71457E-001,-4.44615E-002,1.98505E+000,-1.77539E-001,-6.87296E-002,1.99415E+000,6.20954E-003,4.82360E-001,0,3.05067E+001,-2.87657E+000,9.99723E-001,-1.20236E+001,-3.60231E+001,9.99260E-001,4.64520E-002,-1.90179E-002,3.83203E-004,4.64542E-002,-1.90201E-002,3.35343E-001,4.67075E-002,1.04740E+000,-1.76992E-002,0.00000E+000,1.75035E-002,9.82142E-001,0.00000E+000,-4.08590E-003,-4.80711E-002,1.00000E+000,7
1029,1347,8.25753E+000,1.21217E+000,-4.19091E-002,1.97322E+000,-1.88819E-001,-9.97377E-002,1.98474E+000,5.57318E-003,4.95455E-001,0,3.04335E+001,-2.99044E+000,9.99801E-001,-1.17524E+001,-3.61169E+001,9.99344E-001,4.63727E-002,-1.90126E-002,4.31373E-004,4.63756E-002,-1.90155E-002,3.77981E-001,4.66252E-002,1.04732E+000,-1.77023E-002,0.00000E+000,1.75519E-002,9.82144E-001,0.00000E+000,-3.01962E-003,-4.80337E-002,1.00000E+000,7
1029,1327,8.24364E+000,-6.59264E-002,-2.32829E-002,1.99801E+000,-1.67040E-001,-4.50713E-002,2.00549E+000,6.57955E-003,4.53501E-001,0,3.06215E+001,-2.76042E+000,9.99734E-001,-1.21174E+001,-3.59398E+001,9.99339E-001,4.65298E-002,-1.90221E-002,3.34717E-004,4.65315E-002,-1.90238E-002,2.92550E-001,4.67886E-002,1.04749E+000,-1.76972E-002,0.00000E+000,1.74552E-002,9.82141E-001,0.00000E+000,-5.14832E-003,-4.80968E-002,1.00000E+000,7
829,1327,-5.44626E+000,-3.15488E-001,1.23187E-003,1.36734E+000,-2.91476E-001,5.29981E-002,1.39907E+000,8.93634E-003,5.45429E-001,0,2.10232E+001,-4.83856E+000,9.99793E-001,-2.34271E+001,-4.16521E+001,9.99477E-001,4.83327E-002,-1.96620E-002,-1.20867E-003,4.83542E-002,-1.96834E-002,-1.01805E+000,4.86318E-002,1.04952E+000,-2.13654E-003,0.00000E+000,-4.10888E-004,9.82324E-001,0.00000E+000,5.27649E-004,-6.04980E-002,1.00000E+000,7
829,1307,-5.45403E+000,-1.56103E+000,1.51460E-001,1.37186E+000,-2.61884E-001,1.37510E-001,1.40339E+000,7.28475E-003,4.47397E-001,0,2.08239E+001,-4.51874E+000,9.99679E-001,-2.34239E+001,-4.12242E+001,9.98461E-001,4.92613E-002,-1.96609E-002,-1.15618E-003,4.92807E-002,-1.96803E-002,-9.60783E-001,4.96124E-002,1.05050E+000,-2.12708E-003,0.00000E+000,-4.55401E-004,9.82324E-001,0.00000E+000,2.83926E-003,-6.04757E-002,1.00000E+000,7
829,1317,-5.45382E+000,-9.40724E-001,5.98549E-002,1.36901E+000,-2.77222E-001,9.40891E-002,1.39996E+000,7.39589E-003,4.91013E-001,0,2.09190E+001,-4.67759E+000,9.99719E-001,-2.35232E+001,-4.14440E+001,9.99248E-001,4.87987E-002,-1.96612E-002,-1.18127E-003,4.88190E-002,-1.96816E-002,-9.88243E-001,4.91233E-002,1.05001E+000,-2.12949E-003,0.00000E+000,-4.33188E-004,9.82324E-001,0.00000E+000,1.68571E-003,-6.04814E-002,1.00000E+000,7
1029,1317,8.24339E+000,-6.98558E-001,1.59814E-002,2.00915E+000,-1.56504E-001,-2.18475E-002,2.01535E+000,7.74534E-003,4.79093E-001,0,3.07086E+001,-2.64044E+000,9.99841E-001,-1.21354E+001,-3.57970E+001,9.99167E-001,4.66060E-002,-1.90255E-002,2.86204E-004,4.66073E-002,-1.90268E-002,2.49848E-001,4.68682E-002,1.04757E+000,-1.76957E-002,0.00000E+000,1.74072E-002,9.82140E-001,0.00000E+000,-6.20475E-003,-4.81155E-002,1.00000E+000,7
1029,1307,8.24614E+000,-1.32467E+000,7.66587E-002,2.02070E+000,-1.41310E-001,1.16606E-002,2.02567E+000,8.05311E-003,5.05044E-001,0,3.07630E+001,-2.46815E+000,9.99867E-001,-1.20631E+001,-3.56002E+001,9.97895E-001,4.66810E-002,-1.90286E-002,2.37597E-004,4.66819E-002,-1.90294E-002,2.07170E-001,4.69466E-002,1.04766E+000,-1.76945E-002,0.00000E+000,1.73593E-002,9.82139E-001,0.00000E+000,-7.25915E-003,-4.81299E-002,1.00000E+000,7
1029,1297,8.25225E+000,-1.95067E+000,1.44111E-001,2.03343E+000,-1.25583E-001,4.23338E-002,2.03774E+000,7.23198E-003,4.82328E-001,0,3.08445E+001,-2.28554E+000,9.99838E-001,-1.19248E+001,-3.54408E+001,9.98177E-001,4.67550E-002,-1.90313E-002,1.88755E-004,4.67556E-002,-1.90319E-002,1.64392E-001,4.70241E-002,1.04775E+000,-1.76936E-002,0.00000E+000,1.73113E-002,9.82139E-001,0.00000E+000,-8.31515E-003,-4.81408E-002,1.00000E+000,7
819,1317,-6.13077E+000,-9.46942E-001,6.93322E-002,1.33762E+000,-2.78952E-001,9.40184E-002,1.36962E+000,7.43373E-003,4.80218E-001,0,2.04500E+001,-4.70181E+000,9.99691E-001,-2.39098E+001,-4.16571E+001,9.98801E-001,4.84727E-002,-1.95935E-002,-9.56671E-004,4.84861E-002,-1.96069E-002,-8.05080E-001,4.87808E-002,1.04967E+000,-1.69281E-003,0.00000E+000,-3.65010E-004,9.82325E-001,0.00000E+000,1.13516E-003,-5.93799E-002,1.00000E+000,7
819,1327,-6.12548E+000,-3.23514E-001,6.29596E-003,1.33597E+000,-2.92948E-001,5.94391E-002,1.36900E+000,8.62455E-003,5.12689E-001,0,2.05338E+001,-4.86641E+000,9.99776E-001,-2.38596E+001,-4.18968E+001,9.98557E-001,4.80492E-002,-1.95946E-002,-1.00648E-003,4.80642E-002,-1.96096E-002,-8.52262E-001,4.83347E-002,1.04922E+000,-1.69765E-003,0.00000E+000,-3.96323E-004,9.82325E-001,0.00000E+000,8.14214E-005,-5.93914E-002,1.00000E+000,7
819,1337,-6.10963E+000,3.07811E-001,-2.09090E-002,1.33702E+000,-3.05383E-001,2.16046E-002,1.37162E+000,5.65282E-003,5.29555E-001,0,2.06672E+001,-4.98259E+000,9.99693E-001,-2.35563E+001,-4.20997E+001,9.99328E-001,4.76213E-002,-1.95968E-002,-1.05923E-003,4.76380E-002,-1.96135E-002,-9.02573E-001,4.78849E-002,1.04877E+000,-1.70789E-003,0.00000E+000,-4.27863E-004,9.82324E-001,0.00000E+000,-9.79989E-004,-5.94156E-002,1.00000E+000,7
819,1307,-6.13521E+000,-1.56491E+000,1.46154E-001,1.33706E+000,-2.62871E-001,1.27228E-001,1.36858E+000,7.77180E-003,5.04349E-001,0,2.03349E+001,-4.51140E+000,9.99671E-001,-2.39118E+001,-4.13346E+001,9.98722E-001,4.88931E-002,-1.95928E-002,-9.08068E-004,4.89051E-002,-1.96049E-002,-7.59518E-001,4.92244E-002,1.05011E+000,-1.69006E-003,0.00000E+000,-3.33832E-004,9.82326E-001,0.00000E+000,2.18440E-003,-5.93734E-002,1.00000E+000,7
819,1347,-6.08715E+000,9.44562E-001,-1.78754E-002,1.33931E+000,-3.16337E-001,-1.29607E-002,1.37622E+000,4.92262E-003,5.21545E-001,0,2.08076E+001,-5.07338E+000,9.99809E-001,-2.30748E+001,-4.22993E+001,9.99668E-001,4.71903E-002,-1.95999E-002,-1.11399E-003,4.72088E-002,-1.96184E-002,-9.55279E-001,4.74327E-002,1.04832E+000,-1.72185E-003,0.00000E+000,-4.59540E-004,9.82323E-001,0.00000E+000,-2.04598E-003,-5.94487E-002,1.00000E+000,7
819,1357,-6.06097E+000,1.58501E+000,2.19348E-002,1.33784E+000,-3.28841E-001,-4.79739E-002,1.37850E+000,5.74350E-003,5.22767E-001,0,2.08901E+001,-5.19955E+000,9.99805E-001,-2.24444E+001,-4.25220E+001,9.99577E-001,4.67555E-002,-1.96040E-002,-1.17152E-003,4.67761E-002,-1.96247E-002,-1.01109E+000,4.69776E-002,1.04787E+000,-1.74092E-003,0.00000E+000,-4.91395E-004,9.82322E-001,0.00000E+000,-3.11798E-003,-5.94938E-002,1.00000E+000,7
1039,1337,8.93432E+000,5.89204E-001,-5.22722E-002,2.01596E+000,-1.66638E-001,-7.62841E-002,2.02427E+000,6.26777E-003,5.13259E-001,0,3.09800E+001,-2.70163E+000,9.99745E-001,-1.13793E+001,-3.56232E+001,9.98925E-001,4.64818E-002,-1.89072E-002,1.82906E-004,4.64823E-002,-1.89077E-002,1.60266E-001,4.67508E-002,1.04743E+000,-1.77414E-002,0.00000E+000,1.70765E-002,9.82231E-001,0.00000E+000,-2.52477E-003,-4.75164E-002,1.00000E+000,7
1039,1347,8.94430E+000,1.22490E+000,-4.59018E-002,2.00330E+000,-1.80861E-001,-1.01700E-001,2.01401E+000,5.79308E-003,4.36765E-001,0,3.08760E+001,-2.86035E+000,9.99889E-001,-1.11200E+001,-3.58463E+001,9.99442E-001,4.64800E-002,-1.89024E-002,2.29617E-004,4.64808E-002,-1.89032E-002,2.01214E-001,4.67498E-002,1.04743E+000,-1.77415E-002,0.00000E+000,1.71215E-002,9.82232E-001,0.00000E+000,-1.51849E-003,-4.74815E-002,1.00000E+000,7
1039,1317,8.92899E+000,-6.80036E-001,1.22019E-002,2.03889E+000,-1.42758E-001,-2.16135E-002,2.04399E+000,5.43019E-003,4.51225E-001,0,3.11343E+001,-2.42540E+000,9.99854E-001,-1.15164E+001,-3.54269E+001,9.99257E-001,4.64823E-002,-1.89145E-002,8.95041E-005,4.64824E-002,-1.89146E-002,7.84166E-002,4.67501E-002,1.04744E+000,-1.77413E-002,0.00000E+000,1.69866E-002,9.82229E-001,0.00000E+000,-4.53331E-003,-4.75600E-002,1.00000E+000,7
1039,1327,8.93065E+000,-4.91035E-002,-2.47548E-002,2.02836E+000,-1.55359E-001,-4.55897E-002,2.03481E+000,5.91738E-003,4.31722E-001,0,3.10602E+001,-2.58367E+000,9.99803E-001,-1.14730E+001,-3.55961E+001,9.98990E-001,4.64825E-002,-1.89111E-002,1.36041E-004,4.64828E-002,-1.89114E-002,1.19194E-001,4.67510E-002,1.04743E+000,-1.77413E-002,0.00000E+000,1.70314E-002,9.82230E-001,0.00000E+000,-3.53303E-003,-4.75412E-002,1.00000E+000,7
1039,1307,8.93206E+000,-1.30971E+000,6.43862E-002,2.05128E+000,-1.30333E-001,5.28599E-003,2.05543E+000,6.18171E-003,4.69376E-001,0,3.12256E+001,-2.28234E+000,9.99829E-001,-1.14561E+001,-3.52726E+001,9.98958E-001,4.64811E-002,-1.89174E-002,4.29853E-005,4.64811E-002,-1.89174E-002,3.76596E-002,4.67484E-002,1.04744E+000,-1.77412E-002,0.00000E+000,1.69419E-002,9.82228E-001,0.00000E+000,-5.53242E-003,-4.75745E-002,1.00000E+000,7
1039,1297,8.93934E+000,-1.93665E+000,1.35601E-001,2.06466E+000,-1.16044E-001,3.72522E-002,2.06825E+000,6.03282E-003,4.58694E-001,0,3.13118E+001,-2.12494E+000,9.99729E-001,-1.12923E+001,-3.51312E+001,9.98904E-001,4.64788E-002,-1.89198E-002,-3.55516E-006,4.64788E-002,-1.89198E-002,-3.11468E-003,4.67457E-002,1.04744E+000,-1.77412E-002,0.00000E+000,1.68972E-002,9.82228E-001,0.00000E+000,-6.53140E-003,-4.75840E-002,1.00000E+000,7
1049,1337,9.62566E+000,6.04335E-001,-5.62362E-002,2.04922E+000,-1.56323E-001,-8.29718E-002,2.05685E+000,9.13686E-003,4.51171E-001,0,3.14854E+001,-2.53006E+000,9.99874E-001,-1.06701E+001,-3.53183E+001,9.99332E-001,4.64411E-002,-1.88796E-002,-7.37368E-005,4.64412E-002,-1.88797E-002,-6.46778E-002,4.67109E-002,1.04739E+000,-1.77712E-002,0.00000E+000,1.65469E-002,9.82227E-001,0.00000E+000,-1.36310E-003,-4.66611E-002,1.00000E+000,7
1049,1347,9.63945E+000,1.24580E+000,-3.49358E-002,2.03789E+000,-1.68705E-001,-1.02989E-001,2.04745E+000,7.54858E-003,4.56005E-001,0,3.13813E+001,-2.67806E+000,9.99866E-001,-1.03241E+001,-3.54427E+001,9.99073E-001,4.65269E-002,-1.88751E-002,-3.08234E-005,4.65270E-002,-1.88752E-002,-2.70030E-002,4.68021E-002,1.04748E+000,-1.77678E-002,0.00000E+000,1.65935E-002,9.82228E-001,0.00000E+000,-6.38759E-004,-4.66335E-002,1.00000E+000,7
1049,1307,9.62414E+000,-1.29096E+000,7.52555E-002,2.08373E+000,-1.17189E-001,5.60376E-003,2.08703E+000,8.18204E-003,4.17746E-001,0,3.16898E+001,-2.08109E+000,9.99837E-001,-1.07037E+001,-3.49432E+001,9.99138E-001,4.61826E-002,-1.88881E-002,-1.98947E-004,4.61832E-002,-1.88887E-002,-1.75174E-001,4.64375E-002,1.04712E+000,-1.77761E-002,0.00000E+000,1.64085E-002,9.82224E-001,0.00000E+000,-3.51606E-003,-4.67009E-002,1.00000E+000,7
1049,1317,9.62108E+000,-6.60400E-001,2.70883E-002,2.07096E+000,-1.29574E-001,-1.85619E-002,2.07509E+000,8.29960E-003,4.19851E-001,0,3.15835E+001,-2.23337E+000,9.99734E-001,-1.07563E+001,-3.50810E+001,9.97953E-001,4.62691E-002,-1.88856E-002,-1.57424E-004,4.62695E-002,-1.88860E-002,-1.38435E-001,4.65288E-002,1.04721E+000,-1.77748E-002,0.00000E+000,1.64545E-002,9.82225E-001,0.00000E+000,-2.79990E-003,-4.66901E-002,1.00000E+000,7
1049,1327,9.61909E+000,-3.19266E-002,-2.67983E-002,2.05983E+000,-1.44284E-001,-4.59121E-002,2.06539E+000,5.24845E-003,4.36375E-001,0,3.15148E+001,-2.41393E+000,9.99809E-001,-1.08041E+001,-3.52325E+001,9.98529E-001,4.63551E-002,-1.88831E-002,-1.15933E-004,4.63553E-002,-1.88833E-002,-1.01818E-001,4.66198E-002,1.04730E+000,-1.77735E-002,0.00000E+000,1.65006E-002,9.82225E-001,0.00000E+000,-2.08331E-003,-4.66800E-002,1.00000E+000,7
809,1347,-6.77055E+000,9.34321E-001,-2.32632E-002,1.30424E+000,-3.19080E-001,-1.39453E-002,1.34277E+000,4.84455E-003,5.22495E-001,0,2.02827E+001,-5.12192E+000,9.99868E-001,-2.35916E+001,-4.25425E+001,9.99669E-001,4.69372E-002,-1.95331E-002,-9.67126E-004,4.69512E-002,-1.95472E-002,-8.33404E-001,4.71698E-002,1.04806E+000,-1.37722E-003,0.00000E+000,-4.81906E-004,9.82326E-001,0.00000E+000,-2.27304E-003,-5.83597E-002,1.00000E+000,7
809,1357,-6.74412E+000,1.57739E+000,2.10313E-002,1.30254E+000,-3.29824E-001,-4.79861E-002,1.34450E+000,5.99527E-003,5.32141E-001,0,2.03573E+001,-5.21810E+000,9.99848E-001,-2.29433E+001,-4.27321E+001,9.99314E-001,4.65517E-002,-1.95405E-002,-1.06060E-003,4.65687E-002,-1.95575E-002,-9.19124E-001,4.67671E-002,1.04766E+000,-1.39445E-003,0.00000E+000,-5.91539E-004,9.82321E-001,0.00000E+000,-3.27208E-003,-5.84026E-002,1.00000E+000,7
809,1327,-6.80694E+000,-3.31399E-001,-3.16913E-003,1.30192E+000,-2.96851E-001,5.16271E-002,1.33633E+000,6.69015E-003,5.46047E-001,0,2.00475E+001,-4.89321E+000,9.99819E-001,-2.43590E+001,-4.20752E+001,9.98314E-001,4.76959E-002,-1.95241E-002,-7.88754E-004,4.77051E-002,-1.95333E-002,-6.72181E-001,4.79651E-002,1.04885E+000,-1.35632E-003,0.00000E+000,-2.65168E-004,9.82331E-001,0.00000E+000,-2.97995E-004,-5.83076E-002,1.00000E+000,7
809,1337,-6.78913E+000,2.99822E-001,-2.13274E-002,1.30464E+000,-3.08016E-001,2.04882E-002,1.34066E+000,4.29391E-003,5.19405E-001,0,2.01846E+001,-5.00576E+000,9.99847E-001,-2.40017E+001,-4.23225E+001,9.99572E-001,4.73178E-002,-1.95281E-002,-8.77204E-004,4.73293E-002,-1.95396E-002,-7.51708E-001,4.75684E-002,1.04846E+000,-1.36558E-003,0.00000E+000,-3.73339E-004,9.82329E-001,0.00000E+000,-1.28371E-003,-5.83307E-002,1.00000E+000,7
809,1307,-6.81791E+000,-1.56877E+000,1.46968E-001,1.30174E+000,-2.61820E-001,1.29980E-001,1.33416E+000,8.78676E-003,5.65505E-001,0,1.97963E+001,-4.51923E+000,9.99319E-001,-2.44038E+001,-4.14562E+001,9.97920E-001,4.84439E-002,-1.95211E-002,-6.18623E-004,4.84495E-002,-1.95267E-002,-5.21453E-001,4.87523E-002,1.04964E+000,-1.34964E-003,0.00000E+000,-5.02171E-005,9.82333E-001,0.00000E+000,1.66077E-003,-5.82909E-002,1.00000E+000,7
809,1317,-6.81137E+000,-9.51350E-001,6.55892E-002,1.30461E+000,-2.79389E-001,9.31478E-002,1.33744E+000,8.93453E-003,5.61732E-001,0,1.99579E+001,-4.71515E+000,9.99785E-001,-2.43813E+001,-4.17686E+001,9.98563E-001,4.80709E-002,-1.95221E-002,-7.03075E-004,4.80782E-002,-1.95294E-002,-5.95881E-001,4.83594E-002,1.04924E+000,-1.35193E-003,0.00000E+000,-1.57550E-004,9.82333E-001,0.00000E+000,6.82686E-004,-5.82967E-002,1.00000E+000,7
1049,1297,9.62629E+000,-1.92216E+000,1.34103E-001,2.09444E+000,-1.06345E-001,3.54413E-002,2.09744E+000,6.45074E-003,4.22450E-001,0,3.17443E+001,-1.96618E+000,9.99714E-001,-1.06441E+001,-3.48359E+001,9.98593E-001,4.60956E-002,-1.88905E-002,-2.40369E-004,4.60965E-002,-1.88914E-002,-2.11920E-001,4.63457E-002,1.04703E+000,-1.77773E-002,0.00000E+000,1.63625E-002,9.82223E-001,0.00000E+000,-4.23154E-003,-4.67104E-002,1.00000E+000,7
799,1337,-7.46966E+000,2.92217E-001,-2.27915E-002,1.27173E+000,-3.09043E-001,2.29608E-002,1.30895E+000,4.12999E-003,5.28255E-001,0,1.96820E+001,-5.03024E+000,9.99883E-001,-2.44617E+001,-4.25280E+001,9.99668E-001,4.68800E-002,-1.94444E-002,-6.81671E-004,4.68870E-002,-1.94514E-002,-5.88794E-001,4.71130E-002,1.04800E+000,-1.04610E-003,0.00000E+000,-2.74389E-004,9.82352E-001,0.00000E+000,-1.53875E-003,-5.72861E-002,1.00000E+000,7
799,1347,-7.45172E+000,9.27020E-001,-2.31599E-002,1.27121E+000,-3.19686E-001,-8.10471E-003,1.31082E+000,5.27089E-003,5.34787E-001,0,1.97671E+001,-5.14322E+000,9.99792E-001,-2.40558E+001,-4.27468E+001,9.99467E-001,4.65355E-002,-1.94511E-002,-8.02999E-004,4.65453E-002,-1.94608E-002,-6.97102E-001,4.67529E-002,1.04764E+000,-1.05636E-003,0.00000E+000,-4.53311E-004,9.82347E-001,0.00000E+000,-2.41665E-003,-5.73112E-002,1.00000E+000,7
799,1357,-7.42254E+000,1.57145E+000,2.08249E-002,1.27231E+000,-3.28739E-001,-4.33630E-002,1.31481E+000,5.11890E-003,5.32440E-001,0,1.98876E+001,-5.20821E+000,9.99799E-001,-2.33633E+001,-4.29220E+001,9.99302E-001,4.61869E-002,-1.94612E-002,-9.28011E-004,4.62000E-002,-1.94743E-002,-8.09726E-001,4.63893E-002,1.04728E+000,-1.07195E-003,0.00000E+000,-6.33917E-004,9.82339E-001,0.00000E+000,-3.30281E-003,-5.73493E-002,1.00000E+000,7
799,1327,-7.48447E+000,-3.39857E-001,8.32709E-005,1.27147E+000,-2.98170E-001,5.65733E-002,1.30719E+000,1.10425E-002,5.27205E-001,0,1.95757E+001,-4.93154E+000,9.99862E-001,-2.47620E+001,-4.23157E+001,9.98528E-001,4.72226E-002,-1.94390E-002,-5.61710E-004,4.72273E-002,-1.94438E-002,-4.82745E-001,4.74722E-002,1.04836E+000,-1.03802E-003,0.00000E+000,-9.59340E-005,9.82356E-001,0.00000E+000,-6.63139E-004,-5.72664E-002,1.00000E+000,7
1059,1327,1.03080E+001,-1.57862E-002,-2.60823E-002,2.09043E+000,-1.34644E-001,-4.70409E-002,2.09529E+000,8.08534E-003,4.36297E-001,0,3.19585E+001,-2.26431E+000,9.99836E-001,-1.01197E+001,-3.48934E+001,9.98809E-001,4.62418E-002,-1.88962E-002,-3.06517E-004,4.62432E-002,-1.88976E-002,-2.69606E-001,4.64997E-002,1.04718E+000,-1.76300E-002,0.00000E+000,1.59386E-002,9.82188E-001,0.00000E+000,-8.81248E-004,-4.59465E-002,1.00000E+000,7
1059,1337,1.03158E+001,6.22418E-001,-4.79885E-002,2.08061E+000,-1.45152E-001,-7.81918E-002,2.08714E+000,6.43738E-003,4.55322E-001,0,3.19199E+001,-2.37329E+000,9.99875E-001,-9.95157E+000,-3.49619E+001,9.99414E-001,4.63947E-002,-1.88927E-002,-2.63904E-004,4.63958E-002,-1.88938E-002,-2.31595E-001,4.66612E-002,1.04734E+000,-1.76256E-002,0.00000E+000,1.59982E-002,9.82189E-001,0.00000E+000,-4.92083E-004,-4.59360E-002,1.00000E+000,7
1059,1347,1.03303E+001,1.26330E+000,-3.05335E-002,2.06959E+000,-1.57508E-001,-1.03080E-001,2.07813E+000,8.83289E-003,4.43677E-001,0,3.18386E+001,-2.51756E+000,9.99892E-001,-9.60407E+000,-3.50936E+001,9.99018E-001,4.65482E-002,-1.88884E-002,-2.20228E-004,4.65489E-002,-1.88891E-002,-1.92827E-001,4.68235E-002,1.04750E+000,-1.76194E-002,0.00000E+000,1.60581E-002,9.82192E-001,0.00000E+000,-1.01243E-004,-4.59209E-002,1.00000E+000,7
1059,1297,1.03121E+001,-1.90747E+000,1.25300E-001,2.12470E+000,-9.47672E-002,3.49055E-002,2.12710E+000,5.78989E-003,3.85162E-001,0,3.21787E+001,-1.78841E+000,9.99792E-001,-1.00235E+001,-3.45227E+001,9.98777E-001,4.57839E-002,-1.89037E-002,-4.31163E-004,4.57868E-002,-1.89065E-002,-3.81872E-001,4.60176E-002,1.04670E+000,-1.76374E-002,0.00000E+000,1.57606E-002,9.82185E-001,0.00000E+000,-2.04305E-003,-4.59645E-002,1.00000E+000,7
1059,1307,1.03104E+001,-1.27810E+000,6.74347E-002,2.11438E+000,-1.06755E-001,6.01273E-003,2.11708E+000,8.66896E-003,3.59161E-001,0,3.21277E+001,-1.92680E+000,9.99825E-001,-1.00747E+001,-3.46692E+001,9.98848E-001,4.59362E-002,-1.89013E-002,-3.89909E-004,4.59385E-002,-1.89037E-002,-3.44539E-001,4.61778E-002,1.04686E+000,-1.76353E-002,0.00000E+000,1.58197E-002,9.82186E-001,0.00000E+000,-1.65710E-003,-4.59593E-002,1.00000E+000,7
1059,1317,1.03070E+001,-6.48424E-001,1.46577E-002,2.10170E+000,-1.20848E-001,-2.04206E-002,2.10527E+000,9.55664E-003,3.92308E-001,0,3.20326E+001,-2.10153E+000,9.99759E-001,-1.01426E+001,-3.47936E+001,9.97863E-001,4.60888E-002,-1.88989E-002,-3.48440E-004,4.60907E-002,-1.89008E-002,-3.07187E-001,4.63385E-002,1.04702E+000,-1.76330E-002,0.00000E+000,1.58790E-002,9.82187E-001,0.00000E+000,-1.26978E-003,-4.59538E-002,1.00000E+000,7
799,1307,-7.49428E+000,-1.57619E+000,1.56904E-001,1.27116E+000,-2.63599E-001,1.35719E-001,1.30528E+000,1.08883E-002,5.55177E-001,0,1.93216E+001,-4.56721E+000,9.99541E-001,-2.47717E+001,-4.16868E+001,9.98918E-001,4.78994E-002,-1.94353E-002,-3.28978E-004,4.79010E-002,-1.94369E-002,-2.79921E-001,4.81837E-002,1.04907E+000,-1.03270E-003,0.00000E+000,2.57936E-004,9.82358E-001,0.00000E+000,1.07316E-003,-5.72534E-002,1.00000E+000,7
799,1317,-7.49352E+000,-9.58983E-001,5.68496E-002,1.27095E+000,-2.79567E-001,9.36918E-002,1.30470E+000,1.10538E-002,5.68804E-001,0,1.94509E+001,-4.73019E+000,9.99733E-001,-2.48857E+001,-4.19566E+001,9.98172E-001,4.75622E-002,-1.94358E-002,-4.44075E-004,4.75652E-002,-1.94388E-002,-3.79744E-001,4.78289E-002,1.04871E+000,-1.03327E-003,0.00000E+000,8.14155E-005,9.82358E-001,0.00000E+000,2.07044E-004,-5.72547E-002,1.00000E+000,7
789,1327,-8.16178E+000,-3.45170E-001,3.09489E-004,1.24148E+000,-2.96687E-001,6.20362E-002,1.27795E+000,8.18998E-003,5.57084E-001,0,1.91083E+001,-4.93889E+000,9.99871E-001,-2.51650E+001,-4.24770E+001,9.98954E-001,4.67343E-002,-1.93233E-002,-3.87831E-004,4.67366E-002,-1.93255E-002,-3.36374E-001,4.69691E-002,1.04784E+000,-7.53622E-004,0.00000E+000,-7.66520E-006,9.82413E-001,0.00000E+000,-8.96341E-004,-5.62451E-002,1.00000E+000,7
789,1337,-8.14715E+000,2.87746E-001,-2.18701E-002,1.24105E+000,-3.06978E-001,2.57849E-002,1.27871E+000,4.37681E-003,5.40320E-001,0,1.92109E+001,-5.01356E+000,9.99869E-001,-2.48643E+001,-4.26884E+001,9.99632E-001,4.64315E-002,-1.93300E-002,-5.34541E-004,4.64359E-002,-1.93344E-002,-4.65687E-001,4.66519E-002,1.04753E+000,-7.61026E-004,0.00000E+000,-2.47379E-004,9.82407E-001,0.00000E+000,-1.64304E-003,-5.62626E-002,1.00000E+000,7
789,1347,-8.12795E+000,9.22739E-001,-2.12045E-002,1.24149E+000,-3.18461E-001,-6.46313E-003,1.28170E+000,5.51933E-003,5.56451E-001,0,1.93141E+001,-5.12746E+000,9.99723E-001,-2.44349E+001,-4.29033E+001,9.99370E-001,4.61268E-002,-1.93384E-002,-6.82701E-004,4.61339E-002,-1.93455E-002,-5.97419E-001,4.63336E-002,1.04721E+000,-7.70243E-004,0.00000E+000,-4.88034E-004,9.82400E-001,0.00000E+000,-2.39266E-003,-5.62844E-002,1.00000E+000,7
789,1357,-8.10124E+000,1.56511E+000,1.80015E-002,1.24164E+000,-3.28386E-001,-3.99665E-002,1.28495E+000,4.83082E-003,5.48624E-001,0,1.94145E+001,-5.20706E+000,9.99701E-001,-2.37905E+001,-4.31046E+001,9.99359E-001,4.58194E-002,-1.93502E-002,-8.33667E-004,4.58301E-002,-1.93609E-002,-7.32782E-001,4.60135E-002,1.04689E+000,-7.83286E-004,0.00000E+000,-7.30272E-004,9.82390E-001,0.00000E+000,-3.14722E-003,-5.63152E-002,1.00000E+000,7
1069,1327,1.09981E+001,-1.72484E-003,-3.16492E-002,2.12290E+000,-1.27265E-001,-4.97623E-002,2.12729E+000,8.97903E-003,4.64294E-001,0,3.24369E+001,-2.14753E+000,9.99817E-001,-9.42503E+000,-3.45587E+001,9.98328E-001,4.61370E-002,-1.88386E-002,-4.81388E-004,4.61405E-002,-1.88422E-002,-4.24459E-001,4.63981E-002,1.04707E+000,-1.74548E-002,0.00000E+000,1.53957E-002,9.82235E-001,0.00000E+000,-2.76731E-005,-4.55608E-002,1.00000E+000,7
1069,1337,1.10024E+001,6.36396E-001,-5.10265E-002,2.11029E+000,-1.36020E-001,-7.47244E-002,2.11599E+000,5.68004E-003,4.23867E-001,0,3.23337E+001,-2.23690E+000,9.99822E-001,-9.30828E+000,-3.46625E+001,9.98984E-001,4.63218E-002,-1.88354E-002,-4.39920E-004,4.63248E-002,-1.88384E-002,-3.86818E-001,4.65930E-002,1.04727E+000,-1.74498E-002,0.00000E+000,1.54658E-002,9.82237E-001,0.00000E+000,5.37228E-005,-4.55587E-002,1.00000E+000,7
1069,1347,1.10150E+001,1.27681E+000,-4.55918E-002,2.09902E+000,-1.48758E-001,-1.03870E-001,2.10684E+000,5.55334E-003,4.07949E-001,0,3.22655E+001,-2.36264E+000,9.99873E-001,-9.01513E+000,-3.47754E+001,9.99237E-001,4.65079E-002,-1.88315E-002,-3.97195E-004,4.65103E-002,-1.88339E-002,-3.48281E-001,4.67897E-002,1.04746E+000,-1.74427E-002,0.00000E+000,1.55364E-002,9.82239E-001,0.00000E+000,1.35725E-004,-4.55557E-002,1.00000E+000,7
789,1307,-8.17031E+000,-1.58139E+000,1.53526E-001,1.24265E+000,-2.62635E-001,1.39200E-001,1.27771E+000,9.32539E-003,5.59108E-001,0,1.88851E+001,-4.55909E+000,9.99699E-001,-2.51636E+001,-4.18480E+001,9.97474E-001,4.73322E-002,-1.93187E-002,-1.01905E-004,4.73324E-002,-1.93188E-002,-8.76017E-002,4.75978E-002,1.04847E+000,-7.48838E-004,0.00000E+000,4.67279E-004,9.82416E-001,0.00000E+000,5.83085E-004,-5.62338E-002,1.00000E+000,7
789,1317,-8.16687E+000,-9.65998E-001,7.09002E-002,1.24233E+000,-2.81438E-001,1.00186E-001,1.27774E+000,1.08123E-002,5.51086E-001,0,1.90028E+001,-4.77444E+000,9.99698E-001,-2.51930E+001,-4.21951E+001,9.96646E-001,4.70340E-002,-1.93205E-002,-2.44450E-004,4.70349E-002,-1.93214E-002,-2.11074E-001,4.72837E-002,1.04816E+000,-7.50695E-004,0.00000E+000,2.30075E-004,9.82415E-001,0.00000E+000,-1.55794E-004,-5.62382E-002,1.00000E+000,7
1069,1297,1.09941E+001,-1.89399E+000,1.07730E-001,2.15241E+000,-8.45940E-002,3.31577E-002,2.15433E+000,7.21379E-003,4.00950E-001,0,3.25793E+001,-1.63678E+000,9.99691E-001,-9.47638E+000,-3.41836E+001,9.98496E-001,4.55827E-002,-1.88461E-002,-6.03283E-004,4.55884E-002,-1.88518E-002,-5.36430E-001,4.58151E-002,1.04649E+000,-1.74648E-002,0.00000E+000,1.51855E-002,9.82231E-001,0.00000E+000,-2.71609E-004,-4.55650E-002,1.00000E+000,7
1069,1307,1.09919E+001,-1.26623E+000,4.33974E-002,2.14273E+000,-9.75362E-002,2.74616E-003,2.14495E+000,6.76872E-003,3.70973E-001,0,3.25450E+001,-1.78741E+000,9.99818E-001,-9.54778E+000,-3.43414E+001,9.98597E-001,4.57665E-002,-1.88440E-002,-5.63370E-004,4.57714E-002,-1.88490E-002,-4.99538E-001,4.60082E-002,1.04668E+000,-1.74625E-002,0.00000E+000,1.52551E-002,9.82232E-001,0.00000E+000,-1.90740E-004,-4.55640E-002,1.00000E+000,7
1069,1317,1.09954E+001,-6.32493E-001,5.81959E-003,2.13329E+000,-1.10765E-001,-2.30860E-002,2.13629E+000,8.29352E-003,4.36569E-001,0,3.24960E+001,-1.95293E+000,9.99836E-001,-9.48083E+000,-3.44166E+001,9.98268E-001,4.59517E-002,-1.88413E-002,-5.22401E-004,4.59559E-002,-1.88456E-002,-4.61913E-001,4.62030E-002,1.04688E+000,-1.74587E-002,0.00000E+000,1.53254E-002,9.82234E-001,0.00000E+000,-1.09222E-004,-4.55624E-002,1.00000E+000,7
779,1327,-8.83459E+000,-3.46685E-001,9.65330E-003,1.21457E+000,-2.94025E-001,7.17520E-002,1.25171E+000,1.19870E-002,5.86982E-001,0,1.86749E+001,-4.90810E+000,9.99859E-001,-2.54705E+001,-4.25990E+001,9.98736E-001,4.61834E-002,-1.91372E-002,-3.25959E-004,4.61851E-002,-1.91388E-002,-2.85905E-001,4.64101E-002,1.04727E+000,-5.62232E-004,0.00000E+000,-5.98641E-005,9.82553E-001,0.00000E+000,-9.99052E-004,-5.54668E-002,1.00000E+000,7
779,1337,-8.82189E+000,2.80420E-001,-1.98707E-002,1.21269E+000,-3.08802E-001,2.98139E-002,1.25174E+000,4.41804E-003,5.64788E-001,0,1.87727E+001,-5.05061E+000,9.99814E-001,-2.52185E+001,-4.28888E+001,9.99485E-001,4.59677E-002,-1.91445E-002,-4.87941E-004,4.59714E-002,-1.91482E-002,-4.29334E-001,4.61845E-002,1.04704E+000,-5.67346E-004,0.00000E+000,-3.39929E-004,9.82546E-001,0.00000E+000,-1.60750E-003,-5.54806E-002,1.00000E+000,7
779,1347,-8.80376E+000,9.15941E-001,-2.06192E-002,1.21168E+000,-3.18814E-001,-6.78656E-003,1.25294E+000,5.25554E-003,5.38087E-001,0,1.88656E+001,-5.12773E+000,9.99724E-001,-2.48073E+001,-4.31158E+001,9.99376E-001,4.57507E-002,-1.91540E-002,-6.51382E-004,4.57572E-002,-1.91605E-002,-5.74942E-001,4.59582E-002,1.04682E+000,-5.74056E-004,0.00000E+000,-6.21191E-004,9.82538E-001,0.00000E+000,-2.21854E-003,-5.54987E-002,1.00000E+000,7
779,1357,-8.77849E+000,1.55790E+000,1.34661E-002,1.21134E+000,-3.28726E-001,-4.16426E-002,1.25584E+000,4.17200E-003,5.33885E-001,0,1.89620E+001,-5.20029E+000,9.99713E-001,-2.41958E+001,-4.33121E+001,9.99532E-001,4.55314E-002,-1.91667E-002,-8.17184E-004,4.55417E-002,-1.91770E-002,-7.23534E-001,4.57304E-002,1.04659E+000,-5.83031E-004,0.00000E+000,-9.04654E-004,9.82527E-001,0.00000E+000,-2.83437E-003,-5.55230E-002,1.00000E+000,7
779,1317,-8.84103E+000,-9.67944E-001,7.87501E-002,1.21389E+000,-2.77553E-001,1.07568E-001,1.24985E+000,1.35504E-002,5.24819E-001,0,1.85532E+001,-4.72173E+000,9.99862E-001,-2.55227E+001,-4.23468E+001,9.98393E-001,4.63979E-002,-1.91342E-002,-1.66054E-004,4.63983E-002,-1.91347E-002,-1.45182E-001,4.66350E-002,1.04749E+000,-5.60210E-004,0.00000E+000,2.19167E-004,9.82555E-001,0.00000E+000,-3.92855E-004,-5.54613E-002,1.00000E+000,7
1079,1337,1.16919E+001,6.52156E-001,-6.02900E-002,2.14183E+000,-1.26676E-001,-8.03146E-002,2.14708E+000,5.80481E-003,4.17673E-001,0,3.28078E+001,-2.07250E+000,9.99849E-001,-8.62602E+000,-3.43090E+001,9.99545E-001,4.62965E-002,-1.88170E-002,-5.90942E-004,4.63019E-002,-1.88223E-002,-5.19935E-001,4.65709E-002,1.04724E+000,-1.72143E-002,0.00000E+000,1.49316E-002,9.82256E-001,0.00000E+000,4.58886E-004,-4.54000E-002,1.00000E+000,7
1079,1347,1.17051E+001,1.29326E+000,-5.11624E-002,2.13090E+000,-1.38909E-001,-1.06164E-001,2.13806E+000,3.88437E-003,4.41813E-001,0,3.27330E+001,-2.21965E+000,9.99917E-001,-8.31842E+000,-3.43977E+001,9.99733E-001,4.65174E-002,-1.88136E-002,-5.53308E-004,4.65221E-002,-1.88183E-002,-4.85209E-001,4.68041E-002,1.04748E+000,-1.72059E-002,0.00000E+000,1.50005E-002,9.82259E-001,0.00000E+000,3.13930E-004,-4.54053E-002,1.00000E+000,7
1079,1297,1.16844E+001,-1.87684E+000,1.11638E-001,2.18414E+000,-7.33557E-002,3.69347E-002,2.18569E+000,7.80971E-003,4.34570E-001,0,3.30183E+001,-1.48465E+000,9.99721E-001,-8.75565E+000,-3.38236E+001,9.98602E-001,4.54193E-002,-1.88258E-002,-7.32692E-004,4.54277E-002,-1.88342E-002,-6.53324E-001,4.56480E-002,1.04633E+000,-1.72319E-002,0.00000E+000,1.46582E-002,9.82251E-001,0.00000E+000,1.03391E-003,-4.53889E-002,1.00000E+000,7
1079,1307,1.16790E+001,-1.25186E+000,3.74698E-002,2.17267E+000,-8.90996E-002,2.69064E-003,2.17450E+000,7.74321E-003,4.19666E-001,0,3.29731E+001,-1.66798E+000,9.99808E-001,-8.89504E+000,-3.39947E+001,9.98624E-001,4.56375E-002,-1.88242E-002,-6.98479E-004,4.56451E-002,-1.88318E-002,-6.20734E-001,4.58771E-002,1.04656E+000,-1.72297E-002,0.00000E+000,1.47261E-002,9.82252E-001,0.00000E+000,8.90953E-004,-4.53903E-002,1.00000E+000,7
1079,1327,1.16873E+001,1.45407E-002,-3.53794E-002,2.15376E+000,-1.17178E-001,-5.19055E-002,2.15757E+000,7.57168E-003,4.63112E-001,0,3.28870E+001,-1.98633E+000,9.99855E-001,-8.73595E+000,-3.42087E+001,9.99377E-001,4.60771E-002,-1.88196E-002,-6.27085E-004,4.60831E-002,-1.88256E-002,-5.53570E-001,4.63396E-002,1.04701E+000,-1.72201E-002,0.00000E+000,1.48632E-002,9.82254E-001,0.00000E+000,6.02799E-004,-4.53963E-002,1.00000E+000,7
1079,1317,1.16820E+001,-6.16122E-001,-1.72430E-003,2.16287E+000,-1.00692E-001,-2.40299E-002,2.16534E+000,6.93977E-003,4.61418E-001,0,3.29220E+001,-1.79082E+000,9.99844E-001,-8.83816E+000,-3.40456E+001,9.99035E-001,4.58574E-002,-1.88220E-002,-6.62896E-004,4.58642E-002,-1.88287E-002,-5.87140E-001,4.61083E-002,1.04679E+000,-1.72252E-002,0.00000E+000,1.47947E-002,9.82253E-001,0.00000E+000,7.46819E-004,-4.53932E-002,1.00000E+000,7
779,1307,-8.84704E+000,-1.58920E+000,1.53691E-001,1.21136E+000,-2.66051E-001,1.37877E-001,1.24788E+000,8.51532E-003,5.51733E-001,0,1.84207E+001,-4.59363E+000,9.99796E-001,-2.55537E+001,-4.20627E+001,9.98368E-001,4.66103E-002,-1.91324E-002,-7.65921E-006,4.66103E-002,-1.91324E-002,-6.67513E-003,4.68587E-002,1.04771E+000,-5.58984E-004,0.00000E+000,4.96219E-004,9.82557E-001,0.00000E+000,2.09044E-004,-5.54580E-002,1.00000E+000,7
1089,1337,1.23804E+001,6.68271E-001,-6.41876E-002,2.17189E+000,-1.17608E-001,-8.03065E-002,2.17656E+000,4.65936E-003,4.57708E-001,0,3.32384E+001,-1.93786E+000,9.99797E-001,-7.94664E+000,-3.39389E+001,9.99637E-001,4.64698E-002,-1.88141E-002,-6.89368E-004,4.64770E-002,-1.88214E-002,-6.04927E-001,4.67561E-002,1.04743E+000,-1.68733E-002,0.00000E+000,1.44064E-002,9.82259E-001,0.00000E+000,6.88099E-004,-4.52230E-002,1.00000E+000,7
1089,1347,1.23941E+001,1.30958E+000,-5.71356E-002,2.16142E+000,-1.28808E-001,-1.07792E-001,2.16794E+000,4.93593E-003,4.43693E-001,0,3.31768E+001,-2.06198E+000,9.99840E-001,-7.63672E+000,-3.40373E+001,9.99323E-001,4.67717E-002,-1.88112E-002,-6.54204E-004,4.67782E-002,-1.88178E-002,-5.71462E-001,4.70751E-002,1.04775E+000,-1.68617E-002,0.00000E+000,1.44734E-002,9.82261E-001,0.00000E+000,3.83045E-004,-4.52342E-002,1.00000E+000,7
769,1347,-9.47966E+000,9.09513E-001,-2.12301E-002,1.18212E+000,-3.18934E-001,-4.27920E-003,1.22440E+000,4.56334E-003,5.41164E-001,0,1.84120E+001,-5.13069E+000,9.99706E-001,-2.51802E+001,-4.33093E+001,9.99352E-001,4.52543E-002,-1.90053E-002,-6.03531E-004,4.52599E-002,-1.90109E-002,-5.38064E-001,4.54524E-002,1.04630E+000,-2.84840E-004,0.00000E+000,-8.11789E-004,9.82642E-001,0.00000E+000,-1.98938E-003,-5.47215E-002,1.00000E+000,7
769,1357,-9.45377E+000,1.55207E+000,1.29090E-002,1.18296E+000,-3.27847E-001,-3.73103E-002,1.22812E+000,4.59028E-003,5.39758E-001,0,1.85203E+001,-5.19191E+000,9.99710E-001,-2.45567E+001,-4.34968E+001,9.99548E-001,4.50422E-002,-1.90168E-002,-7.59165E-004,4.50512E-002,-1.90258E-002,-6.78886E-001,4.52321E-002,1.04608E+000,-2.93326E-004,0.00000E+000,-1.07808E-003,9.82632E-001,0.00000E+000,-2.57233E-003,-5.47439E-002,1.00000E+000,7
769,1327,-9.51017E+000,-3.52535E-001,1.65366E-002,1.18216E+000,-2.94897E-001,6.67516E-002,1.22021E+000,9.43122E-003,5.66794E-001,0,1.82006E+001,-4.91392E+000,9.99771E-001,-2.58212E+001,-4.28080E+001,9.98129E-001,4.56728E-002,-1.89911E-002,-2.98482E-004,4.56742E-002,-1.89925E-002,-2.64464E-001,4.58895E-002,1.04673E+000,-2.74482E-004,0.00000E+000,-2.84487E-004,9.82655E-001,0.00000E+000,-8.35020E-004,-5.46940E-002,1.00000E+000,7
769,1337,-9.49803E+000,2.73136E-001,-2.08392E-002,1.18227E+000,-3.10357E-001,2.96256E-002,1.22268E+000,4.50071E-003,5.54373E-001,0,1.83149E+001,-5.06270E+000,9.99757E-001,-2.55976E+001,-4.30999E+001,9.99337E-001,4.54642E-002,-1.89967E-002,-4.50185E-004,4.54673E-002,-1.89998E-002,-4.00119E-001,4.56713E-002,1.04651E+000,-2.78564E-004,0.00000E+000,-5.47628E-004,9.82650E-001,0.00000E+000,-1.41108E-003,-5.47048E-002,1.00000E+000,7
1089,1327,1.23736E+001,3.00775E-002,-4.92168E-002,2.18339E+000,-1.05104E-001,-5.53116E-002,2.18662E+000,6.71014E-003,4.40587E-001,0,3.33222E+001,-1.80347E+000,9.99780E-001,-8.10796E+000,-3.38591E+001,9.99075E-001,4.61679E-002,-1.88164E-002,-7.23186E-004,4.61760E-002,-1.88245E-002,-6.37517E-001,4.64377E-002,1.04712E+000,-1.68821E-002,0.00000E+000,1.43395E-002,9.82257E-001,0.00000E+000,9.92832E-004,-4.52145E-002,1.00000E+000,7
1089,1317,1.23712E+001,-6.03958E-001,-1.08422E-002,2.19393E+000,-9.34155E-002,-2.89306E-002,2.19611E+000,6.36328E-003,4.81656E-001,0,3.33850E+001,-1.68850E+000,9.99883E-001,-8.15704E+000,-3.37386E+001,9.99285E-001,4.58677E-002,-1.88184E-002,-7.55620E-004,4.58766E-002,-1.88272E-002,-6.69170E-001,4.61215E-002,1.04680E+000,-1.68883E-002,0.00000E+000,1.42730E-002,9.82256E-001,0.00000E+000,1.29571E-003,-4.52085E-002,1.00000E+000,7
1089,1297,1.23747E+001,-1.85969E+000,1.12520E-001,2.21563E+000,-6.28102E-002,3.85030E-002,2.21686E+000,6.07915E-003,4.71196E-001,0,3.34611E+001,-1.32791E+000,9.99812E-001,-8.03648E+000,-3.34557E+001,9.99339E-001,4.52684E-002,-1.88215E-002,-8.18599E-004,4.52789E-002,-1.88320E-002,-7.31660E-001,4.54918E-002,1.04618E+000,-1.68972E-002,0.00000E+000,1.41403E-002,9.82254E-001,0.00000E+000,1.89975E-003,-4.51999E-002,1.00000E+000,7
1089,1307,1.23701E+001,-1.23582E+000,3.65256E-002,2.20452E+000,-8.02005E-002,1.09536E-003,2.20597E+000,6.67880E-003,4.95142E-001,0,3.34343E+001,-1.54765E+000,9.99848E-001,-8.16816E+000,-3.36190E+001,9.99250E-001,4.55675E-002,-1.88202E-002,-7.87754E-004,4.55772E-002,-1.88298E-002,-7.00848E-001,4.58058E-002,1.04649E+000,-1.68940E-002,0.00000E+000,1.42065E-002,9.82255E-001,0.00000E+000,1.59840E-003,-4.52030E-002,1.00000E+000,7
769,1317,-9.51697E+000,-9.72553E-001,8.05308E-002,1.18339E+000,-2.79094E-001,1.09943E-001,1.22082E+000,1.06173E-002,5.56095E-001,0,1.80882E+001,-4.72632E+000,9.99840E-001,-2.58921E+001,-4.24983E+001,9.99116E-001,4.58796E-002,-1.89874E-002,-1.48487E-004,4.58800E-002,-1.89877E-002,-1.31154E-001,4.61064E-002,1.04695E+000,-2.71757E-004,0.00000E+000,-2.31924E-005,9.82658E-001,0.00000E+000,-2.62998E-004,-5.46868E-002,1.00000E+000,7
1099,1327,1.30610E+001,4.37470E-002,-5.92695E-002,2.21358E+000,-9.67342E-002,-5.52819E-002,2.21638E+000,6.45321E-003,4.60642E-001,0,3.37540E+001,-1.67953E+000,9.99664E-001,-7.45175E+000,-3.35252E+001,9.98655E-001,4.62587E-002,-1.88289E-002,-8.20452E-004,4.62691E-002,-1.88393E-002,-7.22080E-001,4.65341E-002,1.04722E+000,-1.65408E-002,0.00000E+000,1.38212E-002,9.82263E-001,0.00000E+000,1.12526E-003,-4.54530E-002,1.00000E+000,7
1099,1337,1.30717E+001,6.85029E-001,-6.51206E-002,2.20415E+000,-1.06589E-001,-7.80953E-002,2.20811E+000,6.09442E-003,4.60885E-001,0,3.36924E+001,-1.78222E+000,9.99630E-001,-7.21436E+000,-3.35837E+001,9.99202E-001,4.66638E-002,-1.88261E-002,-7.79886E-004,4.66731E-002,-1.88354E-002,-6.82177E-001,4.69616E-002,1.04764E+000,-1.65279E-002,0.00000E+000,1.38983E-002,9.82265E-001,0.00000E+000,7.70014E-004,-4.54639E-002,1.00000E+000,7
1099,1347,1.30880E+001,1.32827E+000,-4.99426E-002,2.19403E+000,-1.17681E-001,-1.05823E-001,2.19973E+000,5.68791E-003,4.61997E-001,0,3.36369E+001,-1.90642E+000,9.99699E-001,-6.85124E+000,-3.36608E+001,9.99206E-001,4.70699E-002,-1.88226E-002,-7.37325E-004,4.70781E-002,-1.88309E-002,-6.41022E-001,4.73910E-002,1.04807E+000,-1.65109E-002,0.00000E+000,1.39756E-002,9.82268E-001,0.00000E+000,4.13630E-004,-4.54781E-002,1.00000E+000,7
759,1347,-1.01538E+001,9.05287E-001,-2.15785E-002,1.15403E+000,-3.17125E-001,-8.99837E-004,1.19681E+000,4.42673E-003,5.31988E-001,0,1.79774E+001,-5.09399E+000,9.99718E-001,-2.55205E+001,-4.34757E+001,9.99182E-001,4.47555E-002,-1.89005E-002,-5.49833E-004,4.47603E-002,-1.89053E-002,-4.94847E-001,4.49397E-002,1.04577E+000,7.56302E-005,0.00000E+000,-1.05138E-003,9.82703E-001,0.00000E+000,-1.87885E-003,-5.39307E-002,1.00000E+000,7
759,1357,-1.01296E+001,1.54643E+000,1.24408E-002,1.15370E+000,-3.26871E-001,-3.25000E-002,1.19955E+000,4.77065E-003,5.51012E-001,0,1.80631E+001,-5.18358E+000,9.99708E-001,-2.49214E+001,-4.36764E+001,9.99353E-001,4.44829E-002,-1.89091E-002,-6.69957E-004,4.44900E-002,-1.89161E-002,-6.05439E-001,4.46558E-002,1.04549E+000,6.49382E-005,0.00000E+000,-1.24472E-003,9.82695E-001,0.00000E+000,-2.49393E-003,-5.39539E-002,1.00000E+000,7
1099,1297,1.30614E+001,-1.84796E+000,9.97419E-002,2.24491E+000,-5.61818E-002,3.37274E-002,2.24587E+000,5.71057E-003,4.92867E-001,0,3.38952E+001,-1.21806E+000,9.99673E-001,-7.39446E+000,-3.31508E+001,9.98960E-001,4.50513E-002,-1.88347E-002,-9.32456E-004,4.50649E-002,-1.88483E-002,-8.36030E-001,4.52653E-002,1.04596E+000,-1.65609E-002,0.00000E+000,1.35917E-002,9.82259E-001,0.00000E+000,2.18232E-003,-4.54362E-002,1.00000E+000,7
1099,1307,1.30589E+001,-1.21993E+000,3.00824E-002,2.23576E+000,-7.00401E-002,2.76398E-003,2.23686E+000,6.66164E-003,4.77440E-001,0,3.38738E+001,-1.37140E+000,9.99805E-001,-7.48244E+000,-3.32809E+001,9.99151E-001,4.54532E-002,-1.88331E-002,-8.96323E-004,4.54656E-002,-1.88456E-002,-7.98650E-001,4.56867E-002,1.04638E+000,-1.65566E-002,0.00000E+000,1.36680E-002,9.82260E-001,0.00000E+000,1.83081E-003,-4.54398E-002,1.00000E+000,7
1099,1317,1.30587E+001,-5.89520E-001,-2.31773E-002,2.22508E+000,-8.37102E-002,-2.79080E-002,2.22683E+000,7.11494E-003,4.88683E-001,0,3.38268E+001,-1.53758E+000,9.99813E-001,-7.50306E+000,-3.33962E+001,9.98982E-001,4.58556E-002,-1.88312E-002,-8.58935E-004,4.58670E-002,-1.88426E-002,-7.60616E-001,4.61096E-002,1.04680E+000,-1.65498E-002,0.00000E+000,1.37445E-002,9.82261E-001,0.00000E+000,1.47847E-003,-4.54455E-002,1.00000E+000,7
759,1327,-1.01867E+001,-3.59942E-001,1.49060E-002,1.15056E+000,-2.96367E-001,6.45973E-002,1.18987E+000,5.61242E-003,5.53664E-001,0,1.77304E+001,-4.92882E+000,9.99744E-001,-2.62051E+001,-4.30193E+001,9.99530E-001,4.52943E-002,-1.88903E-002,-3.15794E-004,4.52959E-002,-1.88919E-002,-2.81892E-001,4.55030E-002,1.04634E+000,8.84933E-005,0.00000E+000,-6.68218E-004,9.82711E-001,0.00000E+000,-6.59810E-004,-5.39028E-002,1.00000E+000,7
759,1337,-1.01724E+001,2.70400E-001,-1.66007E-002,1.15265E+000,-3.07419E-001,3.18436E-002,1.19336E+000,4.44949E-003,5.56483E-001,0,1.78602E+001,-5.02231E+000,9.99665E-001,-2.59314E+001,-4.32459E+001,9.99343E-001,4.50256E-002,-1.88946E-002,-4.32091E-004,4.50285E-002,-1.88975E-002,-3.87288E-001,4.52218E-002,1.04606E+000,8.31612E-005,0.00000E+000,-8.59481E-004,9.82708E-001,0.00000E+000,-1.26831E-003,-5.39143E-002,1.00000E+000,7
759,1317,-1.01932E+001,-9.79390E-001,8.46443E-002,1.15117E+000,-2.80378E-001,1.08728E-001,1.18980E+000,8.68254E-003,5.78630E-001,0,1.76060E+001,-4.76652E+000,9.99769E-001,-2.62555E+001,-4.26936E+001,9.99223E-001,4.55605E-002,-1.88879E-002,-2.01451E-004,4.55611E-002,-1.88885E-002,-1.79091E-001,4.57823E-002,1.04661E+000,9.15702E-005,0.00000E+000,-4.78412E-004,9.82713E-001,0.00000E+000,-5.59479E-005,-5.38961E-002,1.00000E+000,7
749,1317,-1.08637E+001,-9.82483E-001,9.56141E-002,1.12300E+000,-2.80209E-001,1.08110E-001,1.16247E+000,6.82428E-003,5.89747E-001,0,1.71837E+001,-4.75852E+000,9.99740E-001,-2.65086E+001,-4.28509E+001,9.98989E-001,4.53017E-002,-1.88544E-002,-2.38085E-004,4.53026E-002,-1.88553E-002,-2.12623E-001,4.55141E-002,1.04634E+000,5.53294E-004,0.00000E+000,-1.00163E-003,9.82700E-001,0.00000E+000,3.05039E-004,-5.30134E-002,1.00000E+000,7
749,1327,-1.08580E+001,-3.62998E-001,2.11338E-002,1.12325E+000,-2.95396E-001,6.73523E-002,1.16339E+000,4.88395E-003,5.62450E-001,0,1.73105E+001,-4.90519E+000,9.99665E-001,-2.64822E+001,-4.31691E+001,9.99229E-001,4.49701E-002,-1.88556E-002,-3.19155E-004,4.49717E-002,-1.88572E-002,-2.86493E-001,4.51664E-002,1.04600E+000,5.50328E-004,0.00000E+000,-1.12530E-003,9.82699E-001,0.00000E+000,-3.28839E-004,-5.30188E-002,1.00000E+000,7
749,1337,-1.08458E+001,2.66670E-001,-1.21525E-002,1.12356E+000,-3.06086E-001,3.38693E-002,1.16500E+000,4.22335E-003,5.80106E-001,0,1.74141E+001,-5.00908E+000,9.99699E-001,-2.62451E+001,-4.33970E+001,9.99515E-001,4.46356E-002,-1.88585E-002,-4.02447E-004,4.46382E-002,-1.88610E-002,-3.63140E-001,4.48164E-002,1.04565E+000,5.43862E-004,0.00000E+000,-1.24982E-003,9.82696E-001,0.00000E+000,-9.67036E-004,-5.30306E-002,1.00000E+000,7
749,1347,-1.08289E+001,8.99439E-001,-2.32723E-002,1.12408E+000,-3.16704E-001,-1.33223E-003,1.16784E+000,4.37017E-003,5.28939E-001,0,1.75251E+001,-5.08277E+000,9.99797E-001,-2.58757E+001,-4.36612E+001,9.99492E-001,4.42996E-002,-1.88624E-002,-4.87182E-004,4.43034E-002,-1.88662E-002,-4.41900E-001,4.44655E-002,1.04530E+000,5.34948E-004,0.00000E+000,-1.37474E-003,9.82693E-001,0.00000E+000,-1.60730E-003,-5.30469E-002,1.00000E+000,7
1109,1297,1.37485E+001,-1.83647E+000,8.79865E-002,2.27578E+000,-4.76207E-002,3.68484E-002,2.27658E+000,5.67427E-003,4.74147E-001,0,3.43231E+001,-1.09425E+000,9.99604E-001,-6.74145E+000,-3.28720E+001,9.98601E-001,4.49716E-002,-1.89268E-002,-9.92284E-004,4.49871E-002,-1.89422E-002,-8.89465E-001,4.51736E-002,1.04588E+000,-1.60350E-002,0.00000E+000,1.29651E-002,9.82200E-001,0.00000E+000,2.50974E-003,-4.59387E-002,1.00000E+000,7
1109,1307,1.37455E+001,-1.20742E+000,2.14980E-002,2.26619E+000,-6.03722E-002,9.25816E-003,2.26701E+000,6.33454E-003,4.46391E-001,0,3.42829E+001,-1.23605E+000,9.99750E-001,-6.83019E+000,-3.29974E+001,9.99068E-001,4.54171E-002,-1.89247E-002,-9.44311E-004,4.54310E-002,-1.89385E-002,-8.40659E-001,4.56399E-002,1.04635E+000,-1.60302E-002,0.00000E+000,1.30704E-002,9.82201E-001,0.00000E+000,2.01377E-003,-4.59438E-002,1.00000E+000,7
1109,1317,1.37453E+001,-5.76057E-001,-3.06996E-002,2.25559E+000,-7.34277E-002,-1.96191E-002,2.25687E+000,6.26896E-003,4.57727E-001,0,3.42311E+001,-1.39357E+000,9.99737E-001,-6.84926E+000,-3.30985E+001,9.99020E-001,4.58635E-002,-1.89221E-002,-8.94930E-004,4.58759E-002,-1.89344E-002,-7.91267E-001,4.61082E-002,1.04681E+000,-1.60227E-002,0.00000E+000,1.31761E-002,9.82203E-001,0.00000E+000,1.51626E-003,-4.59518E-002,1.00000E+000,7
749,1357,-1.08038E+001,1.53969E+000,1.18525E-002,1.12512E+000,-3.26539E-001,-3.03219E-002,1.17194E+000,5.31686E-003,5.47029E-001,0,1.76238E+001,-5.18484E+000,9.99760E-001,-2.52585E+001,-4.38800E+001,9.99541E-001,4.39604E-002,-1.88682E-002,-5.74555E-004,4.39656E-002,-1.88735E-002,-5.23900E-001,4.41120E-002,1.04494E+000,5.21903E-004,0.00000E+000,-1.50066E-003,9.82689E-001,0.00000E+000,-2.25266E-003,-5.30707E-002,1.00000E+000,7
1109,1327,1.37498E+001,5.75672E-002,-6.46139E-002,2.24489E+000,-8.71969E-002,-4.99683E-002,2.24714E+000,5.14262E-003,4.55181E-001,0,3.41819E+001,-1.55135E+000,9.99646E-001,-6.76129E+000,-3.32121E+001,9.99027E-001,4.63110E-002,-1.89188E-002,-8.43794E-004,4.63219E-002,-1.89298E-002,-7.40997E-001,4.65788E-002,1.04728E+000,-1.60118E-002,0.00000E+000,1.32821E-002,9.82205E-001,0.00000E+000,1.01707E-003,-4.59635E-002,1.00000E+000,7
1109,1337,1.37602E+001,6.98827E-001,-7.21733E-002,2.23466E+000,-9.76931E-002,-7.57479E-002,2.23808E+000,5.99260E-003,4.68604E-001,0,3.41199E+001,-1.66079E+000,9.99737E-001,-6.53387E+000,-3.32590E+001,9.99323E-001,4.67603E-002,-1.89149E-002,-7.90637E-004,4.67698E-002,-1.89244E-002,-6.89628E-001,4.70525E-002,1.04775E+000,-1.59971E-002,0.00000E+000,1.33886E-002,9.82208E-001,0.00000E+000,5.15194E-004,-4.59791E-002,1.00000E+000,7
1109,1347,1.37806E+001,1.34444E+000,-4.23813E-002,2.22503E+000,-1.08953E-001,-1.02773E-001,2.23007E+000,6.59891E-003,4.75157E-001,0,3.40687E+001,-1.78824E+000,9.99698E-001,-6.08243E+000,-3.33272E+001,9.99064E-001,4.72115E-002,-1.89098E-002,-7.34103E-004,4.72196E-002,-1.89179E-002,-6.36015E-001,4.75294E-002,1.04822E+000,-1.59758E-002,0.00000E+000,1.34958E-002,9.82213E-001,0.00000E+000,1.05593E-005,-4.60018E-002,1.00000E+000,7
739,1337,-1.15188E+001,2.60740E-001,-1.08397E-002,1.09456E+000,-3.06254E-001,3.35103E-002,1.13709E+000,4.62624E-003,5.74607E-001,0,1.69765E+001,-5.00869E+000,9.99698E-001,-2.65578E+001,-4.35897E+001,9.99475E-001,4.42175E-002,-1.87744E-002,-4.46093E-004,4.42207E-002,-1.87775E-002,-4.05728E-001,4.43878E-002,1.04521E+000,9.33310E-004,0.00000E+000,-1.71111E-003,9.82745E-001,0.00000E+000,-7.82971E-004,-5.23808E-002,1.00000E+000,7
739,1347,-1.15030E+001,8.93895E-001,-1.98403E-002,1.09444E+000,-3.16165E-001,2.01039E-003,1.13920E+000,3.77910E-003,5.49894E-001,0,1.70658E+001,-5.09093E+000,9.99852E-001,-2.61983E+001,-4.38414E+001,9.99646E-001,4.38074E-002,-1.87780E-002,-5.27885E-004,4.38119E-002,-1.87824E-002,-4.83223E-001,4.39601E-002,1.04478E+000,9.22735E-004,0.00000E+000,-1.82385E-003,9.82742E-001,0.00000E+000,-1.52904E-003,-5.23993E-002,1.00000E+000,7
739,1357,-1.14788E+001,1.53431E+000,1.21663E-002,1.09516E+000,-3.25195E-001,-2.81381E-002,1.14277E+000,3.71674E-003,5.42353E-001,0,1.71622E+001,-5.16685E+000,9.99825E-001,-2.56008E+001,-4.40656E+001,9.99685E-001,4.33935E-002,-1.87833E-002,-6.12640E-004,4.33996E-002,-1.87894E-002,-5.64473E-001,4.35295E-002,1.04435E+000,9.07216E-004,0.00000E+000,-1.93744E-003,9.82738E-001,0.00000E+000,-2.28067E-003,-5.24264E-002,1.00000E+000,7
739,1327,-1.15317E+001,-3.67290E-001,2.26573E-002,1.09346E+000,-2.93903E-001,6.70207E-002,1.13425E+000,5.63232E-003,5.37516E-001,0,1.68607E+001,-4.87311E+000,9.99803E-001,-2.68046E+001,-4.33451E+001,9.99413E-001,4.46257E-002,-1.87718E-002,-3.65862E-004,4.46278E-002,-1.87739E-002,-3.30635E-001,4.48146E-002,1.04564E+000,9.41103E-004,0.00000E+000,-1.59868E-003,9.82747E-001,0.00000E+000,-3.89672E-005,-5.23672E-002,1.00000E+000,7
1119,1297,1.44339E+001,-1.82435E+000,7.70216E-002,2.30458E+000,-3.86242E-002,4.10408E-002,2.30527E+000,5.81010E-003,4.56826E-001,0,3.47148E+001,-9.63295E-001,9.99804E-001,-6.10935E+000,-3.25847E+001,9.99305E-001,4.49492E-002,-1.88413E-002,-1.06849E-003,4.49671E-002,-1.88592E-002,-9.59346E-001,4.51614E-002,1.04587E+000,-1.54958E-002,0.00000E+000,1.23178E-002,9.82313E-001,0.00000E+000,2.34138E-003,-4.63980E-002,1.00000E+000,7
1119,1307,1.44329E+001,-1.19515E+000,1.43506E-002,2.29554E+000,-5.23393E-002,1.16228E-002,2.29617E+000,4.46463E-003,4.48829E-001,0,3.46903E+001,-1.12449E+000,9.99812E-001,-6.16040E+000,-3.27041E+001,9.99681E-001,4.54042E-002,-1.88382E-002,-1.00288E-003,4.54199E-002,-1.88538E-002,-8.94150E-001,4.56376E-002,1.04634E+000,-1.54898E-002,0.00000E+000,1.24597E-002,9.82315E-001,0.00000E+000,1.78556E-003,-4.64050E-002,1.00000E+000,7
1119,1317,1.44345E+001,-5.63454E-001,-3.60073E-002,2.28586E+000,-6.53147E-002,-1.85517E-002,2.28687E+000,4.44726E-003,4.40722E-001,0,3.46576E+001,-1.27517E+000,9.99713E-001,-6.14907E+000,-3.28119E+001,9.99683E-001,4.58596E-002,-1.88344E-002,-9.36077E-004,4.58731E-002,-1.88480E-002,-8.28798E-001,4.61155E-002,1.04682E+000,-1.54816E-002,0.00000E+000,1.26019E-002,9.82318E-001,0.00000E+000,1.22867E-003,-4.64147E-002,1.00000E+000,7
1119,1327,1.44398E+001,7.16247E-002,-6.65114E-002,2.27507E+000,-7.80701E-002,-4.85585E-002,2.27693E+000,4.41690E-003,4.24121E-001,0,3.46059E+001,-1.41479E+000,9.99677E-001,-6.04345E+000,-3.29157E+001,9.99517E-001,4.63161E-002,-1.88298E-002,-8.67407E-004,4.63277E-002,-1.88414E-002,-7.62703E-001,4.65957E-002,1.04729E+000,-1.54699E-002,0.00000E+000,1.27446E-002,9.82321E-001,0.00000E+000,6.69703E-004,-4.64284E-002,1.00000E+000,7
1119,1337,1.44510E+001,7.11801E-001,-7.42028E-002,2.26494E+000,-9.05797E-002,-7.70399E-002,2.26805E+000,4.69543E-003,4.51575E-001,0,3.45566E+001,-1.55160E+000,9.99839E-001,-5.80424E+000,-3.29704E+001,9.99328E-001,4.67749E-002,-1.88242E-002,-7.96571E-004,4.67845E-002,-1.88339E-002,-6.95607E-001,4.70797E-002,1.04777E+000,-1.54544E-002,0.00000E+000,1.28882E-002,9.82326E-001,0.00000E+000,1.07258E-004,-4.64466E-002,1.00000E+000,7
1119,1347,1.44703E+001,1.35755E+000,-4.63808E-002,2.25469E+000,-1.01040E-001,-1.03124E-001,2.25931E+000,7.04310E-003,4.42081E-001,0,3.44932E+001,-1.66827E+000,9.99799E-001,-5.37611E+000,-3.30387E+001,9.99299E-001,4.72346E-002,-1.88172E-002,-7.22794E-004,4.72425E-002,-1.88251E-002,-6.26879E-001,4.75660E-002,1.04825E+000,-1.54331E-002,0.00000E+000,1.30323E-002,9.82332E-001,0.00000E+000,-4.57121E-004,-4.64715E-002,1.00000E+000,7
739,1317,-1.15368E+001,-9.86348E-001,9.44384E-002,1.09343E+000,-2.79032E-001,1.03575E-001,1.13322E+000,6.54585E-003,5.83751E-001,0,1.67505E+001,-4.72705E+000,9.99819E-001,-2.68294E+001,-4.30032E+001,9.99260E-001,4.50300E-002,-1.87707E-002,-2.88345E-004,4.50313E-002,-1.87720E-002,-2.58939E-001,4.52383E-002,1.04606E+000,9.44491E-004,0.00000E+000,-1.48713E-003,9.82748E-001,0.00000E+000,6.99187E-004,-5.23613E-002,1.00000E+000,7
1129,1297,1.51204E+001,-1.81071E+000,6.88372E-002,2.33287E+000,-2.86704E-002,4.32064E-002,2.33345E+000,7.80875E-003,4.44225E-001,0,3.51046E+001,-8.17607E-001,9.99854E-001,-5.45124E+000,-3.22775E+001,9.98879E-001,4.48628E-002,-1.87596E-002,-1.13772E-003,4.48832E-002,-1.87800E-002,-1.02415E+000,4.50819E-002,1.04578E+000,-1.49338E-002,0.00000E+000,1.16876E-002,9.82410E-001,0.00000E+000,1.66406E-003,-4.65844E-002,1.00000E+000,7
1129,1307,1.51198E+001,-1.18372E+000,4.09639E-003,2.32406E+000,-4.47419E-002,1.10095E-002,2.32452E+000,1.09891E-002,4.29547E-001,0,3.50957E+001,-1.00882E+000,9.99838E-001,-5.49898E+000,-3.24282E+001,9.97882E-001,4.53736E-002,-1.87557E-002,-1.05575E-003,4.53910E-002,-1.87731E-002,-9.42910E-001,4.56164E-002,1.04632E+000,-1.49269E-002,0.00000E+000,1.18597E-002,9.82413E-001,0.00000E+000,1.12356E-003,-4.65914E-002,1.00000E+000,7
1129,1317,1.51238E+001,-5.52476E-001,-4.37372E-002,2.31634E+000,-5.85817E-002,-1.82162E-002,2.31715E+000,6.54815E-003,4.13375E-001,0,3.50899E+001,-1.17173E+000,9.99835E-001,-5.44581E+000,-3.25504E+001,9.98124E-001,4.58850E-002,-1.87509E-002,-9.72295E-004,4.58997E-002,-1.87656E-002,-8.61619E-001,4.61533E-002,1.04685E+000,-1.49172E-002,0.00000E+000,1.20321E-002,9.82416E-001,0.00000E+000,5.81803E-004,-4.66013E-002,1.00000E+000,7
729,1347,-1.21728E+001,8.87861E-001,-1.49212E-002,1.06753E+000,-3.17537E-001,7.12810E-004,1.11375E+000,3.69572E-003,5.72688E-001,0,1.66620E+001,-5.11185E+000,9.99891E-001,-2.64471E+001,-4.40310E+001,9.99744E-001,4.33345E-002,-1.86318E-002,-4.75207E-004,4.33382E-002,-1.86354E-002,-4.39355E-001,4.34795E-002,1.04429E+000,1.48696E-003,0.00000E+000,-2.25760E-003,9.82839E-001,0.00000E+000,-1.41873E-003,-5.15041E-002,1.00000E+000,7
729,1357,-1.21509E+001,1.52993E+000,1.34473E-002,1.06732E+000,-3.23971E-001,-2.69707E-002,1.11574E+000,3.64490E-003,5.72855E-001,0,1.67360E+001,-5.15379E+000,9.99827E-001,-2.58916E+001,-4.42200E+001,9.99785E-001,4.28086E-002,-1.86358E-002,-5.45652E-004,4.28135E-002,-1.86406E-002,-5.08757E-001,4.29324E-002,1.04374E+000,1.46837E-003,0.00000E+000,-2.33326E-003,9.82837E-001,0.00000E+000,-2.32807E-003,-5.15350E-002,1.00000E+000,7
1129,1327,1.51296E+001,8.35431E-002,-7.55311E-002,2.30645E+000,-6.97524E-002,-4.73015E-002,2.30799E+000,7.11699E-003,3.88578E-001,0,3.50487E+001,-1.29370E+000,9.99779E-001,-5.33606E+000,-3.26392E+001,9.99000E-001,4.63971E-002,-1.87453E-002,-8.87179E-004,4.64091E-002,-1.87574E-002,-7.80123E-001,4.66924E-002,1.04739E+000,-1.49044E-002,0.00000E+000,1.22050E-002,9.82420E-001,0.00000E+000,3.87684E-005,-4.66143E-002,1.00000E+000,7
729,1337,-1.21913E+001,2.56554E-001,-7.44980E-003,1.06601E+000,-3.04489E-001,3.69340E-002,1.10926E+000,4.14762E-003,5.69381E-001,0,1.65336E+001,-4.98608E+000,9.99827E-001,-2.68524E+001,-4.37600E+001,9.99554E-001,4.38568E-002,-1.86288E-002,-4.07134E-004,4.38595E-002,-1.86314E-002,-3.73298E-001,4.40245E-002,1.04483E+000,1.50127E-003,0.00000E+000,-2.18230E-003,9.82841E-001,0.00000E+000,-5.13676E-004,-5.14804E-002,1.00000E+000,7
729,1327,-1.22034E+001,-3.69734E-001,2.80437E-002,1.06472E+000,-2.92347E-001,6.78416E-002,1.10621E+000,5.09918E-003,5.54245E-001,0,1.64232E+001,-4.84236E+000,9.99779E-001,-2.70818E+001,-4.34801E+001,9.99274E-001,4.43743E-002,-1.86269E-002,-3.42030E-004,4.43762E-002,-1.86288E-002,-3.11043E-001,4.45661E-002,1.04537E+000,1.51033E-003,0.00000E+000,-2.10754E-003,9.82842E-001,0.00000E+000,3.84922E-004,-5.14653E-002,1.00000E+000,7
1129,1337,1.51480E+001,7.29056E-001,-6.12551E-002,2.29745E+000,-8.18677E-002,-7.73496E-002,2.30020E+000,6.56142E-003,4.71987E-001,0,3.50208E+001,-1.42956E+000,9.99800E-001,-4.94802E+000,-3.26293E+001,9.99314E-001,4.69152E-002,-1.87370E-002,-7.96551E-004,4.69249E-002,-1.87466E-002,-6.95027E-001,4.72398E-002,1.04793E+000,-1.48821E-002,0.00000E+000,1.23802E-002,9.82427E-001,0.00000E+000,-5.11563E-004,-4.66368E-002,1.00000E+000,7
729,1317,-1.22111E+001,-9.90915E-001,8.95508E-002,1.06340E+000,-2.78073E-001,1.01712E-001,1.10385E+000,6.62778E-003,5.78813E-001,0,1.63019E+001,-4.69880E+000,9.99792E-001,-2.71753E+001,-4.31582E+001,9.98762E-001,4.48891E-002,-1.86259E-002,-2.78852E-004,4.48903E-002,-1.86271E-002,-2.51541E-001,4.51063E-002,1.04591E+000,1.51580E-003,0.00000E+000,-2.03301E-003,9.82843E-001,0.00000E+000,1.28063E-003,-5.14562E-002,1.00000E+000,7
1129,1347,1.51627E+001,1.37405E+000,-4.82705E-002,2.28531E+000,-9.17818E-002,-1.06670E-001,2.28964E+000,7.79745E-003,4.75212E-001,0,3.49422E+001,-1.53434E+000,9.99768E-001,-4.61957E+000,-3.26691E+001,9.99110E-001,4.74308E-002,-1.87288E-002,-7.06501E-004,4.74383E-002,-1.87363E-002,-6.11755E-001,4.77860E-002,1.04847E+000,-1.48603E-002,0.00000E+000,1.25547E-002,9.82434E-001,0.00000E+000,-1.05967E-003,-4.66589E-002,1.00000E+000,7
719,1347,-1.28457E+001,8.85609E-001,-1.52669E-002,1.03860E+000,-3.13650E-001,1.86222E-003,1.08492E+000,5.82117E-003,5.76308E-001,0,1.62182E+001,-5.05174E+000,9.99774E-001,-2.67518E+001,-4.41611E+001,9.99554E-001,4.30252E-002,-1.85457E-002,-4.68130E-004,4.30287E-002,-1.85492E-002,-4.35593E-001,4.31647E-002,1.04396E+000,2.07509E-003,0.00000E+000,-2.80542E-003,9.82882E-001,0.00000E+000,-1.26515E-003,-5.07063E-002,1.00000E+000,7
719,1357,-1.28239E+001,1.52487E+000,1.02649E-002,1.03862E+000,-3.23181E-001,-2.78210E-002,1.08810E+000,4.41618E-003,5.85406E-001,0,1.63020E+001,-5.13210E+000,9.99774E-001,-2.62041E+001,-4.43842E+001,9.99717E-001,4.23932E-002,-1.85483E-002,-5.20541E-004,4.23976E-002,-1.85528E-002,-4.89353E-001,4.25076E-002,1.04331E+000,2.05314E-003,0.00000E+000,-2.83706E-003,9.82881E-001,0.00000E+000,-2.30769E-003,-5.07411E-002,1.00000E+000,7
719,1337,-1.28629E+001,2.54325E-001,-6.30793E-003,1.03743E+000,-3.01791E-001,3.53138E-002,1.08101E+000,5.54917E-003,5.82733E-001,0,1.61041E+001,-4.93757E+000,9.99675E-001,-2.71344E+001,-4.38862E+001,9.99291E-001,4.36514E-002,-1.85438E-002,-4.18802E-004,4.36542E-002,-1.85466E-002,-3.85788E-001,4.38182E-002,1.04462E+000,2.09129E-003,0.00000E+000,-2.77400E-003,9.82883E-001,0.00000E+000,-2.29712E-004,-5.06806E-002,1.00000E+000,7
719,1327,-1.28747E+001,-3.71388E-001,3.26497E-002,1.03597E+000,-2.89614E-001,6.80303E-002,1.07784E+000,3.95177E-003,5.80719E-001,0,1.59862E+001,-4.80264E+000,9.99683E-001,-2.73515E+001,-4.35964E+001,9.99336E-001,4.42722E-002,-1.85426E-002,-3.72508E-004,4.42744E-002,-1.85448E-002,-3.39763E-001,4.44683E-002,1.04527E+000,2.10175E-003,0.00000E+000,-2.74277E-003,9.82884E-001,0.00000E+000,7.99241E-004,-5.06640E-002,1.00000E+000,7
719,1317,-1.28824E+001,-9.93087E-001,9.62343E-002,1.03359E+000,-2.76404E-001,9.82050E-002,1.07441E+000,5.36515E-003,5.74450E-001,0,1.58601E+001,-4.65950E+000,9.99728E-001,-2.74382E+001,-4.33005E+001,9.99076E-001,4.48898E-002,-1.85421E-002,-3.28754E-004,4.48915E-002,-1.85438E-002,-2.96941E-001,4.51170E-002,1.04591E+000,2.10718E-003,0.00000E+000,-2.71163E-003,9.82884E-001,0.00000E+000,1.82515E-003,-5.06554E-002,1.00000E+000,7
1139,1297,1.58138E+001,-1.79995E+000,7.03426E-002,2.36618E+000,-2.12669E-002,4.92222E-002,2.36679E+000,6.12105E-003,3.93665E-001,0,3.55554E+001,-7.19210E-001,9.99914E-001,-4.66527E+000,-3.20538E+001,9.98838E-001,4.48167E-002,-1.87549E-002,-1.15103E-003,4.48375E-002,-1.87757E-002,-1.03695E+000,4.50344E-002,1.04574E+000,-1.43375E-002,0.00000E+000,1.11437E-002,9.82432E-001,0.00000E+000,7.69931E-004,-4.68067E-002,1.00000E+000,7
1139,1307,1.58114E+001,-1.17471E+000,-3.59513E-003,2.35665E+000,-3.91325E-002,1.25680E-002,2.35700E+000,7.03259E-003,3.82395E-001,0,3.55543E+001,-9.22809E-001,9.99901E-001,-4.75786E+000,-3.22088E+001,9.98760E-001,4.53932E-002,-1.87512E-002,-1.06838E-003,4.54110E-002,-1.87690E-002,-9.53955E-001,4.56379E-002,1.04634E+000,-1.43307E-002,0.00000E+000,1.13142E-002,9.82434E-001,0.00000E+000,2.85441E-004,-4.68122E-002,1.00000E+000,7
1139,1337,1.58391E+001,7.44781E-001,-6.55072E-002,2.32734E+000,-7.20713E-002,-7.95931E-002,2.32982E+000,7.65824E-003,4.83520E-001,0,3.54529E+001,-1.28792E+000,9.99764E-001,-4.21107E+000,-3.22792E+001,9.98437E-001,4.71351E-002,-1.87322E-002,-8.03023E-004,4.71449E-002,-1.87419E-002,-6.98385E-001,4.74737E-002,1.04817E+000,-1.42781E-002,0.00000E+000,1.18303E-002,9.82449E-001,0.00000E+000,-1.18161E-003,-4.68545E-002,1.00000E+000,7
1139,1347,1.58617E+001,1.39037E+000,-3.36061E-002,2.31880E+000,-8.45476E-002,-1.06476E-001,2.32279E+000,7.93215E-003,4.80126E-001,0,3.54197E+001,-1.42754E+000,9.99686E-001,-3.72846E+000,-3.23528E+001,9.98184E-001,4.77194E-002,-1.87230E-002,-7.08729E-004,4.77269E-002,-1.87306E-002,-6.11071E-001,4.80935E-002,1.04878E+000,-1.42495E-002,0.00000E+000,1.20038E-002,9.82457E-001,0.00000E+000,-1.67478E-003,-4.68775E-002,1.00000E+000,7
1139,1327,1.58225E+001,9.82046E-002,-7.73763E-002,2.33810E+000,-6.25550E-002,-4.79819E-002,2.33943E+000,7.46822E-003,4.37079E-001,0,3.55016E+001,-1.18865E+000,9.99807E-001,-4.56504E+000,-3.22937E+001,9.98356E-001,4.65515E-002,-1.87404E-002,-8.95543E-004,4.65638E-002,-1.87527E-002,-7.85671E-001,4.68566E-002,1.04756E+000,-1.43032E-002,0.00000E+000,1.16572E-002,9.82442E-001,0.00000E+000,-6.89511E-004,-4.68343E-002,1.00000E+000,7
1139,1317,1.58116E+001,-5.42180E-001,-5.78256E-002,2.34610E+000,-5.20082E-002,-1.86010E-002,2.34675E+000,8.07487E-003,4.11451E-001,0,3.55139E+001,-1.07767E+000,9.99868E-001,-4.77597E+000,-3.22734E+001,9.98585E-001,4.59708E-002,-1.87468E-002,-9.83990E-004,4.59857E-002,-1.87617E-002,-8.70878E-001,4.62445E-002,1.04695E+000,-1.43207E-002,0.00000E+000,1.14851E-002,9.82437E-001,0.00000E+000,-2.00396E-004,-4.68203E-002,1.00000E+000,7
709,1347,-1.35201E+001,8.83488E-001,-1.67021E-002,1.00783E+000,-3.09546E-001,2.28225E-003,1.05430E+000,5.29446E-003,5.63476E-001,0,1.57474E+001,-4.97872E+000,9.99762E-001,-2.70780E+001,-4.42953E+001,9.99521E-001,4.27197E-002,-1.82611E-002,-4.86780E-004,4.27236E-002,-1.82650E-002,-4.57325E-001,4.28730E-002,1.04364E+000,2.76089E-003,0.00000E+000,-3.49275E-003,9.83121E-001,0.00000E+000,-1.18738E-003,-4.99084E-002,1.00000E+000,7
709,1357,-1.34979E+001,1.52103E+000,5.92342E-003,1.00906E+000,-3.19230E-001,-2.72696E-002,1.05871E+000,4.32880E-003,5.59284E-001,0,1.58491E+001,-5.06900E+000,9.99829E-001,-2.65300E+001,-4.45466E+001,9.99739E-001,4.20144E-002,-1.82630E-002,-5.29777E-004,4.20190E-002,-1.82677E-002,-5.03520E-001,4.21381E-002,1.04291E+000,2.73726E-003,0.00000E+000,-3.50252E-003,9.83120E-001,0.00000E+000,-2.29538E-003,-4.99441E-002,1.00000E+000,7
709,1337,-1.35340E+001,2.51668E-001,-7.01464E-004,1.00829E+000,-2.99551E-001,3.47710E-002,1.05242E+000,5.07734E-003,5.63906E-001,0,1.56621E+001,-4.88965E+000,9.99669E-001,-2.73931E+001,-4.40447E+001,9.99303E-001,4.34190E-002,-1.82599E-002,-4.47551E-004,4.34222E-002,-1.82631E-002,-4.15718E-001,4.36044E-002,1.04437E+000,2.77716E-003,0.00000E+000,-3.48305E-003,9.83121E-001,0.00000E+000,-8.62003E-005,-4.98838E-002,1.00000E+000,7
709,1317,-1.35501E+001,-9.92233E-001,1.15306E-001,1.00614E+000,-2.72656E-001,1.02574E-001,1.04746E+000,6.35327E-003,5.95314E-001,0,1.54308E+001,-4.61352E+000,9.99804E-001,-2.76077E+001,-4.34097E+001,9.99245E-001,4.48020E-002,-1.82588E-002,-3.77634E-004,4.48043E-002,-1.82611E-002,-3.43093E-001,4.50587E-002,1.04582E+000,2.79295E-003,0.00000E+000,-3.46378E-003,9.83121E-001,0.00000E+000,2.09973E-003,-4.98600E-002,1.00000E+000,7
709,1327,-1.35420E+001,-3.71496E-001,5.20794E-002,1.00848E+000,-2.86436E-001,7.00149E-002,1.05070E+000,6.69438E-003,5.92177E-001,0,1.55626E+001,-4.76485E+000,9.99803E-001,-2.75140E+001,-4.37280E+001,9.99307E-001,4.41120E-002,-1.82592E-002,-4.11914E-004,4.41147E-002,-1.82620E-002,-3.78373E-001,4.43319E-002,1.04510E+000,2.78640E-003,0.00000E+000,-3.47340E-003,9.83121E-001,0.00000E+000,1.00782E-003,-4.98699E-002,1.00000E+000,7
1149,1297,1.65012E+001,-1.78895E+000,5.36867E-002,2.39499E+000,-1.50090E-002,4.50249E-002,2.39546E+000,1.16190E-002,3.98584E-001,0,3.59772E+001,-6.05485E-001,9.99820E-001,-4.00045E+000,-3.17608E+001,9.97642E-001,4.48322E-002,-1.87721E-002,-1.15231E-003,4.48531E-002,-1.87929E-002,-1.03756E+000,4.50489E-002,1.04576E+000,-1.37516E-002,0.00000E+000,1.06424E-002,9.82436E-001,0.00000E+000,-3.37361E-004,-4.71292E-002,1.00000E+000,7
1149,1307,1.65034E+001,-1.15901E+000,-5.36155E-003,2.38876E+000,-2.81720E-002,1.82489E-002,2.38899E+000,7.54077E-003,4.00046E-001,0,3.59868E+001,-7.79169E-001,9.99846E-001,-3.99526E+000,-3.18662E+001,9.98648E-001,4.54689E-002,-1.87690E-002,-1.08389E-003,4.54872E-002,-1.87873E-002,-9.66389E-001,4.57160E-002,1.04643E+000,-1.37428E-002,0.00000E+000,1.07781E-002,9.82438E-001,0.00000E+000,-7.22711E-004,-4.71344E-002,1.00000E+000,7
1149,1317,1.65071E+001,-5.26489E-001,-5.31374E-002,2.37946E+000,-4.27862E-002,-1.51077E-002,2.37989E+000,6.38012E-003,4.14276E-001,0,3.59744E+001,-9.45134E-001,9.99847E-001,-3.94790E+000,-3.19503E+001,9.98729E-001,4.61084E-002,-1.87651E-002,-1.01299E-003,4.61242E-002,-1.87809E-002,-8.94378E-001,4.63884E-002,1.04710E+000,-1.37294E-002,0.00000E+000,1.09145E-002,9.82441E-001,0.00000E+000,-1.11010E-003,-4.71421E-002,1.00000E+000,7
1149,1327,1.65142E+001,1.11237E-001,-8.35914E-002,2.36921E+000,-5.30993E-002,-4.89122E-002,2.37031E+000,6.34130E-003,3.72269E-001,0,3.59461E+001,-1.04292E+000,9.99834E-001,-3.81598E+000,-3.20207E+001,9.98491E-001,4.67476E-002,-1.87604E-002,-9.39986E-004,4.67611E-002,-1.87739E-002,-8.21922E-001,4.70627E-002,1.04777E+000,-1.37116E-002,0.00000E+000,1.10509E-002,9.82444E-001,0.00000E+000,-1.49768E-003,-4.71524E-002,1.00000E+000,7
1149,1337,1.65292E+001,7.55989E-001,-7.79502E-002,2.35830E+000,-6.57872E-002,-8.00469E-002,2.36057E+000,1.02977E-002,4.64217E-001,0,3.58958E+001,-1.18254E+000,9.99864E-001,-3.49987E+000,-3.19965E+001,9.98549E-001,4.73942E-002,-1.87541E-002,-8.62117E-004,4.74055E-002,-1.87654E-002,-7.46572E-001,4.77471E-002,1.04845E+000,-1.36852E-002,0.00000E+000,1.11891E-002,9.82450E-001,0.00000E+000,-1.89019E-003,-4.71677E-002,1.00000E+000,7
1149,1347,1.65581E+001,1.40609E+000,-2.98948E-002,2.35198E+000,-7.68880E-002,-1.05878E-001,2.35562E+000,1.03635E-002,4.75481E-001,0,3.58908E+001,-1.30075E+000,9.99785E-001,-2.89431E+000,-3.20266E+001,9.98491E-001,4.80426E-002,-1.87462E-002,-7.79621E-004,4.80517E-002,-1.87553E-002,-6.68688E-001,4.84356E-002,1.04913E+000,-1.36496E-002,0.00000E+000,1.13279E-002,9.82457E-001,0.00000E+000,-2.28419E-003,-4.71883E-002,1.00000E+000,7
699,1347,-1.41871E+001,8.81876E-001,-9.52482E-003,9.82622E-001,-3.07393E-001,3.57524E-003,1.02959E+000,4.77310E-003,5.92797E-001,0,1.53601E+001,-4.93992E+000,9.99859E-001,-2.72632E+001,-4.44187E+001,9.99709E-001,4.23707E-002,-1.78546E-002,-4.46635E-004,4.23741E-002,-1.78579E-002,-4.24878E-001,4.25481E-002,1.04328E+000,3.54599E-003,0.00000E+000,-4.16054E-003,9.83472E-001,0.00000E+000,-1.08640E-003,-4.89640E-002,1.00000E+000,7
699,1357,-1.41665E+001,1.51651E+000,1.12287E-002,9.82735E-001,-3.19506E-001,-2.61122E-002,1.03370E+000,4.42231E-003,5.79265E-001,0,1.54450E+001,-5.06313E+000,9.99837E-001,-2.67439E+001,-4.47174E+001,9.99716E-001,4.16086E-002,-1.78533E-002,-4.33629E-004,4.16118E-002,-1.78565E-002,-4.17803E-001,4.17509E-002,1.04248E+000,3.52109E-003,0.00000E+000,-4.06384E-003,9.83475E-001,0.00000E+000,-2.13065E-003,-4.89968E-002,1.00000E+000,7
699,1337,-1.42050E+001,2.47397E-001,2.88769E-003,9.79181E-001,-2.98897E-001,3.34985E-002,1.02433E+000,4.54548E-003,5.73207E-001,0,1.52226E+001,-4.87688E+000,9.99766E-001,-2.76505E+001,-4.42098E+001,9.99494E-001,4.31283E-002,-1.78555E-002,-4.63051E-004,4.31318E-002,-1.78590E-002,-4.35015E-001,4.33437E-002,1.04407E+000,3.56365E-003,0.00000E+000,-4.25687E-003,9.83470E-001,0.00000E+000,-4.61217E-005,-4.89408E-002,1.00000E+000,7
699,1317,-1.42202E+001,-9.90847E-001,1.27868E-001,9.75429E-001,-2.69436E-001,9.82259E-002,1.01671E+000,8.04214E-003,6.32685E-001,0,1.49754E+001,-4.55315E+000,9.99790E-001,-2.78279E+001,-4.34891E+001,9.98911E-001,4.46216E-002,-1.78559E-002,-5.05476E-004,4.46256E-002,-1.78600E-002,-4.63513E-001,4.49209E-002,1.04563E+000,3.57784E-003,0.00000E+000,-4.44737E-003,9.83468E-001,0.00000E+000,2.01108E-003,-4.89221E-002,1.00000E+000,7
699,1327,-1.42139E+001,-3.70725E-001,5.60036E-002,9.77765E-001,-2.83832E-001,6.61538E-002,1.02028E+000,6.98129E-003,6.68548E-001,0,1.51056E+001,-4.71128E+000,9.99718E-001,-2.77844E+001,-4.37811E+001,9.98277E-001,4.38745E-002,-1.78558E-002,-4.83232E-004,4.38783E-002,-1.78596E-002,-4.48481E-001,4.41304E-002,1.04485E+000,3.57282E-003,0.00000E+000,-4.35196E-003,9.83469E-001,0.00000E+000,9.80773E-004,-4.89287E-002,1.00000E+000,7
1159,1307,1.71920E+001,-1.14973E+000,-2.42956E-002,2.41822E+000,-2.29908E-002,1.16431E-002,2.41836E+000,6.86676E-003,3.86817E-001,0,3.64282E+001,-6.82030E-001,9.99584E-001,-3.31219E+000,-3.16022E+001,9.98604E-001,4.56530E-002,-1.88700E-002,-1.06084E-003,4.56704E-002,-1.88875E-002,-9.41673E-001,4.58974E-002,1.04663E+000,-1.31784E-002,0.00000E+000,1.03354E-002,9.82360E-001,0.00000E+000,-1.66849E-003,-4.74782E-002,1.00000E+000,7
1159,1317,1.71972E+001,-5.14039E-001,-7.17671E-002,2.41029E+000,-3.52658E-002,-2.15059E-002,2.41064E+000,6.47560E-003,4.27011E-001,0,3.64353E+001,-8.16284E-001,9.99704E-001,-3.24119E+000,-3.16226E+001,9.99261E-001,4.63308E-002,-1.88683E-002,-1.02236E-003,4.63468E-002,-1.88843E-002,-8.98141E-001,4.66107E-002,1.04734E+000,-1.31641E-002,0.00000E+000,1.04068E-002,9.82361E-001,0.00000E+000,-2.04807E-003,-4.74858E-002,1.00000E+000,7
1159,1327,1.72091E+001,1.25180E-001,-8.62224E-002,2.40232E+000,-4.68011E-002,-4.86663E-002,2.40326E+000,4.81125E-003,4.13185E-001,0,3.64164E+001,-9.44352E-001,9.99871E-001,-3.00839E+000,-3.16885E+001,9.99311E-001,4.70099E-002,-1.88659E-002,-9.80379E-004,4.70245E-002,-1.88805E-002,-8.52437E-001,4.73276E-002,1.04805E+000,-1.31425E-002,0.00000E+000,1.04785E-002,9.82363E-001,0.00000E+000,-2.42875E-003,-4.74974E-002,1.00000E+000,7
1159,1297,1.71897E+001,-1.77853E+000,3.56120E-002,2.42519E+000,-8.74028E-003,4.22982E-002,2.42558E+000,8.54760E-003,4.46715E-001,0,3.64141E+001,-5.19581E-001,9.99703E-001,-3.31697E+000,-3.14521E+001,9.96824E-001,4.49792E-002,-1.88715E-002,-1.09716E-003,4.49980E-002,-1.88903E-002,-9.84137E-001,4.51906E-002,1.04592E+000,-1.31886E-002,0.00000E+000,1.02644E-002,9.82359E-001,0.00000E+000,-1.29151E-003,-4.74727E-002,1.00000E+000,7
1159,1337,1.72318E+001,7.70428E-001,-6.63527E-002,2.39544E+000,-5.94824E-002,-7.94643E-002,2.39750E+000,7.48134E-003,4.45937E-001,0,3.64250E+001,-1.08343E+000,9.99919E-001,-2.55010E+000,-3.17152E+001,9.99572E-001,4.76944E-002,-1.88628E-002,-9.33253E-004,4.77075E-002,-1.88759E-002,-8.03180E-001,4.80525E-002,1.04877E+000,-1.31106E-002,0.00000E+000,1.05508E-002,9.82367E-001,0.00000E+000,-2.81291E-003,-4.75144E-002,1.00000E+000,7
1159,1347,1.72555E+001,1.41857E+000,-3.18479E-002,2.38651E+000,-6.97045E-002,-1.08037E-001,2.38997E+000,7.36680E-003,4.37988E-001,0,3.63922E+001,-1.19543E+000,9.99835E-001,-2.05054E+000,-3.17543E+001,9.99368E-001,4.83783E-002,-1.88594E-002,-8.84600E-004,4.83900E-002,-1.88710E-002,-7.53627E-001,4.87789E-002,1.04949E+000,-1.30755E-002,0.00000E+000,1.06231E-002,9.82370E-001,0.00000E+000,-3.19708E-003,-4.75332E-002,1.00000E+000,7
689,1347,-1.48557E+001,8.78547E-001,-3.32108E-003,9.54911E-001,-3.07071E-001,1.39477E-003,1.00307E+000,5.66951E-003,6.24450E-001,0,1.49437E+001,-4.92684E+000,9.99865E-001,-2.74726E+001,-4.45656E+001,9.99357E-001,4.20106E-002,-1.76720E-002,-4.37332E-004,4.20138E-002,-1.76752E-002,-4.19812E-001,4.21895E-002,1.04290E+000,4.33057E-003,0.00000E+000,-4.88558E-003,9.83602E-001,0.00000E+000,-1.04536E-003,-4.80064E-002,1.00000E+000,7
689,1357,-1.48370E+001,1.51235E+000,8.83281E-003,9.55454E-001,-3.17520E-001,-2.51327E-002,1.00715E+000,4.72422E-003,5.83715E-001,0,1.50258E+001,-5.02595E+000,9.99854E-001,-2.70043E+001,-4.48737E+001,9.99696E-001,4.12012E-002,-1.76710E-002,-4.24695E-004,4.12043E-002,-1.76741E-002,-4.13294E-001,4.13428E-002,1.04206E+000,4.30704E-003,0.00000E+000,-4.79716E-003,9.83605E-001,0.00000E+000,-1.99322E-003,-4.80329E-002,1.00000E+000,7
689,1337,-1.48728E+001,2.47314E-001,4.93022E-003,9.53077E-001,-2.93911E-001,3.24625E-002,9.97894E-001,6.05005E-003,5.75839E-001,0,1.48274E+001,-4.79231E+000,9.99784E-001,-2.78600E+001,-4.43103E+001,9.99630E-001,4.28194E-002,-1.76729E-002,-4.51762E-004,4.28227E-002,-1.76763E-002,-4.27859E-001,4.30394E-002,1.04374E+000,4.35049E-003,0.00000E+000,-4.97411E-003,9.83600E-001,0.00000E+000,-9.63044E-005,-4.79840E-002,1.00000E+000,7
1169,1327,1.79009E+001,1.36929E-001,-9.50783E-002,2.43236E+000,-4.06862E-002,-5.25055E-002,2.43327E+000,4.76809E-003,4.36601E-001,0,3.68556E+001,-8.57019E-001,9.99913E-001,-2.25738E+000,-3.13858E+001,9.99492E-001,4.72577E-002,-1.89835E-002,-9.30184E-004,4.72708E-002,-1.89966E-002,-8.04357E-001,4.75733E-002,1.04832E+000,-1.24896E-002,0.00000E+000,1.00040E-002,9.82262E-001,0.00000E+000,-3.30990E-003,-4.76871E-002,1.00000E+000,7
1169,1337,1.79271E+001,7.83847E-001,-6.65973E-002,2.42704E+000,-5.20187E-002,-8.21227E-002,2.42899E+000,6.53043E-003,4.38917E-001,0,3.68827E+001,-9.78616E-001,9.99931E-001,-1.73006E+000,-3.14188E+001,9.99503E-001,4.79555E-002,-1.89833E-002,-9.08040E-004,4.79678E-002,-1.89957E-002,-7.77039E-001,4.83124E-002,1.04906E+000,-1.24549E-002,0.00000E+000,1.00221E-002,9.82263E-001,0.00000E+000,-3.63676E-003,-4.77026E-002,1.00000E+000,7
1169,1347,1.79536E+001,1.43233E+000,-2.77307E-002,2.41876E+000,-6.35509E-002,-1.13821E-001,2.42227E+000,5.58989E-003,4.27817E-001,0,3.68721E+001,-1.09782E+000,9.99863E-001,-1.18234E+000,-3.14621E+001,9.99459E-001,4.86540E-002,-1.89831E-002,-8.84284E-004,4.86656E-002,-1.89947E-002,-7.48911E-001,4.90544E-002,1.04979E+000,-1.24166E-002,0.00000E+000,1.00403E-002,9.82264E-001,0.00000E+000,-3.96431E-003,-4.77196E-002,1.00000E+000,7
689,1327,-1.48886E+001,-3.75857E-001,4.22900E-002,9.46949E-001,-2.81007E-001,6.16240E-002,9.89684E-001,6.86678E-003,6.43873E-001,0,1.46486E+001,-4.65920E+000,9.99648E-001,-2.81441E+001,-4.39381E+001,9.99088E-001,4.36178E-002,-1.76733E-002,-4.69469E-004,4.36214E-002,-1.76769E-002,-4.38832E-001,4.38818E-002,1.04457E+000,4.36306E-003,0.00000E+000,-5.06167E-003,9.83599E-001,0.00000E+000,8.42400E-004,-4.79698E-002,1.00000E+000,7
1169,1317,1.78870E+001,-5.05089E-001,-7.64150E-002,2.43823E+000,-2.95600E-002,-2.29345E-002,2.43852E+000,7.76475E-003,3.83462E-001,0,3.68331E+001,-7.43957E-001,9.99812E-001,-2.51058E+000,-3.14080E+001,9.99499E-001,4.65631E-002,-1.89837E-002,-9.46140E-004,4.65768E-002,-1.89973E-002,-8.26810E-001,4.68396E-002,1.04759E+000,-1.25114E-002,0.00000E+000,9.98594E-003,9.82261E-001,0.00000E+000,-2.98485E-003,-4.76774E-002,1.00000E+000,7
1169,1307,1.78803E+001,-1.13916E+000,-3.92379E-002,2.44612E+000,-1.82265E-002,5.78156E-003,2.44620E+000,6.81523E-003,4.68162E-001,0,3.68426E+001,-6.20665E-001,9.99817E-001,-2.62261E+000,-3.12797E+001,9.99230E-001,4.58755E-002,-1.89838E-002,-9.59430E-004,4.58897E-002,-1.89980E-002,-8.47299E-001,4.61154E-002,1.04687E+000,-1.25277E-002,0.00000E+000,9.96810E-003,9.82261E-001,0.00000E+000,-2.66336E-003,-4.76701E-002,1.00000E+000,7
1169,1297,1.78818E+001,-1.76726E+000,3.14751E-002,2.45601E+000,-2.22536E-003,4.34938E-002,2.45640E+000,7.13453E-003,4.76527E-001,0,3.68434E+001,-4.41961E-001,9.99820E-001,-2.55020E+000,-3.11690E+001,9.97873E-001,4.51878E-002,-1.89839E-002,-9.69531E-004,4.52024E-002,-1.89985E-002,-8.65384E-001,4.53935E-002,1.04615E+000,-1.25372E-002,0.00000E+000,9.95026E-003,9.82261E-001,0.00000E+000,-2.34214E-003,-4.76659E-002,1.00000E+000,7
689,1317,-1.48956E+001,-9.94447E-001,1.15435E-001,9.43791E-001,-2.66885E-001,9.42772E-002,9.85321E-001,7.37277E-003,6.43004E-001,0,1.45047E+001,-4.50134E+000,9.99716E-001,-2.81932E+001,-4.36063E+001,9.98643E-001,4.44121E-002,-1.76734E-002,-4.90689E-004,4.44160E-002,-1.76773E-002,-4.52796E-001,4.47231E-002,1.04541E+000,4.36813E-003,0.00000E+000,-5.14896E-003,9.83599E-001,0.00000E+000,1.77814E-003,-4.79641E-002,1.00000E+000,7
679,1347,-1.55280E+001,8.71873E-001,-6.69139E-003,9.24987E-001,-3.05313E-001,-4.48256E-004,9.74072E-001,1.10116E-002,5.79780E-001,0,1.44911E+001,-4.90523E+000,9.99615E-001,-2.77610E+001,-4.47816E+001,9.98686E-001,4.16353E-002,-1.75130E-002,-4.81561E-004,4.16392E-002,-1.75169E-002,-4.66437E-001,4.18135E-002,1.04250E+000,5.08180E-003,0.00000E+000,-5.68504E-003,9.83717E-001,0.00000E+000,-1.00420E-003,-4.71906E-002,1.00000E+000,7
679,1357,-1.55063E+001,1.50733E+000,4.12245E-003,9.30117E-001,-3.15217E-001,-2.01170E-002,9.82285E-001,3.89934E-003,6.04650E-001,0,1.46250E+001,-5.00565E+000,9.99835E-001,-2.72490E+001,-4.50299E+001,9.99655E-001,4.07478E-002,-1.75133E-002,-4.98227E-004,4.07520E-002,-1.75175E-002,-4.89925E-001,4.08855E-002,1.04158E+000,5.05827E-003,0.00000E+000,-5.65808E-003,9.83717E-001,0.00000E+000,-1.90554E-003,-4.72136E-002,1.00000E+000,7
1179,1297,1.85683E+001,-1.75965E+000,9.10682E-003,2.48546E+000,2.99301E-003,4.45812E-002,2.48586E+000,1.25757E-002,4.87723E-001,0,3.72539E+001,-3.72018E-001,9.99888E-001,-1.89639E+000,-3.09137E+001,9.98032E-001,4.53816E-002,-1.90932E-002,-8.60549E-004,4.53931E-002,-1.91046E-002,-7.64549E-001,4.55822E-002,1.04636E+000,-1.19343E-002,0.00000E+000,9.64635E-003,9.82171E-001,0.00000E+000,-3.39567E-003,-4.79726E-002,1.00000E+000,7
1179,1307,1.85718E+001,-1.13159E+000,-4.88508E-002,2.47798E+000,-1.23583E-002,9.73752E-003,2.47803E+000,5.28377E-003,3.55030E-001,0,3.72780E+001,-5.21076E-001,9.99906E-001,-1.86998E+000,-3.11119E+001,9.99016E-001,4.60705E-002,-1.90932E-002,-8.52327E-004,4.60816E-002,-1.91044E-002,-7.49246E-001,4.63052E-002,1.04709E+000,-1.19220E-002,0.00000E+000,9.65315E-003,9.82171E-001,0.00000E+000,-3.60662E-003,-4.79762E-002,1.00000E+000,7
1179,1317,1.85765E+001,-4.96686E-001,-1.05875E-001,2.47264E+000,-2.19347E-002,-2.01410E-002,2.47282E+000,1.25336E-002,3.50982E-001,0,3.73129E+001,-6.31911E-001,9.99895E-001,-1.82425E+000,-3.11424E+001,9.99181E-001,4.67601E-002,-1.90933E-002,-8.44631E-004,4.67709E-002,-1.91041E-002,-7.34711E-001,4.70314E-002,1.04781E+000,-1.19107E-002,0.00000E+000,9.65997E-003,9.82171E-001,0.00000E+000,-3.81796E-003,-4.79795E-002,1.00000E+000,7
1179,1337,1.86215E+001,7.94535E-001,-7.44694E-002,2.45776E+000,-4.66485E-002,-9.00192E-002,2.45985E+000,5.98298E-003,4.11440E-001,0,3.73475E+001,-8.88940E-001,9.99899E-001,-9.35201E-001,-3.11584E+001,9.98903E-001,4.81612E-002,-1.90936E-002,-8.08422E-004,4.81709E-002,-1.91033E-002,-6.88579E-001,4.85132E-002,1.04928E+000,-1.18445E-002,0.00000E+000,9.67385E-003,9.82172E-001,0.00000E+000,-4.24798E-003,-4.79988E-002,1.00000E+000,7
1179,1347,1.86532E+001,1.44656E+000,-2.97553E-002,2.45204E+000,-5.74964E-002,-1.25214E-001,2.45591E+000,5.66948E-003,4.37257E-001,0,3.73886E+001,-9.89604E-001,9.99896E-001,-2.98951E-001,-3.11391E+001,9.99336E-001,4.88651E-002,-1.90938E-002,-7.86449E-004,4.88742E-002,-1.91029E-002,-6.62932E-001,4.92608E-002,1.05002E+000,-1.18031E-002,0.00000E+000,9.68083E-003,9.82172E-001,0.00000E+000,-4.46431E-003,-4.80109E-002,1.00000E+000,7
679,1327,-1.55588E+001,-3.79247E-001,4.55215E-002,9.18266E-001,-2.78645E-001,6.28789E-002,9.61671E-001,7.52710E-003,6.16126E-001,0,1.42075E+001,-4.61682E+000,9.99665E-001,-2.83824E+001,-4.41057E+001,9.98928E-001,4.33908E-002,-1.75125E-002,-4.54524E-004,4.33942E-002,-1.75159E-002,-4.27569E-001,4.36620E-002,1.04433E+000,5.11607E-003,0.00000E+000,-5.73851E-003,9.83716E-001,0.00000E+000,7.83411E-004,-4.71571E-002,1.00000E+000,7
679,1337,-1.55453E+001,2.44648E-001,2.56150E-003,9.23081E-001,-2.90816E-001,3.29783E-002,9.68370E-001,7.04656E-003,5.94051E-001,0,1.43674E+001,-4.74567E+000,9.99774E-001,-2.81481E+001,-4.44339E+001,9.99589E-001,4.25166E-002,-1.75127E-002,-4.65750E-004,4.25202E-002,-1.75163E-002,-4.44506E-001,4.27394E-002,1.04342E+000,5.10367E-003,0.00000E+000,-5.71186E-003,9.83716E-001,0.00000E+000,-1.07580E-004,-4.71692E-002,1.00000E+000,7
1179,1327,1.85948E+001,1.45604E-001,-1.04980E-001,2.46513E+000,-3.47105E-002,-5.39192E-002,2.46596E+000,9.51246E-003,3.87206E-001,0,3.73263E+001,-7.79189E-001,9.99843E-001,-1.46931E+000,-3.11648E+001,9.98372E-001,4.74583E-002,-1.90934E-002,-8.28656E-004,4.74686E-002,-1.91037E-002,-7.13259E-001,4.77688E-002,1.04854E+000,-1.18821E-002,0.00000E+000,9.66689E-003,9.82172E-001,0.00000E+000,-4.03217E-003,-4.79878E-002,1.00000E+000,7
679,1317,-1.55666E+001,-9.97388E-001,1.16401E-001,9.14294E-001,-2.64362E-001,9.39285E-002,9.56370E-001,7.22733E-003,6.41667E-001,0,1.40561E+001,-4.46363E+000,9.99773E-001,-2.84512E+001,-4.37473E+001,9.98370E-001,4.42600E-002,-1.75125E-002,-4.46567E-004,4.42632E-002,-1.75158E-002,-4.14174E-001,4.45830E-002,1.04524E+000,5.12170E-003,0.00000E+000,-5.76506E-003,9.83715E-001,0.00000E+000,1.67095E-003,-4.71516E-002,1.00000E+000,7
669,1327,-1.62272E+001,-3.85110E-001,4.82379E-002,8.91599E-001,-2.77700E-001,6.75862E-002,9.36287E-001,7.42544E-003,5.72814E-001,0,1.37883E+001,-4.60441E+000,9.99860E-001,-2.85925E+001,-4.43179E+001,9.98935E-001,4.31136E-002,-1.73702E-002,-3.78391E-004,4.31160E-002,-1.73725E-002,-3.58428E-001,4.33860E-002,1.04404E+000,6.10820E-003,0.00000E+000,-6.51802E-003,9.83809E-001,0.00000E+000,6.66573E-004,-4.62534E-002,1.00000E+000,7
669,1337,-1.62156E+001,2.42144E-001,6.38208E-003,8.94165E-001,-2.88474E-001,3.64692E-002,9.40254E-001,4.53678E-003,6.07112E-001,0,1.39155E+001,-4.70825E+000,9.99833E-001,-2.83829E+001,-4.45708E+001,9.99630E-001,4.21451E-002,-1.73707E-002,-4.15293E-004,4.21480E-002,-1.73736E-002,-3.99776E-001,4.23640E-002,1.04303E+000,6.09393E-003,0.00000E+000,-6.54426E-003,9.83809E-001,0.00000E+000,-1.80115E-004,-4.62654E-002,1.00000E+000,7
669,1347,-1.61995E+001,8.68803E-001,-1.62603E-002,8.98403E-001,-3.00755E-001,8.05773E-003,9.47442E-001,4.02858E-003,5.95298E-001,0,1.40609E+001,-4.84397E+000,9.99828E-001,-2.80492E+001,-4.48987E+001,9.99562E-001,4.11746E-002,-1.73715E-002,-4.54386E-004,4.11781E-002,-1.73750E-002,-4.44646E-001,4.13450E-002,1.04202E+000,6.07515E-003,0.00000E+000,-6.57051E-003,9.83808E-001,0.00000E+000,-1.02702E-003,-4.62811E-002,1.00000E+000,7
669,1357,-1.61755E+001,1.50462E+000,2.95671E-003,9.02990E-001,-3.10344E-001,-2.04495E-002,9.55051E-001,4.09187E-003,5.88681E-001,0,1.42099E+001,-4.93883E+000,9.99805E-001,-2.74760E+001,-4.51770E+001,9.99620E-001,4.01955E-002,-1.73731E-002,-4.99339E-004,4.01998E-002,-1.73774E-002,-4.96923E-001,4.03225E-002,1.04100E+000,6.04466E-003,0.00000E+000,-6.59695E-003,9.83808E-001,0.00000E+000,-1.87998E-003,-4.63067E-002,1.00000E+000,7
1189,1337,1.93183E+001,8.06403E-001,-8.05659E-002,2.48998E+000,-4.23482E-002,-9.78249E-002,2.49226E+000,8.14335E-003,4.25453E-001,0,3.78345E+001,-8.06293E-001,9.99898E-001,-9.51776E-002,-3.08627E+001,9.99038E-001,4.82530E-002,-1.91612E-002,-7.16501E-004,4.82606E-002,-1.91688E-002,-6.08867E-001,4.85995E-002,1.04938E+000,-1.12830E-002,0.00000E+000,9.34317E-003,9.82111E-001,0.00000E+000,-4.55905E-003,-4.80458E-002,1.00000E+000,7
669,1317,-1.62335E+001,-1.00118E+000,1.22490E-001,8.87985E-001,-2.61809E-001,9.51882E-002,9.30657E-001,1.03150E-002,5.82404E-001,0,1.36520E+001,-4.42167E+000,9.99862E-001,-2.86265E+001,-4.39406E+001,9.98371E-001,4.40737E-002,-1.73703E-002,-3.46501E-004,4.40756E-002,-1.73723E-002,-3.23094E-001,4.44037E-002,1.04504E+000,6.11244E-003,0.00000E+000,-6.49196E-003,9.83809E-001,0.00000E+000,1.50737E-003,-4.62499E-002,1.00000E+000,7
1189,1297,1.92678E+001,-1.74810E+000,2.27874E-002,2.51718E+000,8.37299E-003,4.16985E-002,2.51754E+000,9.87990E-003,4.36954E-001,0,3.77097E+001,-2.89625E-001,9.99856E-001,-9.77352E-001,-3.07038E+001,9.97284E-001,4.55883E-002,-1.91561E-002,-7.04601E-004,4.55960E-002,-1.91638E-002,-6.23441E-001,4.57887E-002,1.04659E+000,-1.13658E-002,0.00000E+000,9.46693E-003,9.82114E-001,0.00000E+000,-4.44552E-003,-4.80424E-002,1.00000E+000,7
1189,1307,1.92652E+001,-1.11894E+000,-5.45281E-002,2.50802E+000,-6.54245E-003,5.49898E-003,2.50803E+000,6.07774E-003,4.22407E-001,0,3.77158E+001,-4.42007E-001,9.99802E-001,-1.07914E+000,-3.07837E+001,9.98859E-001,4.62494E-002,-1.91567E-002,-7.13910E-004,4.62572E-002,-1.91645E-002,-6.25285E-001,4.64832E-002,1.04728E+000,-1.13586E-002,0.00000E+000,9.43626E-003,9.82114E-001,0.00000E+000,-4.47365E-003,-4.80427E-002,1.00000E+000,7
1189,1317,1.92804E+001,-4.75249E-001,-8.30515E-002,2.50371E+000,-1.55869E-002,-3.23885E-002,2.50397E+000,6.56548E-003,4.66275E-001,0,3.77948E+001,-5.08576E-001,9.99861E-001,-8.21828E-001,-3.07131E+001,9.99620E-001,4.69173E-002,-1.91580E-002,-7.16835E-004,4.69251E-002,-1.91658E-002,-6.21491E-001,4.71866E-002,1.04798E+000,-1.13378E-002,0.00000E+000,9.40525E-003,9.82113E-001,0.00000E+000,-4.50210E-003,-4.80435E-002,1.00000E+000,7
1189,1327,1.92963E+001,1.61570E-001,-9.26904E-002,2.49597E+000,-3.16851E-002,-6.74811E-002,2.49708E+000,9.34488E-003,4.35196E-001,0,3.78126E+001,-6.87543E-001,9.99883E-001,-5.24189E-001,-3.08301E+001,9.99334E-001,4.75844E-002,-1.91595E-002,-7.17733E-004,4.75921E-002,-1.91672E-002,-6.16038E-001,4.78913E-002,1.04868E+000,-1.13127E-002,0.00000E+000,9.37426E-003,9.82112E-001,0.00000E+000,-4.53053E-003,-4.80446E-002,1.00000E+000,7
659,1327,-1.68954E+001,-3.82082E-001,5.18810E-002,8.63642E-001,-2.70134E-001,6.64933E-002,9.07343E-001,1.21879E-002,5.66797E-001,0,1.33627E+001,-4.47399E+000,9.99782E-001,-2.87887E+001,-4.43769E+001,9.97702E-001,4.27704E-002,-1.72689E-002,-3.83262E-004,4.27729E-002,-1.72713E-002,-3.65729E-001,4.30360E-002,1.04367E+000,7.09092E-003,0.00000E+000,-7.44546E-003,9.83871E-001,0.00000E+000,4.65637E-004,-4.55540E-002,1.00000E+000,7
659,1337,-1.68762E+001,2.39482E-001,1.51312E-002,8.73816E-001,-2.86535E-001,4.02766E-002,9.20477E-001,1.11611E-002,6.88935E-001,0,1.35956E+001,-4.72090E+000,9.99770E-001,-2.84507E+001,-4.46853E+001,9.99432E-001,4.17701E-002,-1.72695E-002,-4.31411E-004,4.17733E-002,-1.72726E-002,-4.18639E-001,4.19812E-002,1.04263E+000,7.07629E-003,0.00000E+000,-7.49666E-003,9.83870E-001,0.00000E+000,-3.47601E-004,-4.55654E-002,1.00000E+000,7
659,1347,-1.68628E+001,8.68253E-001,-4.24337E-003,8.75258E-001,-2.96404E-001,1.41861E-002,9.24194E-001,5.47669E-003,6.44303E-001,0,1.36899E+001,-4.81066E+000,9.99906E-001,-2.81481E+001,-4.50067E+001,9.99767E-001,4.07683E-002,-1.72705E-002,-4.81882E-004,4.07723E-002,-1.72745E-002,-4.75669E-001,4.09303E-002,1.04159E+000,7.05683E-003,0.00000E+000,-7.54784E-003,9.83869E-001,0.00000E+000,-1.16067E-003,-4.55805E-002,1.00000E+000,7
659,1357,-1.68418E+001,1.50434E+000,9.24297E-003,8.77620E-001,-3.04919E-001,-1.68519E-002,9.29234E-001,3.40333E-003,5.99040E-001,0,1.38106E+001,-4.86495E+000,9.99874E-001,-2.76345E+001,-4.52900E+001,9.99828E-001,3.97582E-002,-1.72724E-002,-5.37835E-004,3.97632E-002,-1.72775E-002,-5.40271E-001,3.98768E-002,1.04054E+000,7.02658E-003,0.00000E+000,-7.59937E-003,9.83868E-001,0.00000E+000,-1.97906E-003,-4.56041E-002,1.00000E+000,7
1199,1307,1.99615E+001,-1.10645E+000,-5.59044E-002,2.53750E+000,-2.11772E-003,-6.35554E-003,2.53751E+000,8.40947E-003,4.48463E-001,0,3.81741E+001,-3.54888E-001,9.99804E-001,-2.30850E-001,-3.04877E+001,9.98650E-001,4.63635E-002,-1.91489E-002,-5.54079E-004,4.63681E-002,-1.91536E-002,-4.84541E-001,4.66011E-002,1.04741E+000,-1.07251E-002,0.00000E+000,9.18125E-003,9.82121E-001,0.00000E+000,-5.01185E-003,-4.79633E-002,1.00000E+000,7
1199,1317,1.99740E+001,-4.69224E-001,-9.10110E-002,2.53283E+000,-1.47278E-002,-4.15186E-002,2.53321E+000,7.06456E-003,4.38084E-001,0,3.82399E+001,-4.83111E-001,9.99617E-001,-2.73116E-002,-3.05288E+001,9.98623E-001,4.70047E-002,-1.91507E-002,-5.67755E-004,4.70095E-002,-1.91556E-002,-4.91673E-001,4.72770E-002,1.04808E+000,-1.07074E-002,0.00000E+000,9.12541E-003,9.82119E-001,0.00000E+000,-4.88555E-003,-4.79600E-002,1.00000E+000,7
1199,1327,1.99892E+001,1.71372E-001,-1.10575E-001,2.52798E+000,-2.50589E-002,-7.19095E-002,2.52912E+000,7.68731E-003,4.06283E-001,0,3.82825E+001,-5.85481E-001,9.99736E-001,2.41984E-001,-3.05642E+001,9.98895E-001,4.76461E-002,-1.91527E-002,-5.80129E-004,4.76512E-002,-1.91578E-002,-4.97547E-001,4.79550E-002,1.04875E+000,-1.06868E-002,0.00000E+000,9.06951E-003,9.82117E-001,0.00000E+000,-4.75910E-003,-4.79561E-002,1.00000E+000,7
659,1317,-1.69069E+001,-1.00359E+000,1.08849E-001,8.57172E-001,-2.58746E-001,9.08139E-002,8.99967E-001,1.02863E-002,6.15813E-001,0,1.31931E+001,-4.36095E+000,9.99503E-001,-2.89536E+001,-4.40257E+001,9.95566E-001,4.37627E-002,-1.72688E-002,-3.38423E-004,4.37646E-002,-1.72707E-002,-3.17695E-001,4.40874E-002,1.04471E+000,7.09920E-003,0.00000E+000,-7.39458E-003,9.83871E-001,0.00000E+000,1.27374E-003,-4.55475E-002,1.00000E+000,7
1199,1337,2.00202E+001,8.20886E-001,-7.13478E-002,2.52415E+000,-3.63233E-002,-1.00599E-001,2.52642E+000,7.16260E-003,4.30913E-001,0,3.83290E+001,-7.14144E-001,9.99869E-001,8.52656E-001,-3.05644E+001,9.98567E-001,4.82950E-002,-1.91559E-002,-5.85614E-004,4.83001E-002,-1.91610E-002,-4.97397E-001,4.86424E-002,1.04944E+000,-1.06512E-002,0.00000E+000,9.01291E-003,9.82114E-001,0.00000E+000,-4.63109E-003,-4.79494E-002,1.00000E+000,7
1199,1297,1.99627E+001,-1.73514E+000,1.62888E-002,2.54594E+000,1.39184E-002,2.73585E-002,2.54612E+000,6.38866E-003,4.46286E-001,0,3.81656E+001,-1.71809E-001,9.99764E-001,-1.60174E-001,-3.03996E+001,9.98421E-001,4.57256E-002,-1.91478E-002,-5.35715E-004,4.57300E-002,-1.91522E-002,-4.73097E-001,4.59305E-002,1.04674E+000,-1.07327E-002,0.00000E+000,9.23675E-003,9.82121E-001,0.00000E+000,-5.13739E-003,-4.79647E-002,1.00000E+000,7
649,1347,-1.75317E+001,8.69940E-001,-4.38379E-003,8.46429E-001,-2.90012E-001,9.75900E-003,8.94787E-001,6.04434E-003,6.61249E-001,0,1.32586E+001,-4.69775E+000,9.99862E-001,-2.83613E+001,-4.50707E+001,9.99250E-001,4.03228E-002,-1.71801E-002,-4.70399E-004,4.03267E-002,-1.71839E-002,-4.68662E-001,4.04732E-002,1.04112E+000,8.11976E-003,0.00000E+000,-8.52901E-003,9.83920E-001,0.00000E+000,-1.23699E-003,-4.49067E-002,1.00000E+000,7
649,1357,-1.75098E+001,1.50394E+000,1.08789E-002,8.50307E-001,-2.99558E-001,-1.69763E-002,9.01690E-001,3.91924E-003,6.01022E-001,0,1.33910E+001,-4.77787E+000,9.99886E-001,-2.78279E+001,-4.53989E+001,9.99651E-001,3.92525E-002,-1.71819E-002,-5.26568E-004,3.92574E-002,-1.71868E-002,-5.34544E-001,3.93586E-002,1.04000E+000,8.08876E-003,0.00000E+000,-8.58452E-003,9.83918E-001,0.00000E+000,-2.00410E-003,-4.49281E-002,1.00000E+000,7
649,1337,-1.75505E+001,2.42200E-001,1.69561E-002,8.39372E-001,-2.77592E-001,3.67729E-002,8.84847E-001,6.55784E-003,6.11757E-001,0,1.30740E+001,-4.55095E+000,9.99879E-001,-2.87402E+001,-4.47837E+001,9.99358E-001,4.13887E-002,-1.71792E-002,-4.19557E-004,4.13917E-002,-1.71822E-002,-4.10417E-001,4.15900E-002,1.04223E+000,8.13995E-003,0.00000E+000,-8.47365E-003,9.83921E-001,0.00000E+000,-4.71825E-004,-4.48928E-002,1.00000E+000,7
649,1327,-1.75646E+001,-3.79700E-001,5.57618E-002,8.33750E-001,-2.63935E-001,6.29367E-002,8.76791E-001,5.93375E-003,6.08535E-001,0,1.29132E+001,-4.37851E+000,9.99871E-001,-2.89966E+001,-4.44229E+001,9.99619E-001,4.24465E-002,-1.71787E-002,-3.71629E-004,4.24488E-002,-1.71810E-002,-3.57091E-001,4.27048E-002,1.04333E+000,8.15459E-003,0.00000E+000,-8.41860E-003,9.83922E-001,0.00000E+000,2.88901E-004,-4.48827E-002,1.00000E+000,7
1209,1307,2.06603E+001,-1.09299E+000,-5.49768E-002,2.56968E+000,4.54080E-003,-1.32956E-002,2.56972E+000,6.29952E-003,4.65138E-001,0,3.86525E+001,-2.53721E-001,9.99836E-001,6.63848E-001,-3.01861E+001,9.98828E-001,4.63591E-002,-1.90389E-002,-3.34487E-004,4.63608E-002,-1.90406E-002,-2.93037E-001,4.66066E-002,1.04742E+000,-9.97178E-003,0.00000E+000,8.91718E-003,9.82209E-001,0.00000E+000,-5.23909E-003,-4.74962E-002,1.00000E+000,7
1209,1317,2.06710E+001,-4.58408E-001,-9.16498E-002,2.56483E+000,-9.91126E-003,-4.29942E-002,2.56521E+000,7.24490E-003,4.34906E-001,0,3.86963E+001,-4.12920E-001,9.99800E-001,8.34596E-001,-3.02736E+001,9.98509E-001,4.70272E-002,-1.90399E-002,-3.38663E-004,4.70289E-002,-1.90416E-002,-2.93691E-001,4.73117E-002,1.04811E+000,-9.95512E-003,0.00000E+000,8.87204E-003,9.82208E-001,0.00000E+000,-4.91550E-003,-4.74885E-002,1.00000E+000,7
1209,1327,2.06925E+001,1.85094E-001,-9.76414E-002,2.56156E+000,-1.96118E-002,-7.74687E-002,2.56281E+000,6.81933E-003,3.96494E-001,0,3.87775E+001,-5.01988E-001,9.99824E-001,1.22267E+000,-3.02948E+001,9.99051E-001,4.76977E-002,-1.90413E-002,-3.38253E-004,4.76995E-002,-1.90430E-002,-2.90381E-001,4.80213E-002,1.04882E+000,-9.92869E-003,0.00000E+000,8.82669E-003,9.82206E-001,0.00000E+000,-4.59041E-003,-4.74762E-002,1.00000E+000,7
1209,1337,2.07248E+001,8.35409E-001,-5.66040E-002,2.55863E+000,-3.15586E-002,-1.05365E-001,2.56099E+000,7.48750E-003,4.33716E-001,0,3.88349E+001,-6.33096E-001,9.99878E-001,1.85561E+000,-3.02788E+001,9.98163E-001,4.83756E-002,-1.90432E-002,-3.32632E-004,4.83773E-002,-1.90448E-002,-2.82678E-001,4.87405E-002,1.04953E+000,-9.89097E-003,0.00000E+000,8.78081E-003,9.82204E-001,0.00000E+000,-4.26146E-003,-4.74588E-002,1.00000E+000,7
1209,1297,2.06586E+001,-1.72346E+000,9.98602E-003,2.57704E+000,2.05205E-002,2.00638E-002,2.57720E+000,6.32963E-003,4.27309E-001,0,3.86291E+001,-6.06778E-002,9.99762E-001,6.77226E-001,-3.01298E+001,9.98404E-001,4.56922E-002,-1.90381E-002,-3.27120E-004,4.56939E-002,-1.90398E-002,-2.89539E-001,4.59049E-002,1.04672E+000,-9.98166E-003,0.00000E+000,8.96219E-003,9.82210E-001,0.00000E+000,-5.56177E-003,-4.75008E-002,1.00000E+000,7
649,1317,-1.75730E+001,-9.98824E-001,1.23653E-001,8.29005E-001,-2.51395E-001,9.07127E-002,8.71021E-001,4.93961E-003,6.24434E-001,0,1.27611E+001,-4.23908E+000,9.99781E-001,-2.90824E+001,-4.40725E+001,9.99530E-001,4.34984E-002,-1.71789E-002,-3.27806E-004,4.35002E-002,-1.71807E-002,-3.09526E-001,4.38190E-002,1.04443E+000,8.16101E-003,0.00000E+000,-8.36377E-003,9.83922E-001,0.00000E+000,1.04657E-003,-4.48783E-002,1.00000E+000,7
639,1347,-1.82001E+001,8.71381E-001,-6.69905E-003,8.18848E-001,-2.82339E-001,9.20662E-003,8.66206E-001,6.38728E-003,6.30455E-001,0,1.28354E+001,-4.55965E+000,9.99775E-001,-2.85677E+001,-4.51576E+001,9.99160E-001,3.98756E-002,-1.70648E-002,-4.72998E-004,3.98795E-002,-1.70687E-002,-4.75907E-001,4.00171E-002,1.04064E+000,9.24552E-003,0.00000E+000,-9.60210E-003,9.83991E-001,0.00000E+000,-1.23645E-003,-4.41707E-002,1.00000E+000,7
639,1357,-1.81759E+001,1.50657E+000,1.24462E-002,8.24922E-001,-2.91313E-001,-1.47055E-002,8.74972E-001,4.06571E-003,6.13155E-001,0,1.29937E+001,-4.64879E+000,9.99822E-001,-2.79874E+001,-4.54562E+001,9.99630E-001,3.87546E-002,-1.70667E-002,-5.33767E-004,3.87597E-002,-1.70718E-002,-5.47799E-001,3.88512E-002,1.03948E+000,9.21303E-003,0.00000E+000,-9.66800E-003,9.83989E-001,0.00000E+000,-1.98919E-003,-4.41918E-002,1.00000E+000,7
639,1317,-1.82389E+001,-9.95477E-001,1.38435E-001,8.00953E-001,-2.46678E-001,9.22960E-002,8.43146E-001,6.87818E-003,7.01914E-001,0,1.23265E+001,-4.17458E+000,9.99796E-001,-2.92042E+001,-4.41069E+001,9.99069E-001,4.31916E-002,-1.70643E-002,-3.20825E-004,4.31933E-002,-1.70660E-002,-3.05052E-001,4.35090E-002,1.04410E+000,9.28344E-003,0.00000E+000,-9.40648E-003,9.83993E-001,0.00000E+000,9.97859E-004,-4.41462E-002,1.00000E+000,7
639,1327,-1.82305E+001,-3.81353E-001,6.35107E-002,8.07130E-001,-2.60835E-001,6.52432E-002,8.50736E-001,5.17578E-003,6.23037E-001,0,1.24991E+001,-4.34150E+000,9.99845E-001,-2.91396E+001,-4.45525E+001,9.99243E-001,4.20960E-002,-1.70637E-002,-3.67141E-004,4.20983E-002,-1.70660E-002,-3.55555E-001,4.23488E-002,1.04295E+000,9.27932E-003,0.00000E+000,-9.47122E-003,9.83993E-001,0.00000E+000,2.58403E-004,-4.41489E-002,1.00000E+000,7
639,1337,-1.82182E+001,2.43535E-001,1.25139E-002,8.12860E-001,-2.71729E-001,3.73130E-002,8.57888E-001,5.02905E-003,6.69822E-001,0,1.26655E+001,-4.45849E+000,9.99866E-001,-2.89440E+001,-4.48214E+001,9.99416E-001,4.09877E-002,-1.70638E-002,-4.17660E-004,4.09907E-002,-1.70668E-002,-4.12194E-001,4.11814E-002,1.04180E+000,9.26735E-003,0.00000E+000,-9.53661E-003,9.83993E-001,0.00000E+000,-4.88393E-004,-4.41566E-002,1.00000E+000,7
1219,1317,2.13738E+001,-4.43096E-001,-8.42935E-002,2.59854E+000,-4.91721E-003,-5.02165E-002,2.59903E+000,8.57169E-003,4.95981E-001,0,3.91989E+001,-3.23989E-001,9.99834E-001,1.80369E+000,-2.99334E+001,9.98450E-001,4.69684E-002,-1.90290E-002,-1.08227E-004,4.69686E-002,-1.90292E-002,-9.39574E-002,4.72495E-002,1.04806E+000,-9.19259E-003,0.00000E+000,8.60048E-003,9.82192E-001,0.00000E+000,-4.72156E-003,-4.68632E-002,1.00000E+000,7
1219,1327,2.13932E+001,1.98215E-001,-9.30554E-002,2.59512E+000,-1.47623E-002,-7.94846E-002,2.59638E+000,4.91516E-003,4.25033E-001,0,3.92586E+001,-4.28420E-001,9.99891E-001,2.15311E+000,-2.99975E+001,9.99184E-001,4.76218E-002,-1.90299E-002,-1.05100E-004,4.76219E-002,-1.90301E-002,-9.03465E-002,4.79408E-002,1.04874E+000,-9.16879E-003,0.00000E+000,8.55705E-003,9.82190E-001,0.00000E+000,-4.25062E-003,-4.68468E-002,1.00000E+000,7
1219,1337,2.14266E+001,8.49567E-001,-5.23281E-002,2.59236E+000,-2.62442E-002,-1.10236E-001,2.59483E+000,6.05896E-003,4.57653E-001,0,3.93300E+001,-5.44760E-001,9.99869E-001,2.79978E+000,-2.99657E+001,9.98929E-001,4.82843E-002,-1.90314E-002,-9.54444E-005,4.82844E-002,-1.90315E-002,-8.12373E-002,4.86437E-002,1.04944E+000,-9.13098E-003,0.00000E+000,8.51295E-003,9.82188E-001,0.00000E+000,-3.77246E-003,-4.68207E-002,1.00000E+000,7
1219,1297,2.13576E+001,-1.71130E+000,8.91961E-003,2.60960E+000,2.55882E-002,1.38653E-002,2.60976E+000,6.91304E-003,4.11883E-001,0,3.91099E+001,4.41373E-002,9.99788E-001,1.57438E+000,-2.98619E+001,9.98355E-001,4.56610E-002,-1.90277E-002,-1.05544E-004,4.56612E-002,-1.90278E-002,-9.34818E-002,4.58718E-002,1.04669E+000,-9.22130E-003,0.00000E+000,8.68725E-003,9.82194E-001,0.00000E+000,-5.66253E-003,-4.68830E-002,1.00000E+000,7
1219,1307,2.13642E+001,-1.07859E+000,-4.23271E-002,2.60452E+000,1.01677E-002,-1.53279E-002,2.60458E+000,8.33265E-003,4.70020E-001,0,3.91507E+001,-1.58247E-001,9.99831E-001,1.65804E+000,-2.99007E+001,9.98118E-001,4.63141E-002,-1.90283E-002,-1.07840E-004,4.63143E-002,-1.90284E-002,-9.45602E-002,4.65590E-002,1.04737E+000,-9.20899E-003,0.00000E+000,8.64393E-003,9.82193E-001,0.00000E+000,-5.19275E-003,-4.68745E-002,1.00000E+000,7
629,1347,-1.88673E+001,8.70125E-001,-1.04756E-002,7.92455E-001,-2.77229E-001,9.85966E-003,8.39606E-001,5.40513E-003,6.13779E-001,0,1.24276E+001,-4.46791E+000,9.99722E-001,-2.87577E+001,-4.52756E+001,9.99341E-001,3.94993E-002,-1.72828E-002,-5.03626E-004,3.95038E-002,-1.72872E-002,-5.08129E-001,3.96062E-002,1.04024E+000,1.03883E-002,0.00000E+000,-1.07482E-002,9.83734E-001,0.00000E+000,-1.12369E-003,-4.34405E-002,1.00000E+000,7
629,1357,-1.88420E+001,1.50499E+000,1.00154E-002,7.99552E-001,-2.86614E-001,-1.45384E-002,8.49496E-001,4.71386E-003,5.99353E-001,0,1.26029E+001,-4.56329E+000,9.99732E-001,-2.81540E+001,-4.55822E+001,9.99461E-001,3.84555E-002,-1.72819E-002,-4.87428E-004,3.84598E-002,-1.72861E-002,-5.01005E-001,3.85252E-002,1.03916E+000,1.03580E-002,0.00000E+000,-1.06709E-002,9.83736E-001,0.00000E+000,-1.75453E-003,-4.34582E-002,1.00000E+000,7
629,1327,-1.88981E+001,-3.80783E-001,6.09316E-002,7.79827E-001,-2.54490E-001,6.49756E-002,8.22872E-001,4.51652E-003,6.02636E-001,0,1.20803E+001,-4.22877E+000,9.99849E-001,-2.93322E+001,-4.46436E+001,9.99293E-001,4.15673E-002,-1.72831E-002,-5.50162E-004,4.15725E-002,-1.72883E-002,-5.35566E-001,4.17682E-002,1.04239E+000,1.04188E-002,0.00000E+000,-1.09016E-002,9.83731E-001,0.00000E+000,1.29027E-004,-4.34228E-002,1.00000E+000,7
629,1337,-1.88837E+001,2.42989E-001,1.02988E-002,7.87606E-001,-2.66198E-001,3.69452E-002,8.32195E-001,4.65020E-003,6.40967E-001,0,1.22786E+001,-4.35655E+000,9.99777E-001,-2.91043E+001,-4.49361E+001,9.99549E-001,4.05350E-002,-1.72831E-002,-5.24953E-004,4.05398E-002,-1.72879E-002,-5.20153E-001,4.06857E-002,1.04132E+000,1.04077E-002,0.00000E+000,-1.08250E-002,9.83732E-001,0.00000E+000,-4.96778E-004,-4.34293E-002,1.00000E+000,7
1229,1317,2.20746E+001,-4.29627E-001,-8.41744E-002,2.63277E+000,2.17064E-003,-5.29905E-002,2.63330E+000,7.65336E-003,4.76704E-001,0,3.96912E+001,-2.07963E-001,9.99815E-001,2.73262E+000,-2.96464E+001,9.99229E-001,4.69120E-002,-1.89695E-002,1.40670E-004,4.69123E-002,-1.89698E-002,1.22337E-001,4.71975E-002,1.04800E+000,-8.44378E-003,0.00000E+000,8.36735E-003,9.82223E-001,0.00000E+000,-4.28249E-003,-4.62286E-002,1.00000E+000,7
1229,1327,2.20931E+001,2.11640E-001,-9.41984E-002,2.62788E+000,-1.10064E-002,-8.48404E-002,2.62928E+000,6.12846E-003,4.93040E-001,0,3.97411E+001,-3.57226E-001,9.99828E-001,3.06436E+000,-2.96636E+001,9.98855E-001,4.75449E-002,-1.89699E-002,1.50088E-004,4.75452E-002,-1.89702E-002,1.29285E-001,4.78675E-002,1.04867E+000,-8.42022E-003,0.00000E+000,8.33068E-003,9.82222E-001,0.00000E+000,-3.66335E-003,-4.62066E-002,1.00000E+000,7
1229,1337,2.21242E+001,8.60323E-001,-6.50233E-002,2.62557E+000,-2.01479E-002,-1.16007E-001,2.62821E+000,6.35830E-003,4.48440E-001,0,3.98214E+001,-4.54451E-001,9.99824E-001,3.65421E+000,-2.96848E+001,9.98537E-001,4.81788E-002,-1.89704E-002,1.64298E-004,4.81792E-002,-1.89708E-002,1.40188E-001,4.85404E-002,1.04933E+000,-8.38653E-003,0.00000E+000,8.29390E-003,9.82220E-001,0.00000E+000,-3.04229E-003,-4.61750E-002,1.00000E+000,7
629,1317,-1.89075E+001,-9.95830E-001,1.39274E-001,7.72428E-001,-2.41068E-001,9.43400E-002,8.14653E-001,5.43103E-003,6.87370E-001,0,1.18830E+001,-4.09012E+000,9.99845E-001,-2.94023E+001,-4.42148E+001,9.99221E-001,4.25891E-002,-1.72828E-002,-5.78756E-004,4.25947E-002,-1.72884E-002,-5.53786E-001,4.28455E-002,1.04346E+000,1.04223E-002,0.00000E+000,-1.09776E-002,9.83731E-001,0.00000E+000,7.49343E-004,-4.34208E-002,1.00000E+000,7
1229,1297,2.20575E+001,-1.69811E+000,1.04176E-002,2.64262E+000,3.13911E-002,1.03614E-002,2.64282E+000,6.80829E-003,4.58217E-001,0,3.95859E+001,1.28605E-001,9.99803E-001,2.49322E+000,-2.95525E+001,9.97977E-001,4.56521E-002,-1.89690E-002,1.31216E-004,4.56524E-002,-1.89693E-002,1.16341E-001,4.58691E-002,1.04669E+000,-8.47106E-003,0.00000E+000,8.44020E-003,9.82225E-001,0.00000E+000,-5.51265E-003,-4.62542E-002,1.00000E+000,7
1229,1307,2.20659E+001,-1.06424E+000,-4.32397E-002,2.64062E+000,1.81971E-002,-1.59439E-002,2.64074E+000,9.43487E-003,4.80997E-001,0,3.96616E+001,-3.76674E-002,9.99779E-001,2.60059E+000,-2.95841E+001,9.98337E-001,4.62811E-002,-1.89692E-002,1.34469E-004,4.62814E-002,-1.89695E-002,1.18076E-001,4.65314E-002,1.04735E+000,-8.46053E-003,0.00000E+000,8.40385E-003,9.82224E-001,0.00000E+000,-4.89887E-003,-4.62443E-002,1.00000E+000,7
619,1327,-1.95654E+001,-3.80962E-001,5.81790E-002,7.52104E-001,-2.49136E-001,6.32139E-002,7.94811E-001,3.67811E-003,5.94608E-001,0,1.16585E+001,-4.13378E+000,9.99840E-001,-2.95184E+001,-4.47397E+001,9.99493E-001,4.11629E-002,-1.71670E-002,-6.49940E-004,4.11701E-002,-1.71743E-002,-6.38312E-001,4.13581E-002,1.04196E+000,1.16008E-002,0.00000E+000,-1.22198E-002,9.83798E-001,0.00000E+000,1.87929E-004,-4.26531E-002,1.00000E+000,7
619,1337,-1.95503E+001,2.43903E-001,1.40108E-002,7.59842E-001,-2.60144E-001,3.70421E-002,8.03995E-001,3.78846E-003,6.37432E-001,0,1.18505E+001,-4.25801E+000,9.99714E-001,-2.92607E+001,-4.50289E+001,9.99543E-001,4.01323E-002,-1.71671E-002,-5.95899E-004,4.01385E-002,-1.71733E-002,-5.95775E-001,4.02776E-002,1.04088E+000,1.15886E-002,0.00000E+000,-1.20881E-002,9.83799E-001,0.00000E+000,-4.11673E-004,-4.26599E-002,1.00000E+000,7
619,1347,-1.95327E+001,8.71204E-001,-1.12099E-002,7.67271E-001,-2.69811E-001,1.27264E-002,8.13427E-001,4.64149E-003,6.21884E-001,0,1.20317E+001,-4.35939E+000,9.99693E-001,-2.89075E+001,-4.53521E+001,9.99509E-001,3.91001E-002,-1.71666E-002,-5.44114E-004,3.91054E-002,-1.71719E-002,-5.53996E-001,3.92019E-002,1.03981E+000,1.15716E-002,0.00000E+000,-1.19564E-002,9.83801E-001,0.00000E+000,-1.01139E-003,-4.26694E-002,1.00000E+000,7
619,1357,-1.95080E+001,1.50493E+000,1.59263E-003,7.74980E-001,-2.79191E-001,-1.36546E-002,8.23850E-001,4.31539E-003,5.94952E-001,0,1.22217E+001,-4.44533E+000,9.99814E-001,-2.83329E+001,-4.56674E+001,9.99638E-001,3.80601E-002,-1.71650E-002,-4.97396E-004,3.80646E-002,-1.71695E-002,-5.15989E-001,3.81253E-002,1.03873E+000,1.15434E-002,0.00000E+000,-1.18239E-002,9.83805E-001,0.00000E+000,-1.61472E-003,-4.26852E-002,1.00000E+000,7
619,1317,-1.95731E+001,-9.94570E-001,1.38408E-001,7.46455E-001,-2.32832E-001,9.49691E-002,7.87670E-001,6.00893E-003,6.28998E-001,0,1.14821E+001,-3.95471E+000,9.99784E-001,-2.95566E+001,-4.43160E+001,9.99374E-001,4.21851E-002,-1.71661E-002,-7.07701E-004,4.21935E-002,-1.71746E-002,-6.83062E-001,4.24359E-002,1.04302E+000,1.16044E-002,0.00000E+000,-1.23507E-002,9.83797E-001,0.00000E+000,7.83556E-004,-4.26511E-002,1.00000E+000,7
1239,1307,2.27607E+001,-1.05546E+000,-5.43377E-002,2.67012E+000,2.22609E-002,-2.38070E-002,2.67032E+000,9.49299E-003,4.48219E-001,0,4.01037E+001,4.16581E-002,9.99737E-001,3.42281E+000,-2.93548E+001,9.98730E-001,4.61771E-002,-1.88431E-002,2.63858E-004,4.61782E-002,-1.88441E-002,2.32507E-001,4.64376E-002,1.04724E+000,-7.82272E-003,0.00000E+000,8.05351E-003,9.82325E-001,0.00000E+000,-4.74756E-003,-4.56752E-002,1.00000E+000,7
1239,1317,2.27735E+001,-4.16493E-001,-9.03185E-002,2.66666E+000,1.14048E-002,-5.45981E-002,2.66724E+000,8.45023E-003,4.29161E-001,0,4.01728E+001,-6.95338E-002,9.99787E-001,3.62672E+000,-2.93656E+001,9.99067E-001,4.68199E-002,-1.88415E-002,2.97768E-004,4.68212E-002,-1.88429E-002,2.59824E-001,4.71174E-002,1.04791E+000,-7.80591E-003,0.00000E+000,8.06024E-003,9.82325E-001,0.00000E+000,-3.86885E-003,-4.56531E-002,1.00000E+000,7
1239,1327,2.27969E+001,2.27419E-001,-8.05674E-002,2.66190E+000,-4.06287E-003,-8.39992E-002,2.66323E+000,7.05303E-003,5.19167E-001,0,4.02147E+001,-2.62433E-001,9.99826E-001,4.06368E+000,-2.93463E+001,9.98953E-001,4.74692E-002,-1.88391E-002,3.37757E-004,4.74709E-002,-1.88409E-002,2.91839E-001,4.78062E-002,1.04859E+000,-7.77693E-003,0.00000E+000,8.06706E-003,9.82326E-001,0.00000E+000,-2.97945E-003,-4.56151E-002,1.00000E+000,7
1239,1337,2.28230E+001,8.73714E-001,-6.34767E-002,2.65809E+000,-1.28489E-002,-1.13355E-001,2.66054E+000,6.22347E-003,4.27719E-001,0,4.02671E+001,-3.49914E-001,9.99741E-001,4.55523E+000,-2.94006E+001,9.98345E-001,4.81128E-002,-1.88366E-002,3.78364E-004,4.81149E-002,-1.88388E-002,3.23793E-001,4.84908E-002,1.04926E+000,-7.74615E-003,0.00000E+000,8.07383E-003,9.82326E-001,0.00000E+000,-2.09625E-003,-4.55747E-002,1.00000E+000,7
1239,1297,2.27558E+001,-1.68711E+000,9.19164E-003,2.67471E+000,3.73096E-002,8.34109E-003,2.67499E+000,5.85321E-003,4.66590E-001,0,4.00417E+001,2.03802E-001,9.99815E-001,3.38660E+000,-2.92906E+001,9.98740E-001,4.55352E-002,-1.88441E-002,2.33404E-004,4.55360E-002,-1.88449E-002,2.07719E-001,4.57608E-002,1.04657E+000,-7.83243E-003,0.00000E+000,8.04679E-003,9.82325E-001,0.00000E+000,-5.62339E-003,-4.56879E-002,1.00000E+000,7
609,1347,-2.01966E+001,8.72410E-001,-1.26341E-002,7.42293E-001,-2.63501E-001,9.49011E-003,7.87732E-001,6.24786E-003,6.33716E-001,0,1.16550E+001,-4.24962E+000,9.99680E-001,-2.90317E+001,-4.54232E+001,9.99294E-001,3.87325E-002,-1.68594E-002,-6.75296E-004,3.87407E-002,-1.68676E-002,-6.95856E-001,3.88483E-002,1.03942E+000,1.26240E-002,0.00000E+000,-1.32270E-002,9.84055E-001,0.00000E+000,-7.91410E-004,-4.18728E-002,1.00000E+000,7
609,1357,-2.01732E+001,1.50746E+000,-2.17336E-003,7.49788E-001,-2.70440E-001,-1.38783E-002,7.97190E-001,5.04012E-003,6.04997E-001,0,1.18327E+001,-4.30477E+000,9.99768E-001,-2.84817E+001,-4.57158E+001,9.99525E-001,3.77023E-002,-1.68579E-002,-6.15782E-004,3.77092E-002,-1.68648E-002,-6.46547E-001,3.77792E-002,1.03835E+000,1.25979E-002,0.00000E+000,-1.30706E-002,9.84058E-001,0.00000E+000,-1.44347E-003,-4.18888E-002,1.00000E+000,7
609,1317,-2.02397E+001,-9.94057E-001,1.36901E-001,7.18600E-001,-2.26754E-001,9.16558E-002,7.59081E-001,8.65211E-003,6.25004E-001,0,1.10621E+001,-3.85731E+000,9.99712E-001,-2.97228E+001,-4.44005E+001,9.98584E-001,4.17933E-002,-1.68583E-002,-8.74691E-004,4.18064E-002,-1.68714E-002,-8.54217E-001,4.20648E-002,1.04260E+000,1.26562E-002,0.00000E+000,-1.36931E-002,9.84050E-001,0.00000E+000,1.15188E-003,-4.18532E-002,1.00000E+000,7
609,1327,-2.02311E+001,-3.79865E-001,5.62688E-002,7.25578E-001,-2.43523E-001,6.23914E-002,7.67893E-001,5.20371E-003,6.24654E-001,0,1.12524E+001,-4.04044E+000,9.99796E-001,-2.96734E+001,-4.47990E+001,9.99067E-001,4.07774E-002,-1.68597E-002,-8.04627E-004,4.07886E-002,-1.68709E-002,-7.99655E-001,4.09910E-002,1.04154E+000,1.26534E-002,0.00000E+000,-1.35382E-002,9.84050E-001,0.00000E+000,5.05859E-004,-4.18549E-002,1.00000E+000,7
609,1337,-2.02153E+001,2.44228E-001,1.12116E-002,7.34094E-001,-2.53605E-001,3.48583E-002,7.77448E-001,5.01232E-003,6.20342E-001,0,1.14593E+001,-4.14740E+000,9.99761E-001,-2.94065E+001,-4.51233E+001,9.99279E-001,3.97579E-002,-1.68599E-002,-7.38855E-004,3.97675E-002,-1.68695E-002,-7.47533E-001,3.99196E-002,1.04048E+000,1.26414E-002,0.00000E+000,-1.33829E-002,9.84052E-001,0.00000E+000,-1.41369E-004,-4.18622E-002,1.00000E+000,7
1249,1297,2.34559E+001,-1.67297E+000,1.41525E-002,2.70651E+000,4.43723E-002,6.83364E-003,2.70688E+000,7.23765E-003,4.89892E-001,0,4.04893E+001,3.06189E-001,9.99786E-001,4.31999E+000,-2.89858E+001,9.98852E-001,4.52286E-002,-1.85368E-002,3.33591E-004,4.52304E-002,-1.85385E-002,2.99734E-001,4.54747E-002,1.04626E+000,-7.03110E-003,0.00000E+000,7.50786E-003,9.82609E-001,0.00000E+000,-5.91979E-003,-4.51925E-002,1.00000E+000,7
1249,1307,2.34577E+001,-1.04365E+000,-5.83377E-002,2.70135E+000,2.86531E-002,-2.48302E-002,2.70161E+000,9.70454E-003,4.64709E-001,0,4.05426E+001,1.27179E-001,9.99792E-001,4.29525E+000,-2.90692E+001,9.98417E-001,4.59401E-002,-1.85332E-002,4.40645E-004,4.59431E-002,-1.85362E-002,3.91566E-001,4.62277E-002,1.04700E+000,-7.02315E-003,0.00000E+000,7.65505E-003,9.82611E-001,0.00000E+000,-4.77072E-003,-4.51801E-002,1.00000E+000,7
1249,1317,2.34685E+001,-4.08334E-001,-1.00049E-001,2.69675E+000,1.48333E-002,-5.75150E-002,2.69741E+000,8.10858E-003,4.16001E-001,0,4.06047E+001,-1.64499E-002,9.99703E-001,4.45771E+000,-2.91375E+001,9.98438E-001,4.66528E-002,-1.85269E-002,5.52725E-004,4.66575E-002,-1.85316E-002,4.85822E-001,4.69851E-002,1.04774E+000,-7.00554E-003,0.00000E+000,7.80289E-003,9.82614E-001,0.00000E+000,-3.61662E-003,-4.51527E-002,1.00000E+000,7
1249,1327,2.34905E+001,2.37925E-001,-9.95903E-002,2.69313E+000,4.84439E-003,-8.59906E-002,2.69451E+000,6.87445E-003,4.58815E-001,0,4.06591E+001,-1.33168E-001,9.99717E-001,4.85677E+000,-2.90835E+001,9.98976E-001,4.73697E-002,-1.85175E-002,6.71160E-004,4.73765E-002,-1.85244E-002,5.83563E-001,4.77503E-002,1.04849E+000,-6.97635E-003,0.00000E+000,7.95200E-003,9.82620E-001,0.00000E+000,-2.45260E-003,-4.51073E-002,1.00000E+000,7
1249,1337,2.35192E+001,8.87087E-001,-7.22024E-002,2.68894E+000,-5.05674E-003,-1.15222E-001,2.69142E+000,5.05552E-003,4.37874E-001,0,4.07054E+001,-2.38252E-001,9.99856E-001,5.40186E+000,-2.90788E+001,9.99441E-001,4.80864E-002,-1.85058E-002,7.93755E-004,4.80959E-002,-1.85153E-002,6.82815E-001,4.85183E-002,1.04924E+000,-6.93878E-003,0.00000E+000,8.10149E-003,9.82628E-001,0.00000E+000,-1.28555E-003,-4.50489E-002,1.00000E+000,7
1259,1327,2.41872E+001,2.47270E-001,-1.08781E-001,2.72343E+000,9.56319E-003,-9.17058E-002,2.72499E+000,6.23500E-003,4.42608E-001,0,4.11042E+001,-6.58100E-002,9.99851E-001,5.71748E+000,-2.88380E+001,9.99217E-001,4.73047E-002,-1.83801E-002,1.04450E-003,4.73213E-002,-1.83967E-002,9.10790E-001,4.77100E-002,1.04842E+000,-6.23855E-003,0.00000E+000,7.95728E-003,9.82716E-001,0.00000E+000,-1.58324E-003,-4.42138E-002,1.00000E+000,7
1259,1337,2.42172E+001,8.96004E-001,-7.95954E-002,2.71987E+000,-1.54650E-003,-1.20777E-001,2.72255E+000,5.70584E-003,4.09162E-001,0,4.11602E+001,-1.79162E-001,9.99914E-001,6.28307E+000,-2.88484E+001,9.99509E-001,4.80174E-002,-1.83636E-002,1.20732E-003,4.80394E-002,-1.83855E-002,1.04162E+000,4.84779E-002,1.04917E+000,-6.20040E-003,0.00000E+000,8.17732E-003,9.82728E-001,0.00000E+000,-1.94194E-004,-4.41428E-002,1.00000E+000,7
599,1347,-2.08578E+001,8.77503E-001,-7.30392E-003,7.19178E-001,-2.53277E-001,1.00247E-002,7.62540E-001,5.91452E-003,6.44764E-001,0,1.12958E+001,-4.09428E+000,9.99793E-001,-2.90889E+001,-4.54495E+001,9.99603E-001,3.85394E-002,-1.69958E-002,-5.51474E-004,3.85449E-002,-1.70013E-002,-5.68882E-001,3.86340E-002,1.03920E+000,1.35388E-002,0.00000E+000,-1.38568E-002,9.83879E-001,0.00000E+000,-6.12215E-004,-4.10838E-002,1.00000E+000,7
599,1357,-2.08338E+001,1.51001E+000,3.13153E-003,7.27835E-001,-2.62434E-001,-1.05741E-002,7.73774E-001,4.14370E-003,6.23928E-001,0,1.14847E+001,-4.19021E+000,9.99838E-001,-2.85299E+001,-4.57790E+001,9.99627E-001,3.75682E-002,-1.69925E-002,-3.87866E-004,3.75709E-002,-1.69952E-002,-4.07282E-001,3.76278E-002,1.03820E+000,1.35152E-002,0.00000E+000,-1.34961E-002,9.83888E-001,0.00000E+000,-1.32777E-003,-4.11007E-002,1.00000E+000,7
1259,1287,2.41528E+001,-2.29370E+000,8.95742E-002,2.74018E+000,6.38306E-002,2.94147E-002,2.74108E+000,9.21998E-003,3.87328E-001,0,4.08644E+001,5.84763E-001,9.99756E-001,5.25618E+000,-2.87567E+001,9.96041E-001,4.44622E-002,-1.84098E-002,4.44078E-004,4.44653E-002,-1.84130E-002,4.04665E-001,4.46835E-002,1.04547E+000,-6.29675E-003,0.00000E+000,7.08744E-003,9.82699E-001,0.00000E+000,-7.07427E-003,-4.43219E-002,1.00000E+000,7
1259,1297,2.41498E+001,-1.66596E+000,-3.77509E-003,2.73575E+000,4.76860E-002,-1.92431E-003,2.73616E+000,6.74181E-003,4.41102E-001,0,4.09302E+001,3.83883E-001,9.99741E-001,5.12493E+000,-2.87797E+001,9.98026E-001,4.51731E-002,-1.84074E-002,5.87371E-004,4.51785E-002,-1.84128E-002,5.29251E-001,4.54352E-002,1.04621E+000,-6.29515E-003,0.00000E+000,7.30386E-003,9.82700E-001,0.00000E+000,-5.70806E-003,-4.43190E-002,1.00000E+000,7
1259,1307,2.41547E+001,-1.03263E+000,-6.91207E-002,2.73237E+000,3.43026E-002,-3.10533E-002,2.73277E+000,6.75762E-003,4.62757E-001,0,4.09992E+001,2.24095E-001,9.99788E-001,5.15920E+000,-2.87905E+001,9.98515E-001,4.58835E-002,-1.84019E-002,7.34770E-004,4.58919E-002,-1.84103E-002,6.54766E-001,4.61898E-002,1.04694E+000,-6.28574E-003,0.00000E+000,7.52087E-003,9.82702E-001,0.00000E+000,-4.33819E-003,-4.43015E-002,1.00000E+000,7
599,1327,-2.08946E+001,-3.72348E-001,6.50722E-002,6.99567E-001,-2.31927E-001,6.40240E-002,7.39785E-001,5.36126E-003,6.27784E-001,0,1.08455E+001,-3.85693E+000,9.99783E-001,-2.97560E+001,-4.47960E+001,9.99256E-001,4.04663E-002,-1.69956E-002,-8.86625E-004,4.04800E-002,-1.70093E-002,-8.83782E-001,4.06515E-002,1.04121E+000,1.35655E-002,0.00000E+000,-1.45741E-002,9.83870E-001,0.00000E+000,8.10931E-004,-4.10649E-002,1.00000E+000,7
599,1337,-2.08797E+001,2.48379E-001,9.63253E-003,7.08679E-001,-2.43830E-001,3.47378E-002,7.50257E-001,4.29023E-003,6.23660E-001,0,1.10666E+001,-3.99009E+000,9.99806E-001,-2.95346E+001,-4.51515E+001,9.99570E-001,3.95065E-002,-1.69972E-002,-7.17485E-004,3.95157E-002,-1.70063E-002,-7.27386E-001,3.96432E-002,1.04021E+000,1.35566E-002,0.00000E+000,-1.42165E-002,9.83873E-001,0.00000E+000,1.01497E-004,-4.10713E-002,1.00000E+000,7
1259,1317,2.41666E+001,-3.95557E-001,-1.04595E-001,2.72844E+000,2.12567E-002,-5.86423E-002,2.72916E+000,6.75682E-003,4.54468E-001,0,4.10509E+001,7.00772E-002,9.99847E-001,5.34712E+000,-2.88231E+001,9.98854E-001,4.65938E-002,-1.83932E-002,8.86708E-004,4.66059E-002,-1.84053E-002,7.81573E-001,4.69478E-002,1.04768E+000,-6.26772E-003,0.00000E+000,7.73860E-003,9.82708E-001,0.00000E+000,-2.96369E-003,-4.42680E-002,1.00000E+000,7
599,1317,-2.09065E+001,-9.89510E-001,1.42893E-001,6.89039E-001,-2.19101E-001,8.94487E-002,7.28547E-001,7.30813E-003,6.37108E-001,0,1.06114E+001,-3.72144E+000,9.99766E-001,-2.98650E+001,-4.44311E+001,9.99195E-001,4.14230E-002,-1.69917E-002,-1.05866E-003,4.14421E-002,-1.70109E-002,-1.03793E+000,4.16630E-002,1.04221E+000,1.35678E-002,0.00000E+000,-1.49311E-002,9.83869E-001,0.00000E+000,1.51924E-003,-4.10633E-002,1.00000E+000,7
589,1347,-2.15225E+001,8.82639E-001,-3.61105E-003,6.92867E-001,-2.42522E-001,1.34460E-002,7.34209E-001,4.44825E-003,6.49395E-001,0,1.08787E+001,-3.93091E+000,9.99796E-001,-2.92009E+001,-4.54755E+001,9.99645E-001,3.83780E-002,-1.69803E-002,-2.89873E-004,3.83795E-002,-1.69818E-002,-3.00007E-001,3.84641E-002,1.03902E+000,1.46862E-002,0.00000E+000,-1.44333E-002,9.83857E-001,0.00000E+000,-5.28646E-004,-4.03601E-002,1.00000E+000,7
589,1357,-2.14972E+001,1.51559E+000,9.11432E-003,7.02470E-001,-2.52250E-001,-8.18150E-003,7.46432E-001,3.35879E-003,6.41025E-001,0,1.10849E+001,-4.02848E+000,9.99842E-001,-2.86128E+001,-4.57989E+001,9.99755E-001,3.74183E-002,-1.69769E-002,-1.22348E-004,3.74186E-002,-1.69772E-002,-1.28871E-001,3.74720E-002,1.03803E+000,1.46623E-002,0.00000E+000,-1.40670E-002,9.83866E-001,0.00000E+000,-1.22146E-003,-4.03768E-002,1.00000E+000,7
589,1337,-2.15427E+001,2.53317E-001,1.65980E-002,6.83058E-001,-2.33985E-001,3.57001E-002,7.22905E-001,4.07419E-003,6.24544E-001,0,1.06671E+001,-3.83868E+000,9.99809E-001,-2.96111E+001,-4.51874E+001,9.99698E-001,3.93320E-002,-1.69808E-002,-4.60505E-004,3.93357E-002,-1.69845E-002,-4.68502E-001,3.94576E-002,1.04001E+000,1.47021E-002,0.00000E+000,-1.47980E-002,9.83851E-001,0.00000E+000,1.61162E-004,-4.03490E-002,1.00000E+000,7
589,1327,-2.15560E+001,-3.62712E-001,7.23186E-002,6.75680E-001,-2.18193E-001,6.66059E-002,7.13153E-001,8.22834E-003,6.77729E-001,0,1.04686E+001,-3.66087E+000,9.99828E-001,-2.98066E+001,-4.47337E+001,9.99142E-001,4.02779E-002,-1.69789E-002,-6.33166E-004,4.02849E-002,-1.69859E-002,-6.33493E-001,4.04495E-002,1.04100E+000,1.47111E-002,0.00000E+000,-1.51603E-002,9.83848E-001,0.00000E+000,8.46276E-004,-4.03427E-002,1.00000E+000,7
1269,1327,2.48876E+001,2.58281E-001,-1.08277E-001,2.75640E+000,1.38418E-002,-8.92649E-002,2.75788E+000,5.54916E-003,4.32942E-001,0,4.15558E+001,1.87093E-003,9.99908E-001,6.65278E+000,-2.85846E+001,9.99151E-001,4.71771E-002,-1.81718E-002,1.35824E-003,4.72053E-002,-1.82000E-002,1.19018E+000,4.76157E-002,1.04830E+000,-5.49625E-003,0.00000E+000,7.85869E-003,9.82857E-001,0.00000E+000,-1.08442E-003,-4.26788E-002,1.00000E+000,7
1269,1337,2.49198E+001,9.06244E-001,-7.65611E-002,2.75390E+000,1.90467E-003,-1.19119E-001,2.75648E+000,5.87524E-003,4.04665E-001,0,4.16313E+001,-1.35763E-001,9.99864E-001,7.25302E+000,-2.86083E+001,9.98838E-001,4.78768E-002,-1.81526E-002,1.54053E-003,4.79128E-002,-1.81886E-002,1.33580E+000,4.83734E-002,1.04903E+000,-5.45754E-003,0.00000E+000,8.11878E-003,9.82871E-001,0.00000E+000,3.15660E-004,-4.26050E-002,1.00000E+000,7
589,1317,-2.15692E+001,-9.82326E-001,1.53250E-001,6.63487E-001,-2.07815E-001,9.34103E-002,7.01518E-001,5.98913E-003,6.24017E-001,0,1.02059E+001,-3.54153E+000,9.99674E-001,-2.99269E+001,-4.44427E+001,9.98725E-001,4.12224E-002,-1.69745E-002,-8.09282E-004,4.12336E-002,-1.69857E-002,-7.96546E-001,4.14463E-002,1.04198E+000,1.47129E-002,0.00000E+000,-1.55226E-002,9.83847E-001,0.00000E+000,1.53141E-003,-4.03415E-002,1.00000E+000,7
1269,1317,2.48684E+001,-3.84093E-001,-1.00144E-001,2.76079E+000,2.60813E-002,-6.05437E-002,2.76157E+000,6.02195E-003,4.20326E-001,0,4.15090E+001,1.51972E-001,9.99860E-001,6.31174E+000,-2.85848E+001,9.98975E-001,4.64785E-002,-1.81855E-002,1.18254E-003,4.65001E-002,-1.82071E-002,1.04732E+000,4.68633E-002,1.04757E+000,-5.52265E-003,0.00000E+000,7.60000E-003,9.82848E-001,0.00000E+000,-2.47701E-003,-4.27291E-002,1.00000E+000,7
1269,1307,2.48553E+001,-1.02149E+000,-6.56111E-002,2.76361E+000,3.85861E-002,-3.38733E-002,2.76408E+000,6.23793E-003,4.40143E-001,0,4.14441E+001,3.01638E-001,9.99771E-001,6.10424E+000,-2.85509E+001,9.98716E-001,4.57812E-002,-1.81954E-002,1.01170E-003,4.57972E-002,-1.82114E-002,9.05752E-001,4.61159E-002,1.04684E+000,-5.54047E-003,0.00000E+000,7.34268E-003,9.82841E-001,0.00000E+000,-3.86217E-003,-4.27631E-002,1.00000E+000,7
1269,1297,2.48474E+001,-1.65699E+000,-1.05916E-002,2.76664E+000,5.10546E-002,-5.76169E-003,2.76712E+000,7.13377E-003,4.27403E-001,0,4.13748E+001,4.50085E-001,9.99776E-001,6.00963E+000,-2.85489E+001,9.98320E-001,4.50825E-002,-1.82027E-002,8.43799E-004,4.50938E-002,-1.82140E-002,7.63759E-001,4.53705E-002,1.04611E+000,-5.55259E-003,0.00000E+000,7.08580E-003,9.82837E-001,0.00000E+000,-5.24499E-003,-4.27862E-002,1.00000E+000,7
1269,1287,2.48533E+001,-2.28407E+000,9.05408E-002,2.77163E+000,6.66015E-002,2.50411E-002,2.77254E+000,1.21168E-002,3.98703E-001,0,4.13182E+001,6.35683E-001,9.99823E-001,6.19485E+000,-2.85212E+001,9.96362E-001,4.43851E-002,-1.82042E-002,6.82986E-004,4.43925E-002,-1.82117E-002,6.25122E-001,4.46303E-002,1.04539E+000,-5.55168E-003,0.00000E+000,6.83029E-003,9.82837E-001,0.00000E+000,-6.62042E-003,-4.27845E-002,1.00000E+000,7
579,1347,-2.21846E+001,8.86819E-001,-1.87655E-003,6.68168E-001,-2.33590E-001,1.06753E-002,7.07903E-001,3.92455E-003,6.54991E-001,0,1.05029E+001,-3.77888E+000,9.99758E-001,-2.92734E+001,-4.55114E+001,9.99729E-001,3.80423E-002,-1.69629E-002,-3.95095E-005,3.80423E-002,-1.69629E-002,-4.11548E-002,3.81165E-002,1.03866E+000,1.57937E-002,0.00000E+000,-1.49892E-002,9.83844E-001,0.00000E+000,-6.42996E-004,-3.97970E-002,1.00000E+000,7
579,1357,-2.21566E+001,1.52151E+000,1.46569E-002,6.80180E-001,-2.41904E-001,-9.01121E-003,7.21972E-001,3.85846E-003,6.64145E-001,0,1.07411E+001,-3.86399E+000,9.99875E-001,-2.86328E+001,-4.58090E+001,9.99825E-001,3.70470E-002,-1.69596E-002,1.34521E-004,3.70474E-002,-1.69600E-002,1.42713E-001,3.70913E-002,1.03762E+000,1.57686E-002,0.00000E+000,-1.46079E-002,9.83853E-001,0.00000E+000,-1.41322E-003,-3.98157E-002,1.00000E+000,7
579,1337,-2.22062E+001,2.58945E-001,2.38827E-002,6.56767E-001,-2.23843E-001,3.84487E-002,6.94930E-001,3.66117E-003,6.36958E-001,0,1.02522E+001,-3.68313E+000,9.99751E-001,-2.96899E+001,-4.52079E+001,9.99729E-001,3.90308E-002,-1.69631E-002,-2.16842E-004,3.90317E-002,-1.69639E-002,-2.21879E-001,3.91428E-002,1.03968E+000,1.58099E-002,0.00000E+000,-1.53685E-002,9.83838E-001,0.00000E+000,1.23416E-004,-3.97849E-002,1.00000E+000,7
579,1327,-2.22233E+001,-3.57901E-001,7.00881E-002,6.46080E-001,-2.09079E-001,6.35476E-002,6.82035E-001,6.03907E-003,6.81991E-001,0,1.00177E+001,-3.49524E+000,9.99812E-001,-2.99728E+001,-4.47490E+001,9.98978E-001,4.00107E-002,-1.69611E-002,-3.95733E-004,4.00135E-002,-1.69639E-002,-3.97957E-001,4.01674E-002,1.04070E+000,1.58201E-002,0.00000E+000,-1.57452E-002,9.83834E-001,0.00000E+000,8.84398E-004,-3.97773E-002,1.00000E+000,7
579,1317,-2.22339E+001,-9.73404E-001,1.51112E-001,6.36757E-001,-1.96118E-001,9.20638E-002,6.72605E-001,7.61929E-003,6.82733E-001,0,9.79546E+000,-3.34316E+000,9.99675E-001,-3.00513E+001,-4.43657E+001,9.98517E-001,4.09871E-002,-1.69564E-002,-5.78108E-004,4.09929E-002,-1.69621E-002,-5.71570E-001,4.11956E-002,1.04172E+000,1.58222E-002,0.00000E+000,-1.61212E-002,9.83833E-001,0.00000E+000,1.64404E-003,-3.97757E-002,1.00000E+000,7
1279,1317,2.55656E+001,-3.76208E-001,-1.06016E-001,2.79147E+000,2.96870E-002,-6.02864E-002,2.79228E+000,5.81389E-003,3.84983E-001,0,4.19343E+001,2.02319E-001,9.99745E-001,7.19356E+000,-2.83807E+001,9.98467E-001,4.62439E-002,-1.79310E-002,1.40709E-003,4.62747E-002,-1.79618E-002,1.25546E+000,4.66590E-002,1.04732E+000,-4.83946E-003,0.00000E+000,7.38635E-003,9.83041E-001,0.00000E+000,-2.11049E-003,-4.12969E-002,1.00000E+000,7
1279,1327,2.55906E+001,2.70452E-001,-1.02609E-001,2.79115E+000,1.92496E-002,-8.29050E-002,2.79245E+000,8.03131E-003,4.27404E-001,0,4.20163E+001,7.32644E-002,9.99811E-001,7.63926E+000,-2.83223E+001,9.98933E-001,4.69675E-002,-1.79138E-002,1.61575E-003,4.70077E-002,-1.79540E-002,1.42567E+000,4.74426E-002,1.04808E+000,-4.81029E-003,0.00000E+000,7.70422E-003,9.83053E-001,0.00000E+000,-5.84244E-004,-4.12381E-002,1.00000E+000,7
1279,1337,2.56236E+001,9.20506E-001,-6.84105E-002,2.78937E+000,7.84933E-003,-1.09789E-001,2.79154E+000,5.56774E-003,4.32263E-001,0,4.20908E+001,-5.83887E-002,9.99868E-001,8.25392E+000,-2.83012E+001,9.99326E-001,4.76913E-002,-1.78910E-002,1.83027E-003,4.77423E-002,-1.79421E-002,1.59735E+000,4.82307E-002,1.04884E+000,-4.77020E-003,0.00000E+000,8.02346E-003,9.83070E-001,0.00000E+000,9.48569E-004,-4.11573E-002,1.00000E+000,7
1279,1307,2.55501E+001,-1.01254E+000,-7.66169E-002,2.79314E+000,4.32700E-002,-3.42362E-002,2.79368E+000,6.77211E-003,4.43012E-001,0,4.18543E+001,3.64518E-001,9.99783E-001,6.94112E+000,-2.83021E+001,9.97992E-001,4.55238E-002,-1.79434E-002,1.20448E-003,4.55466E-002,-1.79662E-002,1.08684E+000,4.58836E-002,1.04657E+000,-4.85936E-003,0.00000E+000,7.07133E-003,9.83033E-001,0.00000E+000,-3.62302E-003,-4.13371E-002,1.00000E+000,7
1279,1297,2.55462E+001,-1.64685E+000,-7.99225E-003,2.79676E+000,5.64274E-002,-5.38494E-003,2.79734E+000,1.11951E-002,3.64751E-001,0,4.17887E+001,5.37836E-001,9.99785E-001,6.92851E+000,-2.83447E+001,9.98471E-001,4.48017E-002,-1.79499E-002,1.00744E-003,4.48179E-002,-1.79661E-002,9.19530E-001,4.51106E-002,1.04582E+000,-4.86801E-003,0.00000E+000,6.75673E-003,9.83029E-001,0.00000E+000,-5.13356E-003,-4.13545E-002,1.00000E+000,7
1279,1287,2.55461E+001,-2.28074E+000,7.23042E-002,2.79977E+000,6.69337E-002,1.91557E-002,2.80063E+000,1.06996E-002,3.48510E-001,0,4.17309E+001,6.61493E-001,9.99799E-001,6.99037E+000,-2.83745E+001,9.97777E-001,4.40794E-002,-1.79539E-002,8.13468E-004,4.40901E-002,-1.79646E-002,7.51170E-001,4.43411E-002,1.04508E+000,-4.87163E-003,0.00000E+000,6.44329E-003,9.83027E-001,0.00000E+000,-6.63858E-003,-4.13618E-002,1.00000E+000,7
569,1347,-2.28455E+001,8.94414E-001,1.54585E-003,6.44410E-001,-2.21338E-001,1.12684E-002,6.81456E-001,3.90741E-003,6.76603E-001,0,1.01319E+001,-3.58555E+000,9.99809E-001,-2.93197E+001,-4.54905E+001,9.99611E-001,3.78616E-002,-1.69137E-002,1.74212E-004,3.78622E-002,-1.69143E-002,1.82225E-001,3.79337E-002,1.03845E+000,1.69249E-002,0.00000E+000,-1.56457E-002,9.83857E-001,0.00000E+000,-5.74090E-004,-3.91545E-002,1.00000E+000,7
569,1357,-2.28191E+001,1.52551E+000,1.05291E-002,6.56417E-001,-2.30899E-001,-8.30596E-003,6.95893E-001,4.06637E-003,6.61995E-001,0,1.03699E+001,-3.69412E+000,9.99855E-001,-2.87230E+001,-4.58406E+001,9.99588E-001,3.68612E-002,-1.69113E-002,3.68437E-004,3.68637E-002,-1.69138E-002,3.92554E-001,3.69053E-002,1.03741E+000,1.69020E-002,0.00000E+000,-1.52260E-002,9.83866E-001,0.00000E+000,-1.40582E-003,-3.91729E-002,1.00000E+000,7
569,1327,-2.28859E+001,-3.55424E-001,6.31083E-002,6.21568E-001,-2.01235E-001,5.99437E-002,6.56076E-001,8.04786E-003,6.83869E-001,0,9.64770E+000,-3.35514E+000,9.99904E-001,-3.00772E+001,-4.47906E+001,9.99433E-001,3.98465E-002,-1.69115E-002,-2.20631E-004,3.98473E-002,-1.69124E-002,-2.22717E-001,3.99987E-002,1.04051E+000,1.69528E-002,0.00000E+000,-1.64807E-002,9.83846E-001,0.00000E+000,1.08056E-003,-3.91322E-002,1.00000E+000,7
569,1337,-2.28670E+001,2.67743E-001,2.79484E-002,6.32419E-001,-2.11382E-001,3.59364E-002,6.67778E-001,3.34486E-003,6.66783E-001,0,9.88013E+000,-3.47978E+000,9.99844E-001,-2.97327E+001,-4.51639E+001,9.99730E-001,3.88570E-002,-1.69131E-002,-2.30643E-005,3.88570E-002,-1.69131E-002,-2.36953E-002,3.89655E-002,1.03948E+000,1.69401E-002,0.00000E+000,-1.60641E-002,9.83851E-001,0.00000E+000,2.54988E-004,-3.91424E-002,1.00000E+000,7
1289,1327,2.62848E+001,2.77968E-001,-1.15920E-001,2.81951E+000,2.22727E-002,-8.47008E-002,2.82087E+000,7.04119E-003,4.17578E-001,0,4.24158E+001,1.18027E-001,9.99744E-001,8.46360E+000,-2.80938E+001,9.98669E-001,4.67340E-002,-1.75369E-002,1.84928E-003,4.67872E-002,-1.75901E-002,1.64677E+000,4.72646E-002,1.04784E+000,-4.08453E-003,0.00000E+000,7.46767E-003,9.83361E-001,0.00000E+000,-9.49356E-005,-3.95929E-002,1.00000E+000,7
1289,1337,2.63186E+001,9.28827E-001,-8.18433E-002,2.81855E+000,1.12340E-002,-1.11025E-001,2.82076E+000,6.65954E-003,4.28378E-001,0,4.25007E+001,-7.68215E-003,9.99856E-001,9.08921E+000,-2.80553E+001,9.98958E-001,4.75113E-002,-1.75118E-002,2.08634E-003,4.75782E-002,-1.75787E-002,1.83588E+000,4.81155E-002,1.04866E+000,-4.04144E-003,0.00000E+000,7.82474E-003,9.83380E-001,0.00000E+000,1.60889E-003,-3.95031E-002,1.00000E+000,7
569,1317,-2.28980E+001,-9.66562E-001,1.53995E-001,6.09193E-001,-1.84246E-001,8.90715E-002,6.42648E-001,8.26448E-003,6.68718E-001,0,9.37534E+000,-3.15147E+000,9.99768E-001,-3.01475E+001,-4.43677E+001,9.98791E-001,4.08311E-002,-1.69050E-002,-4.23738E-004,4.08342E-002,-1.69081E-002,-4.20477E-001,4.10347E-002,1.04154E+000,1.69525E-002,0.00000E+000,-1.68961E-002,9.83846E-001,0.00000E+000,1.90372E-003,-3.91324E-002,1.00000E+000,7
1289,1317,2.62632E+001,-3.64532E-001,-1.08533E-001,2.82087E+000,3.32764E-002,-6.01917E-002,2.82171E+000,9.57114E-003,4.57753E-001,0,4.23401E+001,2.49933E-001,9.99785E-001,8.08724E+000,-2.80714E+001,9.97785E-001,4.59607E-002,-1.75542E-002,1.62111E-003,4.60020E-002,-1.75956E-002,1.46111E+000,4.64235E-002,1.04703E+000,-4.11296E-003,0.00000E+000,7.11410E-003,9.83349E-001,0.00000E+000,-1.78209E-003,-3.96521E-002,1.00000E+000,7
1289,1287,2.62412E+001,-2.26800E+000,6.18064E-002,2.82798E+000,7.40453E-002,1.47300E-002,2.82899E+000,1.02773E-002,4.29069E-001,0,4.21346E+001,7.50354E-001,9.99819E-001,7.83642E+000,-2.80325E+001,9.97998E-001,4.36310E-002,-1.75797E-002,9.62663E-004,4.36461E-002,-1.75949E-002,9.00796E-001,4.39183E-002,1.04461E+000,-4.14902E-003,0.00000E+000,6.05861E-003,9.83333E-001,0.00000E+000,-6.81852E-003,-3.97273E-002,1.00000E+000,7
1289,1297,2.62469E+001,-1.63802E+000,-2.37239E-003,2.82708E+000,5.98504E-002,-6.70520E-003,2.82772E+000,1.12302E-002,3.34105E-001,0,4.22119E+001,5.82967E-001,9.99842E-001,7.88543E+000,-2.81512E+001,9.98348E-001,4.44070E-002,-1.75733E-002,1.17928E-003,4.44294E-002,-1.75957E-002,1.08963E+000,4.47484E-002,1.04541E+000,-4.14077E-003,0.00000E+000,6.40859E-003,9.83336E-001,0.00000E+000,-5.14852E-003,-3.97101E-002,1.00000E+000,7
1289,1307,2.62501E+001,-1.00293E+000,-7.71323E-002,2.82386E+000,4.59139E-002,-3.72193E-002,2.82448E+000,9.30409E-003,4.59756E-001,0,4.22918E+001,4.07392E-001,9.99882E-001,7.87837E+000,-2.80583E+001,9.97976E-001,4.51854E-002,-1.75669E-002,1.39731E-003,4.52165E-002,-1.75980E-002,1.27497E+000,4.55851E-002,1.04622E+000,-4.13283E-003,0.00000E+000,6.76123E-003,9.83340E-001,0.00000E+000,-3.46584E-003,-3.96936E-002,1.00000E+000,7
559,1327,-2.35433E+001,-3.46774E-001,6.09379E-002,6.00868E-001,-1.88840E-001,5.55356E-002,6.32287E-001,1.53095E-002,7.85211E-001,0,9.33754E+000,-3.18041E+000,9.99911E-001,-3.00837E+001,-4.46976E+001,9.99293E-001,3.96722E-002,-1.69284E-002,-4.31712E-005,3.96722E-002,-1.69284E-002,-4.37014E-002,3.98141E-002,1.04031E+000,1.81005E-002,0.00000E+000,-1.72241E-002,9.83787E-001,0.00000E+000,1.25557E-003,-3.83457E-002,1.00000E+000,7
559,1337,-2.35275E+001,2.74281E-001,2.54415E-002,6.09054E-001,-1.99947E-001,3.26888E-002,6.41868E-001,4.19583E-003,6.61847E-001,0,9.52531E+000,-3.27932E+000,9.99864E-001,-2.97854E+001,-4.51579E+001,9.99725E-001,3.86945E-002,-1.69304E-002,1.40422E-004,3.86949E-002,-1.69308E-002,1.44639E-001,3.87954E-002,1.03930E+000,1.80885E-002,0.00000E+000,-1.68348E-002,9.83791E-001,0.00000E+000,3.66806E-004,-3.83562E-002,1.00000E+000,7
559,1347,-2.35076E+001,9.00229E-001,2.14690E-003,6.19453E-001,-2.08868E-001,1.05147E-002,6.53803E-001,4.86684E-003,6.51630E-001,0,9.74501E+000,-3.38983E+000,9.99809E-001,-2.93871E+001,-4.55142E+001,9.99551E-001,3.77120E-002,-1.69314E-002,3.23231E-004,3.77139E-002,-1.69333E-002,3.38905E-001,3.77793E-002,1.03828E+000,1.80736E-002,0.00000E+000,-1.64443E-002,9.83797E-001,0.00000E+000,-5.24673E-004,-3.83692E-002,1.00000E+000,7
559,1357,-2.34816E+001,1.53019E+000,6.54765E-003,6.31714E-001,-2.18491E-001,-9.89984E-003,6.68505E-001,3.98489E-003,6.34970E-001,0,9.98904E+000,-3.50123E+000,9.99820E-001,-2.88109E+001,-4.58747E+001,9.99702E-001,3.67229E-002,-1.69299E-002,5.03822E-004,3.67277E-002,-1.69347E-002,5.37967E-001,3.67647E-002,1.03725E+000,1.80523E-002,0.00000E+000,-1.60520E-002,9.83805E-001,0.00000E+000,-1.42034E-003,-3.83879E-002,1.00000E+000,7
559,1317,-2.35576E+001,-9.57476E-001,1.62314E-001,5.85882E-001,-1.72031E-001,9.24223E-002,6.17572E-001,1.44967E-002,7.28975E-001,0,9.00521E+000,-2.97521E+000,9.99836E-001,-3.01538E+001,-4.43093E+001,9.99151E-001,4.06460E-002,-1.69218E-002,-2.32532E-004,4.06470E-002,-1.69227E-002,-2.31428E-001,4.08362E-002,1.04133E+000,1.80996E-002,0.00000E+000,-1.76127E-002,9.83787E-001,0.00000E+000,2.14266E-003,-3.83466E-002,1.00000E+000,7
1299,1327,2.69870E+001,2.89507E-001,-1.14529E-001,2.85139E+000,2.63818E-002,-8.67618E-002,2.85283E+000,7.95993E-003,4.29506E-001,0,4.28664E+001,1.80077E-001,9.99801E-001,9.43889E+000,-2.78237E+001,9.99240E-001,4.65314E-002,-1.71082E-002,2.06260E-003,4.65982E-002,-1.71750E-002,1.85440E+000,4.71317E-002,1.04763E+000,-3.24866E-003,0.00000E+000,7.09168E-003,9.83712E-001,0.00000E+000,3.36864E-004,-3.76337E-002,1.00000E+000,7
1299,1337,2.70239E+001,9.41053E-001,-7.47040E-002,2.85200E+000,1.43719E-002,-1.11887E-001,2.85423E+000,7.92175E-003,4.56053E-001,0,4.29699E+001,3.99419E-002,9.99821E-001,1.01175E+001,-2.77777E+001,9.98809E-001,4.73688E-002,-1.70805E-002,2.31788E-003,4.74521E-002,-1.71638E-002,2.05706E+000,4.80533E-002,1.04851E+000,-3.20030E-003,0.00000E+000,7.47643E-003,9.83733E-001,0.00000E+000,2.23464E-003,-3.75296E-002,1.00000E+000,7
1299,1287,2.69437E+001,-2.25554E+000,6.81624E-002,2.85870E+000,7.76751E-002,1.13859E-002,2.85978E+000,8.55498E-003,5.19908E-001,0,4.25706E+001,7.93170E-001,9.99865E-001,8.82394E+000,-2.77250E+001,9.97799E-001,4.31914E-002,-1.71520E-002,1.11452E-003,4.32120E-002,-1.71726E-002,1.05775E+000,4.35142E-002,1.04416E+000,-3.31625E-003,0.00000E+000,5.57713E-003,9.83682E-001,0.00000E+000,-7.13358E-003,-3.77792E-002,1.00000E+000,7
1299,1297,2.69474E+001,-1.62858E+000,-3.73401E-003,2.85717E+000,6.07164E-002,-1.23892E-002,2.85784E+000,9.03594E-003,4.56684E-001,0,4.26504E+001,5.76453E-001,9.99896E-001,8.83005E+000,-2.78569E+001,9.98208E-001,4.40278E-002,-1.71464E-002,1.34556E-003,4.40574E-002,-1.71759E-002,1.25944E+000,4.44123E-002,1.04502E+000,-3.30924E-003,0.00000E+000,5.95349E-003,9.83685E-001,0.00000E+000,-5.27722E-003,-3.77641E-002,1.00000E+000,7
1299,1307,2.69586E+001,-9.88127E-001,-4.79300E-002,2.85774E+000,5.16043E-002,-2.77262E-002,2.85834E+000,1.53923E-002,5.18285E-001,0,4.27212E+001,4.44084E-001,9.99898E-001,8.99064E+000,-2.77765E+001,9.98558E-001,4.48660E-002,-1.71369E-002,1.58164E-003,4.49064E-002,-1.71772E-002,1.46030E+000,4.53177E-002,1.04589E+000,-3.29509E-003,0.00000E+000,6.33261E-003,9.83692E-001,0.00000E+000,-3.40722E-003,-3.77336E-002,1.00000E+000,7
1299,1317,2.69694E+001,-3.51449E-001,-9.27957E-002,2.85316E+000,3.73471E-002,-6.16231E-002,2.85407E+000,1.13391E-002,4.79867E-001,0,4.27923E+001,3.02991E-001,9.99825E-001,9.14635E+000,-2.78045E+001,9.98742E-001,4.57007E-002,-1.71239E-002,1.82090E-003,4.57534E-002,-1.71767E-002,1.65880E+000,4.62244E-002,1.04676E+000,-3.27448E-003,0.00000E+000,6.71205E-003,9.83701E-001,0.00000E+000,-1.53564E-003,-3.76893E-002,1.00000E+000,7
559,1307,-2.35698E+001,-1.57122E+000,2.55628E-001,5.71150E-001,-1.59411E-001,1.10199E-001,6.03132E-001,6.45742E-003,6.89201E-001,0,8.72599E+000,-2.80775E+000,9.99664E-001,-3.02185E+001,-4.39409E+001,9.98892E-001,4.16173E-002,-1.69141E-002,-4.23019E-004,4.16204E-002,-1.69171E-002,-4.14060E-001,4.18624E-002,1.04234E+000,1.80959E-002,0.00000E+000,-1.80010E-002,9.83788E-001,0.00000E+000,3.02917E-003,-3.83497E-002,1.00000E+000,7
549,1347,-2.41668E+001,9.08711E-001,3.76763E-003,5.96910E-001,-1.96018E-001,1.09329E-002,6.28366E-001,3.93447E-003,6.70822E-001,0,9.39263E+000,-3.17752E+000,9.99798E-001,-2.94036E+001,-4.54772E+001,9.99645E-001,3.75782E-002,-1.69509E-002,4.84892E-004,3.75825E-002,-1.69552E-002,5.09441E-001,3.76422E-002,1.03812E+000,1.91827E-002,0.00000E+000,-1.71822E-002,9.83733E-001,0.00000E+000,-4.34320E-004,-3.75005E-002,1.00000E+000,7
549,1357,-2.41405E+001,1.54070E+000,1.25409E-002,6.08885E-001,-2.04414E-001,-1.03920E-002,6.42366E-001,3.97361E-003,6.58125E-001,0,9.63380E+000,-3.26600E+000,9.99802E-001,-2.88057E+001,-4.58160E+001,9.99742E-001,3.66085E-002,-1.69495E-002,6.64008E-004,3.66167E-002,-1.69577E-002,7.10204E-001,3.66499E-002,1.03711E+000,1.91608E-002,0.00000E+000,-1.67925E-002,9.83741E-001,0.00000E+000,-1.36090E-003,-3.75207E-002,1.00000E+000,7
549,1327,-2.42100E+001,-3.37462E-001,7.62844E-002,5.68940E-001,-1.75146E-001,5.86643E-002,5.98173E-001,1.13933E-002,7.47687E-001,0,8.83129E+000,-2.96229E+000,9.99743E-001,-3.01725E+001,-4.47028E+001,9.98301E-001,3.94996E-002,-1.69462E-002,1.19221E-004,3.94999E-002,-1.69465E-002,1.21016E-001,3.96323E-002,1.04011E+000,1.92060E-002,0.00000E+000,-1.79565E-002,9.83724E-001,0.00000E+000,1.40726E-003,-3.74790E-002,1.00000E+000,7
549,1337,-2.41879E+001,2.82283E-001,2.99900E-002,5.84908E-001,-1.85664E-001,3.40004E-002,6.14609E-001,3.88348E-003,6.59139E-001,0,9.14534E+000,-3.07304E+000,9.99834E-001,-2.98124E+001,-4.51437E+001,9.99732E-001,3.85439E-002,-1.69494E-002,3.02356E-004,3.85455E-002,-1.69510E-002,3.12165E-001,3.86386E-002,1.03912E+000,1.91967E-002,0.00000E+000,-1.75709E-002,9.83727E-001,0.00000E+000,4.90292E-004,-3.74876E-002,1.00000E+000,7
1309,1317,2.76653E+001,-3.45628E-001,-1.07601E-001,2.88247E+000,3.93689E-002,-6.46172E-002,2.88346E+000,8.38458E-003,4.57350E-001,0,4.32096E+001,3.34252E-001,9.99813E-001,1.00035E+001,-2.76073E+001,9.98925E-001,4.55555E-002,-1.67533E-002,2.00926E-003,4.56202E-002,-1.68180E-002,1.84505E+000,4.61419E-002,1.04661E+000,-2.34735E-003,0.00000E+000,6.20847E-003,9.83996E-001,0.00000E+000,-1.42801E-003,-3.56517E-002,1.00000E+000,7
1309,1327,2.76883E+001,2.98282E-001,-1.16700E-001,2.88328E+000,2.93839E-002,-8.68585E-002,2.88473E+000,9.83422E-003,4.25954E-001,0,4.33090E+001,2.15174E-001,9.99774E-001,1.03963E+001,-2.75968E+001,9.98737E-001,4.64224E-002,-1.67368E-002,2.24158E-003,4.65019E-002,-1.68163E-002,2.03007E+000,4.70917E-002,1.04752E+000,-2.31656E-003,0.00000E+000,6.56694E-003,9.84008E-001,0.00000E+000,5.17392E-004,-3.55857E-002,1.00000E+000,7
1309,1337,2.77238E+001,9.49799E-001,-8.17190E-002,2.88363E+000,1.80103E-002,-1.11957E-001,2.88586E+000,9.05066E-003,4.46440E-001,0,4.34094E+001,8.44969E-002,9.99847E-001,1.10444E+001,-2.75421E+001,9.99203E-001,4.72936E-002,-1.67117E-002,2.48447E-003,4.73899E-002,-1.68080E-002,2.21958E+000,4.80525E-002,1.04844E+000,-2.26775E-003,0.00000E+000,6.92913E-003,9.84027E-001,0.00000E+000,2.48298E-003,-3.54811E-002,1.00000E+000,7
549,1317,-2.42206E+001,-9.50669E-001,1.62360E-001,5.58777E-001,-1.61480E-001,8.76097E-002,5.88203E-001,9.49850E-003,7.57964E-001,0,8.59617E+000,-2.79993E+000,9.99776E-001,-3.02338E+001,-4.42846E+001,9.98994E-001,4.04520E-002,-1.69399E-002,-6.76555E-005,4.04520E-002,-1.69400E-002,-6.75421E-002,4.06296E-002,1.04111E+000,1.92069E-002,0.00000E+000,-1.83415E-002,9.83723E-001,0.00000E+000,2.32280E-003,-3.74782E-002,1.00000E+000,7
549,1307,-2.42316E+001,-1.56330E+000,2.48686E-001,5.46240E-001,-1.47114E-001,1.04033E-001,5.75190E-001,6.96879E-003,7.11673E-001,0,8.35480E+000,-2.59976E+000,9.99638E-001,-3.02994E+001,-4.38857E+001,9.98920E-001,4.14039E-002,-1.69325E-002,-2.56209E-004,4.14050E-002,-1.69336E-002,-2.51632E-001,4.16331E-002,1.04210E+000,1.92047E-002,0.00000E+000,-1.87271E-002,9.83724E-001,0.00000E+000,3.23978E-003,-3.74802E-002,1.00000E+000,7
1309,1287,2.76477E+001,-2.24947E+000,7.47122E-002,2.88958E+000,7.79355E-002,4.91453E-003,2.89063E+000,8.13456E-003,4.79322E-001,0,4.30223E+001,8.02106E-001,9.99854E-001,9.83854E+000,-2.75827E+001,9.97540E-001,4.29431E-002,-1.67747E-002,1.34334E-003,4.29733E-002,-1.68049E-002,1.28799E+000,4.33120E-002,1.04390E+000,-2.38173E-003,0.00000E+000,5.13968E-003,9.83982E-001,0.00000E+000,-7.22824E-003,-3.57253E-002,1.00000E+000,7
1309,1297,2.76489E+001,-1.62009E+000,-4.94171E-003,2.88725E+000,6.16923E-002,-1.98859E-002,2.88798E+000,9.78810E-003,4.96773E-001,0,4.30953E+001,5.95452E-001,9.99813E-001,9.79428E+000,-2.76192E+001,9.98144E-001,4.38171E-002,-1.67708E-002,1.56189E-003,4.38573E-002,-1.68110E-002,1.47572E+000,4.42537E-002,1.04481E+000,-2.37683E-003,0.00000E+000,5.49538E-003,9.83984E-001,0.00000E+000,-5.29789E-003,-3.57148E-002,1.00000E+000,7
1309,1307,2.76497E+001,-9.85743E-001,-7.71991E-002,2.88326E+000,5.20169E-002,-4.25458E-002,2.88405E+000,9.08798E-003,4.06254E-001,0,4.31314E+001,5.01991E-001,9.99819E-001,9.75655E+000,-2.76484E+001,9.99225E-001,4.46841E-002,-1.67659E-002,1.78068E-003,4.47356E-002,-1.68174E-002,1.65845E+000,4.51924E-002,1.04570E+000,-2.37003E-003,0.00000E+000,5.85006E-003,9.83987E-001,0.00000E+000,-3.37307E-003,-3.57003E-002,1.00000E+000,7
539,1347,-2.48282E+001,9.17068E-001,5.68661E-003,5.71726E-001,-1.81928E-001,1.05614E-002,6.00066E-001,4.04639E-003,6.56407E-001,0,9.00003E+000,-2.95032E+000,9.99822E-001,-2.94469E+001,-4.54600E+001,9.99589E-001,3.74974E-002,-1.69929E-002,5.93681E-004,3.75038E-002,-1.69993E-002,6.24149E-001,3.75584E-002,1.03801E+000,2.01769E-002,0.00000E+000,-1.79117E-002,9.83643E-001,0.00000E+000,-4.09996E-004,-3.65347E-002,1.00000E+000,7
539,1357,-2.48017E+001,1.54906E+000,8.66447E-003,5.84949E-001,-1.89639E-001,-1.05744E-002,6.15012E-001,3.91398E-003,6.52025E-001,0,9.26003E+000,-3.02650E+000,9.99866E-001,-2.88631E+001,-4.57838E+001,9.99651E-001,3.65860E-002,-1.69924E-002,7.75079E-004,3.65972E-002,-1.70036E-002,8.28624E-001,3.66278E-002,1.03707E+000,2.01579E-002,0.00000E+000,-1.75191E-002,9.83651E-001,0.00000E+000,-1.39093E-003,-3.65545E-002,1.00000E+000,7
539,1327,-2.48690E+001,-3.30321E-001,7.25043E-002,5.46372E-001,-1.60495E-001,5.53444E-002,5.72140E-001,4.89814E-003,6.58329E-001,0,8.48781E+000,-2.70987E+000,9.99668E-001,-3.01991E+001,-4.47252E+001,9.99136E-001,3.93060E-002,-1.69877E-002,2.25110E-004,3.93069E-002,-1.69886E-002,2.29112E-001,3.94272E-002,1.03989E+000,2.01992E-002,0.00000E+000,-1.86934E-002,9.83634E-001,0.00000E+000,1.54303E-003,-3.65116E-002,1.00000E+000,7
539,1337,-2.48495E+001,2.91691E-001,2.99978E-002,5.59343E-001,-1.70799E-001,3.13505E-002,5.85679E-001,4.14729E-003,6.41936E-001,0,8.75258E+000,-2.82681E+000,9.99765E-001,-2.98654E+001,-4.51058E+001,9.99579E-001,3.84049E-002,-1.69909E-002,4.09726E-004,3.84079E-002,-1.69940E-002,4.23747E-001,3.84926E-002,1.03896E+000,2.01897E-002,0.00000E+000,-1.83035E-002,9.83638E-001,0.00000E+000,5.68947E-004,-3.65214E-002,1.00000E+000,7
1319,1297,2.83411E+001,-1.61609E+000,-2.60116E-002,2.91253E+000,6.35431E-002,-2.95461E-002,2.91337E+000,8.16129E-003,3.73598E-001,0,4.34789E+001,6.69055E-001,9.99777E-001,1.05915E+001,-2.74912E+001,9.98636E-001,4.36440E-002,-1.63504E-002,1.83531E-003,4.37001E-002,-1.64065E-002,1.75058E+000,4.41498E-002,1.04463E+000,-1.28950E-003,0.00000E+000,5.00461E-003,9.84316E-001,0.00000E+000,-5.43724E-003,-3.32099E-002,1.00000E+000,7
1319,1307,2.83475E+001,-9.81850E-001,-8.75525E-002,2.91076E+000,5.09618E-002,-5.31306E-002,2.91169E+000,8.81569E-003,3.44712E-001,0,4.35523E+001,5.16516E-001,9.99768E-001,1.06537E+001,-2.75120E+001,9.99235E-001,4.45793E-002,-1.63437E-002,2.05464E-003,4.46486E-002,-1.64130E-002,1.92939E+000,4.51673E-002,1.04560E+000,-1.27728E-003,0.00000E+000,5.35421E-003,9.84321E-001,0.00000E+000,-3.30724E-003,-3.31830E-002,1.00000E+000,7
539,1307,-2.48927E+001,-1.55618E+000,2.46535E-001,5.21078E-001,-1.33999E-001,9.94512E-002,5.47146E-001,4.96321E-003,6.72448E-001,0,7.97475E+000,-2.38333E+000,9.99711E-001,-3.03522E+001,-4.38837E+001,9.99166E-001,4.10941E-002,-1.69730E-002,-1.52167E-004,4.10945E-002,-1.69734E-002,-1.50144E-001,4.13012E-002,1.04176E+000,2.01972E-002,0.00000E+000,-1.94695E-002,9.83635E-001,0.00000E+000,3.48217E-003,-3.65137E-002,1.00000E+000,7
539,1317,-2.48825E+001,-9.46368E-001,1.49528E-001,5.33672E-001,-1.48982E-001,7.71974E-002,5.59429E-001,4.83333E-003,6.75547E-001,0,8.23151E+000,-2.57864E+000,9.99698E-001,-3.03319E+001,-4.43265E+001,9.99184E-001,4.02020E-002,-1.69812E-002,3.72774E-005,4.02021E-002,-1.69812E-002,3.73508E-002,4.03631E-002,1.04083E+000,2.02004E-002,0.00000E+000,-1.90818E-002,9.83634E-001,0.00000E+000,2.51369E-003,-3.65104E-002,1.00000E+000,7
1319,1287,2.83442E+001,-2.24683E+000,6.29100E-002,2.91671E+000,7.57688E-002,-4.11326E-003,2.91769E+000,8.95405E-003,4.42986E-001,0,4.34311E+001,7.95632E-001,9.99804E-001,1.07136E+001,-2.74537E+001,9.98533E-001,4.27069E-002,-1.63524E-002,1.62188E-003,4.27515E-002,-1.63969E-002,1.57187E+000,4.31363E-002,1.04366E+000,-1.29118E-003,0.00000E+000,4.65641E-003,9.84316E-001,0.00000E+000,-7.55870E-003,-3.32136E-002,1.00000E+000,7
529,1327,-2.55284E+001,-3.21511E-001,7.39999E-002,5.22211E-001,-1.46365E-001,5.18088E-002,5.44804E-001,4.44795E-003,6.60998E-001,0,8.11918E+000,-2.49014E+000,9.99642E-001,-3.02101E+001,-4.46877E+001,9.99013E-001,3.90931E-002,-1.69831E-002,3.21536E-004,3.90949E-002,-1.69849E-002,3.28514E-001,3.92068E-002,1.03966E+000,2.09058E-002,0.00000E+000,-1.91910E-002,9.83599E-001,0.00000E+000,2.00391E-003,-3.56571E-002,1.00000E+000,7
529,1307,-2.55520E+001,-1.54837E+000,2.51350E-001,4.96385E-001,-1.21571E-001,9.57622E-002,5.19950E-001,5.68370E-003,6.40019E-001,0,7.59932E+000,-2.17508E+000,9.99806E-001,-3.03514E+001,-4.38821E+001,9.99488E-001,4.06566E-002,-1.69701E-002,1.50348E-006,4.06566E-002,-1.69701E-002,1.49485E-003,4.08411E-002,1.04129E+000,2.09033E-002,0.00000E+000,-1.98574E-002,9.83600E-001,0.00000E+000,3.99668E-003,-3.56602E-002,1.00000E+000,7
529,1317,-2.55431E+001,-9.37822E-001,1.46444E-001,5.09036E-001,-1.34790E-001,7.48067E-002,5.31867E-001,5.03912E-003,6.51530E-001,0,7.85315E+000,-2.34223E+000,9.99803E-001,-3.03772E+001,-4.42950E+001,9.99248E-001,3.98768E-002,-1.69778E-002,1.62879E-004,3.98772E-002,-1.69783E-002,1.64141E-001,4.00235E-002,1.04048E+000,2.09079E-002,0.00000E+000,-1.95247E-002,9.83598E-001,0.00000E+000,3.00163E-003,-3.56545E-002,1.00000E+000,7
