Coordinates.Image X [Pixel],Coordinates.Image Y [Pixel],coor.X [mm],coor.Y [mm],coor.Z [mm],disp.Horizontal Displacement U [mm],disp.Vertical Displacement V [mm],disp.Out-Of-Plane: W [mm],disp.Displacement Magnitude [mm],stats.Sigma [mm],stats.Epipolar Distance [Pixel],stats.Shape Index [-],SameCamera.Horizontal: u [Pixel],SameCamera.Vertical: v [Pixel],SameCamera.Correlation Value 2D [-],CrossCamera.Horizontal: q [Pixel],CrossCamera.Vertical: r [Pixel],CrossCamera.Correlation Value Persp [-],strain.Strain-global frame: Exx [ ],strain.Strain-global frame: Eyy [ ],strain.Strain-global frame: Exy [ ],strain.Maximum Principal Strain: EI [ ],strain.Minimum Principal Strain: EII [ ],strain.Shear Angle Gamma [deg],strain.Von Mises Equivalent Strain [ ],defgradient.F[0,0] [-],defgradient.F[0,1] [-],defgradient.F[0,2] [-],defgradient.F[1,0] [-],defgradient.F[1,1] [-],defgradient.F[1,2] [-],defgradient.F[2,0] [-],defgradient.F[2,1] [-],defgradient.F[2,2] [-],ext.Current Image [#]
929,1317,3.50317E+000,-1.07405E+000,6.16372E-002,3.83924E+000,-4.57695E-001,1.48358E-001,3.86927E+000,9.71855E-003,4.74312E-001,0,5.84395E+001,-7.91703E+000,9.99299E-001,1.45512E+001,-4.23223E+001,9.98363E-001,1.07193E-001,-4.43804E-002,1.88543E-004,1.07194E-001,-4.43807E-002,7.12702E-002,1.07721E-001,1.11312E+000,-1.66257E-002,0.00000E+000,1.57062E-002,9.59669E-001,0.00000E+000,-1.41527E-002,-8.17401E-002,1.00000E+000,16
919,1307,2.77475E+000,-1.69900E+000,1.23726E-001,3.77737E+000,-4.33365E-001,2.15243E-001,3.80823E+000,1.19594E-002,4.98530E-001,0,5.73111E+001,-7.66217E+000,9.98837E-001,1.33268E+001,-4.21941E+001,9.96366E-001,1.09510E-001,-4.41064E-002,-2.27754E-004,1.09510E-001,-4.41067E-002,-8.49475E-002,1.10198E-001,1.11571E+000,-1.48941E-002,0.00000E+000,1.33120E-002,9.60025E-001,0.00000E+000,-1.29449E-002,-8.25211E-002,1.00000E+000,16
919,1317,2.76435E+000,-1.09630E+000,2.12970E-002,3.76416E+000,-4.65661E-001,1.63725E-001,3.79639E+000,1.33024E-002,4.73767E-001,0,5.72913E+001,-8.07688E+000,9.98373E-001,1.30431E+001,-4.26766E+001,9.96004E-001,1.07799E-001,-4.41136E-002,-4.47696E-004,1.07800E-001,-4.41149E-002,-1.68852E-001,1.08391E-001,1.11378E+000,-1.49026E-002,0.00000E+000,1.28033E-002,9.60023E-001,0.00000E+000,-1.14848E-002,-8.25146E-002,1.00000E+000,16
919,1327,2.77144E+000,-4.83349E-001,-2.38235E-002,3.75412E+000,-4.99780E-001,1.03474E-001,3.78866E+000,1.09441E-002,5.10117E-001,0,5.73415E+001,-8.49047E+000,9.99120E-001,1.31564E+001,-4.30908E+001,9.97319E-001,1.06064E-001,-4.41298E-002,-6.89061E-004,1.06067E-001,-4.41330E-002,-2.62855E-001,1.06564E-001,1.11184E+000,-1.49538E-002,0.00000E+000,1.22889E-002,9.60010E-001,0.00000E+000,-1.00080E-002,-8.24758E-002,1.00000E+000,16
929,1307,3.50985E+000,-1.67735E+000,1.50172E-001,3.85310E+000,-4.22708E-001,2.05872E-001,3.88168E+000,9.68302E-003,5.00933E-001,0,5.84492E+001,-7.47722E+000,9.99377E-001,1.47465E+001,-4.18199E+001,9.98600E-001,1.08946E-001,-4.43768E-002,2.80624E-004,1.08946E-001,-4.43773E-002,1.04867E-001,1.09568E-001,1.11510E+000,-1.66035E-002,0.00000E+000,1.59844E-002,9.59672E-001,0.00000E+000,-1.60063E-002,-8.17608E-002,1.00000E+000,16
929,1327,3.50363E+000,-4.60764E-001,2.11090E-003,3.82626E+000,-4.86748E-001,9.10109E-002,3.85817E+000,8.76942E-003,4.50799E-001,0,5.84368E+001,-8.26750E+000,9.99451E-001,1.45308E+001,-4.27299E+001,9.98694E-001,1.05430E-001,-4.43854E-002,8.75348E-005,1.05430E-001,-4.43855E-002,3.34770E-002,1.05868E-001,1.11113E+000,-1.66671E-002,0.00000E+000,1.54272E-002,9.59663E-001,0.00000E+000,-1.22936E-002,-8.17013E-002,1.00000E+000,16
939,1307,4.23774E+000,-1.65909E+000,1.38697E-001,3.92665E+000,-4.11358E-001,1.84004E-001,3.95243E+000,1.07517E-002,5.04108E-001,0,5.95986E+001,-7.26318E+000,9.99400E-001,1.59761E+001,-4.14183E+001,9.98641E-001,1.08264E-001,-4.40190E-002,6.98828E-004,1.08267E-001,-4.40222E-002,2.62923E-001,1.08895E-001,1.11435E+000,-1.85300E-002,0.00000E+000,1.86057E-002,9.59862E-001,0.00000E+000,-1.82652E-002,-8.03057E-002,1.00000E+000,16
939,1317,4.23149E+000,-1.05529E+000,5.74955E-002,3.91243E+000,-4.45777E-001,1.30400E-001,3.93990E+000,1.09407E-002,4.46434E-001,0,5.95708E+001,-7.69915E+000,9.99152E-001,1.58040E+001,-4.19421E+001,9.97996E-001,1.06662E-001,-4.40216E-002,6.31358E-004,1.06665E-001,-4.40243E-002,2.40061E-001,1.07205E-001,1.11252E+000,-1.85527E-002,0.00000E+000,1.83575E-002,9.59859E-001,0.00000E+000,-1.61459E-002,-8.02792E-002,1.00000E+000,16
939,1327,4.23317E+000,-4.36829E-001,4.17316E-003,3.89901E+000,-4.72928E-001,7.24599E-002,3.92826E+000,8.46142E-003,4.63950E-001,0,5.95631E+001,-8.00761E+000,9.99117E-001,1.58159E+001,-4.22608E+001,9.98403E-001,1.05040E-001,-4.40252E-002,5.54327E-004,1.05042E-001,-4.40273E-002,2.13061E-001,1.05499E-001,1.11069E+000,-1.85957E-002,0.00000E+000,1.81074E-002,9.59853E-001,0.00000E+000,-1.40100E-002,-8.02292E-002,1.00000E+000,16
919,1337,2.78582E+000,1.38878E-001,-4.20953E-002,3.74646E+000,-5.26146E-001,4.70000E-002,3.78352E+000,8.94569E-003,4.87268E-001,0,5.74094E+001,-8.79252E+000,9.99082E-001,1.34431E+001,-4.34501E+001,9.98185E-001,1.04324E-001,-4.41492E-002,-9.37123E-004,1.04330E-001,-4.41551E-002,-3.61617E-001,1.04739E-001,1.10989E+000,-1.50196E-002,0.00000E+000,1.17746E-002,9.59992E-001,0.00000E+000,-8.53162E-003,-8.24259E-002,1.00000E+000,16
929,1337,3.51343E+000,1.57363E-001,-2.81234E-002,3.81645E+000,-5.16571E-001,3.46697E-002,3.85141E+000,8.42276E-003,4.59021E-001,0,5.84753E+001,-8.62596E+000,9.99560E-001,1.47187E+001,-4.31104E+001,9.99028E-001,1.03650E-001,-4.43918E-002,-2.25994E-005,1.03650E-001,-4.43918E-002,-8.74650E-003,1.04005E-001,1.10913E+000,-1.67276E-002,0.00000E+000,1.51467E-002,9.59654E-001,0.00000E+000,-1.04245E-002,-8.16447E-002,1.00000E+000,16
939,1337,4.24078E+000,1.81104E-001,-2.48103E-002,3.88786E+000,-5.01927E-001,2.19505E-002,3.92019E+000,7.23144E-003,4.63313E-001,0,5.95628E+001,-8.37102E+000,9.99475E-001,1.59717E+001,-4.26502E+001,9.99153E-001,1.03412E-001,-4.40293E-002,4.72393E-004,1.03413E-001,-4.40309E-002,1.83570E-001,1.03792E-001,1.10885E+000,-1.86491E-002,0.00000E+000,1.78573E-002,9.59846E-001,0.00000E+000,-1.18740E-002,-8.01671E-002,1.00000E+000,16
949,1317,4.96450E+000,-1.02878E+000,6.12882E-002,3.98848E+000,-4.28831E-001,1.14557E-001,4.01310E+000,1.44348E-002,4.73900E-001,0,6.07347E+001,-7.40725E+000,9.98508E-001,1.71511E+001,-4.14310E+001,9.97162E-001,1.06100E-001,-4.36369E-002,9.83909E-004,1.06106E-001,-4.36434E-002,3.76465E-001,1.06661E-001,1.11189E+000,-2.02953E-002,0.00000E+000,2.06299E-002,9.60045E-001,0.00000E+000,-1.76030E-002,-7.84037E-002,1.00000E+000,16
949,1327,4.96295E+000,-4.12096E-001,6.93012E-003,3.97293E+000,-4.55853E-001,6.08917E-002,3.99946E+000,1.31481E-002,4.50567E-001,0,6.06817E+001,-7.72404E+000,9.98689E-001,1.71106E+001,-4.17943E+001,9.97952E-001,1.04714E-001,-4.36379E-002,9.43705E-004,1.04720E-001,-4.36439E-002,3.64455E-001,1.05202E-001,1.11031E+000,-2.03299E-002,0.00000E+000,2.04238E-002,9.60040E-001,0.00000E+000,-1.51832E-002,-7.83508E-002,1.00000E+000,16
949,1337,4.96951E+000,2.05354E-001,-2.35514E-002,3.96122E+000,-4.85387E-001,1.18483E-002,3.99087E+000,9.73023E-003,4.62717E-001,0,6.06696E+001,-8.10182E+000,9.99172E-001,1.72458E+001,-4.21800E+001,9.98380E-001,1.03316E-001,-4.36390E-002,8.98510E-004,1.03322E-001,-4.36445E-002,3.50299E-001,1.03735E-001,1.10873E+000,-2.03749E-002,0.00000E+000,2.02172E-002,9.60035E-001,0.00000E+000,-1.27565E-002,-7.82819E-002,1.00000E+000,16
949,1307,4.97234E+000,-1.63729E+000,1.43619E-001,4.00402E+000,-3.98330E-001,1.67511E-001,4.02727E+000,1.12761E-002,5.19711E-001,0,6.07846E+001,-7.03713E+000,9.99078E-001,1.73495E+001,-4.09898E+001,9.98130E-001,1.07473E-001,-4.36362E-002,1.01696E-003,1.07479E-001,-4.36430E-002,3.85576E-001,1.08110E-001,1.11347E+000,-2.02764E-002,0.00000E+000,2.08351E-002,9.60047E-001,0.00000E+000,-2.00130E-002,-7.84327E-002,1.00000E+000,16
909,1317,2.04178E+000,-1.11162E+000,1.94030E-002,3.69330E+000,-4.73177E-001,1.64139E-001,3.72710E+000,1.29305E-002,4.63605E-001,0,5.62495E+001,-8.21068E+000,9.97531E-001,1.18745E+001,-4.30092E+001,9.95745E-001,1.08435E-001,-4.44255E-002,-1.10718E-003,1.08443E-001,-4.44336E-002,-4.14970E-001,1.09030E-001,1.11449E+000,-1.30242E-002,0.00000E+000,9.68600E-003,9.59765E-001,0.00000E+000,-8.53019E-003,-8.26293E-002,1.00000E+000,16
909,1327,2.05269E+000,-4.94179E-001,-2.39379E-002,3.68758E+000,-5.03350E-001,1.07437E-001,3.72332E+000,1.00408E-002,4.95373E-001,0,5.63513E+001,-8.55290E+000,9.98272E-001,1.20521E+001,-4.33613E+001,9.97756E-001,1.06762E-001,-4.44400E-002,-1.33784E-003,1.06774E-001,-4.44518E-002,-5.06902E-001,1.07272E-001,1.11262E+000,-1.30716E-002,0.00000E+000,9.22961E-003,9.59754E-001,0.00000E+000,-7.60963E-003,-8.26060E-002,1.00000E+000,16
909,1337,2.06599E+000,1.30876E-001,-4.26250E-002,3.67872E+000,-5.29796E-001,4.95704E-002,3.71701E+000,1.07225E-002,5.36963E-001,0,5.64044E+001,-8.83855E+000,9.98963E-001,1.23224E+001,-4.36458E+001,9.98271E-001,1.05082E-001,-4.44578E-002,-1.57632E-003,1.05098E-001,-4.44744E-002,-6.03875E-001,1.05511E-001,1.11074E+000,-1.31346E-002,0.00000E+000,8.77175E-003,9.59738E-001,0.00000E+000,-6.68612E-003,-8.25749E-002,1.00000E+000,16
909,1307,2.04852E+000,-1.71387E+000,1.26167E-001,3.70182E+000,-4.40620E-001,2.15298E-001,3.73416E+000,1.32592E-002,4.33124E-001,0,5.61994E+001,-7.77379E+000,9.97963E-001,1.21125E+001,-4.25552E+001,9.94060E-001,1.10083E-001,-4.44201E-002,-8.97843E-004,1.10088E-001,-4.44254E-002,-3.32941E-001,1.10769E-001,1.11634E+000,-1.30189E-002,0.00000E+000,1.01368E-002,9.59767E-001,0.00000E+000,-9.43942E-003,-8.26319E-002,1.00000E+000,16
919,1347,2.80688E+000,7.69836E-001,-4.43813E-002,3.74223E+000,-5.47736E-001,-8.39772E-003,3.78211E+000,1.36341E-002,5.06998E-001,0,5.75224E+001,-9.02011E+000,9.99489E-001,1.38691E+001,-4.36902E+001,9.98895E-001,1.02571E-001,-4.41706E-002,-1.19076E-003,1.02580E-001,-4.41803E-002,-4.64897E-001,1.02908E-001,1.10793E+000,-1.50951E-002,0.00000E+000,1.12581E-002,9.59972E-001,0.00000E+000,-7.04867E-003,-8.23687E-002,1.00000E+000,16
929,1347,3.53145E+000,7.84224E-001,-2.51070E-002,3.80969E+000,-5.41263E-001,-1.22431E-002,3.84797E+000,7.78269E-003,4.65352E-001,0,5.85233E+001,-8.92591E+000,9.99519E-001,1.51070E+001,-4.34312E+001,9.99164E-001,1.01859E-001,-4.43993E-002,-1.40366E-004,1.01859E-001,-4.43994E-002,-5.49875E-002,1.02138E-001,1.10713E+000,-1.68040E-002,0.00000E+000,1.48654E-002,9.59644E-001,0.00000E+000,-8.55008E-003,-8.15733E-002,1.00000E+000,16
939,1347,4.25824E+000,8.08090E-001,-2.04409E-002,3.88085E+000,-5.26596E-001,-2.12997E-002,3.91647E+000,1.17306E-002,4.89386E-001,0,5.95956E+001,-8.68581E+000,9.99326E-001,1.63524E+001,-4.29607E+001,9.98532E-001,1.01769E-001,-4.40343E-002,3.82639E-004,1.01770E-001,-4.40353E-002,1.50363E-001,1.02076E-001,1.10701E+000,-1.87187E-002,0.00000E+000,1.76062E-002,9.59836E-001,0.00000E+000,-9.72873E-003,-8.00861E-002,1.00000E+000,16
949,1347,4.99030E+000,8.30183E-001,-1.05268E-002,3.95549E+000,-5.14589E-001,-3.10689E-002,3.98894E+000,9.81743E-003,4.80084E-001,0,6.07220E+001,-8.46951E+000,9.98936E-001,1.76942E+001,-4.25452E+001,9.97922E-001,1.01901E-001,-4.36405E-002,8.43758E-004,1.01906E-001,-4.36454E-002,3.32149E-001,1.02255E-001,1.10713E+000,-2.04403E-002,0.00000E+000,2.00092E-002,9.60026E-001,0.00000E+000,-1.03135E-002,-7.81819E-002,1.00000E+000,16
959,1317,5.69039E+000,-1.00843E+000,4.54970E-002,4.05887E+000,-4.15548E-001,8.77678E-002,4.08103E+000,1.27692E-002,4.86957E-001,0,6.18517E+001,-7.16044E+000,9.98810E-001,1.83504E+001,-4.09813E+001,9.98056E-001,1.05618E-001,-4.32082E-002,1.07514E-003,1.05626E-001,-4.32160E-002,4.13885E-001,1.06206E-001,1.11134E+000,-2.21065E-002,0.00000E+000,2.24020E-002,9.60268E-001,0.00000E+000,-1.83522E-002,-7.63424E-002,1.00000E+000,16
959,1327,5.69038E+000,-3.90802E-001,-6.79862E-003,4.04652E+000,-4.40871E-001,4.42390E-002,4.07070E+000,1.77197E-002,4.74163E-001,0,6.18140E+001,-7.47621E+000,9.99427E-001,1.83375E+001,-4.13270E+001,9.98699E-001,1.04411E-001,-4.32047E-002,1.09438E-003,1.04419E-001,-4.32128E-002,4.24740E-001,1.04935E-001,1.10995E+000,-2.21333E-002,0.00000E+000,2.22966E-002,9.60266E-001,0.00000E+000,-1.57918E-002,-7.62930E-002,1.00000E+000,16
959,1337,5.69960E+000,2.26653E-001,-2.41477E-002,4.03511E+000,-4.72929E-001,-1.59376E-003,4.06274E+000,1.42161E-002,4.71530E-001,0,6.17960E+001,-7.87954E+000,9.98919E-001,1.85406E+001,-4.17466E+001,9.98176E-001,1.03190E-001,-4.32001E-002,1.10560E-003,1.03198E-001,-4.32085E-002,4.32690E-001,1.03652E-001,1.10856E+000,-2.21780E-002,0.00000E+000,2.21907E-002,9.60262E-001,0.00000E+000,-1.32160E-002,-7.62104E-002,1.00000E+000,16
959,1307,5.69645E+000,-1.61560E+000,1.29402E-001,4.07350E+000,-3.82078E-001,1.45833E-001,4.09398E+000,9.62092E-003,5.01847E-001,0,6.18681E+001,-6.75374E+000,9.98985E-001,1.85245E+001,-4.05404E+001,9.98416E-001,1.06815E-001,-4.32112E-002,1.05214E-003,1.06822E-001,-4.32186E-002,4.01791E-001,1.07469E-001,1.11272E+000,-2.20880E-002,0.00000E+000,2.25072E-002,9.60269E-001,0.00000E+000,-2.09084E-002,-7.63767E-002,1.00000E+000,16
959,1347,5.71624E+000,8.47320E-001,-2.43210E-002,4.02713E+000,-5.04054E-001,-4.83406E-002,4.05884E+000,9.97461E-003,4.77328E-001,0,6.18302E+001,-8.27962E+000,9.98894E-001,1.88948E+001,-4.21516E+001,9.98461E-001,1.01958E-001,-4.31950E-002,1.11263E-003,1.01967E-001,-4.32035E-002,4.39150E-001,1.02362E-001,1.10716E+000,-2.22313E-002,0.00000E+000,2.20845E-002,9.60258E-001,0.00000E+000,-1.06365E-002,-7.61118E-002,1.00000E+000,16
909,1347,2.08728E+000,7.59080E-001,-3.35007E-002,3.67282E+000,-5.53642E-001,-4.41298E-003,3.71431E+000,1.27689E-002,5.13273E-001,0,5.64854E+001,-9.10878E+000,9.99421E-001,1.27785E+001,-4.39768E+001,9.98012E-001,1.03400E-001,-4.44787E-002,-1.82100E-003,1.03422E-001,-4.45011E-002,-7.05407E-001,1.03757E-001,1.10887E+000,-1.32119E-002,0.00000E+000,8.31469E-003,9.59720E-001,0.00000E+000,-5.76423E-003,-8.25369E-002,1.00000E+000,16
899,1327,1.33483E+000,-4.96783E-001,9.15510E-003,3.61339E+000,-5.05899E-001,1.06856E-001,3.65020E+000,7.00256E-003,4.99010E-001,0,5.52527E+001,-8.57029E+000,9.98804E-001,1.10412E+001,-4.35675E+001,9.98747E-001,1.07276E-001,-4.46667E-002,-1.90184E-003,1.07300E-001,-4.46905E-002,-7.17010E-001,1.07798E-001,1.11320E+000,-1.13157E-002,0.00000E+000,6.43413E-003,9.59589E-001,0.00000E+000,-5.03446E-003,-8.29923E-002,1.00000E+000,16
899,1337,1.35045E+000,1.24587E-001,-2.71087E-002,3.61074E+000,-5.31634E-001,4.86063E-002,3.65000E+000,1.10876E-002,5.17503E-001,0,5.54029E+001,-8.85980E+000,9.99499E-001,1.13089E+001,-4.38841E+001,9.99190E-001,1.05758E-001,-4.46787E-002,-2.09483E-003,1.05787E-001,-4.47079E-002,-7.97637E-001,1.06209E-001,1.11151E+000,-1.13626E-002,0.00000E+000,6.09266E-003,9.59579E-001,0.00000E+000,-4.70499E-003,-8.29832E-002,1.00000E+000,16
899,1347,1.37664E+000,7.51597E-001,-1.60835E-002,3.60991E+000,-5.56851E-001,-3.62099E-003,3.65260E+000,9.69508E-003,5.04222E-001,0,5.55550E+001,-9.15529E+000,9.99418E-001,1.18463E+001,-4.42339E+001,9.98860E-001,1.04232E-001,-4.46951E-002,-2.29851E-003,1.04267E-001,-4.47306E-002,-8.84013E-001,1.04617E-001,1.10981E+000,-1.14317E-002,0.00000E+000,5.74995E-003,9.59565E-001,0.00000E+000,-4.37433E-003,-8.29697E-002,1.00000E+000,16
899,1317,1.32948E+000,-1.10886E+000,7.10635E-002,3.62070E+000,-4.74685E-001,1.64317E-001,3.65538E+000,9.47893E-003,5.01598E-001,0,5.51713E+001,-8.20633E+000,9.98581E-001,1.09911E+001,-4.31520E+001,9.97649E-001,1.08788E-001,-4.46575E-002,-1.71586E-003,1.08807E-001,-4.46767E-002,-6.40589E-001,1.09385E-001,1.11488E+000,-1.12831E-002,0.00000E+000,6.77453E-003,9.59595E-001,0.00000E+000,-5.36289E-003,-8.29987E-002,1.00000E+000,16
899,1307,1.32889E+000,-1.71310E+000,1.59856E-001,3.62712E+000,-4.39988E-001,2.22074E-001,3.66045E+000,1.01423E-002,4.38879E-001,0,5.50708E+001,-7.74703E+000,9.98624E-001,1.10766E+001,-4.27050E+001,9.96176E-001,1.10291E-001,-4.46511E-002,-1.53706E-003,1.10306E-001,-4.46664E-002,-5.68314E-001,1.10969E-001,1.11656E+000,-1.12649E-002,0.00000E+000,7.11358E-003,9.59599E-001,0.00000E+000,-5.69002E-003,-8.30022E-002,1.00000E+000,16
889,1327,6.14633E-001,-5.03818E-001,1.92374E-002,3.54122E+000,-5.09237E-001,1.05371E-001,3.57920E+000,6.04123E-003,4.96530E-001,0,5.41896E+001,-8.60268E+000,9.99192E-001,9.94746E+000,-4.37958E+001,9.99076E-001,1.07857E-001,-4.40859E-002,-2.49636E-003,1.07898E-001,-4.41269E-002,-9.41006E-001,1.08492E-001,1.11385E+000,-9.79485E-003,0.00000E+000,3.77598E-003,9.60221E-001,0.00000E+000,-2.34020E-003,-8.37444E-002,1.00000E+000,16
889,1337,6.25283E-001,1.17662E-001,-1.87215E-002,3.53487E+000,-5.33236E-001,5.06651E-002,3.57522E+000,9.92162E-003,5.10015E-001,0,5.42701E+001,-8.88000E+000,9.99390E-001,1.01353E+001,-4.41121E+001,9.99223E-001,1.06398E-001,-4.40871E-002,-2.53858E-003,1.06441E-001,-4.41299E-002,-9.66176E-001,1.06957E-001,1.11223E+000,-9.83669E-003,0.00000E+000,3.78842E-003,9.60221E-001,0.00000E+000,-2.90448E-003,-8.37589E-002,1.00000E+000,16
889,1347,6.52547E-001,7.42586E-001,-9.87659E-003,3.53589E+000,-5.59806E-001,-1.08983E-003,3.57993E+000,8.33101E-003,4.89170E-001,0,5.44490E+001,-9.19572E+000,9.99265E-001,1.06860E+001,-4.44948E+001,9.98977E-001,1.04929E-001,-4.40889E-002,-2.59109E-003,1.04974E-001,-4.41339E-002,-9.95846E-001,1.05416E-001,1.11060E+000,-9.90107E-003,0.00000E+000,3.80093E-003,9.60222E-001,0.00000E+000,-3.47155E-003,-8.37813E-002,1.00000E+000,16
969,1297,6.44460E+000,-2.19694E+000,2.25221E-001,4.16698E+000,-3.33633E-001,1.71497E-001,4.18383E+000,1.38901E-002,4.74622E-001,0,6.31410E+001,-6.04190E+000,9.99308E-001,2.02113E+001,-3.96527E+001,9.98261E-001,1.07149E-001,-4.29908E-002,9.57663E-004,1.07155E-001,-4.29969E-002,3.65439E-001,1.07850E-001,1.11312E+000,-2.36803E-002,0.00000E+000,2.38605E-002,9.60295E-001,0.00000E+000,-2.38607E-002,-7.41603E-002,1.00000E+000,16
969,1307,6.42572E+000,-1.59858E+000,1.20121E-001,4.14610E+000,-3.72709E-001,1.22142E-001,4.16461E+000,2.18727E-002,4.77574E-001,0,6.30068E+001,-6.55128E+000,9.99009E-001,1.97938E+001,-4.01764E+001,9.97450E-001,1.06147E-001,-4.29869E-002,1.02179E-003,1.06154E-001,-4.29939E-002,3.92536E-001,1.06791E-001,1.11195E+000,-2.36839E-002,0.00000E+000,2.38171E-002,9.60294E-001,0.00000E+000,-2.11953E-002,-7.41520E-002,1.00000E+000,16
969,1317,6.42086E+000,-9.90980E-001,4.76120E-002,4.13161E+000,-4.05972E-001,7.10155E-002,4.15212E+000,8.93011E-003,4.67903E-001,0,6.29689E+001,-6.98245E+000,9.99549E-001,1.96621E+001,-4.06306E+001,9.98993E-001,1.05135E-001,-4.29812E-002,1.07974E-003,1.05143E-001,-4.29891E-002,4.17647E-001,1.05724E-001,1.11077E+000,-2.37017E-002,0.00000E+000,2.37736E-002,9.60294E-001,0.00000E+000,-1.85261E-002,-7.41118E-002,1.00000E+000,16
889,1317,6.06773E-001,-1.11518E+000,8.23072E-002,3.54545E+000,-4.77931E-001,1.61843E-001,3.58118E+000,8.35480E-003,5.13055E-001,0,5.40652E+001,-8.24027E+000,9.99254E-001,9.86110E+000,-4.33632E+001,9.98711E-001,1.09311E-001,-4.40849E-002,-2.45958E-003,1.09350E-001,-4.41244E-002,-9.18379E-001,1.10027E-001,1.11547E+000,-9.76496E-003,0.00000E+000,3.76357E-003,9.60221E-001,0.00000E+000,-1.77705E-003,-8.37340E-002,1.00000E+000,16
969,1327,6.41916E+000,-3.72394E-001,-4.51167E-003,4.11687E+000,-4.30844E-001,2.49887E-002,4.13943E+000,1.01401E-002,4.73185E-001,0,6.29041E+001,-7.29652E+000,9.99394E-001,1.96230E+001,-4.09513E+001,9.99169E-001,1.04113E-001,-4.29746E-002,1.13482E-003,1.04122E-001,-4.29834E-002,4.42018E-001,1.04648E-001,1.10959E+000,-2.37258E-002,0.00000E+000,2.37300E-002,9.60293E-001,0.00000E+000,-1.58507E-002,-7.40572E-002,1.00000E+000,16
889,1307,6.03173E-001,-1.72028E+000,1.71482E-001,3.54815E+000,-4.44898E-001,2.16984E-001,3.58251E+000,1.13435E-002,4.72194E-001,0,5.39178E+001,-7.80936E+000,9.98947E-001,9.90105E+000,-4.29178E+001,9.96934E-001,1.10756E-001,-4.40843E-002,-2.42926E-003,1.10794E-001,-4.41224E-002,-8.98606E-001,1.11557E-001,1.11709E+000,-9.74921E-003,0.00000E+000,3.75120E-003,9.60221E-001,0.00000E+000,-1.21631E-003,-8.37285E-002,1.00000E+000,16
969,1337,6.42687E+000,2.41957E-001,-3.29971E-002,4.10600E+000,-4.63055E-001,-2.22892E-002,4.13209E+000,1.08200E-002,4.18111E-001,0,6.29017E+001,-7.70069E+000,9.99203E-001,1.97783E+001,-4.14192E+001,9.98898E-001,1.03081E-001,-4.29667E-002,1.18522E-003,1.03091E-001,-4.29763E-002,4.64932E-001,1.03564E-001,1.10840E+000,-2.37602E-002,0.00000E+000,2.36863E-002,9.60292E-001,0.00000E+000,-1.31699E-002,-7.39794E-002,1.00000E+000,16
969,1347,6.43798E+000,8.74057E-001,-3.61065E-002,4.09375E+000,-4.83651E-001,-6.53237E-002,4.12274E+000,9.50969E-003,4.63726E-001,0,6.28560E+001,-7.94012E+000,9.99134E-001,2.00408E+001,-4.16202E+001,9.98595E-001,1.02033E-001,-4.29576E-002,1.23176E-003,1.02044E-001,-4.29680E-002,4.86707E-001,1.02467E-001,1.10721E+000,-2.38034E-002,0.00000E+000,2.36423E-002,9.60290E-001,0.00000E+000,-1.04700E-002,-7.38816E-002,1.00000E+000,16
879,1327,-1.03210E-001,-5.06902E-001,3.45936E-002,3.47087E+000,-5.08435E-001,1.08478E-001,3.50959E+000,8.64834E-003,5.18259E-001,0,5.31359E+001,-8.59808E+000,9.99234E-001,8.90729E+000,-4.39624E+001,9.99035E-001,1.08430E-001,-4.42673E-002,-2.87674E-003,1.08484E-001,-4.43215E-002,-1.07891E+000,1.09087E-001,1.11450E+000,-8.49745E-003,0.00000E+000,1.77323E-003,9.60027E-001,0.00000E+000,-3.77722E-004,-8.33971E-002,1.00000E+000,16
879,1337,-9.26513E-002,1.10726E-001,-9.97304E-003,3.46510E+000,-5.35397E-001,4.96103E-002,3.50657E+000,8.43072E-003,5.02103E-001,0,5.32391E+001,-8.90218E+000,9.98939E-001,9.07886E+000,-4.43406E+001,9.98753E-001,1.07091E-001,-4.42658E-002,-2.87047E-003,1.07145E-001,-4.43202E-002,-1.08609E+000,1.07677E-001,1.11301E+000,-8.53442E-003,0.00000E+000,1.90769E-003,9.60030E-001,0.00000E+000,-1.39160E-003,-8.34222E-002,1.00000E+000,16
879,1347,-6.92052E-002,7.37851E-001,-7.17378E-003,3.46380E+000,-5.60024E-001,-1.86973E-003,3.50878E+000,1.02683E-002,5.10495E-001,0,5.33808E+001,-9.18083E+000,9.98932E-001,9.55886E+000,-4.46638E+001,9.98639E-001,1.05739E-001,-4.42636E-002,-2.87254E-003,1.05794E-001,-4.43186E-002,-1.09667E+000,1.06257E-001,1.11151E+000,-8.59021E-003,0.00000E+000,2.04311E-003,9.60035E-001,0.00000E+000,-2.41269E-003,-8.34602E-002,1.00000E+000,16
879,1307,-1.21198E-001,-1.72150E+000,1.90725E-001,3.46957E+000,-4.43987E-001,2.16754E-001,3.50458E+000,1.25044E-002,4.89626E-001,0,5.27507E+001,-7.78791E+000,9.98467E-001,8.76981E+000,-4.30625E+001,9.97104E-001,1.11089E-001,-4.42692E-002,-2.90521E-003,1.11144E-001,-4.43235E-002,-1.07093E+000,1.11900E-001,1.11747E+000,-8.45929E-003,0.00000E+000,1.50540E-003,9.60023E-001,0.00000E+000,1.64182E-003,-8.33712E-002,1.00000E+000,16
879,1317,-1.13336E-001,-1.11777E+000,1.01440E-001,3.47255E+000,-4.76272E-001,1.67787E-001,3.50907E+000,8.76637E-003,4.49817E-001,0,5.29641E+001,-8.19658E+000,9.99263E-001,8.79514E+000,-4.35707E+001,9.98596E-001,1.09766E-001,-4.42685E-002,-2.88759E-003,1.09820E-001,-4.43226E-002,-1.07359E+000,1.10499E-001,1.11599E+000,-8.47062E-003,0.00000E+000,1.63880E-003,9.60024E-001,0.00000E+000,6.35906E-004,-8.33789E-002,1.00000E+000,16
979,1307,7.17203E+000,-1.57861E+000,1.27728E-001,4.23206E+000,-3.62437E-001,1.01188E-001,4.24876E+000,1.38022E-002,4.86731E-001,0,6.43359E+001,-6.35862E+000,9.99637E-001,2.13661E+001,-3.97840E+001,9.99374E-001,1.05541E-001,-4.27308E-002,9.73914E-004,1.05547E-001,-4.27372E-002,3.76322E-001,1.06182E-001,1.11122E+000,-2.50049E-002,0.00000E+000,2.47706E-002,9.60345E-001,0.00000E+000,-2.02751E-002,-7.17168E-002,1.00000E+000,16
979,1317,7.15730E+000,-9.65937E-001,5.35544E-002,4.20923E+000,-3.90231E-001,5.55896E-002,4.22764E+000,7.51833E-003,4.63191E-001,0,6.41520E+001,-6.70367E+000,9.99416E-001,2.10791E+001,-4.01628E+001,9.99090E-001,1.04795E-001,-4.27236E-002,1.06011E-003,1.04803E-001,-4.27312E-002,4.11715E-001,1.05396E-001,1.11035E+000,-2.50160E-002,0.00000E+000,2.47891E-002,9.60346E-001,0.00000E+000,-1.77744E-002,-7.16850E-002,1.00000E+000,16
979,1327,7.15040E+000,-3.50712E-001,-1.52607E-003,4.19009E+000,-4.17688E-001,1.05967E-002,4.21087E+000,8.43967E-003,4.64534E-001,0,6.40193E+001,-7.06461E+000,9.98821E-001,2.09527E+001,-4.05302E+001,9.98323E-001,1.04042E-001,-4.27150E-002,1.14374E-003,1.04050E-001,-4.27240E-002,4.46496E-001,1.04603E-001,1.10947E+000,-2.50328E-002,0.00000E+000,2.48077E-002,9.60346E-001,0.00000E+000,-1.52703E-002,-7.16370E-002,1.00000E+000,16
979,1337,7.15312E+000,2.69056E-001,-3.86364E-002,4.17640E+000,-4.43647E-001,-3.49565E-002,4.20004E+000,1.11977E-002,4.54760E-001,0,6.39680E+001,-7.39176E+000,9.98293E-001,2.10126E+001,-4.08720E+001,9.97951E-001,1.03279E-001,-4.27052E-002,1.22483E-003,1.03290E-001,-4.27155E-002,4.80676E-001,1.03803E-001,1.10859E+000,-2.50554E-002,0.00000E+000,2.48263E-002,9.60346E-001,0.00000E+000,-1.27595E-002,-7.15727E-002,1.00000E+000,16
979,1347,7.16350E+000,8.99589E-001,-3.29193E-002,4.16190E+000,-4.65552E-001,-7.52662E-002,4.18853E+000,1.19389E-002,4.54212E-001,0,6.38790E+001,-7.65579E+000,9.97673E-001,2.12801E+001,-4.11382E+001,9.97056E-001,1.02505E-001,-4.26926E-002,1.30103E-003,1.02517E-001,-4.27043E-002,5.13335E-001,1.02992E-001,1.10770E+000,-2.50897E-002,0.00000E+000,2.48451E-002,9.60347E-001,0.00000E+000,-1.02333E-002,-7.14750E-002,1.00000E+000,16
979,1297,7.17547E+000,-2.17683E+000,2.15903E-001,4.24202E+000,-3.20736E-001,1.53607E-001,4.25690E+000,1.17851E-002,4.78060E-001,0,6.42937E+001,-5.80223E+000,9.99415E-001,2.15093E+001,-3.92287E+001,9.98827E-001,1.06280E-001,-4.27375E-002,8.86574E-004,1.06285E-001,-4.27428E-002,3.40863E-001,1.06961E-001,1.11210E+000,-2.49959E-002,0.00000E+000,2.47521E-002,9.60345E-001,0.00000E+000,-2.27757E-002,-7.17423E-002,1.00000E+000,16
869,1317,-8.42038E-001,-1.11891E+000,9.98041E-002,3.39224E+000,-4.73395E-001,1.60677E-001,3.42888E+000,7.26978E-003,4.71282E-001,0,5.17910E+001,-8.12682E+000,9.99312E-001,7.55372E+000,-4.36706E+001,9.98462E-001,1.09993E-001,-4.45148E-002,-2.99992E-003,1.10051E-001,-4.45731E-002,-1.11189E+000,1.10711E-001,1.11626E+000,-7.02963E-003,0.00000E+000,6.18460E-005,9.59742E-001,0.00000E+000,2.27393E-003,-8.27759E-002,1.00000E+000,16
869,1327,-8.30422E-001,-5.08151E-001,3.66499E-002,3.39252E+000,-5.04228E-001,1.06700E-001,3.43145E+000,8.80003E-003,5.36619E-001,0,5.19740E+001,-8.53300E+000,9.99111E-001,7.69737E+000,-4.40749E+001,9.98666E-001,1.08863E-001,-4.45135E-002,-2.97899E-003,1.08921E-001,-4.45713E-002,-1.11228E+000,1.09518E-001,1.11500E+000,-7.05150E-003,0.00000E+000,2.35629E-004,9.59745E-001,0.00000E+000,9.07725E-004,-8.27996E-002,1.00000E+000,16
869,1337,-8.15200E-001,1.06139E-001,-2.21639E-003,3.39094E+000,-5.35287E-001,5.06879E-002,3.43330E+000,9.58091E-003,5.31802E-001,0,5.21320E+001,-8.90427E+000,9.98671E-001,7.95387E+000,-4.45126E+001,9.98286E-001,1.07726E-001,-4.45116E-002,-2.96265E-003,1.07784E-001,-4.45692E-002,-1.11445E+000,1.08320E-001,1.11373E+000,-7.08375E-003,0.00000E+000,4.09973E-004,9.59750E-001,0.00000E+000,-4.62889E-004,-8.28344E-002,1.00000E+000,16
869,1347,-7.94998E-001,7.33019E-001,-1.16075E-002,3.38913E+000,-5.56826E-001,-9.75231E-004,3.43457E+000,1.24770E-002,5.10383E-001,0,5.22660E+001,-9.14023E+000,9.99033E-001,8.35759E+000,-4.48301E+001,9.98570E-001,1.06583E-001,-4.45092E-002,-2.95075E-003,1.06641E-001,-4.45668E-002,-1.11838E+000,1.07119E-001,1.11246E+000,-7.12588E-003,0.00000E+000,5.84711E-004,9.59755E-001,0.00000E+000,-1.83660E-003,-8.28799E-002,1.00000E+000,16
869,1307,-8.46137E-001,-1.72141E+000,1.99691E-001,3.39248E+000,-4.39850E-001,2.17837E-001,3.42781E+000,1.03653E-002,5.05314E-001,0,5.16006E+001,-7.72323E+000,9.98581E-001,7.61168E+000,-4.31664E+001,9.97786E-001,1.11114E-001,-4.45155E-002,-3.02662E-003,1.11173E-001,-4.45743E-002,-1.11370E+000,1.11898E-001,1.11752E+000,-7.02104E-003,0.00000E+000,-1.11020E-004,9.59741E-001,0.00000E+000,3.63292E-003,-8.27666E-002,1.00000E+000,16
989,1307,7.89452E+000,-1.54825E+000,1.17497E-001,4.29775E+000,-3.39044E-001,8.03475E-002,4.31185E+000,1.07953E-002,4.78289E-001,0,6.53530E+001,-5.95551E+000,9.99114E-001,2.25391E+001,-3.92047E+001,9.98599E-001,1.05003E-001,-4.26552E-002,8.68186E-004,1.05009E-001,-4.26603E-002,3.36865E-001,1.05622E-001,1.11057E+000,-2.58076E-002,0.00000E+000,2.51144E-002,9.60247E-001,0.00000E+000,-1.85441E-002,-6.93695E-002,1.00000E+000,16
989,1317,7.87690E+000,-9.33881E-001,3.77385E-002,4.27315E+000,-3.66295E-001,3.46855E-002,4.28896E+000,1.08747E-002,5.21743E-001,0,6.51443E+001,-6.29896E+000,9.99327E-001,2.21959E+001,-3.95104E+001,9.98739E-001,1.04492E-001,-4.26461E-002,9.88507E-004,1.04498E-001,-4.26528E-002,3.84904E-001,1.05084E-001,1.10996E+000,-2.58143E-002,0.00000E+000,2.52078E-002,9.60248E-001,0.00000E+000,-1.62227E-002,-6.93443E-002,1.00000E+000,16
989,1327,7.87969E+000,-3.19490E-001,-2.60351E-003,4.26163E+000,-3.96888E-001,-4.15600E-003,4.28007E+000,1.40979E-002,5.33935E-001,0,6.51066E+001,-6.71541E+000,9.98853E-001,2.22486E+001,-3.99141E+001,9.97681E-001,1.03974E-001,-4.26341E-002,1.10584E-003,1.03982E-001,-4.26424E-002,4.32140E-001,1.04541E-001,1.10936E+000,-2.58279E-002,0.00000E+000,2.53014E-002,9.60250E-001,0.00000E+000,-1.38978E-002,-6.92924E-002,1.00000E+000,16
989,1297,7.90978E+000,-2.15444E+000,2.11204E-001,4.31872E+000,-3.05063E-001,1.34391E-001,4.33157E+000,1.01303E-002,4.68791E-001,0,6.54734E+001,-5.53178E+000,9.99060E-001,2.28749E+001,-3.87852E+001,9.98179E-001,1.05509E-001,-4.26637E-002,7.47382E-004,1.05513E-001,-4.26675E-002,2.88990E-001,1.06154E-001,1.11118E+000,-2.58022E-002,0.00000E+000,2.50211E-002,9.60246E-001,0.00000E+000,-2.08617E-002,-6.93902E-002,1.00000E+000,16
989,1337,7.88193E+000,2.97064E-001,-2.64717E-002,4.24459E+000,-4.25953E-001,-4.87969E-002,4.26618E+000,1.04911E-002,4.66444E-001,0,6.50015E+001,-7.09662E+000,9.98002E-001,2.23268E+001,-4.03619E+001,9.97898E-001,1.03451E-001,-4.26200E-002,1.22068E-003,1.03461E-001,-4.26302E-002,4.78763E-001,1.03993E-001,1.10875E+000,-2.58462E-002,0.00000E+000,2.53949E-002,9.60253E-001,0.00000E+000,-1.15763E-002,-6.92226E-002,1.00000E+000,16
989,1347,7.89109E+000,9.24961E-001,-2.75618E-002,4.23096E+000,-4.48333E-001,-8.59241E-002,4.25552E+000,1.08581E-002,4.46760E-001,0,6.49170E+001,-7.38066E+000,9.99045E-001,2.25596E+001,-4.06622E+001,9.98991E-001,1.02919E-001,-4.26045E-002,1.33443E-003,1.02931E-001,-4.26167E-002,5.25336E-001,1.03437E-001,1.10813E+000,-2.58678E-002,0.00000E+000,2.54888E-002,9.60256E-001,0.00000E+000,-9.24212E-003,-6.91401E-002,1.00000E+000,16
859,1327,-1.55426E+000,-5.07962E-001,3.29449E-002,3.31692E+000,-4.99353E-001,9.82606E-002,3.35574E+000,8.48659E-003,5.28941E-001,0,5.08738E+001,-8.42042E+000,9.98728E-001,6.53097E+000,-4.41657E+001,9.98375E-001,1.09144E-001,-4.46311E-002,-2.91807E-003,1.09199E-001,-4.46865E-002,-1.08674E+000,1.09797E-001,1.11532E+000,-5.79032E-003,0.00000E+000,-7.80937E-004,9.59574E-001,0.00000E+000,1.60932E-003,-8.20647E-002,1.00000E+000,16
859,1337,-1.53663E+000,1.07817E-001,-2.69209E-003,3.31804E+000,-5.27867E-001,4.61342E-002,3.36009E+000,9.81907E-003,5.41854E-001,0,5.10588E+001,-8.78115E+000,9.98618E-001,6.83291E+000,-4.45800E+001,9.98223E-001,1.08261E-001,-4.46306E-002,-2.92096E-003,1.08317E-001,-4.46864E-002,-1.09409E+000,1.08868E-001,1.11433E+000,-5.81497E-003,0.00000E+000,-6.36473E-004,9.59578E-001,0.00000E+000,2.01981E-005,-8.21044E-002,1.00000E+000,16
859,1347,-1.51579E+000,7.29002E-001,-5.23751E-003,3.31643E+000,-5.55375E-001,-1.77792E-003,3.36261E+000,1.35784E-002,5.04521E-001,0,5.11841E+001,-9.10933E+000,9.99199E-001,7.26296E+000,-4.50099E+001,9.98773E-001,1.07372E-001,-4.46300E-002,-2.92783E-003,1.07429E-001,-4.46863E-002,-1.10307E+000,1.07933E-001,1.11334E+000,-5.84844E-003,0.00000E+000,-4.91435E-004,9.59582E-001,0.00000E+000,-1.57525E-003,-8.21584E-002,1.00000E+000,16
859,1307,-1.57174E+000,-1.71873E+000,2.03361E-001,3.31470E+000,-4.34743E-001,2.15701E-001,3.35004E+000,1.27052E-002,6.07566E-001,0,5.04486E+001,-7.65064E+000,9.98879E-001,6.43567E+000,-4.31764E+001,9.98348E-001,1.10888E-001,-4.46316E-002,-2.92403E-003,1.10943E-001,-4.46866E-002,-1.07675E+000,1.11639E-001,1.11728E+000,-5.76722E-003,0.00000E+000,-1.06813E-003,9.59571E-001,0.00000E+000,4.76851E-003,-8.20275E-002,1.00000E+000,16
859,1317,-1.56391E+000,-1.12097E+000,9.89472E-002,3.31819E+000,-4.72439E-001,1.53713E-001,3.35518E+000,9.68897E-003,5.11412E-001,0,5.07122E+001,-8.08361E+000,9.98902E-001,6.42348E+000,-4.37764E+001,9.97636E-001,1.10019E-001,-4.46315E-002,-2.91890E-003,1.10074E-001,-4.46865E-002,-1.08090E+000,1.10721E-001,1.11630E+000,-5.77391E-003,0.00000E+000,-9.24807E-004,9.59572E-001,0.00000E+000,3.19193E-003,-8.20383E-002,1.00000E+000,16
999,1337,8.60742E+000,3.19963E-001,-3.00938E-002,4.31509E+000,-4.07490E-001,-5.16724E-002,4.33460E+000,9.45416E-003,4.38078E-001,0,6.60336E+001,-6.82550E+000,9.99488E-001,2.35613E+001,-3.99167E+001,9.98914E-001,1.03481E-001,-4.26182E-002,1.06113E-003,1.03489E-001,-4.26259E-002,4.16115E-001,1.04023E-001,1.10875E+000,-2.63113E-002,0.00000E+000,2.53529E-002,9.60092E-001,0.00000E+000,-9.82687E-003,-6.67606E-002,1.00000E+000,16
999,1347,8.62081E+000,9.49978E-001,-2.37427E-002,4.30324E+000,-4.30898E-001,-9.11403E-002,4.32572E+000,8.13228E-003,4.00644E-001,0,6.59843E+001,-7.08910E+000,9.99637E-001,2.38731E+001,-4.02073E+001,9.99096E-001,1.03185E-001,-4.26020E-002,1.17900E-003,1.03195E-001,-4.26115E-002,4.63319E-001,1.03715E-001,1.10841E+000,-2.63247E-002,0.00000E+000,2.54626E-002,9.60096E-001,0.00000E+000,-7.71676E-003,-6.66787E-002,1.00000E+000,16
999,1307,8.62177E+000,-1.52233E+000,1.10243E-001,4.36776E+000,-3.20163E-001,6.27093E-002,4.37992E+000,7.27722E-003,4.63799E-001,0,6.64252E+001,-5.62563E+000,9.99323E-001,2.37956E+001,-3.87031E+001,9.99021E-001,1.04334E-001,-4.26519E-002,7.01275E-004,1.04338E-001,-4.26552E-002,2.73352E-001,1.04914E-001,1.10978E+000,-2.62909E-002,0.00000E+000,2.50270E-002,9.60085E-001,0.00000E+000,-1.60960E-002,-6.68849E-002,1.00000E+000,16
999,1317,8.60955E+000,-9.09380E-001,3.98400E-002,4.34818E+000,-3.48456E-001,2.49149E-002,4.36219E+000,1.18410E-002,4.90787E-001,0,6.62661E+001,-6.00750E+000,9.98765E-001,2.35547E+001,-3.90565E+001,9.96650E-001,1.04054E-001,-4.26428E-002,8.22574E-004,1.04059E-001,-4.26474E-002,3.21261E-001,1.04621E-001,1.10944E+000,-2.62948E-002,0.00000E+000,2.51356E-002,9.60087E-001,0.00000E+000,-1.40070E-002,-6.68610E-002,1.00000E+000,16
999,1327,8.60826E+000,-3.00487E-001,-8.75420E-003,4.33402E+000,-3.83240E-001,-1.53578E-002,4.35096E+000,1.42314E-002,4.96907E-001,0,6.61969E+001,-6.49123E+000,9.98960E-001,2.35262E+001,-3.95293E+001,9.97567E-001,1.03770E-001,-4.26315E-002,9.42611E-004,1.03776E-001,-4.26376E-002,3.68881E-001,1.04324E-001,1.10909E+000,-2.63017E-002,0.00000E+000,2.52443E-002,9.60089E-001,0.00000E+000,-1.19159E-002,-6.68193E-002,1.00000E+000,16
999,1297,8.63904E+000,-2.13395E+000,2.06677E-001,4.39036E+000,-2.91813E-001,1.17577E-001,4.40161E+000,7.97282E-003,4.70763E-001,0,6.65676E+001,-5.29634E+000,9.98891E-001,2.41665E+001,-3.83666E+001,9.97324E-001,1.04609E-001,-4.26601E-002,5.79512E-004,1.04612E-001,-4.26624E-002,2.25457E-001,1.05203E-001,1.11012E+000,-2.62881E-002,0.00000E+000,2.49186E-002,9.60084E-001,0.00000E+000,-1.81828E-002,-6.69023E-002,1.00000E+000,16
849,1337,-2.25957E+000,1.06731E-001,2.51281E-003,3.24239E+000,-5.25659E-001,4.33873E-002,3.28501E+000,1.20741E-002,5.69843E-001,0,4.99368E+001,-8.72267E+000,9.98993E-001,5.70596E+000,-4.46937E+001,9.98766E-001,1.08572E-001,-4.45521E-002,-2.69126E-003,1.08620E-001,-4.45994E-002,-1.00659E+000,1.09197E-001,1.11468E+000,-4.73005E-003,0.00000E+000,-1.12351E-003,9.59574E-001,0.00000E+000,7.74818E-006,-8.11193E-002,1.00000E+000,16
849,1347,-2.24296E+000,7.23928E-001,-4.83779E-003,3.23934E+000,-5.53944E-001,3.34367E-003,3.28637E+000,1.06900E-002,4.95027E-001,0,5.00158E+001,-9.07888E+000,9.99138E-001,6.06035E+000,-4.51958E+001,9.99114E-001,1.07966E-001,-4.45519E-002,-2.69751E-003,1.08014E-001,-4.45996E-002,-1.01294E+000,1.08559E-001,1.11401E+000,-4.75009E-003,0.00000E+000,-9.91959E-004,9.59578E-001,0.00000E+000,-1.59247E-003,-8.11668E-002,1.00000E+000,16
849,1357,-2.21255E+000,1.35418E+000,3.25925E-002,3.23966E+000,-5.78769E-001,-4.25903E-002,3.29123E+000,9.13386E-003,4.91267E-001,0,5.01582E+001,-9.37484E+000,9.99237E-001,6.73467E+000,-4.55615E+001,9.99184E-001,1.07352E-001,-4.45516E-002,-2.70858E-003,1.07400E-001,-4.45999E-002,-1.02121E+000,1.07913E-001,1.11333E+000,-4.78069E-003,0.00000E+000,-8.59102E-004,9.59584E-001,0.00000E+000,-3.20856E-003,-8.12394E-002,1.00000E+000,16
849,1327,-2.27195E+000,-5.05256E-001,4.09856E-002,3.24524E+000,-4.93768E-001,9.27626E-002,3.28390E+000,1.18486E-002,5.38314E-001,0,4.98211E+001,-8.30417E+000,9.99183E-001,5.49157E+000,-4.42338E+001,9.98828E-001,1.09175E-001,-4.45523E-002,-2.68707E-003,1.09222E-001,-4.45992E-002,-1.00109E+000,1.09832E-001,1.11536E+000,-4.71446E-003,0.00000E+000,-1.25502E-003,9.59571E-001,0.00000E+000,1.60741E-003,-8.10823E-002,1.00000E+000,16
1009,1337,9.33831E+000,3.52066E-001,-3.73612E-002,4.39220E+000,-3.82177E-001,-5.05384E-002,4.40908E+000,1.19403E-002,4.51409E-001,0,6.71487E+001,-6.42617E+000,9.99541E-001,2.48773E+001,-3.92998E+001,9.99292E-001,1.03426E-001,-4.25954E-002,8.23243E-004,1.03431E-001,-4.26000E-002,3.23010E-001,1.03965E-001,1.10867E+000,-2.65115E-002,0.00000E+000,2.49454E-002,9.59996E-001,0.00000E+000,-8.07181E-003,-6.47863E-002,1.00000E+000,16
1009,1347,9.34779E+000,9.67000E-001,-2.45449E-002,4.37422E+000,-4.20278E-001,-9.26506E-002,4.39534E+000,8.19027E-003,4.04924E-001,0,6.70204E+001,-6.93591E+000,9.99787E-001,2.51373E+001,-3.98413E+001,9.99524E-001,1.03320E-001,-4.25820E-002,9.19534E-004,1.03326E-001,-4.25878E-002,3.61082E-001,1.03856E-001,1.10854E+000,-2.65169E-002,0.00000E+000,2.50269E-002,9.60000E-001,0.00000E+000,-6.29017E-003,-6.47112E-002,1.00000E+000,16
1009,1297,9.36374E+000,-2.11313E+000,1.97499E-001,4.45855E+000,-2.76241E-001,1.02962E-001,4.46828E+000,9.97518E-003,4.19501E-001,0,6.76009E+001,-5.01926E+000,9.98138E-001,2.53829E+001,-3.79603E+001,9.97314E-001,1.03815E-001,-4.26275E-002,4.33897E-004,1.03816E-001,-4.26288E-002,1.69761E-001,1.04367E-001,1.10918E+000,-2.65034E-002,0.00000E+000,2.46215E-002,9.59991E-001,0.00000E+000,-1.51449E-002,-6.48985E-002,1.00000E+000,16
1009,1307,9.35077E+000,-1.49986E+000,1.08735E-001,4.44022E+000,-3.02412E-001,5.58124E-002,4.45086E+000,9.88422E-003,4.23411E-001,0,6.74962E+001,-5.34924E+000,9.98940E-001,2.50944E+001,-3.82797E+001,9.98837E-001,1.03722E-001,-4.26210E-002,5.31508E-004,1.03724E-001,-4.26229E-002,2.08090E-001,1.04272E-001,1.10905E+000,-2.65045E-002,0.00000E+000,2.47023E-002,9.59992E-001,0.00000E+000,-1.33816E-002,-6.48837E-002,1.00000E+000,16
1009,1317,9.34364E+000,-8.86782E-001,4.14579E-002,4.42539E+000,-3.30674E-001,1.99176E-002,4.43777E+000,1.01845E-002,4.55924E-001,0,6.74032E+001,-5.74318E+000,9.99287E-001,2.49386E+001,-3.86328E+001,9.98754E-001,1.03627E-001,-4.26138E-002,6.29017E-004,1.03630E-001,-4.26165E-002,2.46437E-001,1.04173E-001,1.10893E+000,-2.65060E-002,0.00000E+000,2.47831E-002,9.59993E-001,0.00000E+000,-1.16152E-002,-6.48626E-002,1.00000E+000,16
849,1317,-2.28757E+000,-1.11360E+000,1.05985E-001,3.24180E+000,-4.61140E-001,1.53797E-001,3.27804E+000,1.28825E-002,5.88980E-001,0,4.95690E+001,-7.92956E+000,9.98909E-001,5.29013E+000,-4.37352E+001,9.98056E-001,1.09773E-001,-4.45524E-002,-2.68430E-003,1.09820E-001,-4.45991E-002,-9.96188E-001,1.10463E-001,1.11603E+000,-4.70197E-003,0.00000E+000,-1.38612E-003,9.59569E-001,0.00000E+000,3.20218E-003,-8.10527E-002,1.00000E+000,16
1009,1327,9.33853E+000,-2.70919E-001,-5.21202E-003,4.40564E+000,-3.60437E-001,-2.56126E-002,4.42044E+000,1.01613E-002,4.57000E-001,0,6.72661E+001,-6.12429E+000,9.99476E-001,2.48552E+001,-3.90035E+001,9.99209E-001,1.03528E-001,-4.26044E-002,7.26178E-004,1.03532E-001,-4.26080E-002,2.84712E-001,1.04070E-001,1.10880E+000,-2.65089E-002,0.00000E+000,2.48643E-002,9.59995E-001,0.00000E+000,-9.84284E-003,-6.48225E-002,1.00000E+000,16
849,1307,-2.29934E+000,-1.71814E+000,1.99319E-001,3.23437E+000,-4.29468E-001,2.04856E-001,3.26918E+000,1.45487E-002,5.96919E-001,0,4.92837E+001,-7.53669E+000,9.98783E-001,5.21579E+000,-4.32590E+001,9.98064E-001,1.10366E-001,-4.45525E-002,-2.68506E-003,1.10413E-001,-4.45990E-002,-9.92655E-001,1.11090E-001,1.11670E+000,-4.69739E-003,0.00000E+000,-1.51675E-003,9.59568E-001,0.00000E+000,4.79115E-003,-8.10418E-002,1.00000E+000,16
839,1337,-2.98198E+000,1.00257E-001,3.10969E-002,3.16659E+000,-5.27100E-001,6.25038E-002,3.21077E+000,2.39980E-002,5.42614E-001,0,4.87419E+001,-8.77241E+000,9.99116E-001,4.64657E+000,-4.49692E+001,9.98588E-001,1.08666E-001,-4.45951E-002,-2.34104E-003,1.08702E-001,-4.46308E-002,-8.74912E-001,1.09280E-001,1.11479E+000,-3.85772E-003,0.00000E+000,-1.16512E-003,9.59420E-001,0.00000E+000,-4.10809E-004,-7.96693E-002,1.00000E+000,16
839,1347,-2.96705E+000,7.17036E-001,-1.98758E-003,3.16397E+000,-5.54552E-001,6.22959E-003,3.21221E+000,8.93354E-003,4.91139E-001,0,4.88794E+001,-9.08571E+000,9.99270E-001,4.91526E+000,-4.54120E+001,9.99025E-001,1.08204E-001,-4.45948E-002,-2.34347E-003,1.08240E-001,-4.46308E-002,-8.78467E-001,1.08793E-001,1.11428E+000,-3.87145E-003,0.00000E+000,-1.03209E-003,9.59424E-001,0.00000E+000,-2.04669E-003,-7.97131E-002,1.00000E+000,16
839,1357,-2.93590E+000,1.35048E+000,3.19999E-002,3.16615E+000,-5.75202E-001,-3.88295E-002,3.21821E+000,7.24921E-003,4.79255E-001,0,4.90462E+001,-9.31650E+000,9.99452E-001,5.59595E+000,-4.57265E+001,9.99228E-001,1.07735E-001,-4.45945E-002,-2.34994E-003,1.07771E-001,-4.46307E-002,-8.83606E-001,1.08300E-001,1.11376E+000,-3.89404E-003,0.00000E+000,-8.97732E-004,9.59430E-001,0.00000E+000,-3.69882E-003,-7.97851E-002,1.00000E+000,16
1019,1337,1.00729E+001,3.78729E-001,-2.78700E-002,4.46640E+000,-3.65781E-001,-5.92445E-002,4.48174E+000,1.05699E-002,4.94078E-001,0,6.82522E+001,-6.16371E+000,9.99379E-001,2.62859E+001,-3.87887E+001,9.99248E-001,1.03315E-001,-4.25755E-002,5.85709E-004,1.03318E-001,-4.25779E-002,2.30021E-001,1.03848E-001,1.10853E+000,-2.66093E-002,0.00000E+000,2.44608E-002,9.59934E-001,0.00000E+000,-6.32480E-003,-6.33177E-002,1.00000E+000,16
1019,1347,1.00746E+001,9.93274E-001,-3.07051E-002,4.44632E+000,-4.01426E-001,-9.18233E-002,4.46535E+000,9.50695E-003,4.43777E-001,0,6.80617E+001,-6.64553E+000,9.99542E-001,2.63942E+001,-3.93032E+001,9.99451E-001,1.03339E-001,-4.25650E-002,6.77232E-004,1.03342E-001,-4.25681E-002,2.65937E-001,1.03876E-001,1.10855E+000,-2.66086E-002,0.00000E+000,2.45417E-002,9.59937E-001,0.00000E+000,-4.77459E-003,-6.32657E-002,1.00000E+000,16
839,1327,-3.00526E+000,-5.06092E-001,4.10833E-002,3.16290E+000,-4.87209E-001,1.05481E-001,3.20194E+000,2.15164E-002,5.53124E-001,0,4.85470E+001,-8.22621E+000,9.99415E-001,4.19679E+000,-4.43390E+001,9.98551E-001,1.09126E-001,-4.45953E-002,-2.33800E-003,1.09162E-001,-4.46309E-002,-8.71161E-001,1.09765E-001,1.11530E+000,-3.84240E-003,0.00000E+000,-1.29844E-003,9.59416E-001,0.00000E+000,1.22863E-003,-7.96205E-002,1.00000E+000,16
1019,1327,1.00687E+001,-2.48289E-001,-9.86626E-003,4.48050E+000,-3.44065E-001,-2.71846E-002,4.49378E+000,1.02371E-002,4.51645E-001,0,6.83567E+001,-5.86436E+000,9.99324E-001,2.61690E+001,-3.85499E+001,9.99041E-001,1.03289E-001,-4.25851E-002,4.94160E-004,1.03290E-001,-4.25868E-002,1.94091E-001,1.03819E-001,1.10851E+000,-2.66098E-002,0.00000E+000,2.43799E-002,9.59932E-001,0.00000E+000,-7.87420E-003,-6.33612E-002,1.00000E+000,16
1019,1317,1.00731E+001,-8.67013E-001,4.10174E-002,4.49599E+000,-3.18169E-001,6.45712E-003,4.50724E+000,1.14344E-002,4.41943E-001,0,6.84698E+001,-5.52833E+000,9.99402E-001,2.62502E+001,-3.82388E+001,9.98724E-001,1.03260E-001,-4.25926E-002,4.02892E-004,1.03261E-001,-4.25938E-002,1.58268E-001,1.03787E-001,1.10849E+000,-2.66102E-002,0.00000E+000,2.42993E-002,9.59931E-001,0.00000E+000,-9.41910E-003,-6.33875E-002,1.00000E+000,16
839,1317,-3.01437E+000,-1.11419E+000,1.07222E-001,3.16176E+000,-4.55963E-001,1.47361E-001,3.19787E+000,1.09491E-002,5.42819E-001,0,4.83911E+001,-7.82412E+000,9.98941E-001,4.09878E+000,-4.38669E+001,9.97367E-001,1.09581E-001,-4.45954E-002,-2.33899E-003,1.09617E-001,-4.46309E-002,-8.68961E-001,1.10245E-001,1.11581E+000,-3.83611E-003,0.00000E+000,-1.43108E-003,9.59415E-001,0.00000E+000,2.85960E-003,-7.96004E-002,1.00000E+000,16
1019,1297,1.00883E+001,-2.09100E+000,1.80837E-001,4.52755E+000,-2.59053E-001,8.69310E-002,4.53579E+000,1.08998E-002,4.20655E-001,0,6.86508E+001,-4.73262E+000,9.99298E-001,2.65875E+001,-3.74920E+001,9.98632E-001,1.03196E-001,-4.26060E-002,2.20816E-004,1.03196E-001,-4.26064E-002,8.67740E-002,1.03717E-001,1.10846E+000,-2.66107E-002,0.00000E+000,2.41386E-002,9.59929E-001,0.00000E+000,-1.24985E-002,-6.34266E-002,1.00000E+000,16
1019,1307,1.00750E+001,-1.47808E+000,9.94959E-002,4.50805E+000,-2.87847E-001,4.41143E-002,4.51744E+000,1.40997E-002,4.65834E-001,0,6.85143E+001,-5.10794E+000,9.99443E-001,2.63078E+001,-3.78100E+001,9.98664E-001,1.03229E-001,-4.25999E-002,3.11966E-004,1.03230E-001,-4.26006E-002,1.22570E-001,1.03753E-001,1.10848E+000,-2.66105E-002,0.00000E+000,2.42190E-002,9.59929E-001,0.00000E+000,-1.09569E-002,-6.34118E-002,1.00000E+000,16
839,1307,-3.01987E+000,-1.71649E+000,2.00682E-001,3.16009E+000,-4.22222E-001,1.96225E-001,3.19421E+000,9.25589E-003,5.23382E-001,0,4.82015E+001,-7.38731E+000,9.98748E-001,4.12263E+000,-4.33673E+001,9.97308E-001,1.10032E-001,-4.45955E-002,-2.34142E-003,1.10067E-001,-4.46309E-002,-8.67328E-001,1.10721E-001,1.11632E+000,-3.83302E-003,0.00000E+000,-1.56329E-003,9.59414E-001,0.00000E+000,4.48538E-003,-7.95906E-002,1.00000E+000,16
829,1337,-3.70945E+000,9.79415E-002,1.52223E-002,3.08855E+000,-5.21544E-001,5.29533E-002,3.13273E+000,1.65136E-002,5.35532E-001,0,4.76023E+001,-8.66817E+000,9.98772E-001,3.40912E+000,-4.50747E+001,9.97919E-001,1.08442E-001,-4.45487E-002,-1.94868E-003,1.08466E-001,-4.45735E-002,-7.29636E-001,1.09038E-001,1.11454E+000,-3.18773E-003,0.00000E+000,-9.48900E-004,9.59356E-001,0.00000E+000,-8.85064E-004,-7.82443E-002,1.00000E+000,16
829,1347,-3.68820E+000,7.16408E-001,5.84922E-003,3.08983E+000,-5.50446E-001,7.85651E-003,3.13849E+000,7.78900E-003,5.10692E-001,0,4.77621E+001,-9.01881E+000,9.98819E-001,3.83296E+000,-4.55309E+001,9.98625E-001,1.08084E-001,-4.45514E-002,-1.99718E-003,1.08110E-001,-4.45776E-002,-7.49524E-001,1.08662E-001,1.11414E+000,-3.19983E-003,0.00000E+000,-9.06592E-004,9.59357E-001,0.00000E+000,-2.54607E-003,-7.82950E-002,1.00000E+000,16
829,1357,-3.66002E+000,1.34737E+000,3.20313E-002,3.09069E+000,-5.72459E-001,-3.79816E-002,3.14349E+000,7.70065E-003,5.11433E-001,0,4.79116E+001,-9.27285E+000,9.99285E-001,4.45089E+000,-4.58623E+001,9.99227E-001,1.07721E-001,-4.45551E-002,-2.04799E-003,1.07749E-001,-4.45826E-002,-7.70398E-001,1.08281E-001,1.11375E+000,-3.21635E-003,0.00000E+000,-8.64062E-004,9.59359E-001,0.00000E+000,-4.21577E-003,-7.83643E-002,1.00000E+000,16
1029,1337,1.07907E+001,3.95140E-001,-3.93512E-002,4.52929E+000,-3.53856E-001,-6.36193E-002,4.54354E+000,9.60413E-003,4.48223E-001,0,6.91728E+001,-5.96695E+000,9.99111E-001,2.73974E+001,-3.84367E+001,9.98641E-001,1.03334E-001,-4.24037E-002,4.00190E-004,1.03336E-001,-4.24048E-002,1.57330E-001,1.03888E-001,1.10855E+000,-2.65662E-002,0.00000E+000,2.39541E-002,9.60042E-001,0.00000E+000,-4.45694E-003,-6.22060E-002,1.00000E+000,16
1029,1347,1.07955E+001,1.02195E+000,-3.71456E-002,4.51122E+000,-3.79044E-001,-9.49742E-002,4.52811E+000,8.98056E-003,4.69604E-001,0,6.90044E+001,-6.31053E+000,9.99309E-001,2.75627E+001,-3.87348E+001,9.98781E-001,1.03477E-001,-4.23920E-002,5.02675E-004,1.03479E-001,-4.23937E-002,1.97442E-001,1.04040E-001,1.10870E+000,-2.65608E-002,0.00000E+000,2.40586E-002,9.60046E-001,0.00000E+000,-3.03266E-003,-6.21561E-002,1.00000E+000,16
1029,1327,1.07942E+001,-2.27603E-001,-1.14611E-002,4.54861E+000,-3.28717E-001,-3.32494E-002,4.56059E+000,1.02108E-002,4.35765E-001,0,6.93584E+001,-5.63556E+000,9.99180E-001,2.74213E+001,-3.81393E+001,9.98710E-001,1.03190E-001,-4.24132E-002,2.98650E-004,1.03190E-001,-4.24139E-002,1.17520E-001,1.03734E-001,1.10839E+000,-2.65700E-002,0.00000E+000,2.38500E-002,9.60040E-001,0.00000E+000,-5.87703E-003,-6.22402E-002,1.00000E+000,16
829,1327,-3.72863E+000,-5.09707E-001,3.82981E-002,3.08497E+000,-4.85695E-001,9.00643E-002,3.12426E+000,1.51854E-002,5.48394E-001,0,4.74276E+001,-8.17680E+000,9.99223E-001,3.05236E+000,-4.44895E+001,9.98878E-001,1.08795E-001,-4.45466E-002,-1.90162E-003,1.08819E-001,-4.45701E-002,-7.10390E-001,1.09410E-001,1.11493E+000,-3.17828E-003,0.00000E+000,-9.91042E-004,9.59355E-001,0.00000E+000,7.69405E-004,-7.82046E-002,1.00000E+000,16
829,1307,-3.73378E+000,-1.72311E+000,2.16395E-001,3.09212E+000,-4.23960E-001,2.02444E-001,3.12761E+000,1.10279E-002,4.72115E-001,0,4.71701E+001,-7.40998E+000,9.99029E-001,3.16853E+000,-4.36218E+001,9.97281E-001,1.09491E-001,-4.45447E-002,-1.81309E-003,1.09512E-001,-4.45661E-002,-6.74280E-001,1.10142E-001,1.11572E+000,-3.17075E-003,0.00000E+000,-1.07493E-003,9.59354E-001,0.00000E+000,4.06265E-003,-7.81730E-002,1.00000E+000,16
829,1317,-3.73604E+000,-1.11836E+000,1.08934E-001,3.08679E+000,-4.54854E-001,1.43168E-001,3.12340E+000,1.27032E-002,5.09370E-001,0,4.72834E+001,-7.78259E+000,9.98956E-001,2.99127E+000,-4.40479E+001,9.98354E-001,1.09145E-001,-4.45452E-002,-1.85646E-003,1.09167E-001,-4.45677E-002,-6.91953E-001,1.09778E-001,1.11533E+000,-3.17266E-003,0.00000E+000,-1.03305E-003,9.59354E-001,0.00000E+000,2.41855E-003,-7.81810E-002,1.00000E+000,16
1029,1317,1.07992E+001,-8.48512E-001,3.45995E-002,4.56495E+000,-3.06458E-001,-3.22941E-003,4.57523E+000,1.13321E-002,4.49141E-001,0,6.94985E+001,-5.33058E+000,9.99454E-001,2.75016E+001,-3.78415E+001,9.98666E-001,1.03044E-001,-4.24214E-002,1.98009E-004,1.03044E-001,-4.24217E-002,7.79914E-002,1.03579E-001,1.10824E+000,-2.65727E-002,0.00000E+000,2.37463E-002,9.60038E-001,0.00000E+000,-7.28967E-003,-6.22651E-002,1.00000E+000,16
1029,1307,1.08076E+001,-1.45971E+000,1.06107E-001,4.58220E+000,-2.76350E-001,4.11088E-002,4.59071E+000,1.04659E-002,4.88069E-001,0,6.95954E+001,-4.94479E+000,9.99538E-001,2.76861E+001,-3.74359E+001,9.97536E-001,1.02896E-001,-4.24288E-002,9.77346E-005,1.02896E-001,-4.24289E-002,3.85327E-002,1.03422E-001,1.10809E+000,-2.65748E-002,0.00000E+000,2.36429E-002,9.60036E-001,0.00000E+000,-8.69994E-003,-6.22843E-002,1.00000E+000,16
1029,1297,1.08192E+001,-2.06856E+000,1.85878E-001,4.60036E+000,-2.43472E-001,8.41010E-002,4.60757E+000,9.75509E-003,4.73622E-001,0,6.97084E+001,-4.51450E+000,9.99344E-001,2.79350E+001,-3.70380E+001,9.97890E-001,1.02746E-001,-4.24355E-002,-2.54439E-006,1.02746E-001,-4.24355E-002,-1.00414E-003,1.03263E-001,1.10793E+000,-2.65764E-002,0.00000E+000,2.35392E-002,9.60035E-001,0.00000E+000,-1.01127E-002,-6.22988E-002,1.00000E+000,16
819,1317,-4.45457E+000,-1.12643E+000,1.19111E-001,3.01382E+000,-4.58436E-001,1.43798E-001,3.05187E+000,1.22913E-002,4.91149E-001,0,4.61906E+001,-7.82866E+000,9.98784E-001,1.95634E+000,-4.42993E+001,9.97635E-001,1.08371E-001,-4.43755E-002,-1.47219E-003,1.08385E-001,-4.43897E-002,-5.52153E-001,1.08975E-001,1.11446E+000,-2.83968E-003,0.00000E+000,-5.27676E-004,9.59403E-001,0.00000E+000,1.78416E-003,-7.66513E-002,1.00000E+000,16
819,1327,-4.45052E+000,-5.20183E-001,4.44974E-002,3.01092E+000,-4.89617E-001,9.76405E-002,3.05203E+000,1.24463E-002,5.18354E-001,0,4.62964E+001,-8.24158E+000,9.99139E-001,1.95558E+000,-4.47779E+001,9.97987E-001,1.08100E-001,-4.43775E-002,-1.55619E-003,1.08116E-001,-4.43934E-002,-5.84682E-001,1.08690E-001,1.11416E+000,-2.84297E-003,0.00000E+000,-5.74569E-004,9.59402E-001,0.00000E+000,2.66833E-004,-7.66678E-002,1.00000E+000,16
819,1337,-4.43282E+000,9.64773E-002,1.28010E-002,3.01384E+000,-5.16717E-001,5.53146E-002,3.05831E+000,9.89689E-003,5.35299E-001,0,4.64742E+001,-8.58482E+000,9.98808E-001,2.27135E+000,-4.51925E+001,9.98440E-001,1.07824E-001,-4.43815E-002,-1.64239E-003,1.07842E-001,-4.43992E-002,-6.18161E-001,1.08401E-001,1.11385E+000,-2.84996E-003,0.00000E+000,-6.21753E-004,9.59401E-001,0.00000E+000,-1.25994E-003,-7.67026E-002,1.00000E+000,16
819,1307,-4.45951E+000,-1.72785E+000,2.08544E-001,3.01277E+000,-4.25810E-001,1.89618E-001,3.04861E+000,1.20794E-002,5.22336E-001,0,4.60230E+001,-7.40219E+000,9.98953E-001,1.98018E+000,-4.37485E+001,9.97599E-001,1.08639E-001,-4.43743E-002,-1.38916E-003,1.08652E-001,-4.43869E-002,-5.20112E-001,1.09256E-001,1.11477E+000,-2.83782E-003,0.00000E+000,-4.80965E-004,9.59403E-001,0.00000E+000,3.29563E-003,-7.66421E-002,1.00000E+000,16
819,1347,-4.40893E+000,7.19098E-001,4.98023E-003,3.01753E+000,-5.41801E-001,9.89491E-003,3.06580E+000,8.75703E-003,5.28166E-001,0,4.66700E+001,-8.87992E+000,9.99278E-001,2.74145E+000,-4.55806E+001,9.99229E-001,1.07545E-001,-4.43868E-002,-1.73010E-003,1.07565E-001,-4.44065E-002,-6.52335E-001,1.08108E-001,1.11354E+000,-2.85949E-003,0.00000E+000,-6.69107E-004,9.59400E-001,0.00000E+000,-2.79221E-003,-7.67501E-002,1.00000E+000,16
819,1357,-4.38266E+000,1.33957E+000,3.46452E-002,3.01615E+000,-5.74282E-001,-3.52635E-002,3.07054E+000,1.09703E-002,5.29467E-001,0,4.67852E+001,-9.30130E+000,9.99039E-001,3.33871E+000,-4.60832E+001,9.98945E-001,1.07263E-001,-4.43940E-002,-1.81988E-003,1.07284E-001,-4.44159E-002,-6.87418E-001,1.07812E-001,1.11324E+000,-2.87251E-003,0.00000E+000,-7.16681E-004,9.59398E-001,0.00000E+000,-4.33161E-003,-7.68151E-002,1.00000E+000,16
1039,1337,1.15186E+001,4.17658E-001,-4.53092E-002,4.60022E+000,-3.38184E-001,-6.93212E-002,4.61316E+000,8.63936E-003,4.73720E-001,0,7.02159E+001,-5.72560E+000,9.99401E-001,2.86809E+001,-3.79656E+001,9.98301E-001,1.03353E-001,-4.21538E-002,8.11805E-005,1.03353E-001,-4.21538E-002,3.19662E-002,1.03937E-001,1.10857E+000,-2.65322E-002,0.00000E+000,2.32109E-002,9.60256E-001,0.00000E+000,-2.69505E-003,-6.15029E-002,1.00000E+000,16
1039,1347,1.15219E+001,1.03498E+000,-4.10749E-002,4.58086E+000,-3.70778E-001,-9.68727E-002,4.59687E+000,8.60036E-003,4.05764E-001,0,7.00181E+001,-6.17911E+000,9.99610E-001,2.88231E+001,-3.84580E+001,9.99104E-001,1.03597E-001,-4.21462E-002,1.52593E-004,1.03597E-001,-4.21464E-002,5.99886E-002,1.04195E-001,1.10884E+000,-2.65229E-002,0.00000E+000,2.32584E-002,9.60258E-001,0.00000E+000,-1.39723E-003,-6.14580E-002,1.00000E+000,16
1039,1317,1.15239E+001,-8.22469E-001,2.87756E-002,4.63382E+000,-2.85190E-001,-5.03977E-003,4.64259E+000,8.79197E-003,4.49102E-001,0,7.04932E+001,-5.01434E+000,9.99372E-001,2.87383E+001,-3.73327E+001,9.98615E-001,1.02862E-001,-4.21656E-002,-5.86331E-005,1.02862E-001,-4.21656E-002,-2.31641E-002,1.03417E-001,1.10803E+000,-2.65439E-002,0.00000E+000,2.31159E-002,9.60254E-001,0.00000E+000,-5.28754E-003,-6.15590E-002,1.00000E+000,16
1039,1327,1.15214E+001,-2.06972E-001,-1.46251E-002,4.61910E+000,-3.13228E-001,-3.54600E-002,4.62984E+000,8.11322E-003,4.22552E-001,0,7.03816E+001,-5.40629E+000,9.99419E-001,2.86994E+001,-3.77245E+001,9.98606E-001,1.03108E-001,-4.21601E-002,1.07013E-005,1.03108E-001,-4.21601E-002,4.22078E-003,1.03676E-001,1.10830E+000,-2.65388E-002,0.00000E+000,2.31632E-002,9.60255E-001,0.00000E+000,-3.99622E-003,-6.15348E-002,1.00000E+000,16
1039,1307,1.15332E+001,-1.43925E+000,9.00070E-002,4.65238E+000,-2.59876E-001,3.09068E-002,4.65974E+000,9.39113E-003,4.51236E-001,0,7.06416E+001,-4.67072E+000,9.99317E-001,2.89150E+001,-3.70116E+001,9.98345E-001,1.02615E-001,-4.21705E-002,-1.27448E-004,1.02615E-001,-4.21706E-002,-5.04351E-002,1.03156E-001,1.10776E+000,-2.65477E-002,0.00000E+000,2.30687E-002,9.60253E-001,0.00000E+000,-6.57771E-003,-6.15776E-002,1.00000E+000,16
1039,1297,1.15461E+001,-2.05125E+000,1.72685E-001,4.67138E+000,-2.30649E-001,7.43365E-002,4.67766E+000,9.47835E-003,4.32630E-001,0,7.07655E+001,-4.28966E+000,9.98900E-001,2.91899E+001,-3.66724E+001,9.98229E-001,1.02366E-001,-4.21748E-002,-1.95735E-004,1.02366E-001,-4.21750E-002,-7.75891E-002,1.02893E-001,1.10749E+000,-2.65503E-002,0.00000E+000,2.30214E-002,9.60253E-001,0.00000E+000,-7.86809E-003,-6.15898E-002,1.00000E+000,16
1049,1337,1.22523E+001,4.37834E-001,-5.29564E-002,4.67583E+000,-3.22824E-001,-7.96920E-002,4.68764E+000,1.29919E-002,4.41462E-001,0,7.13450E+001,-5.48911E+000,9.99654E-001,3.00551E+001,-3.75551E+001,9.98873E-001,1.03326E-001,-4.20815E-002,-3.68410E-004,1.03327E-001,-4.20825E-002,-1.45165E-001,1.03918E-001,1.10854E+000,-2.64681E-002,0.00000E+000,2.22200E-002,9.60279E-001,0.00000E+000,-1.45708E-003,-6.03275E-002,1.00000E+000,16
1049,1347,1.22611E+001,1.06029E+000,-3.58498E-002,4.65959E+000,-3.54218E-001,-1.03903E-001,4.67419E+000,1.07335E-002,4.43131E-001,0,7.11807E+001,-5.93165E+000,9.99511E-001,3.03065E+001,-3.79595E+001,9.98563E-001,1.03685E-001,-4.20787E-002,-3.34582E-004,1.03686E-001,-4.20795E-002,-1.31514E-001,1.04297E-001,1.10894E+000,-2.64529E-002,0.00000E+000,2.22117E-002,9.60279E-001,0.00000E+000,-5.52905E-004,-6.02930E-002,1.00000E+000,16
1049,1307,1.22662E+001,-1.41514E+000,1.02700E-001,4.72577E+000,-2.41370E-001,3.30481E-002,4.73204E+000,1.28520E-002,3.87277E-001,0,7.16862E+001,-4.39000E+000,9.99384E-001,3.03195E+001,-3.66049E+001,9.98308E-001,1.02252E-001,-4.20873E-002,-4.58910E-004,1.02253E-001,-4.20887E-002,-1.82163E-001,1.02785E-001,1.10735E+000,-2.64900E-002,0.00000E+000,2.22449E-002,9.60279E-001,0.00000E+000,-4.14774E-003,-6.03771E-002,1.00000E+000,16
1049,1317,1.22549E+001,-7.98798E-001,4.01269E-002,4.70480E+000,-2.67972E-001,-5.52325E-003,4.71243E+000,1.09955E-002,4.31156E-001,0,7.15121E+001,-4.76435E+000,9.99108E-001,3.01085E+001,-3.69059E+001,9.97455E-001,1.02610E-001,-4.20855E-002,-4.29373E-004,1.02612E-001,-4.20868E-002,-1.70018E-001,1.03162E-001,1.10774E+000,-2.64841E-002,0.00000E+000,2.22366E-002,9.60279E-001,0.00000E+000,-3.25253E-003,-6.03637E-002,1.00000E+000,16
1049,1327,1.22495E+001,-1.88265E-001,-1.75780E-002,4.69022E+000,-3.00623E-001,-3.66918E-002,4.69999E+000,7.08726E-003,4.08962E-001,0,7.14102E+001,-5.20752E+000,9.99418E-001,2.99961E+001,-3.73402E+001,9.98035E-001,1.02968E-001,-4.20838E-002,-4.00015E-004,1.02969E-001,-4.20849E-002,-1.58005E-001,1.03540E-001,1.10814E+000,-2.64785E-002,0.00000E+000,2.22284E-002,9.60279E-001,0.00000E+000,-2.35674E-003,-6.03511E-002,1.00000E+000,16
809,1347,-5.13789E+000,7.07325E-001,1.01396E-004,2.93691E+000,-5.46076E-001,9.41926E-003,2.98726E+000,7.39140E-003,5.26725E-001,0,4.54602E+001,-8.94651E+000,9.99591E-001,1.51544E+000,-4.58552E+001,9.99460E-001,1.06930E-001,-4.42167E-002,-1.47937E-003,1.06944E-001,-4.42312E-002,-5.60719E-001,1.07475E-001,1.11286E+000,-2.72329E-003,0.00000E+000,-2.88875E-004,9.59458E-001,0.00000E+000,-3.03457E-003,-7.53056E-002,1.00000E+000,16
809,1357,-5.11116E+000,1.33200E+000,3.44716E-002,2.93549E+000,-5.75218E-001,-3.45458E-002,2.99152E+000,9.56027E-003,5.21415E-001,0,4.55689E+001,-9.30614E+000,9.99348E-001,2.13425E+000,-4.63084E+001,9.98865E-001,1.06760E-001,-4.42301E-002,-1.63444E-003,1.06778E-001,-4.42477E-002,-6.20117E-001,1.07298E-001,1.11268E+000,-2.73115E-003,0.00000E+000,-4.75282E-004,9.59450E-001,0.00000E+000,-4.48258E-003,-7.53680E-002,1.00000E+000,16
809,1327,-5.17469E+000,-5.30869E-001,3.28877E-002,2.93418E+000,-4.96321E-001,8.76839E-002,2.97715E+000,8.90161E-003,5.41024E-001,0,4.51782E+001,-8.29699E+000,9.99467E-001,7.84635E-001,-4.50051E+001,9.97892E-001,1.07259E-001,-4.42001E-002,-1.17534E-003,1.07268E-001,-4.42093E-002,-4.44584E-001,1.07819E-001,1.11322E+000,-2.71376E-003,0.00000E+000,8.01755E-005,9.59468E-001,0.00000E+000,-1.67809E-004,-7.52301E-002,1.00000E+000,16
809,1337,-5.15568E+000,8.56503E-002,1.16484E-002,2.93809E+000,-5.22188E-001,5.34639E-002,2.98461E+000,6.49427E-003,5.34561E-001,0,4.53445E+001,-8.65007E+000,9.99473E-001,1.14699E+000,-4.54577E+001,9.99373E-001,1.07096E-001,-4.42075E-002,-1.32684E-003,1.07108E-001,-4.42192E-002,-5.02399E-001,1.07648E-001,1.11304E+000,-2.71798E-003,0.00000E+000,-1.04059E-004,9.59463E-001,0.00000E+000,-1.59893E-003,-7.52636E-002,1.00000E+000,16
809,1307,-5.18478E+000,-1.73108E+000,2.10653E-001,2.93488E+000,-4.24125E-001,1.93665E-001,2.97168E+000,1.45275E-002,5.77836E-001,0,4.48426E+001,-7.39548E+000,9.97329E-001,8.27693E-001,-4.38705E+001,9.95977E-001,1.07578E-001,-4.41942E-002,-8.76376E-004,1.07583E-001,-4.41993E-002,-3.30827E-001,1.08152E-001,1.11358E+000,-2.71072E-003,0.00000E+000,4.46750E-004,9.59471E-001,0.00000E+000,2.67973E-003,-7.52059E-002,1.00000E+000,16
809,1317,-5.17781E+000,-1.13152E+000,1.13820E-001,2.93816E+000,-4.59563E-001,1.41379E-001,2.97725E+000,1.35210E-002,5.54645E-001,0,4.50650E+001,-7.83546E+000,9.99113E-001,8.16079E-001,-4.44319E+001,9.97808E-001,1.07420E-001,-4.41964E-002,-1.02547E-003,1.07427E-001,-4.42033E-002,-3.87501E-001,1.07987E-001,1.11340E+000,-2.71176E-003,0.00000E+000,2.63664E-004,9.59470E-001,0.00000E+000,1.25752E-003,-7.52142E-002,1.00000E+000,16
1049,1297,1.22719E+001,-2.03423E+000,1.72167E-001,4.74007E+000,-2.18413E-001,7.35056E-002,4.74567E+000,1.05386E-002,3.88253E-001,0,7.17529E+001,-4.09485E+000,9.98944E-001,3.04576E+001,-3.63400E+001,9.97183E-001,1.01893E-001,-4.20889E-002,-4.88140E-004,1.01895E-001,-4.20906E-002,-1.94246E-001,1.02407E-001,1.10696E+000,-2.64952E-002,0.00000E+000,2.22532E-002,9.60279E-001,0.00000E+000,-5.04218E-003,-6.03889E-002,1.00000E+000,16
799,1337,-5.87953E+000,7.76984E-002,8.10721E-003,2.86186E+000,-5.23561E-001,5.38596E-002,2.90986E+000,6.68203E-003,5.25505E-001,0,4.41977E+001,-8.66117E+000,9.99561E-001,6.41926E-003,-4.56779E+001,9.99411E-001,1.06108E-001,-4.40251E-002,-9.65400E-004,1.06114E-001,-4.40313E-002,-3.68409E-001,1.06625E-001,1.11194E+000,-2.62237E-003,0.00000E+000,5.29622E-004,9.59530E-001,0.00000E+000,-1.89714E-003,-7.37474E-002,1.00000E+000,16
799,1347,-5.86061E+000,6.97519E-001,-1.13682E-003,2.86232E+000,-5.49186E-001,1.39184E-002,2.91456E+000,8.01709E-003,5.30340E-001,0,4.43259E+001,-8.99435E+000,9.99325E-001,3.98840E-001,-4.61042E+001,9.99155E-001,1.06009E-001,-4.40374E-002,-1.17236E-003,1.06018E-001,-4.40465E-002,-4.47635E-001,1.06522E-001,1.11183E+000,-2.62542E-003,0.00000E+000,2.23220E-004,9.59521E-001,0.00000E+000,-3.15087E-003,-7.37832E-002,1.00000E+000,16
799,1357,-5.83115E+000,1.32694E+000,3.71351E-002,2.86370E+000,-5.73251E-001,-2.70528E-002,2.92064E+000,8.24854E-003,5.16580E-001,0,4.44661E+001,-9.28134E+000,9.99227E-001,1.07274E+000,-4.64984E+001,9.98750E-001,1.05907E-001,-4.40558E-002,-1.38180E-003,1.05920E-001,-4.40685E-002,-5.27878E-001,1.06416E-001,1.11173E+000,-2.63004E-003,0.00000E+000,-8.56848E-005,9.59508E-001,0.00000E+000,-4.41485E-003,-7.38377E-002,1.00000E+000,16
799,1327,-5.89348E+000,-5.41133E-001,4.15287E-002,2.86246E+000,-4.99445E-001,9.80188E-002,2.90736E+000,1.43087E-002,5.39626E-001,0,4.40709E+001,-8.37926E+000,9.99546E-001,-2.49513E-001,-4.52810E+001,9.98188E-001,1.06205E-001,-4.40152E-002,-7.59212E-004,1.06209E-001,-4.40190E-002,-2.89562E-001,1.06726E-001,1.11205E+000,-2.61998E-003,0.00000E+000,8.35379E-004,9.59536E-001,0.00000E+000,-6.46041E-004,-7.37192E-002,1.00000E+000,16
1059,1327,1.29785E+001,-1.71146E-001,-1.78073E-002,4.76094E+000,-2.90004E-001,-3.87659E-002,4.76992E+000,1.12847E-002,4.05559E-001,0,7.24343E+001,-5.04477E+000,9.99496E-001,3.13156E+001,-3.69813E+001,9.98272E-001,1.02954E-001,-4.22065E-002,-6.66743E-004,1.02957E-001,-4.22096E-002,-2.63160E-001,1.03512E-001,1.10814E+000,-2.60065E-002,0.00000E+000,2.12260E-002,9.60136E-001,0.00000E+000,-9.78272E-004,-5.95346E-002,1.00000E+000,16
1059,1337,1.29837E+001,4.58458E-001,-4.46821E-002,4.74844E+000,-3.09112E-001,-7.48854E-002,4.75908E+000,9.11194E-003,4.33565E-001,0,7.23717E+001,-5.29324E+000,9.99670E-001,3.14272E+001,-3.71611E+001,9.99118E-001,1.03389E-001,-4.22063E-002,-6.53624E-004,1.03392E-001,-4.22092E-002,-2.57212E-001,1.03971E-001,1.10862E+000,-2.59935E-002,0.00000E+000,2.12040E-002,9.60135E-001,0.00000E+000,-5.18363E-004,-5.95222E-002,1.00000E+000,16
1059,1347,1.29945E+001,1.08110E+000,-3.01652E-002,4.73373E+000,-3.39710E-001,-1.02712E-001,4.74702E+000,1.22573E-002,4.18870E-001,0,7.22440E+001,-5.72339E+000,9.99619E-001,3.17018E+001,-3.75634E+001,9.98676E-001,1.03826E-001,-4.22060E-002,-6.37935E-004,1.03829E-001,-4.22088E-002,-2.50288E-001,1.04432E-001,1.10910E+000,-2.59747E-002,0.00000E+000,2.11820E-002,9.60134E-001,0.00000E+000,-5.67926E-005,-5.95044E-002,1.00000E+000,16
1059,1297,1.29972E+001,-2.01502E+000,1.63748E-001,4.80973E+000,-2.02311E-001,7.33534E-002,4.81454E+000,1.00363E-002,3.54000E-001,0,7.27504E+001,-3.85484E+000,9.99143E-001,3.17050E+001,-3.59521E+001,9.97144E-001,1.01651E-001,-4.22070E-002,-6.98562E-004,1.01654E-001,-4.22104E-002,-2.78215E-001,1.02140E-001,1.10669E+000,-2.60288E-002,0.00000E+000,2.12918E-002,9.60137E-001,0.00000E+000,-2.35221E-003,-5.95558E-002,1.00000E+000,16
1059,1307,1.29916E+001,-1.39937E+000,9.37216E-002,4.79557E+000,-2.28024E-001,3.22996E-002,4.80110E+000,1.14772E-002,3.28025E-001,0,7.26903E+001,-4.19328E+000,9.99479E-001,3.15688E+001,-3.62798E+001,9.98456E-001,1.02084E-001,-4.22069E-002,-6.88430E-004,1.02088E-001,-4.22102E-002,-2.73356E-001,1.02596E-001,1.10717E+000,-2.60224E-002,0.00000E+000,2.12699E-002,9.60136E-001,0.00000E+000,-1.89573E-003,-5.95497E-002,1.00000E+000,16
1059,1317,1.29806E+001,-7.86386E-001,2.22006E-002,4.77528E+000,-2.58810E-001,-1.28777E-002,4.78231E+000,1.17613E-002,3.95335E-001,0,7.25539E+001,-4.61537E+000,9.99349E-001,3.13439E+001,-3.65999E+001,9.97587E-001,1.02519E-001,-4.22067E-002,-6.78068E-004,1.02522E-001,-4.22099E-002,-2.68434E-001,1.03053E-001,1.10765E+000,-2.60155E-002,0.00000E+000,2.12480E-002,9.60136E-001,0.00000E+000,-1.43766E-003,-5.95432E-002,1.00000E+000,16
799,1307,-5.90138E+000,-1.73915E+000,2.18849E-001,2.86406E+000,-4.26557E-001,1.97664E-001,2.90239E+000,1.85021E-002,5.63885E-001,0,4.37706E+001,-7.44353E+000,9.98128E-001,-1.72226E-001,-4.41138E+001,9.97810E-001,1.06393E-001,-4.40076E-002,-3.51325E-004,1.06394E-001,-4.40084E-002,-1.33837E-001,1.06922E-001,1.11226E+000,-2.61840E-003,0.00000E+000,1.44247E-003,9.59541E-001,0.00000E+000,1.83804E-003,-7.37006E-002,1.00000E+000,16
799,1317,-5.90114E+000,-1.14086E+000,1.06094E-001,2.86332E+000,-4.61440E-001,1.42937E-001,2.90378E+000,1.58456E-002,5.73706E-001,0,4.39384E+001,-7.88067E+000,9.98898E-001,-3.27974E-001,-4.46469E+001,9.97635E-001,1.06300E-001,-4.40090E-002,-5.54611E-004,1.06302E-001,-4.40110E-002,-2.11406E-001,1.06825E-001,1.11215E+000,-2.61857E-003,0.00000E+000,1.13948E-003,9.59541E-001,0.00000E+000,5.98286E-004,-7.37026E-002,1.00000E+000,16
789,1327,-6.61155E+000,-5.46948E-001,4.23832E-002,2.79171E+000,-4.98464E-001,1.04110E-001,2.83777E+000,1.19436E-002,5.55489E-001,0,4.29898E+001,-8.38416E+000,9.99453E-001,-1.28634E+000,-4.54630E+001,9.98472E-001,1.05187E-001,-4.38058E-002,-4.76905E-004,1.05189E-001,-4.38073E-002,-1.83393E-001,1.05677E-001,1.11092E+000,-2.62221E-003,0.00000E+000,1.41160E-003,9.59638E-001,0.00000E+000,-1.08005E-003,-7.23147E-002,1.00000E+000,16
789,1337,-6.59752E+000,7.44142E-002,1.13843E-002,2.79067E+000,-5.20310E-001,5.90394E-002,2.83938E+000,8.01857E-003,5.25728E-001,0,4.31106E+001,-8.62041E+000,9.99327E-001,-1.02171E+000,-4.58359E+001,9.99160E-001,1.05167E-001,-4.38186E-002,-7.30977E-004,1.05170E-001,-4.38222E-002,-2.81105E-001,1.05656E-001,1.11090E+000,-2.62269E-003,0.00000E+000,9.96268E-004,9.59629E-001,0.00000E+000,-2.12793E-003,-7.23392E-002,1.00000E+000,16
789,1347,-6.57657E+000,6.94204E-001,3.71489E-003,2.79286E+000,-5.46996E-001,1.84563E-002,2.84599E+000,9.09188E-003,5.50796E-001,0,4.32670E+001,-8.96465E+000,9.99037E-001,-5.92965E-001,-4.62575E+001,9.98661E-001,1.05145E-001,-4.38343E-002,-9.86019E-004,1.05152E-001,-4.38408E-002,-3.79189E-001,1.05634E-001,1.11087E+000,-2.62329E-003,0.00000E+000,5.79500E-004,9.59617E-001,0.00000E+000,-3.17943E-003,-7.23697E-002,1.00000E+000,16
789,1357,-6.55146E+000,1.32037E+000,3.53532E-002,2.79142E+000,-5.73120E-001,-2.26148E-002,2.84974E+000,8.47059E-003,5.42185E-001,0,4.33645E+001,-9.28551E+000,9.98884E-001,-6.35616E-004,-4.66870E+001,9.98406E-001,1.05122E-001,-4.38559E-002,-1.24266E-003,1.05133E-001,-4.38663E-002,-4.77872E-001,1.05612E-001,1.11085E+000,-2.62414E-003,0.00000E+000,1.60405E-004,9.59600E-001,0.00000E+000,-4.23679E-003,-7.24129E-002,1.00000E+000,16
1069,1327,1.37084E+001,-1.55440E-001,-2.70452E-002,4.83321E+000,-2.80980E-001,-4.51583E-002,4.84158E+000,1.23603E-002,4.47263E-001,0,7.34976E+001,-4.90708E+000,9.99397E-001,3.26365E+001,-3.66022E+001,9.97681E-001,1.02945E-001,-4.21805E-002,-9.27594E-004,1.02951E-001,-4.21864E-002,-3.66196E-001,1.03508E-001,1.10814E+000,-2.55728E-002,0.00000E+000,2.02982E-002,9.60147E-001,0.00000E+000,-4.73173E-005,-5.89584E-002,1.00000E+000,16
1069,1337,1.37090E+001,4.72074E-001,-4.58978E-002,4.81688E+000,-3.00342E-001,-6.95957E-002,4.82673E+000,8.10215E-003,3.85246E-001,0,7.33352E+001,-5.16378E+000,9.99441E-001,3.26902E+001,-3.68758E+001,9.98554E-001,1.03377E-001,-4.21814E-002,-9.26372E-004,1.03383E-001,-4.21873E-002,-3.64625E-001,1.03964E-001,1.10862E+000,-2.55604E-002,0.00000E+000,2.02773E-002,9.60147E-001,0.00000E+000,6.69990E-006,-5.89570E-002,1.00000E+000,16
1069,1347,1.37174E+001,1.09675E+000,-4.33153E-002,4.80141E+000,-3.28823E-001,-1.01594E-001,4.81373E+000,7.58214E-003,4.16663E-001,0,7.32126E+001,-5.56246E+000,9.99614E-001,3.29037E+001,-3.71958E+001,9.98995E-001,1.03812E-001,-4.21825E-002,-9.22915E-004,1.03818E-001,-4.21883E-002,-3.62180E-001,1.04423E-001,1.10910E+000,-2.55430E-002,0.00000E+000,2.02561E-002,9.60146E-001,0.00000E+000,6.10868E-005,-5.89550E-002,1.00000E+000,16
789,1307,-6.61569E+000,-1.74650E+000,2.18018E-001,2.79727E+000,-4.27743E-001,2.03691E-001,2.83711E+000,1.32500E-002,5.52492E-001,0,4.27539E+001,-7.46262E+000,9.98888E-001,-1.15462E+000,-4.43253E+001,9.96444E-001,1.05224E-001,-4.37960E-002,2.68084E-005,1.05224E-001,-4.37960E-002,1.03074E-002,1.05715E-001,1.11096E+000,-2.62190E-003,0.00000E+000,2.23559E-003,9.59645E-001,0.00000E+000,9.98855E-004,-7.22988E-002,1.00000E+000,16
789,1317,-6.61474E+000,-1.15118E+000,1.21152E-001,2.79446E+000,-4.66620E-001,1.50438E-001,2.83714E+000,1.47469E-002,5.59323E-001,0,4.28836E+001,-7.97583E+000,9.98788E-001,-1.26140E+000,-4.49413E+001,9.95799E-001,1.05206E-001,-4.38001E-002,-2.24779E-004,1.05206E-001,-4.38004E-002,-8.64318E-002,1.05696E-001,1.11094E+000,-2.62202E-003,0.00000E+000,1.82400E-003,9.59642E-001,0.00000E+000,-3.95762E-005,-7.23050E-002,1.00000E+000,16
1069,1297,1.37147E+001,-1.99851E+000,1.42094E-001,4.87299E+000,-1.89120E-001,6.75211E-002,4.87713E+000,1.26220E-002,3.59265E-001,0,7.36732E+001,-3.64750E+000,9.98678E-001,3.28121E+001,-3.55595E+001,9.96283E-001,1.01648E-001,-4.21784E-002,-9.25676E-004,1.01654E-001,-4.21843E-002,-3.68739E-001,1.02142E-001,1.10670E+000,-2.55974E-002,0.00000E+000,2.03612E-002,9.60148E-001,0.00000E+000,-2.09284E-004,-5.89611E-002,1.00000E+000,16
1069,1307,1.37103E+001,-1.38500E+000,6.85709E-002,4.86109E+000,-2.16308E-001,2.79196E-002,4.86598E+000,9.45159E-003,3.38872E-001,0,7.36441E+001,-4.01770E+000,9.99412E-001,3.26869E+001,-3.59078E+001,9.97970E-001,1.02078E-001,-4.21790E-002,-9.27480E-004,1.02084E-001,-4.21849E-002,-3.68354E-001,1.02595E-001,1.10718E+000,-2.55919E-002,0.00000E+000,2.03403E-002,9.60148E-001,0.00000E+000,-1.55572E-004,-5.89605E-002,1.00000E+000,16
1069,1317,1.37103E+001,-7.65885E-001,1.91704E-002,4.84818E+000,-2.44158E-001,-9.73520E-003,4.85433E+000,1.04262E-002,4.39956E-001,0,7.35888E+001,-4.41490E+000,9.99579E-001,3.26732E+001,-3.61603E+001,9.97831E-001,1.02512E-001,-4.21797E-002,-9.27568E-004,1.02518E-001,-4.21857E-002,-3.67284E-001,1.03052E-001,1.10766E+000,-2.55824E-002,0.00000E+000,2.03193E-002,9.60148E-001,0.00000E+000,-1.01455E-004,-5.89594E-002,1.00000E+000,16
779,1327,-7.32389E+000,-5.48145E-001,5.28050E-002,2.72527E+000,-4.95485E-001,1.14904E-001,2.77233E+000,1.78804E-002,5.89339E-001,0,4.19584E+001,-8.34828E+000,9.99348E-001,-2.20565E+000,-4.55848E+001,9.97992E-001,1.04105E-001,-4.34491E-002,-4.02717E-004,1.04106E-001,-4.34502E-002,-1.56375E-001,1.04579E-001,1.10971E+000,-2.81886E-003,0.00000E+000,1.74308E-003,9.59904E-001,0.00000E+000,-1.33904E-003,-7.11987E-002,1.00000E+000,16
779,1337,-7.31078E+000,6.29028E-002,1.36963E-002,2.72379E+000,-5.26319E-001,6.33809E-002,2.77490E+000,7.95374E-003,5.30153E-001,0,4.20943E+001,-8.70876E+000,9.99131E-001,-1.97663E+000,-4.61157E+001,9.98840E-001,1.04218E-001,-4.34644E-002,-7.09633E-004,1.04221E-001,-4.34678E-002,-2.75306E-001,1.04698E-001,1.10984E+000,-2.81597E-003,0.00000E+000,1.20569E-003,9.59892E-001,0.00000E+000,-2.15122E-003,-7.12171E-002,1.00000E+000,16
779,1347,-7.29353E+000,6.86242E-001,4.68796E-003,2.72191E+000,-5.48513E-001,1.85206E-002,2.77669E+000,1.01409E-002,5.21132E-001,0,4.21984E+001,-8.97326E+000,9.98672E-001,-1.60573E+000,-4.64991E+001,9.98213E-001,1.04330E-001,-4.34839E-002,-1.01731E-003,1.04337E-001,-4.34909E-002,-3.94305E-001,1.04817E-001,1.10997E+000,-2.81218E-003,0.00000E+000,6.66318E-004,9.59876E-001,0.00000E+000,-2.96640E-003,-7.12413E-002,1.00000E+000,16
779,1357,-7.27051E+000,1.31375E+000,3.37474E-002,2.71932E+000,-5.72874E-001,-2.13613E-002,2.77909E+000,8.19941E-003,5.32481E-001,0,4.22738E+001,-9.27362E+000,9.98789E-001,-1.04963E+000,-4.68945E+001,9.98491E-001,1.04443E-001,-4.35094E-002,-1.32663E-003,1.04455E-001,-4.35213E-002,-5.13692E-001,1.04937E-001,1.11010E+000,-2.80711E-003,0.00000E+000,1.23156E-004,9.59854E-001,0.00000E+000,-3.78731E-003,-7.12737E-002,1.00000E+000,16
779,1317,-7.32591E+000,-1.14887E+000,1.33351E-001,2.72901E+000,-4.58474E-001,1.62168E-001,2.77200E+000,1.81890E-002,5.36157E-001,0,4.18641E+001,-7.86376E+000,9.99468E-001,-2.15684E+000,-4.50391E+001,9.97992E-001,1.03991E-001,-4.34422E-002,-9.58216E-005,1.03991E-001,-4.34422E-002,-3.72383E-002,1.04459E-001,1.10959E+000,-2.82000E-003,0.00000E+000,2.27910E-003,9.59909E-001,0.00000E+000,-5.28940E-004,-7.11914E-002,1.00000E+000,16
1079,1337,1.44383E+001,4.90163E-001,-5.88502E-002,4.88822E+000,-2.88669E-001,-7.88748E-002,4.89737E+000,9.66786E-003,4.09655E-001,0,7.43934E+001,-4.97664E+000,9.99375E-001,3.39993E+001,-3.64586E+001,9.99203E-001,1.03523E-001,-4.22572E-002,-1.16427E-003,1.03532E-001,-4.22665E-002,-4.57553E-001,1.04112E-001,1.10879E+000,-2.51022E-002,0.00000E+000,1.93901E-002,9.60075E-001,0.00000E+000,5.36889E-004,-5.86486E-002,1.00000E+000,16
1079,1347,1.44488E+001,1.11603E+000,-4.89157E-002,4.87454E+000,-3.16136E-001,-1.03917E-001,4.88589E+000,5.61006E-003,4.33351E-001,0,7.42719E+001,-5.37339E+000,9.99759E-001,3.42562E+001,-3.67783E+001,9.99607E-001,1.03955E-001,-4.22601E-002,-1.17659E-003,1.03964E-001,-4.22696E-002,-4.61017E-001,1.04567E-001,1.10927E+000,-2.50847E-002,0.00000E+000,1.93553E-002,9.60074E-001,0.00000E+000,2.97615E-004,-5.86573E-002,1.00000E+000,16
1079,1297,1.44449E+001,-1.97664E+000,1.46888E-001,4.94469E+000,-1.73157E-001,7.21848E-002,4.94825E+000,1.22575E-002,4.15073E-001,0,7.46788E+001,-3.44086E+000,9.99045E-001,3.41689E+001,-3.51129E+001,9.97284E-001,1.01804E-001,-4.22492E-002,-1.10053E-003,1.01813E-001,-4.22576E-002,-4.37692E-001,1.02301E-001,1.10689E+000,-2.51386E-002,0.00000E+000,1.95285E-002,9.60077E-001,0.00000E+000,1.48700E-003,-5.86304E-002,1.00000E+000,16
1079,1307,1.44363E+001,-1.36819E+000,6.27658E-002,4.92992E+000,-2.05426E-001,2.79867E-002,4.93428E+000,1.08031E-002,3.74805E-001,0,7.46275E+001,-3.85979E+000,9.99456E-001,3.39586E+001,-3.55260E+001,9.98020E-001,1.02232E-001,-4.22507E-002,-1.11841E-003,1.02241E-001,-4.22594E-002,-4.43478E-001,1.02752E-001,1.10736E+000,-2.51340E-002,0.00000E+000,1.94941E-002,9.60077E-001,0.00000E+000,1.25066E-003,-5.86327E-002,1.00000E+000,16
1079,1327,1.44380E+001,-1.37341E-001,-3.05930E-002,4.90446E+000,-2.69060E-001,-4.71192E-002,4.91206E+000,1.14823E-002,4.28857E-001,0,7.45259E+001,-4.71535E+000,9.99518E-001,3.39682E+001,-3.62286E+001,9.98942E-001,1.03093E-001,-4.22549E-002,-1.14963E-003,1.03102E-001,-4.22640E-002,-4.53143E-001,1.03659E-001,1.10831E+000,-2.51142E-002,0.00000E+000,1.94247E-002,9.60076E-001,0.00000E+000,7.74591E-004,-5.86425E-002,1.00000E+000,16
1079,1317,1.44354E+001,-7.47094E-001,1.41597E-002,4.91619E+000,-2.31663E-001,-8.14588E-003,4.92165E+000,9.95252E-003,4.05975E-001,0,7.45548E+001,-4.19714E+000,9.99467E-001,3.39329E+001,-3.57828E+001,9.98579E-001,1.02663E-001,-4.22527E-002,-1.13428E-003,1.02672E-001,-4.22616E-002,-4.48427E-001,1.03205E-001,1.10784E+000,-2.51247E-002,0.00000E+000,1.94594E-002,9.60076E-001,0.00000E+000,1.01252E-003,-5.86373E-002,1.00000E+000,16
779,1307,-7.33354E+000,-1.75894E+000,2.17752E-001,2.72487E+000,-4.35794E-001,2.01938E-001,2.76688E+000,1.20346E-002,5.53839E-001,0,4.16744E+001,-7.56851E+000,9.99318E-001,-2.18664E+000,-4.46108E+001,9.97624E-001,1.03877E-001,-4.34372E-002,2.09180E-004,1.03878E-001,-4.34375E-002,8.13571E-002,1.04341E-001,1.10946E+000,-2.82070E-003,0.00000E+000,2.81146E-003,9.59912E-001,0.00000E+000,2.75650E-004,-7.11869E-002,1.00000E+000,16
1089,1337,1.51664E+001,5.09961E-001,-6.22874E-002,4.95784E+000,-2.75918E-001,-7.84062E-002,4.96613E+000,8.32723E-003,4.66817E-001,0,7.53870E+001,-4.80066E+000,9.99303E-001,3.53092E+001,-3.60199E+001,9.99030E-001,1.04006E-001,-4.23698E-002,-1.29454E-003,1.04017E-001,-4.23812E-002,-5.06667E-001,1.04610E-001,1.10934E+000,-2.44458E-002,0.00000E+000,1.85301E-002,9.59970E-001,0.00000E+000,1.09303E-003,-5.84023E-002,1.00000E+000,16
1089,1347,1.51769E+001,1.13539E+000,-5.59421E-002,4.94420E+000,-3.02993E-001,-1.06599E-001,4.95462E+000,6.88715E-003,4.37310E-001,0,7.52786E+001,-5.17365E+000,9.99621E-001,3.55594E+001,-3.63634E+001,9.98947E-001,1.04529E-001,-4.23744E-002,-1.31970E-003,1.04540E-001,-4.23863E-002,-5.14661E-001,1.05162E-001,1.10992E+000,-2.44245E-002,0.00000E+000,1.84735E-002,9.59968E-001,0.00000E+000,7.10884E-004,-5.84163E-002,1.00000E+000,16
769,1347,-8.00982E+000,6.78240E-001,7.63418E-003,2.65196E+000,-5.50207E-001,2.45851E-002,2.70854E+000,8.16163E-003,5.09869E-001,0,4.11260E+001,-8.99661E+000,9.98820E-001,-2.59899E+000,-4.67366E+001,9.98486E-001,1.03254E-001,-4.31501E-002,-9.73805E-004,1.03260E-001,-4.31566E-002,-3.81080E-001,1.03723E-001,1.10877E+000,-2.83703E-003,0.00000E+000,7.54457E-004,9.60130E-001,0.00000E+000,-2.70875E-003,-7.02718E-002,1.00000E+000,16
769,1357,-7.98563E+000,1.30693E+000,3.19243E-002,2.65110E+000,-5.72984E-001,-1.82949E-002,2.71238E+000,8.03585E-003,5.32218E-001,0,4.12363E+001,-9.26981E+000,9.99077E-001,-2.03459E+000,-4.70994E+001,9.98849E-001,1.03324E-001,-4.31735E-002,-1.26389E-003,1.03334E-001,-4.31844E-002,-4.94266E-001,1.03798E-001,1.10885E+000,-2.83393E-003,0.00000E+000,2.43031E-004,9.60111E-001,0.00000E+000,-3.43862E-003,-7.02999E-002,1.00000E+000,16
769,1327,-8.03877E+000,-5.55321E-001,6.21988E-002,2.65356E+000,-4.97683E-001,1.12414E-001,2.70217E+000,1.35966E-002,5.68182E-001,0,4.08854E+001,-8.37539E+000,9.99118E-001,-3.16252E+000,-4.58245E+001,9.97204E-001,1.03114E-001,-4.31204E-002,-3.97705E-004,1.03115E-001,-4.31215E-002,-1.55823E-001,1.03574E-001,1.10861E+000,-2.84080E-003,0.00000E+000,1.76841E-003,9.60154E-001,0.00000E+000,-1.26173E-003,-7.02375E-002,1.00000E+000,16
769,1337,-8.02769E+000,5.24794E-002,1.45577E-002,2.65261E+000,-5.31013E-001,6.50225E-002,2.70602E+000,7.58367E-003,5.19258E-001,0,4.10178E+001,-8.76897E+000,9.99076E-001,-2.98641E+000,-4.63840E+001,9.98663E-001,1.03184E-001,-4.31324E-002,-6.85483E-004,1.03187E-001,-4.31356E-002,-2.68419E-001,1.03648E-001,1.10869E+000,-2.83931E-003,0.00000E+000,1.26221E-003,9.60145E-001,0.00000E+000,-1.98414E-003,-7.02510E-002,1.00000E+000,16
1089,1327,1.51636E+001,-1.14294E-001,-4.50820E-002,4.97337E+000,-2.49476E-001,-5.11768E-002,4.97988E+000,1.00943E-002,4.08351E-001,0,7.55236E+001,-4.42227E+000,9.99274E-001,3.52219E+001,-3.57562E+001,9.98449E-001,1.03483E-001,-4.23659E-002,-1.26711E-003,1.03494E-001,-4.23769E-002,-4.97724E-001,1.04058E-001,1.10876E+000,-2.44619E-002,0.00000E+000,1.85866E-002,9.59971E-001,0.00000E+000,1.47496E-003,-5.83917E-002,1.00000E+000,16
1089,1317,1.51655E+001,-7.34186E-001,2.77343E-003,4.98830E+000,-2.23643E-001,-1.53149E-002,4.99333E+000,9.51902E-003,4.52195E-001,0,7.56149E+001,-4.09718E+000,9.99480E-001,3.52628E+001,-3.54422E+001,9.98984E-001,1.02963E-001,-4.23626E-002,-1.23778E-003,1.02973E-001,-4.23732E-002,-4.87959E-001,1.03509E-001,1.10819E+000,-2.44734E-002,0.00000E+000,1.86429E-002,9.59972E-001,0.00000E+000,1.85474E-003,-5.83842E-002,1.00000E+000,16
1089,1297,1.51754E+001,-1.95604E+000,1.45951E-001,5.01631E+000,-1.59161E-001,7.19346E-002,5.01935E+000,8.86720E-003,4.43912E-001,0,7.57005E+001,-3.22858E+000,9.99561E-001,3.55225E+001,-3.46876E+001,9.98809E-001,1.01923E-001,-4.23570E-002,-1.17631E-003,1.01933E-001,-4.23666E-002,-4.67088E-001,1.02415E-001,1.10704E+000,-2.44895E-002,0.00000E+000,1.87550E-002,9.59974E-001,0.00000E+000,2.61240E-003,-5.83735E-002,1.00000E+000,16
1089,1307,1.51677E+001,-1.34978E+000,5.89040E-002,5.00215E+000,-1.94159E-001,2.34738E-002,5.00597E+000,9.03635E-003,4.38229E-001,0,7.56765E+001,-3.69627E+000,9.99621E-001,3.53224E+001,-3.51092E+001,9.98981E-001,1.02442E-001,-4.23595E-002,-1.20798E-003,1.02452E-001,-4.23696E-002,-4.77936E-001,1.02961E-001,1.10761E+000,-2.44837E-002,0.00000E+000,1.86990E-002,9.59973E-001,0.00000E+000,2.23432E-003,-5.83774E-002,1.00000E+000,16
769,1317,-8.04625E+000,-1.15680E+000,1.29679E-001,2.65411E+000,-4.63342E-001,1.59091E-001,2.69894E+000,1.53196E-002,5.54322E-001,0,4.07468E+001,-7.89669E+000,9.99498E-001,-3.23088E+000,-4.52418E+001,9.98602E-001,1.03043E-001,-4.31119E-002,-1.11595E-004,1.03043E-001,-4.31119E-002,-4.37475E-002,1.03500E-001,1.10854E+000,-2.84180E-003,0.00000E+000,2.27132E-003,9.60161E-001,0.00000E+000,-5.44020E-004,-7.02284E-002,1.00000E+000,16
1099,1327,1.58900E+001,-9.74915E-002,-5.26085E-002,5.04254E+000,-2.37973E-001,-4.86210E-002,5.04839E+000,1.13095E-002,4.43558E-001,0,7.65017E+001,-4.26873E+000,9.98313E-001,3.65042E+001,-3.53680E+001,9.97143E-001,1.03892E-001,-4.24591E-002,-1.40202E-003,1.03905E-001,-4.24726E-002,-5.48817E-001,1.04480E-001,1.10923E+000,-2.38589E-002,0.00000E+000,1.77738E-002,9.59904E-001,0.00000E+000,1.87928E-003,-5.85159E-002,1.00000E+000,16
1099,1337,1.58982E+001,5.30366E-001,-6.40314E-002,5.03066E+000,-2.61253E-001,-7.70062E-002,5.03803E+000,1.05161E-002,4.55216E-001,0,7.64228E+001,-4.58588E+000,9.98533E-001,3.66858E+001,-3.56096E+001,9.98288E-001,1.04538E-001,-4.24625E-002,-1.41828E-003,1.04552E-001,-4.24761E-002,-5.52729E-001,1.05162E-001,1.10995E+000,-2.38370E-002,0.00000E+000,1.77338E-002,9.59903E-001,0.00000E+000,1.45709E-003,-5.85288E-002,1.00000E+000,16
1099,1347,1.59117E+001,1.15900E+000,-5.26044E-002,5.01768E+000,-2.86956E-001,-1.08485E-001,5.02705E+000,8.69695E-003,4.48204E-001,0,7.63352E+001,-4.93652E+000,9.99086E-001,3.69880E+001,-3.59016E+001,9.98598E-001,1.05185E-001,-4.24664E-002,-1.43160E-003,1.05199E-001,-4.24803E-002,-5.55459E-001,1.05846E-001,1.11067E+000,-2.38084E-002,0.00000E+000,1.76937E-002,9.59901E-001,0.00000E+000,1.03377E-003,-5.85457E-002,1.00000E+000,16
759,1347,-8.72301E+000,6.73045E-001,4.96758E-003,2.58480E+000,-5.49368E-001,2.56462E-002,2.64266E+000,7.39565E-003,5.15464E-001,0,4.01099E+001,-8.97273E+000,9.98804E-001,-3.55380E+000,-4.69099E+001,9.98506E-001,1.02157E-001,-4.28644E-002,-8.85888E-004,1.02162E-001,-4.28698E-002,-3.49984E-001,1.02601E-001,1.10756E+000,-2.71341E-003,0.00000E+000,8.13719E-004,9.60350E-001,0.00000E+000,-2.64600E-003,-6.94509E-002,1.00000E+000,16
759,1357,-8.70181E+000,1.29888E+000,2.85344E-002,2.58147E+000,-5.74423E-001,-1.64064E-002,2.64466E+000,8.08933E-003,5.46573E-001,0,4.01794E+001,-9.28918E+000,9.98995E-001,-3.03574E+000,-4.73127E+001,9.98544E-001,1.02090E-001,-4.28810E-002,-1.09920E-003,1.02098E-001,-4.28894E-002,-4.34396E-001,1.02532E-001,1.10749E+000,-2.71609E-003,0.00000E+000,4.55037E-004,9.60336E-001,0.00000E+000,-3.38319E-003,-6.94787E-002,1.00000E+000,16
1099,1297,1.59024E+001,-1.94318E+000,1.32004E-001,5.08586E+000,-1.51402E-001,6.59895E-002,5.08854E+000,8.31999E-003,4.82300E-001,0,7.67146E+001,-3.11254E+000,9.99190E-001,3.68035E+001,-3.43504E+001,9.98200E-001,1.01963E-001,-4.24521E-002,-1.33963E-003,1.01976E-001,-4.24645E-002,-5.31428E-001,1.02450E-001,1.10710E+000,-2.38928E-002,0.00000E+000,1.78929E-002,9.59906E-001,0.00000E+000,3.13655E-003,-5.84959E-002,1.00000E+000,16
1099,1307,1.58975E+001,-1.33049E+000,5.41616E-002,5.07439E+000,-1.80593E-001,2.68431E-002,5.07768E+000,9.45281E-003,4.47772E-001,0,7.66949E+001,-3.49058E+000,9.99451E-001,3.66633E+001,-3.47042E+001,9.98735E-001,1.02605E-001,-4.24541E-002,-1.36217E-003,1.02618E-001,-4.24669E-002,-5.37967E-001,1.03125E-001,1.10781E+000,-2.38855E-002,0.00000E+000,1.78533E-002,9.59906E-001,0.00000E+000,2.71833E-003,-5.85002E-002,1.00000E+000,16
1099,1317,1.58928E+001,-7.15599E-001,-9.66067E-003,5.05920E+000,-2.09789E-001,-1.43913E-002,5.06357E+000,1.17993E-002,4.65356E-001,0,7.66241E+001,-3.89101E+000,9.99000E-001,3.65504E+001,-3.50282E+001,9.98195E-001,1.03248E-001,-4.24564E-002,-1.38287E-003,1.03261E-001,-4.24696E-002,-5.43724E-001,1.03802E-001,1.10852E+000,-2.38741E-002,0.00000E+000,1.78135E-002,9.59905E-001,0.00000E+000,2.29927E-003,-5.85070E-002,1.00000E+000,16
759,1327,-8.75674E+000,-5.66005E-001,5.78582E-002,2.58055E+000,-5.02430E-001,1.07550E-001,2.63121E+000,9.10660E-003,5.29163E-001,0,3.97996E+001,-8.41764E+000,9.99154E-001,-4.19781E+000,-4.60982E+001,9.99086E-001,1.02287E-001,-4.28436E-002,-4.63618E-004,1.02289E-001,-4.28451E-002,-1.83028E-001,1.02737E-001,1.10770E+000,-2.71019E-003,0.00000E+000,1.52547E-003,9.60366E-001,0.00000E+000,-1.18316E-003,-6.94175E-002,1.00000E+000,16
759,1337,-8.74114E+000,5.30231E-002,1.96790E-002,2.58394E+000,-5.24796E-001,6.81233E-002,2.63757E+000,7.37541E-003,5.34400E-001,0,3.99706E+001,-8.68146E+000,9.98812E-001,-3.92556E+000,-4.64794E+001,9.98737E-001,1.02222E-001,-4.28524E-002,-6.74335E-004,1.02225E-001,-4.28555E-002,-2.66314E-001,1.02669E-001,1.10763E+000,-2.71153E-003,0.00000E+000,1.17008E-003,9.60359E-001,0.00000E+000,-1.91360E-003,-6.94313E-002,1.00000E+000,16
759,1317,-8.76209E+000,-1.16955E+000,1.35266E-001,2.58223E+000,-4.70537E-001,1.59349E-001,2.62958E+000,1.28082E-002,5.65040E-001,0,3.96643E+001,-8.02200E+000,9.99311E-001,-4.20880E+000,-4.55417E+001,9.98720E-001,1.02351E-001,-4.28381E-002,-2.54631E-004,1.02351E-001,-4.28385E-002,-1.00484E-001,1.02803E-001,1.10777E+000,-2.70942E-003,0.00000E+000,1.87839E-003,9.60370E-001,0.00000E+000,-4.57824E-004,-6.94095E-002,1.00000E+000,16
749,1317,-9.46873E+000,-1.17247E+000,1.51350E-001,2.51793E+000,-4.70192E-001,1.63846E-001,2.56669E+000,9.90293E-003,5.66623E-001,0,3.86823E+001,-8.01375E+000,9.99230E-001,-5.01133E+000,-4.57158E+001,9.98347E-001,1.01732E-001,-4.26473E-002,-3.42240E-004,1.01733E-001,-4.26481E-002,-1.35814E-001,1.02174E-001,1.10708E+000,-2.35340E-003,0.00000E+000,1.38654E-003,9.60502E-001,0.00000E+000,-1.90336E-004,-6.86204E-002,1.00000E+000,16
749,1327,-9.46474E+000,-5.67955E-001,6.30649E-002,2.51650E+000,-5.00354E-001,1.09283E-001,2.56809E+000,7.37877E-003,5.62585E-001,0,3.88287E+001,-8.38292E+000,9.98999E-001,-5.04964E+000,-4.62206E+001,9.98727E-001,1.01544E-001,-4.26503E-002,-4.91066E-004,1.01545E-001,-4.26520E-002,-1.95123E-001,1.01977E-001,1.10688E+000,-2.35518E-003,0.00000E+000,1.14643E-003,9.60500E-001,0.00000E+000,-8.63906E-004,-6.86261E-002,1.00000E+000,16
749,1337,-9.45388E+000,4.91448E-002,2.15123E-002,2.51548E+000,-5.23611E-001,6.75342E-002,2.57028E+000,7.16193E-003,5.79029E-001,0,3.89378E+001,-8.67079E+000,9.98935E-001,-4.85879E+000,-4.66212E+001,9.98959E-001,1.01354E-001,-4.26563E-002,-6.41728E-004,1.01357E-001,-4.26592E-002,-2.55311E-001,1.01779E-001,1.10667E+000,-2.35904E-003,0.00000E+000,9.04887E-004,9.60495E-001,0.00000E+000,-1.54150E-003,-6.86386E-002,1.00000E+000,16
749,1347,-9.43849E+000,6.66914E-001,3.44251E-003,2.51447E+000,-5.49229E-001,2.53826E-002,2.57388E+000,7.59186E-003,5.30929E-001,0,3.90471E+001,-8.97088E+000,9.99066E-001,-4.53672E+000,-4.70958E+001,9.99033E-001,1.01163E-001,-4.26644E-002,-7.93461E-004,1.01167E-001,-4.26687E-002,-3.16074E-001,1.01579E-001,1.10646E+000,-2.36437E-003,0.00000E+000,6.62701E-004,9.60489E-001,0.00000E+000,-2.22090E-003,-6.86559E-002,1.00000E+000,16
1109,1297,1.66298E+001,-1.92871E+000,1.21311E-001,5.15706E+000,-1.39865E-001,7.01732E-002,5.15943E+000,8.76134E-003,4.78161E-001,0,7.77130E+001,-2.95799E+000,9.98821E-001,3.81007E+001,-3.40164E+001,9.97335E-001,1.02150E-001,-4.27053E-002,-1.44095E-003,1.02164E-001,-4.27197E-002,-5.69877E-001,1.02620E-001,1.10733E+000,-2.29369E-002,0.00000E+000,1.68342E-002,9.59704E-001,0.00000E+000,3.63760E-003,-5.88780E-002,1.00000E+000,16
1109,1307,1.66239E+001,-1.31433E+000,4.52783E-002,5.14462E+000,-1.67284E-001,3.30385E-002,5.14744E+000,9.61399E-003,4.26502E-001,0,7.76714E+001,-3.30896E+000,9.99182E-001,3.79491E+001,-3.43549E+001,9.98373E-001,1.02848E-001,-4.27054E-002,-1.43147E-003,1.02863E-001,-4.27194E-002,-5.63411E-001,1.03353E-001,1.10810E+000,-2.29290E-002,0.00000E+000,1.68631E-002,9.59704E-001,0.00000E+000,3.07909E-003,-5.88838E-002,1.00000E+000,16
1109,1317,1.66199E+001,-6.98627E-001,-1.54788E-002,5.13019E+000,-1.95998E-001,-4.39837E-003,5.13394E+000,1.07206E-002,4.37276E-001,0,7.75986E+001,-3.70386E+000,9.98729E-001,3.78520E+001,-3.46745E+001,9.98046E-001,1.03548E-001,-4.27054E-002,-1.41999E-003,1.03562E-001,-4.27192E-002,-5.56219E-001,1.04089E-001,1.10887E+000,-2.29166E-002,0.00000E+000,1.68920E-002,9.59704E-001,0.00000E+000,2.51902E-003,-5.88928E-002,1.00000E+000,16
749,1357,-9.41466E+000,1.29157E+000,3.07239E-002,2.51427E+000,-5.74661E-001,-1.14505E-002,2.57914E+000,9.34321E-003,5.49692E-001,0,3.91491E+001,-9.30451E+000,9.99107E-001,-3.96685E+000,-4.75324E+001,9.98882E-001,1.00970E-001,-4.26759E-002,-9.47374E-004,1.00976E-001,-4.26821E-002,-3.77855E-001,1.01378E-001,1.10625E+000,-2.37216E-003,0.00000E+000,4.18824E-004,9.60480E-001,0.00000E+000,-2.90505E-003,-6.86812E-002,1.00000E+000,16
1109,1327,1.66190E+001,-8.14840E-002,-5.79949E-002,5.11405E+000,-2.26248E-001,-4.33494E-002,5.11924E+000,9.58066E-003,4.37571E-001,0,7.75028E+001,-4.11253E+000,9.98167E-001,3.78351E+001,-3.50171E+001,9.97671E-001,1.04249E-001,-4.27055E-002,-1.40597E-003,1.04262E-001,-4.27189E-002,-5.48105E-001,1.04827E-001,1.10965E+000,-2.28986E-002,0.00000E+000,1.69210E-002,9.59705E-001,0.00000E+000,1.95728E-003,-5.89058E-002,1.00000E+000,16
1109,1337,1.66248E+001,5.46716E-001,-7.34441E-002,5.09931E+000,-2.49804E-001,-7.70188E-002,5.10600E+000,1.00519E-002,4.63731E-001,0,7.74013E+001,-4.42616E+000,9.98948E-001,3.79708E+001,-3.52360E+001,9.98691E-001,1.04952E-001,-4.27056E-002,-1.38915E-003,1.04965E-001,-4.27186E-002,-5.38969E-001,1.05569E-001,1.11043E+000,-2.28742E-002,0.00000E+000,1.69502E-002,9.59706E-001,0.00000E+000,1.39276E-003,-5.89234E-002,1.00000E+000,16
1109,1347,1.66429E+001,1.17662E+000,-4.81989E-002,5.08738E+000,-2.76774E-001,-1.08591E-001,5.09606E+000,1.02364E-002,4.64532E-001,0,7.73286E+001,-4.79643E+000,9.99070E-001,3.83672E+001,-3.55329E+001,9.98249E-001,1.05658E-001,-4.27057E-002,-1.36739E-003,1.05671E-001,-4.27183E-002,-5.28007E-001,1.06314E-001,1.11121E+000,-2.28389E-002,0.00000E+000,1.69795E-002,9.59707E-001,0.00000E+000,8.25568E-004,-5.89490E-002,1.00000E+000,16
739,1337,-1.01655E+001,3.95323E-002,2.25014E-002,2.44789E+000,-5.27462E-001,6.68515E-002,2.50496E+000,8.30441E-003,5.78920E-001,0,3.79190E+001,-8.72551E+000,9.98859E-001,-5.77329E+000,-4.68716E+001,9.98707E-001,1.00412E-001,-4.23167E-002,-7.11315E-004,1.00415E-001,-4.23203E-002,-2.85536E-001,1.00827E-001,1.10563E+000,-2.07499E-003,0.00000E+000,5.17509E-004,9.60782E-001,0.00000E+000,-1.39841E-003,-6.80260E-002,1.00000E+000,16
739,1347,-1.01528E+001,6.59447E-001,7.55296E-003,2.44461E+000,-5.50613E-001,2.94037E-002,2.50602E+000,6.14783E-003,5.46365E-001,0,3.79776E+001,-9.00297E+000,9.99435E-001,-5.48336E+000,-4.73145E+001,9.99390E-001,1.00068E-001,-4.23244E-002,-8.63919E-004,1.00073E-001,-4.23297E-002,-3.47607E-001,1.00468E-001,1.10525E+000,-2.08434E-003,0.00000E+000,2.80547E-004,9.60776E-001,0.00000E+000,-2.13368E-003,-6.80442E-002,1.00000E+000,16
739,1357,-1.01295E+001,1.28574E+000,3.27783E-002,2.44453E+000,-5.73761E-001,-7.52605E-003,2.51097E+000,6.70364E-003,5.39819E-001,0,3.80807E+001,-9.28996E+000,9.99282E-001,-4.92329E+000,-4.77360E+001,9.99244E-001,9.97210E-002,-4.23355E-002,-1.01949E-003,9.97283E-002,-4.23428E-002,-4.11162E-001,1.00106E-001,1.10487E+000,-2.09805E-003,0.00000E+000,4.20481E-005,9.60767E-001,0.00000E+000,-2.87371E-003,-6.80708E-002,1.00000E+000,16
739,1327,-1.01770E+001,-5.73506E-001,6.69880E-002,2.44816E+000,-5.00119E-001,1.11351E-001,2.50120E+000,8.28739E-003,5.37870E-001,0,3.77897E+001,-8.37174E+000,9.99393E-001,-5.96538E+000,-4.64254E+001,9.99132E-001,1.00754E-001,-4.23110E-002,-5.60171E-004,1.00756E-001,-4.23132E-002,-2.24337E-001,1.01185E-001,1.10600E+000,-2.06811E-003,0.00000E+000,7.53942E-004,9.60786E-001,0.00000E+000,-6.64789E-004,-6.80127E-002,1.00000E+000,16
1119,1297,1.73554E+001,-1.91392E+000,1.10142E-001,5.22606E+000,-1.28202E-001,7.41615E-002,5.22816E+000,9.26878E-003,4.39098E-001,0,7.86773E+001,-2.78021E+000,9.99340E-001,3.93732E+001,-3.36944E+001,9.98668E-001,1.02520E-001,-4.25649E-002,-1.62091E-003,1.02538E-001,-4.25830E-002,-6.40013E-001,1.03027E-001,1.10775E+000,-2.20386E-002,0.00000E+000,1.57150E-002,9.59892E-001,0.00000E+000,3.45715E-003,-5.94646E-002,1.00000E+000,16
1119,1307,1.73515E+001,-1.30057E+000,3.88823E-002,5.21415E+000,-1.57768E-001,3.61544E-002,5.21666E+000,8.21946E-003,4.32086E-001,0,7.86477E+001,-3.18340E+000,9.99289E-001,3.92603E+001,-3.40346E+001,9.99094E-001,1.03193E-001,-4.25619E-002,-1.56250E-003,1.03210E-001,-4.25786E-002,-6.14119E-001,1.03735E-001,1.10850E+000,-2.20293E-002,0.00000E+000,1.58404E-002,9.59893E-001,0.00000E+000,2.85938E-003,-5.94720E-002,1.00000E+000,16
1119,1317,1.73508E+001,-6.83993E-001,-1.95101E-002,5.20216E+000,-1.85854E-001,-2.05452E-003,5.20548E+000,8.42803E-003,4.29140E-001,0,7.86147E+001,-3.56748E+000,9.98970E-001,3.92182E+001,-3.43504E+001,9.98957E-001,1.03867E-001,-4.25584E-002,-1.50242E-003,1.03883E-001,-4.25738E-002,-5.87807E-001,1.04444E-001,1.10924E+000,-2.20164E-002,0.00000E+000,1.59660E-002,9.59895E-001,0.00000E+000,2.26061E-003,-5.94824E-002,1.00000E+000,16
1119,1327,1.73510E+001,-6.43526E-002,-5.82061E-002,5.18626E+000,-2.14047E-001,-4.02531E-002,5.19083E+000,7.86552E-003,4.11424E-001,0,7.85193E+001,-3.94115E+000,9.98837E-001,3.92247E+001,-3.46700E+001,9.98818E-001,1.04542E-001,-4.25543E-002,-1.43974E-003,1.04556E-001,-4.25684E-002,-5.60722E-001,1.05156E-001,1.10999E+000,-2.19981E-002,0.00000E+000,1.60920E-002,9.59898E-001,0.00000E+000,1.65985E-003,-5.94971E-002,1.00000E+000,16
1119,1337,1.73575E+001,5.60385E-001,-7.37407E-002,5.17144E+000,-2.41996E-001,-7.65778E-002,5.17767E+000,7.36273E-003,4.49392E-001,0,7.84289E+001,-4.31782E+000,9.99403E-001,3.93696E+001,-3.49347E+001,9.98920E-001,1.05221E-001,-4.25493E-002,-1.37412E-003,1.05233E-001,-4.25621E-002,-5.32736E-001,1.05872E-001,1.11074E+000,-2.19738E-002,0.00000E+000,1.62188E-002,9.59903E-001,0.00000E+000,1.05561E-003,-5.95167E-002,1.00000E+000,16
1119,1347,1.73733E+001,1.19005E+000,-5.14996E-002,5.15769E+000,-2.68532E-001,-1.08243E-001,5.16581E+000,1.10171E-002,4.35806E-001,0,7.83300E+001,-4.68141E+000,9.99367E-001,3.97222E+001,-3.52346E+001,9.98690E-001,1.05900E-001,-4.25432E-002,-1.30433E-003,1.05911E-001,-4.25547E-002,-5.03391E-001,1.06590E-001,1.11150E+000,-2.19404E-002,0.00000E+000,1.63459E-002,9.59908E-001,0.00000E+000,4.49684E-004,-5.95435E-002,1.00000E+000,16
739,1317,-1.01787E+001,-1.17639E+000,1.51890E-001,2.45154E+000,-4.69070E-001,1.61027E-001,2.50120E+000,1.04859E-002,5.64960E-001,0,3.76888E+001,-7.98520E+000,9.99260E-001,-5.89997E+000,-4.58746E+001,9.98740E-001,1.01093E-001,-4.23082E-002,-4.11828E-004,1.01094E-001,-4.23094E-002,-1.64543E-001,1.01541E-001,1.10638E+000,-2.06511E-003,0.00000E+000,9.88719E-004,9.60788E-001,0.00000E+000,6.36976E-005,-6.80068E-002,1.00000E+000,16
1129,1297,1.80803E+001,-1.89473E+000,1.05262E-001,5.29281E+000,-1.12693E-001,7.96316E-002,5.29460E+000,1.03153E-002,4.16332E-001,0,7.95975E+001,-2.55642E+000,9.99592E-001,4.06509E+001,-3.33093E+001,9.98595E-001,1.02727E-001,-4.25004E-002,-1.78557E-003,1.02749E-001,-4.25224E-002,-7.04307E-001,1.03257E-001,1.10800E+000,-2.11315E-002,0.00000E+000,1.46538E-002,9.59979E-001,0.00000E+000,2.71659E-003,-5.95999E-002,1.00000E+000,16
1129,1307,1.80773E+001,-1.28679E+000,3.50523E-002,5.28147E+000,-1.47809E-001,4.19654E-002,5.28371E+000,1.48155E-002,3.94617E-001,0,7.95784E+001,-3.04170E+000,9.99448E-001,4.05520E+001,-3.37413E+001,9.97201E-001,1.03460E-001,-4.24950E-002,-1.68488E-003,1.03480E-001,-4.25144E-002,-6.61295E-001,1.04027E-001,1.10881E+000,-2.11211E-002,0.00000E+000,1.48593E-002,9.59982E-001,0.00000E+000,2.11489E-003,-5.96076E-002,1.00000E+000,16
1129,1317,1.80803E+001,-6.72513E-001,-2.71786E-002,5.27280E+000,-1.78619E-001,-1.65759E-003,5.27582E+000,8.70623E-003,4.02647E-001,0,7.96178E+001,-3.46275E+000,9.99454E-001,4.05620E+001,-3.40769E+001,9.97690E-001,1.04194E-001,-4.24885E-002,-1.58215E-003,1.04211E-001,-4.25056E-002,-6.17909E-001,1.04799E-001,1.10962E+000,-2.11065E-002,0.00000E+000,1.50653E-002,9.59986E-001,0.00000E+000,1.51196E-003,-5.96185E-002,1.00000E+000,16
729,1347,-1.08577E+001,6.48341E-001,1.43138E-002,2.38261E+000,-5.57056E-001,2.99478E-002,2.44704E+000,5.33093E-003,5.58352E-001,0,3.70399E+001,-9.09769E+000,9.99689E-001,-6.27440E+000,-4.75955E+001,9.99626E-001,9.89460E-002,-4.19951E-002,-7.36286E-004,9.89499E-002,-4.19989E-002,-2.99306E-001,9.93257E-002,1.10401E+000,-1.39632E-003,0.00000E+000,-7.81281E-005,9.61032E-001,0.00000E+000,-2.00186E-003,-6.71077E-002,1.00000E+000,16
729,1357,-1.08389E+001,1.27921E+000,3.53415E-002,2.37935E+000,-5.74683E-001,-5.07653E-003,2.44777E+000,6.42606E-003,5.61145E-001,0,3.70863E+001,-9.30428E+000,9.99404E-001,-5.79176E+000,-4.79352E+001,9.99462E-001,9.83784E-002,-4.20029E-002,-8.59749E-004,9.83837E-002,-4.20082E-002,-3.50884E-001,9.87327E-002,1.10338E+000,-1.41749E-003,0.00000E+000,-2.40555E-004,9.61026E-001,0.00000E+000,-2.87353E-003,-6.71373E-002,1.00000E+000,16
1129,1327,1.80837E+001,-4.99363E-002,-6.31949E-002,5.26052E+000,-2.03232E-001,-3.49653E-002,5.26456E+000,9.39009E-003,3.95034E-001,0,7.95578E+001,-3.80637E+000,9.99464E-001,4.06217E+001,-3.43497E+001,9.98736E-001,1.04928E-001,-4.24811E-002,-1.47712E-003,1.04943E-001,-4.24959E-002,-5.74057E-001,1.05573E-001,1.11043E+000,-2.10870E-002,0.00000E+000,1.52716E-002,9.59991E-001,0.00000E+000,9.07799E-004,-5.96329E-002,1.00000E+000,16
729,1337,-1.08766E+001,3.36174E-002,2.75326E-002,2.38078E+000,-5.27426E-001,7.19164E-002,2.43957E+000,7.38254E-003,5.48692E-001,0,3.68883E+001,-8.71656E+000,9.99239E-001,-6.66283E+000,-4.70890E+001,9.98999E-001,9.95103E-002,-4.19890E-002,-6.15526E-004,9.95129E-002,-4.19916E-002,-2.49232E-001,9.99160E-002,1.10463E+000,-1.38002E-003,0.00000E+000,8.36379E-005,9.61036E-001,0.00000E+000,-1.13373E-003,-6.70850E-002,1.00000E+000,16
729,1327,-1.08873E+001,-5.77311E-001,7.19364E-002,2.38079E+000,-4.99924E-001,1.11734E-001,2.43528E+000,8.00210E-003,5.37923E-001,0,3.67692E+001,-8.34857E+000,9.99179E-001,-6.84410E+000,-4.65930E+001,9.98798E-001,1.00070E-001,-4.19850E-002,-4.98208E-004,1.00072E-001,-4.19868E-002,-2.00942E-001,1.00502E-001,1.10525E+000,-1.36970E-003,0.00000E+000,2.44380E-004,9.61039E-001,0.00000E+000,-2.71104E-004,-6.70706E-002,1.00000E+000,16
1129,1337,1.80985E+001,5.77953E-001,-6.38309E-002,5.24797E+000,-2.32972E-001,-7.99253E-002,5.25374E+000,9.10255E-003,4.49262E-001,0,7.95320E+001,-4.18068E+000,9.99398E-001,4.09195E+001,-3.45877E+001,9.99122E-001,1.05670E-001,-4.24704E-002,-1.36451E-003,1.05682E-001,-4.24829E-002,-5.27689E-001,1.06357E-001,1.11126E+000,-2.10532E-002,0.00000E+000,1.54806E-002,9.59999E-001,0.00000E+000,2.96091E-004,-5.96580E-002,1.00000E+000,16
729,1317,-1.08924E+001,-1.18257E+000,1.46522E-001,2.38215E+000,-4.69728E-001,1.58683E-001,2.43320E+000,9.56029E-003,5.53729E-001,0,3.66471E+001,-7.97387E+000,9.99186E-001,-6.85803E+000,-4.60611E+001,9.98343E-001,1.00627E-001,-4.19826E-002,-3.83054E-004,1.00628E-001,-4.19836E-002,-1.53897E-001,1.01087E-001,1.10586E+000,-1.36347E-003,0.00000E+000,4.04696E-004,9.61040E-001,0.00000E+000,5.89239E-004,-6.70619E-002,1.00000E+000,16
1129,1347,1.81084E+001,1.20983E+000,-5.23551E-002,5.23104E+000,-2.55996E-001,-1.10754E-001,5.23847E+000,1.16000E-002,4.58374E-001,0,7.93835E+001,-4.50090E+000,9.99216E-001,4.11609E+001,-3.48174E+001,9.98575E-001,1.06408E-001,-4.24598E-002,-1.25268E-003,1.06418E-001,-4.24703E-002,-4.82081E-001,1.07138E-001,1.11208E+000,-2.10201E-002,0.00000E+000,1.56887E-002,9.60008E-001,0.00000E+000,-3.13171E-004,-5.96826E-002,1.00000E+000,16
719,1347,-1.15707E+001,6.47687E-001,1.61257E-002,2.31362E+000,-5.51572E-001,3.32548E-002,2.37869E+000,9.19816E-003,5.65283E-001,0,3.59816E+001,-9.01459E+000,9.99275E-001,-7.19468E+000,-4.77088E+001,9.99146E-001,9.81363E-002,-4.18097E-002,-6.84221E-004,9.81396E-002,-4.18130E-002,-2.80121E-001,9.84967E-002,1.10312E+000,-6.32550E-004,0.00000E+000,-6.53811E-004,9.61132E-001,0.00000E+000,-1.81003E-003,-6.58912E-002,1.00000E+000,16
719,1357,-1.15525E+001,1.27161E+000,3.45436E-002,2.31008E+000,-5.76441E-001,-3.54234E-003,2.38092E+000,7.67294E-003,5.71889E-001,0,3.60306E+001,-9.32206E+000,9.99251E-001,-6.72792E+000,-4.81497E+001,9.99329E-001,9.73620E-002,-4.18141E-002,-7.64050E-004,9.73662E-002,-4.18183E-002,-3.14530E-001,9.76884E-002,1.10226E+000,-6.60933E-004,0.00000E+000,-7.13008E-004,9.61130E-001,0.00000E+000,-2.90752E-003,-6.59278E-002,1.00000E+000,16
719,1337,-1.15874E+001,3.14895E-002,2.91225E-002,2.31289E+000,-5.24626E-001,7.07442E-002,2.37270E+000,9.71143E-003,5.71073E-001,0,3.58613E+001,-8.66762E+000,9.98826E-001,-7.55394E+000,-4.72147E+001,9.98247E-001,9.89041E-002,-4.18064E-002,-6.08220E-004,9.89067E-002,-4.18090E-002,-2.47654E-001,9.92998E-002,1.10396E+000,-6.11604E-004,0.00000E+000,-5.94975E-004,9.61134E-001,0.00000E+000,-7.19254E-004,-6.58642E-002,1.00000E+000,16
719,1327,-1.15970E+001,-5.79206E-001,7.75311E-002,2.31365E+000,-4.97432E-001,1.12912E-001,2.36921E+000,6.94064E-003,5.66846E-001,0,3.57477E+001,-8.31191E+000,9.98819E-001,-7.70719E+000,-4.67184E+001,9.98403E-001,9.96658E-002,-4.18042E-002,-5.35977E-004,9.96678E-002,-4.18063E-002,-2.17068E-001,1.00098E-001,1.10480E+000,-5.98085E-004,0.00000E+000,-5.36465E-004,9.61135E-001,0.00000E+000,3.65486E-004,-6.58467E-002,1.00000E+000,16
719,1317,-1.16029E+001,-1.18519E+000,1.56322E-001,2.31307E+000,-4.68503E-001,1.58293E-001,2.36534E+000,9.17170E-003,5.51747E-001,0,3.56011E+001,-7.94536E+000,9.98867E-001,-7.72201E+000,-4.62201E+001,9.98076E-001,1.00424E-001,-4.18031E-002,-4.66845E-004,1.00426E-001,-4.18046E-002,-1.88064E-001,1.00894E-001,1.10564E+000,-5.91080E-004,0.00000E+000,-4.78090E-004,9.61135E-001,0.00000E+000,1.44772E-003,-6.58377E-002,1.00000E+000,16
1139,1297,1.88192E+001,-1.88379E+000,1.07143E-001,5.37159E+000,-1.05110E-001,8.60230E-002,5.37330E+000,7.50936E-003,3.61727E-001,0,8.06952E+001,-2.46035E+000,9.99770E-001,4.21594E+001,-3.30811E+001,9.98709E-001,1.02934E-001,-4.25541E-002,-1.87690E-003,1.02958E-001,-4.25783E-002,-7.38994E-001,1.03470E-001,1.10824E+000,-2.01969E-002,0.00000E+000,1.37252E-002,9.59963E-001,0.00000E+000,1.67640E-003,-5.99444E-002,1.00000E+000,16
1139,1307,1.88132E+001,-1.27788E+000,2.23585E-002,5.35848E+000,-1.42311E-001,3.85216E-002,5.36051E+000,9.02200E-003,3.40642E-001,0,8.06903E+001,-2.94964E+000,9.99632E-001,4.19916E+001,-3.35117E+001,9.98687E-001,1.03756E-001,-4.25485E-002,-1.76576E-003,1.03778E-001,-4.25698E-002,-6.91372E-001,1.04334E-001,1.10915E+000,-2.01867E-002,0.00000E+000,1.39499E-002,9.59965E-001,0.00000E+000,1.08113E-003,-5.99510E-002,1.00000E+000,16
1139,1337,1.88292E+001,5.98234E-001,-6.77378E-002,5.31747E+000,-2.18619E-001,-8.18237E-002,5.32260E+000,1.04280E-002,4.73966E-001,0,8.05228E+001,-3.98256E+000,9.99129E-001,4.22894E+001,-3.41571E+001,9.98153E-001,1.06236E-001,-4.25210E-002,-1.40819E-003,1.06250E-001,-4.25343E-002,-5.42315E-001,1.06951E-001,1.11191E+000,-2.01073E-002,0.00000E+000,1.46296E-002,9.59985E-001,0.00000E+000,-7.19614E-004,-6.00029E-002,1.00000E+000,16
1139,1347,1.88503E+001,1.22761E+000,-3.50892E-002,5.30743E+000,-2.47306E-001,-1.07959E-001,5.31429E+000,1.09594E-002,4.79298E-001,0,8.04596E+001,-4.39216E+000,9.99000E-001,4.27378E+001,-3.44718E+001,9.97628E-001,1.07067E-001,-4.25081E-002,-1.28089E-003,1.07078E-001,-4.25191E-002,-4.90605E-001,1.07831E-001,1.11283E+000,-2.00642E-002,0.00000E+000,1.48578E-002,9.59996E-001,0.00000E+000,-1.32438E-003,-6.00311E-002,1.00000E+000,16
1139,1327,1.88184E+001,-3.51106E-002,-7.07255E-002,5.33399E+000,-1.95870E-001,-4.13310E-002,5.33775E+000,1.03049E-002,4.42834E-001,0,8.06274E+001,-3.69225E+000,9.99301E-001,4.20495E+001,-3.39853E+001,9.97850E-001,1.05406E-001,-4.25327E-002,-1.53303E-003,1.05422E-001,-4.25486E-002,-5.93647E-001,1.06073E-001,1.11098E+000,-2.01452E-002,0.00000E+000,1.44017E-002,9.59976E-001,0.00000E+000,-1.15984E-004,-5.99781E-002,1.00000E+000,16
1139,1317,1.88089E+001,-6.61625E-001,-4.23155E-002,5.34341E+000,-1.71453E-001,-3.09092E-003,5.34616E+000,1.05639E-002,4.03453E-001,0,8.06269E+001,-3.36461E+000,9.99574E-001,4.18821E+001,-3.37831E+001,9.98233E-001,1.04579E-001,-4.25419E-002,-1.65222E-003,1.04598E-001,-4.25604E-002,-6.43341E-001,1.05201E-001,1.11006E+000,-2.01716E-002,0.00000E+000,1.41751E-002,9.59969E-001,0.00000E+000,4.84389E-004,-5.99609E-002,1.00000E+000,16
709,1347,-1.22863E+001,6.46589E-001,1.30426E-002,2.24161E+000,-5.46445E-001,3.20269E-002,2.30748E+000,8.75640E-003,5.43454E-001,0,3.48885E+001,-8.91266E+000,9.99145E-001,-8.16429E+000,-4.78331E+001,9.99002E-001,9.73635E-002,-4.11412E-002,-7.47275E-004,9.73676E-002,-4.11452E-002,-3.09116E-001,9.77559E-002,1.10226E+000,2.25112E-004,0.00000E+000,-1.52823E-003,9.61717E-001,0.00000E+000,-1.70721E-003,-6.49892E-002,1.00000E+000,16
709,1357,-1.22657E+001,1.26954E+000,2.91963E-002,2.24125E+000,-5.70729E-001,-3.99671E-003,2.31278E+000,8.07050E-003,5.29086E-001,0,3.49839E+001,-9.21615E+000,9.99269E-001,-7.66497E+000,-4.82958E+001,9.99334E-001,9.64617E-002,-4.11470E-002,-8.53934E-004,9.64670E-002,-4.11523E-002,-3.55532E-001,9.68129E-002,1.10127E+000,1.93242E-004,0.00000E+000,-1.63411E-003,9.61714E-001,0.00000E+000,-2.86065E-003,-6.50264E-002,1.00000E+000,16
709,1337,-1.22961E+001,2.61161E-002,3.62266E-002,2.24618E+000,-5.25103E-001,7.16991E-002,2.30786E+000,7.82666E-003,5.61095E-001,0,3.48457E+001,-8.66581E+000,9.99069E-001,-8.39244E+000,-4.74182E+001,9.98696E-001,9.82584E-002,-4.11372E-002,-6.45668E-004,9.82614E-002,-4.11402E-002,-2.65381E-001,9.86937E-002,1.10325E+000,2.47043E-004,0.00000E+000,-1.42292E-003,9.61720E-001,0.00000E+000,-5.59937E-004,-6.49637E-002,1.00000E+000,16
709,1317,-1.23079E+001,-1.18523E+000,1.74389E-001,2.24834E+000,-4.65657E-001,1.61657E-001,2.30173E+000,9.83215E-003,5.79893E-001,0,3.46094E+001,-7.91097E+000,9.99242E-001,-8.47323E+000,-4.63415E+001,9.98807E-001,1.00030E-001,-4.11335E-002,-4.53958E-004,1.00032E-001,-4.11350E-002,-1.84250E-001,1.00556E-001,1.10521E+000,2.68309E-004,0.00000E+000,-1.21367E-003,9.61722E-001,0.00000E+000,1.71969E-003,-6.49389E-002,1.00000E+000,16
709,1327,-1.23013E+001,-5.81217E-001,9.53998E-002,2.24914E+000,-4.96157E-001,1.13335E-001,2.30600E+000,1.09082E-002,5.88239E-001,0,3.47672E+001,-8.30128E+000,9.99224E-001,-8.44954E+000,-4.68750E+001,9.98686E-001,9.91461E-002,-4.11351E-002,-5.48909E-004,9.91483E-002,-4.11372E-002,-2.24189E-001,9.96258E-002,1.10423E+000,2.59488E-004,0.00000E+000,-1.31821E-003,9.61721E-001,0.00000E+000,5.80802E-004,-6.49492E-002,1.00000E+000,16
1149,1297,1.95486E+001,-1.87317E+000,9.30377E-002,5.44243E+000,-9.92347E-002,8.43760E-002,5.44398E+000,1.61931E-002,3.88738E-001,0,8.17049E+001,-2.37484E+000,9.99354E-001,4.34987E+001,-3.27843E+001,9.96843E-001,1.03156E-001,-4.26142E-002,-1.95685E-003,1.03182E-001,-4.26404E-002,-7.68969E-001,1.03698E-001,1.10850E+000,-1.93266E-002,0.00000E+000,1.28918E-002,9.59953E-001,0.00000E+000,3.36616E-004,-6.05416E-002,1.00000E+000,16
1149,1307,1.95506E+001,-1.25748E+000,1.94721E-002,5.43596E+000,-1.26642E-001,4.30826E-002,5.43761E+000,1.03933E-002,3.76644E-001,0,8.17717E+001,-2.74680E+000,9.99517E-001,4.34740E+001,-3.30799E+001,9.98114E-001,1.04059E-001,-4.26096E-002,-1.86498E-003,1.04083E-001,-4.26333E-002,-7.28391E-001,1.04649E-001,1.10950E+000,-1.93134E-002,0.00000E+000,1.30720E-002,9.59955E-001,0.00000E+000,-1.81781E-004,-6.05484E-002,1.00000E+000,16
1149,1317,1.95489E+001,-6.40980E-001,-3.57305E-002,5.42130E+000,-1.57278E-001,2.29916E-003,5.42358E+000,9.43551E-003,4.14418E-001,0,8.17113E+001,-3.17058E+000,9.99447E-001,4.34214E+001,-3.33787E+001,9.97982E-001,1.04966E-001,-4.26039E-002,-1.76966E-003,1.04988E-001,-4.26252E-002,-6.86960E-001,1.05604E-001,1.11051E+000,-1.92934E-002,0.00000E+000,1.32530E-002,9.59959E-001,0.00000E+000,-7.02738E-004,-6.05588E-002,1.00000E+000,16
1149,1327,1.95516E+001,-1.64957E-002,-7.43663E-002,5.40655E+000,-1.80832E-001,-3.96871E-002,5.40972E+000,9.47585E-003,3.89635E-001,0,8.16480E+001,-3.47851E+000,9.99318E-001,4.34643E+001,-3.36214E+001,9.97792E-001,1.05872E-001,-4.25972E-002,-1.67142E-003,1.05891E-001,-4.26160E-002,-6.44908E-001,1.06561E-001,1.11152E+000,-1.92667E-002,0.00000E+000,1.34341E-002,9.59963E-001,0.00000E+000,-1.22374E-003,-6.05726E-002,1.00000E+000,16
1149,1337,1.95632E+001,6.10286E-001,-7.46671E-002,5.39222E+000,-2.11490E-001,-7.67638E-002,5.39691E+000,1.41693E-002,4.78476E-001,0,8.15683E+001,-3.89499E+000,9.99376E-001,4.37077E+001,-3.38573E+001,9.98386E-001,1.06788E-001,-4.25884E-002,-1.56645E-003,1.06804E-001,-4.26049E-002,-6.00749E-001,1.07530E-001,1.11253E+000,-1.92271E-002,0.00000E+000,1.36173E-002,9.59970E-001,0.00000E+000,-1.75103E-003,-6.05931E-002,1.00000E+000,16
1149,1347,1.95905E+001,1.24301E+000,-3.09143E-002,5.38441E+000,-2.39968E-001,-1.06898E-001,5.39081E+000,1.39731E-002,4.67320E-001,0,8.15516E+001,-4.27462E+000,9.99375E-001,4.42693E+001,-3.41507E+001,9.98058E-001,1.07705E-001,-4.25774E-002,-1.45505E-003,1.07719E-001,-4.25915E-002,-5.54673E-001,1.08502E-001,1.11356E+000,-1.91735E-002,0.00000E+000,1.38011E-002,9.59980E-001,0.00000E+000,-2.27993E-003,-6.06208E-002,1.00000E+000,16
699,1347,-1.29878E+001,6.42852E-001,2.09990E-002,2.18188E+000,-5.46417E-001,3.40990E-002,2.24952E+000,8.41309E-003,5.71969E-001,0,3.39758E+001,-8.90445E+000,9.99409E-001,-8.88405E+000,-4.79952E+001,9.99356E-001,9.65112E-002,-4.04775E-002,-6.63616E-004,9.65144E-002,-4.04807E-002,-2.77550E-001,9.69312E-002,1.10132E+000,1.37639E-003,0.00000E+000,-2.38131E-003,9.62293E-001,0.00000E+000,-1.54865E-003,-6.40006E-002,1.00000E+000,16
699,1357,-1.29704E+001,1.26099E+000,3.49822E-002,2.17883E+000,-5.75024E-001,-2.35872E-003,2.25343E+000,8.41424E-003,5.66309E-001,0,3.40315E+001,-9.27866E+000,9.99300E-001,-8.43882E+000,-4.85251E+001,9.99227E-001,9.55137E-002,-4.04798E-002,-7.17704E-004,9.55174E-002,-4.04836E-002,-3.02366E-001,9.58861E-002,1.10023E+000,1.34203E-003,0.00000E+000,-2.39329E-003,9.62292E-001,0.00000E+000,-2.58174E-003,-6.40330E-002,1.00000E+000,16
699,1337,-1.30056E+001,1.99505E-002,4.12375E-002,2.17856E+000,-5.26344E-001,7.18483E-002,2.24239E+000,6.80597E-003,5.56447E-001,0,3.38172E+001,-8.67449E+000,9.99336E-001,-9.24351E+000,-4.76270E+001,9.99162E-001,9.75037E-002,-4.04759E-002,-6.14221E-004,9.75064E-002,-4.04786E-002,-2.55047E-001,9.79734E-002,1.10242E+000,1.40075E-003,0.00000E+000,-2.36938E-003,9.62293E-001,0.00000E+000,-5.18710E-004,-6.39776E-002,1.00000E+000,16
699,1317,-1.30181E+001,-1.18510E+000,1.87286E-001,2.17761E+000,-4.63688E-001,1.57644E-001,2.23200E+000,1.08337E-002,6.22593E-001,0,3.35448E+001,-7.86938E+000,9.99320E-001,-9.31286E+000,-4.64427E+001,9.98722E-001,9.94625E-002,-4.04748E-002,-5.29470E-004,9.94645E-002,-4.04768E-002,-2.16782E-001,1.00037E-001,1.10458E+000,1.42028E-003,0.00000E+000,-2.34575E-003,9.62293E-001,0.00000E+000,1.52034E-003,-6.39592E-002,1.00000E+000,16
699,1327,-1.30130E+001,-5.81050E-001,1.00300E-001,2.17867E+000,-4.94157E-001,1.10450E-001,2.23673E+000,9.00013E-003,6.75655E-001,0,3.37029E+001,-8.26061E+000,9.99255E-001,-9.33357E+000,-4.69387E+001,9.98001E-001,9.84822E-002,-4.04751E-002,-5.70621E-004,9.84846E-002,-4.04775E-002,-2.35277E-001,9.90033E-002,1.10349E+000,1.41337E-003,0.00000E+000,-2.35758E-003,9.62293E-001,0.00000E+000,4.98891E-004,-6.39657E-002,1.00000E+000,16
1159,1307,2.02779E+001,-1.24843E+000,1.15635E-003,5.50413E+000,-1.21693E-001,3.70950E-002,5.50560E+000,1.10467E-002,3.68433E-001,0,8.27579E+001,-2.66265E+000,9.98518E-001,4.47776E+001,-3.28147E+001,9.97442E-001,1.04462E-001,-4.28164E-002,-1.87059E-003,1.04486E-001,-4.28402E-002,-7.27559E-001,1.05049E-001,1.10996E+000,-1.84945E-002,0.00000E+000,1.24144E-002,9.59796E-001,0.00000E+000,-1.35734E-003,-6.10665E-002,1.00000E+000,16
1159,1317,2.02816E+001,-6.25028E-001,-4.96792E-002,5.49467E+000,-1.46255E-001,5.82060E-004,5.49661E+000,1.09371E-002,4.17634E-001,0,8.27572E+001,-2.99968E+000,9.98825E-001,4.48155E+001,-3.30075E+001,9.98583E-001,1.05431E-001,-4.28150E-002,-1.83293E-003,1.05453E-001,-4.28376E-002,-7.08268E-001,1.06070E-001,1.11104E+000,-1.84728E-002,0.00000E+000,1.24834E-002,9.59798E-001,0.00000E+000,-1.88459E-003,-6.10771E-002,1.00000E+000,16
1159,1327,2.02911E+001,-2.13896E-003,-7.33994E-002,5.48432E+000,-1.74121E-001,-3.58434E-002,5.48720E+000,7.41647E-003,4.09840E-001,0,8.27390E+001,-3.37787E+000,9.99491E-001,4.49888E+001,-3.32965E+001,9.98914E-001,1.06400E-001,-4.28131E-002,-1.79035E-003,1.06422E-001,-4.28346E-002,-6.87335E-001,1.07094E-001,1.11212E+000,-1.84402E-002,0.00000E+000,1.25526E-002,9.59800E-001,0.00000E+000,-2.41309E-003,-6.10930E-002,1.00000E+000,16
1159,1297,2.02775E+001,-1.86118E+000,7.18468E-002,5.51302E+000,-9.13920E-002,7.85330E-002,5.51433E+000,1.20097E-002,4.17326E-001,0,8.27252E+001,-2.25398E+000,9.98907E-001,4.48227E+001,-3.24506E+001,9.95516E-001,1.03499E-001,-4.28177E-002,-1.90533E-003,1.03523E-001,-4.28425E-002,-7.45935E-001,1.04034E-001,1.10889E+000,-1.85099E-002,0.00000E+000,1.23458E-002,9.59795E-001,0.00000E+000,-8.33526E-004,-6.10589E-002,1.00000E+000,16
1159,1337,2.03131E+001,6.24143E-001,-5.95087E-002,5.47677E+000,-2.05767E-001,-7.26203E-002,5.48112E+000,1.01026E-002,4.42134E-001,0,8.27586E+001,-3.81098E+000,9.99746E-001,4.54159E+001,-3.35969E+001,9.99507E-001,1.07376E-001,-4.28106E-002,-1.74064E-003,1.07397E-001,-4.28307E-002,-6.63930E-001,1.08127E-001,1.11321E+000,-1.83920E-002,0.00000E+000,1.26223E-002,9.59803E-001,0.00000E+000,-2.94599E-003,-6.11167E-002,1.00000E+000,16
1159,1347,2.03327E+001,1.25682E+000,-3.31263E-002,5.46365E+000,-2.31447E-001,-1.09315E-001,5.46965E+000,1.15621E-002,4.42571E-001,0,8.26893E+001,-4.16160E+000,9.99462E-001,4.58247E+001,-3.38462E+001,9.98794E-001,1.08351E-001,-4.28079E-002,-1.68880E-003,1.08370E-001,-4.28268E-002,-6.40023E-001,1.09161E-001,1.11429E+000,-1.83388E-002,0.00000E+000,1.26921E-002,9.59806E-001,0.00000E+000,-3.47878E-003,-6.11427E-002,1.00000E+000,16
689,1347,-1.36936E+001,6.36266E-001,2.89734E-002,2.11704E+000,-5.49351E-001,3.36893E-002,2.18741E+000,8.43914E-003,6.08250E-001,0,3.29902E+001,-8.94442E+000,9.99567E-001,-9.66510E+000,-4.81981E+001,9.98876E-001,9.56152E-002,-4.00463E-002,-6.57966E-004,9.56184E-002,-4.00494E-002,-2.77879E-001,9.60373E-002,1.10033E+000,2.49267E-003,0.00000E+000,-3.34619E-003,9.62657E-001,0.00000E+000,-1.55203E-003,-6.32170E-002,1.00000E+000,16
689,1357,-1.36786E+001,1.25264E+000,3.13960E-002,2.11387E+000,-5.77233E-001,-2.56945E-003,2.19126E+000,8.39521E-003,5.72950E-001,0,3.30434E+001,-9.30108E+000,9.99431E-001,-9.28736E+000,-4.87466E+001,9.99246E-001,9.44730E-002,-4.00491E-002,-7.28852E-004,9.44770E-002,-4.00530E-002,-3.10421E-001,9.48406E-002,1.09908E+000,2.45770E-003,0.00000E+000,-3.39592E-003,9.62656E-001,0.00000E+000,-2.52085E-003,-6.32440E-002,1.00000E+000,16
689,1337,-1.37083E+001,2.24610E-002,4.85491E-002,2.11763E+000,-5.18764E-001,7.60814E-002,2.18157E+000,8.63628E-003,5.73999E-001,0,3.28773E+001,-8.56512E+000,9.99495E-001,-9.97818E+000,-4.76954E+001,9.99398E-001,9.67570E-002,-4.00439E-002,-5.89482E-004,9.67595E-002,-4.00464E-002,-2.46884E-001,9.72368E-002,1.10159E+000,2.52226E-003,0.00000E+000,-3.29637E-003,9.62658E-001,0.00000E+000,-5.81637E-004,-6.31941E-002,1.00000E+000,16
1169,1327,2.10235E+001,1.01770E-002,-8.38956E-002,5.55504E+000,-1.67438E-001,-4.13228E-002,5.55772E+000,6.93733E-003,4.29247E-001,0,8.37595E+001,-3.28247E+000,9.99693E-001,4.63872E+001,-3.29795E+001,9.99260E-001,1.06801E-001,-4.29950E-002,-1.72726E-003,1.06821E-001,-4.30149E-002,-6.60548E-001,1.07493E-001,1.11258E+000,-1.74905E-002,0.00000E+000,1.19189E-002,9.59649E-001,0.00000E+000,-3.59713E-003,-6.13509E-002,1.00000E+000,16
1169,1337,2.10485E+001,6.41573E-001,-6.03755E-002,5.54840E+000,-1.94293E-001,-7.59008E-002,5.55232E+000,9.57592E-003,4.31342E-001,0,8.37812E+001,-3.64758E+000,9.99732E-001,4.68742E+001,-3.32350E+001,9.99278E-001,1.07798E-001,-4.29963E-002,-1.70718E-003,1.07817E-001,-4.30156E-002,-6.48549E-001,1.08548E-001,1.11369E+000,-1.74377E-002,0.00000E+000,1.19211E-002,9.59649E-001,0.00000E+000,-4.00618E-003,-6.13703E-002,1.00000E+000,16
1169,1347,2.10749E+001,1.27247E+000,-2.53690E-002,5.54007E+000,-2.23416E-001,-1.11459E-001,5.54569E+000,8.93707E-003,4.23270E-001,0,8.37799E+001,-4.04574E+000,9.99405E-001,4.74019E+001,-3.35331E+001,9.99116E-001,1.08795E-001,-4.29976E-002,-1.68484E-003,1.08814E-001,-4.30163E-002,-6.35856E-001,1.09606E-001,1.11481E+000,-1.73798E-002,0.00000E+000,1.19234E-002,9.59649E-001,0.00000E+000,-4.41599E-003,-6.13917E-002,1.00000E+000,16
689,1327,-1.37266E+001,-5.87946E-001,9.02047E-002,2.10896E+000,-4.93096E-001,1.09539E-001,2.16861E+000,9.51719E-003,6.38224E-001,0,3.26449E+001,-8.23375E+000,9.99167E-001,-1.02853E+001,-4.71414E+001,9.98632E-001,9.78849E-002,-4.00425E-002,-5.26543E-004,9.78869E-002,-4.00445E-002,-2.18725E-001,9.84248E-002,1.10283E+000,2.54093E-003,0.00000E+000,-3.24706E-003,9.62659E-001,0.00000E+000,3.78881E-004,-6.31797E-002,1.00000E+000,16
1169,1317,2.10140E+001,-6.15789E-001,-5.42028E-002,5.56514E+000,-1.40260E-001,-7.22349E-004,5.56690E+000,1.27937E-002,3.41297E-001,0,8.37566E+001,-2.91335E+000,9.99270E-001,4.62246E+001,-3.28007E+001,9.99095E-001,1.05807E-001,-4.29941E-002,-1.73861E-003,1.05827E-001,-4.30144E-002,-6.69329E-001,1.06443E-001,1.11147E+000,-1.75235E-002,0.00000E+000,1.19166E-002,9.59649E-001,0.00000E+000,-3.18996E-003,-6.13388E-002,1.00000E+000,16
1169,1307,2.10084E+001,-1.23733E+000,-1.07892E-002,5.57418E+000,-1.16390E-001,3.42303E-002,5.57550E+000,1.14221E-002,4.07224E-001,0,8.37577E+001,-2.58444E+000,9.99214E-001,4.61453E+001,-3.25075E+001,9.98514E-001,1.04822E-001,-4.29933E-002,-1.74629E-003,1.04843E-001,-4.30139E-002,-6.76764E-001,1.05404E-001,1.11038E+000,-1.75481E-002,0.00000E+000,1.19144E-002,9.59649E-001,0.00000E+000,-2.78707E-003,-6.13298E-002,1.00000E+000,16
1169,1297,2.10109E+001,-1.84901E+000,6.79574E-002,5.58511E+000,-8.39713E-002,7.99761E-002,5.58631E+000,1.02915E-002,4.52414E-001,0,8.37360E+001,-2.17142E+000,9.99339E-001,4.62479E+001,-3.21472E+001,9.96765E-001,1.03837E-001,-4.29928E-002,-1.74944E-003,1.03858E-001,-4.30136E-002,-6.82538E-001,1.04367E-001,1.10928E+000,-1.75625E-002,0.00000E+000,1.19122E-002,9.59649E-001,0.00000E+000,-2.38432E-003,-6.13245E-002,1.00000E+000,16
689,1317,-1.37326E+001,-1.19171E+000,1.75002E-001,2.10676E+000,-4.64148E-001,1.53844E-001,2.16277E+000,1.10367E-002,6.12295E-001,0,3.24788E+001,-7.85060E+000,9.99090E-001,-1.02844E+001,-4.66214E+001,9.97776E-001,9.90079E-002,-4.00422E-002,-4.68789E-004,9.90095E-002,-4.00437E-002,-1.93162E-001,9.96104E-002,1.10407E+000,2.54844E-003,0.00000E+000,-3.19787E-003,9.62659E-001,0.00000E+000,1.33711E-003,-6.31739E-002,1.00000E+000,16
679,1347,-1.44078E+001,6.28674E-001,1.57510E-002,2.04520E+000,-5.48512E-001,2.19941E-002,2.11759E+000,1.34798E-002,6.27078E-001,0,3.19259E+001,-8.94240E+000,9.98907E-001,-1.06292E+001,-4.83801E+001,9.98887E-001,9.46961E-002,-3.96968E-002,-6.91807E-004,9.46996E-002,-3.97003E-002,-2.94928E-001,9.51107E-002,1.09932E+000,3.64887E-003,0.00000E+000,-4.42765E-003,9.62945E-001,0.00000E+000,-1.50045E-003,-6.24783E-002,1.00000E+000,16
679,1357,-1.43820E+001,1.24694E+000,2.60843E-002,2.05444E+000,-5.75604E-001,1.84483E-003,2.13355E+000,6.55496E-003,5.93228E-001,0,3.21263E+001,-9.28593E+000,9.99428E-001,-1.00623E+001,-4.89162E+001,9.99232E-001,9.33569E-002,-3.97022E-002,-8.34080E-004,9.33621E-002,-3.97075E-002,-3.59139E-001,9.37087E-002,1.09785E+000,3.61151E-003,0.00000E+000,-4.61776E-003,9.62940E-001,0.00000E+000,-2.42884E-003,-6.25020E-002,1.00000E+000,16
1179,1297,2.17382E+001,-1.84151E+000,4.73834E-002,5.65538E+000,-7.88698E-002,8.28578E-002,5.65654E+000,1.72353E-002,4.79837E-001,0,8.47164E+001,-2.12087E+000,9.99600E-001,4.75577E+001,-3.18856E+001,9.97263E-001,1.04147E-001,-4.31230E-002,-1.66078E-003,1.04166E-001,-4.31417E-002,-6.46020E-001,1.04677E-001,1.10964E+000,-1.67833E-002,0.00000E+000,1.14948E-002,9.59553E-001,0.00000E+000,-3.89540E-003,-6.17267E-002,1.00000E+000,16
1179,1307,2.17420E+001,-1.22893E+000,-2.21050E-002,5.64813E+000,-1.09701E-001,3.64833E-002,5.64931E+000,7.50209E-003,3.39489E-001,0,8.47942E+001,-2.49722E+000,9.99691E-001,4.75671E+001,-3.22966E+001,9.98560E-001,1.05097E-001,-4.31225E-002,-1.63840E-003,1.05115E-001,-4.31406E-002,-6.33238E-001,1.05676E-001,1.11070E+000,-1.67653E-002,0.00000E+000,1.15237E-002,9.59554E-001,0.00000E+000,-4.15343E-003,-6.17310E-002,1.00000E+000,16
1179,1317,2.17438E+001,-6.07698E-001,-9.32137E-002,5.63997E+000,-1.32946E-001,-7.47978E-003,5.64154E+000,1.74994E-002,3.23971E-001,0,8.48463E+001,-2.79910E+000,9.99704E-001,4.75443E+001,-3.25078E+001,9.98837E-001,1.06048E-001,-4.31220E-002,-1.61674E-003,1.06065E-001,-4.31396E-002,-6.20889E-001,1.06679E-001,1.11176E+000,-1.67489E-002,0.00000E+000,1.15527E-002,9.59554E-001,0.00000E+000,-4.41196E-003,-6.17350E-002,1.00000E+000,16
1179,1337,2.17861E+001,6.51902E-001,-7.01268E-002,5.62235E+000,-1.89281E-001,-8.56766E-002,5.62619E+000,8.63866E-003,4.07283E-001,0,8.48657E+001,-3.56772E+000,9.99613E-001,4.83562E+001,-3.29699E+001,9.98446E-001,1.07975E-001,-4.31201E-002,-1.54462E-003,1.07991E-001,-4.31359E-002,-5.85642E-001,1.08716E-001,1.11391E+000,-1.66524E-002,0.00000E+000,1.16116E-002,9.59557E-001,0.00000E+000,-4.93712E-003,-6.17587E-002,1.00000E+000,16
1179,1347,2.18211E+001,1.28766E+000,-2.81694E-002,5.61995E+000,-2.16401E-001,-1.23628E-001,5.62547E+000,8.05948E-003,4.20326E-001,0,8.49605E+001,-3.92234E+000,9.99634E-001,4.90261E+001,-3.31949E+001,9.99100E-001,1.08942E-001,-4.31190E-002,-1.50323E-003,1.08957E-001,-4.31339E-002,-5.66336E-001,1.09742E-001,1.11499E+000,-1.65921E-002,0.00000E+000,1.16413E-002,9.59558E-001,0.00000E+000,-5.20116E-003,-6.17734E-002,1.00000E+000,16
679,1327,-1.44342E+001,-5.93788E-001,9.38589E-002,2.04288E+000,-4.93186E-001,1.11216E-001,2.10451E+000,1.13609E-002,6.01129E-001,0,3.16340E+001,-8.22187E+000,9.98943E-001,-1.11018E+001,-4.73566E+001,9.98127E-001,9.73457E-002,-3.96892E-002,-4.18607E-004,9.73470E-002,-3.96905E-002,-1.75022E-001,9.78980E-002,1.10224E+000,3.70329E-003,0.00000E+000,-4.05039E-003,9.62952E-001,0.00000E+000,3.41903E-004,-6.24439E-002,1.00000E+000,16
679,1337,-1.44214E+001,1.70308E-002,4.15853E-002,2.04697E+000,-5.18433E-001,7.20021E-002,2.11282E+000,1.20604E-002,5.81635E-001,0,3.18109E+001,-8.54157E+000,9.99174E-001,-1.09083E+001,-4.78617E+001,9.99092E-001,9.60258E-002,-3.96917E-002,-5.51439E-004,9.60281E-002,-3.96939E-002,-2.32796E-001,9.65074E-002,1.10078E+000,3.68360E-003,0.00000E+000,-4.23851E-003,9.62949E-001,0.00000E+000,-5.76782E-004,-6.24564E-002,1.00000E+000,16
1179,1327,2.17598E+001,1.72860E-002,-9.30483E-002,5.63012E+000,-1.63028E-001,-4.19880E-002,5.63264E+000,1.20131E-002,3.91288E-001,0,8.48261E+001,-3.24243E+000,9.99691E-001,4.78520E+001,-3.27745E+001,9.97861E-001,1.07009E-001,-4.31212E-002,-1.58362E-003,1.07025E-001,-4.31379E-002,-6.04285E-001,1.07694E-001,1.11283E+000,-1.67072E-002,0.00000E+000,1.15821E-002,9.59555E-001,0.00000E+000,-4.67366E-003,-6.17452E-002,1.00000E+000,16
679,1317,-1.44415E+001,-1.19676E+000,1.76694E-001,2.03945E+000,-4.63731E-001,1.54222E-001,2.09718E+000,9.78717E-003,6.24416E-001,0,3.14531E+001,-7.85034E+000,9.99231E-001,-1.11258E+001,-4.67939E+001,9.97929E-001,9.86587E-002,-3.96886E-002,-2.91074E-004,9.86593E-002,-3.96892E-002,-1.20546E-001,9.92853E-002,1.10368E+000,3.71219E-003,0.00000E+000,-3.86288E-003,9.62953E-001,0.00000E+000,1.25762E-003,-6.24383E-002,1.00000E+000,16
669,1327,-1.51373E+001,-6.03289E-001,9.83509E-002,1.98158E+000,-4.95879E-001,1.17699E-001,2.04607E+000,9.36254E-003,5.76491E-001,0,3.06835E+001,-8.27631E+000,9.99568E-001,-1.18440E+001,-4.76232E+001,9.98900E-001,9.66870E-002,-3.93650E-002,-2.36465E-004,9.66874E-002,-3.93654E-002,-9.95826E-002,9.72416E-002,1.10150E+000,5.36292E-003,0.00000E+000,-5.14476E-003,9.63200E-001,0.00000E+000,2.84105E-004,-6.14538E-002,1.00000E+000,16
669,1337,-1.51268E+001,1.28895E-002,4.80861E-002,1.98300E+000,-5.17729E-001,7.81732E-002,2.05096E+000,7.27958E-003,6.06069E-001,0,3.08180E+001,-8.53777E+000,9.99390E-001,-1.16788E+001,-4.80280E+001,9.99361E-001,9.51516E-002,-3.93681E-002,-4.19180E-004,9.51529E-002,-3.93694E-002,-1.78538E-001,9.56236E-002,1.09981E+000,5.33915E-003,0.00000E+000,-5.43004E-003,9.63196E-001,0.00000E+000,-6.22832E-004,-6.14666E-002,1.00000E+000,16
669,1347,-1.51117E+001,6.23942E-001,1.67236E-002,1.98614E+000,-5.45615E-001,4.10416E-002,2.06013E+000,6.50069E-003,5.79234E-001,0,3.09729E+001,-8.89544E+000,9.99299E-001,-1.13914E+001,-4.85812E+001,9.99264E-001,9.36131E-002,-3.93728E-002,-6.05350E-004,9.36158E-002,-3.93755E-002,-2.60802E-001,9.40084E-002,1.09812E+000,5.30784E-003,0.00000E+000,-5.71527E-003,9.63190E-001,0.00000E+000,-1.52964E-003,-6.14834E-002,1.00000E+000,16
669,1357,-1.50872E+001,1.24690E+000,2.74085E-002,1.99127E+000,-5.68066E-001,4.00228E-003,2.07072E+000,6.90305E-003,5.74672E-001,0,3.11540E+001,-9.17773E+000,9.99208E-001,-1.08397E+001,-4.90335E+001,9.99281E-001,9.20618E-002,-3.93815E-002,-8.01532E-004,9.20667E-002,-3.93864E-002,-3.49368E-001,9.23860E-002,1.09642E+000,5.25701E-003,0.00000E+000,-6.00227E-003,9.63182E-001,0.00000E+000,-2.44203E-003,-6.15107E-002,1.00000E+000,16
1189,1337,2.25282E+001,6.63717E-001,-8.17557E-002,5.69990E+000,-1.85034E-001,-9.90147E-002,5.70376E+000,1.14178E-002,4.13329E-001,0,8.60167E+001,-3.47683E+000,9.99647E-001,4.99107E+001,-3.26623E+001,9.98698E-001,1.07888E-001,-4.33010E-002,-1.38109E-003,1.07901E-001,-4.33137E-002,-5.23328E-001,1.08598E-001,1.11382E+000,-1.59347E-002,0.00000E+000,1.13390E-002,9.59378E-001,0.00000E+000,-5.44918E-003,-6.16275E-002,1.00000E+000,16
669,1317,-1.51432E+001,-1.20291E+000,1.86704E-001,1.97825E+000,-4.63540E-001,1.59402E-001,2.03808E+000,1.18935E-002,5.87091E-001,0,3.05076E+001,-7.86161E+000,9.99574E-001,-1.18307E+001,-4.70249E+001,9.98600E-001,9.82097E-002,-3.93653E-002,-6.24045E-005,9.82098E-002,-3.93653E-002,-2.59896E-002,9.88516E-002,1.10318E+000,5.36996E-003,0.00000E+000,-4.86122E-003,9.63201E-001,0.00000E+000,1.18551E-003,-6.14500E-002,1.00000E+000,16
1189,1297,2.24823E+001,-1.83140E+000,5.82957E-002,5.73169E+000,-7.49228E-002,7.72068E-002,5.73270E+000,1.21622E-002,4.36269E-001,0,8.58119E+001,-2.06427E+000,9.99552E-001,4.91809E+001,-3.16842E+001,9.96979E-001,1.04450E-001,-4.32948E-002,-1.38093E-003,1.04463E-001,-4.33077E-002,-5.35466E-001,1.04970E-001,1.11000E+000,-1.60477E-002,0.00000E+000,1.14825E-002,9.59383E-001,0.00000E+000,-5.41934E-003,-6.16266E-002,1.00000E+000,16
1189,1307,2.24755E+001,-1.21901E+000,-3.11854E-002,5.71840E+000,-1.06617E-001,2.88417E-002,5.71946E+000,8.52502E-003,4.01544E-001,0,8.58121E+001,-2.45595E+000,9.99336E-001,4.89953E+001,-3.20023E+001,9.98482E-001,1.05304E-001,-4.32957E-002,-1.38912E-003,1.05317E-001,-4.33086E-002,-5.35543E-001,1.05869E-001,1.11095E+000,-1.60380E-002,0.00000E+000,1.14469E-002,9.59382E-001,0.00000E+000,-5.42674E-003,-6.16267E-002,1.00000E+000,16
1189,1317,2.24926E+001,-5.86418E-001,-6.77704E-002,5.71595E+000,-1.26756E-001,-1.71075E-002,5.71738E+000,9.27772E-003,4.28373E-001,0,8.59501E+001,-2.68506E+000,9.99663E-001,4.92639E+001,-3.20875E+001,9.99436E-001,1.06166E-001,-4.32972E-002,-1.38908E-003,1.06179E-001,-4.33101E-002,-5.32435E-001,1.06778E-001,1.11190E+000,-1.60096E-002,0.00000E+000,1.14110E-002,9.59381E-001,0.00000E+000,-5.43422E-003,-6.16269E-002,1.00000E+000,16
1189,1327,2.25078E+001,3.41934E-002,-8.56124E-002,5.70747E+000,-1.59062E-001,-6.04032E-002,5.71000E+000,1.24955E-002,4.25109E-001,0,8.59890E+001,-3.12573E+000,9.99671E-001,4.95293E+001,-3.24170E+001,9.99211E-001,1.07026E-001,-4.32990E-002,-1.38645E-003,1.07039E-001,-4.33118E-002,-5.28380E-001,1.07686E-001,1.11286E+000,-1.59753E-002,0.00000E+000,1.13751E-002,9.59380E-001,0.00000E+000,-5.44169E-003,-6.16271E-002,1.00000E+000,16
659,1327,-1.58404E+001,-5.94949E-001,1.05710E-001,1.91864E+000,-4.83001E-001,1.20323E-001,1.98216E+000,1.48072E-002,5.61677E-001,0,2.97126E+001,-8.06299E+000,9.99370E-001,-1.25695E+001,-4.76169E+001,9.97821E-001,9.58351E-002,-3.91421E-002,-2.20517E-004,9.58354E-002,-3.91425E-002,-9.36057E-002,9.63696E-002,1.10056E+000,7.05097E-003,0.00000E+000,-6.57571E-003,9.63366E-001,0.00000E+000,1.69647E-005,-6.07798E-002,1.00000E+000,16
659,1337,-1.58171E+001,4.55708E-003,5.75105E-002,1.93294E+000,-5.21460E-001,8.26559E-002,2.00375E+000,1.86067E-002,6.58592E-001,0,3.00461E+001,-8.62274E+000,9.99169E-001,-1.22066E+001,-4.82489E+001,9.99014E-001,9.42211E-002,-3.91448E-002,-4.13039E-004,9.42224E-002,-3.91461E-002,-1.77445E-001,9.46702E-002,1.09878E+000,7.02618E-003,0.00000E+000,-6.88592E-003,9.63362E-001,0.00000E+000,-8.29124E-004,-6.07916E-002,1.00000E+000,16
659,1347,-1.58053E+001,6.21842E-001,2.96618E-002,1.93280E+000,-5.42815E-001,4.80912E-002,2.00816E+000,9.04001E-003,6.25053E-001,0,3.01403E+001,-8.88365E+000,9.99607E-001,-1.19564E+001,-4.87199E+001,9.99621E-001,9.26048E-002,-3.91492E-002,-6.09227E-004,9.26076E-002,-3.91521E-002,-2.64927E-001,9.29751E-002,1.09701E+000,6.99319E-003,0.00000E+000,-7.19594E-003,9.63356E-001,0.00000E+000,-1.67468E-003,-6.08074E-002,1.00000E+000,16
659,1357,-1.57868E+001,1.24685E+000,3.44538E-002,1.93257E+000,-5.62400E-001,8.35899E-003,2.01276E+000,6.30815E-003,5.86772E-001,0,3.02443E+001,-9.09903E+000,9.99447E-001,-1.15123E+001,-4.91475E+001,9.99585E-001,9.09757E-002,-3.91574E-002,-8.14855E-004,9.09808E-002,-3.91625E-002,-3.58750E-001,9.12738E-002,1.09523E+000,6.94189E-003,0.00000E+000,-7.50770E-003,9.63347E-001,0.00000E+000,-2.52502E-003,-6.08318E-002,1.00000E+000,16
1199,1307,2.32138E+001,-1.20618E+000,-3.40948E-002,5.78975E+000,-1.01846E-001,1.54540E-002,5.79067E+000,1.14467E-002,4.18062E-001,0,8.68648E+001,-2.36156E+000,9.99417E-001,5.05099E+001,-3.16984E+001,9.98199E-001,1.05417E-001,-4.32924E-002,-1.08084E-003,1.05425E-001,-4.33003E-002,-4.16402E-001,1.05984E-001,1.11109E+000,-1.51509E-002,0.00000E+000,1.13219E-002,9.59378E-001,0.00000E+000,-6.23694E-003,-6.14835E-002,1.00000E+000,16
1199,1317,2.32253E+001,-5.83077E-001,-7.70261E-002,5.78406E+000,-1.28581E-001,-2.75337E-002,5.78555E+000,1.01744E-002,4.25447E-001,0,8.69479E+001,-2.71615E+000,9.99021E-001,5.06806E+001,-3.19260E+001,9.97690E-001,1.06210E-001,-4.32952E-002,-1.10133E-003,1.06218E-001,-4.33033E-002,-4.22038E-001,1.06820E-001,1.11197E+000,-1.51278E-002,0.00000E+000,1.12413E-002,9.59376E-001,0.00000E+000,-6.05267E-003,-6.14786E-002,1.00000E+000,16
1199,1327,2.32419E+001,4.43527E-002,-1.04206E-001,5.78067E+000,-1.52078E-001,-6.55409E-002,5.78304E+000,1.09978E-002,4.11089E-001,0,8.70418E+001,-3.03045E+000,9.99262E-001,5.09543E+001,-3.21326E+001,9.98222E-001,1.07003E-001,-4.32983E-002,-1.12023E-003,1.07011E-001,-4.33066E-002,-4.27006E-001,1.07657E-001,1.11285E+000,-1.51009E-002,0.00000E+000,1.11606E-002,9.59374E-001,0.00000E+000,-5.86823E-003,-6.14730E-002,1.00000E+000,16
659,1317,-1.58551E+001,-1.20539E+000,1.69447E-001,1.90897E+000,-4.60549E-001,1.51412E-001,1.96957E+000,1.22799E-002,6.20667E-001,0,2.94721E+001,-7.79049E+000,9.98565E-001,-1.27613E+001,-4.71078E+001,9.95732E-001,9.74363E-002,-3.91416E-002,-3.39674E-005,9.74363E-002,-3.91416E-002,-1.42497E-002,9.80617E-002,1.10232E+000,7.06499E-003,0.00000E+000,-6.26730E-003,9.63369E-001,0.00000E+000,8.58159E-004,-6.07731E-002,1.00000E+000,16
1199,1337,2.32728E+001,6.78072E-001,-7.50886E-002,5.77684E+000,-1.79137E-001,-1.04340E-001,5.78056E+000,9.33916E-003,4.32473E-001,0,8.71223E+001,-3.39449E+000,9.99575E-001,5.15365E+001,-3.23492E+001,9.98261E-001,1.07804E-001,-4.33030E-002,-1.13069E-003,1.07812E-001,-4.33114E-002,-4.28697E-001,1.08504E-001,1.11374E+000,-1.50544E-002,0.00000E+000,1.10791E-002,9.59369E-001,0.00000E+000,-5.68173E-003,-6.14633E-002,1.00000E+000,16
1199,1297,2.32182E+001,-1.81526E+000,4.74757E-002,5.80152E+000,-6.62055E-002,5.85453E-002,5.80219E+000,9.40724E-003,4.14399E-001,0,8.68607E+001,-1.87914E+000,9.99123E-001,5.06483E+001,-3.13332E+001,9.97576E-001,1.04628E-001,-4.32907E-002,-1.05459E-003,1.04635E-001,-4.32982E-002,-4.08466E-001,1.05152E-001,1.11021E+000,-1.51609E-002,0.00000E+000,1.14021E-002,9.59379E-001,0.00000E+000,-6.42025E-003,-6.14855E-002,1.00000E+000,16
649,1347,-1.65135E+001,6.24945E-001,2.81089E-002,1.86460E+000,-5.35008E-001,4.22517E-002,1.94030E+000,9.74697E-003,6.30131E-001,0,2.91097E+001,-8.73507E+000,9.99411E-001,-1.27812E+001,-4.87697E+001,9.98715E-001,9.14995E-002,-3.88373E-002,-5.69689E-004,9.15020E-002,-3.88398E-002,-2.50427E-001,9.18494E-002,1.09578E+000,8.83854E-003,0.00000E+000,-8.73170E-003,9.63600E-001,0.00000E+000,-1.94016E-003,-6.00552E-002,1.00000E+000,16
649,1357,-1.64914E+001,1.24614E+000,4.06510E-002,1.86870E+000,-5.57357E-001,1.27957E-002,1.95009E+000,6.92337E-003,5.71937E-001,0,2.92529E+001,-9.01462E+000,9.99486E-001,-1.22579E+001,-4.92841E+001,9.99222E-001,8.97142E-002,-3.88443E-002,-7.69325E-004,8.97188E-002,-3.88489E-002,-3.42855E-001,8.99869E-002,1.09383E+000,8.78425E-003,0.00000E+000,-9.03380E-003,9.63591E-001,0.00000E+000,-2.78980E-003,-6.00788E-002,1.00000E+000,16
649,1337,-1.65341E+001,1.09033E-002,5.67953E-002,1.85575E+000,-5.08888E-001,7.66121E-002,1.92578E+000,1.01824E-002,5.92210E-001,0,2.88753E+001,-8.39122E+000,9.99548E-001,-1.31619E+001,-4.82858E+001,9.98960E-001,9.32777E-002,-3.88338E-002,-3.79063E-004,9.32788E-002,-3.88349E-002,-1.64395E-001,9.37132E-002,1.09773E+000,8.87388E-003,0.00000E+000,-8.43011E-003,9.63605E-001,0.00000E+000,-1.09194E-003,-6.00398E-002,1.00000E+000,16
649,1327,-1.65500E+001,-5.90906E-001,9.72472E-002,1.84836E+000,-4.75141E-001,1.04422E-001,1.91131E+000,8.65818E-003,5.77577E-001,0,2.86785E+001,-7.89665E+000,9.99642E-001,-1.34347E+001,-4.76286E+001,9.99429E-001,9.50424E-002,-3.88320E-002,-1.93846E-004,9.50427E-002,-3.88323E-002,-8.29624E-002,9.55708E-002,1.09967E+000,8.89951E-003,0.00000E+000,-8.13014E-003,9.63609E-001,0.00000E+000,-2.48281E-004,-6.00286E-002,1.00000E+000,16
1209,1307,2.39548E+001,-1.19079E+000,-3.46661E-002,5.86409E+000,-9.32570E-002,7.01512E-003,5.86483E+000,9.07726E-003,4.33574E-001,0,8.79396E+001,-2.23314E+000,9.99413E-001,5.20756E+001,-3.13602E+001,9.98281E-001,1.05275E-001,-4.30512E-002,-7.38687E-004,1.05279E-001,-4.30549E-002,-2.85331E-001,1.05859E-001,1.11094E+000,-1.41774E-002,0.00000E+000,1.11591E-002,9.59581E-001,0.00000E+000,-6.49553E-003,-6.09768E-002,1.00000E+000,16
1209,1317,2.39635E+001,-5.72885E-001,-8.40117E-002,5.85728E+000,-1.24388E-001,-3.53561E-002,5.85871E+000,1.04829E-002,4.26873E-001,0,8.80078E+001,-2.65027E+000,9.99396E-001,5.21918E+001,-3.16604E+001,9.97551E-001,1.06106E-001,-4.30533E-002,-7.53697E-004,1.06110E-001,-4.30572E-002,-2.89504E-001,1.06736E-001,1.11187E+000,-1.41555E-002,0.00000E+000,1.10825E-002,9.59579E-001,0.00000E+000,-6.17621E-003,-6.09692E-002,1.00000E+000,16
1209,1327,2.39881E+001,5.86863E-002,-9.62499E-002,5.85723E+000,-1.46020E-001,-7.60771E-002,5.85954E+000,1.00284E-002,3.80155E-001,0,8.81588E+001,-2.92287E+000,9.99476E-001,5.26127E+001,-3.18491E+001,9.98394E-001,1.06939E-001,-4.30563E-002,-7.63085E-004,1.06942E-001,-4.30602E-002,-2.91477E-001,1.07616E-001,1.11279E+000,-1.41208E-002,0.00000E+000,1.10056E-002,9.59577E-001,0.00000E+000,-5.85563E-003,-6.09571E-002,1.00000E+000,16
1209,1337,2.40201E+001,6.91567E-001,-6.46360E-002,5.85390E+000,-1.75401E-001,-1.13397E-001,5.85763E+000,1.02932E-002,4.43139E-001,0,8.82422E+001,-3.33019E+000,9.99498E-001,5.32118E+001,-3.20620E+001,9.97587E-001,1.07780E-001,-4.30603E-002,-7.66153E-004,1.07783E-001,-4.30641E-002,-2.91009E-001,1.08506E-001,1.11373E+000,-1.40713E-002,0.00000E+000,1.09279E-002,9.59572E-001,0.00000E+000,-5.53150E-003,-6.09400E-002,1.00000E+000,16
1209,1297,2.39568E+001,-1.80206E+000,4.30098E-002,5.87531E+000,-5.80850E-002,5.30876E-002,5.87583E+000,8.99978E-003,4.02939E-001,0,8.79158E+001,-1.75842E+000,9.99286E-001,5.21702E+001,-3.10360E+001,9.97592E-001,1.04446E-001,-4.30496E-002,-7.19760E-004,1.04450E-001,-4.30532E-002,-2.79587E-001,1.04985E-001,1.11003E+000,-1.41904E-002,0.00000E+000,1.12355E-002,9.59582E-001,0.00000E+000,-6.81414E-003,-6.09813E-002,1.00000E+000,16
649,1317,-1.65580E+001,-1.19920E+000,1.77974E-001,1.84404E+000,-4.51774E-001,1.45034E-001,1.90411E+000,7.17665E-003,6.07084E-001,0,2.84951E+001,-7.61746E+000,9.99409E-001,-1.34751E+001,-4.71346E+001,9.99290E-001,9.67972E-002,-3.88329E-002,-1.57782E-005,9.67972E-002,-3.88329E-002,-6.66535E-003,9.74254E-002,1.10160E+000,8.91074E-003,0.00000E+000,-7.83117E-003,9.63611E-001,0.00000E+000,5.92544E-004,-6.00237E-002,1.00000E+000,16
639,1347,-1.72184E+001,6.29135E-001,2.60914E-002,1.80051E+000,-5.24586E-001,4.19971E-002,1.87584E+000,1.02901E-002,5.98765E-001,0,2.81260E+001,-8.55033E+000,9.99093E-001,-1.35497E+001,-4.88197E+001,9.98552E-001,9.04686E-002,-3.84244E-002,-5.45417E-004,9.04709E-002,-3.84267E-002,-2.42444E-001,9.08119E-002,1.09464E+000,1.08757E-002,0.00000E+000,-1.04712E-002,9.63927E-001,0.00000E+000,-2.20489E-003,-5.91202E-002,1.00000E+000,16
639,1357,-1.71942E+001,1.25226E+000,4.06188E-002,1.80665E+000,-5.45622E-001,1.34671E-002,1.88729E+000,6.56575E-003,5.84640E-001,0,2.82977E+001,-8.82350E+000,9.99428E-001,-1.29873E+001,-4.92884E+001,9.99278E-001,8.85574E-002,-3.84307E-002,-7.43353E-004,8.85618E-002,-3.84351E-002,-3.35378E-001,8.88186E-002,1.09255E+000,1.08176E-002,0.00000E+000,-1.07679E-002,9.63918E-001,0.00000E+000,-3.12415E-003,-5.91458E-002,1.00000E+000,16
639,1317,-1.72585E+001,-1.20124E+000,1.99212E-001,1.78138E+000,-4.52444E-001,1.53073E-001,1.84430E+000,1.01837E-002,6.91752E-001,0,2.75148E+001,-7.65176E+000,9.99418E-001,-1.41145E+001,-4.72657E+001,9.98493E-001,9.61221E-002,-3.84236E-002,-5.15276E-006,9.61221E-002,-3.84236E-002,-2.19428E-003,9.67641E-002,1.10084E+000,1.09434E-002,0.00000E+000,-9.58902E-003,9.63936E-001,0.00000E+000,5.27737E-004,-5.90904E-002,1.00000E+000,16
639,1327,-1.72499E+001,-5.99845E-001,1.15388E-001,1.78772E+000,-4.79326E-001,1.17121E-001,1.85457E+000,7.70602E-003,6.08547E-001,0,2.77176E+001,-8.00181E+000,9.99533E-001,-1.40757E+001,-4.78880E+001,9.98778E-001,9.42544E-002,-3.84213E-002,-1.77190E-004,9.42546E-002,-3.84216E-002,-7.65190E-002,9.47892E-002,1.09879E+000,1.09361E-002,0.00000E+000,-9.88116E-003,9.63935E-001,0.00000E+000,-3.77225E-004,-5.90936E-002,1.00000E+000,16
639,1337,-1.72381E+001,1.37067E-002,5.03317E-002,1.79291E+000,-5.01558E-001,7.51308E-002,1.86326E+000,8.14152E-003,6.34288E-001,0,2.79161E+001,-8.25927E+000,9.99428E-001,-1.39316E+001,-4.83089E+001,9.98983E-001,9.23647E-002,-3.84214E-002,-3.57189E-004,9.23657E-002,-3.84223E-002,-1.56479E-001,9.27993E-002,1.09671E+000,1.09147E-002,0.00000E+000,-1.01760E-002,9.63932E-001,0.00000E+000,-1.29063E-003,-5.91030E-002,1.00000E+000,16
1219,1317,2.47097E+001,-5.57316E-001,-7.48832E-002,5.93441E+000,-1.19137E-001,-4.08063E-002,5.93574E+000,1.24141E-002,4.88149E-001,0,8.91113E+001,-2.56781E+000,9.99467E-001,5.38561E+001,-3.13156E+001,9.97518E-001,1.05868E-001,-4.30103E-002,-3.50585E-004,1.05869E-001,-4.30111E-002,-1.34921E-001,1.06488E-001,1.11161E+000,-1.30525E-002,0.00000E+000,1.08967E-002,9.59578E-001,0.00000E+000,-5.97579E-003,-6.02111E-002,1.00000E+000,16
1219,1327,2.47307E+001,7.16235E-002,-9.56046E-002,5.93263E+000,-1.41354E-001,-8.20338E-002,5.93488E+000,6.78802E-003,4.08469E-001,0,8.92414E+001,-2.84975E+000,9.99729E-001,5.42060E+001,-3.15422E+001,9.98779E-001,1.06665E-001,-4.30124E-002,-3.55571E-004,1.06666E-001,-4.30133E-002,-1.36110E-001,1.07329E-001,1.11250E+000,-1.30218E-002,0.00000E+000,1.08251E-002,9.59576E-001,0.00000E+000,-5.51294E-003,-6.01950E-002,1.00000E+000,16
1219,1337,2.47646E+001,7.07010E-001,-6.19198E-002,5.93030E+000,-1.68801E-001,-1.19828E-001,5.93391E+000,9.32982E-003,4.48656E-001,0,8.93407E+001,-3.21647E+000,9.99486E-001,5.48353E+001,-3.17305E+001,9.98231E-001,1.07472E-001,-4.30155E-002,-3.52777E-004,1.07472E-001,-4.30164E-002,-1.34314E-001,1.08183E-001,1.11339E+000,-1.29730E-002,0.00000E+000,1.07523E-002,9.59572E-001,0.00000E+000,-5.04349E-003,-6.01695E-002,1.00000E+000,16
1219,1297,2.46996E+001,-1.78947E+000,3.91054E-002,5.95160E+000,-5.25793E-002,4.40511E-002,5.95199E+000,9.81833E-003,3.72495E-001,0,8.90214E+001,-1.63971E+000,9.99297E-001,5.37613E+001,-3.07585E+001,9.97583E-001,1.04273E-001,-4.30073E-002,-3.29796E-004,1.04274E-001,-4.30080E-002,-1.28298E-001,1.04806E-001,1.10985E+000,-1.30895E-002,0.00000E+000,1.10401E-002,9.59581E-001,0.00000E+000,-6.90125E-003,-6.02305E-002,1.00000E+000,16
1219,1307,2.47030E+001,-1.17480E+000,-2.13507E-002,5.94333E+000,-8.60456E-002,5.64854E-003,5.94395E+000,1.21415E-002,4.25531E-001,0,8.90565E+001,-2.11485E+000,9.99391E-001,5.37780E+001,-3.10537E+001,9.97128E-001,1.05070E-001,-4.30086E-002,-3.41334E-004,1.05071E-001,-4.30094E-002,-1.32071E-001,1.05645E-001,1.11073E+000,-1.30736E-002,0.00000E+000,1.09685E-002,9.59580E-001,0.00000E+000,-6.43914E-003,-6.02222E-002,1.00000E+000,16
629,1347,-1.79202E+001,6.26431E-001,2.03167E-002,1.73954E+000,-5.20922E-001,4.06519E-002,1.81632E+000,9.29031E-003,5.90137E-001,0,2.71947E+001,-8.47716E+000,9.98939E-001,-1.42794E+001,-4.89558E+001,9.98502E-001,8.96017E-002,-3.87198E-002,-5.48554E-004,8.96041E-002,-3.87222E-002,-2.44924E-001,8.98787E-002,1.09367E+000,1.30060E-002,0.00000E+000,-1.23611E-002,9.63570E-001,0.00000E+000,-2.10189E-003,-5.82506E-002,1.00000E+000,16
629,1357,-1.78935E+001,1.24906E+000,3.57694E-002,1.74806E+000,-5.42551E-001,1.12156E-002,1.83035E+000,7.86568E-003,5.81422E-001,0,2.74055E+001,-8.75981E+000,9.99078E-001,-1.36743E+001,-4.94328E+001,9.98787E-001,8.77643E-002,-3.87214E-002,-6.13858E-004,8.77673E-002,-3.87244E-002,-2.78058E-001,8.79692E-002,1.09166E+000,1.29500E-002,0.00000E+000,-1.24096E-002,9.63569E-001,0.00000E+000,-2.97824E-003,-5.82751E-002,1.00000E+000,16
629,1327,-1.79523E+001,-5.98151E-001,1.12232E-001,1.72557E+000,-4.71858E-001,1.16276E-001,1.79270E+000,7.63741E-003,5.89022E-001,0,2.67667E+001,-7.86720E+000,9.99244E-001,-1.48071E+001,-4.79641E+001,9.98737E-001,9.32420E-002,-3.87195E-002,-4.44007E-004,9.32435E-002,-3.87210E-002,-1.92779E-001,9.36887E-002,1.09765E+000,1.30621E-002,0.00000E+000,-1.22646E-002,9.63572E-001,0.00000E+000,-3.59520E-004,-5.82261E-002,1.00000E+000,16
629,1337,-1.79370E+001,1.19127E-002,4.93260E-002,1.73424E+000,-4.97274E-001,7.59725E-002,1.80572E+000,8.33767E-003,6.22438E-001,0,2.70149E+001,-8.18496E+000,9.99049E-001,-1.46046E+001,-4.84407E+001,9.99039E-001,9.14250E-002,-3.87193E-002,-4.92809E-004,9.14268E-002,-3.87211E-002,-2.16954E-001,9.17826E-002,1.09566E+000,1.30416E-002,0.00000E+000,-1.23128E-002,9.63571E-001,0.00000E+000,-1.23023E-003,-5.82351E-002,1.00000E+000,16
1229,1317,2.54555E+001,-5.38677E-001,-7.31697E-002,6.01367E+000,-1.06879E-001,-4.19858E-002,6.01477E+000,1.15672E-002,4.81747E-001,0,9.02270E+001,-2.38913E+000,9.99418E-001,5.55065E+001,-3.09411E+001,9.98692E-001,1.05705E-001,-4.28165E-002,1.14377E-004,1.05705E-001,-4.28166E-002,4.41238E-002,1.06338E-001,1.11144E+000,-1.19192E-002,0.00000E+000,1.07820E-002,9.59718E-001,0.00000E+000,-5.38396E-003,-5.93953E-002,1.00000E+000,16
1229,1327,2.54723E+001,8.37776E-002,-9.62800E-002,6.00711E+000,-1.38869E-001,-8.69221E-002,6.00934E+000,8.32136E-003,4.81461E-001,0,9.03054E+001,-2.80790E+000,9.99556E-001,5.57852E+001,-3.12226E+001,9.98411E-001,1.06452E-001,-4.28171E-002,1.25054E-004,1.06452E-001,-4.28172E-002,4.80010E-002,1.07128E-001,1.11227E+000,-1.18898E-002,0.00000E+000,1.07335E-002,9.59717E-001,0.00000E+000,-4.75133E-003,-5.93728E-002,1.00000E+000,16
1229,1337,2.55059E+001,7.20283E-001,-7.28027E-002,6.00731E+000,-1.60187E-001,-1.23786E-001,6.01072E+000,8.89344E-003,4.29956E-001,0,9.04391E+001,-3.09389E+000,9.99358E-001,5.63940E+001,-3.14151E+001,9.98031E-001,1.07199E-001,-4.28180E-002,1.41343E-004,1.07200E-001,-4.28181E-002,5.39828E-002,1.07920E-001,1.11310E+000,-1.18477E-002,0.00000E+000,1.06849E-002,9.59714E-001,0.00000E+000,-4.11722E-003,-5.93406E-002,1.00000E+000,16
629,1317,-1.79644E+001,-1.19883E+000,2.00918E-001,1.71554E+000,-4.44068E-001,1.55984E-001,1.77894E+000,8.55067E-003,6.52883E-001,0,2.64967E+001,-7.50983E+000,9.99436E-001,-1.48842E+001,-4.73494E+001,9.98620E-001,9.50400E-002,-3.87204E-002,-4.01913E-004,9.50412E-002,-3.87216E-002,-1.72156E-001,9.55827E-002,1.09963E+000,1.30685E-002,0.00000E+000,-1.22167E-002,9.63572E-001,0.00000E+000,5.04081E-004,-5.82233E-002,1.00000E+000,16
1229,1297,2.54417E+001,-1.77457E+000,3.69872E-002,6.02682E+000,-4.50764E-002,3.69311E-002,6.02710E+000,1.02176E-002,4.20626E-001,0,9.01006E+001,-1.52849E+000,9.99145E-001,5.53491E+001,-3.04102E+001,9.96807E-001,1.04217E-001,-4.28157E-002,1.04012E-004,1.04217E-001,-4.28158E-002,4.05315E-002,1.04768E-001,1.10980E+000,-1.19533E-002,0.00000E+000,1.08784E-002,9.59720E-001,0.00000E+000,-6.64189E-003,-5.94213E-002,1.00000E+000,16
1229,1307,2.54511E+001,-1.15568E+000,-2.17288E-002,6.02584E+000,-7.32438E-002,5.56697E-003,6.02629E+000,1.41247E-002,4.51333E-001,0,9.02157E+001,-1.93647E+000,9.99121E-001,5.54619E+001,-3.06522E+001,9.97438E-001,1.04960E-001,-4.28161E-002,1.07469E-004,1.04960E-001,-4.28161E-002,4.16679E-002,1.05551E-001,1.11062E+000,-1.19401E-002,0.00000E+000,1.08303E-002,9.59719E-001,0.00000E+000,-6.01411E-003,-5.94113E-002,1.00000E+000,16
619,1327,-1.86559E+001,-5.97868E-001,1.10253E-001,1.66156E+000,-4.66042E-001,1.15288E-001,1.72952E+000,5.84401E-003,5.84526E-001,0,2.57861E+001,-7.76492E+000,9.99327E-001,-1.55499E+001,-4.80573E+001,9.99201E-001,9.24404E-002,-3.84153E-002,-6.47189E-004,9.24436E-002,-3.84185E-002,-2.83365E-001,9.28817E-002,1.09674E+000,1.52388E-002,0.00000E+000,-1.45732E-002,9.63797E-001,0.00000E+000,-4.22006E-004,-5.75904E-002,1.00000E+000,16
619,1337,-1.86384E+001,1.39474E-002,5.53997E-002,1.67179E+000,-4.90100E-001,7.84310E-002,1.74392E+000,7.08409E-003,6.25360E-001,0,2.60481E+001,-8.07385E+000,9.98823E-001,-1.52890E+001,-4.85222E+001,9.98698E-001,9.05727E-002,-3.84154E-002,-6.27245E-004,9.05758E-002,-3.84185E-002,-2.78610E-001,9.09224E-002,1.09470E+000,1.52156E-002,0.00000E+000,-1.44953E-002,9.63798E-001,0.00000E+000,-1.21728E-003,-5.75994E-002,1.00000E+000,16
619,1347,-1.86191E+001,6.28985E-001,1.99608E-002,1.68091E+000,-5.12029E-001,4.38970E-002,1.75772E+000,8.66591E-003,6.06221E-001,0,2.62847E+001,-8.34705E+000,9.98790E-001,-1.49439E+001,-4.90104E+001,9.98451E-001,8.87011E-002,-3.84154E-002,-6.11386E-004,8.87041E-002,-3.84183E-002,-2.75564E-001,8.89683E-002,1.09265E+000,1.51835E-002,0.00000E+000,-1.44173E-002,9.63799E-001,0.00000E+000,-2.01239E-003,-5.76119E-002,1.00000E+000,16
619,1357,-1.85921E+001,1.25099E+000,2.80082E-002,1.69087E+000,-5.33126E-001,1.27610E-002,1.77297E+000,7.84552E-003,5.93037E-001,0,2.65224E+001,-8.61670E+000,9.99241E-001,-1.43541E+001,-4.94847E+001,9.99045E-001,8.68156E-002,-3.84150E-002,-6.05165E-004,8.68185E-002,-3.84179E-002,-2.76868E-001,8.70096E-002,1.09060E+000,1.51300E-002,0.00000E+000,-1.43390E-002,9.63801E-001,0.00000E+000,-2.81156E-003,-5.76327E-002,1.00000E+000,16
619,1317,-1.86655E+001,-1.19619E+000,1.99318E-001,1.65406E+000,-4.34455E-001,1.55879E-001,1.71726E+000,1.02116E-002,6.18114E-001,0,2.55531E+001,-7.35982E+000,9.99144E-001,-1.55872E+001,-4.74202E+001,9.98624E-001,9.42928E-002,-3.84149E-002,-6.74344E-004,9.42963E-002,-3.84184E-002,-2.91134E-001,9.48335E-002,1.09878E+000,1.52456E-002,0.00000E+000,-1.46507E-002,9.63797E-001,0.00000E+000,3.68566E-004,-5.75878E-002,1.00000E+000,16
1239,1307,2.61844E+001,-1.14695E+000,-4.09751E-002,6.09384E+000,-6.92270E-002,-1.04443E-002,6.09424E+000,1.45393E-002,4.54256E-001,0,9.12257E+001,-1.86383E+000,9.99033E-001,5.68906E+001,-3.03848E+001,9.97658E-001,1.04659E-001,-4.24466E-002,3.19208E-004,1.04660E-001,-4.24473E-002,1.24327E-001,1.05280E-001,1.11029E+000,-1.10550E-002,0.00000E+000,1.04687E-002,9.60043E-001,0.00000E+000,-5.83477E-003,-5.87884E-002,1.00000E+000,16
1239,1317,2.61977E+001,-5.20779E-001,-8.19653E-002,6.09088E+000,-9.28803E-002,-4.62449E-002,6.09176E+000,1.32437E-002,4.23088E-001,0,9.13234E+001,-2.17332E+000,9.99172E-001,5.70904E+001,-3.05819E+001,9.98393E-001,1.05437E-001,-4.24430E-002,3.83793E-004,1.05438E-001,-4.24440E-002,1.48698E-001,1.06103E-001,1.11115E+000,-1.10335E-002,0.00000E+000,1.05117E-002,9.60044E-001,0.00000E+000,-4.85275E-003,-5.87638E-002,1.00000E+000,16
1239,1327,2.62195E+001,1.03151E-001,-8.30961E-002,6.08447E+000,-1.28331E-001,-8.65278E-002,6.08644E+000,1.06343E-002,4.98041E-001,0,9.13837E+001,-2.65914E+000,9.99294E-001,5.74757E+001,-3.08490E+001,9.98389E-001,1.06222E-001,-4.24376E-002,4.55906E-004,1.06223E-001,-4.24390E-002,1.75711E-001,1.06936E-001,1.11202E+000,-1.09964E-002,0.00000E+000,1.05551E-002,9.60046E-001,0.00000E+000,-3.85966E-003,-5.87215E-002,1.00000E+000,16
1239,1337,2.62444E+001,7.37190E-001,-7.01737E-002,6.07949E+000,-1.49373E-001,-1.20052E-001,6.08251E+000,9.30356E-003,4.18327E-001,0,9.14298E+001,-2.94896E+000,9.99038E-001,5.79320E+001,-3.10704E+001,9.97389E-001,1.07000E-001,-4.24318E-002,5.28572E-004,1.07002E-001,-4.24337E-002,2.02664E-001,1.07762E-001,1.11288E+000,-1.09570E-002,0.00000E+000,1.05983E-002,9.60048E-001,0.00000E+000,-2.87363E-003,-5.86764E-002,1.00000E+000,16
1239,1297,2.61815E+001,-1.76251E+000,3.29885E-002,6.10035E+000,-3.80916E-002,3.21379E-002,6.10055E+000,9.40211E-003,4.47866E-001,0,9.11444E+001,-1.44629E+000,9.99168E-001,5.69012E+001,-3.01126E+001,9.97610E-001,1.03882E-001,-4.24491E-002,2.58811E-004,1.03882E-001,-4.24496E-002,1.01337E-001,1.04459E-001,1.10944E+000,-1.10675E-002,0.00000E+000,1.04258E-002,9.60042E-001,0.00000E+000,-6.81408E-003,-5.88027E-002,1.00000E+000,16
609,1347,-1.93163E+001,6.29982E-001,2.10740E-002,1.62264E+000,-5.05929E-001,4.31983E-002,1.70023E+000,1.08990E-002,6.21329E-001,0,2.53902E+001,-8.24450E+000,9.98762E-001,-1.55740E+001,-4.90925E+001,9.98244E-001,8.78496E-002,-3.76572E-002,-8.42285E-004,8.78552E-002,-3.76628E-002,-3.84493E-001,8.81526E-002,1.09169E+000,1.71660E-002,0.00000E+000,-1.66422E-002,9.64437E-001,0.00000E+000,-1.86327E-003,-5.65571E-002,1.00000E+000,16
609,1357,-1.92908E+001,1.25520E+000,2.46522E-002,1.63221E+000,-5.22703E-001,1.29472E-002,1.71391E+000,8.49796E-003,6.11013E-001,0,2.56182E+001,-8.45144E+000,9.99225E-001,-1.50173E+001,-4.95084E+001,9.98885E-001,8.59559E-002,-3.76565E-002,-8.10704E-004,8.59612E-002,-3.76619E-002,-3.75749E-001,8.61803E-002,1.08963E+000,1.71158E-002,0.00000E+000,-1.65158E-002,9.64440E-001,0.00000E+000,-2.77491E-003,-5.65793E-002,1.00000E+000,16
609,1317,-1.93692E+001,-1.19546E+000,1.99571E-001,1.58912E+000,-4.28157E-001,1.54325E-001,1.65301E+000,1.16365E-002,6.26343E-001,0,2.45587E+001,-7.26550E+000,9.99205E-001,-1.63188E+001,-4.75032E+001,9.98060E-001,9.34731E-002,-3.76556E-002,-9.76787E-004,9.34804E-002,-3.76629E-002,-4.26768E-001,9.40662E-002,1.09785E+000,1.72276E-002,0.00000E+000,-1.70194E-002,9.64433E-001,0.00000E+000,8.57119E-004,-5.65298E-002,1.00000E+000,16
609,1327,-1.93564E+001,-5.98484E-001,1.07436E-001,1.60031E+000,-4.62142E-001,1.13558E-001,1.66957E+000,7.56309E-003,6.41136E-001,0,2.48499E+001,-7.70653E+000,9.99317E-001,-1.62427E+001,-4.81318E+001,9.98695E-001,9.16070E-002,-3.76567E-002,-9.25166E-004,9.16136E-002,-3.76633E-002,-4.10049E-001,9.20949E-002,1.09580E+000,1.72223E-002,0.00000E+000,-1.68939E-002,9.64434E-001,0.00000E+000,-4.78335E-005,-5.65322E-002,1.00000E+000,16
609,1337,-1.93372E+001,1.52827E-002,5.45238E-002,1.61219E+000,-4.82550E-001,7.81705E-002,1.68467E+000,8.95341E-003,6.11076E-001,0,2.51320E+001,-7.94971E+000,9.98921E-001,-1.59506E+001,-4.86079E+001,9.98291E-001,8.97342E-002,-3.76571E-002,-8.81534E-004,8.97403E-002,-3.76632E-002,-3.96455E-001,9.01253E-002,1.09375E+000,1.71992E-002,0.00000E+000,-1.67683E-002,9.64435E-001,0.00000E+000,-9.53779E-004,-5.65424E-002,1.00000E+000,16
1249,1297,2.69253E+001,-1.74544E+000,3.80460E-002,6.17585E+000,-2.81021E-002,3.07271E-002,6.17599E+000,1.11557E-002,4.84945E-001,0,9.21994E+001,-1.31242E+000,9.99240E-001,5.85326E+001,-2.97514E+001,9.97812E-001,1.03234E-001,-4.19344E-002,4.26983E-004,1.03235E-001,-4.19356E-002,1.68522E-001,1.03839E-001,1.10873E+000,-9.84816E-003,0.00000E+000,9.72933E-003,9.60519E-001,0.00000E+000,-7.23754E-003,-5.83666E-002,1.00000E+000,16
1249,1307,2.69233E+001,-1.13400E+000,-4.75936E-002,6.16689E+000,-6.16905E-002,-1.40861E-002,6.16721E+000,1.41038E-002,4.61174E-001,0,9.22575E+001,-1.75666E+000,9.99241E-001,5.84293E+001,-3.00767E+001,9.97426E-001,1.04146E-001,-4.19267E-002,6.25269E-004,1.04148E-001,-4.19294E-002,2.45251E-001,1.04805E-001,1.10973E+000,-9.83736E-003,0.00000E+000,1.00157E-002,9.60523E-001,0.00000E+000,-5.83841E-003,-5.83515E-002,1.00000E+000,16
1249,1317,2.69321E+001,-5.13929E-001,-9.59383E-002,6.16031E+000,-9.07617E-002,-5.34048E-002,6.16121E+000,1.25945E-002,4.13578E-001,0,9.23196E+001,-2.13891E+000,9.98743E-001,5.85470E+001,-3.03596E+001,9.97273E-001,1.05057E-001,-4.19141E-002,8.30049E-004,1.05062E-001,-4.19188E-002,3.23575E-001,1.05774E-001,1.11074E+000,-9.81353E-003,0.00000E+000,1.03031E-002,9.60529E-001,0.00000E+000,-4.43406E-003,-5.83183E-002,1.00000E+000,16
1249,1327,2.69522E+001,1.18962E-001,-1.05439E-001,6.15482E+000,-1.14118E-001,-9.18394E-002,6.15657E+000,1.12998E-002,4.45387E-001,0,9.23838E+001,-2.45163E+000,9.98781E-001,5.88941E+001,-3.04890E+001,9.98051E-001,1.05973E-001,-4.18955E-002,1.04324E-003,1.05981E-001,-4.19029E-002,4.04205E-001,1.06751E-001,1.11175E+000,-9.77403E-003,0.00000E+000,1.05928E-002,9.60541E-001,0.00000E+000,-3.01870E-003,-5.82631E-002,1.00000E+000,16
1249,1337,2.69800E+001,7.54609E-001,-8.06992E-002,6.14978E+000,-1.37534E-001,-1.23719E-001,6.15256E+000,8.69734E-003,4.28494E-001,0,9.24216E+001,-2.77783E+000,9.99335E-001,5.94098E+001,-3.06781E+001,9.98911E-001,1.06888E-001,-4.18726E-002,1.26171E-003,1.06899E-001,-4.18833E-002,4.85907E-001,1.07730E-001,1.11277E+000,-9.72322E-003,0.00000E+000,1.08830E-002,9.60555E-001,0.00000E+000,-1.60044E-003,-5.81922E-002,1.00000E+000,16
1259,1327,2.76907E+001,1.31211E-001,-1.09457E-001,6.22692E+000,-1.06495E-001,-9.23810E-002,6.22852E+000,9.46608E-003,4.17935E-001,0,9.33883E+001,-2.35216E+000,9.99416E-001,6.04327E+001,-3.02117E+001,9.98772E-001,1.05823E-001,-4.16555E-002,1.59420E-003,1.05841E-001,-4.16728E-002,6.19253E-001,1.06635E-001,1.11159E+000,-8.87661E-003,0.00000E+000,1.08040E-002,9.60728E-001,0.00000E+000,-1.59550E-003,-5.75096E-002,1.00000E+000,16
1259,1337,2.77199E+001,7.64969E-001,-8.55802E-002,6.22249E+000,-1.32582E-001,-1.26762E-001,6.22520E+000,8.62664E-003,3.94583E-001,0,9.34470E+001,-2.70645E+000,9.99641E-001,6.09647E+001,-3.04297E+001,9.99278E-001,1.06756E-001,-4.16222E-002,1.89678E-003,1.06780E-001,-4.16465E-002,7.32277E-001,1.07638E-001,1.11263E+000,-8.82360E-003,0.00000E+000,1.12320E-002,9.60750E-001,0.00000E+000,2.63091E-004,-5.74147E-002,1.00000E+000,16
599,1347,-2.00091E+001,6.38960E-001,2.80014E-002,1.56786E+000,-4.91820E-001,4.53300E-002,1.64381E+000,1.02484E-002,6.25459E-001,0,2.45393E+001,-8.02508E+000,9.99238E-001,-1.61138E+001,-4.90699E+001,9.99125E-001,8.74537E-002,-3.78023E-002,-6.27309E-004,8.74569E-002,-3.78054E-002,-2.86940E-001,8.77239E-002,1.09123E+000,1.88365E-002,0.00000E+000,-1.77206E-002,9.64215E-001,0.00000E+000,-1.57580E-003,-5.54005E-002,1.00000E+000,16
599,1357,-1.99811E+001,1.25745E+000,3.10478E-002,1.58054E+000,-5.14998E-001,1.73421E-002,1.66242E+000,6.96230E-003,6.25155E-001,0,2.48115E+001,-8.33843E+000,9.99409E-001,-1.55210E+001,-4.95845E+001,9.99184E-001,8.56838E-002,-3.77997E-002,-4.03058E-004,8.56851E-002,-3.78010E-002,-1.87015E-001,8.58826E-002,1.08931E+000,1.87914E-002,0.00000E+000,-1.72268E-002,9.64227E-001,0.00000E+000,-2.52365E-003,-5.54227E-002,1.00000E+000,16
1259,1287,2.76649E+001,-2.34701E+000,1.19260E-001,6.25225E+000,1.05196E-002,5.91003E-002,6.25254E+000,1.22842E-002,4.18325E-001,0,9.31364E+001,-7.56718E-001,9.98925E-001,6.01607E+001,-2.92221E+001,9.95226E-001,1.02085E-001,-4.17181E-002,4.51849E-004,1.02087E-001,-4.17195E-002,1.80029E-001,1.02653E-001,1.10748E+000,-8.95755E-003,0.00000E+000,9.10929E-003,9.60694E-001,0.00000E+000,-8.95424E-003,-5.76544E-002,1.00000E+000,16
1259,1297,2.76603E+001,-1.73625E+000,1.43730E-002,6.24622E+000,-2.25963E-002,1.62238E-002,6.24628E+000,1.02398E-002,4.22751E-001,0,9.32356E+001,-1.18854E+000,9.99046E-001,5.99906E+001,-2.95019E+001,9.96726E-001,1.03023E-001,-4.17122E-002,7.28446E-004,1.03027E-001,-4.17159E-002,2.88357E-001,1.03646E-001,1.10851E+000,-8.95531E-003,0.00000E+000,9.53131E-003,9.60695E-001,0.00000E+000,-7.12173E-003,-5.76504E-002,1.00000E+000,16
1259,1307,2.76622E+001,-1.11930E+000,-5.81143E-002,6.23994E+000,-5.23626E-002,-2.00469E-002,6.24020E+000,1.00043E-002,4.37692E-001,0,9.32967E+001,-1.59981E+000,9.99241E-001,5.99681E+001,-2.97483E+001,9.97666E-001,1.03958E-001,-4.17004E-002,1.01045E-003,1.03965E-001,-4.17074E-002,3.97444E-001,1.04640E-001,1.10953E+000,-8.94221E-003,0.00000E+000,9.95424E-003,9.60701E-001,0.00000E+000,-5.28528E-003,-5.76270E-002,1.00000E+000,16
599,1327,-2.00543E+001,-5.85387E-001,1.16447E-001,1.53987E+000,-4.44966E-001,1.15399E-001,1.60702E+000,7.71395E-003,6.33698E-001,0,2.39118E+001,-7.42712E+000,9.99386E-001,-1.68532E+001,-4.80529E+001,9.98903E-001,9.09642E-002,-3.77979E-002,-1.09132E-003,9.09734E-002,-3.78071E-002,-4.85562E-001,9.14046E-002,1.09507E+000,1.88872E-002,0.00000E+000,-1.87036E-002,9.64202E-001,0.00000E+000,3.11016E-004,-5.53755E-002,1.00000E+000,16
599,1337,-2.00351E+001,2.21690E-002,5.36419E-002,1.55327E+000,-4.70040E-001,7.87472E-002,1.62475E+000,7.11775E-003,6.11440E-001,0,2.42220E+001,-7.74623E+000,9.99336E-001,-1.65917E+001,-4.86011E+001,9.99109E-001,8.92157E-002,-3.78021E-002,-8.56195E-004,8.92215E-002,-3.78079E-002,-3.86193E-001,8.95666E-002,1.09316E+000,1.88702E-002,0.00000E+000,-1.82134E-002,9.64207E-001,0.00000E+000,-6.29915E-004,-5.53839E-002,1.00000E+000,16
1259,1317,2.76729E+001,-4.96784E-001,-9.74938E-002,6.23476E+000,-7.99695E-002,-5.15412E-002,6.23548E+000,1.01209E-002,4.38038E-001,0,9.33471E+001,-1.99170E+000,9.99386E-001,6.01258E+001,-2.99868E+001,9.98245E-001,1.04891E-001,-4.16822E-002,1.29847E-003,1.04903E-001,-4.16937E-002,5.07519E-001,1.05636E-001,1.11056E+000,-8.91716E-003,0.00000E+000,1.03783E-002,9.60711E-001,0.00000E+000,-3.44370E-003,-5.75821E-002,1.00000E+000,16
599,1317,-2.00722E+001,-1.19060E+000,2.01963E-001,1.52336E+000,-4.20193E-001,1.48519E-001,1.58721E+000,1.04996E-002,6.11013E-001,0,2.35608E+001,-7.09931E+000,9.99265E-001,-1.70278E+001,-4.75393E+001,9.98842E-001,9.27066E-002,-3.77906E-002,-1.33189E-003,9.27202E-002,-3.78042E-002,-5.84695E-001,9.32451E-002,1.09698E+000,1.88914E-002,0.00000E+000,-1.91933E-002,9.64201E-001,0.00000E+000,1.25100E-003,-5.53735E-002,1.00000E+000,16
589,1347,-2.07078E+001,6.48183E-001,3.22765E-002,1.50764E+000,-4.76978E-001,4.93335E-002,1.58206E+000,7.47460E-003,6.43576E-001,0,2.35976E+001,-7.80218E+000,9.99320E-001,-1.67450E+001,-4.90319E+001,9.99212E-001,8.70731E-002,-3.76839E-002,-1.46943E-004,8.70732E-002,-3.76841E-002,-6.74849E-002,8.73351E-002,1.09078E+000,2.10267E-002,0.00000E+000,-1.87349E-002,9.64254E-001,0.00000E+000,-1.56784E-003,-5.43451E-002,1.00000E+000,16
589,1357,-2.06771E+001,1.26644E+000,3.60930E-002,1.52257E+000,-5.01399E-001,1.87972E-002,1.60311E+000,5.96886E-003,6.42426E-001,0,2.39114E+001,-8.11765E+000,9.99364E-001,-1.61080E+001,-4.95538E+001,9.99452E-001,8.53024E-002,-3.76818E-002,7.78892E-005,8.53025E-002,-3.76818E-002,3.62870E-002,8.54953E-002,1.08885E+000,2.09805E-002,0.00000E+000,-1.82457E-002,9.64266E-001,0.00000E+000,-2.47278E-003,-5.43667E-002,1.00000E+000,16
589,1337,-2.07311E+001,2.94164E-002,6.26538E-002,1.49466E+000,-4.57886E-001,8.17559E-002,1.56536E+000,5.83523E-003,6.15691E-001,0,2.33088E+001,-7.56157E+000,9.99540E-001,-1.71694E+001,-4.86082E+001,9.99498E-001,8.88330E-002,-3.76822E-002,-3.77968E-004,8.88341E-002,-3.76834E-002,-1.71171E-001,8.91737E-002,1.09270E+000,2.10572E-002,0.00000E+000,-1.92224E-002,9.64247E-001,0.00000E+000,-6.66194E-004,-5.43307E-002,1.00000E+000,16
589,1327,-2.07460E+001,-5.69652E-001,1.25985E-001,1.48568E+000,-4.25133E-001,1.20273E-001,1.54999E+000,1.04263E-002,6.63820E-001,0,2.30618E+001,-7.12746E+000,9.99621E-001,-1.73620E+001,-4.79151E+001,9.98950E-001,9.05778E-002,-3.76774E-002,-6.13363E-004,9.05807E-002,-3.76803E-002,-2.74001E-001,9.10059E-002,1.09460E+000,2.10745E-002,0.00000E+000,-1.97068E-002,9.64242E-001,0.00000E+000,2.29848E-004,-5.43226E-002,1.00000E+000,16
1269,1327,2.84348E+001,1.44795E-001,-1.08931E-001,6.30356E+000,-9.96446E-002,-8.99189E-002,6.30499E+000,8.35382E-003,4.18914E-001,0,9.44460E+001,-2.25738E+000,9.99555E-001,6.20669E+001,-2.99088E+001,9.98806E-001,1.05694E-001,-4.12785E-002,2.06492E-003,1.05723E-001,-4.13075E-002,8.04778E-001,1.06561E-001,1.11146E+000,-7.92854E-003,0.00000E+000,1.08548E-002,9.60982E-001,0.00000E+000,-8.17438E-004,-5.55050E-002,1.00000E+000,16
1269,1337,2.84678E+001,7.74558E-001,-8.33129E-002,6.30195E+000,-1.29781E-001,-1.25871E-001,6.30455E+000,8.64679E-003,3.95207E-001,0,9.45547E+001,-2.68109E+000,9.99496E-001,6.26597E+001,-3.01911E+001,9.98199E-001,1.06659E-001,-4.12362E-002,2.43535E-003,1.06699E-001,-4.12763E-002,9.43133E-001,1.07606E-001,1.11253E+000,-7.87179E-003,0.00000E+000,1.14108E-002,9.61012E-001,0.00000E+000,1.11562E-003,-5.54031E-002,1.00000E+000,16
589,1317,-2.07671E+001,-1.17707E+000,2.16074E-001,1.46560E+000,-4.02556E-001,1.56234E-001,1.52789E+000,8.68636E-003,6.04934E-001,0,2.26487E+001,-6.82859E+000,9.99014E-001,-1.75725E+001,-4.74614E+001,9.98070E-001,9.23195E-002,-3.76692E-002,-8.55181E-004,9.23252E-002,-3.76748E-002,-3.76921E-001,9.28439E-002,1.09651E+000,2.10778E-002,0.00000E+000,-2.01916E-002,9.64241E-001,0.00000E+000,1.12650E-003,-5.43210E-002,1.00000E+000,16
1269,1317,2.84193E+001,-4.81964E-001,-9.46530E-002,6.31167E+000,-7.17894E-002,-5.50530E-002,6.31232E+000,8.68044E-003,4.15471E-001,0,9.44306E+001,-1.86751E+000,9.99501E-001,6.18008E+001,-2.96829E+001,9.98515E-001,1.04728E-001,-4.13091E-002,1.70377E-003,1.04748E-001,-4.13290E-002,6.68332E-001,1.05521E-001,1.11039E+000,-7.96726E-003,0.00000E+000,1.03013E-002,9.60962E-001,0.00000E+000,-2.74173E-003,-5.55745E-002,1.00000E+000,16
1269,1307,2.84073E+001,-1.10527E+000,-5.29018E-002,6.31568E+000,-4.51918E-002,-2.11639E-002,6.31587E+000,9.23691E-003,4.28702E-001,0,9.43524E+001,-1.49507E+000,9.99228E-001,6.16268E+001,-2.94565E+001,9.97969E-001,1.03762E-001,-4.13315E-002,1.34966E-003,1.03775E-001,-4.13441E-002,5.32904E-001,1.04486E-001,1.10932E+000,-7.99341E-003,0.00000E+000,9.75043E-003,9.60949E-001,0.00000E+000,-4.65685E-003,-5.56215E-002,1.00000E+000,16
1269,1297,2.83992E+001,-1.72591E+000,7.36100E-003,6.31841E+000,-1.78617E-002,1.21910E-002,6.31845E+000,1.04790E-002,4.31263E-001,0,9.42530E+001,-1.11793E+000,9.99061E-001,6.15373E+001,-2.92347E+001,9.97542E-001,1.02792E-001,-4.13485E-002,9.99582E-004,1.02799E-001,-4.13554E-002,3.97307E-001,1.03452E-001,1.10825E+000,-8.01119E-003,0.00000E+000,9.20031E-003,9.60940E-001,0.00000E+000,-6.56945E-003,-5.56534E-002,1.00000E+000,16
1269,1287,2.84070E+001,-2.33763E+000,1.19492E-001,6.32540E+000,1.30425E-002,5.39920E-002,6.32564E+000,1.52032E-002,4.13706E-001,0,9.41707E+001,-7.06054E-001,9.99299E-001,6.17658E+001,-2.89931E+001,9.95988E-001,1.01822E-001,-4.13530E-002,6.59552E-004,1.01825E-001,-4.13561E-002,2.63931E-001,1.02422E-001,1.10719E+000,-8.00988E-003,0.00000E+000,8.65264E-003,9.60940E-001,0.00000E+000,-8.47351E-003,-5.56511E-002,1.00000E+000,16
579,1347,-2.14017E+001,6.55906E-001,4.06907E-002,1.45101E+000,-4.64503E-001,5.32426E-002,1.52447E+000,6.35246E-003,6.45689E-001,0,2.27117E+001,-7.60470E+000,9.99365E-001,-1.72880E+001,-4.90334E+001,9.99360E-001,8.62974E-002,-3.74798E-002,3.40030E-004,8.62983E-002,-3.74807E-002,1.57397E-001,8.65462E-002,1.08989E+000,2.31819E-002,0.00000E+000,-1.97038E-002,9.64388E-001,0.00000E+000,-1.81627E-003,-5.34978E-002,1.00000E+000,16
579,1357,-2.13670E+001,1.27899E+000,4.69222E-002,1.46983E+000,-4.84422E-001,2.32541E-002,1.54777E+000,6.66331E-003,6.53834E-001,0,2.30834E+001,-7.85208E+000,9.99589E-001,-1.65796E+001,-4.94833E+001,9.99577E-001,8.44215E-002,-3.74781E-002,5.88274E-004,8.44243E-002,-3.74810E-002,2.76495E-001,8.46009E-002,1.08785E+000,2.31328E-002,0.00000E+000,-1.91693E-002,9.64401E-001,0.00000E+000,-2.79092E-003,-5.35213E-002,1.00000E+000,16
579,1337,-2.14290E+001,3.86969E-002,7.08951E-002,1.43394E+000,-4.44091E-001,8.54611E-002,1.50357E+000,6.24024E-003,6.27507E-001,0,2.23598E+001,-7.34693E+000,9.99198E-001,-1.77737E+001,-4.85791E+001,9.99371E-001,8.81605E-002,-3.74771E-002,8.50736E-005,8.81605E-002,-3.74771E-002,3.87970E-002,8.84896E-002,1.09192E+000,2.32137E-002,0.00000E+000,-2.02360E-002,9.64379E-001,0.00000E+000,-8.45731E-004,-5.34826E-002,1.00000E+000,16
579,1327,-2.14512E+001,-5.62267E-001,1.24604E-001,1.41815E+000,-4.13445E-001,1.18064E-001,1.48190E+000,7.73983E-003,6.68488E-001,0,2.20229E+001,-6.91970E+000,9.99501E-001,-1.81072E+001,-4.78972E+001,9.98845E-001,9.00066E-002,-3.74714E-002,-1.73414E-004,9.00069E-002,-3.74717E-002,-7.79416E-002,9.04261E-002,1.09394E+000,2.32337E-002,0.00000E+000,-2.07647E-002,9.64374E-001,0.00000E+000,1.18416E-004,-5.34730E-002,1.00000E+000,16
579,1317,-2.14665E+001,-1.16343E+000,2.15098E-001,1.40421E+000,-3.86143E-001,1.56050E-001,1.46467E+000,1.08464E-002,6.72076E-001,0,2.17001E+001,-6.55970E+000,9.99033E-001,-1.82244E+001,-4.73145E+001,9.97820E-001,9.18460E-002,-3.74618E-002,-4.38658E-004,9.18475E-002,-3.74633E-002,-1.94365E-001,9.23656E-002,1.09595E+000,2.32378E-002,0.00000E+000,-2.12929E-002,9.64373E-001,0.00000E+000,1.08152E-003,-5.34711E-002,1.00000E+000,16
1279,1317,2.91570E+001,-4.74315E-001,-9.95984E-002,6.38282E+000,-6.84197E-002,-5.38690E-002,6.38341E+000,8.08793E-003,3.84357E-001,0,9.54115E+001,-1.83118E+000,9.99246E-001,6.33335E+001,-2.94788E+001,9.97881E-001,1.04385E-001,-4.07314E-002,2.03310E-003,1.04414E-001,-4.07599E-002,8.02512E-001,1.05247E-001,1.11001E+000,-7.01774E-003,0.00000E+000,1.00874E-002,9.61417E-001,0.00000E+000,-2.11715E-003,-5.35887E-002,1.00000E+000,16
1279,1327,2.91827E+001,1.58604E-001,-1.03288E-001,6.38321E+000,-9.25983E-002,-8.35839E-002,6.38443E+000,1.21457E-002,4.31286E-001,0,9.55296E+001,-2.17673E+000,9.99116E-001,6.37712E+001,-2.96079E+001,9.98504E-001,1.05443E-001,-4.06927E-002,2.47003E-003,1.05485E-001,-4.07344E-002,9.68061E-001,1.06392E-001,1.11119E+000,-6.97242E-003,0.00000E+000,1.07735E-002,9.61443E-001,0.00000E+000,4.16678E-005,-5.35055E-002,1.00000E+000,16
1279,1337,2.92145E+001,7.88684E-001,-8.11531E-002,6.38021E+000,-1.23973E-001,-1.22531E-001,6.38259E+000,9.14460E-003,4.34287E-001,0,9.56312E+001,-2.60518E+000,9.99418E-001,6.43372E+001,-2.98631E+001,9.98802E-001,1.06499E-001,-4.06418E-002,2.91559E-003,1.06557E-001,-4.06995E-002,1.13472E+000,1.07542E-001,1.11237E+000,-6.91016E-003,0.00000E+000,1.14621E-002,9.61480E-001,0.00000E+000,2.20828E-003,-5.33912E-002,1.00000E+000,16
1279,1307,2.91403E+001,-1.09610E+000,-6.36419E-002,6.38343E+000,-4.02810E-002,-2.12612E-002,6.38359E+000,9.46833E-003,4.33727E-001,0,9.52879E+001,-1.43617E+000,9.99238E-001,6.30790E+001,-2.92003E+001,9.97191E-001,1.03330E-001,-4.07597E-002,1.60581E-003,1.03348E-001,-4.07776E-002,6.38429E-001,1.04111E-001,1.10885E+000,-7.04865E-003,0.00000E+000,9.40702E-003,9.61399E-001,0.00000E+000,-4.25781E-003,-5.36455E-002,1.00000E+000,16
1279,1297,2.91394E+001,-1.71248E+000,1.52684E-002,6.38992E+000,-9.19914E-003,1.78757E-002,6.38995E+000,1.61606E-002,3.57931E-001,0,9.52150E+001,-9.91993E-001,9.99165E-001,6.31260E+001,-2.89924E+001,9.97668E-001,1.02269E-001,-4.07754E-002,1.18641E-003,1.02279E-001,-4.07853E-002,4.75169E-001,1.02975E-001,1.10768E+000,-7.06208E-003,0.00000E+000,8.72705E-003,9.61391E-001,0.00000E+000,-6.39719E-003,-5.36701E-002,1.00000E+000,16
1279,1287,2.91402E+001,-2.33753E+000,1.00362E-001,6.39386E+000,1.01482E-002,4.72138E-002,6.39404E+000,1.50804E-002,3.21103E-001,0,9.51468E+001,-7.12598E-001,9.99261E-001,6.32084E+001,-2.89123E+001,9.96841E-001,1.01206E-001,-4.07854E-002,7.71786E-004,1.01210E-001,-4.07896E-002,3.11416E-001,1.01843E-001,1.10652E+000,-7.06771E-003,0.00000E+000,8.04936E-003,9.61388E-001,0.00000E+000,-8.52944E-003,-5.36805E-002,1.00000E+000,16
569,1347,-2.20947E+001,6.69437E-001,4.62138E-002,1.39525E+000,-4.46315E-001,5.59364E-002,1.46596E+000,6.61696E-003,6.57327E-001,0,2.18405E+001,-7.31457E+000,9.99331E-001,-1.78182E+001,-4.89348E+001,9.99150E-001,8.58482E-002,-3.71817E-002,7.54706E-004,8.58528E-002,-3.71863E-002,3.51454E-001,8.61083E-002,1.08935E+000,2.54104E-002,0.00000E+000,-2.08852E-002,9.64616E-001,0.00000E+000,-1.86589E-003,-5.28283E-002,1.00000E+000,16
569,1357,-2.20616E+001,1.28660E+000,4.40611E-002,1.41391E+000,-4.69806E-001,2.52260E-002,1.49014E+000,6.80539E-003,6.59081E-001,0,2.22125E+001,-7.62883E+000,9.99451E-001,-1.71593E+001,-4.94625E+001,9.99174E-001,8.39182E-002,-3.71820E-002,1.06354E-003,8.39275E-002,-3.71914E-002,5.03138E-001,8.41082E-002,1.08726E+000,2.53645E-002,0.00000E+000,-2.02307E-002,9.64631E-001,0.00000E+000,-3.06113E-003,-5.28546E-002,1.00000E+000,16
569,1327,-2.21467E+001,-5.58229E-001,1.19164E-001,1.36077E+000,-4.04041E-001,1.16000E-001,1.42422E+000,1.11811E-002,6.76846E-001,0,2.11420E+001,-6.75875E+000,9.99662E-001,-1.87109E+001,-4.79187E+001,9.99230E-001,8.96741E-002,-3.71700E-002,1.23844E-004,8.96742E-002,-3.71702E-002,5.59405E-002,9.01102E-002,1.09352E+000,2.54663E-002,0.00000E+000,-2.21882E-002,9.64599E-001,0.00000E+000,5.13770E-004,-5.27965E-002,1.00000E+000,16
569,1337,-2.21223E+001,5.29426E-002,7.46662E-002,1.37714E+000,-4.26183E-001,8.26542E-002,1.44395E+000,5.87433E-003,6.33959E-001,0,2.14867E+001,-7.04220E+000,9.99383E-001,-1.83143E+001,-4.84664E+001,9.99405E-001,8.77677E-002,-3.71766E-002,4.39679E-004,8.77692E-002,-3.71782E-002,2.01621E-001,8.81102E-002,1.09144E+000,2.54408E-002,0.00000E+000,-2.15380E-002,9.64607E-001,0.00000E+000,-6.73661E-004,-5.28110E-002,1.00000E+000,16
1289,1327,2.99169E+001,1.66204E-001,-1.12038E-001,6.45169E+000,-8.94921E-002,-8.08185E-002,6.45282E+000,1.10689E-002,4.18998E-001,0,9.64642E+001,-2.14587E+000,9.98887E-001,6.52468E+001,-2.93859E+001,9.97772E-001,1.05150E-001,-3.98804E-002,2.84221E-003,1.05206E-001,-3.99361E-002,1.12227E+000,1.06218E-001,1.11087E+000,-5.83827E-003,0.00000E+000,1.04916E-002,9.62114E-001,0.00000E+000,6.73761E-004,-5.11990E-002,1.00000E+000,16
1289,1337,2.99509E+001,8.01217E-001,-8.75665E-002,6.45086E+000,-1.16376E-001,-1.16748E-001,6.45296E+000,1.04674E-002,4.29095E-001,0,9.65841E+001,-2.51181E+000,9.99315E-001,6.58484E+001,-2.95642E+001,9.98348E-001,1.06344E-001,-3.98244E-002,3.33784E-003,1.06420E-001,-3.99006E-002,1.30748E+000,1.07524E-001,1.11221E+000,-5.76781E-003,0.00000E+000,1.12673E-002,9.62155E-001,0.00000E+000,3.00725E-003,-5.10759E-002,1.00000E+000,16
569,1317,-2.21664E+001,-1.15332E+000,2.14755E-001,1.34083E+000,-3.71007E-001,1.49832E-001,1.39926E+000,1.25557E-002,6.70551E-001,0,2.07347E+001,-6.31259E+000,9.99138E-001,-1.88787E+001,-4.72575E+001,9.97941E-001,9.15714E-002,-3.71557E-002,-2.03028E-004,9.15717E-002,-3.71560E-002,-9.03667E-002,9.21123E-002,1.09560E+000,2.54657E-002,0.00000E+000,-2.28372E-002,9.64599E-001,0.00000E+000,1.69906E-003,-5.27968E-002,1.00000E+000,16
1289,1317,2.98943E+001,-4.63006E-001,-9.84539E-002,6.45200E+000,-6.51976E-002,-5.01131E-002,6.45252E+000,1.31135E-002,4.58986E-001,0,9.63498E+001,-1.80410E+000,9.99295E-001,6.48705E+001,-2.91786E+001,9.96937E-001,1.03960E-001,-3.99195E-002,2.36094E-003,1.03999E-001,-3.99582E-002,9.39836E-001,1.04924E-001,1.10955E+000,-5.88476E-003,0.00000E+000,9.72276E-003,9.62087E-001,0.00000E+000,-1.63881E-003,-5.12802E-002,1.00000E+000,16
1289,1287,2.98755E+001,-2.31887E+000,9.31348E-002,6.46227E+000,2.31782E-002,4.60584E-002,6.46248E+000,1.53090E-002,3.95303E-001,0,9.60885E+001,-5.42785E-001,9.99259E-001,6.47046E+001,-2.84848E+001,9.96787E-001,1.00361E-001,-3.99790E-002,9.57077E-004,1.00367E-001,-3.99855E-002,3.90716E-001,1.01056E-001,1.10559E+000,-5.94371E-003,0.00000E+000,7.42553E-003,9.62053E-001,0.00000E+000,-8.54880E-003,-5.13832E-002,1.00000E+000,16
1289,1297,2.98793E+001,-1.70376E+000,1.99471E-002,6.45938E+000,-5.89322E-003,1.56143E-002,6.45941E+000,1.60265E-002,2.89304E-001,0,9.61792E+001,-9.33779E-001,9.99330E-001,6.47096E+001,-2.88141E+001,9.97669E-001,1.01562E-001,-3.99638E-002,1.42013E-003,1.01576E-001,-3.99781E-002,5.74855E-001,1.02340E-001,1.10690E+000,-5.93023E-003,0.00000E+000,8.18742E-003,9.62060E-001,0.00000E+000,-6.25707E-003,-5.13596E-002,1.00000E+000,16
1289,1307,2.98815E+001,-1.08641E+000,-6.68924E-002,6.45522E+000,-3.75647E-002,-2.69793E-002,6.45538E+000,1.17679E-002,4.46149E-001,0,9.63032E+001,-1.39042E+000,9.99597E-001,6.46713E+001,-2.89480E+001,9.97772E-001,1.02764E-001,-3.99486E-002,1.88628E-003,1.02789E-001,-3.99735E-002,7.57117E-001,1.03632E-001,1.10823E+000,-5.91726E-003,0.00000E+000,8.95511E-003,9.62068E-001,0.00000E+000,-3.94786E-003,-5.13370E-002,1.00000E+000,16
559,1327,-2.28341E+001,-5.48632E-001,1.07743E-001,1.31010E+000,-3.90698E-001,1.02340E-001,1.37094E+000,2.09602E-002,8.20861E-001,0,2.03932E+001,-6.56743E+000,9.99726E-001,-1.92055E+001,-4.77737E+001,9.98991E-001,8.93047E-002,-3.71065E-002,5.33319E-004,8.93069E-002,-3.71088E-002,2.41720E-001,8.97308E-002,1.09306E+000,2.77899E-002,0.00000E+000,-2.34630E-002,9.64572E-001,0.00000E+000,7.21305E-004,-5.16241E-002,1.00000E+000,16
559,1337,-2.28156E+001,6.35165E-002,6.94214E-002,1.32095E+000,-4.10712E-001,7.66687E-002,1.38545E+000,5.63922E-003,6.60561E-001,0,2.06310E+001,-6.78507E+000,9.99705E-001,-1.88782E+001,-4.83807E+001,9.99618E-001,8.74360E-002,-3.71130E-002,7.90673E-004,8.74410E-002,-3.71180E-002,3.63711E-001,8.77728E-002,1.09102E+000,2.77662E-002,0.00000E+000,-2.29249E-002,9.64578E-001,0.00000E+000,-6.00909E-004,-5.16395E-002,1.00000E+000,16
559,1347,-2.27906E+001,6.79516E-001,4.22380E-002,1.33645E+000,-4.29581E-001,5.06058E-002,1.40471E+000,7.71631E-003,6.36493E-001,0,2.09416E+001,-7.04000E+000,9.99437E-001,-1.84176E+001,-4.88854E+001,9.99084E-001,8.55566E-002,-3.71180E-002,1.04627E-003,8.55655E-002,-3.71269E-002,4.88617E-001,8.58144E-002,1.08898E+000,2.77366E-002,0.00000E+000,-2.23853E-002,9.64586E-001,0.00000E+000,-1.92683E-003,-5.16587E-002,1.00000E+000,16
559,1357,-2.27559E+001,1.29617E+000,3.84583E-002,1.35746E+000,-4.52514E-001,2.20108E-002,1.43107E+000,6.64948E-003,6.33174E-001,0,2.13446E+001,-7.35284E+000,9.99410E-001,-1.77383E+001,-4.94215E+001,9.99343E-001,8.36637E-002,-3.71198E-002,1.29713E-003,8.36776E-002,-3.71338E-002,6.15223E-001,8.38538E-002,1.08692E+000,2.76941E-002,0.00000E+000,-2.18435E-002,9.64597E-001,0.00000E+000,-3.25823E-003,-5.16863E-002,1.00000E+000,16
559,1317,-2.28597E+001,-1.13963E+000,2.17906E-001,1.28370E+000,-3.54189E-001,1.48015E-001,1.33987E+000,2.07152E-002,7.12497E-001,0,1.98543E+001,-6.03984E+000,9.99438E-001,-1.94179E+001,-4.71307E+001,9.98684E-001,9.11660E-002,-3.70938E-002,2.64644E-004,9.11666E-002,-3.70943E-002,1.18220E-001,9.16920E-002,1.09510E+000,2.77880E-002,0.00000E+000,-2.40007E-002,9.64572E-001,0.00000E+000,2.04255E-003,-5.16254E-002,1.00000E+000,16
1299,1327,3.06595E+001,1.79151E-001,-1.11020E-001,6.52383E+000,-8.39742E-002,-8.32523E-002,6.52490E+000,1.45463E-002,4.33625E-001,0,9.74686E+001,-2.06925E+000,9.98866E-001,6.68678E+001,-2.90881E+001,9.98022E-001,1.04901E-001,-3.89712E-002,3.18109E-003,1.04972E-001,-3.90415E-002,1.26601E+000,1.06114E-001,1.11060E+000,-4.41472E-003,0.00000E+000,9.90530E-003,9.62875E-001,0.00000E+000,1.14122E-003,-4.86544E-002,1.00000E+000,16
1299,1337,3.07006E+001,8.14356E-001,-7.72436E-002,6.52862E+000,-1.12325E-001,-1.14427E-001,6.53059E+000,1.31652E-002,4.62540E-001,0,9.76520E+001,-2.46717E+000,9.98878E-001,6.75897E+001,-2.92725E+001,9.97841E-001,1.06236E-001,-3.89098E-002,3.71658E-003,1.06331E-001,-3.90049E-002,1.46583E+000,1.07581E-001,1.11210E+000,-4.33265E-003,0.00000E+000,1.07494E-002,9.62922E-001,0.00000E+000,3.60478E-003,-4.85190E-002,1.00000E+000,16
1299,1287,3.06187E+001,-2.30704E+000,9.93943E-002,6.53374E+000,2.61794E-002,4.26178E-002,6.53393E+000,1.11861E-002,4.83741E-001,0,9.70842E+001,-5.13970E-001,9.99487E-001,6.63444E+001,-2.81845E+001,9.97344E-001,9.95568E-002,-3.90710E-002,1.15911E-003,9.95665E-002,-3.90807E-002,4.79023E-001,1.00331E-001,1.10471E+000,-4.52937E-003,0.00000E+000,6.57725E-003,9.62810E-001,0.00000E+000,-8.57211E-003,-4.88434E-002,1.00000E+000,16
1299,1297,3.06220E+001,-1.69557E+000,1.95123E-002,6.53176E+000,-6.27516E-003,1.08572E-002,6.53177E+000,1.17983E-002,4.59729E-001,0,9.71973E+001,-9.90785E-001,9.99653E-001,6.63325E+001,-2.85137E+001,9.97805E-001,1.00898E-001,-3.90578E-002,1.65469E-003,1.00917E-001,-3.90774E-002,6.77281E-001,1.01769E-001,1.10618E+000,-4.51750E-003,0.00000E+000,7.40468E-003,9.62817E-001,0.00000E+000,-6.15715E-003,-4.88238E-002,1.00000E+000,16
1299,1307,3.06354E+001,-1.07029E+000,-3.57861E-002,6.53455E+000,-3.05605E-002,-1.55823E-002,6.53464E+000,2.11926E-002,4.95483E-001,0,9.73505E+001,-1.33982E+000,9.99535E-001,6.65100E+001,-2.86502E+001,9.98217E-001,1.02240E-001,-3.90362E-002,2.15898E-003,1.02273E-001,-3.90691E-002,8.75322E-001,1.03218E-001,1.10765E+000,-4.49350E-003,0.00000E+000,8.23788E-003,9.62831E-001,0.00000E+000,-3.72536E-003,-4.87842E-002,1.00000E+000,16
1299,1317,3.06461E+001,-4.46706E-001,-8.02725E-002,6.52979E+000,-5.79096E-002,-4.90999E-002,6.53023E+000,1.85073E-002,4.84224E-001,0,9.74190E+001,-1.71562E+000,9.99027E-001,6.66590E+001,-2.88613E+001,9.97713E-001,1.03575E-001,-3.90068E-002,2.66818E-003,1.03625E-001,-3.90567E-002,1.07170E+000,1.04666E-001,1.10913E+000,-4.45852E-003,0.00000E+000,9.07150E-003,9.62851E-001,0.00000E+000,-1.29234E-003,-4.87266E-002,1.00000E+000,16
559,1307,-2.28799E+001,-1.73859E+000,3.26836E-001,1.26107E+000,-3.26786E-001,1.81407E-001,1.31529E+000,9.50859E-003,6.86081E-001,0,1.94074E+001,-5.67589E+000,9.98903E-001,-1.95523E+001,-4.65637E+001,9.98301E-001,9.30212E-002,-3.70797E-002,-6.17980E-006,9.30212E-002,-3.70797E-002,-2.72155E-003,9.36565E-002,1.09714E+000,2.77805E-002,0.00000E+000,-2.45382E-002,9.64574E-001,0.00000E+000,3.36325E-003,-5.16302E-002,1.00000E+000,16
549,1347,-2.34795E+001,6.93187E-001,4.19310E-002,1.28426E+000,-4.11542E-001,4.90963E-002,1.34948E+000,6.67658E-003,6.82910E-001,0,2.01350E+001,-6.75271E+000,9.99378E-001,-1.88939E+001,-4.87546E+001,9.99122E-001,8.52862E-002,-3.69716E-002,1.36148E-003,8.53013E-002,-3.69867E-002,6.37950E-001,8.55517E-002,1.08862E+000,2.99516E-002,0.00000E+000,-2.37568E-002,9.64633E-001,0.00000E+000,-1.74565E-003,-5.03902E-002,1.00000E+000,16
549,1357,-2.34453E+001,1.31409E+000,4.28070E-002,1.30405E+000,-4.31029E-001,1.98741E-002,1.37359E+000,7.10615E-003,6.64476E-001,0,2.05192E+001,-6.99843E+000,9.99387E-001,-1.82058E+001,-4.92453E+001,9.99254E-001,8.34477E-002,-3.69737E-002,1.59929E-003,8.34689E-002,-3.69949E-002,7.60755E-001,8.36481E-002,1.08663E+000,2.99084E-002,0.00000E+000,-2.32423E-002,9.64644E-001,0.00000E+000,-3.10167E-003,-5.04196E-002,1.00000E+000,16
549,1327,-2.35414E+001,-5.28826E-001,1.37790E-001,1.23752E+000,-3.66510E-001,1.20170E-001,1.29623E+000,1.65369E-002,7.65719E-001,0,1.92165E+001,-6.20394E+000,9.99252E-001,-1.98693E+001,-4.76631E+001,9.97527E-001,8.89268E-002,-3.69577E-002,8.70359E-004,8.89328E-002,-3.69637E-002,3.96115E-001,8.93538E-002,1.09259E+000,2.99974E-002,0.00000E+000,-2.47805E-002,9.64621E-001,0.00000E+000,9.51939E-004,-5.03590E-002,1.00000E+000,16
549,1337,-2.35074E+001,7.94562E-002,7.48517E-002,1.26549E+000,-3.88491E-001,7.88621E-002,1.32612E+000,5.66307E-003,6.58764E-001,0,1.97629E+001,-6.45344E+000,9.99585E-001,-1.93808E+001,-4.82500E+001,9.99541E-001,8.71164E-002,-3.69657E-002,1.11690E-003,8.71264E-002,-3.69758E-002,5.15682E-001,8.74579E-002,1.09061E+000,2.99790E-002,0.00000E+000,-2.42707E-002,9.64626E-001,0.00000E+000,-3.91530E-004,-5.03715E-002,1.00000E+000,16
1309,1317,3.13785E+001,-4.43226E-001,-1.04941E-001,6.59567E+000,-5.82286E-002,-6.19565E-002,6.59621E+000,1.47254E-002,4.44465E-001,0,9.83785E+001,-1.69623E+000,9.98891E-001,6.80945E+001,-2.86845E+001,9.97743E-001,1.03463E-001,-3.82123E-002,3.03606E-003,1.03528E-001,-3.82773E-002,1.22708E+000,1.04693E-001,1.10901E+000,-2.68978E-003,0.00000E+000,8.23719E-003,9.63506E-001,0.00000E+000,-9.30053E-004,-4.61026E-002,1.00000E+000,16
1309,1327,3.14028E+001,1.88090E-001,-1.17973E-001,6.59783E+000,-8.08087E-002,-8.81315E-002,6.59891E+000,1.72063E-002,4.25616E-001,0,9.85113E+001,-2.02581E+000,9.98684E-001,6.84952E+001,-2.88465E+001,9.97337E-001,1.04937E-001,-3.81757E-002,3.52904E-003,1.05024E-001,-3.82627E-002,1.41172E+000,1.06305E-001,1.11065E+000,-2.63409E-003,0.00000E+000,9.02819E-003,9.63533E-001,0.00000E+000,1.56158E-003,-4.60180E-002,1.00000E+000,16
1309,1337,3.14410E+001,8.25315E-001,-8.57577E-002,6.60077E+000,-1.06474E-001,-1.15996E-001,6.60265E+000,1.55710E-002,4.54705E-001,0,9.86536E+001,-2.39319E+000,9.99161E-001,6.91664E+001,-2.89946E+001,9.98518E-001,1.06417E-001,-3.81203E-002,4.04044E-003,1.06529E-001,-3.82332E-002,1.60000E+000,1.07934E-001,1.11231E+000,-2.54581E-003,0.00000E+000,9.82671E-003,9.63575E-001,0.00000E+000,4.07691E-003,-4.58839E-002,1.00000E+000,16
549,1317,-2.35555E+001,-1.12635E+000,2.27219E-001,1.22381E+000,-3.37156E-001,1.52468E-001,1.27853E+000,1.38630E-002,7.56839E-001,0,1.89134E+001,-5.78798E+000,9.99354E-001,-1.99704E+001,-4.70224E+001,9.98496E-001,9.07302E-002,-3.69457E-002,6.16522E-004,9.07332E-002,-3.69487E-002,2.76662E-001,9.12524E-002,1.09456E+000,2.99989E-002,0.00000E+000,-2.52899E-002,9.64621E-001,0.00000E+000,2.29436E-003,-5.03580E-002,1.00000E+000,16
549,1307,-2.35741E+001,-1.72550E+000,3.19666E-001,1.20368E+000,-3.09309E-001,1.75014E-001,1.25505E+000,9.83233E-003,6.92961E-001,0,1.85341E+001,-5.37510E+000,9.98963E-001,-2.01295E+001,-4.64403E+001,9.98530E-001,9.25316E-002,-3.69322E-002,3.59723E-004,9.25326E-002,-3.69332E-002,1.59198E-001,9.31581E-002,1.09654E+000,2.99945E-002,0.00000E+000,-2.58002E-002,9.64622E-001,0.00000E+000,3.63926E-003,-5.03610E-002,1.00000E+000,16
1309,1287,3.13624E+001,-2.30326E+000,1.00931E-001,6.60429E+000,2.41437E-002,3.11329E-002,6.60440E+000,1.03159E-002,4.59131E-001,0,9.81002E+001,-5.43046E-001,9.99510E-001,6.79885E+001,-2.80559E+001,9.97073E-001,9.90106E-002,-3.82603E-002,1.60981E-003,9.90295E-002,-3.82792E-002,6.71798E-001,9.98757E-002,1.10411E+000,-2.75189E-003,0.00000E+000,5.87660E-003,9.63476E-001,0.00000E+000,-8.36588E-003,-4.61969E-002,1.00000E+000,16
1309,1297,3.13631E+001,-1.69200E+000,1.29541E-002,6.60148E+000,-1.02201E-002,-1.99008E-003,6.60149E+000,1.34582E-002,4.70657E-001,0,9.82099E+001,-1.02720E+000,9.99374E-001,6.79267E+001,-2.83521E+001,9.97352E-001,1.00502E-001,-3.82514E-002,2.07947E-003,1.00533E-001,-3.82826E-002,8.58425E-001,1.01481E-001,1.10574E+000,-2.74306E-003,0.00000E+000,6.66247E-003,9.63480E-001,0.00000E+000,-5.89040E-003,-4.61835E-002,1.00000E+000,16
1309,1307,3.13640E+001,-1.06781E+000,-6.82898E-002,6.59753E+000,-3.00526E-002,-3.36365E-002,6.59768E+000,1.35164E-002,3.80810E-001,0,9.82887E+001,-1.27815E+000,9.99355E-001,6.78780E+001,-2.85118E+001,9.98667E-001,1.01980E-001,-3.82402E-002,2.54917E-003,1.02026E-001,-3.82865E-002,1.04117E+000,1.03079E-001,1.10737E+000,-2.73078E-003,0.00000E+000,7.44602E-003,9.63486E-001,0.00000E+000,-3.42223E-003,-4.61648E-002,1.00000E+000,16
539,1347,-2.41724E+001,7.09130E-001,4.39784E-002,1.22755E+000,-3.89866E-001,4.88532E-002,1.28890E+000,6.22563E-003,6.63890E-001,0,1.92524E+001,-6.40105E+000,9.99411E-001,-1.94182E+001,-4.86275E+001,9.99336E-001,8.50988E-002,-3.67423E-002,1.51675E-003,8.51177E-002,-3.67611E-002,7.13105E-001,8.53806E-002,1.08836E+000,3.19358E-002,0.00000E+000,-2.52340E-002,9.64755E-001,0.00000E+000,-1.57070E-003,-4.90811E-002,1.00000E+000,16
539,1357,-2.41383E+001,1.33152E+000,3.98030E-002,1.24833E+000,-4.07179E-001,2.05642E-002,1.31322E+000,5.83813E-003,6.65759E-001,0,1.96492E+001,-6.61880E+000,9.99576E-001,-1.87455E+001,-4.90763E+001,9.99468E-001,8.33689E-002,-3.67455E-002,1.72992E-003,8.33938E-002,-3.67704E-002,8.24962E-001,8.35876E-002,1.08649E+000,3.18982E-002,0.00000E+000,-2.47722E-002,9.64764E-001,0.00000E+000,-2.96241E-003,-4.91090E-002,1.00000E+000,16
539,1327,-2.42281E+001,-5.12995E-001,1.23191E-001,1.18733E+000,-3.43169E-001,1.06031E-001,1.24047E+000,7.59420E-003,6.51104E-001,0,1.84720E+001,-5.77528E+000,9.98739E-001,-2.03499E+001,-4.75450E+001,9.98615E-001,8.85302E-002,-3.67288E-002,1.07821E-003,8.85394E-002,-3.67381E-002,4.93145E-001,8.89655E-002,1.09210E+000,3.19796E-002,0.00000E+000,-2.61542E-002,9.64744E-001,0.00000E+000,1.20228E-003,-4.90486E-002,1.00000E+000,16
539,1337,-2.42006E+001,9.72551E-002,7.39725E-002,1.20831E+000,-3.65235E-001,7.53253E-002,1.26455E+000,6.58769E-003,6.50615E-001,0,1.88812E+001,-6.07474E+000,9.99211E-001,-1.99189E+001,-4.80809E+001,9.99239E-001,8.68210E-002,-3.67363E-002,1.29842E-003,8.68347E-002,-3.67499E-002,6.02014E-001,8.71753E-002,1.09024E+000,3.19610E-002,0.00000E+000,-2.56952E-002,9.64748E-001,0.00000E+000,-1.80988E-004,-4.90624E-002,1.00000E+000,16
1319,1297,3.20909E+001,-1.68577E+000,-1.13970E-002,6.66235E+000,-6.13675E-003,-1.49315E-002,6.66237E+000,1.13338E-002,3.48382E-001,0,9.90911E+001,-9.18475E-001,9.99361E-001,6.92960E+001,-2.81790E+001,9.98061E-001,1.00072E-001,-3.73260E-002,2.63555E-003,1.00122E-001,-3.73766E-002,1.09850E+000,1.01188E-001,1.10528E+000,-5.11338E-004,0.00000E+000,5.78935E-003,9.64239E-001,0.00000E+000,-6.05747E-003,-4.28824E-002,1.00000E+000,16
1319,1307,3.21003E+001,-1.06542E+000,-7.66863E-002,6.66359E+000,-3.26117E-002,-4.22644E-002,6.66380E+000,1.29384E-002,3.21400E-001,0,9.92293E+001,-1.29771E+000,9.99274E-001,6.93989E+001,-2.83988E+001,9.98786E-001,1.01757E-001,-3.73114E-002,3.11463E-003,1.01826E-001,-3.73811E-002,1.28237E+000,1.03018E-001,1.10713E+000,-4.87994E-004,0.00000E+000,6.58033E-003,9.64249E-001,0.00000E+000,-3.28774E-003,-4.28475E-002,1.00000E+000,16
539,1307,-2.42675E+001,-1.71462E+000,3.10446E-001,1.14625E+000,-2.92440E-001,1.63362E-001,1.19420E+000,6.83326E-003,6.46247E-001,0,1.76720E+001,-5.07739E+000,9.99194E-001,-2.06964E+001,-4.63733E+001,9.98940E-001,9.19202E-002,-3.67047E-002,6.21236E-004,9.19232E-002,-3.67077E-002,2.76720E-001,9.25422E-002,1.09581E+000,3.19753E-002,0.00000E+000,-2.70689E-002,9.64745E-001,0.00000E+000,3.95876E-003,-4.90518E-002,1.00000E+000,16
539,1317,-2.42496E+001,-1.11840E+000,2.08559E-001,1.16654E+000,-3.21017E-001,1.36228E-001,1.21755E+000,7.24330E-003,6.69137E-001,0,1.80654E+001,-5.49088E+000,9.99046E-001,-2.05773E+001,-4.70027E+001,9.98666E-001,9.02293E-002,-3.67177E-002,8.51386E-004,9.02350E-002,-3.67234E-002,3.84238E-001,9.07541E-002,1.09396E+000,3.19818E-002,0.00000E+000,-2.66120E-002,9.64743E-001,0.00000E+000,2.58177E-003,-4.90470E-002,1.00000E+000,16
1319,1287,3.20963E+001,-2.30448E+000,8.15569E-002,6.66886E+000,1.81139E-002,1.45337E-002,6.66890E+000,1.23686E-002,4.24129E-001,0,9.90535E+001,-5.98691E-001,9.99248E-001,6.94578E+001,-2.79671E+001,9.98162E-001,9.83821E-002,-3.73301E-002,2.16712E-003,9.84167E-002,-3.73647E-002,9.14615E-001,9.93623E-002,1.10343E+000,-5.14501E-004,0.00000E+000,5.00117E-003,9.64237E-001,0.00000E+000,-8.81742E-003,-4.28871E-002,1.00000E+000,16
529,1327,-2.49189E+001,-4.98797E-001,1.25252E-001,1.13169E+000,-3.23652E-001,1.03061E-001,1.18156E+000,6.87126E-003,6.53394E-001,0,1.76130E+001,-5.46877E+000,9.98679E-001,-2.08395E+001,-4.74301E+001,9.98431E-001,8.81652E-002,-3.63033E-002,1.30138E-003,8.81788E-002,-3.63169E-002,5.98968E-001,8.86344E-002,1.09166E+000,3.34375E-002,0.00000E+000,-2.70560E-002,9.65082E-001,0.00000E+000,1.75446E-003,-4.80063E-002,1.00000E+000,16
529,1307,-2.49587E+001,-1.70030E+000,3.15932E-001,1.08970E+000,-2.73501E-001,1.60344E-001,1.13488E+000,9.16305E-003,6.31204E-001,0,1.67998E+001,-4.77405E+000,9.99311E-001,-2.11792E+001,-4.62685E+001,9.98988E-001,9.11718E-002,-3.62887E-002,1.02211E-003,9.11800E-002,-3.62969E-002,4.59416E-001,9.18093E-002,1.09495E+000,3.34323E-002,0.00000E+000,-2.76275E-002,9.65083E-001,0.00000E+000,4.44731E-003,-4.80106E-002,1.00000E+000,16
529,1317,-2.49417E+001,-1.10363E+000,2.07653E-001,1.11050E+000,-3.00599E-001,1.36016E-001,1.15847E+000,7.07588E-003,6.31577E-001,0,1.71938E+001,-5.15149E+000,9.99412E-001,-2.10946E+001,-4.68908E+001,9.98953E-001,8.96722E-002,-3.62970E-002,1.16459E-003,8.96830E-002,-3.63077E-002,5.29642E-001,9.02227E-002,1.09331E+000,3.34416E-002,0.00000E+000,-2.73420E-002,9.65082E-001,0.00000E+000,3.10220E-003,-4.80030E-002,1.00000E+000,16
