Coordinates.Image X [Pixel],Coordinates.Image Y [Pixel],coor.X [mm],coor.Y [mm],coor.Z [mm],disp.Horizontal Displacement U [mm],disp.Vertical Displacement V [mm],disp.Out-Of-Plane: W [mm],disp.Displacement Magnitude [mm],stats.Sigma [mm],stats.Epipolar Distance [Pixel],stats.Shape Index [-],SameCamera.Horizontal: u [Pixel],SameCamera.Vertical: v [Pixel],SameCamera.Correlation Value 2D [-],CrossCamera.Horizontal: q [Pixel],CrossCamera.Vertical: r [Pixel],CrossCamera.Correlation Value Persp [-],strain.Strain-global frame: Exx [ ],strain.Strain-global frame: Eyy [ ],strain.Strain-global frame: Exy [ ],strain.Maximum Principal Strain: EI [ ],strain.Minimum Principal Strain: EII [ ],strain.Shear Angle Gamma [deg],strain.Von Mises Equivalent Strain [ ],defgradient.F[0,0] [-],defgradient.F[0,1] [-],defgradient.F[0,2] [-],defgradient.F[1,0] [-],defgradient.F[1,1] [-],defgradient.F[1,2] [-],defgradient.F[2,0] [-],defgradient.F[2,1] [-],defgradient.F[2,2] [-],ext.Current Image [#]
929,1317,7.09763E+000,-1.14424E+000,7.55543E-002,7.43370E+000,-5.27879E-001,1.62275E-001,7.45418E+000,1.57774E-002,4.41167E-001,0,1.13231E+002,-9.49151E+000,9.98079E-001,7.01734E+001,-4.29863E+001,9.96465E-001,2.01108E-001,-8.45016E-002,-3.89151E-004,2.01109E-001,-8.45021E-002,-7.80668E-002,2.01961E-001,1.22270E+000,-2.14986E-002,0.00000E+000,1.68027E-002,9.23178E-001,0.00000E+000,-1.62346E-002,-9.72679E-002,1.00000E+000,31
919,1307,6.30065E+000,-1.74246E+000,1.43894E-001,7.30327E+000,-4.76825E-001,2.35412E-001,7.32261E+000,1.79428E-002,4.81947E-001,0,1.11070E+002,-8.81634E+000,9.96395E-001,6.78850E+001,-4.24660E+001,9.93992E-001,2.04916E-001,-8.42489E-002,-1.05593E-003,2.04919E-001,-8.42527E-002,-2.09221E-001,2.05995E-001,1.22738E+000,-1.90437E-002,0.00000E+000,1.35583E-002,9.23558E-001,0.00000E+000,-1.48039E-002,-9.83662E-002,1.00000E+000,31
919,1317,6.28511E+000,-1.16669E+000,3.46472E-002,7.28492E+000,-5.36051E-001,1.77076E-001,7.30676E+000,2.22687E-002,4.52608E-001,0,1.11009E+002,-9.64890E+000,9.94167E-001,6.75072E+001,-4.33451E+001,9.92155E-001,2.02543E-001,-8.42561E-002,-1.26795E-003,2.02549E-001,-8.42617E-002,-2.53300E-001,2.03499E-001,1.22445E+000,-1.90565E-002,0.00000E+000,1.30587E-002,9.23556E-001,0.00000E+000,-1.31619E-002,-9.83591E-002,1.00000E+000,31
919,1327,6.28906E+000,-5.81595E-001,-1.76940E-002,7.27175E+000,-5.98027E-001,1.09604E-001,7.29712E+000,1.65915E-002,4.88754E-001,0,1.11043E+002,-1.04956E+001,9.97228E-001,6.75499E+001,-4.41665E+001,9.95574E-001,2.00140E-001,-8.42719E-002,-1.50793E-003,2.00148E-001,-8.42799E-002,-3.03766E-001,2.00977E-001,1.22149E+000,-1.91338E-002,0.00000E+000,1.25542E-002,9.23543E-001,0.00000E+000,-1.15039E-002,-9.83158E-002,1.00000E+000,31
929,1307,7.10889E+000,-1.71921E+000,1.73664E-001,7.45214E+000,-4.64572E-001,2.29364E-001,7.47013E+000,1.57183E-002,4.93505E-001,0,1.13264E+002,-8.62875E+000,9.98364E-001,7.04611E+001,-4.20611E+001,9.97014E-001,2.03529E-001,-8.45017E-002,-3.57952E-004,2.03529E-001,-8.45022E-002,-7.12045E-002,2.04503E-001,1.22570E+000,-2.14652E-002,0.00000E+000,1.69815E-002,9.23180E-001,0.00000E+000,-1.82997E-002,-9.72908E-002,1.00000E+000,31
929,1327,7.09305E+000,-5.54550E-001,7.43534E-003,7.41568E+000,-5.80534E-001,9.63354E-002,7.43899E+000,1.40097E-002,4.41926E-001,0,1.13188E+002,-1.02186E+001,9.98433E-001,7.00523E+001,-4.37204E+001,9.97389E-001,1.98672E-001,-8.45014E-002,-4.32222E-004,1.98673E-001,-8.45021E-002,-8.74532E-002,1.99410E-001,1.21969E+000,-2.15609E-002,0.00000E+000,1.66235E-002,9.23175E-001,0.00000E+000,-1.41648E-002,-9.72250E-002,1.00000E+000,31
939,1307,7.90890E+000,-1.70204E+000,1.54397E-001,7.59781E+000,-4.54309E-001,1.99704E-001,7.61400E+000,1.70243E-002,4.93834E-001,0,1.15497E+002,-8.42361E+000,9.98434E-001,7.28133E+001,-4.16530E+001,9.97328E-001,2.01889E-001,-8.38655E-002,1.09051E-004,2.01889E-001,-8.38655E-002,2.18656E-002,2.02850E-001,1.22368E+000,-2.44443E-002,0.00000E+000,2.03182E-002,9.23572E-001,0.00000E+000,-2.08405E-002,-9.57339E-002,1.00000E+000,31
939,1317,7.89590E+000,-1.12453E+000,6.11202E-002,7.57684E+000,-5.15015E-001,1.34025E-001,7.59550E+000,1.66797E-002,4.13685E-001,0,1.15420E+002,-9.24713E+000,9.97862E-001,7.25100E+001,-4.25612E+001,9.96236E-001,1.99718E-001,-8.38615E-002,1.34481E-004,1.99718E-001,-8.38616E-002,2.71711E-002,2.00570E-001,1.22098E+000,-2.44778E-002,0.00000E+000,2.02223E-002,9.23571E-001,0.00000E+000,-1.84790E-002,-9.57046E-002,1.00000E+000,31
939,1327,7.89408E+000,-5.27089E-001,1.99105E-003,7.55992E+000,-5.63189E-001,7.02778E-002,7.58119E+000,1.38944E-002,4.56943E-001,0,1.15385E+002,-9.89939E+000,9.97535E-001,7.24505E+001,-4.31712E+001,9.96740E-001,1.97521E-001,-8.38562E-002,1.48028E-004,1.97521E-001,-8.38563E-002,3.01423E-002,1.98270E-001,1.21825E+000,-2.45411E-002,0.00000E+000,2.01257E-002,9.23569E-001,0.00000E+000,-1.61010E-002,-9.56494E-002,1.00000E+000,31
919,1337,6.30073E+000,1.78801E-002,-4.35228E-002,7.26137E+000,-6.47144E-001,4.55725E-002,7.29029E+000,1.56686E-002,4.53426E-001,0,1.11097E+002,-1.11444E+001,9.96857E-001,6.77697E+001,-4.48589E+001,9.96081E-001,1.97730E-001,-8.42906E-002,-1.75707E-003,1.97741E-001,-8.43015E-002,-3.56950E-001,1.98456E-001,1.21853E+000,-1.92333E-002,0.00000E+000,1.20502E-002,9.23526E-001,0.00000E+000,-9.84727E-003,-9.82601E-002,1.00000E+000,31
929,1337,7.10013E+000,3.62569E-002,-3.18019E-002,7.40316E+000,-6.37678E-001,3.09911E-002,7.43063E+000,1.42216E-002,4.24384E-001,0,1.13221E+002,-1.09848E+001,9.98632E-001,7.01712E+001,-4.45080E+001,9.97905E-001,1.96215E-001,-8.45012E-002,-4.87225E-004,1.96215E-001,-8.45021E-002,-9.94451E-002,1.96843E-001,1.21666E+000,-2.16517E-002,0.00000E+000,1.64435E-002,9.23169E-001,0.00000E+000,-1.20853E-002,-9.71625E-002,1.00000E+000,31
939,1337,7.89823E+000,6.31425E-002,-3.84620E-002,7.54532E+000,-6.19888E-001,8.29873E-003,7.57074E+000,1.28417E-002,4.43544E-001,0,1.15377E+002,-1.06775E+001,9.98353E-001,7.25207E+001,-4.39617E+001,9.97940E-001,1.95315E-001,-8.38502E-002,1.55007E-004,1.95315E-001,-8.38503E-002,3.18135E-002,1.95965E-001,1.21553E+000,-2.46197E-002,0.00000E+000,2.00292E-002,9.23566E-001,0.00000E+000,-1.37236E-002,-9.55808E-002,1.00000E+000,31
949,1317,8.70161E+000,-1.09431E+000,6.31076E-002,7.72559E+000,-4.94359E-001,1.16377E-001,7.74227E+000,2.50493E-002,4.54518E-001,0,1.17650E+002,-8.91138E+000,9.94871E-001,7.50010E+001,-4.19739E+001,9.92513E-001,1.98269E-001,-8.31149E-002,5.62289E-004,1.98270E-001,-8.31161E-002,1.14494E-001,1.99131E-001,1.21919E+000,-2.71382E-002,0.00000E+000,2.31856E-002,9.24008E-001,0.00000E+000,-2.03128E-002,-9.34896E-002,1.00000E+000,31
949,1327,8.69315E+000,-4.99202E-001,-1.30343E-003,7.70313E+000,-5.42959E-001,5.26582E-002,7.72242E+000,2.16543E-002,4.41997E-001,0,1.17533E+002,-9.56358E+000,9.96034E-001,7.48281E+001,-4.26356E+001,9.94440E-001,1.96485E-001,-8.31051E-002,6.33047E-004,1.96486E-001,-8.31065E-002,1.29728E-001,1.97262E-001,1.21696E+000,-2.71866E-002,0.00000E+000,2.31495E-002,9.24007E-001,0.00000E+000,-1.75234E-002,-9.34291E-002,1.00000E+000,31
949,1337,8.69817E+000,9.05183E-002,-3.65289E-002,7.68989E+000,-6.00223E-001,-1.12922E-003,7.71328E+000,1.58316E-002,4.52088E-001,0,1.17519E+002,-1.03771E+001,9.97337E-001,7.49212E+001,-4.34317E+001,9.96665E-001,1.94686E-001,-8.30937E-002,6.97758E-004,1.94688E-001,-8.30955E-002,1.43921E-001,1.95382E-001,1.21472E+000,-2.72495E-002,0.00000E+000,2.31133E-002,9.24006E-001,0.00000E+000,-1.47271E-002,-9.33504E-002,1.00000E+000,31
949,1307,8.71747E+000,-1.67986E+000,1.53669E-001,7.74914E+000,-4.40900E-001,1.77562E-001,7.76371E+000,2.01903E-002,4.95147E-001,0,1.17782E+002,-8.18293E+000,9.96779E-001,7.53419E+001,-4.12054E+001,9.95426E-001,2.00036E-001,-8.31226E-002,4.82883E-004,2.00037E-001,-8.31234E-002,9.77088E-002,2.00986E-001,1.22141E+000,-2.71117E-002,0.00000E+000,2.32215E-002,9.24008E-001,0.00000E+000,-2.30928E-002,-9.35227E-002,1.00000E+000,31
909,1317,5.49147E+000,-1.18255E+000,3.00738E-002,7.14299E+000,-5.44105E-001,1.74810E-001,7.16582E+000,2.08823E-002,4.38949E-001,0,1.08934E+002,-9.77343E+000,9.91979E-001,6.52134E+001,-4.36902E+001,9.90772E-001,2.03973E-001,-8.49236E-002,-2.22281E-003,2.03990E-001,-8.49407E-002,-4.40807E-001,2.04938E-001,1.22620E+000,-1.64380E-002,0.00000E+000,8.99096E-003,9.22983E-001,0.00000E+000,-9.75106E-003,-9.83361E-002,1.00000E+000,31
909,1327,5.50237E+000,-5.90295E-001,-2.22328E-002,7.13726E+000,-5.99465E-001,1.09142E-001,7.16323E+000,1.69656E-002,4.72238E-001,0,1.09072E+002,-1.05047E+001,9.94499E-001,6.53652E+001,-4.44031E+001,9.94949E-001,2.01642E-001,-8.49365E-002,-2.43765E-003,2.01663E-001,-8.49572E-002,-4.87312E-001,2.02494E-001,1.22334E+000,-1.65103E-002,0.00000E+000,8.57424E-003,9.22972E-001,0.00000E+000,-8.64185E-003,-9.83081E-002,1.00000E+000,31
909,1337,5.51156E+000,1.28681E-002,-4.15296E-002,7.12430E+000,-6.47803E-001,5.06658E-002,7.15387E+000,1.83262E-002,5.11932E-001,0,1.09066E+002,-1.11439E+001,9.96785E-001,6.55614E+001,-4.50175E+001,9.96504E-001,1.99299E-001,-8.49523E-002,-2.66289E-003,1.99324E-001,-8.49772E-002,-5.36689E-001,2.00044E-001,1.22046E+000,-1.66064E-002,0.00000E+000,8.15645E-003,9.22958E-001,0.00000E+000,-7.52978E-003,-9.82709E-002,1.00000E+000,31
909,1307,5.50101E+000,-1.75744E+000,1.46628E-001,7.15431E+000,-4.84191E-001,2.35759E-001,7.17455E+000,1.98990E-002,4.09791E-001,0,1.08879E+002,-8.91693E+000,9.93898E-001,6.55153E+001,-4.28411E+001,9.89451E-001,2.06273E-001,-8.49186E-002,-2.03580E-003,2.06287E-001,-8.49329E-002,-4.00544E-001,2.07356E-001,1.22904E+000,-1.64301E-002,0.00000E+000,9.40324E-003,9.22984E-001,0.00000E+000,-1.08485E-002,-9.83392E-002,1.00000E+000,31
919,1347,6.32141E+000,6.27524E-001,-5.38494E-002,7.25675E+000,-6.90047E-001,-1.78658E-002,7.28951E+000,2.40092E-002,4.90965E-001,0,1.11231E+002,-1.17104E+001,9.98167E-001,6.81620E+001,-4.53927E+001,9.97472E-001,1.95302E-001,-8.43112E-002,-2.01347E-003,1.95317E-001,-8.43257E-002,-4.12553E-001,1.95922E-001,1.21555E+000,-1.93474E-002,0.00000E+000,1.15441E-002,9.23507E-001,0.00000E+000,-8.18386E-003,-9.81963E-002,1.00000E+000,31
929,1347,7.11723E+000,6.38312E-001,-4.16806E-002,7.39547E+000,-6.87174E-001,-2.88166E-002,7.42738E+000,1.37399E-002,4.37258E-001,0,1.13300E+002,-1.16607E+001,9.98429E-001,7.05065E+001,-4.51713E+001,9.97963E-001,1.93741E-001,-8.45010E-002,-5.52398E-004,1.93742E-001,-8.45021E-002,-1.13749E-001,1.94268E-001,1.21363E+000,-2.17665E-002,0.00000E+000,1.62631E-002,9.23162E-001,0.00000E+000,-1.00010E-002,-9.70836E-002,1.00000E+000,31
939,1347,7.91682E+000,6.66216E-001,-3.60430E-002,7.53944E+000,-6.68469E-001,-3.69017E-002,7.56910E+000,1.82939E-002,4.73703E-001,0,1.15432E+002,-1.13779E+001,9.98233E-001,7.29026E+001,-4.46257E+001,9.97067E-001,1.93091E-001,-8.38432E-002,1.52000E-004,1.93091E-001,-8.38433E-002,3.14478E-002,1.93647E-001,1.21279E+000,-2.47223E-002,0.00000E+000,1.99323E-002,9.23563E-001,0.00000E+000,-1.13374E-002,-9.54914E-002,1.00000E+000,31
949,1347,8.71793E+000,6.88793E-001,-3.58251E-002,7.68312E+000,-6.55978E-001,-5.63672E-002,7.71128E+000,1.59114E-002,4.80978E-001,0,1.17598E+002,-1.11516E+001,9.97222E-001,7.53152E+001,-4.41650E+001,9.95506E-001,1.92866E-001,-8.30795E-002,7.51048E-004,1.92868E-001,-8.30815E-002,1.55942E-001,1.93483E-001,1.21247E+000,-2.73410E-002,0.00000E+000,2.30770E-002,9.24004E-001,0.00000E+000,-1.19145E-002,-9.32361E-002,1.00000E+000,31
959,1317,9.49700E+000,-1.07167E+000,5.01416E-002,7.86548E+000,-4.78795E-001,9.24124E-002,7.88058E+000,2.29204E-002,4.41760E-001,0,1.19769E+002,-8.63295E+000,9.95701E-001,7.73069E+001,-4.14999E+001,9.94297E-001,1.96967E-001,-8.22646E-002,6.00754E-004,1.96968E-001,-8.22659E-002,1.23269E-001,1.97856E-001,1.21755E+000,-2.99446E-002,0.00000E+000,2.54516E-002,9.24528E-001,0.00000E+000,-2.12117E-002,-9.09928E-002,1.00000E+000,31
959,1327,9.49638E+000,-4.77979E-001,-1.55120E-002,7.85252E+000,-5.28048E-001,3.55256E-002,7.87034E+000,3.03005E-002,4.24300E-001,0,1.19776E+002,-9.30681E+000,9.98165E-001,7.72528E+001,-4.21801E+001,9.96911E-001,1.95501E-001,-8.22475E-002,7.59346E-004,1.95504E-001,-8.22496E-002,1.56641E-001,1.96321E-001,1.21571E+000,-2.99799E-002,0.00000E+000,2.55616E-002,9.24530E-001,0.00000E+000,-1.82907E-002,-9.09369E-002,1.00000E+000,31
959,1337,9.50141E+000,1.11558E-001,-3.73285E-002,7.83692E+000,-5.88025E-001,-1.47746E-002,7.85896E+000,2.26894E-002,4.35515E-001,0,1.19713E+002,-1.01570E+001,9.96946E-001,7.73713E+001,-4.30060E+001,9.96147E-001,1.94018E-001,-8.22254E-002,9.08993E-004,1.94021E-001,-8.22284E-002,1.88532E-001,1.94771E-001,1.21385E+000,-3.00390E-002,0.00000E+000,2.56722E-002,9.24534E-001,0.00000E+000,-1.53546E-002,-9.08435E-002,1.00000E+000,31
959,1307,9.50858E+000,-1.65415E+000,1.39862E-001,7.88563E+000,-4.20630E-001,1.56292E-001,7.89839E+000,1.74243E-002,4.84163E-001,0,1.19837E+002,-7.85164E+000,9.96556E-001,7.75797E+001,-4.06837E+001,9.95349E-001,1.98419E-001,-8.22793E-002,4.37786E-004,1.98420E-001,-8.22800E-002,8.93599E-002,1.99381E-001,1.21940E+000,-2.99201E-002,0.00000E+000,2.53418E-002,9.24527E-001,0.00000E+000,-2.41289E-002,-9.10317E-002,1.00000E+000,31
959,1347,9.51484E+000,7.05666E-001,-4.58258E-002,7.82573E+000,-6.45708E-001,-6.98455E-002,7.85263E+000,1.72722E-002,4.43474E-001,0,1.19729E+002,-1.09682E+001,9.96614E-001,7.76470E+001,-4.37930E+001,9.95947E-001,1.92523E-001,-8.22008E-002,1.05370E-003,1.92527E-001,-8.22048E-002,2.19753E-001,1.93210E-001,1.21199E+000,-3.01094E-002,0.00000E+000,2.57828E-002,9.24538E-001,0.00000E+000,-1.24154E-002,-9.07320E-002,1.00000E+000,31
909,1347,5.53148E+000,6.17517E-001,-3.69288E-002,7.11702E+000,-6.95205E-001,-7.84105E-003,7.15090E+000,2.06192E-002,5.07616E-001,0,1.09139E+002,-1.17955E+001,9.98122E-001,6.59743E+001,-4.56841E+001,9.96554E-001,1.96955E-001,-8.49707E-002,-2.89687E-003,1.96984E-001,-8.50005E-002,-5.88649E-001,1.97599E-001,1.21760E+000,-1.67243E-002,0.00000E+000,7.73963E-003,9.22941E-001,0.00000E+000,-6.42029E-003,-9.82253E-002,1.00000E+000,31
899,1327,4.70913E+000,-5.89684E-001,1.16767E-002,6.98769E+000,-5.98800E-001,1.09377E-001,7.01415E+000,1.30694E-002,4.74699E-001,0,1.06855E+002,-1.04627E+001,9.96178E-001,6.31667E+001,-4.45707E+001,9.96007E-001,2.02711E-001,-8.54696E-002,-3.21492E-003,2.02747E-001,-8.55055E-002,-6.39081E-001,2.03573E-001,1.22466E+000,-1.41354E-002,0.00000E+000,5.06897E-003,9.22548E-001,0.00000E+000,-5.63914E-003,-9.87636E-002,1.00000E+000,31
899,1337,4.72662E+000,9.81838E-003,-2.55959E-002,6.98691E+000,-6.46403E-001,5.01192E-002,7.01693E+000,1.96479E-002,5.04448E-001,0,1.07040E+002,-1.11118E+001,9.98317E-001,6.34539E+001,-4.52086E+001,9.97930E-001,2.00620E-001,-8.54804E-002,-3.39904E-003,2.00660E-001,-8.55208E-002,-6.80579E-001,2.01388E-001,1.22210E+000,-1.42062E-002,0.00000E+000,4.76204E-003,9.22540E-001,0.00000E+000,-5.19306E-003,-9.87513E-002,1.00000E+000,31
899,1347,4.75783E+000,6.09853E-001,-2.32342E-002,6.99109E+000,-6.98595E-001,-1.07717E-002,7.02592E+000,1.65713E-002,4.99026E-001,0,1.07297E+002,-1.18272E+001,9.98010E-001,6.40375E+001,-4.59427E+001,9.97696E-001,1.98519E-001,-8.54952E-002,-3.59736E-003,1.98565E-001,-8.55408E-002,-7.25560E-001,1.99198E-001,1.21953E+000,-1.43106E-002,0.00000E+000,4.45431E-003,9.22527E-001,0.00000E+000,-4.74583E-003,-9.87331E-002,1.00000E+000,31
899,1317,4.70670E+000,-1.17697E+000,8.48009E-002,6.99792E+000,-5.42794E-001,1.78054E-001,7.02120E+000,1.65157E-002,4.71729E-001,0,1.06773E+002,-9.71926E+000,9.95557E-001,6.31903E+001,-4.38068E+001,9.93682E-001,2.04792E-001,-8.54613E-002,-3.04007E-003,2.04824E-001,-8.54931E-002,-6.00020E-001,2.05753E-001,1.22721E+000,-1.40863E-002,0.00000E+000,5.37514E-003,9.22554E-001,0.00000E+000,-6.08411E-003,-9.87721E-002,1.00000E+000,31
899,1307,4.70617E+000,-1.75316E+000,1.82842E-001,7.00440E+000,-4.80047E-001,2.45060E-001,7.02511E+000,1.61858E-002,4.13355E-001,0,1.06630E+002,-8.83002E+000,9.95867E-001,6.32985E+001,-4.29515E+001,9.92496E-001,2.06862E-001,-8.54554E-002,-2.87462E-003,2.06890E-001,-8.54837E-002,-5.63368E-001,2.07927E-001,1.22976E+000,-1.40591E-002,0.00000E+000,5.68029E-003,9.22557E-001,0.00000E+000,-6.52760E-003,-9.87769E-002,1.00000E+000,31
889,1327,3.91707E+000,-5.95736E-001,2.50549E-002,6.84366E+000,-6.01154E-001,1.11189E-001,6.87091E+000,1.14601E-002,4.86649E-001,0,1.04720E+002,-1.04841E+001,9.97320E-001,6.09480E+001,-4.47921E+001,9.97140E-001,2.03787E-001,-8.47702E-002,-4.01902E-003,2.03843E-001,-8.48262E-002,-7.97808E-001,2.04796E-001,1.22599E+000,-1.21875E-002,0.00000E+000,1.81786E-003,9.23277E-001,0.00000E+000,-2.39170E-003,-9.95020E-002,1.00000E+000,31
889,1337,3.92716E+000,2.61412E-003,-2.39381E-002,6.83675E+000,-6.48284E-001,4.54485E-002,6.86756E+000,1.78879E-002,5.03337E-001,0,1.04834E+002,-1.11138E+001,9.98156E-001,6.10963E+001,-4.54318E+001,9.97823E-001,2.01777E-001,-8.47697E-002,-4.04152E-003,2.01834E-001,-8.48267E-002,-8.07900E-001,2.02687E-001,1.22353E+000,-1.22508E-002,0.00000E+000,1.91424E-003,9.23279E-001,0.00000E+000,-3.17534E-003,-9.95221E-002,1.00000E+000,31
889,1347,3.95998E+000,6.00508E-001,-2.07251E-002,6.84333E+000,-7.01884E-001,-1.19384E-002,6.87924E+000,1.46747E-002,4.84486E-001,0,1.05116E+002,-1.18538E+001,9.97646E-001,6.17082E+001,-4.62091E+001,9.97469E-001,1.99754E-001,-8.47689E-002,-4.07794E-003,1.99813E-001,-8.48273E-002,-8.20970E-001,2.00570E-001,1.22106E+000,-1.23482E-002,0.00000E+000,2.01099E-003,9.23283E-001,0.00000E+000,-3.96201E-003,-9.95532E-002,1.00000E+000,31
969,1297,1.03357E+001,-2.20730E+000,2.39169E-001,8.05811E+000,-3.43989E-001,1.85445E-001,8.06758E+000,2.19593E-002,4.72665E-001,0,1.22236E+002,-6.71057E+000,9.98142E-001,8.05203E+001,-3.93589E+001,9.96672E-001,1.97986E-001,-8.17888E-002,1.65507E-004,1.97986E-001,-8.17889E-002,3.38946E-002,1.98980E-001,1.21889E+000,-3.23397E-002,0.00000E+000,2.68863E-002,9.24724E-001,0.00000E+000,-2.73350E-002,-8.83414E-002,1.00000E+000,31
969,1307,1.03007E+001,-1.64249E+000,1.09320E-001,8.02106E+000,-4.16616E-001,1.11341E-001,8.03265E+000,4.07121E-002,4.49877E-001,0,1.21964E+002,-7.69058E+000,9.97364E-001,7.98040E+001,-4.03555E+001,9.95108E-001,1.96857E-001,-8.17754E-002,3.71460E-004,1.96857E-001,-8.17759E-002,7.63840E-002,1.97794E-001,1.21743E+000,-3.23443E-002,0.00000E+000,2.70566E-002,9.24724E-001,0.00000E+000,-2.43333E-002,-8.83320E-002,1.00000E+000,31
969,1317,1.02969E+001,-1.05760E+000,4.78822E-002,8.00770E+000,-4.72593E-001,7.12857E-002,8.02195E+000,1.40415E-002,4.09319E-001,0,1.21912E+002,-8.50128E+000,9.98821E-001,7.97085E+001,-4.11909E+001,9.98063E-001,1.95717E-001,-8.17565E-002,5.70574E-004,1.95718E-001,-8.17577E-002,1.17818E-001,1.96599E-001,1.21597E+000,-3.23662E-002,0.00000E+000,2.72271E-002,9.24727E-001,0.00000E+000,-2.13294E-002,-8.82870E-002,1.00000E+000,31
889,1317,3.90774E+000,-1.18171E+000,9.72598E-002,6.84642E+000,-5.44461E-001,1.76796E-001,6.87031E+000,1.50500E-002,5.04310E-001,0,1.04535E+002,-9.73148E+000,9.97497E-001,6.08633E+001,-4.39944E+001,9.96702E-001,2.05789E-001,-8.47707E-002,-4.00392E-003,2.05845E-001,-8.48258E-002,-7.89336E-001,2.06902E-001,1.22845E+000,-1.21424E-002,0.00000E+000,1.72162E-003,9.23275E-001,0.00000E+000,-1.60920E-003,-9.94877E-002,1.00000E+000,31
969,1327,1.02899E+001,-4.63383E-001,-1.83709E-002,7.98761E+000,-5.21834E-001,1.11294E-002,8.00465E+000,1.86745E-002,4.33763E-001,0,1.21823E+002,-9.18980E+000,9.98255E-001,7.95532E+001,-4.18398E+001,9.97204E-001,1.94564E-001,-8.17351E-002,7.66686E-004,1.94567E-001,-8.17373E-002,1.58985E-001,1.95393E-001,1.21450E+000,-3.23959E-002,0.00000E+000,2.73979E-002,9.24730E-001,0.00000E+000,-1.83196E-002,-8.82261E-002,1.00000E+000,31
889,1307,3.90241E+000,-1.76014E+000,1.94554E-001,6.84739E+000,-4.84755E-001,2.40055E-001,6.86872E+000,1.80756E-002,4.62452E-001,0,1.04323E+002,-8.88673E+000,9.96779E-001,6.08961E+001,-4.31625E+001,9.94001E-001,2.07780E-001,-8.47709E-002,-3.99748E-003,2.07835E-001,-8.48255E-002,-7.82707E-001,2.09001E-001,1.23090E+000,-1.21188E-002,0.00000E+000,1.62573E-003,9.23274E-001,0.00000E+000,-8.29544E-004,-9.94801E-002,1.00000E+000,31
969,1337,1.02934E+001,1.25836E-001,-4.82772E-002,7.97254E+000,-5.79176E-001,-3.75692E-002,7.99364E+000,1.91238E-002,4.00134E-001,0,1.21766E+002,-1.00085E+001,9.97587E-001,7.96317E+001,-4.26737E+001,9.97141E-001,1.93400E-001,-8.17098E-002,9.57687E-004,1.93403E-001,-8.17131E-002,1.99450E-001,1.94176E-001,1.21304E+000,-3.24381E-002,0.00000E+000,2.75689E-002,9.24735E-001,0.00000E+000,-1.53053E-002,-8.81393E-002,1.00000E+000,31
969,1347,1.03007E+001,7.39367E-001,-5.70895E-002,7.95643E+000,-6.18341E-001,-8.63066E-002,7.98088E+000,1.62227E-002,4.26972E-001,0,1.21679E+002,-1.05314E+001,9.97351E-001,7.98120E+001,-4.31492E+001,9.96658E-001,1.92217E-001,-8.16809E-002,1.14519E-003,1.92222E-001,-8.16857E-002,2.39552E-001,1.92943E-001,1.21156E+000,-3.24913E-002,0.00000E+000,2.77411E-002,9.24742E-001,0.00000E+000,-1.22709E-002,-8.80302E-002,1.00000E+000,31
879,1327,3.12938E+000,-5.96574E-001,4.37215E-002,6.70346E+000,-5.98106E-001,1.17606E-001,6.73112E+000,1.63545E-002,4.89285E-001,0,1.02623E+002,-1.04325E+001,9.97390E-001,5.88152E+001,-4.49486E+001,9.97116E-001,2.04625E-001,-8.50251E-002,-4.50499E-003,2.04695E-001,-8.50951E-002,-8.90846E-001,2.05662E-001,1.22704E+000,-1.04598E-002,0.00000E+000,-5.85732E-004,9.22974E-001,0.00000E+000,-1.59647E-004,-9.86857E-002,1.00000E+000,31
879,1337,3.13961E+000,-4.80406E-003,-1.72898E-002,6.69736E+000,-6.50927E-001,4.22935E-002,6.72905E+000,1.59159E-002,4.85342E-001,0,1.02783E+002,-1.11237E+001,9.96445E-001,5.89390E+001,-4.56763E+001,9.96188E-001,2.02847E-001,-8.50205E-002,-4.45318E-003,2.02916E-001,-8.50894E-002,-8.86057E-001,2.03794E-001,1.22486E+000,-1.05137E-002,0.00000E+000,-3.12635E-004,9.22980E-001,0.00000E+000,-1.50163E-003,-9.87189E-002,1.00000E+000,31
879,1347,3.16616E+000,5.98508E-001,-1.82184E-002,6.69917E+000,-6.99368E-001,-1.29144E-002,6.73558E+000,1.79482E-002,4.99851E-001,0,1.02983E+002,-1.17825E+001,9.96592E-001,5.94474E+001,-4.63469E+001,9.96550E-001,2.01053E-001,-8.50140E-002,-4.41214E-003,2.01121E-001,-8.50820E-002,-8.83418E-001,2.01914E-001,1.22267E+000,-1.05952E-002,0.00000E+000,-3.78435E-005,9.22991E-001,0.00000E+000,-2.85194E-003,-9.87690E-002,1.00000E+000,31
879,1307,3.10148E+000,-1.75901E+000,2.12012E-001,6.69226E+000,-4.81495E-001,2.38041E-001,6.71378E+000,2.10803E-002,4.69662E-001,0,1.02027E+002,-8.80965E+000,9.95637E-001,5.85573E+001,-4.32810E+001,9.93099E-001,2.08155E-001,-8.50305E-002,-4.62936E-003,2.08228E-001,-8.51035E-002,-9.04393E-001,2.09382E-001,1.23139E+000,-1.04044E-002,0.00000E+000,-1.13020E-003,9.22967E-001,0.00000E+000,2.51584E-003,-9.86516E-002,1.00000E+000,31
879,1317,3.11458E+000,-1.18059E+000,1.17560E-001,6.70046E+000,-5.39096E-001,1.83906E-001,6.72463E+000,1.54503E-002,4.13371E-001,0,1.02348E+002,-9.60903E+000,9.97718E-001,5.86505E+001,-4.41694E+001,9.96642E-001,2.06398E-001,-8.50286E-002,-4.56287E-003,2.06470E-001,-8.51000E-002,-8.96786E-001,2.07529E-001,1.22922E+000,-1.04207E-002,0.00000E+000,-8.58902E-004,9.22969E-001,0.00000E+000,1.18269E-003,-9.86616E-002,1.00000E+000,31
979,1307,1.11300E+001,-1.62085E+000,1.36135E-001,8.19001E+000,-4.04680E-001,1.09595E-001,8.20073E+000,2.33674E-002,4.09575E-001,0,1.24432E+002,-7.50073E+000,9.98757E-001,8.27225E+001,-3.99934E+001,9.98603E-001,1.95490E-001,-8.12323E-002,3.16159E-004,1.95491E-001,-8.12327E-002,6.54610E-002,1.96418E-001,1.21569E+000,-3.42253E-002,0.00000E+000,2.82834E-002,9.24962E-001,0.00000E+000,-2.32922E-002,-8.54968E-002,1.00000E+000,31
979,1317,1.11042E+001,-1.03089E+000,4.55222E-002,8.15614E+000,-4.55180E-001,4.75574E-002,8.16897E+000,1.34602E-002,4.20276E-001,0,1.24151E+002,-8.19725E+000,9.98238E-001,8.22298E+001,-4.06635E+001,9.97553E-001,1.94767E-001,-8.12106E-002,5.62332E-004,1.94768E-001,-8.12118E-002,1.16745E-001,1.95662E-001,1.21474E+000,-3.42373E-002,0.00000E+000,2.85425E-002,9.24966E-001,0.00000E+000,-2.04052E-002,-8.54603E-002,1.00000E+000,31
979,1327,1.10882E+001,-4.39818E-001,-2.00583E-002,8.12792E+000,-5.06794E-001,-7.93556E-003,8.14370E+000,1.48849E-002,4.19644E-001,0,1.23926E+002,-8.92623E+000,9.96590E-001,8.19368E+001,-4.13745E+001,9.95316E-001,1.94035E-001,-8.11854E-002,8.06062E-004,1.94037E-001,-8.11878E-002,1.67805E-001,1.94896E-001,1.21379E+000,-3.42553E-002,0.00000E+000,2.88017E-002,9.24971E-001,0.00000E+000,-1.75153E-002,-8.54053E-002,1.00000E+000,31
979,1337,1.10857E+001,1.58075E-001,-5.74769E-002,8.10898E+000,-5.54628E-001,-5.37970E-002,8.12811E+000,2.03906E-002,4.08498E-001,0,1.23799E+002,-9.60891E+000,9.94603E-001,8.19074E+001,-4.20456E+001,9.93912E-001,1.93292E-001,-8.11567E-002,1.04756E-003,1.93296E-001,-8.11607E-002,2.18691E-001,1.94121E-001,1.21284E+000,-3.42795E-002,0.00000E+000,2.90616E-002,9.24977E-001,0.00000E+000,-1.46189E-002,-8.53315E-002,1.00000E+000,31
979,1347,1.10925E+001,7.68783E-001,-5.47344E-002,8.09086E+000,-5.96359E-001,-9.70813E-002,8.11339E+000,2.08861E-002,4.18327E-001,0,1.23663E+002,-1.01966E+001,9.92658E-001,8.21002E+001,-4.25970E+001,9.92139E-001,1.92536E-001,-8.11208E-002,1.28496E-003,1.92542E-001,-8.11268E-002,2.69027E-001,1.93334E-001,1.21189E+000,-3.43162E-002,0.00000E+000,2.93229E-002,9.24987E-001,0.00000E+000,-1.17069E-002,-8.52197E-002,1.00000E+000,31
979,1297,1.11320E+001,-2.18926E+000,2.21093E-001,8.19853E+000,-3.33168E-001,1.58797E-001,8.20683E+000,1.92559E-002,4.63482E-001,0,1.24367E+002,-6.48760E+000,9.98146E-001,8.28383E+001,-3.89477E+001,9.97725E-001,1.96204E-001,-8.12526E-002,6.87768E-005,1.96205E-001,-8.12526E-002,1.42026E-002,1.97167E-001,1.21664E+000,-3.42157E-002,0.00000E+000,2.80244E-002,9.24960E-001,0.00000E+000,-2.61796E-002,-8.55261E-002,1.00000E+000,31
869,1317,2.30859E+000,-1.17714E+000,1.13780E-001,6.54287E+000,-5.31633E-001,1.74653E-001,6.56675E+000,1.16362E-002,4.31138E-001,0,1.00036E+002,-9.45117E+000,9.98149E-001,5.61926E+001,-4.42046E+001,9.96847E-001,2.06593E-001,-8.54157E-002,-4.61981E-003,2.06666E-001,-8.54887E-002,-9.06161E-001,2.07691E-001,1.22948E+000,-8.44229E-003,0.00000E+000,-2.60688E-003,9.22524E-001,0.00000E+000,3.10385E-003,-9.77078E-002,1.00000E+000,31
869,1327,2.32560E+000,-5.94020E-001,4.19713E-002,6.54854E+000,-5.90096E-001,1.12022E-001,6.57603E+000,1.64463E-002,5.08147E-001,0,1.00339E+002,-1.02898E+001,9.96912E-001,5.63952E+001,-4.50029E+001,9.96237E-001,2.05197E-001,-8.54125E-002,-4.55602E-003,2.05268E-001,-8.54839E-002,-8.97959E-001,2.06221E-001,1.22776E+000,-8.47196E-003,0.00000E+000,-2.30377E-003,9.22529E-001,0.00000E+000,1.39742E-003,-9.77372E-002,1.00000E+000,31
869,1337,2.34296E+000,-7.21743E-003,-5.22538E-003,6.54910E+000,-6.48643E-001,4.76789E-002,6.58132E+000,1.72894E-002,4.98995E-001,0,1.00563E+002,-1.10829E+001,9.95728E-001,5.66589E+001,-4.58409E+001,9.95416E-001,2.03792E-001,-8.54080E-002,-4.49779E-003,2.03862E-001,-8.54780E-002,-8.90807E-001,2.04745E-001,1.22603E+000,-8.51582E-003,0.00000E+000,-1.99987E-003,9.22537E-001,0.00000E+000,-3.13490E-004,-9.77806E-002,1.00000E+000,31
869,1347,2.36701E+000,5.99295E-001,-1.62384E-002,6.55115E+000,-6.90549E-001,-5.60608E-003,6.58744E+000,2.12036E-002,4.81246E-001,0,1.00760E+002,-1.16492E+001,9.96856E-001,5.71089E+001,-4.64585E+001,9.96606E-001,2.02380E-001,-8.54024E-002,-4.44498E-003,2.02449E-001,-8.54710E-002,-8.84689E-001,2.03264E-001,1.22430E+000,-8.57316E-003,0.00000E+000,-1.69545E-003,9.22547E-001,0.00000E+000,-2.02730E-003,-9.78374E-002,1.00000E+000,31
869,1307,2.30201E+000,-1.75442E+000,2.22349E-001,6.54063E+000,-4.72859E-001,2.40496E-001,6.56211E+000,1.74431E-002,4.74267E-001,0,9.97676E+001,-8.66273E+000,9.96306E-001,5.62322E+001,-4.33324E+001,9.94529E-001,2.07979E-001,-8.54172E-002,-4.69051E-003,2.08054E-001,-8.54921E-002,-9.15674E-001,2.09152E-001,1.23120E+000,-8.43075E-003,0.00000E+000,-2.90862E-003,9.22522E-001,0.00000E+000,4.80256E-003,-9.76964E-002,1.00000E+000,31
989,1307,1.19134E+001,-1.58286E+000,1.14926E-001,8.31662E+000,-3.73659E-001,7.77772E-002,8.32538E+000,1.82162E-002,4.63063E-001,0,1.26364E+002,-6.99671E+000,9.97460E-001,8.48439E+001,-3.92349E+001,9.96837E-001,1.94360E-001,-8.10197E-002,2.42215E-004,1.94361E-001,-8.10199E-002,5.03954E-002,1.95254E-001,1.21424E+000,-3.51172E-002,0.00000E+000,2.86576E-002,9.24931E-001,0.00000E+000,-2.13887E-002,-8.27628E-002,1.00000E+000,31
989,1317,1.18842E+001,-9.90502E-001,2.90134E-002,8.28045E+000,-4.22915E-001,2.59604E-002,8.29128E+000,1.84455E-002,5.13435E-001,0,1.26012E+002,-7.68935E+000,9.97995E-001,8.43072E+001,-3.98565E+001,9.97090E-001,1.93985E-001,-8.09949E-002,5.41076E-004,1.93986E-001,-8.09960E-002,1.12740E-001,1.94864E-001,1.21373E+000,-3.51228E-002,0.00000E+000,2.90111E-002,9.24935E-001,0.00000E+000,-1.85290E-002,-8.27318E-002,1.00000E+000,31
989,1327,1.18849E+001,-4.03633E-001,-2.29059E-002,8.26687E+000,-4.81031E-001,-2.44584E-002,8.28089E+000,2.24995E-002,5.01407E-001,0,1.25992E+002,-8.51340E+000,9.96751E-001,8.42988E+001,-4.06639E+001,9.94867E-001,1.93601E-001,-8.09629E-002,8.37645E-004,1.93604E-001,-8.09655E-002,1.74797E-001,1.94466E-001,1.21321E+000,-3.51343E-002,0.00000E+000,2.93649E-002,9.24943E-001,0.00000E+000,-1.56667E-002,-8.26684E-002,1.00000E+000,31
989,1297,1.19358E+001,-2.16402E+000,2.24482E-001,8.34474E+000,-3.14645E-001,1.47669E-001,8.35197E+000,1.70123E-002,4.69296E-001,0,1.26521E+002,-6.20801E+000,9.97005E-001,8.53207E+001,-3.84620E+001,9.96188E-001,1.94726E-001,-8.10431E-002,-5.68432E-005,1.94726E-001,-8.10431E-002,-1.18101E-002,1.95636E-001,1.21476E+000,-3.51127E-002,0.00000E+000,2.83046E-002,9.24928E-001,0.00000E+000,-2.42441E-002,-8.27882E-002,1.00000E+000,31
989,1337,1.18811E+001,1.88947E-001,-5.14858E-002,8.24371E+000,-5.34071E-001,-7.38110E-002,8.26132E+000,1.82092E-002,4.19515E-001,0,1.25814E+002,-9.26621E+000,9.94128E-001,8.42639E+001,-4.14704E+001,9.93943E-001,1.93210E-001,-8.09261E-002,1.13166E-003,1.93215E-001,-8.09308E-002,2.36517E-001,1.94061E-001,1.21270E+000,-3.51497E-002,0.00000E+000,2.97180E-002,9.24953E-001,0.00000E+000,-1.28101E-002,-8.25830E-002,1.00000E+000,31
989,1347,1.18882E+001,7.97938E-001,-5.11234E-002,8.22803E+000,-5.75356E-001,-1.09486E-001,8.24884E+000,1.92883E-002,4.31304E-001,0,1.25690E+002,-9.88052E+000,9.96881E-001,8.44553E+001,-4.20406E+001,9.97211E-001,1.92808E-001,-8.08856E-002,1.42564E-003,1.92816E-001,-8.08931E-002,2.98437E-001,1.93646E-001,1.21218E+000,-3.51679E-002,0.00000E+000,3.00730E-002,9.24966E-001,0.00000E+000,-9.93859E-003,-8.24820E-002,1.00000E+000,31
859,1327,1.52633E+000,-5.89339E-001,3.78975E-002,6.39752E+000,-5.80730E-001,1.03213E-001,6.42465E+000,1.53504E-002,5.09367E-001,0,9.81201E+001,-1.01009E+001,9.95901E-001,5.40456E+001,-4.50279E+001,9.95393E-001,2.05442E-001,-8.55332E-002,-4.38830E-003,2.05509E-001,-8.55994E-002,-8.63836E-001,2.06461E-001,1.22807E+000,-6.84287E-003,0.00000E+000,-3.27752E-003,9.22318E-001,0.00000E+000,2.23881E-003,-9.66601E-002,1.00000E+000,31
859,1337,1.54902E+000,1.53773E-003,-4.05351E-003,6.40370E+000,-6.34146E-001,4.47728E-002,6.43518E+000,1.75335E-002,5.13488E-001,0,9.84074E+001,-1.08458E+001,9.95539E-001,5.44042E+001,-4.58088E+001,9.95101E-001,2.04447E-001,-8.55322E-002,-4.38306E-003,2.04513E-001,-8.55985E-002,-8.65767E-001,2.05416E-001,1.22685E+000,-6.87353E-003,0.00000E+000,-3.06388E-003,9.22323E-001,0.00000E+000,2.55045E-004,-9.67097E-002,1.00000E+000,31
859,1347,1.57327E+000,5.97272E-001,-1.24339E-002,6.40548E+000,-6.87105E-001,-8.97429E-003,6.44223E+000,2.29039E-002,4.77290E-001,0,9.86048E+001,-1.15720E+001,9.97432E-001,5.48628E+001,-4.66097E+001,9.97139E-001,2.03443E-001,-8.55309E-002,-4.38230E-003,2.03509E-001,-8.55974E-002,-8.68627E-001,2.04363E-001,1.22562E+000,-6.91518E-003,0.00000E+000,-2.84952E-003,9.22330E-001,0.00000E+000,-1.73535E-003,-9.67771E-002,1.00000E+000,31
859,1307,1.50085E+000,-1.74920E+000,2.24670E-001,6.38730E+000,-4.65209E-001,2.37010E-001,6.40860E+000,2.00822E-002,5.77715E-001,0,9.74989E+001,-8.53840E+000,9.97257E-001,5.38683E+001,-4.33083E+001,9.96556E-001,2.07409E-001,-8.55342E-002,-4.41189E-003,2.07476E-001,-8.56006E-002,-8.62645E-001,2.08530E-001,1.23051E+000,-6.81432E-003,0.00000E+000,-3.70265E-003,9.22313E-001,0.00000E+000,6.18627E-003,-9.66140E-002,1.00000E+000,31
859,1317,1.51602E+000,-1.17974E+000,1.13074E-001,6.39812E+000,-5.31203E-001,1.67840E-001,6.42233E+000,1.58083E-002,4.93895E-001,0,9.79111E+001,-9.41821E+000,9.96787E-001,5.39523E+001,-4.43158E+001,9.94935E-001,2.06430E-001,-8.55339E-002,-4.39769E-003,2.06496E-001,-8.56001E-002,-8.62755E-001,2.07499E-001,1.22930E+000,-6.82253E-003,0.00000E+000,-3.49041E-003,9.22314E-001,0.00000E+000,4.21560E-003,-9.66272E-002,1.00000E+000,31
999,1337,1.26723E+001,2.15264E-001,-5.48619E-002,8.37995E+000,-5.12189E-001,-7.64405E-002,8.39594E+000,1.45009E-002,3.78296E-001,0,1.27792E+002,-8.94722E+000,9.98749E-001,8.65431E+001,-4.09718E+001,9.97922E-001,1.92975E-001,-8.08037E-002,9.81452E-004,1.92978E-001,-8.08072E-002,2.05393E-001,1.93826E-001,1.21237E+000,-3.55040E-002,0.00000E+000,2.95145E-002,9.24842E-001,0.00000E+000,-1.04578E-002,-7.95742E-002,1.00000E+000,31
999,1347,1.26860E+001,8.25552E-001,-4.40157E-002,8.36839E+000,-5.55324E-001,-1.11413E-001,8.38753E+000,1.33360E-002,3.90989E-001,0,1.27727E+002,-9.57039E+000,9.98811E-001,8.68543E+001,-4.15422E+001,9.98358E-001,1.92901E-001,-8.07633E-002,1.26904E-003,1.92907E-001,-8.07692E-002,2.65685E-001,1.93755E-001,1.21226E+000,-3.55082E-002,0.00000E+000,2.98590E-002,9.24855E-001,0.00000E+000,-7.75616E-003,-7.94698E-002,1.00000E+000,31
999,1307,1.27062E+001,-1.55296E+000,1.04023E-001,8.45223E+000,-3.50795E-001,5.64896E-002,8.45969E+000,1.24699E-002,4.50828E-001,0,1.28393E+002,-6.60880E+000,9.98034E-001,8.71357E+001,-3.86554E+001,9.97711E-001,1.93150E-001,-8.08901E-002,1.21456E-004,1.93150E-001,-8.08901E-002,2.53938E-002,1.93997E-001,1.21270E+000,-3.54974E-002,0.00000E+000,2.84898E-002,9.24822E-001,0.00000E+000,-1.84926E-002,-7.97328E-002,1.00000E+000,31
999,1317,1.26850E+001,-9.64106E-001,1.97293E-002,8.42361E+000,-4.03182E-001,4.80427E-003,8.43326E+000,1.91749E-002,4.87873E-001,0,1.28158E+002,-7.35736E+000,9.97071E-001,8.67253E+001,-3.93384E+001,9.93076E-001,1.93099E-001,-8.08662E-002,4.08782E-004,1.93099E-001,-8.08669E-002,8.54905E-002,1.93947E-001,1.21259E+000,-3.54987E-002,0.00000E+000,2.88314E-002,9.24826E-001,0.00000E+000,-1.58141E-002,-7.97023E-002,1.00000E+000,31
999,1327,1.26818E+001,-3.83584E-001,-2.63748E-002,8.40761E+000,-4.66336E-001,-3.29784E-002,8.42059E+000,2.16390E-002,4.58971E-001,0,1.28060E+002,-8.28700E+000,9.97526E-001,8.66663E+001,-4.02637E+001,9.95191E-001,1.93040E-001,-8.08374E-002,6.95671E-004,1.93042E-001,-8.08391E-002,1.45534E-001,1.93890E-001,1.21248E+000,-3.55009E-002,0.00000E+000,2.91732E-002,9.24832E-001,0.00000E+000,-1.31340E-002,-7.96491E-002,1.00000E+000,31
999,1297,1.27320E+001,-2.14392E+000,2.14105E-001,8.48333E+000,-3.01788E-001,1.25006E-001,8.48962E+000,1.32355E-002,4.66294E-001,0,1.28602E+002,-5.97354E+000,9.96603E-001,8.76634E+001,-3.80322E+001,9.94380E-001,1.93194E-001,-8.09119E-002,-1.65992E-004,1.93194E-001,-8.09120E-002,-3.46969E-002,1.94041E-001,1.21281E+000,-3.54965E-002,0.00000E+000,2.81484E-002,9.24819E-001,0.00000E+000,-2.11690E-002,-7.97550E-002,1.00000E+000,31
849,1337,7.52513E-001,2.83049E-003,-8.86613E-004,6.25447E+000,-6.29560E-001,3.99878E-002,6.28620E+000,2.09439E-002,5.50418E-001,0,9.61987E+001,-1.07399E+001,9.97104E-001,5.21182E+001,-4.58858E+001,9.96519E-001,2.04732E-001,-8.52794E-002,-3.97185E-003,2.04786E-001,-8.53338E-002,-7.84498E-001,2.05732E-001,1.22720E+000,-5.50315E-003,0.00000E+000,-3.31723E-003,9.22421E-001,0.00000E+000,2.22850E-004,-9.52226E-002,1.00000E+000,31
849,1347,7.71515E-001,5.93225E-001,-1.65319E-002,6.25382E+000,-6.84646E-001,-8.35048E-003,6.29119E+000,1.83642E-002,4.70121E-001,0,9.63437E+001,-1.15059E+001,9.97623E-001,5.24803E+001,-4.67777E+001,9.97427E-001,2.04202E-001,-8.52789E-002,-3.97094E-003,2.04256E-001,-8.53334E-002,-7.85756E-001,2.05175E-001,1.22655E+000,-5.52247E-003,0.00000E+000,-3.13049E-003,9.22427E-001,0.00000E+000,-1.70759E-003,-9.52800E-002,1.00000E+000,31
849,1357,8.03993E-001,1.19923E+000,1.70577E-002,6.25620E+000,-7.33712E-001,-5.81250E-002,6.29935E+000,1.57450E-002,4.91303E-001,0,9.65262E+001,-1.21963E+001,9.97811E-001,5.31632E+001,-4.74876E+001,9.97840E-001,2.03663E-001,-8.52781E-002,-3.97422E-003,2.03717E-001,-8.53327E-002,-7.87873E-001,2.04609E-001,1.22589E+000,-5.55200E-003,0.00000E+000,-2.94210E-003,9.22435E-001,0.00000E+000,-3.65510E-003,-9.53677E-002,1.00000E+000,31
849,1327,7.38452E-001,-5.81433E-001,4.50961E-002,6.25564E+000,-5.69945E-001,9.68731E-002,6.28230E+000,2.05395E-002,5.20729E-001,0,9.60270E+001,-9.89337E+000,9.97440E-001,5.19026E+001,-4.50212E+001,9.97245E-001,2.05258E-001,-8.52799E-002,-3.97459E-003,2.05313E-001,-8.53342E-002,-7.83616E-001,2.06285E-001,1.22785E+000,-5.48815E-003,0.00000E+000,-3.50399E-003,9.22417E-001,0.00000E+000,2.15351E-003,-9.51781E-002,1.00000E+000,31
1009,1337,1.34740E+001,2.56739E-001,-6.46981E-002,8.52789E+000,-4.77503E-001,-7.78753E-002,8.54160E+000,2.04416E-002,4.24989E-001,0,1.29937E+002,-8.42618E+000,9.98637E-001,8.89794E+001,-4.01792E+001,9.98444E-001,1.92734E-001,-8.06436E-002,6.48161E-004,1.92736E-001,-8.06451E-002,1.35844E-001,1.93589E-001,1.21206E+000,-3.54903E-002,0.00000E+000,2.87219E-002,9.24819E-001,0.00000E+000,-8.32704E-003,-7.69336E-002,1.00000E+000,31
1009,1347,1.34785E+001,8.40323E-001,-4.82652E-002,8.50495E+000,-5.46954E-001,-1.16371E-001,8.52331E+000,1.35876E-002,3.82805E-001,0,1.29720E+002,-9.44868E+000,9.99370E-001,8.91536E+001,-4.12022E+001,9.99038E-001,1.92914E-001,-8.06130E-002,8.64594E-004,1.92917E-001,-8.06158E-002,1.81104E-001,1.93782E-001,1.21227E+000,-3.54817E-002,0.00000E+000,2.89514E-002,9.24828E-001,0.00000E+000,-6.01698E-003,-7.68364E-002,1.00000E+000,31
1009,1297,1.35216E+001,-2.12284E+000,2.05062E-001,8.61637E+000,-2.85952E-001,1.10525E-001,8.62182E+000,1.70382E-002,3.95332E-001,0,1.30567E+002,-5.69268E+000,9.95089E-001,8.99108E+001,-3.76249E+001,9.93191E-001,1.91965E-001,-8.07202E-002,-2.06204E-004,1.91965E-001,-8.07203E-002,-4.33268E-002,1.92773E-001,1.21125E+000,-3.55032E-002,0.00000E+000,2.78097E-002,9.24804E-001,0.00000E+000,-1.75106E-002,-7.70787E-002,1.00000E+000,31
1009,1307,1.35022E+001,-1.52826E+000,1.00174E-001,8.59165E+000,-3.30808E-001,4.72513E-002,8.59815E+000,1.67454E-002,4.04625E-001,0,1.30436E+002,-6.30025E+000,9.97213E-001,8.94934E+001,-3.81879E+001,9.97070E-001,1.92165E-001,-8.07043E-002,6.53943E-006,1.92165E-001,-8.07043E-002,1.37312E-003,1.92984E-001,1.21145E+000,-3.55015E-002,0.00000E+000,2.80372E-002,9.24806E-001,0.00000E+000,-1.52203E-002,-7.70597E-002,1.00000E+000,31
1009,1317,1.34868E+001,-9.38794E-001,2.87030E-002,8.56857E+000,-3.82686E-001,7.16271E-003,8.57712E+000,1.71206E-002,4.34173E-001,0,1.30243E+002,-7.06828E+000,9.97450E-001,8.91982E+001,-3.88905E+001,9.97373E-001,1.92360E-001,-8.06869E-002,2.19756E-004,1.92360E-001,-8.06870E-002,4.61132E-002,1.93190E-001,1.21166E+000,-3.54991E-002,0.00000E+000,2.82651E-002,9.24809E-001,0.00000E+000,-1.29263E-002,-7.70323E-002,1.00000E+000,31
849,1317,7.17750E-001,-1.16499E+000,1.20284E-001,6.24712E+000,-5.12533E-001,1.68096E-001,6.27036E+000,2.04735E-002,5.82115E-001,0,9.56563E+001,-9.14560E+000,9.96957E-001,5.16500E+001,-4.41645E+001,9.95804E-001,2.05779E-001,-8.52802E-002,-3.97857E-003,2.05834E-001,-8.53346E-002,-7.82996E-001,2.06833E-001,1.22850E+000,-5.47613E-003,0.00000E+000,-3.69023E-003,9.22413E-001,0.00000E+000,4.07888E-003,-9.51424E-002,1.00000E+000,31
1009,1327,1.34803E+001,-3.47255E-001,-2.97653E-002,8.54742E+000,-4.36773E-001,-5.01660E-002,8.55872E+000,1.62680E-002,4.17393E-001,0,1.30134E+002,-7.81086E+000,9.98532E-001,8.90649E+001,-3.96112E+001,9.98353E-001,1.92550E-001,-8.06648E-002,4.34251E-004,1.92550E-001,-8.06655E-002,9.10665E-002,1.93392E-001,1.21186E+000,-3.54945E-002,0.00000E+000,2.84936E-002,9.24814E-001,0.00000E+000,-1.06260E-002,-7.69805E-002,1.00000E+000,31
849,1307,6.96181E-001,-1.74608E+000,2.22488E-001,6.22989E+000,-4.57412E-001,2.28026E-001,6.25082E+000,2.21266E-002,6.07082E-001,0,9.51821E+001,-8.39949E+000,9.97111E-001,5.14458E+001,-4.33448E+001,9.96429E-001,2.06295E-001,-8.52804E-002,-3.98559E-003,2.06349E-001,-8.53348E-002,-7.82989E-001,2.07375E-001,1.22914E+000,-5.47178E-003,0.00000E+000,-3.87595E-003,9.22412E-001,0.00000E+000,5.99882E-003,-9.51294E-002,1.00000E+000,31
839,1337,-4.57961E-002,-6.70438E-003,2.30751E-002,6.10278E+000,-6.34061E-001,5.44820E-002,6.13587E+000,3.84501E-002,5.28073E-001,0,9.38877E+001,-1.08183E+001,9.97699E-001,4.98557E+001,-4.62053E+001,9.96679E-001,2.04716E-001,-8.53764E-002,-3.32445E-003,2.04754E-001,-8.54145E-002,-6.56492E-001,2.05689E-001,1.22718E+000,-4.27622E-003,0.00000E+000,-2.96357E-003,9.22182E-001,0.00000E+000,-4.87533E-004,-9.35404E-002,1.00000E+000,31
839,1347,-2.71929E-002,5.87128E-001,-1.27890E-002,6.10383E+000,-6.84460E-001,-4.57179E-003,6.14209E+000,1.57635E-002,4.62512E-001,0,9.40936E+001,-1.14896E+001,9.97786E-001,5.01674E+001,-4.69947E+001,9.97397E-001,2.04445E-001,-8.53754E-002,-3.30954E-003,2.04482E-001,-8.54132E-002,-6.54163E-001,2.05404E-001,1.22685E+000,-4.28506E-003,0.00000E+000,-2.75865E-003,9.22188E-001,0.00000E+000,-2.46898E-003,-9.35934E-002,1.00000E+000,31
839,1357,7.69202E-003,1.19910E+000,1.60092E-002,6.10974E+000,-7.26587E-001,-5.48203E-002,6.15304E+000,1.31868E-002,4.76659E-001,0,9.43300E+001,-1.20696E+001,9.98212E-001,5.08801E+001,-4.76071E+001,9.98058E-001,2.04167E-001,-8.53737E-002,-3.29693E-003,2.04204E-001,-8.54112E-002,-6.52301E-001,2.05112E-001,1.22652E+000,-4.29963E-003,0.00000E+000,-2.55194E-003,9.22197E-001,0.00000E+000,-4.46778E-003,-9.36806E-002,1.00000E+000,31
1019,1337,1.42805E+001,2.84683E-001,-6.01142E-002,8.67401E+000,-4.59827E-001,-9.14887E-002,8.68668E+000,1.90629E-002,4.86733E-001,0,1.32094E+002,-8.15434E+000,9.98024E-001,9.15187E+001,-3.96198E+001,9.97961E-001,1.92501E-001,-8.05642E-002,3.26314E-004,1.92501E-001,-8.05646E-002,6.84686E-002,1.93352E-001,1.21177E+000,-3.54053E-002,0.00000E+000,2.79248E-002,9.24789E-001,0.00000E+000,-6.44765E-003,-7.51805E-002,1.00000E+000,31
1019,1347,1.42763E+001,8.70874E-001,-5.06645E-002,8.64797E+000,-5.23826E-001,-1.11783E-001,8.66454E+000,1.63563E-002,4.32984E-001,0,1.31769E+002,-9.11830E+000,9.98661E-001,9.15433E+001,-4.05924E+001,9.98524E-001,1.92833E-001,-8.05424E-002,5.07428E-004,1.92834E-001,-8.05434E-002,1.06350E-001,1.93703E-001,1.21217E+000,-3.53920E-002,0.00000E+000,2.81070E-002,9.24795E-001,0.00000E+000,-4.46177E-003,-7.51141E-002,1.00000E+000,31
839,1327,-7.89640E-002,-5.78903E-001,4.60326E-002,6.08920E+000,-5.60020E-001,1.10430E-001,6.11590E+000,3.36784E-002,5.37472E-001,0,9.34940E+001,-9.75441E+000,9.98318E-001,4.92944E+001,-4.50855E+001,9.97622E-001,2.04985E-001,-8.53775E-002,-3.33910E-003,2.05023E-001,-8.54159E-002,-6.58773E-001,2.05971E-001,1.22751E+000,-4.26636E-003,0.00000E+000,-3.16888E-003,9.22176E-001,0.00000E+000,1.49781E-003,-9.34813E-002,1.00000E+000,31
1019,1327,1.42780E+001,-3.22792E-001,-3.92221E-002,8.68985E+000,-4.18567E-001,-5.65404E-002,8.70011E+000,1.78374E-002,4.41270E-001,0,1.32214E+002,-7.53758E+000,9.97721E-001,9.14440E+001,-3.90967E+001,9.97660E-001,1.92165E-001,-8.05840E-002,1.45866E-004,1.92166E-001,-8.05841E-002,3.06417E-002,1.92997E-001,1.21138E+000,-3.54163E-002,0.00000E+000,2.77426E-002,9.24784E-001,0.00000E+000,-8.43306E-003,-7.52361E-002,1.00000E+000,31
1019,1317,1.42862E+001,-9.20068E-001,1.93648E-002,8.70910E+000,-3.71224E-001,-1.51955E-002,8.71702E+000,1.74574E-002,4.35964E-001,0,1.32350E+002,-6.86893E+000,9.98132E-001,9.16031E+001,-3.84778E+001,9.97896E-001,1.91827E-001,-8.06000E-002,-3.26064E-005,1.91827E-001,-8.06000E-002,-6.85767E-003,1.92640E-001,1.21098E+000,-3.54230E-002,0.00000E+000,2.75609E-002,9.24781E-001,0.00000E+000,-1.04138E-002,-7.52698E-002,1.00000E+000,31
839,1317,-8.45646E-002,-1.16036E+000,1.16146E-001,6.09157E+000,-5.02135E-001,1.56286E-001,6.11422E+000,1.70567E-002,5.29320E-001,0,9.33709E+001,-8.93398E+000,9.97185E-001,4.92643E+001,-4.42162E+001,9.95066E-001,2.05248E-001,-8.53780E-002,-3.35606E-003,2.05287E-001,-8.54168E-002,-6.61516E-001,2.06248E-001,1.22784E+000,-4.26232E-003,0.00000E+000,-3.37339E-003,9.22174E-001,0.00000E+000,3.47528E-003,-9.34571E-002,1.00000E+000,31
1019,1297,1.43098E+001,-2.09563E+000,1.80008E-001,8.74904E+000,-2.63676E-001,8.61020E-002,8.75344E+000,1.65667E-002,3.93704E-001,0,1.32561E+002,-5.31806E+000,9.98324E-001,9.21146E+001,-3.70544E+001,9.97662E-001,1.91139E-001,-8.06287E-002,-3.87534E-004,1.91139E-001,-8.06293E-002,-8.17023E-002,1.91916E-001,1.21020E+000,-3.54329E-002,0.00000E+000,2.71987E-002,9.24776E-001,0.00000E+000,-1.43629E-002,-7.53196E-002,1.00000E+000,31
1019,1307,1.42904E+001,-1.50742E+000,8.24620E-002,8.72347E+000,-3.17184E-001,2.70804E-002,8.72928E+000,2.03191E-002,4.49867E-001,0,1.32405E+002,-6.06654E+000,9.98626E-001,9.17097E+001,-3.77062E+001,9.97995E-001,1.91485E-001,-8.06154E-002,-2.10246E-004,1.91485E-001,-8.06156E-002,-4.42712E-002,1.92280E-001,1.21059E+000,-3.54292E-002,0.00000E+000,2.73800E-002,9.24778E-001,0.00000E+000,-1.23856E-002,-7.53008E-002,1.00000E+000,31
839,1307,-9.33337E-002,-1.73751E+000,2.19453E-001,6.08663E+000,-4.43245E-001,2.14996E-001,6.10653E+000,1.53642E-002,5.09452E-001,0,9.30886E+001,-8.11210E+000,9.96210E-001,4.92621E+001,-4.33570E+001,9.94149E-001,2.05506E-001,-8.53783E-002,-3.37380E-003,2.05546E-001,-8.54174E-002,-6.64422E-001,2.06520E-001,1.22817E+000,-4.26036E-003,0.00000E+000,-3.57733E-003,9.22172E-001,0.00000E+000,5.44731E-003,-9.34454E-002,1.00000E+000,31
829,1337,-8.45375E-001,-3.80649E-003,9.30542E-003,5.95263E+000,-6.23292E-001,4.70364E-002,5.98536E+000,2.77473E-002,5.39837E-001,0,9.16675E+001,-1.06374E+001,9.96105E-001,4.74952E+001,-4.62341E+001,9.95121E-001,2.04139E-001,-8.53162E-002,-2.65924E-003,2.04164E-001,-8.53407E-002,-5.26319E-001,2.05077E-001,1.22647E+000,-3.38605E-003,0.00000E+000,-2.31586E-003,9.22102E-001,0.00000E+000,-1.32927E-003,-9.19714E-002,1.00000E+000,31
829,1347,-8.22511E-001,5.89351E-001,-2.64451E-003,5.95552E+000,-6.77504E-001,-6.37227E-004,5.99393E+000,1.48841E-002,4.84766E-001,0,9.18620E+001,-1.13743E+001,9.95940E-001,4.79282E+001,-4.70822E+001,9.95747E-001,2.04061E-001,-8.53205E-002,-2.72772E-003,2.04087E-001,-8.53462E-002,-5.40009E-001,2.04996E-001,1.22638E+000,-3.38880E-003,0.00000E+000,-2.26360E-003,9.22104E-001,0.00000E+000,-3.43786E-003,-9.20358E-002,1.00000E+000,31
829,1357,-7.92335E-001,1.19774E+000,1.84051E-002,5.95838E+000,-7.22091E-001,-5.16078E-002,6.00219E+000,1.49788E-002,4.99507E-001,0,9.20557E+001,-1.19882E+001,9.97490E-001,4.85522E+001,-4.77351E+001,9.97500E-001,2.03978E-001,-8.53262E-002,-2.79711E-003,2.04005E-001,-8.53533E-002,-5.53889E-001,2.04909E-001,1.22629E+000,-3.39256E-003,0.00000E+000,-2.21111E-003,9.22106E-001,0.00000E+000,-5.55590E-003,-9.21237E-002,1.00000E+000,31
1029,1337,1.50601E+001,3.01199E-001,-6.94894E-002,8.79872E+000,-4.47797E-001,-9.37575E-002,8.81060E+000,1.57581E-002,4.60172E-001,0,1.33892E+002,-7.98042E+000,9.97151E-001,9.36195E+001,-3.92545E+001,9.96874E-001,1.92429E-001,-8.02388E-002,1.29052E-004,1.92429E-001,-8.02389E-002,2.71178E-002,1.93311E-001,1.21169E+000,-3.50789E-002,0.00000E+000,2.71800E-002,9.24995E-001,0.00000E+000,-4.48515E-003,-7.35302E-002,1.00000E+000,31
1029,1347,1.50597E+001,9.06099E-001,-6.16810E-002,8.77540E+000,-4.94894E-001,-1.19510E-001,8.79016E+000,1.54008E-002,4.74921E-001,0,1.33621E+002,-8.69113E+000,9.97893E-001,9.37001E+001,-3.98973E+001,9.97288E-001,1.92877E-001,-8.02168E-002,3.13164E-004,1.92877E-001,-8.02172E-002,6.57026E-002,1.93784E-001,1.21223E+000,-3.50600E-002,0.00000E+000,2.73740E-002,9.25002E-001,0.00000E+000,-2.65083E-003,-7.34660E-002,1.00000E+000,31
1029,1327,1.50701E+001,-2.99216E-001,-3.75774E-002,8.82446E+000,-4.00330E-001,-5.93658E-002,8.83373E+000,1.71564E-002,4.34352E-001,0,1.34157E+002,-7.28658E+000,9.97303E-001,9.37597E+001,-3.86364E+001,9.96928E-001,1.91978E-001,-8.02571E-002,-5.24771E-005,1.91978E-001,-8.02571E-002,-1.10446E-002,1.92835E-001,1.21115E+000,-3.50919E-002,0.00000E+000,2.69865E-002,9.24990E-001,0.00000E+000,-6.31506E-003,-7.35743E-002,1.00000E+000,31
829,1327,-8.71787E-001,-5.82267E-001,3.57455E-002,5.94181E+000,-5.58256E-001,8.75117E-002,5.96862E+000,2.85088E-002,5.67503E-001,0,9.13665E+001,-9.69252E+000,9.97113E-001,4.70439E+001,-4.52069E+001,9.96904E-001,2.04213E-001,-8.53129E-002,-2.59136E-003,2.04236E-001,-8.53361E-002,-5.12762E-001,2.05153E-001,1.22656E+000,-3.38391E-003,0.00000E+000,-2.36793E-003,9.22101E-001,0.00000E+000,7.71964E-004,-9.19212E-002,1.00000E+000,31
829,1307,-8.71905E-001,-1.74550E+000,2.41089E-001,5.95399E+000,-4.46350E-001,2.27138E-001,5.97501E+000,1.87601E-002,4.41696E-001,0,9.10779E+001,-8.15182E+000,9.97019E-001,4.73060E+001,-4.36610E+001,9.94291E-001,2.04346E-001,-8.53102E-002,-2.45730E-003,2.04367E-001,-8.53310E-002,-4.86022E-001,2.05292E-001,1.22674E+000,-3.38220E-003,0.00000E+000,-2.47169E-003,9.22100E-001,0.00000E+000,4.95863E-003,-9.18813E-002,1.00000E+000,31
829,1317,-8.77592E-001,-1.16279E+000,1.20545E-001,5.94524E+000,-4.99283E-001,1.54779E-001,5.96818E+000,2.18846E-002,4.94022E-001,0,9.11920E+001,-8.86068E+000,9.96525E-001,4.70453E+001,-4.43855E+001,9.95767E-001,2.04282E-001,-8.53109E-002,-2.52407E-003,2.04304E-001,-8.53329E-002,-4.99335E-001,2.05225E-001,1.22665E+000,-3.38263E-003,0.00000E+000,-2.41987E-003,9.22100E-001,0.00000E+000,2.86783E-003,-9.18913E-002,1.00000E+000,31
1029,1317,1.50792E+001,-9.01801E-001,1.08614E-002,8.84499E+000,-3.59747E-001,-2.69675E-002,8.85234E+000,1.78903E-002,4.50082E-001,0,1.34347E+002,-6.68415E+000,9.98389E-001,9.39153E+001,-3.80689E+001,9.97272E-001,1.91526E-001,-8.02729E-002,-2.31875E-004,1.91526E-001,-8.02731E-002,-4.88798E-002,1.92359E-001,1.21061E+000,-3.51013E-002,0.00000E+000,2.67940E-002,9.24987E-001,0.00000E+000,-8.13595E-003,-7.36062E-002,1.00000E+000,31
1029,1307,1.50926E+001,-1.48828E+000,9.42889E-002,8.86715E+000,-3.04920E-001,2.92908E-002,8.87244E+000,1.48408E-002,5.01709E-001,0,1.34464E+002,-5.92792E+000,9.98655E-001,9.42002E+001,-3.73091E+001,9.96561E-001,1.91071E-001,-8.02873E-002,-4.10314E-004,1.91071E-001,-8.02880E-002,-8.66353E-002,1.91881E-001,1.21007E+000,-3.51086E-002,0.00000E+000,2.66018E-002,9.24984E-001,0.00000E+000,-9.95415E-003,-7.36309E-002,1.00000E+000,31
1029,1297,1.51084E+001,-2.07154E+000,1.87755E-001,8.88962E+000,-2.46449E-001,8.59778E-002,8.89345E+000,1.44299E-002,4.52618E-001,0,1.34579E+002,-5.09329E+000,9.98014E-001,9.45426E+001,-3.65704E+001,9.96969E-001,1.90611E-001,-8.03006E-002,-5.88502E-004,1.90612E-001,-8.03019E-002,-1.24463E-001,1.91398E-001,1.20954E+000,-3.51141E-002,0.00000E+000,2.64092E-002,9.24982E-001,0.00000E+000,-1.17758E-002,-7.36495E-002,1.00000E+000,31
819,1317,-1.66780E+000,-1.17357E+000,1.30227E-001,5.80059E+000,-5.05579E-001,1.54913E-001,5.82464E+000,2.12490E-002,4.75654E-001,0,8.90324E+001,-8.93795E+000,9.95703E-001,4.48859E+001,-4.46865E+001,9.94213E-001,2.02868E-001,-8.50238E-002,-1.93437E-003,2.02881E-001,-8.50368E-002,-3.84952E-001,2.03763E-001,1.22491E+000,-3.20325E-003,0.00000E+000,-1.37907E-003,9.22210E-001,0.00000E+000,2.04706E-003,-9.00499E-002,1.00000E+000,31
819,1327,-1.66392E+000,-5.92450E-001,4.87682E-002,5.79753E+000,-5.61884E-001,1.01911E-001,5.82558E+000,2.10764E-002,4.84743E-001,0,8.91661E+001,-9.73147E+000,9.96728E-001,4.48626E+001,-4.55402E+001,9.95821E-001,2.02918E-001,-8.50270E-002,-2.07155E-003,2.02933E-001,-8.50419E-002,-4.12171E-001,2.03817E-001,1.22497E+000,-3.20262E-003,0.00000E+000,-1.47321E-003,9.22209E-001,0.00000E+000,8.10357E-005,-9.00711E-002,1.00000E+000,31
819,1337,-1.64371E+000,-1.56872E-003,9.17747E-003,5.80294E+000,-6.14763E-001,5.16911E-002,5.83565E+000,1.80140E-002,5.15470E-001,0,8.94117E+001,-1.04791E+001,9.95913E-001,4.51905E+001,-4.63209E+001,9.95808E-001,2.02965E-001,-8.50336E-002,-2.20925E-003,2.02982E-001,-8.50506E-002,-4.39484E-001,2.03867E-001,1.22503E+000,-3.20127E-003,0.00000E+000,-1.56787E-003,9.22207E-001,0.00000E+000,-1.89563E-003,-9.01161E-002,1.00000E+000,31
819,1307,-1.67324E+000,-1.75310E+000,2.17162E-001,5.79904E+000,-4.51067E-001,1.98237E-001,5.81993E+000,1.98678E-002,4.85974E-001,0,8.88566E+001,-8.14095E+000,9.96810E-001,4.48983E+001,-4.38099E+001,9.95002E-001,2.02814E-001,-8.50218E-002,-1.79759E-003,2.02825E-001,-8.50330E-002,-3.57805E-001,2.03705E-001,1.22485E+000,-3.20361E-003,0.00000E+000,-1.28525E-003,9.22211E-001,0.00000E+000,4.00613E-003,-9.00379E-002,1.00000E+000,31
819,1347,-1.61442E+000,5.99469E-001,-1.56646E-003,5.81204E+000,-6.61430E-001,3.34823E-003,5.84956E+000,1.69194E-002,4.95190E-001,0,8.97001E+001,-1.11107E+001,9.97514E-001,4.57279E+001,-4.70338E+001,9.97677E-001,2.03007E-001,-8.50425E-002,-2.34729E-003,2.03026E-001,-8.50616E-002,-4.66856E-001,2.03913E-001,1.22509E+000,-3.19943E-003,0.00000E+000,-1.66282E-003,9.22204E-001,0.00000E+000,-3.87831E-003,-9.01775E-002,1.00000E+000,31
819,1357,-1.58853E+000,1.18953E+000,2.66164E-002,5.81028E+000,-7.24321E-001,-4.32923E-002,5.85541E+000,2.12689E-002,5.06669E-001,0,8.98135E+001,-1.20192E+001,9.96766E-001,4.63013E+001,-4.79893E+001,9.96548E-001,2.03046E-001,-8.50545E-002,-2.48578E-003,2.03068E-001,-8.50760E-002,-4.94309E-001,2.03955E-001,1.22515E+000,-3.19692E-003,0.00000E+000,-1.75813E-003,9.22200E-001,0.00000E+000,-5.86871E-003,-9.02614E-002,1.00000E+000,31
1039,1337,1.58566E+001,3.26259E-001,-7.32335E-002,8.93824E+000,-4.29582E-001,-9.72454E-002,8.94908E+000,1.36461E-002,4.58550E-001,0,1.35910E+002,-7.70271E+000,9.98119E-001,9.59985E+001,-3.87547E+001,9.96996E-001,1.92503E-001,-7.97792E-002,-3.35680E-004,1.92504E-001,-7.97797E-002,-7.06363E-002,1.93441E-001,1.21178E+000,-3.49458E-002,0.00000E+000,2.60865E-002,9.25372E-001,0.00000E+000,-2.50709E-003,-7.24041E-002,1.00000E+000,31
1039,1347,1.58534E+001,9.15329E-001,-6.80750E-002,8.91237E+000,-4.90430E-001,-1.23873E-001,8.92671E+000,1.36203E-002,4.12843E-001,0,1.35611E+002,-8.62479E+000,9.98839E-001,9.60266E+001,-3.96657E+001,9.98335E-001,1.93054E-001,-7.97669E-002,-2.22002E-004,1.93055E-001,-7.97671E-002,-4.66230E-002,1.94022E-001,1.21245E+000,-3.49227E-002,0.00000E+000,2.61549E-002,9.25375E-001,0.00000E+000,-8.25127E-004,-7.23460E-002,1.00000E+000,31
1039,1317,1.58701E+001,-8.68462E-001,1.02139E-002,8.98000E+000,-3.31183E-001,-2.36014E-002,8.98614E+000,1.50542E-002,4.07624E-001,0,1.36267E+002,-6.25630E+000,9.98017E-001,9.62150E+001,-3.74720E+001,9.96617E-001,1.91392E-001,-7.97988E-002,-5.56454E-004,1.91393E-001,-7.98000E-002,-1.17564E-001,1.92271E-001,1.21044E+000,-3.49747E-002,0.00000E+000,2.59497E-002,9.25370E-001,0.00000E+000,-5.86901E-003,-7.24767E-002,1.00000E+000,31
1039,1327,1.58643E+001,-2.76173E-001,-3.69303E-002,8.96205E+000,-3.82429E-001,-5.77651E-002,8.97039E+000,1.31418E-002,3.97521E-001,0,1.36126E+002,-7.02755E+000,9.98211E-001,9.61124E+001,-3.81971E+001,9.97203E-001,1.91947E-001,-7.97896E-002,-4.47169E-004,1.91948E-001,-7.97904E-002,-9.42854E-002,1.92855E-001,1.21110E+000,-3.49623E-002,0.00000E+000,2.60178E-002,9.25371E-001,0.00000E+000,-4.19421E-003,-7.24453E-002,1.00000E+000,31
1039,1307,1.58849E+001,-1.46444E+000,7.67460E-002,9.00416E+000,-2.85066E-001,1.76457E-002,9.00868E+000,1.51903E-002,4.30919E-001,0,1.36473E+002,-5.59227E+000,9.97893E-001,9.64919E+001,-3.68390E+001,9.96737E-001,1.90833E-001,-7.98071E-002,-6.64628E-004,1.90835E-001,-7.98088E-002,-1.40703E-001,1.91684E-001,1.20977E+000,-3.49843E-002,0.00000E+000,2.58816E-002,9.25369E-001,0.00000E+000,-7.54267E-003,-7.25007E-002,1.00000E+000,31
1039,1297,1.59034E+001,-2.05331E+000,1.72400E-001,9.02868E+000,-2.32705E-001,7.40518E-002,9.03199E+000,1.55504E-002,4.17138E-001,0,1.36620E+002,-4.86268E+000,9.96547E-001,9.68767E+001,-3.61759E+001,9.96548E-001,1.90272E-001,-7.98145E-002,-7.71628E-004,1.90274E-001,-7.98167E-002,-1.63690E-001,1.91095E-001,1.20910E+000,-3.49906E-002,0.00000E+000,2.58135E-002,9.25368E-001,0.00000E+000,-9.21700E-003,-7.25165E-002,1.00000E+000,31
1049,1337,1.66598E+001,3.50967E-001,-7.57680E-002,9.08337E+000,-4.09691E-001,-1.02504E-001,9.09318E+000,1.91895E-002,4.45103E-001,0,1.38014E+002,-7.42871E+000,9.99064E-001,9.84885E+001,-3.82682E+001,9.98070E-001,1.92523E-001,-7.96838E-002,-9.95213E-004,1.92526E-001,-7.96874E-002,-2.09475E-001,1.93475E-001,1.21181E+000,-3.46922E-002,0.00000E+000,2.45717E-002,9.25407E-001,0.00000E+000,-1.11790E-003,-7.09775E-002,1.00000E+000,31
1049,1347,1.66663E+001,9.44271E-001,-6.20656E-002,9.06472E+000,-4.70235E-001,-1.30119E-001,9.07784E+000,1.55312E-002,4.40567E-001,0,1.37825E+002,-8.33067E+000,9.98744E-001,9.86804E+001,-3.91092E+001,9.97484E-001,1.93184E-001,-7.96830E-002,-9.67801E-004,1.93187E-001,-7.96864E-002,-2.03213E-001,1.94171E-001,1.21261E+000,-3.46616E-002,0.00000E+000,2.44997E-002,9.25404E-001,0.00000E+000,1.43947E-004,-7.09294E-002,1.00000E+000,31
1049,1307,1.66863E+001,-1.43685E+000,8.99557E-002,9.14593E+000,-2.63078E-001,2.03040E-002,9.14973E+000,1.90559E-002,3.80282E-001,0,1.38490E+002,-5.27642E+000,9.98122E-001,9.89830E+001,-3.63654E+001,9.97352E-001,1.90541E-001,-7.96855E-002,-1.05835E-003,1.90545E-001,-7.96896E-002,-2.24396E-001,1.91393E-001,1.20941E+000,-3.47363E-002,0.00000E+000,2.47859E-002,9.25411E-001,0.00000E+000,-4.87634E-003,-7.10466E-002,1.00000E+000,31
1049,1317,1.66681E+001,-8.43533E-001,1.95820E-002,9.11799E+000,-3.12706E-001,-2.60682E-002,9.12338E+000,1.65853E-002,4.05646E-001,0,1.38249E+002,-6.00137E+000,9.97271E-001,9.86460E+001,-3.70061E+001,9.95749E-001,1.91202E-001,-7.96850E-002,-1.03837E-003,1.91206E-001,-7.96889E-002,-2.19623E-001,1.92087E-001,1.21021E+000,-3.47244E-002,0.00000E+000,2.47146E-002,9.25409E-001,0.00000E+000,-3.62567E-003,-7.10279E-002,1.00000E+000,31
1049,1327,1.66600E+001,-2.58058E-001,-3.96833E-002,9.10079E+000,-3.70416E-001,-5.87971E-002,9.10851E+000,1.07940E-002,3.80542E-001,0,1.38121E+002,-6.84761E+000,9.98380E-001,9.84854E+001,-3.78167E+001,9.96617E-001,1.91862E-001,-7.96845E-002,-1.01876E-003,1.91866E-001,-7.96883E-002,-2.14952E-001,1.92781E-001,1.21101E+000,-3.47132E-002,0.00000E+000,2.46433E-002,9.25408E-001,0.00000E+000,-2.37414E-003,-7.10103E-002,1.00000E+000,31
809,1347,-2.42158E+000,5.85253E-001,-8.66887E-003,5.65321E+000,-6.68148E-001,6.48997E-004,5.69256E+000,1.40062E-002,4.94452E-001,0,8.73283E+001,-1.11992E+001,9.98417E-001,4.32742E+001,-4.73507E+001,9.98631E-001,2.01832E-001,-8.47121E-002,-1.97677E-003,2.01846E-001,-8.47258E-002,-3.95238E-001,2.02711E-001,1.22365E+000,-3.43665E-003,0.00000E+000,-7.89027E-004,9.22355E-001,0.00000E+000,-3.99588E-003,-8.82915E-002,1.00000E+000,31
809,1357,-2.39503E+000,1.18152E+000,2.88311E-002,5.65162E+000,-7.25694E-001,-4.01864E-002,5.69817E+000,1.65570E-002,4.80811E-001,0,8.74228E+001,-1.20158E+001,9.97981E-001,4.38835E+001,-4.82452E+001,9.97263E-001,2.02026E-001,-8.47335E-002,-2.21255E-003,2.02043E-001,-8.47506E-002,-4.42042E-001,2.02914E-001,1.22390E+000,-3.42599E-003,0.00000E+000,-1.08983E-003,9.22342E-001,0.00000E+000,-5.80966E-003,-8.83696E-002,1.00000E+000,31
809,1327,-2.46033E+000,-6.06849E-001,3.69013E-002,5.64853E+000,-5.72301E-001,9.16976E-002,5.67819E+000,1.33444E-002,5.40298E-001,0,8.69718E+001,-9.85053E+000,9.98223E-001,4.25609E+001,-4.58167E+001,9.97171E-001,2.01439E-001,-8.46855E-002,-1.50657E-003,2.01447E-001,-8.46935E-002,-3.01675E-001,2.02296E-001,1.22316E+000,-3.44958E-003,0.00000E+000,-1.92833E-004,9.22370E-001,0.00000E+000,-4.00974E-004,-8.81969E-002,1.00000E+000,31
809,1337,-2.43957E+000,-1.51796E-002,1.05526E-002,5.65419E+000,-6.23018E-001,5.23681E-002,5.68865E+000,1.21563E-002,5.19843E-001,0,8.71841E+001,-1.05854E+001,9.98111E-001,4.29296E+001,-4.66411E+001,9.98347E-001,2.01637E-001,-8.46975E-002,-1.74159E-003,2.01648E-001,-8.47080E-002,-3.48476E-001,2.02505E-001,1.22340E+000,-3.44385E-003,0.00000E+000,-4.90519E-004,9.22363E-001,0.00000E+000,-2.19595E-003,-8.82389E-002,1.00000E+000,31
809,1307,-2.47141E+000,-1.75313E+000,2.25631E-001,5.64825E+000,-4.46182E-001,2.08644E-001,5.66968E+000,2.40239E-002,5.76789E-001,0,8.65657E+001,-8.10641E+000,9.92465E-001,4.26209E+001,-4.38871E+001,9.91465E-001,2.01035E-001,-8.46758E-002,-1.03567E-003,2.01039E-001,-8.46795E-002,-2.07687E-001,2.01869E-001,1.22267E+000,-3.45370E-003,0.00000E+000,4.00066E-004,9.22375E-001,0.00000E+000,3.17406E-003,-8.81668E-002,1.00000E+000,31
809,1317,-2.46278E+000,-1.17894E+000,1.19806E-001,5.65319E+000,-5.06978E-001,1.47365E-001,5.67779E+000,2.13799E-002,5.61139E-001,0,8.68527E+001,-8.93925E+000,9.97154E-001,4.26116E+001,-4.48100E+001,9.96210E-001,2.01239E-001,-8.46794E-002,-1.27115E-003,2.01244E-001,-8.46851E-002,-2.54723E-001,2.02084E-001,1.22291E+000,-3.45229E-003,0.00000E+000,1.03889E-004,9.22374E-001,0.00000E+000,1.38819E-003,-8.81771E-002,1.00000E+000,31
1049,1297,1.66952E+001,-2.03698E+000,1.69996E-001,9.16333E+000,-2.21164E-001,7.13350E-002,9.16628E+000,1.61406E-002,3.59016E-001,0,1.38556E+002,-4.67778E+000,9.96818E-001,9.91901E+001,-3.58501E+001,9.95490E-001,1.89878E-001,-7.96860E-002,-1.07782E-003,1.89882E-001,-7.96903E-002,-2.29085E-001,1.90697E-001,1.20861E+000,-3.47468E-002,0.00000E+000,2.48571E-002,9.25411E-001,0.00000E+000,-6.12604E-003,-7.10630E-002,1.00000E+000,31
799,1337,-3.23694E+000,-2.44722E-002,3.65483E-003,5.50446E+000,-6.25732E-001,4.94072E-002,5.54013E+000,1.27118E-002,5.08526E-001,0,8.49486E+001,-1.05984E+001,9.98309E-001,4.06322E+001,-4.68850E+001,9.98403E-001,1.99866E-001,-8.43250E-002,-1.21478E-003,1.99872E-001,-8.43302E-002,-2.44906E-001,2.00682E-001,1.22124E+000,-3.75442E-003,0.00000E+000,7.52177E-004,9.22551E-001,0.00000E+000,-2.53381E-003,-8.63043E-002,1.00000E+000,31
799,1347,-3.21778E+000,5.73138E-001,-5.24990E-003,5.50515E+000,-6.73567E-001,9.80533E-003,5.54621E+000,1.46926E-002,5.06369E-001,0,8.50801E+001,-1.12870E+001,9.97741E-001,4.10199E+001,-4.76507E+001,9.97699E-001,2.00128E-001,-8.43451E-002,-1.53715E-003,2.00136E-001,-8.43534E-002,-3.09585E-001,2.00957E-001,1.22156E+000,-3.74513E-003,0.00000E+000,2.65279E-004,9.22537E-001,0.00000E+000,-4.06904E-003,-8.63481E-002,1.00000E+000,31
799,1357,-3.18508E+000,1.17806E+000,2.88820E-002,5.50977E+000,-7.22136E-001,-3.53059E-002,5.55701E+000,1.54627E-002,4.93975E-001,0,8.52803E+001,-1.19592E+001,9.97109E-001,4.17200E+001,-4.84047E+001,9.96696E-001,2.00388E-001,-8.43748E-002,-1.86004E-003,2.00401E-001,-8.43869E-002,-3.74228E-001,2.01231E-001,1.22189E+000,-3.73100E-003,0.00000E+000,-2.25137E-004,9.22516E-001,0.00000E+000,-5.61535E-003,-8.64146E-002,1.00000E+000,31
799,1327,-3.24867E+000,-6.21356E-001,5.10452E-002,5.50727E+000,-5.79668E-001,1.07535E-001,5.53873E+000,2.10014E-002,5.06694E-001,0,8.48083E+001,-9.98507E+000,9.98548E-001,4.04510E+001,-4.61944E+001,9.97353E-001,1.99603E-001,-8.43088E-002,-8.92253E-004,1.99606E-001,-8.43116E-002,-1.80062E-001,2.00406E-001,1.22091E+000,-3.76175E-003,0.00000E+000,1.23824E-003,9.22562E-001,0.00000E+000,-1.00121E-003,-8.62698E-002,1.00000E+000,31
1059,1327,1.74583E+001,-2.42592E-001,-3.53057E-002,9.24081E+000,-3.61450E-001,-5.62643E-002,9.24805E+000,1.66571E-002,4.06883E-001,0,1.40119E+002,-6.74626E+000,9.98711E-001,1.00915E+002,-3.74711E+001,9.97182E-001,1.91984E-001,-7.99864E-002,-1.37063E-003,1.91991E-001,-7.99934E-002,-2.88740E-001,1.92878E-001,1.21118E+000,-3.38289E-002,0.00000E+000,2.32011E-002,9.25088E-001,0.00000E+000,-7.95478E-004,-6.98357E-002,1.00000E+000,31
1059,1337,1.74617E+001,3.70723E-001,-6.67527E-002,9.22652E+000,-3.96847E-001,-9.69560E-002,9.23556E+000,1.34737E-002,4.23227E-001,0,1.40046E+002,-7.25250E+000,9.99169E-001,1.00982E+002,-3.78885E+001,9.98523E-001,1.92683E-001,-7.99917E-002,-1.40056E-003,1.92690E-001,-7.99989E-002,-2.94283E-001,1.93613E-001,1.21203E+000,-3.38060E-002,0.00000E+000,2.30605E-002,9.25084E-001,0.00000E+000,-3.27607E-005,-6.98151E-002,1.00000E+000,31
1059,1347,1.74708E+001,9.66125E-001,-5.23990E-002,9.21008E+000,-4.54682E-001,-1.24946E-001,9.22215E+000,1.91147E-002,4.06730E-001,0,1.39891E+002,-8.12246E+000,9.98960E-001,1.01214E+002,-3.87027E+001,9.97363E-001,1.93383E-001,-7.99981E-002,-1.42657E-003,1.93391E-001,-8.00055E-002,-2.98973E-001,1.94349E-001,1.21288E+000,-3.37730E-002,0.00000E+000,2.29194E-002,9.25079E-001,0.00000E+000,7.32309E-004,-6.97855E-002,1.00000E+000,31
1059,1297,1.74864E+001,-2.01587E+000,1.55693E-001,9.29896E+000,-2.03166E-001,6.52980E-002,9.30141E+000,1.60199E-002,3.08152E-001,0,1.40516E+002,-4.39802E+000,9.97347E-001,1.01479E+002,-3.54216E+001,9.94644E-001,1.89886E-001,-7.99741E-002,-1.26945E-003,1.89892E-001,-7.99801E-002,-2.69518E-001,1.90677E-001,1.20864E+000,-3.38680E-002,0.00000E+000,2.36213E-002,9.25095E-001,0.00000E+000,-3.07520E-003,-6.98708E-002,1.00000E+000,31
1059,1307,1.74783E+001,-1.42066E+000,7.99631E-002,9.28223E+000,-2.49310E-001,1.85412E-002,9.28560E+000,1.70771E-002,3.17639E-001,0,1.40447E+002,-5.07970E+000,9.98410E-001,1.01290E+002,-3.60262E+001,9.97465E-001,1.90584E-001,-7.99780E-002,-1.30376E-003,1.90591E-001,-7.99843E-002,-2.76083E-001,1.91409E-001,1.20948E+000,-3.38568E-002,0.00000E+000,2.34817E-002,9.25093E-001,0.00000E+000,-2.31771E-003,-6.98607E-002,1.00000E+000,31
1059,1317,1.74598E+001,-8.30851E-001,7.88463E-003,9.25447E+000,-3.03275E-001,-2.71936E-002,9.25948E+000,1.83264E-002,4.03951E-001,0,1.40210E+002,-5.88905E+000,9.97985E-001,1.00946E+002,-3.66854E+001,9.95636E-001,1.91284E-001,-7.99820E-002,-1.33789E-003,1.91290E-001,-7.99886E-002,-2.82575E-001,1.92143E-001,1.21033E+000,-3.38447E-002,0.00000E+000,2.33416E-002,9.25091E-001,0.00000E+000,-1.55761E-003,-6.98499E-002,1.00000E+000,31
799,1307,-3.25649E+000,-1.76148E+000,2.37588E-001,5.50895E+000,-4.48883E-001,2.16403E-001,5.53144E+000,3.10736E-002,5.43363E-001,0,8.44585E+001,-8.14793E+000,9.94669E-001,4.05586E+001,-4.41604E+001,9.94545E-001,1.99072E-001,-8.42956E-002,-2.47381E-004,1.99072E-001,-8.42958E-002,-5.00195E-002,1.99848E-001,1.22027E+000,-3.76656E-003,0.00000E+000,2.20428E-003,9.22569E-001,0.00000E+000,2.04478E-003,-8.62471E-002,1.00000E+000,31
799,1317,-3.25551E+000,-1.19046E+000,1.21363E-001,5.50895E+000,-5.11041E-001,1.58205E-001,5.53487E+000,2.55928E-002,5.59978E-001,0,8.46611E+001,-9.01916E+000,9.96664E-001,4.04048E+001,-4.50970E+001,9.95647E-001,1.99338E-001,-8.42984E-002,-5.70110E-004,1.99339E-001,-8.42996E-002,-1.15164E-001,2.00128E-001,1.22059E+000,-3.76605E-003,0.00000E+000,1.72197E-003,9.22568E-001,0.00000E+000,5.24012E-004,-8.62495E-002,1.00000E+000,31
789,1327,-4.03708E+000,-6.26229E-001,5.35400E-002,5.36619E+000,-5.77746E-001,1.15267E-001,5.39843E+000,1.96464E-002,5.21505E-001,0,8.26683E+001,-9.96888E+000,9.98022E-001,3.83192E+001,-4.63745E+001,9.97154E-001,1.97813E-001,-8.39342E-002,-5.47661E-004,1.97814E-001,-8.39353E-002,-1.11371E-001,1.98568E-001,1.21873E+000,-4.31179E-003,0.00000E+000,2.34022E-003,9.22774E-001,0.00000E+000,-1.53801E-003,-8.46011E-002,1.00000E+000,31
789,1337,-4.02377E+000,-2.49212E-002,1.11458E-002,5.36442E+000,-6.19645E-001,5.88009E-002,5.40041E+000,1.57020E-002,4.96435E-001,0,8.28164E+001,-1.05072E+001,9.97336E-001,3.85383E+001,-4.70229E+001,9.97309E-001,1.98186E-001,-8.39555E-002,-9.43302E-004,1.98189E-001,-8.39586E-002,-1.91558E-001,1.98958E-001,1.21919E+000,-4.30107E-003,0.00000E+000,1.69228E-003,9.22759E-001,0.00000E+000,-2.80997E-003,-8.46308E-002,1.00000E+000,31
789,1347,-4.00100E+000,5.71707E-001,6.29823E-004,5.36844E+000,-6.69493E-001,1.53712E-002,5.41004E+000,1.67427E-002,5.29026E-001,0,8.30107E+001,-1.12218E+001,9.96565E-001,3.89787E+001,-4.77843E+001,9.96260E-001,1.98559E-001,-8.39811E-002,-1.33916E-003,1.98565E-001,-8.39874E-002,-2.71558E-001,1.99349E-001,1.21965E+000,-4.28774E-003,0.00000E+000,1.04234E-003,9.22740E-001,0.00000E+000,-4.08585E-003,-8.46678E-002,1.00000E+000,31
789,1357,-3.97636E+000,1.17173E+000,2.84496E-002,5.36652E+000,-7.21769E-001,-2.95184E-002,5.41492E+000,1.52226E-002,5.23885E-001,0,8.31115E+001,-1.19545E+001,9.96057E-001,3.95412E+001,-4.85994E+001,9.95878E-001,1.98931E-001,-8.40162E-002,-1.73480E-003,1.98941E-001,-8.40268E-002,-3.51273E-001,1.99739E-001,1.22011E+000,-4.26887E-003,0.00000E+000,3.89263E-004,9.22713E-001,0.00000E+000,-5.36789E-003,-8.47201E-002,1.00000E+000,31
1069,1327,1.82567E+001,-2.27165E-001,-4.13136E-002,9.38158E+000,-3.52705E-001,-5.94267E-002,9.38839E+000,1.75808E-002,4.47362E-001,0,1.42147E+002,-6.63025E+000,9.98496E-001,1.03333E+002,-3.70967E+001,9.96487E-001,1.92175E-001,-7.99975E-002,-1.69274E-003,1.92186E-001,-8.00080E-002,-3.56324E-001,1.93081E-001,1.21144E+000,-3.30857E-002,0.00000E+000,2.19599E-002,9.25036E-001,0.00000E+000,3.18076E-004,-6.87075E-002,1.00000E+000,31
1069,1337,1.82526E+001,3.81152E-001,-7.04693E-002,9.36055E+000,-3.91264E-001,-9.41673E-002,9.36920E+000,1.14753E-002,4.14077E-001,0,1.41954E+002,-7.19682E+000,9.98792E-001,1.03286E+002,-3.76205E+001,9.97718E-001,1.92823E-001,-8.00058E-002,-1.75586E-003,1.92835E-001,-8.00171E-002,-3.68721E-001,1.93762E-001,1.21222E+000,-3.30654E-002,0.00000E+000,2.17927E-002,9.25032E-001,0.00000E+000,5.87813E-004,-6.87006E-002,1.00000E+000,31
1069,1347,1.82585E+001,9.81912E-001,-6.87358E-002,9.34256E+000,-4.43658E-001,-1.27014E-001,9.35395E+000,1.15331E-002,4.18144E-001,0,1.41794E+002,-7.97018E+000,9.99071E-001,1.03445E+002,-3.83120E+001,9.98175E-001,1.93475E-001,-8.00158E-002,-1.81607E-003,1.93487E-001,-8.00279E-002,-3.80439E-001,1.94448E-001,1.21302E+000,-3.30367E-002,0.00000E+000,2.16246E-002,9.25025E-001,0.00000E+000,8.59279E-004,-6.86907E-002,1.00000E+000,31
789,1307,-4.03699E+000,-1.77227E+000,2.31890E-001,5.37597E+000,-4.53514E-001,2.17563E-001,5.39945E+000,2.05858E-002,5.17590E-001,0,8.24693E+001,-8.19420E+000,9.96657E-001,3.85294E+001,-4.44299E+001,9.93567E-001,1.97065E-001,-8.39165E-002,2.43831E-004,1.97065E-001,-8.39167E-002,4.97202E-002,1.97787E-001,1.21782E+000,-4.31871E-003,0.00000E+000,3.62697E-003,9.22784E-001,0.00000E+000,9.88000E-004,-8.45819E-002,1.00000E+000,31
789,1317,-4.03904E+000,-1.20443E+000,1.40070E-001,5.37016E+000,-5.19872E-001,1.69356E-001,5.39792E+000,2.17660E-002,5.35776E-001,0,8.25477E+001,-9.16470E+000,9.96727E-001,3.83858E+001,-4.54690E+001,9.93037E-001,1.97440E-001,-8.39241E-002,-1.51883E-004,1.97440E-001,-8.39242E-002,-3.09289E-002,1.98178E-001,1.21827E+000,-4.31602E-003,0.00000E+000,2.98416E-003,9.22780E-001,0.00000E+000,-2.73901E-004,-8.45893E-002,1.00000E+000,31
1069,1297,1.82649E+001,-1.99799E+000,1.33585E-001,9.42319E+000,-1.88601E-001,5.90122E-002,9.42526E+000,2.07902E-002,3.36557E-001,0,1.42306E+002,-4.18957E+000,9.95589E-001,1.03561E+002,-3.49887E+001,9.92049E-001,1.90227E-001,-7.99767E-002,-1.49504E-003,1.90235E-001,-7.99850E-002,-3.17005E-001,1.91036E-001,1.20907E+000,-3.31261E-002,0.00000E+000,2.24612E-002,9.25044E-001,0.00000E+000,-4.91009E-004,-6.87213E-002,1.00000E+000,31
1069,1307,1.82616E+001,-1.40568E+000,5.29067E-002,9.41236E+000,-2.36983E-001,1.22555E-002,9.41535E+000,1.45926E-002,3.19287E-001,0,1.42330E+002,-4.89621E+000,9.98139E-001,1.03439E+002,-3.56384E+001,9.96464E-001,1.90874E-001,-7.99827E-002,-1.56236E-003,1.90883E-001,-7.99917E-002,-3.30481E-001,1.91715E-001,1.20986E+000,-3.31170E-002,0.00000E+000,2.22949E-002,9.25043E-001,0.00000E+000,-2.22636E-004,-6.87182E-002,1.00000E+000,31
1069,1317,1.82608E+001,-8.08218E-001,5.51056E-003,9.39876E+000,-2.86490E-001,-2.33951E-002,9.40316E+000,1.50757E-002,4.43623E-001,0,1.42261E+002,-5.66606E+000,9.98812E-001,1.03412E+002,-3.62088E+001,9.96606E-001,1.91525E-001,-7.99901E-002,-1.62758E-003,1.91534E-001,-7.99998E-002,-3.43441E-001,1.92398E-001,1.21065E+000,-3.31015E-002,0.00000E+000,2.21274E-002,9.25039E-001,0.00000E+000,4.76724E-005,-6.87129E-002,1.00000E+000,31
779,1327,-4.81789E+000,-6.24810E-001,6.37473E-002,5.23127E+000,-5.72150E-001,1.25846E-001,5.26397E+000,2.73483E-002,5.71951E-001,0,8.06095E+001,-9.89082E+000,9.97810E-001,3.63297E+001,-4.64557E+001,9.96537E-001,1.95935E-001,-8.33150E-002,-5.03851E-004,1.95936E-001,-8.33159E-002,-1.03378E-001,1.96665E-001,1.21644E+000,-5.16900E-003,0.00000E+000,3.10421E-003,9.23238E-001,0.00000E+000,-1.93075E-003,-8.32228E-002,1.00000E+000,31
779,1337,-4.80442E+000,-3.97999E-002,1.37843E-002,5.23015E+000,-6.29022E-001,6.34689E-002,5.26822E+000,1.49812E-002,5.07051E-001,0,8.07899E+001,-1.06423E+001,9.96647E-001,3.65303E+001,-4.73607E+001,9.96761E-001,1.96507E-001,-8.33420E-002,-1.00548E-003,1.96511E-001,-8.33456E-002,-2.05858E-001,1.97263E-001,1.21714E+000,-5.15316E-003,0.00000E+000,2.23047E-003,9.23218E-001,0.00000E+000,-2.92202E-003,-8.32453E-002,1.00000E+000,31
779,1347,-4.78820E+000,5.61730E-001,3.26750E-004,5.22724E+000,-6.73025E-001,1.41594E-002,5.27040E+000,1.85458E-002,5.05464E-001,0,8.08930E+001,-1.12520E+001,9.95337E-001,3.68654E+001,-4.80600E+001,9.95004E-001,1.97079E-001,-8.33758E-002,-1.50678E-003,1.97087E-001,-8.33839E-002,-3.07817E-001,1.97863E-001,1.21784E+000,-5.13238E-003,0.00000E+000,1.35389E-003,9.23192E-001,0.00000E+000,-3.91652E-003,-8.32748E-002,1.00000E+000,31
779,1357,-4.76667E+000,1.16629E+000,2.91557E-002,5.22315E+000,-7.20331E-001,-2.59530E-002,5.27265E+000,1.48327E-002,5.24760E-001,0,8.09439E+001,-1.19244E+001,9.96083E-001,3.73855E+001,-4.87974E+001,9.96059E-001,1.97652E-001,-8.34195E-002,-2.00854E-003,1.97667E-001,-8.34338E-002,-4.09408E-001,1.98465E-001,1.21854E+000,-5.10459E-003,0.00000E+000,4.71707E-004,9.23157E-001,0.00000E+000,-4.91738E-003,-8.33142E-002,1.00000E+000,31
779,1317,-4.81192E+000,-1.19684E+000,1.43880E-001,5.24299E+000,-5.06449E-001,1.72698E-001,5.27023E+000,2.70579E-002,5.33223E-001,0,8.06298E+001,-8.95441E+000,9.98341E-001,3.65048E+001,-4.54646E+001,9.96747E-001,1.95363E-001,-8.33016E-002,8.14994E-007,1.95363E-001,-8.33016E-002,1.67570E-004,1.96067E-001,1.21574E+000,-5.17528E-003,0.00000E+000,3.97646E-003,9.23245E-001,0.00000E+000,-9.41160E-004,-8.32139E-002,1.00000E+000,31
1079,1337,1.90491E+001,3.97657E-001,-8.68890E-002,9.49905E+000,-3.81175E-001,-1.06914E-001,9.50730E+000,1.83619E-002,3.92573E-001,0,1.43982E+002,-7.01493E+000,9.97764E-001,1.05662E+002,-3.72359E+001,9.97846E-001,1.93286E-001,-8.02224E-002,-2.07074E-003,1.93302E-001,-8.02381E-002,-4.33756E-001,1.94228E-001,1.21281E+000,-3.22876E-002,0.00000E+000,2.05639E-002,9.24834E-001,0.00000E+000,1.13828E-003,-6.82874E-002,1.00000E+000,31
1079,1347,1.90608E+001,1.00005E+000,-7.10516E-002,9.48655E+000,-4.32113E-001,-1.26053E-001,9.49722E+000,1.03432E-002,4.03559E-001,0,1.43852E+002,-7.80248E+000,9.99145E-001,1.05932E+002,-3.79275E+001,9.98979E-001,1.93892E-001,-8.02380E-002,-2.17769E-003,1.93909E-001,-8.02553E-002,-4.55120E-001,1.94866E-001,1.21355E+000,-3.22607E-002,0.00000E+000,2.03355E-002,9.24826E-001,0.00000E+000,1.02339E-003,-6.82916E-002,1.00000E+000,31
1079,1297,1.90659E+001,-1.97294E+000,1.42149E-001,9.56570E+000,-1.69462E-001,6.74456E-002,9.56744E+000,1.96147E-002,4.04731E-001,0,1.44304E+002,-3.95887E+000,9.96884E-001,1.06050E+002,-3.44872E+001,9.94893E-001,1.90872E-001,-8.01779E-002,-1.62484E-003,1.90882E-001,-8.01877E-002,-3.43449E-001,1.91693E-001,1.20988E+000,-3.23435E-002,0.00000E+000,2.14718E-002,9.24851E-001,0.00000E+000,1.59479E-003,-6.82786E-002,1.00000E+000,31
1079,1307,1.90552E+001,-1.39035E+000,4.89249E-002,9.54878E+000,-2.27582E-001,1.41457E-002,9.55151E+000,1.65488E-002,3.55302E-001,0,1.44268E+002,-4.77561E+000,9.98328E-001,1.05791E+002,-3.52762E+001,9.96871E-001,1.91474E-001,-8.01866E-002,-1.73865E-003,1.91485E-001,-8.01978E-002,-3.66679E-001,1.92324E-001,1.21061E+000,-3.23366E-002,0.00000E+000,2.12459E-002,9.24849E-001,0.00000E+000,1.48119E-003,-6.82797E-002,1.00000E+000,31
1079,1327,1.90528E+001,-2.11025E-001,-5.22800E-002,9.51930E+000,-3.42743E-001,-6.88062E-002,9.52572E+000,1.96666E-002,4.30265E-001,0,1.44149E+002,-6.46401E+000,9.98249E-001,1.05712E+002,-3.67296E+001,9.97676E-001,1.92683E-001,-8.02098E-002,-1.96106E-003,1.92697E-001,-8.02239E-002,-4.11711E-001,1.93594E-001,1.21208E+000,-3.23061E-002,0.00000E+000,2.07910E-002,9.24840E-001,0.00000E+000,1.25246E-003,-6.82845E-002,1.00000E+000,31
1079,1317,1.90502E+001,-7.90593E-001,-8.67867E-003,9.53107E+000,-2.75162E-001,-3.09842E-002,9.53509E+000,1.58926E-002,4.30334E-001,0,1.44175E+002,-5.46712E+000,9.98239E-001,1.05682E+002,-3.58125E+001,9.97327E-001,1.92079E-001,-8.01979E-002,-1.85027E-003,1.92091E-001,-8.02105E-002,-3.89333E-001,1.92960E-001,1.21134E+000,-3.23222E-002,0.00000E+000,2.10183E-002,9.24845E-001,0.00000E+000,1.36677E-003,-6.82820E-002,1.00000E+000,31
779,1307,-4.82469E+000,-1.78815E+000,2.41719E-001,5.23371E+000,-4.65000E-001,2.25905E-001,5.25918E+000,1.88447E-002,5.48133E-001,0,8.03120E+001,-8.38095E+000,9.97852E-001,3.64310E+001,-4.47836E+001,9.95629E-001,1.94792E-001,-8.32914E-002,5.03173E-004,1.94793E-001,-8.32923E-002,1.03672E-001,1.95473E-001,1.21505E+000,-5.17909E-003,0.00000E+000,4.84297E-003,9.23250E-001,0.00000E+000,4.19162E-005,-8.32085E-002,1.00000E+000,31
1089,1337,1.98446E+001,4.19226E-001,-9.44979E-002,9.63606E+000,-3.66653E-001,-1.10617E-001,9.64367E+000,1.57836E-002,4.50559E-001,0,1.45948E+002,-6.81421E+000,9.97371E-001,1.08040E+002,-3.67530E+001,9.97186E-001,1.94274E-001,-8.05875E-002,-2.20021E-003,1.94292E-001,-8.06051E-002,-4.58602E-001,1.95228E-001,1.21404E+000,-3.11597E-002,0.00000E+000,1.94075E-002,9.24486E-001,0.00000E+000,1.60268E-003,-6.77264E-002,1.00000E+000,31
1089,1347,1.98539E+001,1.01943E+000,-8.41590E-002,9.62116E+000,-4.18950E-001,-1.34816E-001,9.63122E+000,1.12871E-002,4.05178E-001,0,1.45803E+002,-7.59907E+000,9.98687E-001,1.08262E+002,-3.74929E+001,9.98025E-001,1.94982E-001,-8.06081E-002,-2.34720E-003,1.95002E-001,-8.06280E-002,-4.87940E-001,1.95973E-001,1.21490E+000,-3.11281E-002,0.00000E+000,1.91142E-002,9.24476E-001,0.00000E+000,1.23990E-003,-6.77397E-002,1.00000E+000,31
769,1347,-5.57421E+000,5.51819E-001,4.06798E-003,5.08757E+000,-6.76628E-001,2.10189E-002,5.13241E+000,1.52171E-002,5.03190E-001,0,7.87711E+001,-1.13015E+001,9.95915E-001,3.47855E+001,-4.83330E+001,9.95979E-001,1.95108E-001,-8.27504E-002,-1.53304E-003,1.95116E-001,-8.27589E-002,-3.16108E-001,1.95863E-001,1.21544E+000,-5.77067E-003,0.00000E+000,1.76819E-003,9.23673E-001,0.00000E+000,-3.60301E-003,-8.20061E-002,1.00000E+000,31
769,1357,-5.54981E+000,1.15990E+000,2.85065E-002,5.08693E+000,-7.20013E-001,-2.17128E-002,5.13768E+000,1.47319E-002,5.36850E-001,0,7.88818E+001,-1.19130E+001,9.96973E-001,3.53421E+001,-4.90007E+001,9.96992E-001,1.95564E-001,-8.27918E-002,-2.01482E-003,1.95579E-001,-8.28064E-002,-4.14693E-001,1.96343E-001,1.21600E+000,-5.74912E-003,0.00000E+000,9.13628E-004,9.23640E-001,0.00000E+000,-4.43059E-003,-8.20380E-002,1.00000E+000,31
769,1327,-5.60121E+000,-6.34079E-001,7.71164E-002,5.09113E+000,-5.76441E-001,1.27331E-001,5.12524E+000,1.96408E-002,5.57032E-001,0,7.84965E+001,-9.95316E+000,9.97493E-001,3.43134E+001,-4.67415E+001,9.95905E-001,1.94198E-001,-8.26962E-002,-5.70376E-004,1.94199E-001,-8.26974E-002,-1.18023E-001,1.94910E-001,1.21432E+000,-5.79699E-003,0.00000E+000,3.46400E-003,9.23713E-001,0.00000E+000,-1.96074E-003,-8.19673E-002,1.00000E+000,31
769,1337,-5.59220E+000,-5.49942E-002,1.67702E-002,5.08810E+000,-6.38487E-001,6.72350E-002,5.12844E+000,1.34098E-002,5.05717E-001,0,7.86432E+001,-1.07765E+001,9.96960E-001,3.44191E+001,-4.77112E+001,9.96833E-001,1.94653E-001,-8.27186E-002,-1.05224E-003,1.94657E-001,-8.27226E-002,-2.17355E-001,1.95386E-001,1.21488E+000,-5.78661E-003,0.00000E+000,2.61713E-003,9.23697E-001,0.00000E+000,-2.78088E-003,-8.19826E-002,1.00000E+000,31
1089,1327,1.98453E+001,-1.82489E-001,-7.16491E-002,9.65509E+000,-3.17671E-001,-7.77439E-002,9.66063E+000,1.71751E-002,3.99584E-001,0,1.46115E+002,-6.08225E+000,9.97495E-001,1.08027E+002,-3.61592E+001,9.96525E-001,1.93565E-001,-8.05699E-002,-2.05015E-003,1.93581E-001,-8.05853E-002,-4.28461E-001,1.94483E-001,1.21318E+000,-3.11837E-002,0.00000E+000,1.97008E-002,9.24494E-001,0.00000E+000,1.96539E-003,-6.77163E-002,1.00000E+000,31
1089,1317,1.98498E+001,-7.81925E-001,-2.23005E-002,9.67258E+000,-2.71382E-001,-4.03889E-002,9.67647E+000,1.55902E-002,4.34868E-001,0,1.46234E+002,-5.41777E+000,9.98430E-001,1.08116E+002,-3.55462E+001,9.97871E-001,1.92859E-001,-8.05551E-002,-1.89809E-003,1.92873E-001,-8.05683E-002,-3.97732E-001,1.93741E-001,1.21232E+000,-3.12007E-002,0.00000E+000,1.99925E-002,9.24500E-001,0.00000E+000,2.32616E-003,-6.77092E-002,1.00000E+000,31
1089,1297,1.98663E+001,-1.95044E+000,1.43686E-001,9.70721E+000,-1.53560E-001,6.96693E-002,9.70868E+000,1.41547E-002,4.47802E-001,0,1.46308E+002,-3.74036E+000,9.98449E-001,1.08521E+002,-3.40231E+001,9.98033E-001,1.91449E-001,-8.05292E-002,-1.59061E-003,1.91458E-001,-8.05385E-002,-3.35067E-001,1.92260E-001,1.21062E+000,-3.12246E-002,0.00000E+000,2.05746E-002,9.24508E-001,0.00000E+000,3.04606E-003,-6.76991E-002,1.00000E+000,31
1089,1307,1.98555E+001,-1.37086E+000,4.50856E-002,9.68997E+000,-2.15238E-001,9.65537E-003,9.69236E+000,1.38311E-002,4.31014E-001,0,1.46296E+002,-4.61234E+000,9.98813E-001,1.08254E+002,-3.48294E+001,9.98430E-001,1.92153E-001,-8.05409E-002,-1.74543E-003,1.92164E-001,-8.05520E-002,-3.66713E-001,1.92999E-001,1.21147E+000,-3.12160E-002,0.00000E+000,2.02841E-002,9.24505E-001,0.00000E+000,2.68677E-003,-6.77027E-002,1.00000E+000,31
769,1317,-5.60750E+000,-1.20683E+000,1.50663E-001,5.09286E+000,-5.13374E-001,1.80075E-001,5.12183E+000,2.33493E-002,5.27231E-001,0,7.83490E+001,-9.02010E+000,9.98419E-001,3.42840E+001,-4.57427E+001,9.97657E-001,1.93745E-001,-8.26795E-002,-9.00787E-005,1.93745E-001,-8.26795E-002,-1.86710E-002,1.94437E-001,1.21377E+000,-5.80391E-003,0.00000E+000,4.30568E-003,9.23723E-001,0.00000E+000,-1.14564E-003,-8.19571E-002,1.00000E+000,31
1099,1327,2.06364E+001,-1.64797E-001,-7.84685E-002,9.78894E+000,-3.05278E-001,-7.44809E-002,9.79398E+000,1.89631E-002,4.25138E-001,0,1.48005E+002,-5.92252E+000,9.95031E-001,1.10345E+002,-3.57568E+001,9.92866E-001,1.94562E-001,-8.08695E-002,-2.21620E-003,1.94580E-001,-8.08873E-002,-4.60978E-001,1.95500E-001,1.21442E+000,-3.03153E-002,0.00000E+000,1.86825E-002,9.24249E-001,0.00000E+000,2.28341E-003,-6.78681E-002,1.00000E+000,31
1099,1337,2.06448E+001,4.42034E-001,-9.15281E-002,9.77722E+000,-3.49584E-001,-1.04503E-001,9.78403E+000,1.82289E-002,4.36574E-001,0,1.47933E+002,-6.58339E+000,9.95843E-001,1.10514E+002,-3.63096E+001,9.95463E-001,1.95426E-001,-8.08881E-002,-2.36512E-003,1.95446E-001,-8.09084E-002,-4.90377E-001,1.96408E-001,1.21546E+000,-3.02832E-002,0.00000E+000,1.83878E-002,9.24240E-001,0.00000E+000,1.83081E-003,-6.78820E-002,1.00000E+000,31
1099,1347,2.06562E+001,1.04722E+000,-8.03293E-002,9.76224E+000,-3.98736E-001,-1.36210E-001,9.77132E+000,1.45765E-002,4.31505E-001,0,1.47812E+002,-7.31833E+000,9.97345E-001,1.10770E+002,-3.69525E+001,9.96770E-001,1.96291E-001,-8.09099E-002,-2.51037E-003,1.96313E-001,-8.09327E-002,-5.18823E-001,1.97318E-001,1.21652E+000,-3.02412E-002,0.00000E+000,1.80924E-002,9.24228E-001,0.00000E+000,1.37717E-003,-6.79001E-002,1.00000E+000,31
759,1347,-6.35243E+000,5.48788E-001,3.90394E-003,4.95538E+000,-6.73624E-001,2.45826E-002,5.00101E+000,1.35212E-002,5.12232E-001,0,7.67699E+001,-1.12422E+001,9.96110E-001,3.28224E+001,-4.84849E+001,9.95850E-001,1.93167E-001,-8.22187E-002,-1.46932E-003,1.93175E-001,-8.22266E-002,-3.05689E-001,1.93886E-001,1.21308E+000,-6.20417E-003,0.00000E+000,2.19032E-003,9.24096E-001,0.00000E+000,-3.16998E-003,-8.11100E-002,1.00000E+000,31
759,1357,-6.33330E+000,1.15043E+000,2.44244E-002,4.94998E+000,-7.22869E-001,-2.05165E-002,5.00253E+000,1.50226E-002,5.43041E-001,0,7.68161E+001,-1.19390E+001,9.96457E-001,3.32892E+001,-4.92471E+001,9.95957E-001,1.93385E-001,-8.22479E-002,-1.81381E-003,1.93397E-001,-8.22598E-002,-3.77015E-001,1.94114E-001,1.21334E+000,-6.19410E-003,0.00000E+000,1.59280E-003,9.24073E-001,0.00000E+000,-3.89264E-003,-8.11373E-002,1.00000E+000,31
1099,1297,2.06587E+001,-1.94008E+000,1.21428E-001,9.84218E+000,-1.48304E-001,5.54139E-002,9.84345E+000,1.35499E-002,4.79206E-001,0,1.48282E+002,-3.65169E+000,9.97686E-001,1.10834E+002,-3.37038E+001,9.96117E-001,1.91982E-001,-8.08290E-002,-1.75375E-003,1.91993E-001,-8.08402E-002,-3.68303E-001,1.92789E-001,1.21129E+000,-3.03649E-002,0.00000E+000,1.95607E-002,9.24263E-001,0.00000E+000,3.63201E-003,-6.78468E-002,1.00000E+000,31
1099,1307,2.06536E+001,-1.35110E+000,3.63034E-002,9.83046E+000,-2.01203E-001,8.98498E-003,9.83252E+000,1.58412E-002,4.54335E-001,0,1.48298E+002,-4.40840E+000,9.98193E-001,1.10677E+002,-3.43944E+001,9.97294E-001,1.92841E-001,-8.08406E-002,-1.91001E-003,1.92855E-001,-8.08539E-002,-3.99838E-001,1.93691E-001,1.21233E+000,-3.03542E-002,0.00000E+000,1.92685E-002,9.24260E-001,0.00000E+000,3.18331E-003,-6.78513E-002,1.00000E+000,31
1099,1317,2.06430E+001,-7.60408E-001,-3.60864E-002,9.80946E+000,-2.54598E-001,-4.08171E-002,9.81285E+000,1.98222E-002,4.57711E-001,0,1.48182E+002,-5.17917E+000,9.96908E-001,1.10457E+002,-3.50722E+001,9.95518E-001,1.93701E-001,-8.08542E-002,-2.06403E-003,1.93717E-001,-8.08697E-002,-4.30700E-001,1.94595E-001,1.21337E+000,-3.03374E-002,0.00000E+000,1.89758E-002,9.24255E-001,0.00000E+000,2.73381E-003,-6.78586E-002,1.00000E+000,31
759,1327,-6.38902E+000,-6.46708E-001,7.33577E-002,4.94827E+000,-5.83133E-001,1.23049E-001,4.98403E+000,1.66152E-002,5.23388E-001,0,7.63595E+001,-1.00203E+001,9.97205E-001,3.21909E+001,-4.70524E+001,9.97540E-001,1.92734E-001,-8.21809E-002,-7.81945E-004,1.92736E-001,-8.21832E-002,-1.62966E-001,1.93430E-001,1.21255E+000,-6.21629E-003,0.00000E+000,3.37710E-003,9.24123E-001,0.00000E+000,-1.73464E-003,-8.10773E-002,1.00000E+000,31
759,1337,-6.37111E+000,-4.82776E-002,2.58454E-002,4.95397E+000,-6.26096E-001,7.42898E-002,4.99393E+000,1.34301E-002,5.23287E-001,0,7.65980E+001,-1.05940E+001,9.96310E-001,3.24690E+001,-4.77269E+001,9.96401E-001,1.92951E-001,-8.21972E-002,-1.12566E-003,1.92955E-001,-8.22018E-002,-2.34399E-001,1.93658E-001,1.21281E+000,-6.21127E-003,0.00000E+000,2.78437E-003,9.24111E-001,0.00000E+000,-2.45151E-003,-8.10909E-002,1.00000E+000,31
759,1317,-6.39220E+000,-1.22558E+000,1.49926E-001,4.95212E+000,-5.26566E-001,1.74010E-001,4.98308E+000,2.08294E-002,5.49396E-001,0,7.62525E+001,-9.22167E+000,9.97786E-001,3.22155E+001,-4.61242E+001,9.97490E-001,1.92517E-001,-8.21701E-002,-4.39604E-004,1.92518E-001,-8.21708E-002,-9.16946E-002,1.93204E-001,1.21228E+000,-6.21919E-003,0.00000E+000,3.96599E-003,9.24129E-001,0.00000E+000,-1.02242E-003,-8.10695E-002,1.00000E+000,31
749,1317,-7.16453E+000,-1.22777E+000,1.68864E-001,4.82213E+000,-5.25493E-001,1.81360E-001,4.85407E+000,1.61874E-002,5.61886E-001,0,7.42718E+001,-9.20514E+000,9.97788E-001,3.03952E+001,-4.62959E+001,9.96432E-001,1.91279E-001,-8.17258E-002,-6.43553E-004,1.91281E-001,-8.17273E-002,-1.35062E-001,1.91954E-001,1.21078E+000,-6.11757E-003,0.00000E+000,3.51374E-003,9.24489E-001,0.00000E+000,-9.96587E-004,-8.03520E-002,1.00000E+000,31
749,1327,-7.16161E+000,-6.47232E-001,7.36501E-002,4.81963E+000,-5.79630E-001,1.19869E-001,4.85584E+000,1.32129E-002,5.15474E-001,0,7.44313E+001,-9.92308E+000,9.96699E-001,3.03198E+001,-4.71708E+001,9.96774E-001,1.91294E-001,-8.17321E-002,-8.87040E-004,1.91297E-001,-8.17350E-002,-1.86146E-001,1.91971E-001,1.21080E+000,-6.11741E-003,0.00000E+000,3.09567E-003,9.24485E-001,0.00000E+000,-1.49104E-003,-8.03562E-002,1.00000E+000,31
749,1337,-7.15203E+000,-5.15839E-002,2.74083E-002,4.81733E+000,-6.24339E-001,7.34301E-002,4.85817E+000,1.30865E-002,5.54975E-001,0,7.45390E+001,-1.05579E+001,9.96631E-001,3.04728E+001,-4.78743E+001,9.96889E-001,1.91309E-001,-8.17433E-002,-1.13176E-003,1.91314E-001,-8.17480E-002,-2.37476E-001,1.91987E-001,1.21082E+000,-6.11706E-003,0.00000E+000,2.67537E-003,9.24477E-001,0.00000E+000,-1.98814E-003,-8.03654E-002,1.00000E+000,31
749,1347,-7.13724E+000,5.42596E-001,2.20641E-003,4.81572E+000,-6.73547E-001,2.41465E-002,4.86266E+000,1.43176E-002,5.13767E-001,0,7.46633E+001,-1.12242E+001,9.97009E-001,3.07590E+001,-4.86870E+001,9.97011E-001,1.91324E-001,-8.17579E-002,-1.37697E-003,1.91331E-001,-8.17648E-002,-2.88895E-001,1.92003E-001,1.21084E+000,-6.11657E-003,0.00000E+000,2.25412E-003,9.24467E-001,0.00000E+000,-2.48635E-003,-8.03780E-002,1.00000E+000,31
1109,1297,2.14562E+001,-1.92365E+000,1.13769E-001,9.98342E+000,-1.34808E-001,6.26306E-002,9.98452E+000,1.42894E-002,4.78362E-001,0,1.50261E+002,-3.48582E+000,9.96716E-001,1.13254E+002,-3.33370E+001,9.94213E-001,1.92719E-001,-8.14075E-002,-1.82997E-003,1.92731E-001,-8.14197E-002,-3.82463E-001,1.93502E-001,1.21222E+000,-2.88874E-002,0.00000E+000,1.82293E-002,9.23766E-001,0.00000E+000,4.25368E-003,-6.80287E-002,1.00000E+000,31
1109,1307,2.14475E+001,-1.33344E+000,2.58106E-002,9.96821E+000,-1.86391E-001,1.35707E-002,9.96996E+000,1.61536E-002,4.11185E-001,0,1.50236E+002,-4.20020E+000,9.97335E-001,1.13040E+002,-3.40222E+001,9.96373E-001,1.93648E-001,-8.14160E-002,-1.94551E-003,1.93662E-001,-8.14298E-002,-4.05222E-001,1.94477E-001,1.21335E+000,-2.88759E-002,0.00000E+000,1.80251E-002,9.23764E-001,0.00000E+000,3.59791E-003,-6.80354E-002,1.00000E+000,31
1109,1317,2.14387E+001,-7.41339E-001,-4.27276E-002,9.94902E+000,-2.38709E-001,-3.16472E-002,9.95194E+000,1.85272E-002,4.14924E-001,0,1.50130E+002,-4.96198E+000,9.96007E-001,1.12852E+002,-3.46842E+001,9.94947E-001,1.94578E-001,-8.14261E-002,-2.05872E-003,1.94593E-001,-8.14414E-002,-4.27338E-001,1.95453E-001,1.21447E+000,-2.88579E-002,0.00000E+000,1.78203E-002,9.23761E-001,0.00000E+000,2.94046E-003,-6.80459E-002,1.00000E+000,31
749,1357,-7.11328E+000,1.14290E+000,2.56335E-002,4.81565E+000,-7.23328E-001,-1.65408E-002,4.86970E+000,1.74831E-002,5.35975E-001,0,7.47780E+001,-1.19408E+001,9.96929E-001,3.13091E+001,-4.94816E+001,9.96618E-001,1.91338E-001,-8.17781E-002,-1.62365E-003,1.91347E-001,-8.17878E-002,-3.40602E-001,1.92018E-001,1.21086E+000,-6.11586E-003,0.00000E+000,1.83023E-003,9.24451E-001,0.00000E+000,-2.98769E-003,-8.03965E-002,1.00000E+000,31
1109,1327,2.14337E+001,-1.47774E-001,-8.60695E-002,9.92877E+000,-2.92538E-001,-7.14239E-002,9.93334E+000,1.68221E-002,4.05841E-001,0,1.49981E+002,-5.75059E+000,9.94640E-001,1.12763E+002,-3.53848E+001,9.93358E-001,1.95509E-001,-8.14380E-002,-2.16892E-003,1.95526E-001,-8.14550E-002,-4.48677E-001,1.96431E-001,1.21560E+000,-2.88316E-002,0.00000E+000,1.76150E-002,9.23756E-001,0.00000E+000,2.28124E-003,-6.80612E-002,1.00000E+000,31
1109,1337,2.14365E+001,4.59296E-001,-1.04470E-001,9.91097E+000,-3.37224E-001,-1.08045E-001,9.91729E+000,1.73813E-002,4.56612E-001,0,1.49845E+002,-6.41875E+000,9.96930E-001,1.12835E+002,-3.59014E+001,9.96668E-001,1.96443E-001,-8.14521E-002,-2.27599E-003,1.96461E-001,-8.14707E-002,-4.69216E-001,1.97412E-001,1.21674E+000,-2.87962E-002,0.00000E+000,1.74088E-002,9.23750E-001,0.00000E+000,1.61895E-003,-6.80819E-002,1.00000E+000,31
1109,1347,2.14551E+001,1.06475E+000,-7.29657E-002,9.89959E+000,-3.88642E-001,-1.33358E-001,9.90812E+000,1.66083E-002,4.64532E-001,0,1.49750E+002,-7.20601E+000,9.97395E-001,1.13232E+002,-3.65762E+001,9.96295E-001,1.97379E-001,-8.14699E-002,-2.37707E-003,1.97399E-001,-8.14902E-002,-4.88375E-001,1.98397E-001,1.21788E+000,-2.87447E-002,0.00000E+000,1.72016E-002,9.23740E-001,0.00000E+000,9.53895E-004,-6.81120E-002,1.00000E+000,31
739,1337,-7.92974E+000,-6.57793E-002,2.66795E-002,4.68365E+000,-6.32774E-001,7.10295E-002,4.72674E+000,1.49812E-002,5.59951E-001,0,7.25305E+001,-1.06737E+001,9.96595E-001,2.85234E+001,-4.81974E+001,9.96278E-001,1.89584E-001,-8.10451E-002,-1.26341E-003,1.89589E-001,-8.10510E-002,-2.67474E-001,1.90252E-001,1.20873E+000,-6.10495E-003,0.00000E+000,2.41459E-003,9.25118E-001,0.00000E+000,-1.77132E-003,-8.02779E-002,1.00000E+000,31
739,1347,-7.92087E+000,5.32025E-001,2.32072E-003,4.67657E+000,-6.78035E-001,2.41714E-002,4.72553E+000,1.14343E-002,5.20320E-001,0,7.25610E+001,-1.12815E+001,9.98242E-001,2.87226E+001,-4.89581E+001,9.98204E-001,1.89344E-001,-8.10599E-002,-1.52442E-003,1.89352E-001,-8.10685E-002,-3.22995E-001,1.90003E-001,1.20845E+000,-6.11205E-003,0.00000E+000,1.97277E-003,9.25107E-001,0.00000E+000,-2.29820E-003,-8.02909E-002,1.00000E+000,31
739,1357,-7.89652E+000,1.13632E+000,2.47075E-002,4.67748E+000,-7.23181E-001,-1.55968E-002,4.73308E+000,1.26052E-002,5.22923E-001,0,7.26864E+001,-1.19199E+001,9.97516E-001,2.92793E+001,-4.97006E+001,9.97782E-001,1.89102E-001,-8.10807E-002,-1.78829E-003,1.89114E-001,-8.10925E-002,-3.79208E-001,1.89752E-001,1.20816E+000,-6.12248E-003,0.00000E+000,1.52841E-003,9.25091E-001,0.00000E+000,-2.82811E-003,-8.03099E-002,1.00000E+000,31
739,1327,-7.94119E+000,-6.54913E-001,7.51992E-002,4.68394E+000,-5.81527E-001,1.19563E-001,4.72142E+000,1.37305E-002,4.99295E-001,0,7.23844E+001,-9.93523E+000,9.98304E-001,2.83486E+001,-4.74074E+001,9.98119E-001,1.89823E-001,-8.10335E-002,-1.00366E-003,1.89826E-001,-8.10373E-002,-2.12306E-001,1.90501E-001,1.20902E+000,-6.09972E-003,0.00000E+000,2.85562E-003,9.25126E-001,0.00000E+000,-1.24539E-003,-8.02683E-002,1.00000E+000,31
1119,1297,2.22494E+001,-1.90804E+000,1.04592E-001,1.01201E+001,-1.22315E-001,6.86111E-002,1.01211E+001,1.52556E-002,4.30243E-001,0,1.52173E+002,-3.30565E+000,9.98082E-001,1.15612E+002,-3.30039E+001,9.97202E-001,1.93756E-001,-8.13606E-002,-2.05736E-003,1.93772E-001,-8.13760E-002,-4.28432E-001,1.94598E-001,1.21351E+000,-2.76170E-002,0.00000E+000,1.68194E-002,9.23876E-001,0.00000E+000,4.21179E-003,-6.86335E-002,1.00000E+000,31
1119,1307,2.22425E+001,-1.31910E+000,2.23183E-002,1.01051E+001,-1.76295E-001,1.95905E-002,1.01067E+001,1.38761E-002,3.99534E-001,0,1.52151E+002,-4.07407E+000,9.97992E-001,1.15432E+002,-3.37009E+001,9.97766E-001,1.94607E-001,-8.13652E-002,-2.11143E-003,1.94624E-001,-8.13814E-002,-4.38328E-001,1.95491E-001,1.21454E+000,-2.76042E-002,0.00000E+000,1.67412E-002,9.23875E-001,0.00000E+000,3.40838E-003,-6.86435E-002,1.00000E+000,31
1119,1317,2.22410E+001,-7.25042E-001,-4.08731E-002,1.00924E+001,-2.26903E-001,-2.34176E-002,1.00950E+001,1.52442E-002,3.94821E-001,0,1.52134E+002,-4.81831E+000,9.96875E-001,1.15368E+002,-3.43457E+001,9.96913E-001,1.95458E-001,-8.13705E-002,-2.16359E-003,1.95475E-001,-8.13874E-002,-4.47765E-001,1.96385E-001,1.21557E+000,-2.75865E-002,0.00000E+000,1.66629E-002,9.23874E-001,0.00000E+000,2.60377E-003,-6.86574E-002,1.00000E+000,31
1119,1327,2.22373E+001,-1.29692E-001,-8.56224E-002,1.00726E+001,-2.79386E-001,-6.76695E-002,1.00767E+001,1.42000E-002,3.77684E-001,0,1.52008E+002,-5.57691E+000,9.96637E-001,1.15296E+002,-3.50178E+001,9.96607E-001,1.96310E-001,-8.13767E-002,-2.21290E-003,1.96328E-001,-8.13944E-002,-4.56553E-001,1.97281E-001,1.21660E+000,-2.75611E-002,0.00000E+000,1.65843E-002,9.23872E-001,0.00000E+000,1.79670E-003,-6.86772E-002,1.00000E+000,31
1119,1337,2.22399E+001,4.70128E-001,-1.03430E-001,1.00538E+001,-3.32252E-001,-1.06267E-001,1.00598E+001,1.26510E-002,4.54582E-001,0,1.51868E+002,-6.37475E+000,9.98178E-001,1.15364E+002,-3.56336E+001,9.97659E-001,1.97166E-001,-8.13841E-002,-2.25924E-003,1.97184E-001,-8.14024E-002,-4.64671E-001,1.98180E-001,1.21764E+000,-2.75276E-002,0.00000E+000,1.65053E-002,9.23869E-001,0.00000E+000,9.85207E-004,-6.87034E-002,1.00000E+000,31
1119,1347,2.22542E+001,1.07442E+000,-7.80817E-002,1.00386E+001,-3.84165E-001,-1.34825E-001,1.00468E+001,1.83251E-002,4.31538E-001,0,1.51730E+002,-7.15439E+000,9.98026E-001,1.15681E+002,-3.63272E+001,9.97196E-001,1.98021E-001,-8.13931E-002,-2.30067E-003,1.98040E-001,-8.14121E-002,-4.71725E-001,1.99081E-001,1.21869E+000,-2.74814E-002,0.00000E+000,1.64262E-002,9.23866E-001,0.00000E+000,1.71834E-004,-6.87395E-002,1.00000E+000,31
739,1317,-7.93934E+000,-1.23235E+000,1.65326E-001,4.69086E+000,-5.25034E-001,1.74462E-001,4.72337E+000,1.73690E-002,5.33541E-001,0,7.23137E+001,-9.15614E+000,9.97910E-001,2.84857E+001,-4.64775E+001,9.97277E-001,1.90060E-001,-8.10272E-002,-7.46758E-004,1.90062E-001,-8.10293E-002,-1.57830E-001,1.90748E-001,1.20931E+000,-6.09745E-003,0.00000E+000,3.29384E-003,9.25129E-001,0.00000E+000,-7.22801E-004,-8.02642E-002,1.00000E+000,31
1129,1297,2.30411E+001,-1.88377E+000,1.01696E-001,1.02536E+001,-1.01733E-001,7.60650E-002,1.02544E+001,1.58725E-002,4.07596E-001,0,1.54022E+002,-3.01882E+000,9.98646E-001,1.17960E+002,-3.25374E+001,9.97808E-001,1.94558E-001,-8.14727E-002,-2.34874E-003,1.94578E-001,-8.14926E-002,-4.87482E-001,1.95431E-001,1.21451E+000,-2.64311E-002,0.00000E+000,1.53880E-002,9.23825E-001,0.00000E+000,3.71498E-003,-6.90297E-002,1.00000E+000,31
1129,1307,2.30354E+001,-1.30568E+000,1.35041E-002,1.02396E+001,-1.66698E-001,2.04172E-002,1.02410E+001,2.18291E-002,3.62710E-001,0,1.54047E+002,-3.93827E+000,9.98337E-001,1.17789E+002,-3.33953E+001,9.95671E-001,1.95445E-001,-8.14725E-002,-2.33225E-003,1.95464E-001,-8.14921E-002,-4.82511E-001,1.96362E-001,1.21558E+000,-2.64173E-002,0.00000E+000,1.54490E-002,9.23826E-001,0.00000E+000,2.78945E-003,-6.90415E-002,1.00000E+000,31
1129,1317,2.30386E+001,-7.14682E-001,-4.59904E-002,1.02311E+001,-2.20788E-001,-2.04694E-002,1.02335E+001,1.27519E-002,3.67319E-001,0,1.54087E+002,-4.74673E+000,9.98467E-001,1.17803E+002,-3.40887E+001,9.96480E-001,1.96331E-001,-8.14723E-002,-2.31353E-003,1.96350E-001,-8.14916E-002,-4.77112E-001,1.97293E-001,1.21666E+000,-2.63980E-002,0.00000E+000,1.55101E-002,9.23827E-001,0.00000E+000,1.86220E-003,-6.90582E-002,1.00000E+000,31
729,1347,-8.68611E+000,5.16830E-001,1.53054E-002,4.55424E+000,-6.88568E-001,3.09394E-002,4.60610E+000,1.02109E-002,5.35542E-001,0,7.06960E+001,-1.14471E+001,9.99012E-001,2.70058E+001,-4.93217E+001,9.98746E-001,1.87292E-001,-8.04579E-002,-1.34264E-003,1.87299E-001,-8.04646E-002,-2.87303E-001,1.87916E-001,1.20597E+000,-5.44288E-003,0.00000E+000,1.81026E-003,9.25592E-001,0.00000E+000,-2.28030E-003,-7.93083E-002,1.00000E+000,31
729,1357,-8.66992E+000,1.12829E+000,2.85980E-002,4.54834E+000,-7.25612E-001,-1.18200E-002,4.60587E+000,1.21833E-002,5.29828E-001,0,7.07233E+001,-1.19443E+001,9.98042E-001,2.74177E+001,-4.99414E+001,9.98230E-001,1.86730E-001,-8.04723E-002,-1.54412E-003,1.86739E-001,-8.04812E-002,-3.31089E-001,1.87331E-001,1.20530E+000,-5.46576E-003,0.00000E+000,1.51192E-003,9.25581E-001,0.00000E+000,-3.07452E-003,-7.93352E-002,1.00000E+000,31
1129,1327,2.30407E+001,-1.14973E-001,-8.33986E-002,1.02175E+001,-2.68269E-001,-5.51690E-002,1.02212E+001,1.51471E-002,3.69462E-001,0,1.54016E+002,-5.46893E+000,9.98224E-001,1.17832E+002,-3.46972E+001,9.97655E-001,1.97218E-001,-8.14721E-002,-2.29227E-003,1.97236E-001,-8.14910E-002,-4.71226E-001,1.98225E-001,1.21773E+000,-2.63724E-002,0.00000E+000,1.55713E-002,9.23828E-001,0.00000E+000,9.33284E-004,-6.90803E-002,1.00000E+000,31
729,1337,-8.70605E+000,-7.19312E-002,3.57874E-002,4.55129E+000,-6.32975E-001,8.01712E-002,4.59579E+000,1.36110E-002,5.37756E-001,0,7.05021E+001,-1.06728E+001,9.97581E-001,2.66278E+001,-4.84316E+001,9.96981E-001,1.87851E-001,-8.04465E-002,-1.14406E-003,1.87856E-001,-8.04514E-002,-2.44311E-001,1.88499E-001,1.20664E+000,-5.42527E-003,0.00000E+000,2.10755E-003,9.25599E-001,0.00000E+000,-1.48892E-003,-7.92876E-002,1.00000E+000,31
729,1327,-8.71602E+000,-6.59329E-001,8.58118E-002,4.55206E+000,-5.81942E-001,1.25610E-001,4.59082E+000,1.38240E-002,5.13273E-001,0,7.03732E+001,-9.93264E+000,9.97511E-001,2.64794E+001,-4.75977E+001,9.97124E-001,1.88406E-001,-8.04387E-002,-9.49244E-004,1.88409E-001,-8.04421E-002,-2.02298E-001,1.89078E-001,1.20731E+000,-5.41412E-003,0.00000E+000,2.40313E-003,9.25604E-001,0.00000E+000,-7.02056E-004,-7.92744E-002,1.00000E+000,31
1129,1337,2.30532E+001,4.85617E-001,-9.24050E-002,1.02026E+001,-3.25307E-001,-1.08499E-001,1.02084E+001,1.71011E-002,4.56245E-001,0,1.53988E+002,-6.28492E+000,9.97693E-001,1.18067E+002,-3.53128E+001,9.97661E-001,1.98112E-001,-8.14718E-002,-2.26326E-003,1.98131E-001,-8.14901E-002,-4.63774E-001,1.99167E-001,1.21882E+000,-2.63276E-002,0.00000E+000,1.56332E-002,9.23831E-001,0.00000E+000,-6.61132E-006,-6.91189E-002,1.00000E+000,31
729,1317,-8.71865E+000,-1.24088E+000,1.61153E-001,4.55587E+000,-5.28039E-001,1.73314E-001,4.58964E+000,1.53982E-002,5.39996E-001,0,7.02796E+001,-9.18454E+000,9.97515E-001,2.65095E+001,-4.67020E+001,9.96907E-001,1.88959E-001,-8.04335E-002,-7.56694E-004,1.88961E-001,-8.04356E-002,-1.60936E-001,1.89656E-001,1.20798E+000,-5.40740E-003,0.00000E+000,2.69807E-003,9.25607E-001,0.00000E+000,8.30666E-005,-7.92665E-002,1.00000E+000,31
1129,1347,2.30591E+001,1.09581E+000,-7.94288E-002,1.01817E+001,-3.70025E-001,-1.37828E-001,1.01893E+001,2.01303E-002,4.74451E-001,0,1.53768E+002,-6.97039E+000,9.97257E-001,1.18232E+002,-3.58665E+001,9.96469E-001,1.99002E-001,-8.14715E-002,-2.23477E-003,1.99020E-001,-8.14893E-002,-4.56486E-001,2.00105E-001,1.21991E+000,-2.62838E-002,0.00000E+000,1.56949E-002,9.23833E-001,0.00000E+000,-9.42773E-004,-6.91567E-002,1.00000E+000,31
719,1347,-9.46617E+000,5.17884E-001,1.44041E-002,4.41814E+000,-6.81375E-001,3.15332E-002,4.47048E+000,1.56137E-002,5.47710E-001,0,6.86300E+001,-1.13248E+001,9.97819E-001,2.50349E+001,-4.94087E+001,9.97887E-001,1.85705E-001,-8.01079E-002,-1.22940E-003,1.85711E-001,-8.01136E-002,-2.64989E-001,1.86293E-001,1.20406E+000,-4.53776E-003,0.00000E+000,1.32154E-003,9.25811E-001,0.00000E+000,-2.09087E-003,-7.78533E-002,1.00000E+000,31
719,1357,-9.45322E+000,1.11775E+000,2.91687E-002,4.40934E+000,-7.30301E-001,-8.91721E-003,4.46941E+000,1.39879E-002,5.33399E-001,0,6.86086E+001,-1.19974E+001,9.97852E-001,2.54006E+001,-5.02167E+001,9.97959E-001,1.84852E-001,-8.01159E-002,-1.35487E-003,1.84859E-001,-8.01228E-002,-2.92963E-001,1.85405E-001,1.20304E+000,-4.57186E-003,0.00000E+000,1.19272E-003,9.25806E-001,0.00000E+000,-3.15475E-003,-7.78887E-002,1.00000E+000,31
719,1337,-9.48349E+000,-7.38031E-002,3.49575E-002,4.41684E+000,-6.29919E-001,7.65792E-002,4.46219E+000,1.73189E-002,5.65473E-001,0,6.84757E+001,-1.06082E+001,9.96178E-001,2.46955E+001,-4.85538E+001,9.95427E-001,1.86551E-001,-8.01018E-002,-1.10829E-003,1.86556E-001,-8.01064E-002,-2.38134E-001,1.87175E-001,1.20508E+000,-4.51260E-003,0.00000E+000,1.44965E-003,9.25814E-001,0.00000E+000,-1.03289E-003,-7.78271E-002,1.00000E+000,31
719,1327,-9.48952E+000,-6.60587E-001,8.87911E-002,4.42114E+000,-5.78814E-001,1.24172E-001,4.46060E+000,1.25267E-002,5.53850E-001,0,6.83956E+001,-9.87775E+000,9.96094E-001,2.46171E+001,-4.77098E+001,9.95718E-001,1.87391E-001,-8.00976E-002,-9.91444E-004,1.87395E-001,-8.01013E-002,-2.12362E-001,1.88051E-001,1.20609E+000,-4.49637E-003,0.00000E+000,1.57712E-003,9.25816E-001,0.00000E+000,1.98263E-005,-7.78102E-002,1.00000E+000,31
719,1317,-9.49358E+000,-1.24379E+000,1.72476E-001,4.42239E+000,-5.27102E-001,1.74447E-001,4.45711E+000,1.64952E-002,5.40808E-001,0,6.82556E+001,-9.15703E+000,9.95865E-001,2.46471E+001,-4.68752E+001,9.95260E-001,1.88228E-001,-8.00952E-002,-8.78034E-004,1.88231E-001,-8.00980E-002,-1.87487E-001,1.88925E-001,1.20710E+000,-4.48797E-003,0.00000E+000,1.70437E-003,9.25817E-001,0.00000E+000,1.07064E-003,-7.78015E-002,1.00000E+000,31
1139,1297,2.38552E+001,-1.87507E+000,1.00599E-001,1.04076E+001,-9.63865E-002,7.94789E-002,1.04083E+001,1.02742E-002,3.56827E-001,0,1.56195E+002,-2.96417E+000,9.99277E-001,1.20662E+002,-3.23280E+001,9.98504E-001,1.95224E-001,-8.16822E-002,-2.57890E-003,1.95248E-001,-8.17062E-002,-5.33550E-001,1.96111E-001,1.21534E+000,-2.52268E-002,0.00000E+000,1.41013E-002,9.23694E-001,0.00000E+000,2.56580E-003,-6.96409E-002,1.00000E+000,31
1139,1307,2.38456E+001,-1.29835E+000,4.25981E-003,1.03908E+001,-1.62775E-001,2.04229E-002,1.03921E+001,1.45700E-002,3.28410E-001,0,1.56197E+002,-3.89905E+000,9.98666E-001,1.20420E+002,-3.31802E+001,9.97723E-001,1.96227E-001,-8.16799E-002,-2.52587E-003,1.96250E-001,-8.17028E-002,-5.20699E-001,1.97164E-001,1.21655E+000,-2.52132E-002,0.00000E+000,1.42278E-002,9.23695E-001,0.00000E+000,1.66914E-003,-6.96509E-002,1.00000E+000,31
1139,1337,2.38545E+001,5.11190E-001,-8.70756E-002,1.03427E+001,-3.05662E-001,-1.01162E-001,1.03477E+001,1.73790E-002,4.78165E-001,0,1.55934E+002,-6.03664E+000,9.96933E-001,1.20578E+002,-3.48147E+001,9.96122E-001,1.99249E-001,-8.16687E-002,-2.33981E-003,1.99269E-001,-8.16882E-002,-4.77181E-001,2.00343E-001,1.22023E+000,-2.51073E-002,0.00000E+000,1.46103E-002,9.23706E-001,0.00000E+000,-1.04149E-003,-6.97289E-002,1.00000E+000,31
1139,1347,2.38746E+001,1.11333E+000,-6.53025E-002,1.03317E+001,-3.61586E-001,-1.38172E-001,1.03390E+001,1.77074E-002,4.87916E-001,0,1.55893E+002,-6.86734E+000,9.96789E-001,1.20976E+002,-3.55138E+001,9.95395E-001,2.00260E-001,-8.16636E-002,-2.26869E-003,2.00278E-001,-8.16818E-002,-4.61030E-001,2.01409E-001,1.22147E+000,-2.50497E-002,0.00000E+000,1.47387E-002,9.23712E-001,0.00000E+000,-1.95119E-003,-6.97713E-002,1.00000E+000,31
1139,1327,2.38484E+001,-9.97353E-002,-8.85722E-002,1.03639E+001,-2.60495E-001,-5.91778E-002,1.03674E+001,1.68075E-002,4.26924E-001,0,1.56106E+002,-5.37034E+000,9.97594E-001,1.20429E+002,-3.43192E+001,9.96049E-001,1.98239E-001,-8.16734E-002,-2.40816E-003,1.98260E-001,-8.16941E-002,-4.92883E-001,1.99279E-001,1.21900E+000,-2.51579E-002,0.00000E+000,1.44822E-002,9.23701E-001,0.00000E+000,-1.33301E-004,-6.96916E-002,1.00000E+000,31
1139,1317,2.38354E+001,-7.04946E-001,-6.35073E-002,1.03699E+001,-2.14775E-001,-2.42827E-002,1.03722E+001,1.48246E-002,3.92019E-001,0,1.56067E+002,-4.68404E+000,9.98950E-001,1.20212E+002,-3.37887E+001,9.97422E-001,1.97231E-001,-8.16771E-002,-2.47016E-003,1.97253E-001,-8.16990E-002,-5.07389E-001,1.98219E-001,1.21777E+000,-2.51931E-002,0.00000E+000,1.43546E-002,9.23697E-001,0.00000E+000,7.70431E-004,-6.96657E-002,1.00000E+000,31
709,1347,-1.02511E+001,5.18278E-001,1.27406E-002,4.27677E+000,-6.74756E-001,3.17249E-002,4.32979E+000,1.51541E-002,5.54092E-001,0,6.64809E+001,-1.12075E+001,9.97280E-001,2.29920E+001,-4.95081E+001,9.97360E-001,1.84207E-001,-7.89481E-002,-1.37744E-003,1.84214E-001,-7.89553E-002,-2.99894E-001,1.84839E-001,1.20226E+000,-3.65127E-003,0.00000E+000,3.66960E-004,9.26822E-001,0.00000E+000,-2.03120E-003,-7.69539E-002,1.00000E+000,31
709,1357,-1.02341E+001,1.11941E+000,2.90464E-002,4.27288E+000,-7.20855E-001,-4.14657E-003,4.33326E+000,1.43626E-002,5.34855E-001,0,6.65208E+001,-1.18581E+001,9.97952E-001,2.34273E+001,-5.03036E+001,9.97985E-001,1.83224E-001,-7.89614E-002,-1.58764E-003,1.83234E-001,-7.89710E-002,-3.46932E-001,1.83814E-001,1.20109E+000,-3.68910E-003,0.00000E+000,8.96764E-005,9.26813E-001,0.00000E+000,-3.20986E-003,-7.69918E-002,1.00000E+000,31
709,1337,-1.02546E+001,-8.14468E-002,4.38260E-002,4.28777E+000,-6.32666E-001,7.92984E-002,4.33492E+000,1.37223E-002,5.45457E-001,0,6.65119E+001,-1.06323E+001,9.97032E-001,2.28909E+001,-4.88089E+001,9.96780E-001,1.85182E-001,-7.89387E-002,-1.17311E-003,1.85188E-001,-7.89439E-002,-2.54475E-001,1.85857E-001,1.20343E+000,-3.62524E-003,0.00000E+000,6.42945E-004,9.26828E-001,0.00000E+000,-8.58050E-004,-7.69278E-002,1.00000E+000,31
709,1317,-1.02629E+001,-1.24464E+000,1.93994E-001,4.29326E+000,-5.25062E-001,1.81263E-001,4.32904E+000,1.74266E-002,5.48427E-001,0,6.62782E+001,-9.12411E+000,9.97249E-001,2.29030E+001,-4.70346E+001,9.97274E-001,1.87116E-001,-7.89286E-002,-7.77890E-004,1.87118E-001,-7.89309E-002,-1.67526E-001,1.87879E-001,1.20576E+000,-3.60003E-003,0.00000E+000,1.19174E-003,9.26834E-001,0.00000E+000,1.47475E-003,-7.69026E-002,1.00000E+000,31
709,1327,-1.02561E+001,-6.63157E-001,1.07905E-001,4.29440E+000,-5.78097E-001,1.25840E-001,4.33496E+000,1.88329E-002,5.78634E-001,0,6.64691E+001,-9.87208E+000,9.97490E-001,2.29089E+001,-4.78838E+001,9.97070E-001,1.86151E-001,-7.89330E-002,-9.74454E-004,1.86155E-001,-7.89365E-002,-2.10617E-001,1.86869E-001,1.20460E+000,-3.61048E-003,0.00000E+000,9.17533E-004,9.26832E-001,0.00000E+000,3.09154E-004,-7.69130E-002,1.00000E+000,31
1149,1297,2.46554E+001,-1.86749E+000,8.93154E-002,1.05492E+001,-9.35561E-002,8.06537E-002,1.05500E+001,2.47202E-002,3.95367E-001,0,1.58192E+002,-2.94779E+000,9.97974E-001,1.23138E+002,-3.20717E+001,9.95376E-001,1.95772E-001,-8.18420E-002,-2.77798E-003,1.95800E-001,-8.18698E-002,-5.73261E-001,1.96673E-001,1.21602E+000,-2.40816E-002,0.00000E+000,1.29459E-002,9.23613E-001,0.00000E+000,1.05823E-003,-7.03787E-002,1.00000E+000,31
1149,1307,2.46597E+001,-1.27269E+000,6.68688E-003,1.05451E+001,-1.41851E-001,3.02974E-002,1.05461E+001,1.59173E-002,3.80595E-001,0,1.58338E+002,-3.64719E+000,9.98498E-001,1.23135E+002,-3.26622E+001,9.96964E-001,1.96906E-001,-8.18399E-002,-2.72721E-003,1.96933E-001,-8.18666E-002,-5.60503E-001,1.97863E-001,1.21740E+000,-2.40635E-002,0.00000E+000,1.30554E-002,9.23615E-001,0.00000E+000,2.91988E-004,-7.03887E-002,1.00000E+000,31
1149,1317,2.46539E+001,-6.80704E-001,-5.53507E-002,1.05262E+001,-1.97002E-001,-1.73210E-002,1.05281E+001,1.45660E-002,4.09403E-001,0,1.58251E+002,-4.45409E+000,9.98367E-001,1.23003E+002,-3.33205E+001,9.96707E-001,1.98043E-001,-8.18374E-002,-2.67251E-003,1.98068E-001,-8.18629E-002,-5.47038E-001,1.99058E-001,1.21879E+000,-2.40361E-002,0.00000E+000,1.31655E-002,9.23617E-001,0.00000E+000,-4.77825E-004,-7.04040E-002,1.00000E+000,31
1149,1327,2.46517E+001,-7.72837E-002,-9.64344E-002,1.05067E+001,-2.41620E-001,-6.17552E-002,1.05096E+001,1.57199E-002,3.69733E-001,0,1.58129E+002,-5.09859E+000,9.97866E-001,1.22959E+002,-3.38813E+001,9.96067E-001,1.99177E-001,-8.18343E-002,-2.61420E-003,1.99202E-001,-8.18586E-002,-5.32951E-001,2.00253E-001,1.22017E+000,-2.39994E-002,0.00000E+000,1.32755E-002,9.23620E-001,0.00000E+000,-1.24751E-003,-7.04244E-002,1.00000E+000,31
1149,1337,2.46642E+001,5.19706E-001,-1.01348E-001,1.04933E+001,-3.02069E-001,-1.03444E-001,1.04981E+001,2.32637E-002,4.60167E-001,0,1.58082E+002,-5.98876E+000,9.97736E-001,1.23196E+002,-3.45568E+001,9.96919E-001,2.00323E-001,-8.18304E-002,-2.54835E-003,2.00346E-001,-8.18534E-002,-5.17427E-001,2.01460E-001,1.22157E+000,-2.39450E-002,0.00000E+000,1.33868E-002,9.23624E-001,0.00000E+000,-2.02609E-003,-7.04546E-002,1.00000E+000,31
1149,1347,2.46904E+001,1.12503E+000,-6.25537E-002,1.04843E+001,-3.57950E-001,-1.38537E-001,1.04913E+001,2.14822E-002,4.64558E-001,0,1.58059E+002,-6.81067E+000,9.97978E-001,1.23711E+002,-3.52447E+001,9.96826E-001,2.01469E-001,-8.18255E-002,-2.47477E-003,2.01491E-001,-8.18472E-002,-5.00466E-001,2.02669E-001,1.22297E+000,-2.38713E-002,0.00000E+000,1.34984E-002,9.23630E-001,0.00000E+000,-2.80662E-003,-7.04956E-002,1.00000E+000,31
699,1347,-1.10138E+001,5.13271E-001,2.72869E-002,4.15588E+000,-6.75998E-001,4.03870E-002,4.21070E+000,1.54538E-002,5.67582E-001,0,6.46222E+001,-1.12180E+001,9.98106E-001,2.13383E+001,-4.97194E+001,9.98071E-001,1.82580E-001,-7.79059E-002,-1.18518E-003,1.82585E-001,-7.79113E-002,-2.60683E-001,1.83238E-001,1.20031E+000,-2.07107E-003,0.00000E+000,-4.91448E-004,9.27719E-001,0.00000E+000,-1.92057E-003,-7.59823E-002,1.00000E+000,31
699,1357,-1.09995E+001,1.10618E+000,3.49100E-002,4.14975E+000,-7.29840E-001,-2.43090E-003,4.21344E+000,1.54728E-002,5.59694E-001,0,6.46499E+001,-1.19792E+001,9.97943E-001,2.17088E+001,-5.06192E+001,9.97734E-001,1.81565E-001,-7.79163E-002,-1.36175E-003,1.81572E-001,-7.79234E-002,-3.00675E-001,1.82178E-001,1.19910E+000,-2.10910E-003,0.00000E+000,-7.15890E-004,9.27712E-001,0.00000E+000,-2.98698E-003,-7.60157E-002,1.00000E+000,31
699,1337,-1.10290E+001,-9.12331E-002,4.98039E-002,4.15514E+000,-6.37527E-001,8.04147E-002,4.20454E+000,1.13196E-002,5.21007E-001,0,6.44957E+001,-1.06810E+001,9.98121E-001,2.10318E+001,-4.90936E+001,9.98137E-001,1.83590E-001,-7.78984E-002,-1.01366E-003,1.83594E-001,-7.79024E-002,-2.22102E-001,1.84294E-001,1.20152E+000,-2.04411E-003,0.00000E+000,-2.67551E-004,9.27724E-001,0.00000E+000,-8.56752E-004,-7.59587E-002,1.00000E+000,31
699,1317,-1.10402E+001,-1.24586E+000,2.08484E-001,4.15543E+000,-5.24450E-001,1.78842E-001,4.19221E+000,1.66967E-002,6.06033E-001,0,6.41908E+001,-9.10614E+000,9.98105E-001,2.10250E+001,-4.71610E+001,9.97789E-001,1.85586E-001,-7.78921E-002,-6.87031E-004,1.85587E-001,-7.78939E-002,-1.49400E-001,1.86383E-001,1.20392E+000,-2.02254E-003,0.00000E+000,1.76108E-004,9.27728E-001,0.00000E+000,1.25124E-003,-7.59397E-002,1.00000E+000,31
699,1327,-1.10344E+001,-6.65455E-001,1.13423E-001,4.15718E+000,-5.78561E-001,1.23573E-001,4.19907E+000,1.26011E-002,6.79989E-001,0,6.43911E+001,-9.86966E+000,9.98267E-001,2.09895E+001,-4.79881E+001,9.97184E-001,1.84587E-001,-7.78944E-002,-8.49351E-004,1.84590E-001,-7.78972E-002,-1.85398E-001,1.85337E-001,1.20272E+000,-2.03016E-003,0.00000E+000,-4.61796E-005,9.27727E-001,0.00000E+000,1.95067E-004,-7.59464E-002,1.00000E+000,31
1159,1307,2.54546E+001,-1.26496E+000,-1.52852E-002,1.06808E+001,-1.38214E-001,2.06535E-002,1.06817E+001,1.88542E-002,3.69876E-001,0,1.60288E+002,-3.58487E+000,9.95895E-001,1.25518E+002,-3.24040E+001,9.93908E-001,1.97671E-001,-8.22329E-002,-2.78464E-003,1.97699E-001,-8.22606E-002,-5.69935E-001,1.98625E-001,1.21835E+000,-2.30090E-002,0.00000E+000,1.22239E-002,9.23302E-001,0.00000E+000,-1.10758E-003,-7.09635E-002,1.00000E+000,31
1159,1317,2.54599E+001,-6.63343E-001,-7.00445E-002,1.06730E+001,-1.84570E-001,-1.97832E-002,1.06746E+001,1.93849E-002,4.13800E-001,0,1.60333E+002,-4.27273E+000,9.96367E-001,1.25570E+002,-3.29176E+001,9.96122E-001,1.98895E-001,-8.22363E-002,-2.80950E-003,1.98923E-001,-8.22644E-002,-5.72512E-001,1.99911E-001,1.21985E+000,-2.29791E-002,0.00000E+000,1.21806E-002,9.23301E-001,0.00000E+000,-1.83523E-003,-7.09781E-002,1.00000E+000,31
1159,1327,2.54695E+001,-6.55456E-002,-9.85916E-002,1.06626E+001,-2.37527E-001,-6.10356E-002,1.06655E+001,1.34890E-002,4.02356E-001,0,1.60337E+002,-5.05030E+000,9.98095E-001,1.25726E+002,-3.35758E+001,9.97405E-001,2.00118E-001,-8.22407E-002,-2.82836E-003,2.00146E-001,-8.22691E-002,-5.73848E-001,2.01200E-001,1.22134E+000,-2.29339E-002,0.00000E+000,1.21372E-002,9.23300E-001,0.00000E+000,-2.56432E-003,-7.10001E-002,1.00000E+000,31
1159,1297,2.54540E+001,-1.85430E+000,6.32108E-002,1.06895E+001,-8.45165E-002,6.98970E-002,1.06901E+001,1.84735E-002,4.25140E-001,0,1.60211E+002,-2.80962E+000,9.96682E-001,1.25572E+002,-3.17013E+001,9.92691E-001,1.96454E-001,-8.22300E-002,-2.75659E-003,1.96481E-001,-8.22573E-002,-5.66666E-001,1.97346E-001,1.21687E+000,-2.30303E-002,0.00000E+000,1.22670E-002,9.23303E-001,0.00000E+000,-3.84507E-004,-7.09532E-002,1.00000E+000,31
1159,1337,2.54932E+001,5.31065E-001,-8.61441E-002,1.06569E+001,-2.98845E-001,-9.92558E-002,1.06615E+001,1.81762E-002,4.14232E-001,0,1.60385E+002,-5.95151E+000,9.99066E-001,1.26163E+002,-3.43319E+001,9.98855E-001,2.01349E-001,-8.22465E-002,-2.83890E-003,2.01377E-001,-8.22749E-002,-5.73477E-001,2.02497E-001,1.22285E+000,-2.28672E-002,0.00000E+000,1.20935E-002,9.23298E-001,0.00000E+000,-3.29906E-003,-7.10327E-002,1.00000E+000,31
1159,1347,2.55087E+001,1.13820E+000,-6.59390E-002,1.06397E+001,-3.50073E-001,-1.42128E-001,1.06464E+001,1.90735E-002,4.20590E-001,0,1.60275E+002,-6.70856E+000,9.98227E-001,1.26481E+002,-3.49492E+001,9.97729E-001,2.02577E-001,-8.22527E-002,-2.84677E-003,2.02605E-001,-8.22812E-002,-5.72575E-001,2.03792E-001,1.22435E+000,-2.27935E-002,0.00000E+000,1.20498E-002,9.23296E-001,0.00000E+000,-4.03352E-003,-7.10686E-002,1.00000E+000,31
689,1347,-1.17834E+001,5.01009E-001,2.50339E-002,4.02724E+000,-6.84608E-001,2.97498E-002,4.08513E+000,1.34931E-002,5.65620E-001,0,6.26992E+001,-1.12955E+001,9.98585E-001,1.95384E+001,-5.00145E+001,9.97940E-001,1.80854E-001,-7.70253E-002,-1.14631E-003,1.80859E-001,-7.70304E-002,-2.54681E-001,1.81520E-001,1.19824E+000,-6.88554E-004,0.00000E+000,-1.47386E-003,9.28475E-001,0.00000E+000,-2.04560E-003,-7.51142E-002,1.00000E+000,31
689,1357,-1.17728E+001,1.09272E+000,2.64056E-002,4.01970E+000,-7.37151E-001,-7.55982E-003,4.08674E+000,1.42954E-002,5.46426E-001,0,6.26895E+001,-1.20509E+001,9.98383E-001,1.98365E+001,-5.09269E+001,9.98273E-001,1.79637E-001,-7.70367E-002,-1.36872E-003,1.79644E-001,-7.70440E-002,-3.05519E-001,1.80249E-001,1.19679E+000,-7.29034E-004,0.00000E+000,-1.79028E-003,9.28466E-001,0.00000E+000,-3.02280E-003,-7.51414E-002,1.00000E+000,31
689,1337,-1.17926E+001,-8.49121E-002,4.97690E-002,4.03328E+000,-6.26137E-001,7.73012E-002,4.08233E+000,1.43544E-002,5.31915E-001,0,6.26515E+001,-1.04843E+001,9.98596E-001,1.93317E+001,-4.90986E+001,9.98756E-001,1.82071E-001,-7.70157E-002,-9.26187E-004,1.82075E-001,-7.70190E-002,-2.04818E-001,1.82793E-001,1.19970E+000,-6.54299E-004,0.00000E+000,-1.15684E-003,9.28482E-001,0.00000E+000,-1.06653E-003,-7.50912E-002,1.00000E+000,31
1169,1327,2.62721E+001,-5.57297E-002,-1.09366E-001,1.08036E+001,-2.33345E-001,-6.67929E-002,1.08063E+001,1.28461E-002,4.15212E-001,0,1.62344E+002,-5.00102E+000,9.98706E-001,1.28250E+002,-3.32933E+001,9.98174E-001,2.00766E-001,-8.25356E-002,-2.78157E-003,2.00793E-001,-8.25629E-002,-5.62480E-001,2.01847E-001,1.22216E+000,-2.17531E-002,0.00000E+000,1.14212E-002,9.23054E-001,0.00000E+000,-4.07643E-003,-7.12482E-002,1.00000E+000,31
1169,1337,2.62987E+001,5.51451E-001,-8.98928E-002,1.07986E+001,-2.84415E-001,-1.05418E-001,1.08029E+001,1.64907E-002,4.26523E-001,0,1.62400E+002,-5.76006E+000,9.99017E-001,1.28739E+002,-3.38990E+001,9.98432E-001,2.01978E-001,-8.25459E-002,-2.82545E-003,2.02006E-001,-8.25739E-002,-5.68897E-001,2.03124E-001,1.22365E+000,-2.16826E-002,0.00000E+000,1.13098E-002,9.23048E-001,0.00000E+000,-4.74424E-003,-7.12798E-002,1.00000E+000,31
1169,1347,2.63262E+001,1.15413E+000,-5.81016E-002,1.07913E+001,-3.41757E-001,-1.44192E-001,1.07977E+001,1.63254E-002,4.10060E-001,0,1.62419E+002,-6.60577E+000,9.97935E-001,1.29257E+002,-3.46198E+001,9.97771E-001,2.03191E-001,-8.25570E-002,-2.86676E-003,2.03220E-001,-8.25857E-002,-5.74742E-001,2.04403E-001,1.22513E+000,-2.16052E-002,0.00000E+000,1.11981E-002,9.23043E-001,0.00000E+000,-5.41315E-003,-7.13146E-002,1.00000E+000,31
689,1327,-1.18146E+001,-6.74211E-001,1.02428E-001,4.02092E+000,-5.79362E-001,1.21762E-001,4.06427E+000,1.56526E-002,6.16063E-001,0,6.23261E+001,-9.84781E+000,9.97467E-001,1.90034E+001,-4.82393E+001,9.97147E-001,1.83274E-001,-7.70096E-002,-7.13347E-004,1.83276E-001,-7.70116E-002,-1.57026E-001,1.84053E-001,1.20114E+000,-6.32710E-004,0.00000E+000,-8.42855E-004,9.28487E-001,0.00000E+000,-9.68704E-005,-7.50767E-002,1.00000E+000,31
1169,1317,2.62653E+001,-6.54047E-001,-7.23603E-002,1.08165E+001,-1.78519E-001,-1.88799E-002,1.08180E+001,2.34129E-002,3.28143E-001,0,1.62349E+002,-4.19749E+000,9.97701E-001,1.28151E+002,-3.27122E+001,9.97530E-001,1.99556E-001,-8.25282E-002,-2.72742E-003,1.99583E-001,-8.25546E-002,-5.53913E-001,2.00573E-001,1.22068E+000,-2.17971E-002,0.00000E+000,1.15323E-002,9.23057E-001,0.00000E+000,-3.41124E-003,-7.12284E-002,1.00000E+000,31
1169,1307,2.62586E+001,-1.25327E+000,-2.38068E-002,1.08244E+001,-1.32337E-001,2.12127E-002,1.08253E+001,1.90132E-002,3.71711E-001,0,1.62308E+002,-3.49848E+000,9.97691E-001,1.28067E+002,-3.21063E+001,9.96440E-001,1.98357E-001,-8.25220E-002,-2.66955E-003,1.98382E-001,-8.25474E-002,-5.44490E-001,1.99311E-001,1.21921E+000,-2.18300E-002,0.00000E+000,1.16422E-002,9.23060E-001,0.00000E+000,-2.75286E-003,-7.12136E-002,1.00000E+000,31
1169,1297,2.62620E+001,-1.84310E+000,6.14388E-002,1.08363E+001,-7.80613E-002,7.34574E-002,1.08368E+001,1.54931E-002,4.57537E-001,0,1.62263E+002,-2.75635E+000,9.97869E-001,1.28193E+002,-3.14114E+001,9.95109E-001,1.97155E-001,-8.25174E-002,-2.60622E-003,1.97179E-001,-8.25417E-002,-5.33868E-001,1.98048E-001,1.21774E+000,-2.18492E-002,0.00000E+000,1.17521E-002,9.23061E-001,0.00000E+000,-2.09446E-003,-7.12050E-002,1.00000E+000,31
689,1317,-1.18202E+001,-1.25443E+000,1.93924E-001,4.01914E+000,-5.26866E-001,1.72766E-001,4.05720E+000,1.80645E-002,5.84165E-001,0,6.21395E+001,-9.09886E+000,9.97306E-001,1.90327E+001,-4.73790E+001,9.95334E-001,1.84473E-001,-7.70071E-002,-5.06245E-004,1.84474E-001,-7.70081E-002,-1.10928E-001,1.85310E-001,1.20258E+000,-6.24043E-004,0.00000E+000,-5.29433E-004,9.28489E-001,0.00000E+000,8.71067E-004,-7.50709E-002,1.00000E+000,31
679,1347,-1.25631E+001,4.94863E-001,1.94291E-002,3.88986E+000,-6.82323E-001,2.56722E-002,3.94933E+000,2.11883E-002,5.84054E-001,0,6.06162E+001,-1.12790E+001,9.97679E-001,1.75794E+001,-5.01997E+001,9.97158E-001,1.79052E-001,-7.62141E-002,-1.17572E-003,1.79057E-001,-7.62195E-002,-2.63890E-001,1.79715E-001,1.19609E+000,7.60642E-004,0.00000E+000,-2.64026E-003,9.29170E-001,0.00000E+000,-2.18478E-003,-7.43163E-002,1.00000E+000,31
679,1357,-1.25343E+001,1.08756E+000,2.16135E-002,3.90219E+000,-7.34989E-001,-2.62603E-003,3.97081E+000,1.04894E-002,5.78250E-001,0,6.08896E+001,-1.20266E+001,9.98513E-001,1.81613E+001,-5.10912E+001,9.98357E-001,1.77521E-001,-7.62312E-002,-1.55292E-003,1.77530E-001,-7.62407E-002,-3.50622E-001,1.78119E-001,1.19426E+000,7.14347E-004,0.00000E+000,-3.24190E-003,9.29155E-001,0.00000E+000,-3.19818E-003,-7.43420E-002,1.00000E+000,31
1179,1297,2.70591E+001,-1.83736E+000,3.65335E-002,1.09763E+001,-7.47226E-002,7.20078E-002,1.09768E+001,2.48240E-002,4.95151E-001,0,1.64239E+002,-2.73937E+000,9.98638E-001,1.30616E+002,-3.11560E+001,9.96508E-001,1.97662E-001,-8.26791E-002,-2.62056E-003,1.97687E-001,-8.27036E-002,-5.35523E-001,1.98563E-001,1.21838E+000,-2.10233E-002,0.00000E+000,1.12060E-002,9.22961E-001,0.00000E+000,-3.80844E-003,-7.18334E-002,1.00000E+000,31
1179,1307,2.70663E+001,-1.24585E+000,-3.43899E-002,1.09725E+001,-1.26624E-001,2.41984E-002,1.09732E+001,1.20319E-002,3.39038E-001,0,1.64382E+002,-3.45684E+000,9.98931E-001,1.30676E+002,-3.18873E+001,9.97606E-001,1.98760E-001,-8.26798E-002,-2.61427E-003,1.98784E-001,-8.27041E-002,-5.32154E-001,1.99716E-001,1.21972E+000,-2.10006E-002,0.00000E+000,1.12141E-002,9.22961E-001,0.00000E+000,-4.28380E-003,-7.18415E-002,1.00000E+000,31
1179,1317,2.70679E+001,-6.45926E-001,-1.17176E-001,1.09641E+001,-1.71175E-001,-3.14421E-002,1.09655E+001,2.64824E-002,3.13526E-001,0,1.64487E+002,-4.08370E+000,9.98966E-001,1.30632E+002,-3.23974E+001,9.98343E-001,1.99858E-001,-8.26805E-002,-2.60884E-003,1.99883E-001,-8.27046E-002,-5.28983E-001,2.00871E-001,1.22106E+000,-2.09799E-002,0.00000E+000,1.12223E-002,9.22961E-001,0.00000E+000,-4.76010E-003,-7.18488E-002,1.00000E+000,31
1179,1337,2.71106E+001,5.58476E-001,-1.01581E-001,1.09469E+001,-2.82707E-001,-1.17131E-001,1.09512E+001,1.36610E-002,4.09527E-001,0,1.64536E+002,-5.74260E+000,9.98675E-001,1.31407E+002,-3.36700E+001,9.97398E-001,2.02082E-001,-8.26831E-002,-2.56574E-003,2.02105E-001,-8.27063E-002,-5.16181E-001,2.03212E-001,1.22379E+000,-2.08576E-002,0.00000E+000,1.12388E-002,9.22962E-001,0.00000E+000,-5.72651E-003,-7.18922E-002,1.00000E+000,31
1179,1347,2.71511E+001,1.16866E+000,-6.08078E-002,1.09500E+001,-3.35403E-001,-1.56266E-001,1.09562E+001,1.36109E-002,4.12680E-001,0,1.64707E+002,-6.50920E+000,9.98720E-001,1.32140E+002,-3.42812E+001,9.98228E-001,2.03197E-001,-8.26847E-002,-2.53826E-003,2.03219E-001,-8.27073E-002,-5.08660E-001,2.04388E-001,1.22516E+000,-2.07812E-002,0.00000E+000,1.12472E-002,9.22963E-001,0.00000E+000,-6.21219E-003,-7.19193E-002,1.00000E+000,31
679,1327,-1.25859E+001,-6.81837E-001,1.07539E-001,3.89113E+000,-5.81235E-001,1.24897E-001,3.93628E+000,1.83515E-002,5.71713E-001,0,6.03427E+001,-9.85518E+000,9.96892E-001,1.72022E+001,-4.84968E+001,9.96224E-001,1.82080E-001,-7.61893E-002,-4.37482E-004,1.82080E-001,-7.61900E-002,-9.70529E-002,1.82886E-001,1.19971E+000,8.28044E-004,0.00000E+000,-1.44577E-003,9.29193E-001,0.00000E+000,-1.72798E-004,-7.42789E-002,1.00000E+000,31
679,1337,-1.25725E+001,-9.29307E-002,4.64594E-002,3.89586E+000,-6.28395E-001,7.68762E-002,3.94696E+000,2.12570E-002,5.53518E-001,0,6.05599E+001,-1.05077E+001,9.97561E-001,1.73761E+001,-4.93142E+001,9.97501E-001,1.80571E-001,-7.61981E-002,-8.01838E-004,1.80573E-001,-7.62006E-002,-1.78921E-001,1.81304E-001,1.19790E+000,8.03667E-004,0.00000E+000,-2.04160E-003,9.29185E-001,0.00000E+000,-1.17641E-003,-7.42924E-002,1.00000E+000,31
1179,1327,2.70813E+001,-5.22313E-002,-1.16407E-001,1.09516E+001,-2.32545E-001,-6.53470E-002,1.09542E+001,1.82457E-002,3.95747E-001,0,1.64425E+002,-5.04192E+000,9.98925E-001,1.30884E+002,-3.31327E+001,9.96600E-001,2.00967E-001,-8.26817E-002,-2.59057E-003,2.00991E-001,-8.27053E-002,-5.23225E-001,2.02038E-001,1.22242E+000,-2.09270E-002,0.00000E+000,1.12305E-002,9.22962E-001,0.00000E+000,-5.24179E-003,-7.18676E-002,1.00000E+000,31
679,1317,-1.25920E+001,-1.26127E+000,2.05290E-001,3.88892E+000,-5.28246E-001,1.82817E-001,3.92889E+000,1.54313E-002,6.17351E-001,0,6.01306E+001,-9.15064E+000,9.97515E-001,1.72414E+001,-4.75971E+001,9.96315E-001,1.83581E-001,-7.61856E-002,-7.97173E-005,1.83581E-001,-7.61856E-002,-1.75830E-002,1.84463E-001,1.20151E+000,8.39058E-004,0.00000E+000,-8.51572E-004,9.29196E-001,0.00000E+000,8.28071E-004,-7.42728E-002,1.00000E+000,31
669,1327,-1.33516E+001,-6.96999E-001,1.16490E-001,3.76727E+000,-5.89588E-001,1.35839E-001,3.81554E+000,1.25053E-002,5.75599E-001,0,5.84287E+001,-1.00144E+001,9.98981E-001,1.55011E+001,-4.88537E+001,9.98720E-001,1.80751E-001,-7.54859E-002,-1.11304E-004,1.80751E-001,-7.54859E-002,-2.48881E-002,1.81567E-001,1.19811E+000,3.13973E-003,0.00000E+000,-2.60321E-003,9.29780E-001,0.00000E+000,-4.27385E-004,-7.33524E-002,1.00000E+000,31
669,1337,-1.33411E+001,-1.00758E-001,5.27335E-002,3.76872E+000,-6.31377E-001,8.28207E-002,3.82214E+000,1.31145E-002,5.81779E-001,0,5.86064E+001,-1.05546E+001,9.98101E-001,1.56246E+001,-4.95430E+001,9.98172E-001,1.78868E-001,-7.54957E-002,-5.62053E-004,1.78870E-001,-7.54970E-002,-1.26602E-001,1.79592E-001,1.19586E+000,3.10820E-003,0.00000E+000,-3.36163E-003,9.29770E-001,0.00000E+000,-1.41014E-003,-7.33662E-002,1.00000E+000,31
669,1347,-1.33264E+001,4.87298E-001,1.74752E-002,3.77151E+000,-6.82260E-001,4.17932E-002,3.83295E+000,1.17450E-002,5.66828E-001,0,5.87707E+001,-1.12774E+001,9.97897E-001,1.58888E+001,-5.04304E+001,9.97752E-001,1.76982E-001,-7.55093E-002,-1.01696E-003,1.76986E-001,-7.55134E-002,-2.30765E-001,1.77619E-001,1.19361E+000,3.06665E-003,0.00000E+000,-4.11971E-003,9.29756E-001,0.00000E+000,-2.39246E-003,-7.33843E-002,1.00000E+000,31
669,1357,-1.33014E+001,1.08988E+000,2.47376E-002,3.77710E+000,-7.25082E-001,1.33145E-003,3.84607E+000,1.19782E-002,5.66561E-001,0,5.89688E+001,-1.18805E+001,9.97883E-001,1.64291E+001,-5.11807E+001,9.97981E-001,1.75080E-001,-7.55327E-002,-1.48522E-003,1.75089E-001,-7.55415E-002,-3.39538E-001,1.75636E-001,1.19135E+000,2.99918E-003,0.00000E+000,-4.88186E-003,9.29733E-001,0.00000E+000,-3.38006E-003,-7.34137E-002,1.00000E+000,31
1189,1337,2.79280E+001,5.68645E-001,-1.18820E-001,1.10997E+001,-2.80106E-001,-1.36079E-001,1.11040E+001,1.73173E-002,4.20918E-001,0,1.66766E+002,-5.68005E+000,9.98904E-001,1.34159E+002,-3.33652E+001,9.98001E-001,2.01693E-001,-8.29620E-002,-2.27536E-003,2.01711E-001,-8.29802E-002,-4.57949E-001,2.02764E-001,1.22333E+000,-2.00730E-002,0.00000E+000,1.12340E-002,9.22701E-001,0.00000E+000,-6.32153E-003,-7.18520E-002,1.00000E+000,31
669,1317,-1.33532E+001,-1.27069E+000,2.18027E-001,3.76828E+000,-5.31324E-001,1.90725E-001,3.81033E+000,1.56796E-002,6.01031E-001,0,5.82743E+001,-9.22226E+000,9.98714E-001,1.56212E+001,-4.78811E+001,9.98710E-001,1.82619E-001,-7.54844E-002,3.27733E-004,1.82619E-001,-7.54849E-002,7.27526E-002,1.83531E-001,1.20035E+000,3.14905E-003,0.00000E+000,-1.84891E-003,9.29784E-001,0.00000E+000,5.50035E-004,-7.33483E-002,1.00000E+000,31
1189,1297,2.78776E+001,-1.82936E+000,4.77313E-002,1.11270E+001,-7.28841E-002,6.66424E-002,1.11274E+001,1.75220E-002,4.32350E-001,0,1.66372E+002,-2.71763E+000,9.98446E-001,1.33427E+002,-3.09904E+001,9.96076E-001,1.98018E-001,-8.29565E-002,-2.29291E-003,1.98036E-001,-8.29752E-002,-4.67524E-001,1.98901E-001,1.21883E+000,-2.02053E-002,0.00000E+000,1.13244E-002,9.22704E-001,0.00000E+000,-5.81531E-003,-7.18371E-002,1.00000E+000,31
1189,1307,2.78708E+001,-1.24050E+000,-4.59822E-002,1.11136E+001,-1.28100E-001,1.40449E-002,1.11144E+001,1.42558E-002,4.16051E-001,0,1.66402E+002,-3.49844E+000,9.97560E-001,1.33236E+002,-3.16441E+001,9.97211E-001,1.98932E-001,-8.29573E-002,-2.29716E-003,1.98950E-001,-8.29760E-002,-4.66872E-001,1.99860E-001,1.21995E+000,-2.01940E-002,0.00000E+000,1.13020E-002,9.22703E-001,0.00000E+000,-5.94099E-003,-7.18384E-002,1.00000E+000,31
1189,1317,2.78888E+001,-6.27603E-001,-9.52544E-002,1.11121E+001,-1.67942E-001,-4.45915E-002,1.11135E+001,1.68185E-002,4.18735E-001,0,1.66608E+002,-4.01935E+000,9.98786E-001,1.33495E+002,-3.20079E+001,9.98716E-001,1.99853E-001,-8.29586E-002,-2.29268E-003,1.99871E-001,-8.29772E-002,-4.64441E-001,2.00828E-001,1.22108E+000,-2.01607E-002,0.00000E+000,1.12793E-002,9.22703E-001,0.00000E+000,-6.06782E-003,-7.18422E-002,1.00000E+000,31
1189,1327,2.79053E+001,-3.70024E-002,-1.24812E-001,1.11050E+001,-2.30258E-001,-9.96024E-002,1.11078E+001,2.01351E-002,4.13918E-001,0,1.66717E+002,-4.92141E+000,9.98990E-001,1.33754E+002,-3.27664E+001,9.98610E-001,2.00772E-001,-8.29602E-002,-2.28546E-003,2.00790E-001,-8.29786E-002,-4.61478E-001,2.01795E-001,1.22220E+000,-2.01205E-002,0.00000E+000,1.12567E-002,9.22702E-001,0.00000E+000,-6.19452E-003,-7.18467E-002,1.00000E+000,31
659,1327,-1.41137E+001,-6.84266E-001,1.10607E-001,3.64535E+000,-5.72318E-001,1.25220E-001,3.69213E+000,1.91688E-002,5.37060E-001,0,5.65960E+001,-9.68371E+000,9.98561E-001,1.38263E+001,-4.87708E+001,9.97614E-001,1.79129E-001,-7.50091E-002,-4.96882E-005,1.79129E-001,-7.50091E-002,-1.12022E-002,1.79916E-001,1.19616E+000,5.50248E-003,0.00000E+000,-4.30618E-003,9.30178E-001,0.00000E+000,-6.44517E-004,-7.27688E-002,1.00000E+000,31
659,1337,-1.40818E+001,-1.17547E-001,7.54873E-002,3.66819E+000,-6.43564E-001,1.00633E-001,3.72558E+000,3.02190E-002,6.26364E-001,0,5.70324E+001,-1.07908E+001,9.98075E-001,1.43474E+001,-4.99331E+001,9.97996E-001,1.77074E-001,-7.50173E-002,-5.04840E-004,1.77075E-001,-7.50183E-002,-1.14740E-001,1.77762E-001,1.19371E+000,5.46833E-003,0.00000E+000,-5.08048E-003,9.30167E-001,0.00000E+000,-1.55640E-003,-7.27815E-002,1.00000E+000,31
659,1347,-1.40730E+001,4.82757E-001,3.97566E-002,3.66510E+000,-6.81900E-001,5.81861E-002,3.72845E+000,1.73512E-002,6.05663E-001,0,5.71048E+001,-1.13142E+001,9.98737E-001,1.45244E+001,-5.06372E+001,9.98775E-001,1.75015E-001,-7.50293E-002,-9.64476E-004,1.75019E-001,-7.50330E-002,-2.20998E-001,1.75611E-001,1.19126E+000,5.42290E-003,0.00000E+000,-5.85404E-003,9.30153E-001,0.00000E+000,-2.46742E-003,-7.27983E-002,1.00000E+000,31
659,1357,-1.40592E+001,1.09070E+000,3.69599E-002,3.66018E+000,-7.18556E-001,1.08651E-002,3.73006E+000,1.21574E-002,5.65717E-001,0,5.71572E+001,-1.17857E+001,9.98312E-001,1.48680E+001,-5.13068E+001,9.98416E-001,1.72940E-001,-7.50502E-002,-1.43705E-003,1.72949E-001,-7.50586E-002,-3.32002E-001,1.73450E-001,1.18879E+000,5.35222E-003,0.00000E+000,-6.63143E-003,9.30130E-001,0.00000E+000,-3.38294E-003,-7.28246E-002,1.00000E+000,31
1199,1307,2.86817E+001,-1.23012E+000,-4.48212E-002,1.12577E+001,-1.25786E-001,4.72760E-003,1.12584E+001,1.86903E-002,4.27515E-001,0,1.68453E+002,-3.45939E+000,9.97824E-001,1.35921E+002,-3.13827E+001,9.96796E-001,1.98905E-001,-8.29041E-002,-1.87288E-003,1.98917E-001,-8.29165E-002,-3.80761E-001,1.99832E-001,1.21994E+000,-1.91523E-002,0.00000E+000,1.13755E-002,9.22738E-001,0.00000E+000,-6.93976E-003,-7.16554E-002,1.00000E+000,31
1199,1317,2.86902E+001,-6.31658E-001,-1.02601E-001,1.12490E+001,-1.77162E-001,-5.31084E-002,1.12505E+001,1.62564E-002,4.21562E-001,0,1.68557E+002,-4.18150E+000,9.97054E-001,1.36018E+002,-3.19561E+001,9.95480E-001,1.99704E-001,-8.29061E-002,-1.88136E-003,1.99717E-001,-8.29186E-002,-3.81400E-001,2.00673E-001,1.22092E+000,-1.91268E-002,0.00000E+000,1.13199E-002,9.22737E-001,0.00000E+000,-6.80728E-003,-7.16519E-002,1.00000E+000,31
1199,1327,2.87098E+001,-2.74138E-002,-1.38245E-001,1.12486E+001,-2.23845E-001,-9.95799E-002,1.12512E+001,1.68622E-002,4.03158E-001,0,1.68731E+002,-4.85954E+000,9.97958E-001,1.36318E+002,-3.24939E+001,9.96750E-001,2.00504E-001,-8.29082E-002,-1.88824E-003,2.00517E-001,-8.29208E-002,-3.81712E-001,2.01514E-001,1.22189E+000,-1.90971E-002,0.00000E+000,1.12642E-002,9.22735E-001,0.00000E+000,-6.67469E-003,-7.16479E-002,1.00000E+000,31
659,1317,-1.41262E+001,-1.27093E+000,1.95610E-001,3.63791E+000,-5.26086E-001,1.77574E-001,3.68004E+000,1.50820E-002,6.02281E-001,0,5.63240E+001,-9.08071E+000,9.97535E-001,1.37325E+001,-4.79424E+001,9.95508E-001,1.81168E-001,-7.50061E-002,3.96762E-004,1.81169E-001,-7.50067E-002,8.87392E-002,1.82060E-001,1.19860E+000,5.52177E-003,0.00000E+000,-3.53603E-003,9.30184E-001,0.00000E+000,2.62472E-004,-7.27616E-002,1.00000E+000,31
1199,1337,2.87441E+001,5.81504E-001,-1.12839E-001,1.12481E+001,-2.75705E-001,-1.42090E-001,1.12524E+001,1.32214E-002,4.29160E-001,0,1.68868E+002,-5.62580E+000,9.98797E-001,1.36928E+002,-3.30723E+001,9.97647E-001,2.01311E-001,-8.29115E-002,-1.88657E-003,2.01324E-001,-8.29240E-002,-3.80288E-001,2.02363E-001,1.22288E+000,-1.90457E-002,0.00000E+000,1.12080E-002,9.22732E-001,0.00000E+000,-6.54074E-003,-7.16409E-002,1.00000E+000,31
1199,1297,2.86870E+001,-1.81217E+000,4.00299E-002,1.12703E+001,-6.31198E-002,5.10995E-002,1.12706E+001,1.44430E-002,4.08846E-001,0,1.68433E+002,-2.53398E+000,9.97538E-001,1.36075E+002,-3.06233E+001,9.95859E-001,1.98108E-001,-8.29028E-002,-1.85859E-003,1.98120E-001,-8.29151E-002,-3.78931E-001,1.98995E-001,1.21897E+000,-1.91633E-002,0.00000E+000,1.14308E-002,9.22739E-001,0.00000E+000,-7.07163E-003,-7.16569E-002,1.00000E+000,31
649,1347,-1.48466E+001,4.88845E-001,3.37461E-002,3.53151E+000,-6.71107E-001,4.78889E-002,3.59503E+000,1.69529E-002,6.34498E-001,0,5.50871E+001,-1.11123E+001,9.98099E-001,1.26766E+001,-5.06281E+001,9.97006E-001,1.72869E-001,-7.43614E-002,-8.54540E-004,1.72872E-001,-7.43644E-002,-1.98037E-001,1.73433E-001,1.18869E+000,8.05676E-003,0.00000E+000,-7.69729E-003,9.30711E-001,0.00000E+000,-2.71619E-003,-7.20662E-002,1.00000E+000,31
649,1357,-1.48258E+001,1.08761E+000,4.33017E-002,3.53436E+000,-7.15890E-001,1.54464E-002,3.60616E+000,1.15524E-002,5.68579E-001,0,5.52203E+001,-1.17394E+001,9.98626E-001,1.31631E+001,-5.14796E+001,9.98105E-001,1.70486E-001,-7.43792E-002,-1.31890E-003,1.70493E-001,-7.43863E-002,-3.08597E-001,1.70954E-001,1.18587E+000,7.97845E-003,0.00000E+000,-8.45897E-003,9.30690E-001,0.00000E+000,-3.65150E-003,-7.20922E-002,1.00000E+000,31
649,1337,-1.48671E+001,-1.03815E-001,6.74650E-002,3.52280E+000,-6.23606E-001,8.72818E-002,3.57863E+000,1.82242E-002,6.17429E-001,0,5.48378E+001,-1.04480E+001,9.98370E-001,1.23189E+001,-4.98208E+001,9.97740E-001,1.75242E-001,-7.43519E-002,-4.02297E-004,1.75243E-001,-7.43525E-002,-9.23494E-002,1.75911E-001,1.19151E+000,8.10772E-003,0.00000E+000,-6.93637E-003,9.30725E-001,0.00000E+000,-1.78181E-003,-7.20493E-002,1.00000E+000,31
649,1327,-1.48887E+001,-6.75777E-001,1.09279E-001,3.50965E+000,-5.60013E-001,1.16454E-001,3.55596E+000,1.43287E-002,5.61049E-001,0,5.45416E+001,-9.45955E+000,9.99032E-001,1.19704E+001,-4.87337E+001,9.98762E-001,1.77597E-001,-7.43464E-002,4.17174E-005,1.77597E-001,-7.43464E-002,9.48719E-003,1.78379E-001,1.19432E+000,8.14466E-003,0.00000E+000,-6.17928E-003,9.30735E-001,0.00000E+000,-8.52123E-004,-7.20371E-002,1.00000E+000,31
1209,1307,2.94918E+001,-1.21585E+000,-5.45392E-002,1.14011E+001,-1.18316E-001,-1.28579E-002,1.14017E+001,1.39411E-002,4.47774E-001,0,1.70523E+002,-3.34216E+000,9.98343E-001,1.38581E+002,-3.10331E+001,9.97043E-001,1.98480E-001,-8.24768E-002,-1.39017E-003,1.98487E-001,-8.24836E-002,-2.83489E-001,1.99428E-001,1.21944E+000,-1.79760E-002,0.00000E+000,1.14189E-002,9.23097E-001,0.00000E+000,-7.24906E-003,-7.11416E-002,1.00000E+000,31
1209,1317,2.95014E+001,-6.23836E-001,-1.08444E-001,1.13952E+001,-1.75339E-001,-5.97881E-002,1.13968E+001,1.57359E-002,4.19683E-001,0,1.70631E+002,-4.16454E+000,9.98325E-001,1.38701E+002,-3.17243E+001,9.95833E-001,1.99311E-001,-8.24778E-002,-1.38842E-003,1.99318E-001,-8.24846E-002,-2.82297E-001,2.00302E-001,1.22045E+000,-1.79520E-002,0.00000E+000,1.13707E-002,9.23096E-001,0.00000E+000,-6.91499E-003,-7.11337E-002,1.00000E+000,31
1209,1327,2.95311E+001,-1.21923E-002,-1.27353E-001,1.14002E+001,-2.16898E-001,-1.07180E-001,1.14028E+001,1.55590E-002,3.83368E-001,0,1.70880E+002,-4.76285E+000,9.98570E-001,1.39180E+002,-3.21899E+001,9.97171E-001,2.00144E-001,-8.24792E-002,-1.38105E-003,2.00151E-001,-8.24859E-002,-2.79970E-001,2.01179E-001,1.22147E+000,-1.79140E-002,0.00000E+000,1.13224E-002,9.23094E-001,0.00000E+000,-6.57979E-003,-7.11212E-002,1.00000E+000,31
1209,1337,2.95630E+001,5.93538E-001,-1.02594E-001,1.13968E+001,-2.73430E-001,-1.51355E-001,1.14010E+001,1.57050E-002,4.38390E-001,0,1.70982E+002,-5.59486E+000,9.98285E-001,1.39748E+002,-3.28010E+001,9.96373E-001,2.00985E-001,-8.24810E-002,-1.36726E-003,2.00992E-001,-8.24876E-002,-2.76349E-001,2.02065E-001,1.22249E+000,-1.78597E-002,0.00000E+000,1.12736E-002,9.23092E-001,0.00000E+000,-6.24110E-003,-7.11032E-002,1.00000E+000,31
1209,1297,2.94978E+001,-1.79974E+000,2.97892E-002,1.14163E+001,-5.57674E-002,3.98670E-002,1.14165E+001,1.28702E-002,4.08718E-001,0,1.70517E+002,-2.42974E+000,9.98278E-001,1.38746E+002,-3.03130E+001,9.96396E-001,1.97649E-001,-8.24760E-002,-1.38800E-003,1.97656E-001,-8.24829E-002,-2.83888E-001,1.98555E-001,1.21843E+000,-1.79902E-002,0.00000E+000,1.14670E-002,9.23098E-001,0.00000E+000,-7.58250E-003,-7.11463E-002,1.00000E+000,31
649,1317,-1.48927E+001,-1.26681E+000,1.98745E-001,3.50929E+000,-5.19377E-001,1.65805E-001,3.55139E+000,1.24422E-002,5.78893E-001,0,5.43900E+001,-8.91542E+000,9.98346E-001,1.20180E+001,-4.80024E+001,9.98074E-001,1.79937E-001,-7.43472E-002,4.75708E-004,1.79938E-001,-7.43480E-002,1.07187E-001,1.80840E-001,1.19712E+000,8.16082E-003,0.00000E+000,-5.42434E-003,9.30739E-001,0.00000E+000,7.49192E-005,-7.20318E-002,1.00000E+000,31
639,1347,-1.56148E+001,4.95143E-001,3.17138E-002,3.40410E+000,-6.58577E-001,4.76195E-002,3.46754E+000,1.74349E-002,5.93959E-001,0,5.31347E+001,-1.08817E+001,9.97366E-001,1.09298E+001,-5.06586E+001,9.96584E-001,1.70912E-001,-7.34833E-002,-7.61351E-004,1.70915E-001,-7.34857E-002,-1.78488E-001,1.71473E-001,1.18634E+000,1.10352E-002,0.00000E+000,-9.85054E-003,9.31445E-001,0.00000E+000,-3.02154E-003,-7.11232E-002,1.00000E+000,31
639,1357,-1.55911E+001,1.09715E+000,4.11725E-002,3.40973E+000,-7.00739E-001,1.40208E-002,3.48102E+000,1.14848E-002,5.73864E-001,0,5.33132E+001,-1.14779E+001,9.98311E-001,1.14613E+001,-5.14388E+001,9.98121E-001,1.68330E-001,-7.34985E-002,-1.21302E-003,1.68336E-001,-7.35046E-002,-2.87390E-001,1.68785E-001,1.18329E+000,1.09506E-002,0.00000E+000,-1.05865E-002,9.31425E-001,0.00000E+000,-4.03783E-003,-7.11514E-002,1.00000E+000,31
639,1317,-1.56504E+001,-1.27624E+000,2.20336E-001,3.38950E+000,-5.27439E-001,1.74197E-001,3.43471E+000,1.62519E-002,6.36661E-001,0,5.25381E+001,-9.04538E+000,9.98271E-001,1.04932E+001,-4.82685E+001,9.97306E-001,1.78550E-001,-7.34796E-002,5.17453E-004,1.78551E-001,-7.34806E-002,1.17636E-001,1.79480E-001,1.19543E+000,1.11340E-002,0.00000E+000,-7.66021E-003,9.31469E-001,0.00000E+000,3.15503E-006,-7.10903E-002,1.00000E+000,31
639,1327,-1.56434E+001,-6.95317E-001,1.32846E-001,3.39425E+000,-5.74799E-001,1.34578E-001,3.44521E+000,1.17431E-002,5.85315E-001,0,5.27324E+001,-9.73211E+000,9.98719E-001,1.04934E+001,-4.91781E+001,9.97993E-001,1.76027E-001,-7.34749E-002,1.03078E-004,1.76027E-001,-7.34749E-002,2.36710E-002,1.76826E-001,1.19242E+000,1.11233E-002,0.00000E+000,-8.38596E-003,9.31466E-001,0.00000E+000,-9.99049E-004,-7.10939E-002,1.00000E+000,31
639,1337,-1.56340E+001,-9.86426E-002,6.39065E-002,3.39698E+000,-6.13907E-001,8.87057E-002,3.45315E+000,1.47112E-002,6.30714E-001,0,5.29073E+001,-1.02628E+001,9.98065E-001,1.05847E+001,-4.98363E+001,9.97379E-001,1.73474E-001,-7.34756E-002,-3.23596E-004,1.73475E-001,-7.34760E-002,-7.50785E-002,1.74149E-001,1.18938E+000,1.10921E-002,0.00000E+000,-9.11813E-003,9.31459E-001,0.00000E+000,-2.01012E-003,-7.11042E-002,1.00000E+000,31
1219,1317,3.03200E+001,-6.11298E-001,-1.02314E-001,1.15447E+001,-1.73119E-001,-6.82369E-002,1.15462E+001,1.94282E-002,4.69005E-001,0,1.72749E+002,-4.12776E+000,9.98259E-001,1.41518E+002,-3.14192E+001,9.95719E-001,1.98683E-001,-8.24716E-002,-7.88374E-004,1.98685E-001,-8.24738E-002,-1.60659E-001,1.99637E-001,1.21970E+000,-1.64988E-002,0.00000E+000,1.13866E-002,9.23043E-001,0.00000E+000,-6.70726E-003,-7.02604E-002,1.00000E+000,31
1219,1327,3.03452E+001,-1.11261E-003,-1.24072E-001,1.15472E+001,-2.14090E-001,-1.10501E-001,1.15497E+001,1.00408E-002,3.97018E-001,0,1.72944E+002,-4.72856E+000,9.99221E-001,1.41923E+002,-3.19182E+001,9.98186E-001,1.99474E-001,-8.24710E-002,-7.62957E-004,1.99476E-001,-8.24730E-002,-1.55044E-001,2.00470E-001,1.22067E+000,-1.64654E-002,0.00000E+000,1.13567E-002,9.23042E-001,0.00000E+000,-6.05462E-003,-7.02377E-002,1.00000E+000,31
1219,1337,3.03814E+001,6.10433E-001,-9.71471E-002,1.15471E+001,-2.65378E-001,-1.55055E-001,1.15512E+001,1.45008E-002,4.71175E-001,0,1.73094E+002,-5.49099E+000,9.98590E-001,1.42558E+002,-3.24322E+001,9.96993E-001,2.00275E-001,-8.24700E-002,-7.29501E-004,2.00277E-001,-8.24719E-002,-1.47825E-001,2.01314E-001,1.22164E+000,-1.64124E-002,0.00000E+000,1.13264E-002,9.23040E-001,0.00000E+000,-5.39316E-003,-7.02018E-002,1.00000E+000,31
1219,1297,3.03132E+001,-1.78743E+000,2.41352E-002,1.15653E+001,-5.05442E-002,2.90809E-002,1.15654E+001,1.40072E-002,3.82767E-001,0,1.72638E+002,-2.32537E+000,9.98336E-001,1.41500E+002,-3.00270E+001,9.96371E-001,1.97095E-001,-8.24726E-002,-8.28627E-004,1.97098E-001,-8.24750E-002,-1.69820E-001,1.97970E-001,1.21778E+000,-1.65390E-002,0.00000E+000,1.14463E-002,9.23044E-001,0.00000E+000,-8.01292E-003,-7.02877E-002,1.00000E+000,31
1219,1307,3.03144E+001,-1.20038E+000,-4.21094E-002,1.15547E+001,-1.11630E-001,-1.51102E-002,1.15553E+001,1.80715E-002,4.25166E-001,0,1.72674E+002,-3.23480E+000,9.98335E-001,1.41471E+002,-3.07329E+001,9.95585E-001,1.97888E-001,-8.24721E-002,-8.09657E-004,1.97891E-001,-8.24745E-002,-1.65463E-001,1.98803E-001,1.21874E+000,-1.65218E-002,0.00000E+000,1.14165E-002,9.23044E-001,0.00000E+000,-7.36089E-003,-7.02760E-002,1.00000E+000,31
629,1347,-1.63756E+001,4.88388E-001,2.70350E-002,3.28412E+000,-6.58965E-001,4.73702E-002,3.34991E+000,1.58330E-002,5.83869E-001,0,5.12991E+001,-1.08660E+001,9.96752E-001,9.29037E+000,-5.08678E+001,9.96335E-001,1.69256E-001,-7.37946E-002,-7.48000E-004,1.69258E-001,-7.37969E-002,-1.76328E-001,1.69720E-001,1.18435E+000,1.41543E-002,0.00000E+000,-1.22718E-002,9.31098E-001,0.00000E+000,-3.11502E-003,-7.06994E-002,1.00000E+000,31
629,1357,-1.63462E+001,1.09137E+000,4.03653E-002,3.29531E+000,-7.00234E-001,1.58116E-002,3.36892E+000,1.33656E-002,5.68193E-001,0,5.15576E+001,-1.14549E+001,9.97193E-001,9.92170E+000,-5.16401E+001,9.97012E-001,1.66787E-001,-7.38015E-002,-9.94058E-004,1.66791E-001,-7.38056E-002,-2.36728E-001,1.67159E-001,1.18143E+000,1.40733E-002,0.00000E+000,-1.26383E-002,9.31087E-001,0.00000E+000,-4.00699E-003,-7.07242E-002,1.00000E+000,31
629,1327,-1.64037E+001,-6.94620E-001,1.30775E-001,3.27414E+000,-5.68327E-001,1.34819E-001,3.32583E+000,1.25108E-002,5.53738E-001,0,5.08930E+001,-9.60228E+000,9.97856E-001,8.86912E+000,-4.92853E+001,9.97409E-001,1.74148E-001,-7.37932E-002,-2.92239E-004,1.74148E-001,-7.37935E-002,-6.75322E-002,1.74822E-001,1.19015E+000,1.42354E-002,0.00000E+000,-1.15424E-002,9.31108E-001,0.00000E+000,-1.33980E-003,-7.06746E-002,1.00000E+000,31
629,1337,-1.63896E+001,-1.04855E-001,6.25468E-002,3.28171E+000,-6.14042E-001,8.91932E-002,3.33985E+000,1.46482E-002,6.07592E-001,0,5.11433E+001,-1.02439E+001,9.97715E-001,9.03459E+000,-5.00482E+001,9.97074E-001,1.71706E-001,-7.37922E-002,-5.15441E-004,1.71707E-001,-7.37933E-002,-1.20296E-001,1.72271E-001,1.18725E+000,1.42058E-002,0.00000E+000,-1.19070E-002,9.31104E-001,0.00000E+000,-2.22718E-003,-7.06837E-002,1.00000E+000,31
1229,1317,3.11386E+001,-5.88558E-001,-1.13407E-001,1.16967E+001,-1.56760E-001,-8.22231E-002,1.16981E+001,2.10877E-002,4.51932E-001,0,1.74924E+002,-3.86599E+000,9.97904E-001,1.44320E+002,-3.09512E+001,9.96658E-001,1.98303E-001,-8.20707E-002,-1.24378E-004,1.98303E-001,-8.20708E-002,-2.54172E-002,1.99281E-001,1.21925E+000,-1.50602E-002,0.00000E+000,1.14981E-002,9.23359E-001,0.00000E+000,-5.94396E-003,-6.94565E-002,1.00000E+000,31
1229,1327,3.11570E+001,7.21426E-003,-1.26073E-001,1.16919E+001,-2.15432E-001,-1.16715E-001,1.16944E+001,1.31348E-002,4.56094E-001,0,1.74985E+002,-4.74711E+000,9.98567E-001,1.44627E+002,-3.16554E+001,9.97338E-001,1.99017E-001,-8.20665E-002,-6.37570E-005,1.99017E-001,-8.20665E-002,-1.29962E-002,2.00033E-001,1.22012E+000,-1.50295E-002,0.00000E+000,1.15294E-002,9.23360E-001,0.00000E+000,-5.15354E-003,-6.94284E-002,1.00000E+000,31
1229,1337,3.11950E+001,6.23068E-001,-1.08722E-001,1.16964E+001,-2.57403E-001,-1.59705E-001,1.17003E+001,1.35839E-002,4.16903E-001,0,1.75198E+002,-5.37184E+000,9.98005E-001,1.45277E+002,-3.21359E+001,9.96878E-001,1.99731E-001,-8.20609E-002,2.22648E-006,1.99731E-001,-8.20609E-002,4.52703E-004,2.00786E-001,1.22099E+000,-1.49855E-002,0.00000E+000,1.15608E-002,9.23362E-001,0.00000E+000,-4.36174E-003,-6.93883E-002,1.00000E+000,31
629,1317,-1.64173E+001,-1.27276E+000,2.29312E-001,3.26258E+000,-5.17995E-001,1.84378E-001,3.30859E+000,1.39203E-002,6.03226E-001,0,5.05651E+001,-8.89811E+000,9.98137E-001,8.80062E+000,-4.83563E+001,9.97489E-001,1.76564E-001,-7.37972E-002,-7.91924E-005,1.76564E-001,-7.37972E-002,-1.81234E-002,1.77354E-001,1.19303E+000,1.42445E-002,0.00000E+000,-1.11806E-002,9.31109E-001,0.00000E+000,-4.59207E-004,-7.06718E-002,1.00000E+000,31
1229,1297,3.11282E+001,-1.77225E+000,1.66083E-002,1.17133E+001,-4.27567E-002,1.65522E-002,1.17134E+001,1.61666E-002,4.34646E-001,0,1.74749E+002,-2.21167E+000,9.97272E-001,1.44248E+002,-2.96538E+001,9.94442E-001,1.96879E-001,-8.20765E-002,-2.34768E-004,1.96879E-001,-8.20767E-002,-4.82199E-002,1.97784E-001,1.21753E+000,-1.50959E-002,0.00000E+000,1.14358E-002,9.23358E-001,0.00000E+000,-7.51654E-003,-6.94890E-002,1.00000E+000,31
1229,1307,3.11414E+001,-1.17605E+000,-3.73176E-002,1.17162E+001,-9.36182E-002,-1.00218E-002,1.17166E+001,2.43752E-002,4.51005E-001,0,1.74907E+002,-3.00060E+000,9.96441E-001,1.44424E+002,-3.02539E+001,9.95050E-001,1.97590E-001,-8.20740E-002,-1.81280E-004,1.97590E-001,-8.20741E-002,-3.71394E-002,1.98532E-001,1.21839E+000,-1.50821E-002,0.00000E+000,1.14669E-002,9.23358E-001,0.00000E+000,-6.73159E-003,-6.94765E-002,1.00000E+000,31
619,1327,-1.71675E+001,-6.95456E-001,1.30001E-001,3.15005E+000,-5.63630E-001,1.35036E-001,3.20292E+000,1.03789E-002,5.54327E-001,0,4.89892E+001,-9.51532E+000,9.97907E-001,7.20208E+000,-4.94035E+001,9.97882E-001,1.72698E-001,-7.31396E-002,-5.57091E-004,1.72699E-001,-7.31409E-002,-1.29837E-001,1.73371E-001,1.18838E+000,1.74978E-002,0.00000E+000,-1.45925E-002,9.31658E-001,0.00000E+000,-1.58989E-003,-7.04367E-002,1.00000E+000,31
619,1337,-1.71489E+001,-1.04601E-001,6.62682E-002,3.16126E+000,-6.08649E-001,8.92995E-002,3.22055E+000,1.25110E-002,6.14556E-001,0,4.92949E+001,-1.01501E+001,9.96508E-001,7.44683E+000,-5.01575E+001,9.96371E-001,1.70132E-001,-7.31386E-002,-6.77590E-004,1.70133E-001,-7.31404E-002,-1.59587E-001,1.70690E-001,1.18534E+000,1.74637E-002,0.00000E+000,-1.47760E-002,9.31656E-001,0.00000E+000,-2.36871E-003,-7.04455E-002,1.00000E+000,31
619,1347,-1.71295E+001,4.92320E-001,2.75529E-002,3.17050E+000,-6.48695E-001,5.14891E-002,3.23659E+000,1.49587E-002,5.94369E-001,0,4.95449E+001,-1.07063E+001,9.96373E-001,7.77871E+000,-5.09131E+001,9.95952E-001,1.67559E-001,-7.31386E-002,-8.03612E-004,1.67562E-001,-7.31413E-002,-1.91289E-001,1.68012E-001,1.18230E+000,1.74164E-002,0.00000E+000,-1.49595E-002,9.31653E-001,0.00000E+000,-3.14710E-003,-7.04576E-002,1.00000E+000,31
619,1357,-1.71011E+001,1.09483E+000,3.31325E-002,3.18186E+000,-6.89286E-001,1.78853E-002,3.25572E+000,1.34577E-002,5.80301E-001,0,4.98119E+001,-1.12820E+001,9.97773E-001,8.37470E+000,-5.16770E+001,9.97534E-001,1.64968E-001,-7.31413E-002,-9.43452E-004,1.64972E-001,-7.31450E-002,-2.27017E-001,1.65324E-001,1.17924E+000,1.73373E-002,0.00000E+000,-1.51437E-002,9.31648E-001,0.00000E+000,-3.92884E-003,-7.04778E-002,1.00000E+000,31
619,1317,-1.71784E+001,-1.27089E+000,2.26238E-001,3.14120E+000,-5.09153E-001,1.82799E-001,3.18744E+000,1.74344E-002,5.83599E-001,0,4.87085E+001,-8.75745E+000,9.97202E-001,7.16884E+000,-4.84359E+001,9.96707E-001,1.75243E-001,-7.31426E-002,-4.47218E-004,1.75244E-001,-7.31434E-002,-1.03160E-001,1.76040E-001,1.19141E+000,1.75077E-002,0.00000E+000,-1.44099E-002,9.31658E-001,0.00000E+000,-8.15203E-004,-7.04342E-002,1.00000E+000,31
1239,1307,3.19445E+001,-1.16856E+000,-6.54879E-002,1.18539E+001,-9.08400E-002,-3.49571E-002,1.18543E+001,2.43019E-002,4.24327E-001,0,1.76921E+002,-2.92470E+000,9.96385E-001,1.46965E+002,-2.99946E+001,9.94769E-001,1.96956E-001,-8.13442E-002,1.06630E-004,1.96956E-001,-8.13443E-002,2.19527E-002,1.97947E-001,1.21763E+000,-1.40125E-002,0.00000E+000,1.12035E-002,9.23995E-001,0.00000E+000,-6.64528E-003,-6.88496E-002,1.00000E+000,31
1239,1317,3.19556E+001,-5.64975E-001,-1.25101E-001,1.18487E+001,-1.37076E-001,-8.93805E-002,1.18499E+001,2.34101E-002,4.22571E-001,0,1.77068E+002,-3.58426E+000,9.97043E-001,1.47101E+002,-3.04753E+001,9.96038E-001,1.97763E-001,-8.13342E-002,2.57019E-004,1.97763E-001,-8.13344E-002,5.27634E-002,1.98799E-001,1.21861E+000,-1.39881E-002,0.00000E+000,1.13791E-002,9.24000E-001,0.00000E+000,-5.41035E-003,-6.88187E-002,1.00000E+000,31
1239,1327,3.19768E+001,2.99272E-002,-1.17588E-001,1.18418E+001,-2.01555E-001,-1.21020E-001,1.18442E+001,1.79465E-002,4.75234E-001,0,1.77082E+002,-4.55083E+000,9.97651E-001,1.47474E+002,-3.12113E+001,9.96573E-001,1.98577E-001,-8.13191E-002,4.15917E-004,1.98577E-001,-8.13197E-002,8.51396E-002,1.99658E-001,1.21959E+000,-1.39460E-002,0.00000E+000,1.15566E-002,9.24007E-001,0.00000E+000,-4.16237E-003,-6.87655E-002,1.00000E+000,31
1239,1337,3.20003E+001,6.42610E-001,-1.08767E-001,1.18353E+001,-2.43953E-001,-1.58646E-001,1.18389E+001,1.51252E-002,3.99292E-001,0,1.77115E+002,-5.18972E+000,9.96977E-001,1.47885E+002,-3.17409E+001,9.94987E-001,1.99382E-001,-8.13033E-002,5.74704E-004,1.99383E-001,-8.13045E-002,1.17313E-001,2.00511E-001,1.22057E+000,-1.39014E-002,0.00000E+000,1.17329E-002,9.24015E-001,0.00000E+000,-2.92338E-003,-6.87090E-002,1.00000E+000,31
1239,1297,3.19406E+001,-1.76020E+000,1.65884E-002,1.18595E+001,-3.57865E-002,1.57378E-002,1.18596E+001,1.52158E-002,4.54064E-001,0,1.76780E+002,-2.14562E+000,9.97319E-001,1.46971E+002,-2.93620E+001,9.95352E-001,1.96148E-001,-8.13514E-002,-3.93318E-005,1.96148E-001,-8.13514E-002,-8.12091E-003,1.97096E-001,1.21666E+000,-1.40266E-002,0.00000E+000,1.10283E-002,9.23993E-001,0.00000E+000,-7.87727E-003,-6.88675E-002,1.00000E+000,31
609,1347,-1.78833E+001,4.90585E-001,2.91991E-002,3.05563E+000,-6.45325E-001,5.13233E-002,3.12345E+000,1.87493E-002,6.20033E-001,0,4.77820E+001,-1.06458E+001,9.96117E-001,6.27552E+000,-5.10404E+001,9.95567E-001,1.65933E-001,-7.16779E-002,-1.06816E-003,1.65937E-001,-7.16827E-002,-2.57562E-001,1.66448E-001,1.18033E+000,2.04672E-002,0.00000E+000,-1.79228E-002,9.32888E-001,0.00000E+000,-2.86359E-003,-6.93035E-002,1.00000E+000,31
609,1357,-1.78572E+001,1.10027E+000,2.98886E-002,3.06578E+000,-6.77635E-001,1.81837E-002,3.13983E+000,1.48341E-002,6.09068E-001,0,4.80268E+001,-1.10957E+001,9.97616E-001,6.82585E+000,-5.16844E+001,9.97143E-001,1.63280E-001,-7.16789E-002,-1.16190E-003,1.63285E-001,-7.16847E-002,-2.83325E-001,1.63690E-001,1.17721E+000,2.03916E-002,0.00000E+000,-1.80226E-002,9.32886E-001,0.00000E+000,-3.78008E-003,-6.93257E-002,1.00000E+000,31
609,1317,-1.79434E+001,-1.27490E+000,2.21017E-001,3.01492E+000,-5.07594E-001,1.75772E-001,3.06240E+000,1.70922E-002,6.16424E-001,0,4.67893E+001,-8.73049E+000,9.97760E-001,5.47480E+000,-4.85757E+001,9.96653E-001,1.73810E-001,-7.16821E-002,-8.44197E-004,1.73813E-001,-7.16850E-002,-1.97025E-001,1.74699E-001,1.18965E+000,2.05595E-002,0.00000E+000,-1.76247E-002,9.32891E-001,0.00000E+000,-1.25663E-004,-6.92764E-002,1.00000E+000,31
609,1327,-1.79282E+001,-7.01397E-001,1.28699E-001,3.02856E+000,-5.65055E-001,1.34822E-001,3.08377E+000,1.20585E-002,6.21712E-001,0,4.71262E+001,-9.54181E+000,9.98129E-001,5.58322E+000,-4.95654E+001,9.97590E-001,1.71196E-001,-7.16795E-002,-9.09197E-004,1.71199E-001,-7.16829E-002,-2.14481E-001,1.71952E-001,1.18655E+000,2.05518E-002,0.00000E+000,-1.77240E-002,9.32891E-001,0.00000E+000,-1.03698E-003,-6.92787E-002,1.00000E+000,31
609,1337,-1.79058E+001,-1.04092E-001,6.70332E-002,3.04361E+000,-6.01924E-001,9.06800E-002,3.10388E+000,1.52892E-002,6.05865E-001,0,4.74844E+001,-1.00382E+001,9.96503E-001,5.89396E+000,-5.02642E+001,9.96031E-001,1.68573E-001,-7.16783E-002,-9.85374E-004,1.68577E-001,-7.16823E-002,-2.34990E-001,1.69204E-001,1.18344E+000,2.05171E-002,0.00000E+000,-1.78232E-002,9.32890E-001,0.00000E+000,-1.94867E-003,-6.92888E-002,1.00000E+000,31
1249,1297,3.27570E+001,-1.74093E+000,2.32899E-002,1.20076E+001,-2.35923E-002,1.59710E-002,1.20076E+001,1.72805E-002,4.80976E-001,0,1.78826E+002,-1.98817E+000,9.97702E-001,1.49768E+002,-2.89684E+001,9.95910E-001,1.95020E-001,-8.05215E-002,1.84157E-004,1.95020E-001,-8.05216E-002,3.82933E-002,1.96004E-001,1.21531E+000,-1.23971E-002,0.00000E+000,1.02691E-002,9.24732E-001,0.00000E+000,-8.51258E-003,-6.82893E-002,1.00000E+000,31
1249,1307,3.27527E+001,-1.15573E+000,-7.16299E-002,1.19963E+001,-8.34249E-002,-3.81223E-002,1.19967E+001,2.11157E-002,4.29217E-001,0,1.78904E+002,-2.83077E+000,9.97676E-001,1.49619E+002,-2.96839E+001,9.95623E-001,1.96045E-001,-8.05069E-002,5.34622E-004,1.96046E-001,-8.05079E-002,1.10762E-001,1.97086E-001,1.21654E+000,-1.23839E-002,0.00000E+000,1.07928E-002,9.24738E-001,0.00000E+000,-6.73847E-003,-6.82702E-002,1.00000E+000,31
1249,1317,3.27599E+001,-5.58976E-001,-1.20904E-001,1.19881E+001,-1.35809E-001,-7.83703E-002,1.19892E+001,2.05230E-002,3.92588E-001,0,1.78952E+002,-3.60340E+000,9.95868E-001,1.49706E+002,-3.03097E+001,9.94385E-001,1.97068E-001,-8.04832E-002,8.92515E-004,1.97071E-001,-8.04861E-002,1.84242E-001,1.98170E-001,1.21778E+000,-1.23547E-002,0.00000E+000,1.13183E-002,9.24751E-001,0.00000E+000,-4.95859E-003,-6.82281E-002,1.00000E+000,31
1249,1327,3.27764E+001,5.22461E-002,-1.36334E-001,1.19791E+001,-1.80834E-001,-1.22735E-001,1.19811E+001,1.98308E-002,4.41250E-001,0,1.78985E+002,-4.27293E+000,9.95977E-001,1.49976E+002,-3.07424E+001,9.95068E-001,1.98095E-001,-8.04486E-002,1.26043E-003,1.98101E-001,-8.04543E-002,2.59261E-001,1.99261E-001,1.21902E+000,-1.23062E-002,0.00000E+000,1.18476E-002,9.24771E-001,0.00000E+000,-3.16578E-003,-6.81583E-002,1.00000E+000,31
1249,1337,3.28037E+001,6.64885E-001,-1.19605E-001,1.19735E+001,-2.27258E-001,-1.62624E-001,1.19768E+001,1.55640E-002,4.28715E-001,0,1.79039E+002,-4.96552E+000,9.97886E-001,1.50455E+002,-3.12564E+001,9.97335E-001,1.99119E-001,-8.04061E-002,1.63419E-003,1.99128E-001,-8.04157E-002,3.34953E-001,2.00352E-001,1.22027E+000,-1.22439E-002,0.00000E+000,1.23777E-002,9.24798E-001,0.00000E+000,-1.37002E-003,-6.80685E-002,1.00000E+000,31
1259,1327,3.35848E+001,6.54678E-002,-1.43380E-001,1.21210E+001,-1.72239E-001,-1.26305E-001,1.21229E+001,1.56537E-002,4.19751E-001,0,1.80961E+002,-4.16704E+000,9.98121E-001,1.52634E+002,-3.04338E+001,9.97663E-001,1.97879E-001,-7.99610E-002,1.96849E-003,1.97892E-001,-7.99750E-002,4.05912E-001,1.99101E-001,1.21877E+000,-1.13826E-002,0.00000E+000,1.23655E-002,9.25172E-001,0.00000E+000,-1.32811E-003,-6.74470E-002,1.00000E+000,31
1259,1337,3.36141E+001,6.75735E-001,-1.24116E-001,1.21168E+001,-2.21816E-001,-1.65297E-001,1.21199E+001,1.47812E-002,4.01361E-001,0,1.81033E+002,-4.90300E+000,9.98700E-001,1.53144E+002,-3.09914E+001,9.98582E-001,1.98972E-001,-7.99017E-002,2.47369E-003,1.98994E-001,-7.99237E-002,5.08177E-001,2.00273E-001,1.22010E+000,-1.13143E-002,0.00000E+000,1.30995E-002,9.25210E-001,0.00000E+000,1.10603E-003,-6.73227E-002,1.00000E+000,31
599,1347,-1.86280E+001,5.03539E-001,4.17752E-002,2.94900E+000,-6.27241E-001,5.91038E-002,3.01555E+000,1.84761E-002,6.23666E-001,0,4.61197E+001,-1.03700E+001,9.97625E-001,4.95219E+000,-5.09761E+001,9.97599E-001,1.65113E-001,-7.16665E-002,-8.09759E-004,1.65116E-001,-7.16693E-002,-1.95942E-001,1.65594E-001,1.17931E+000,2.28366E-002,0.00000E+000,-1.93419E-002,9.32773E-001,0.00000E+000,-2.54363E-003,-6.77865E-002,1.00000E+000,31
599,1357,-1.85987E+001,1.09891E+000,3.73024E-002,2.96299E+000,-6.73536E-001,2.35967E-002,3.03867E+000,1.23200E-002,6.18708E-001,0,4.64344E+001,-1.10325E+001,9.98070E-001,5.53457E+000,-5.18269E+001,9.97776E-001,1.62638E-001,-7.16652E-002,-6.11097E-004,1.62640E-001,-7.16668E-002,-1.49434E-001,1.63021E-001,1.17640E+000,2.27690E-002,0.00000E+000,-1.88991E-002,9.32784E-001,0.00000E+000,-3.50471E-003,-6.78088E-002,1.00000E+000,31
1259,1287,3.35692E+001,-2.31609E+000,1.06247E-001,1.21566E+001,4.14348E-002,4.60878E-002,1.21567E+001,1.76770E-002,4.17835E-001,0,1.80741E+002,-1.01441E+000,9.96702E-001,1.52561E+002,-2.80355E+001,9.93090E-001,1.93469E-001,-8.00743E-002,2.88126E-005,1.93469E-001,-8.00743E-002,6.03502E-003,1.94423E-001,1.21346E+000,-1.14869E-002,0.00000E+000,9.45602E-003,9.25115E-001,0.00000E+000,-1.09768E-002,-6.76367E-002,1.00000E+000,31
1259,1297,3.35618E+001,-1.73148E+000,-8.19345E-003,1.21477E+001,-1.78290E-002,-6.34267E-003,1.21477E+001,1.61174E-002,4.39083E-001,0,1.80857E+002,-1.86519E+000,9.97117E-001,1.52341E+002,-2.86814E+001,9.94241E-001,1.94579E-001,-8.00631E-002,5.03179E-004,1.94580E-001,-8.00640E-002,1.04973E-001,1.95594E-001,1.21478E+000,-1.14840E-002,0.00000E+000,1.01810E-002,9.25117E-001,0.00000E+000,-8.57247E-003,-6.76314E-002,1.00000E+000,31
1259,1307,3.35612E+001,-1.13943E+000,-8.79366E-002,1.21389E+001,-7.24959E-002,-4.98692E-002,1.21392E+001,1.59339E-002,4.33379E-001,0,1.80922E+002,-2.66239E+000,9.97541E-001,1.52270E+002,-2.92977E+001,9.96071E-001,1.95684E-001,-8.00415E-002,9.83884E-004,1.95687E-001,-8.00450E-002,2.04448E-001,1.96763E-001,1.21611E+000,-1.14671E-002,0.00000E+000,1.09073E-002,9.25126E-001,0.00000E+000,-6.16392E-003,-6.76007E-002,1.00000E+000,31
599,1327,-1.86833E+001,-6.82467E-001,1.39568E-001,2.91087E+000,-5.42045E-001,1.38520E-001,2.96415E+000,1.40106E-002,6.03758E-001,0,4.53021E+001,-9.16277E+000,9.97989E-001,4.09654E+000,-4.94134E+001,9.97201E-001,1.70020E-001,-7.16608E-002,-1.22977E-003,1.70026E-001,-7.16670E-002,-2.91534E-001,1.70723E-001,1.18511E+000,2.29125E-002,0.00000E+000,-2.02240E-002,9.32762E-001,0.00000E+000,-6.28988E-004,-6.77614E-002,1.00000E+000,31
599,1337,-1.86600E+001,-9.49022E-002,6.81491E-002,2.92844E+000,-5.87111E-001,9.32544E-002,2.98817E+000,1.29851E-002,6.14960E-001,0,4.57050E+001,-9.80051E+000,9.97566E-001,4.39147E+000,-5.02293E+001,9.97723E-001,1.67576E-001,-7.16654E-002,-1.01512E-003,1.67580E-001,-7.16697E-002,-2.43104E-001,1.68164E-001,1.18222E+000,2.28871E-002,0.00000E+000,-1.97840E-002,9.32766E-001,0.00000E+000,-1.58411E-003,-6.77698E-002,1.00000E+000,31
1259,1317,3.35688E+001,-5.40627E-001,-1.28108E-001,1.21306E+001,-1.23813E-001,-8.21551E-002,1.21315E+001,1.61712E-002,4.37851E-001,0,1.80935E+002,-3.44750E+000,9.98034E-001,1.52371E+002,-2.98891E+001,9.96907E-001,1.96783E-001,-8.00085E-002,1.47165E-003,1.96791E-001,-8.00164E-002,3.04620E-001,1.97932E-001,1.21743E+000,-1.14348E-002,0.00000E+000,1.16353E-002,9.25143E-001,0.00000E+000,-3.74968E-003,-6.75420E-002,1.00000E+000,31
599,1317,-1.87074E+001,-1.26879E+000,2.33877E-001,2.88816E+000,-4.98380E-001,1.80433E-001,2.93639E+000,1.72870E-002,5.96109E-001,0,4.48254E+001,-8.55792E+000,9.97844E-001,3.85635E+000,-4.86251E+001,9.97418E-001,1.72456E-001,-7.16534E-002,-1.45211E-003,1.72465E-001,-7.16620E-002,-3.40814E-001,1.73283E-001,1.18800E+000,2.29188E-002,0.00000E+000,-2.06638E-002,9.32761E-001,0.00000E+000,3.25667E-004,-6.77593E-002,1.00000E+000,31
589,1347,-1.93840E+001,5.15396E-001,4.38542E-002,2.83139E+000,-6.09765E-001,6.09112E-002,2.89694E+000,1.35422E-002,6.30029E-001,0,4.43005E+001,-1.00875E+001,9.97839E-001,3.43073E+000,-5.09063E+001,9.97838E-001,1.64375E-001,-7.13007E-002,-1.21688E-004,1.64375E-001,-7.13008E-002,-2.95839E-002,1.64855E-001,1.17838E+000,2.61273E-002,0.00000E+000,-2.06760E-002,9.32999E-001,0.00000E+000,-2.41454E-003,-6.64059E-002,1.00000E+000,31
589,1357,-1.93487E+001,1.10964E+000,3.99752E-002,2.85096E+000,-6.58201E-001,2.26793E-002,2.92604E+000,1.09111E-002,6.29889E-001,0,4.47095E+001,-1.07690E+001,9.98103E-001,4.10725E+000,-5.17746E+001,9.98389E-001,1.61853E-001,-7.13000E-002,8.05128E-005,1.61853E-001,-7.13001E-002,1.97854E-002,1.62235E-001,1.17541E+000,2.60569E-002,0.00000E+000,-2.02435E-002,9.33010E-001,0.00000E+000,-3.20586E-003,-6.64247E-002,1.00000E+000,31
589,1337,-1.94108E+001,-8.76966E-002,7.55772E-002,2.81497E+000,-5.74999E-001,9.46793E-002,2.87465E+000,9.75301E-003,6.26919E-001,0,4.39527E+001,-9.61005E+000,9.98683E-001,2.96312E+000,-5.02368E+001,9.98788E-001,1.66882E-001,-7.12980E-002,-3.33114E-004,1.66883E-001,-7.12985E-002,-8.01326E-002,1.67471E-001,1.18133E+000,2.61739E-002,0.00000E+000,-2.11072E-002,9.32993E-001,0.00000E+000,-1.62561E-003,-6.63935E-002,1.00000E+000,31
589,1327,-1.94268E+001,-6.60070E-001,1.47949E-001,2.80487E+000,-5.15551E-001,1.42236E-001,2.85540E+000,1.80396E-002,6.70916E-001,0,4.36577E+001,-8.76869E+000,9.98693E-001,2.78647E+000,-4.91591E+001,9.97715E-001,1.69368E-001,-7.12925E-002,-5.51451E-004,1.69369E-001,-7.12938E-002,-1.31287E-001,1.70073E-001,1.18427E+000,2.62003E-002,0.00000E+000,-2.15358E-002,9.32989E-001,0.00000E+000,-8.41188E-004,-6.63864E-002,1.00000E+000,31
1269,1327,3.44012E+001,8.13078E-002,-1.39646E-001,1.22700E+001,-1.63132E-001,-1.20634E-001,1.22716E+001,1.36711E-002,4.24645E-001,0,1.82996E+002,-4.05910E+000,9.98447E-001,1.55433E+002,-3.00943E+001,9.97838E-001,1.97732E-001,-7.92307E-002,2.58463E-003,1.97756E-001,-7.92548E-002,5.34625E-001,1.99050E-001,1.21860E+000,-1.02910E-002,0.00000E+000,1.26592E-002,9.25686E-001,0.00000E+000,-6.28024E-004,-6.48168E-002,1.00000E+000,31
1269,1337,3.44372E+001,6.84179E-001,-1.19209E-001,1.22713E+001,-2.20161E-001,-1.61767E-001,1.22744E+001,1.35156E-002,4.04619E-001,0,1.83163E+002,-4.91503E+000,9.98254E-001,1.56046E+002,-3.07682E+001,9.97081E-001,1.98935E-001,-7.91568E-002,3.19749E-003,1.98971E-001,-7.91936E-002,6.58670E-001,2.00346E-001,1.22007E+000,-1.02133E-002,0.00000E+000,1.35917E-002,9.25736E-001,0.00000E+000,1.85124E-003,-6.46862E-002,1.00000E+000,31
589,1317,-1.94567E+001,-1.24943E+000,2.44844E-001,2.77598E+000,-4.74920E-001,1.85005E-001,2.82238E+000,1.42879E-002,5.83837E-001,0,4.30837E+001,-8.17936E+000,9.97111E-001,2.46503E+000,-4.84611E+001,9.95876E-001,1.71849E-001,-7.12840E-002,-7.78804E-004,1.71851E-001,-7.12865E-002,-1.83528E-001,1.72680E-001,1.18721E+000,2.62052E-002,0.00000E+000,-2.19651E-002,9.32988E-001,0.00000E+000,-5.57927E-005,-6.63851E-002,1.00000E+000,31
1269,1317,3.43900E+001,-5.22630E-001,-1.25565E-001,1.22824E+001,-1.12456E-001,-8.59654E-002,1.22832E+001,1.39766E-002,4.07737E-001,0,1.83047E+002,-3.28315E+000,9.98339E-001,1.55247E+002,-2.95318E+001,9.97361E-001,1.96526E-001,-7.92846E-002,1.98332E-003,1.96541E-001,-7.92988E-002,4.11978E-001,1.97758E-001,1.21713E+000,-1.03440E-002,0.00000E+000,1.17303E-002,9.25653E-001,0.00000E+000,-3.09750E-003,-6.49060E-002,1.00000E+000,31
1269,1307,3.43782E+001,-1.12354E+000,-8.36940E-002,1.22865E+001,-6.34693E-002,-5.19561E-002,1.22868E+001,1.48570E-002,4.23556E-001,0,1.82967E+002,-2.53869E+000,9.97439E-001,1.55082E+002,-2.89687E+001,9.96357E-001,1.95318E-001,-7.93243E-002,1.39099E-003,1.95325E-001,-7.93314E-002,2.90178E-001,1.96468E-001,1.21567E+000,-1.03798E-002,0.00000E+000,1.08055E-002,9.25630E-001,0.00000E+000,-5.55624E-003,-6.49662E-002,1.00000E+000,31
1269,1297,3.43709E+001,-1.72025E+000,-1.47896E-002,1.22901E+001,-1.22098E-002,-9.95969E-003,1.22901E+001,1.57319E-002,4.15759E-001,0,1.82835E+002,-1.77758E+000,9.96982E-001,1.55018E+002,-2.84108E+001,9.96013E-001,1.94102E-001,-7.93545E-002,8.03520E-004,1.94104E-001,-7.93569E-002,1.68355E-001,1.95177E-001,1.21421E+000,-1.04042E-002,0.00000E+000,9.88160E-003,9.25615E-001,0.00000E+000,-8.01242E-003,-6.50072E-002,1.00000E+000,31
1269,1287,3.43819E+001,-2.30786E+000,1.05936E-001,1.23002E+001,4.28113E-002,4.04361E-002,1.23004E+001,2.06532E-002,3.86943E-001,0,1.82743E+002,-9.78148E-001,9.97380E-001,1.55298E+002,-2.78299E+001,9.95277E-001,1.92883E-001,-7.93635E-002,2.28669E-004,1.92883E-001,-7.93637E-002,4.81248E-002,1.93888E-001,1.21276E+000,-1.04024E-002,0.00000E+000,8.96126E-003,9.25616E-001,0.00000E+000,-1.04592E-002,-6.50042E-002,1.00000E+000,31
579,1347,-2.01324E+001,5.22762E-001,4.86487E-002,2.72031E+000,-5.97647E-001,6.12006E-002,2.78586E+000,1.10950E-002,6.40946E-001,0,4.25863E+001,-9.88499E+000,9.98140E-001,2.03805E+000,-5.09081E+001,9.98275E-001,1.62982E-001,-7.07015E-002,6.57322E-004,1.62984E-001,-7.07033E-002,1.61164E-001,1.63460E-001,1.17666E+000,2.95024E-002,0.00000E+000,-2.18962E-002,9.33489E-001,0.00000E+000,-2.82124E-003,-6.57208E-002,1.00000E+000,31
579,1357,-2.00910E+001,1.12809E+000,5.05872E-002,2.74585E+000,-6.35326E-001,2.69192E-002,2.81852E+000,1.17930E-002,6.33234E-001,0,4.30747E+001,-1.03995E+001,9.98752E-001,2.82896E+000,-5.16240E+001,9.98868E-001,1.60257E-001,-7.07017E-002,9.24657E-004,1.60261E-001,-7.07054E-002,2.29382E-001,1.60630E-001,1.17346E+000,2.94259E-002,0.00000E+000,-2.13413E-002,9.33502E-001,0.00000E+000,-3.73202E-003,-6.57426E-002,1.00000E+000,31
579,1337,-2.01661E+001,-7.65916E-002,8.60017E-002,2.69683E+000,-5.59380E-001,1.00568E-001,2.75607E+000,1.14602E-002,6.34743E-001,0,4.21128E+001,-9.36256E+000,9.97587E-001,1.48140E+000,-5.01939E+001,9.98062E-001,1.65689E-001,-7.06966E-002,3.79878E-004,1.65689E-001,-7.06972E-002,9.20758E-002,1.66282E-001,1.17984E+000,2.95518E-002,0.00000E+000,-2.24491E-002,9.33480E-001,0.00000E+000,-1.91371E-003,-6.57068E-002,1.00000E+000,31
579,1327,-2.01942E+001,-6.53053E-001,1.44019E-001,2.67517E+000,-5.04231E-001,1.37479E-001,2.72575E+000,1.20738E-002,6.76906E-001,0,4.16676E+001,-8.55422E+000,9.98537E-001,1.07764E+000,-4.91487E+001,9.98034E-001,1.68370E-001,-7.06886E-002,9.67666E-005,1.68370E-001,-7.06887E-002,2.31923E-002,1.69089E-001,1.18301E+000,2.95827E-002,0.00000E+000,-2.29986E-002,9.33475E-001,0.00000E+000,-1.01176E-003,-6.56980E-002,1.00000E+000,31
579,1317,-2.02138E+001,-1.23344E+000,2.40389E-001,2.65691E+000,-4.56150E-001,1.81341E-001,2.70187E+000,1.75427E-002,6.53764E-001,0,4.12559E+001,-7.86050E+000,9.97044E-001,9.16261E-001,-4.82766E+001,9.95830E-001,1.71041E-001,-7.06764E-002,-1.96182E-004,1.71041E-001,-7.06766E-002,-4.65023E-002,1.71898E-001,1.18617E+000,2.95890E-002,0.00000E+000,-2.35479E-002,9.33474E-001,0.00000E+000,-1.10234E-004,-6.56962E-002,1.00000E+000,31
1279,1317,3.51985E+001,-5.15282E-001,-1.27475E-001,1.24243E+001,-1.09387E-001,-8.17452E-002,1.24251E+001,1.20641E-002,3.80460E-001,0,1.84984E+002,-3.27149E+000,9.97965E-001,1.57921E+002,-2.93308E+001,9.96635E-001,1.96056E-001,-7.82578E-002,2.41987E-003,1.96077E-001,-7.82792E-002,5.05385E-001,1.97400E-001,1.21657E+000,-9.09974E-003,0.00000E+000,1.15702E-002,9.26452E-001,0.00000E+000,-2.35555E-003,-6.22608E-002,1.00000E+000,31
1279,1327,3.52257E+001,9.49596E-002,-1.36867E-001,1.24262E+001,-1.56243E-001,-1.17163E-001,1.24278E+001,2.05135E-002,4.25245E-001,0,1.85145E+002,-3.98195E+000,9.96952E-001,1.58362E+002,-2.97881E+001,9.96791E-001,1.97425E-001,-7.81917E-002,3.13046E-003,1.97461E-001,-7.82272E-002,6.50655E-001,1.98875E-001,1.21824E+000,-9.03541E-003,0.00000E+000,1.26942E-002,9.26496E-001,0.00000E+000,2.57083E-004,-6.21602E-002,1.00000E+000,31
1279,1337,3.52589E+001,6.97538E-001,-1.15286E-001,1.24247E+001,-2.15119E-001,-1.56664E-001,1.24275E+001,1.60772E-002,4.26101E-001,0,1.85262E+002,-4.85910E+000,9.97815E-001,1.58931E+002,-3.04577E+001,9.97458E-001,1.98789E-001,-7.81051E-002,3.85204E-003,1.98843E-001,-7.81587E-002,7.96870E-001,2.00353E-001,1.21991E+000,-8.94704E-003,0.00000E+000,1.38216E-002,9.26555E-001,0.00000E+000,2.87788E-003,-6.20219E-002,1.00000E+000,31
1279,1307,3.51802E+001,-1.11415E+000,-8.73628E-002,1.24232E+001,-5.83387E-002,-4.49821E-002,1.24235E+001,1.36130E-002,4.29972E-001,0,1.84816E+002,-2.50342E+000,9.97891E-001,1.57652E+002,-2.87175E+001,9.95990E-001,1.94688E-001,-7.83065E-002,1.72238E-003,1.94699E-001,-7.83173E-002,3.61473E-001,1.95935E-001,1.21491E+000,-9.14363E-003,0.00000E+000,1.04553E-002,9.26423E-001,0.00000E+000,-4.94727E-003,-6.23295E-002,1.00000E+000,31
1279,1297,3.51807E+001,-1.70269E+000,-7.82612E-003,1.24313E+001,5.95737E-004,-5.21880E-003,1.24313E+001,2.47087E-002,3.65328E-001,0,1.84749E+002,-1.60903E+000,9.96852E-001,1.57723E+002,-2.80842E+001,9.95786E-001,1.93311E-001,-7.83340E-002,1.03457E-003,1.93315E-001,-7.83379E-002,2.18208E-001,1.94469E-001,1.21326E+000,-9.16269E-003,0.00000E+000,9.34044E-003,9.26410E-001,0.00000E+000,-7.53878E-003,-6.23593E-002,1.00000E+000,31
1279,1287,3.51848E+001,-2.31195E+000,8.65990E-002,1.24385E+001,3.57277E-002,3.34505E-002,1.24386E+001,2.30180E-002,2.75710E-001,0,1.84680E+002,-1.04973E+000,9.97243E-001,1.57866E+002,-2.78170E+001,9.94970E-001,1.91928E-001,-7.83516E-002,3.53061E-004,1.91929E-001,-7.83521E-002,7.48441E-002,1.93003E-001,1.21161E+000,-9.17069E-003,0.00000E+000,8.22905E-003,9.26405E-001,0.00000E+000,-1.01222E-002,-6.23719E-002,1.00000E+000,31
569,1347,-2.08800E+001,5.41070E-001,5.85975E-002,2.60990E+000,-5.74682E-001,6.83201E-002,2.67330E+000,1.19795E-002,6.53068E-001,0,4.08597E+001,-9.52328E+000,9.97844E-001,6.80840E-001,-5.07529E+001,9.97589E-001,1.62097E-001,-6.99851E-002,1.28396E-003,1.62104E-001,-6.99923E-002,3.16968E-001,1.62606E-001,1.17553E+000,3.30270E-002,0.00000E+000,-2.35388E-002,9.34088E-001,0.00000E+000,-2.92263E-003,-6.52104E-002,1.00000E+000,31
569,1357,-2.08417E+001,1.13706E+000,5.16445E-002,2.63381E+000,-6.19348E-001,3.28094E-002,2.70585E+000,1.11558E-002,6.38076E-001,0,4.13282E+001,-1.01564E+001,9.98457E-001,1.39777E+000,-5.15987E+001,9.98190E-001,1.59221E-001,-6.99891E-002,1.67932E-003,1.59234E-001,-7.00014E-002,4.19750E-001,1.59620E-001,1.17216E+000,3.29537E-002,0.00000E+000,-2.27408E-002,9.34105E-001,0.00000E+000,-4.10897E-003,-6.52363E-002,1.00000E+000,31
569,1327,-2.09432E+001,-6.50539E-001,1.43433E-001,2.56423E+000,-4.96351E-001,1.40269E-001,2.61559E+000,1.82481E-002,6.77999E-001,0,3.99496E+001,-8.41772E+000,9.98749E-001,-3.35994E-001,-4.92147E+001,9.98534E-001,1.67796E-001,-6.99633E-002,4.73241E-004,1.67796E-001,-6.99642E-002,1.14042E-001,1.68566E-001,1.18223E+000,3.31158E-002,0.00000E+000,-2.51286E-002,9.34067E-001,0.00000E+000,-5.59105E-004,-6.51791E-002,1.00000E+000,31
569,1337,-2.09137E+001,-5.68011E-002,9.20782E-002,2.58578E+000,-5.35927E-001,1.00066E-001,2.64263E+000,1.13358E-002,6.45194E-001,0,4.03962E+001,-8.97137E+000,9.97899E-001,1.13952E-001,-5.00062E+001,9.98023E-001,1.64957E-001,-6.99752E-002,8.79266E-004,1.64960E-001,-6.99785E-002,2.14434E-001,1.65590E-001,1.17889E+000,3.30754E-002,0.00000E+000,-2.43352E-002,9.34076E-001,0.00000E+000,-1.73860E-003,-6.51934E-002,1.00000E+000,31
1289,1327,3.60280E+001,1.00353E-001,-1.49429E-001,1.25627E+001,-1.55343E-001,-1.18210E-001,1.25643E+001,1.85960E-002,4.14552E-001,0,1.87024E+002,-3.98879E+000,9.96187E-001,1.60930E+002,-2.95852E+001,9.95538E-001,1.97111E-001,-7.68276E-002,3.65840E-003,1.97160E-001,-7.68765E-002,7.64992E-001,1.98746E-001,1.21787E+000,-7.40808E-003,0.00000E+000,1.24301E-002,9.27612E-001,0.00000E+000,9.73529E-004,-5.93885E-002,1.00000E+000,31
1289,1337,3.60660E+001,7.12608E-001,-1.18601E-001,1.25659E+001,-2.04985E-001,-1.47783E-001,1.25684E+001,1.76232E-002,4.28536E-001,0,1.87165E+002,-4.75002E+000,9.97505E-001,1.61581E+002,-3.01161E+001,9.96894E-001,1.98727E-001,-7.67324E-002,4.46562E-003,1.98799E-001,-7.68048E-002,9.28528E-001,2.00504E-001,1.21986E+000,-7.30329E-003,0.00000E+000,1.37058E-002,9.27679E-001,0.00000E+000,3.75468E-003,-5.92417E-002,1.00000E+000,31
569,1317,-2.09706E+001,-1.22140E+000,2.43906E-001,2.53659E+000,-4.39081E-001,1.78982E-001,2.58052E+000,2.01638E-002,6.31447E-001,0,3.94024E+001,-7.57419E+000,9.97311E-001,-6.01409E-001,-4.82159E+001,9.95895E-001,1.70621E-001,-6.99416E-002,5.06786E-005,1.70621E-001,-6.99416E-002,1.20703E-002,1.71542E-001,1.18558E+000,3.31147E-002,0.00000E+000,-2.59213E-002,9.34067E-001,0.00000E+000,6.19425E-004,-6.51796E-002,1.00000E+000,31
1289,1317,3.60037E+001,-5.07835E-001,-1.29321E-001,1.25614E+001,-1.10027E-001,-8.09806E-002,1.25621E+001,1.87051E-002,4.71912E-001,0,1.86861E+002,-3.31634E+000,9.98047E-001,1.60547E+002,-2.90697E+001,9.95619E-001,1.95497E-001,-7.68944E-002,2.87095E-003,1.95528E-001,-7.69247E-002,6.03795E-001,1.97003E-001,1.21590E+000,-7.47721E-003,0.00000E+000,1.11651E-002,9.27567E-001,0.00000E+000,-1.78430E-003,-5.94853E-002,1.00000E+000,31
1289,1287,3.59888E+001,-2.28810E+000,7.66704E-002,1.25756E+001,5.39464E-002,2.95941E-002,1.25757E+001,2.35202E-002,3.96563E-001,0,1.86567E+002,-8.29076E-001,9.97473E-001,1.60464E+002,-2.72734E+001,9.94435E-001,1.90605E-001,-7.69971E-002,5.61050E-004,1.90606E-001,-7.69982E-002,1.20125E-001,1.91774E-001,1.21001E+000,-7.56488E-003,0.00000E+000,7.38277E-003,9.27511E-001,0.00000E+000,-1.00303E-002,-5.96081E-002,1.00000E+000,31
1289,1297,3.59825E+001,-1.69387E+000,-1.87039E-002,1.25626E+001,3.99529E-003,-2.30367E-002,1.25627E+001,2.73073E-002,3.41390E-001,0,1.86616E+002,-1.54862E+000,9.97507E-001,1.60288E+002,-2.78435E+001,9.94876E-001,1.92239E-001,-7.69709E-002,1.32403E-003,1.92245E-001,-7.69774E-002,2.81784E-001,1.93512E-001,1.21197E+000,-7.54484E-003,0.00000E+000,8.63740E-003,9.27524E-001,0.00000E+000,-7.29502E-003,-5.95800E-002,1.00000E+000,31
1289,1307,3.59928E+001,-1.10534E+000,-8.87173E-002,1.25665E+001,-5.64962E-002,-4.88042E-002,1.25667E+001,1.62313E-002,4.56547E-001,0,1.86800E+002,-2.49353E+000,9.98903E-001,1.60396E+002,-2.84694E+001,9.96986E-001,1.93874E-001,-7.69443E-002,2.09207E-003,1.93891E-001,-7.69605E-002,4.42574E-001,1.95259E-001,1.21394E+000,-7.52555E-003,0.00000E+000,9.90161E-003,9.27536E-001,0.00000E+000,-4.53889E-003,-5.95530E-002,1.00000E+000,31
559,1327,-2.16832E+001,-6.39905E-001,1.49967E-001,2.46098E+000,-4.81971E-001,1.44565E-001,2.51189E+000,3.18085E-002,7.84595E-001,0,3.83437E+001,-8.22473E+000,9.99011E-001,-1.58425E+000,-4.91177E+001,9.98247E-001,1.67143E-001,-6.97097E-002,1.08700E-003,1.67147E-001,-6.97147E-002,2.62943E-001,1.67912E-001,1.18135E+000,3.68950E-002,0.00000E+000,-2.69926E-002,9.34184E-001,0.00000E+000,-2.75027E-004,-6.40414E-002,1.00000E+000,31
559,1337,-2.16611E+001,-4.37775E-002,9.11092E-002,2.47539E+000,-5.18006E-001,9.83565E-002,2.53092E+000,9.46505E-003,6.60302E-001,0,3.86928E+001,-8.67287E+000,9.99114E-001,-1.26940E+000,-4.99051E+001,9.99160E-001,1.64378E-001,-6.97206E-002,1.40029E-003,1.64387E-001,-6.97289E-002,3.42704E-001,1.65016E-001,1.17809E+000,3.68575E-002,0.00000E+000,-2.63736E-002,9.34192E-001,0.00000E+000,-1.62524E-003,-6.40569E-002,1.00000E+000,31
559,1347,-2.16329E+001,5.54349E-001,5.72773E-002,2.49411E+000,-5.54748E-001,6.56451E-002,2.55590E+000,1.44507E-002,6.20618E-001,0,3.90733E+001,-9.19135E+000,9.97945E-001,-7.85529E-001,-5.06736E+001,9.97321E-001,1.61597E-001,-6.97297E-002,1.71091E-003,1.61610E-001,-6.97424E-002,4.23731E-001,1.62114E-001,1.17483E+000,3.68109E-002,0.00000E+000,-2.57530E-002,9.34200E-001,0.00000E+000,-2.97892E-003,-6.40763E-002,1.00000E+000,31
559,1357,-2.15909E+001,1.15054E+000,5.01794E-002,2.52249E+000,-5.98138E-001,3.37319E-002,2.59266E+000,1.28492E-002,6.07156E-001,0,3.96022E+001,-9.81872E+000,9.97872E-001,-1.12950E-002,-5.15167E+001,9.97744E-001,1.58796E-001,-6.97351E-002,2.01433E-003,1.58814E-001,-6.97529E-002,5.04967E-001,1.59205E-001,1.17155E+000,3.67436E-002,0.00000E+000,-2.51301E-002,9.34213E-001,0.00000E+000,-4.33751E-003,-6.41041E-002,1.00000E+000,31
559,1317,-2.17176E+001,-1.20139E+000,2.52331E-001,2.42581E+000,-4.15950E-001,1.82439E-001,2.46796E+000,3.02271E-002,6.74902E-001,0,3.76792E+001,-7.20842E+000,9.98602E-001,-1.94773E+000,-4.80095E+001,9.97528E-001,1.69897E-001,-6.96915E-002,7.56979E-004,1.69899E-001,-6.96939E-002,1.81024E-001,1.70810E-001,1.18461E+000,3.68916E-002,0.00000E+000,-2.76117E-002,9.34185E-001,0.00000E+000,1.07557E-003,-6.40428E-002,1.00000E+000,31
1299,1327,3.68389E+001,1.15647E-001,-1.47067E-001,1.27033E+001,-1.47478E-001,-1.19300E-001,1.27047E+001,2.37818E-002,4.27415E-001,0,1.88951E+002,-3.89038E+000,9.96525E-001,1.63653E+002,-2.92486E+001,9.95026E-001,1.96946E-001,-7.52804E-002,4.18513E-003,1.97010E-001,-7.53447E-002,8.80572E-001,1.98817E-001,1.21769E+000,-5.12725E-003,0.00000E+000,1.16704E-002,9.28896E-001,0.00000E+000,1.69020E-003,-5.62785E-002,1.00000E+000,31
1299,1337,3.68914E+001,7.24970E-001,-1.13964E-001,1.27195E+001,-2.01711E-001,-1.51147E-001,1.27220E+001,2.17640E-002,4.57824E-001,0,1.89293E+002,-4.71592E+000,9.96145E-001,1.64531E+002,-2.98189E+001,9.94995E-001,1.98869E-001,-7.51753E-002,5.07076E-003,1.98963E-001,-7.52691E-002,1.05968E+000,2.00918E-001,1.22005E+000,-4.99723E-003,0.00000E+000,1.30750E-002,9.28973E-001,0.00000E+000,4.68591E-003,-5.61139E-002,1.00000E+000,31
1299,1287,3.68016E+001,-2.27941E+000,8.10651E-002,1.27166E+001,5.38048E-002,2.42886E-002,1.27167E+001,1.72455E-002,4.66046E-001,0,1.88515E+002,-8.45667E-001,9.97890E-001,1.63218E+002,-2.70214E+001,9.96070E-001,1.89215E-001,-7.54512E-002,8.14020E-004,1.89217E-001,-7.54537E-002,1.76220E-001,1.90505E-001,1.20835E+000,-5.30884E-003,0.00000E+000,6.12576E-003,9.28788E-001,0.00000E+000,-1.01350E-002,-5.65085E-002,1.00000E+000,31
1299,1297,3.68052E+001,-1.69013E+000,7.45087E-003,1.27150E+001,-8.35209E-004,-1.20429E-003,1.27150E+001,1.77998E-002,4.64344E-001,0,1.88618E+002,-1.71814E+000,9.98749E-001,1.63220E+002,-2.76859E+001,9.96588E-001,1.91158E-001,-7.54289E-002,1.64263E-003,1.91168E-001,-7.54390E-002,3.53022E-001,1.92578E-001,1.21067E+000,-5.29004E-003,0.00000E+000,7.50480E-003,9.28799E-001,0.00000E+000,-7.19388E-003,-5.64847E-002,1.00000E+000,31
1299,1307,3.68263E+001,-1.08678E+000,-4.98213E-002,1.27255E+001,-4.70478E-002,-2.96176E-002,1.27256E+001,3.45702E-002,5.09175E-001,0,1.88899E+002,-2.43659E+000,9.98216E-001,1.63514E+002,-2.81415E+001,9.96619E-001,1.93100E-001,-7.53919E-002,2.48409E-003,1.93123E-001,-7.54149E-002,5.30039E-001,1.94661E-001,1.21301E+000,-5.25203E-003,0.00000E+000,8.89308E-003,9.28822E-001,0.00000E+000,-4.23306E-003,-5.64365E-002,1.00000E+000,31
1299,1317,3.68339E+001,-4.87352E-001,-1.08340E-001,1.27177E+001,-9.85559E-002,-7.71672E-002,1.27183E+001,3.06849E-002,4.83273E-001,0,1.88989E+002,-3.17640E+000,9.96790E-001,1.63594E+002,-2.86931E+001,9.94566E-001,1.95030E-001,-7.53416E-002,3.33217E-003,1.95071E-001,-7.53827E-002,7.05994E-001,1.96741E-001,1.21535E+000,-5.19662E-003,0.00000E+000,1.02817E-002,9.28855E-001,0.00000E+000,-1.27147E-003,-5.63664E-002,1.00000E+000,31
559,1307,-2.17486E+001,-1.78083E+000,3.67063E-001,2.39236E+000,-3.69027E-001,2.21634E-001,2.43078E+000,1.48149E-002,6.50612E-001,0,3.70418E+001,-6.54413E+000,9.97409E-001,-2.22618E+000,-4.71581E+001,9.96305E-001,1.72641E-001,-6.96717E-002,4.23910E-004,1.72641E-001,-6.96724E-002,1.00235E-001,1.73708E-001,1.18787E+000,3.68796E-002,0.00000E+000,-2.82308E-002,9.34187E-001,0.00000E+000,2.42591E-003,-6.40478E-002,1.00000E+000,31
549,1347,-2.23732E+001,5.70999E-001,5.38662E-002,2.39056E+000,-5.33729E-001,6.10314E-002,2.45017E+000,1.28874E-002,6.55422E-001,0,3.74810E+001,-8.83780E+000,9.97698E-001,-2.05976E+000,-5.05031E+001,9.97265E-001,1.61128E-001,-6.93837E-002,2.20228E-003,1.61149E-001,-6.94048E-002,5.47330E-001,1.61664E-001,1.17416E+000,4.03797E-002,0.00000E+000,-2.76914E-002,9.34391E-001,0.00000E+000,-2.89133E-003,-6.27312E-002,1.00000E+000,31
549,1357,-2.23314E+001,1.17604E+000,5.16757E-002,2.41796E+000,-5.69078E-001,2.87428E-002,2.48419E+000,1.41432E-002,6.45235E-001,0,3.79928E+001,-9.33577E+000,9.97692E-001,-1.27152E+000,-5.12216E+001,9.97508E-001,1.58443E-001,-6.93900E-002,2.50213E-003,1.58471E-001,-6.94175E-002,6.29137E-001,1.58876E-001,1.17102E+000,4.03122E-002,0.00000E+000,-2.70793E-002,9.34404E-001,0.00000E+000,-4.27972E-003,-6.27611E-002,1.00000E+000,31
549,1327,-2.24584E+001,-6.13057E-001,1.70848E-001,2.32054E+000,-4.50741E-001,1.53228E-001,2.36887E+000,2.52882E-002,7.26830E-001,0,3.61370E+001,-7.72060E+000,9.97925E-001,-3.31483E+000,-4.88897E+001,9.96021E-001,1.66444E-001,-6.93594E-002,1.57971E-003,1.66454E-001,-6.93699E-002,3.83816E-001,1.67222E-001,1.18041E+000,4.04508E-002,0.00000E+000,-2.89100E-002,9.34377E-001,0.00000E+000,-1.27048E-004,-6.26998E-002,1.00000E+000,31
549,1337,-2.24074E+001,-2.31691E-002,9.36079E-002,2.36546E+000,-4.91116E-001,9.76183E-002,2.41787E+000,9.64998E-003,6.47122E-001,0,3.69894E+001,-8.24874E+000,9.98779E-001,-2.61630E+000,-4.97094E+001,9.98845E-001,1.63801E-001,-6.93728E-002,1.89255E-003,1.63816E-001,-6.93882E-002,4.65001E-001,1.64453E-001,1.17730E+000,4.04223E-002,0.00000E+000,-2.83030E-002,9.34383E-001,0.00000E+000,-1.50398E-003,-6.27124E-002,1.00000E+000,31
1309,1317,3.76302E+001,-4.86468E-001,-1.33523E-001,1.28474E+001,-1.01471E-001,-9.05387E-002,1.28481E+001,2.44199E-002,4.41190E-001,0,1.90816E+002,-3.20512E+000,9.96501E-001,1.66063E+002,-2.85512E+001,9.94842E-001,1.95001E-001,-7.40770E-002,3.94203E-003,1.95059E-001,-7.41347E-002,8.39150E-001,1.96921E-001,1.21533E+000,-2.09353E-003,0.00000E+000,9.05145E-003,9.29880E-001,0.00000E+000,-9.01161E-004,-5.30575E-002,1.00000E+000,31
1309,1327,3.76567E+001,1.23832E-001,-1.53920E-001,1.28517E+001,-1.45067E-001,-1.24079E-001,1.28532E+001,2.85233E-002,4.14584E-001,0,1.91010E+002,-3.86900E+000,9.95766E-001,1.66479E+002,-2.90146E+001,9.93690E-001,1.97247E-001,-7.40171E-002,4.74144E-003,1.97330E-001,-7.40999E-002,1.00107E+000,1.99358E-001,1.21807E+000,-2.00049E-003,0.00000E+000,1.03291E-002,9.29923E-001,0.00000E+000,2.21199E-003,-5.29519E-002,1.00000E+000,31
1309,1337,3.77029E+001,7.37857E-001,-1.25269E-001,1.28627E+001,-1.93932E-001,-1.55507E-001,1.28651E+001,2.84927E-002,4.41804E-001,0,1.91274E+002,-4.61514E+000,9.97013E-001,1.67251E+002,-2.95025E+001,9.96180E-001,1.99497E-001,-7.39261E-002,5.56830E-003,1.99610E-001,-7.40394E-002,1.16619E+000,2.01815E-001,1.22084E+000,-1.85298E-003,0.00000E+000,1.16181E-002,9.29992E-001,0.00000E+000,5.35277E-003,-5.27844E-002,1.00000E+000,31
549,1317,-2.24716E+001,-1.18662E+000,2.68917E-001,2.30772E+000,-3.97433E-001,1.94167E-001,2.34973E+000,2.16916E-002,7.44109E-001,0,3.58193E+001,-6.95510E+000,9.98424E-001,-3.37115E+000,-4.78891E+001,9.97254E-001,1.69077E-001,-6.93410E-002,1.25628E-003,1.69084E-001,-6.93476E-002,3.01893E-001,1.69992E-001,1.18352E+000,4.04529E-002,0.00000E+000,-2.95170E-002,9.34377E-001,0.00000E+000,1.24977E-003,-6.26989E-002,1.00000E+000,31
549,1307,-2.24969E+001,-1.76523E+000,3.58458E-001,2.28088E+000,-3.49048E-001,2.13806E-001,2.31732E+000,1.45000E-002,6.87301E-001,0,3.53367E+001,-6.21000E+000,9.97889E-001,-3.63677E+000,-4.69853E+001,9.97272E-001,1.71707E-001,-6.93209E-002,9.28766E-004,1.71710E-001,-6.93244E-002,2.20777E-001,1.72768E-001,1.18664E+000,4.04456E-002,0.00000E+000,-3.01252E-002,9.34378E-001,0.00000E+000,2.62948E-003,-6.27021E-002,1.00000E+000,31
1309,1287,3.76133E+001,-2.27789E+000,7.56366E-002,1.28552E+001,4.95119E-002,5.83887E-003,1.28553E+001,1.52186E-002,4.57905E-001,0,1.90485E+002,-9.13063E-001,9.98005E-001,1.65951E+002,-2.68991E+001,9.96105E-001,1.88200E-001,-7.41537E-002,1.62102E-003,1.88210E-001,-7.41637E-002,3.53999E-001,1.89613E-001,1.20714E+000,-2.19732E-003,0.00000E+000,5.23591E-003,9.29832E-001,0.00000E+000,-1.01982E-002,-5.31753E-002,1.00000E+000,31
1309,1297,3.76151E+001,-1.69338E+000,-7.89274E-003,1.28535E+001,-1.15958E-002,-2.28369E-002,1.28535E+001,2.07698E-002,4.56186E-001,0,1.90605E+002,-1.84120E+000,9.97840E-001,1.65914E+002,-2.76152E+001,9.95373E-001,1.90481E-001,-7.41401E-002,2.38633E-003,1.90502E-001,-7.41616E-002,5.16632E-001,1.92052E-001,1.20986E+000,-2.18256E-003,0.00000E+000,6.50645E-003,9.29839E-001,0.00000E+000,-7.10234E-003,-5.31586E-002,1.00000E+000,31
1309,1307,3.76154E+001,-1.08637E+000,-9.86675E-002,1.28489E+001,-4.86087E-002,-6.40142E-002,1.28492E+001,2.29973E-002,3.87188E-001,0,1.90727E+002,-2.37843E+000,9.97692E-001,1.65848E+002,-2.79985E+001,9.96704E-001,1.92739E-001,-7.41224E-002,3.15126E-003,1.92776E-001,-7.41596E-002,6.76458E-001,1.94477E-001,1.21258E+000,-2.16205E-003,0.00000E+000,7.77315E-003,9.29848E-001,0.00000E+000,-4.01589E-003,-5.31353E-002,1.00000E+000,31
539,1347,-2.31191E+001,5.92104E-001,5.56792E-002,2.28079E+000,-5.06891E-001,6.05540E-002,2.33723E+000,1.15624E-002,6.36891E-001,0,3.57771E+001,-8.39811E+000,9.98079E-001,-3.39791E+000,-5.03032E+001,9.98004E-001,1.60749E-001,-6.88589E-002,2.37625E-003,1.60773E-001,-6.88835E-002,5.92880E-001,1.61321E-001,1.17360E+000,4.35262E-002,0.00000E+000,-2.98989E-002,9.34733E-001,0.00000E+000,-2.80701E-003,-6.13299E-002,1.00000E+000,31
539,1357,-2.30765E+001,1.20000E+000,4.85246E-002,2.31016E+000,-5.38694E-001,2.92858E-002,2.37232E+000,1.05481E-002,6.26331E-001,0,3.63166E+001,-8.83626E+000,9.98700E-001,-2.60946E+000,-5.09692E+001,9.98462E-001,1.58250E-001,-6.88661E-002,2.63013E-003,1.58280E-001,-6.88965E-002,6.63398E-001,1.58722E-001,1.17068E+000,4.34684E-002,0.00000E+000,-2.93784E-002,9.34744E-001,0.00000E+000,-4.27355E-003,-6.13589E-002,1.00000E+000,31
539,1327,-2.31899E+001,-5.89475E-001,1.48832E-001,2.22547E+000,-4.19649E-001,1.31673E-001,2.26851E+000,1.33954E-002,6.35274E-001,0,3.47175E+001,-7.16017E+000,9.96006E-001,-4.50495E+000,-4.86314E+001,9.96160E-001,1.65705E-001,-6.88365E-002,1.85077E-003,1.65719E-001,-6.88512E-002,4.52084E-001,1.66507E-001,1.17943E+000,4.35934E-002,0.00000E+000,-3.09367E-002,9.34721E-001,0.00000E+000,1.17103E-004,-6.12961E-002,1.00000E+000,31
539,1337,-2.31541E+001,2.23868E-003,9.30648E-002,2.25473E+000,-4.60251E-001,9.44176E-002,2.30317E+000,1.21873E-002,6.31618E-001,0,3.52767E+001,-7.74097E+000,9.97501E-001,-3.97304E+000,-4.94351E+001,9.97641E-001,1.63236E-001,-6.88485E-002,2.11494E-003,1.63256E-001,-6.88678E-002,5.22065E-001,1.63919E-001,1.17652E+000,4.35650E-002,0.00000E+000,-3.04189E-002,9.34727E-001,0.00000E+000,-1.34177E-003,-6.13103E-002,1.00000E+000,31
1319,1297,3.84046E+001,-1.68570E+000,-4.20729E-002,1.29760E+001,-6.07165E-003,-4.56074E-002,1.29761E+001,1.84053E-002,3.48626E-001,0,1.92362E+002,-1.70745E+000,9.98190E-001,1.68274E+002,-2.73860E+001,9.96098E-001,1.89923E-001,-7.27715E-002,3.36150E-003,1.89966E-001,-7.28145E-002,7.33011E-001,1.91683E-001,1.20920E+000,1.79601E-003,0.00000E+000,5.29142E-003,9.30954E-001,0.00000E+000,-7.54813E-003,-4.95594E-002,1.00000E+000,31
1319,1307,3.84165E+001,-1.08768E+000,-1.14228E-001,1.29798E+001,-5.48668E-002,-7.98059E-002,1.29802E+001,2.27344E-002,3.32039E-001,0,1.92576E+002,-2.45173E+000,9.97754E-001,1.68409E+002,-2.79199E+001,9.96915E-001,1.92551E-001,-7.27503E-002,4.11791E-003,1.92615E-001,-7.28142E-002,8.89038E-001,1.94516E-001,1.21237E+000,1.83584E-003,0.00000E+000,6.53675E-003,9.30970E-001,0.00000E+000,-4.23879E-003,-4.95177E-002,1.00000E+000,31
539,1307,-2.32467E+001,-1.75312E+000,3.45130E-001,2.16710E+000,-3.30937E-001,1.98046E-001,2.20115E+000,1.03712E-002,6.58014E-001,0,3.36131E+001,-5.88614E+000,9.98272E-001,-5.07931E+000,-4.68895E+001,9.97845E-001,1.70601E-001,-6.88022E-002,1.29846E-003,1.70608E-001,-6.88092E-002,3.10745E-001,1.71668E-001,1.18522E+000,4.35864E-002,0.00000E+000,-3.19695E-002,9.34723E-001,0.00000E+000,3.02691E-003,-6.12996E-002,1.00000E+000,31
539,1317,-2.32197E+001,-1.17898E+000,2.39627E-001,2.19638E+000,-3.81591E-001,1.67296E-001,2.23555E+000,1.24783E-002,6.63307E-001,0,3.41629E+001,-6.63639E+000,9.97208E-001,-4.83881E+000,-4.78552E+001,9.96501E-001,1.68159E-001,-6.88205E-002,1.57700E-003,1.68169E-001,-6.88310E-002,3.81257E-001,1.69089E-001,1.18232E+000,4.35966E-002,0.00000E+000,-3.14535E-002,9.34721E-001,0.00000E+000,1.57305E-003,-6.12945E-002,1.00000E+000,31
1319,1287,3.84131E+001,-2.28470E+000,5.71199E-002,1.29857E+001,3.78995E-002,-9.90333E-003,1.29858E+001,1.94776E-002,4.23954E-001,0,1.92329E+002,-1.06592E+000,9.97651E-001,1.68488E+002,-2.68931E+001,9.96656E-001,1.87284E-001,-7.27755E-002,2.62112E-003,1.87311E-001,-7.28020E-002,5.77402E-001,1.88852E-001,1.20605E+000,1.79056E-003,0.00000E+000,4.05007E-003,9.30952E-001,0.00000E+000,-1.08469E-002,-4.95651E-002,1.00000E+000,31
529,1327,-2.39331E+001,-5.71684E-001,1.51120E-001,2.11752E+000,-3.96538E-001,1.28929E-001,2.15818E+000,1.19565E-002,6.37190E-001,0,3.30471E+001,-6.79116E+000,9.95809E-001,-5.79493E+000,-4.84690E+001,9.96001E-001,1.65142E-001,-6.77531E-002,2.23292E-003,1.65164E-001,-6.77745E-002,5.49266E-001,1.66046E-001,1.17868E+000,4.57264E-002,0.00000E+000,-3.20071E-002,9.35620E-001,0.00000E+000,9.67327E-004,-5.98213E-002,1.00000E+000,31
529,1307,-2.39906E+001,-1.73311E+000,3.47632E-001,2.05779E+000,-3.06312E-001,1.92043E-001,2.08931E+000,1.41825E-002,6.17703E-001,0,3.19302E+001,-5.46796E+000,9.98424E-001,-6.37778E+000,-4.67106E+001,9.97764E-001,1.69382E-001,-6.77488E-002,2.09754E-003,1.69401E-001,-6.77674E-002,5.06755E-001,1.70526E-001,1.18370E+000,4.57180E-002,0.00000E+000,-3.22849E-002,9.35620E-001,0.00000E+000,4.25100E-003,-5.98267E-002,1.00000E+000,31
529,1317,-2.39642E+001,-1.15801E+000,2.36636E-001,2.08796E+000,-3.54980E-001,1.64998E-001,2.12434E+000,1.18302E-002,6.09414E-001,0,3.24843E+001,-6.18059E+000,9.98154E-001,-6.16334E+000,-4.76589E+001,9.97638E-001,1.67268E-001,-6.77512E-002,2.16931E-003,1.67288E-001,-6.77712E-002,5.28800E-001,1.68289E-001,1.18119E+000,4.57324E-002,0.00000E+000,-3.21461E-002,9.35619E-001,0.00000E+000,2.61019E-003,-5.98173E-002,1.00000E+000,31
