Coordinates.Image X [Pixel],Coordinates.Image Y [Pixel],coor.X [mm],coor.Y [mm],coor.Z [mm],disp.Horizontal Displacement U [mm],disp.Vertical Displacement V [mm],disp.Out-Of-Plane: W [mm],disp.Displacement Magnitude [mm],stats.Sigma [mm],stats.Epipolar Distance [Pixel],stats.Shape Index [-],SameCamera.Horizontal: u [Pixel],SameCamera.Vertical: v [Pixel],SameCamera.Correlation Value 2D [-],CrossCamera.Horizontal: q [Pixel],CrossCamera.Vertical: r [Pixel],CrossCamera.Correlation Value Persp [-],strain.Strain-global frame: Exx [ ],strain.Strain-global frame: Eyy [ ],strain.Strain-global frame: Exy [ ],strain.Maximum Principal Strain: EI [ ],strain.Minimum Principal Strain: EII [ ],strain.Shear Angle Gamma [deg],strain.Von Mises Equivalent Strain [ ],defgradient.F[0,0] [-],defgradient.F[0,1] [-],defgradient.F[0,2] [-],defgradient.F[1,0] [-],defgradient.F[1,1] [-],defgradient.F[1,2] [-],defgradient.F[2,0] [-],defgradient.F[2,1] [-],defgradient.F[2,2] [-],ext.Current Image [#]
929,1317,2.30763E+000,-9.95056E-001,3.72803E-002,2.64370E+000,-3.78696E-001,1.24001E-001,2.67356E+000,7.76864E-003,5.12256E-001,0,4.02170E+001,-6.50030E+000,9.99678E-001,-3.96046E+000,-4.11876E+001,9.98641E-001,7.42472E-002,-3.06598E-002,3.46817E-004,7.42484E-002,-3.06609E-002,1.89414E-001,7.46225E-002,1.07705E+000,-1.42596E-002,0.00000E+000,1.43827E-002,9.72331E-001,0.00000E+000,-1.26935E-002,-7.35508E-002,1.00000E+000,11
919,1307,1.60120E+000,-1.62873E+000,9.12877E-002,2.60382E+000,-3.63097E-001,1.82805E-001,2.63536E+000,1.00827E-002,5.33252E-001,0,3.94406E+001,-6.37100E+000,9.99403E-001,-4.85843E+000,-4.11738E+001,9.96822E-001,7.59408E-002,-3.04036E-002,5.75437E-005,7.59408E-002,-3.04037E-002,3.10031E-002,7.64418E-002,1.07888E+000,-1.28329E-002,0.00000E+000,1.24536E-002,9.72664E-001,0.00000E+000,-1.15983E-002,-7.43837E-002,1.00000E+000,11
919,1317,1.59253E+000,-1.01713E+000,-7.71214E-003,2.59234E+000,-3.86493E-001,1.34716E-001,2.62445E+000,1.07126E-002,5.01410E-001,0,3.94315E+001,-6.64514E+000,9.99233E-001,-5.10751E+000,-4.15317E+001,9.96743E-001,7.45769E-002,-3.04101E-002,-1.51407E-004,7.45771E-002,-3.04103E-002,-8.26291E-002,7.49988E-002,1.07740E+000,-1.28395E-002,0.00000E+000,1.19721E-002,9.72662E-001,0.00000E+000,-1.02541E-002,-7.43777E-002,1.00000E+000,11
919,1327,1.60088E+000,-3.94165E-001,-4.69121E-002,2.58356E+000,-4.10596E-001,8.03855E-002,2.61722E+000,9.25878E-003,5.34122E-001,0,3.94789E+001,-6.90832E+000,9.99544E-001,-4.95887E+000,-4.18083E+001,9.97650E-001,7.31929E-002,-3.04253E-002,-3.78079E-004,7.31943E-002,-3.04267E-002,-2.09056E-001,7.35402E-002,1.07590E+000,-1.28791E-002,0.00000E+000,1.14847E-002,9.72649E-001,0.00000E+000,-8.89338E-003,-7.43418E-002,1.00000E+000,11
929,1307,2.31186E+000,-1.60873E+000,1.19323E-001,2.65511E+000,-3.54089E-001,1.75022E-001,2.68433E+000,8.04080E-003,5.48387E-001,0,4.02154E+001,-6.21853E+000,9.99660E-001,-3.81843E+000,-4.08248E+001,9.98801E-001,7.56522E-002,-3.06554E-002,4.52489E-004,7.56541E-002,-3.06573E-002,2.43869E-001,7.61057E-002,1.07859E+000,-1.42423E-002,0.00000E+000,1.46743E-002,9.72335E-001,0.00000E+000,-1.43670E-002,-7.35696E-002,1.00000E+000,11
929,1327,2.31047E+000,-3.72616E-001,-1.49432E-002,2.63310E+000,-3.98600E-001,7.39568E-002,2.66413E+000,6.97767E-003,4.75578E-001,0,4.02235E+001,-6.71218E+000,9.99734E-001,-3.92604E+000,-4.14786E+001,9.98978E-001,7.28329E-002,-3.06659E-002,2.33825E-004,7.28334E-002,-3.06664E-002,1.29442E-001,7.31354E-002,1.07551E+000,-1.42919E-002,0.00000E+000,1.40902E-002,9.72325E-001,0.00000E+000,-1.10145E-002,-7.35156E-002,1.00000E+000,11
939,1307,3.01611E+000,-1.59077E+000,1.11321E-001,2.70502E+000,-3.43039E-001,1.56628E-001,2.73118E+000,9.04233E-003,5.53845E-001,0,4.10058E+001,-6.01471E+000,9.99671E-001,-2.95354E+000,-4.04366E+001,9.98793E-001,7.52902E-002,-3.03900E-002,7.99889E-004,7.52963E-002,-3.03960E-002,4.33636E-001,7.57605E-002,1.07821E+000,-1.57418E-002,0.00000E+000,1.68428E-002,9.72477E-001,0.00000E+000,-1.65685E-002,-7.23626E-002,1.00000E+000,11
939,1317,3.01260E+000,-9.76819E-001,3.60980E-002,2.69353E+000,-3.67307E-001,1.09003E-001,2.72064E+000,8.92038E-003,4.85210E-001,0,4.09955E+001,-6.29441E+000,9.99592E-001,-3.06908E+000,-4.08240E+001,9.98317E-001,7.39885E-002,-3.03938E-002,7.11940E-004,7.39934E-002,-3.03987E-002,3.90762E-001,7.43846E-002,1.07678E+000,-1.57597E-002,0.00000E+000,1.65697E-002,9.72474E-001,0.00000E+000,-1.46297E-002,-7.23384E-002,1.00000E+000,11
939,1327,3.01672E+000,-3.50135E-001,-1.08062E-002,2.68256E+000,-3.86234E-001,5.74805E-002,2.71083E+000,6.57752E-003,5.09418E-001,0,4.10014E+001,-6.48662E+000,9.99592E-001,-3.00339E+000,-4.10288E+001,9.98780E-001,7.26708E-002,-3.03993E-002,6.15897E-004,7.26745E-002,-3.04030E-002,3.42355E-001,7.29969E-002,1.07533E+000,-1.57937E-002,0.00000E+000,1.62944E-002,9.72467E-001,0.00000E+000,-1.26750E-002,-7.22924E-002,1.00000E+000,11
919,1337,1.61638E+000,2.36346E-001,-5.85440E-002,2.57702E+000,-4.28678E-001,3.05513E-002,2.61261E+000,7.14776E-003,5.10174E-001,0,3.95414E+001,-7.09010E+000,9.99457E-001,-4.63667E+000,-4.20574E+001,9.98699E-001,7.18050E-002,-3.04436E-002,-6.10148E-004,7.18087E-002,-3.04472E-002,-3.41885E-001,7.20846E-002,1.07439E+000,-1.29301E-002,0.00000E+000,1.09973E-002,9.72633E-001,0.00000E+000,-7.53265E-003,-7.42956E-002,1.00000E+000,11
929,1337,2.32146E+000,2.54400E-001,-4.17938E-002,2.62448E+000,-4.19534E-001,2.09993E-002,2.65789E+000,6.54683E-003,4.88921E-001,0,4.02678E+001,-6.93690E+000,9.99753E-001,-3.70917E+000,-4.17295E+001,9.99346E-001,7.14057E-002,-3.06737E-002,1.13285E-004,7.14058E-002,-3.06739E-002,6.35852E-002,7.16415E-002,1.07396E+000,-1.43390E-002,0.00000E+000,1.37960E-002,9.72316E-001,0.00000E+000,-9.32580E-003,-7.34643E-002,1.00000E+000,11
939,1337,3.02681E+000,2.76827E-001,-3.48351E-002,2.67390E+000,-4.06203E-001,1.19257E-002,2.70461E+000,5.89881E-003,5.11990E-001,0,4.10212E+001,-6.71681E+000,9.99694E-001,-2.79521E+000,-4.12906E+001,9.99322E-001,7.13472E-002,-3.04056E-002,5.15844E-004,7.13499E-002,-3.04082E-002,2.90456E-001,7.16086E-002,1.07389E+000,-1.58359E-002,0.00000E+000,1.60190E-002,9.72459E-001,0.00000E+000,-1.07198E-002,-7.22354E-002,1.00000E+000,11
949,1317,3.72106E+000,-9.52627E-001,4.02165E-002,2.74504E+000,-3.52679E-001,9.34855E-002,2.76918E+000,1.09872E-002,5.11048E-001,0,4.17990E+001,-6.03510E+000,9.99314E-001,-2.10765E+000,-4.03530E+001,9.98042E-001,7.37011E-002,-3.01290E-002,1.01749E-003,7.37111E-002,-3.01390E-002,5.61400E-001,7.41180E-002,1.07647E+000,-1.71147E-002,0.00000E+000,1.84638E-002,9.72586E-001,0.00000E+000,-1.60149E-002,-7.06694E-002,1.00000E+000,11
949,1327,3.72326E+000,-3.28459E-001,-9.11139E-003,2.73323E+000,-3.72217E-001,4.48502E-002,2.75882E+000,9.80195E-003,5.01631E-001,0,4.17842E+001,-6.24774E+000,9.99431E-001,-2.07759E+000,-4.06070E+001,9.98664E-001,7.25626E-002,-3.01321E-002,9.55314E-004,7.25715E-002,-3.01410E-002,5.32930E-001,7.29176E-002,1.07521E+000,-1.71423E-002,0.00000E+000,1.82337E-002,9.72581E-001,0.00000E+000,-1.38178E-002,-7.06212E-002,1.00000E+000,11
949,1337,3.73163E+000,2.98218E-001,-3.34745E-002,2.72335E+000,-3.92523E-001,1.92516E-003,2.75149E+000,7.41730E-003,5.14664E-001,0,4.17777E+001,-6.49051E+000,9.99589E-001,-1.89790E+000,-4.08658E+001,9.98906E-001,7.14145E-002,-3.01358E-002,8.88941E-004,7.14223E-002,-3.01435E-002,5.01499E-001,7.17110E-002,1.07395E+000,-1.71782E-002,0.00000E+000,1.80029E-002,9.72574E-001,0.00000E+000,-1.16139E-002,-7.05585E-002,1.00000E+000,11
949,1307,3.72667E+000,-1.56992E+000,1.16727E-001,2.75834E+000,-3.30962E-001,1.40620E-001,2.78168E+000,9.04308E-003,5.52948E-001,0,4.18382E+001,-5.79312E+000,9.99492E-001,-1.95731E+000,-4.00347E+001,9.98573E-001,7.48287E-002,-3.01267E-002,1.07363E-003,7.48397E-002,-3.01377E-002,5.86017E-001,7.53106E-002,1.07772E+000,-1.70996E-002,0.00000E+000,1.86928E-002,9.72588E-001,0.00000E+000,-1.82024E-002,-7.06958E-002,1.00000E+000,11
909,1317,8.93198E-001,-1.03246E+000,-1.15424E-002,2.54472E+000,-3.94014E-001,1.33194E-001,2.57848E+000,1.03868E-002,4.71650E-001,0,3.87382E+001,-6.76785E+000,9.98952E-001,-5.91519E+000,-4.18675E+001,9.96454E-001,7.49681E-002,-3.05954E-002,-6.91312E-004,7.49727E-002,-3.05999E-002,-3.75196E-001,7.53932E-002,1.07781E+000,-1.13189E-002,0.00000E+000,9.35410E-003,9.72528E-001,0.00000E+000,-7.48636E-003,-7.46618E-002,1.00000E+000,11
909,1327,9.04210E-001,-4.06082E-001,-4.91078E-002,2.53910E+000,-4.15253E-001,8.22666E-002,2.57415E+000,8.09056E-003,5.08291E-001,0,3.88207E+001,-6.98029E+000,9.99176E-001,-5.72056E+000,-4.20942E+001,9.98063E-001,7.36321E-002,-3.06090E-002,-9.08051E-004,7.36400E-002,-3.06169E-002,-4.99057E-001,7.39875E-002,1.07637E+000,-1.13557E-002,0.00000E+000,8.91345E-003,9.72516E-001,0.00000E+000,-6.57398E-003,-7.46385E-002,1.00000E+000,11
909,1337,9.19245E-001,2.27450E-001,-6.02853E-002,2.53198E+000,-4.33221E-001,3.19100E-002,2.56897E+000,8.71275E-003,5.66482E-001,0,3.88748E+001,-7.15364E+000,9.99395E-001,-5.40330E+000,-4.22583E+001,9.98662E-001,7.22887E-002,-3.06258E-002,-1.13121E-003,7.23011E-002,-3.06383E-002,-6.29679E-001,7.25807E-002,1.07492E+000,-1.14046E-002,0.00000E+000,8.47124E-003,9.72502E-001,0.00000E+000,-5.65838E-003,-7.46076E-002,1.00000E+000,11
909,1307,8.99365E-001,-1.64345E+000,9.35493E-002,2.55267E+000,-3.70208E-001,1.82680E-001,2.58583E+000,1.05507E-002,4.61804E-001,0,3.86892E+001,-6.47996E+000,9.99017E-001,-5.69013E+000,-4.15327E+001,9.95623E-001,7.62843E-002,-3.05905E-002,-4.92263E-004,7.62866E-002,-3.05928E-002,-2.63896E-001,7.67831E-002,1.07924E+000,-1.13148E-002,0.00000E+000,9.78897E-003,9.72529E-001,0.00000E+000,-8.38674E-003,-7.46644E-002,1.00000E+000,11
919,1347,1.63785E+000,8.74509E-001,-5.67472E-002,2.57319E+000,-4.43063E-001,-2.07635E-002,2.61114E+000,1.10624E-002,5.26795E-001,0,3.96475E+001,-7.20773E+000,9.99713E-001,-4.19152E+000,-4.21997E+001,9.99198E-001,7.04069E-002,-3.04638E-002,-8.46842E-004,7.04140E-002,-3.04709E-002,-4.80971E-001,7.06261E-002,1.07288E+000,-1.29886E-002,0.00000E+000,1.05076E-002,9.72614E-001,0.00000E+000,-6.16562E-003,-7.42427E-002,1.00000E+000,11
929,1347,2.33948E+000,8.88774E-001,-4.13033E-002,2.61772E+000,-4.36713E-001,-2.84394E-002,2.65405E+000,6.09976E-003,4.82645E-001,0,4.03250E+001,-7.10252E+000,9.99732E-001,-3.32223E+000,-4.19380E+001,9.99424E-001,6.99692E-002,-3.06830E-002,-1.35032E-005,6.99692E-002,-3.06830E-002,-7.68664E-003,7.01453E-002,1.07240E+000,-1.43986E-002,0.00000E+000,1.35009E-002,9.72305E-001,0.00000E+000,-7.63188E-003,-7.33995E-002,1.00000E+000,11
939,1347,3.04399E+000,9.10916E-001,-3.42714E-002,2.66661E+000,-4.23769E-001,-3.51301E-002,2.70030E+000,9.75387E-003,5.07805E-001,0,4.10635E+001,-6.89188E+000,9.99655E-001,-2.42281E+000,-4.15013E+001,9.98761E-001,7.00120E-002,-3.04132E-002,4.09251E-004,7.00137E-002,-3.04148E-002,2.33486E-001,7.02142E-002,1.07244E+000,-1.58910E-002,0.00000E+000,1.57424E-002,9.72449E-001,0.00000E+000,-8.75553E-003,-7.21609E-002,1.00000E+000,11
949,1347,3.75160E+000,9.33369E-001,-1.98928E-002,2.71679E+000,-4.11402E-001,-4.04349E-002,2.74806E+000,7.79146E-003,5.27519E-001,0,4.18158E+001,-6.69110E+000,9.99377E-001,-1.45596E+000,-4.10785E+001,9.98578E-001,7.02522E-002,-3.01405E-002,8.14475E-004,7.02588E-002,-3.01471E-002,4.64794E-001,7.04940E-002,1.07268E+000,-1.72305E-002,0.00000E+000,1.77705E-002,9.72564E-001,0.00000E+000,-9.39432E-003,-7.04672E-002,1.00000E+000,11
959,1317,4.42496E+000,-9.33715E-001,2.97889E-002,2.79344E+000,-3.40836E-001,7.20597E-002,2.81508E+000,9.54269E-003,5.12654E-001,0,4.25766E+001,-5.81355E+000,9.99420E-001,-1.24463E+000,-3.99452E+001,9.98740E-001,7.34795E-002,-2.98577E-002,1.11586E-003,7.34916E-002,-2.98698E-002,6.18598E-001,7.39192E-002,1.07622E+000,-1.85285E-002,0.00000E+000,1.99569E-002,9.72704E-001,0.00000E+000,-1.67088E-002,-6.89218E-002,1.00000E+000,11
959,1327,4.42613E+000,-3.10012E-001,-2.41731E-002,2.78227E+000,-3.60081E-001,2.68646E-002,2.80561E+000,1.36487E-002,5.41478E-001,0,4.25615E+001,-6.04579E+000,9.99753E-001,-1.24114E+000,-4.01754E+001,9.99038E-001,7.24672E-002,-2.98576E-002,1.09819E-003,7.24789E-002,-2.98694E-002,6.14826E-001,7.28512E-002,1.07509E+000,-1.85502E-002,0.00000E+000,1.98046E-002,9.72701E-001,0.00000E+000,-1.44145E-002,-6.88774E-002,1.00000E+000,11
959,1337,4.43762E+000,3.17270E-001,-3.81866E-002,2.77313E+000,-3.82312E-001,-1.56327E-002,2.79940E+000,1.05945E-002,5.17936E-001,0,4.25655E+001,-6.28773E+000,9.99514E-001,-9.92127E-001,-4.04635E+001,9.98809E-001,7.14422E-002,-2.98575E-002,1.07358E-003,7.14535E-002,-2.98689E-002,6.07134E-001,7.17730E-002,1.07396E+000,-1.85867E-002,0.00000E+000,1.96514E-002,9.72696E-001,0.00000E+000,-1.21055E-002,-6.88030E-002,1.00000E+000,11
959,1307,4.42900E+000,-1.55070E+000,1.05518E-001,2.80605E+000,-3.17182E-001,1.21949E-001,2.82655E+000,7.64576E-003,5.23866E-001,0,4.25943E+001,-5.54591E+000,9.99424E-001,-1.12012E+000,-3.96379E+001,9.98858E-001,7.44838E-002,-2.98578E-002,1.13031E-003,7.44961E-002,-2.98700E-002,6.20577E-001,7.49816E-002,1.07734E+000,-1.85134E-002,0.00000E+000,2.01089E-002,9.72706E-001,0.00000E+000,-1.89989E-002,-6.89526E-002,1.00000E+000,11
959,1347,4.45497E+000,9.49714E-001,-3.21764E-002,2.76586E+000,-4.01660E-001,-5.61961E-002,2.79544E+000,7.36072E-003,5.01230E-001,0,4.25886E+001,-6.50180E+000,9.99453E-001,-6.08831E-001,-4.07147E+001,9.99065E-001,7.04091E-002,-2.98574E-002,1.04542E-003,7.04200E-002,-2.98683E-002,5.97300E-001,7.06897E-002,1.07283E+000,-1.86302E-002,0.00000E+000,1.94979E-002,9.72690E-001,0.00000E+000,-9.79256E-003,-6.87142E-002,1.00000E+000,11
909,1347,9.41084E-001,8.63868E-001,-4.59010E-002,2.52662E+000,-4.48854E-001,-1.68132E-002,2.56624E+000,1.05728E-002,5.32942E-001,0,3.89475E+001,-7.29766E+000,9.99668E-001,-4.92241E+000,-4.24820E+001,9.98426E-001,7.09446E-002,-3.06456E-002,-1.35933E-003,7.09628E-002,-3.06638E-002,-7.66466E-001,7.11805E-002,1.07347E+000,-1.14647E-002,0.00000E+000,8.02967E-003,9.72483E-001,0.00000E+000,-4.74412E-003,-7.45698E-002,1.00000E+000,11
899,1327,2.11409E-001,-4.08525E-001,-1.28513E-002,2.48997E+000,-4.17641E-001,8.48492E-002,2.52618E+000,5.37072E-003,5.25630E-001,0,3.80836E+001,-7.01233E+000,9.99385E-001,-6.32998E+000,-4.22952E+001,9.99115E-001,7.39969E-002,-3.07348E-002,-1.38191E-003,7.40151E-002,-3.07530E-002,-7.55827E-001,7.43667E-002,1.07677E+000,-9.89684E-003,0.00000E+000,6.51625E-003,9.72447E-001,0.00000E+000,-4.31552E-003,-7.51126E-002,1.00000E+000,11
899,1337,2.26421E-001,2.20779E-001,-4.32876E-002,2.48671E+000,-4.35442E-001,3.24275E-002,2.52475E+000,8.52259E-003,5.37900E-001,0,3.82041E+001,-7.18249E+000,9.99733E-001,-6.05594E+000,-4.25079E+001,9.99457E-001,7.27599E-002,-3.07458E-002,-1.55862E-003,7.27833E-002,-3.07693E-002,-8.62519E-001,7.30723E-002,1.07543E+000,-9.93394E-003,0.00000E+000,6.18918E-003,9.72437E-001,0.00000E+000,-3.92874E-003,-7.51018E-002,1.00000E+000,11
899,1347,2.50779E-001,8.56515E-001,-2.99924E-002,2.48405E+000,-4.51934E-001,-1.75298E-002,2.52488E+000,7.37443E-003,5.25139E-001,0,3.83214E+001,-7.34217E+000,9.99709E-001,-5.53708E+000,-4.27309E+001,9.99217E-001,7.15161E-002,-3.07609E-002,-1.74422E-003,7.15458E-002,-3.07906E-002,-9.76738E-001,7.17768E-002,1.07410E+000,-9.98866E-003,0.00000E+000,5.86076E-003,9.72424E-001,0.00000E+000,-3.54037E-003,-7.50859E-002,1.00000E+000,11
899,1317,2.05135E-001,-1.02990E+000,4.47048E-002,2.49636E+000,-3.95719E-001,1.37958E-001,2.53129E+000,7.10948E-003,5.20662E-001,0,3.80050E+001,-6.78521E+000,9.99315E-001,-6.40613E+000,-4.20152E+001,9.98486E-001,7.52280E-002,-3.07263E-002,-1.21102E-003,7.52419E-002,-3.07402E-002,-6.54757E-001,7.56602E-002,1.07809E+000,-9.87105E-003,0.00000E+000,6.84220E-003,9.72453E-001,0.00000E+000,-4.70096E-003,-7.51201E-002,1.00000E+000,11
899,1307,2.04262E-001,-1.64420E+000,1.27130E-001,2.50249E+000,-3.71082E-001,1.89348E-001,2.53693E+000,7.81333E-003,4.75139E-001,0,3.79249E+001,-6.48322E+000,9.99266E-001,-6.34076E+000,-4.16991E+001,9.97546E-001,7.64523E-002,-3.07205E-002,-1.04612E-003,7.64625E-002,-3.07307E-002,-5.59199E-001,7.69514E-002,1.07942E+000,-9.85666E-003,0.00000E+000,7.16675E-003,9.72456E-001,0.00000E+000,-5.08474E-003,-7.51243E-002,1.00000E+000,11
889,1327,-4.85501E-001,-4.15817E-001,-2.95409E-003,2.44109E+000,-4.21236E-001,8.31800E-002,2.47856E+000,4.32264E-003,5.38923E-001,0,3.73656E+001,-7.05924E+000,9.99607E-001,-7.05845E+000,-4.25167E+001,9.99473E-001,7.44187E-002,-3.02212E-002,-1.87264E-003,7.44522E-002,-3.02547E-002,-1.02493E+000,7.48861E-002,1.07723E+000,-8.58024E-003,0.00000E+000,4.21127E-003,9.73026E-001,0.00000E+000,-1.98597E-003,-7.60278E-002,1.00000E+000,11
889,1337,-4.74294E-001,2.13647E-001,-3.50460E-002,2.43530E+000,-4.37251E-001,3.43406E-002,2.47448E+000,7.45629E-003,5.40732E-001,0,3.74342E+001,-7.21398E+000,9.99717E-001,-6.84592E+000,-4.27309E+001,9.99454E-001,7.32034E-002,-3.02230E-002,-1.92128E-003,7.32390E-002,-3.02587E-002,-1.06385E+000,7.36064E-002,1.07592E+000,-8.61404E-003,0.00000E+000,4.19062E-003,9.73026E-001,0.00000E+000,-2.44784E-003,-7.60397E-002,1.00000E+000,11
889,1347,-4.49203E-001,8.47415E-001,-2.39751E-002,2.43414E+000,-4.54976E-001,-1.51884E-002,2.47635E+000,6.32263E-003,5.18475E-001,0,3.75730E+001,-7.39094E+000,9.99624E-001,-6.31926E+000,-4.29860E+001,9.99309E-001,7.19798E-002,-3.02257E-002,-1.97858E-003,7.20181E-002,-3.02640E-002,-1.10863E+000,7.23230E-002,1.07461E+000,-8.66602E-003,0.00000E+000,4.16987E-003,9.73025E-001,0.00000E+000,-2.91222E-003,-7.60581E-002,1.00000E+000,11
969,1297,5.14998E+000,-2.14305E+000,1.96212E-001,2.87236E+000,-2.79741E-001,1.42488E-001,2.88946E+000,1.17255E-002,5.12546E-001,0,4.34909E+001,-5.00519E+000,9.99639E-001,1.27826E-001,-3.89018E+001,9.98391E-001,7.50042E-002,-2.97299E-002,1.10457E-003,7.50159E-002,-2.97415E-002,6.04178E-001,7.55500E-002,1.07793E+000,-1.97683E-002,0.00000E+000,2.13114E-002,9.72685E-001,0.00000E+000,-2.14966E-002,-6.70703E-002,1.00000E+000,11
969,1307,5.13376E+000,-1.53297E+000,9.93921E-002,2.85414E+000,-3.07096E-001,1.01413E-001,2.87240E+000,1.95389E-002,5.11271E-001,0,4.33628E+001,-5.34178E+000,9.99352E-001,-2.30631E-001,-3.92663E+001,9.97600E-001,7.41344E-002,-2.97287E-002,1.12083E-003,7.41465E-002,-2.97408E-002,6.18206E-001,7.46283E-002,1.07694E+000,-1.97713E-002,0.00000E+000,2.12090E-002,9.72685E-001,0.00000E+000,-1.91708E-002,-6.70631E-002,1.00000E+000,11
969,1317,5.13264E+000,-9.16199E-001,3.15389E-002,2.84340E+000,-3.31190E-001,5.49424E-002,2.86315E+000,7.54214E-003,5.00983E-001,0,4.33627E+001,-5.63444E+000,9.99741E-001,-2.93218E-001,-3.95913E+001,9.99132E-001,7.32569E-002,-2.97269E-002,1.13169E-003,7.32694E-002,-2.97394E-002,6.29520E-001,7.37007E-002,1.07596E+000,-1.97862E-002,0.00000E+000,2.11065E-002,9.72683E-001,0.00000E+000,-1.68408E-002,-6.70279E-002,1.00000E+000,11
889,1317,-4.93416E-001,-1.03605E+000,5.63111E-002,2.44527E+000,-3.98803E-001,1.35847E-001,2.48129E+000,6.41559E-003,5.44136E-001,0,3.72553E+001,-6.82657E+000,9.99596E-001,-7.15611E+000,-4.22160E+001,9.99135E-001,7.56296E-002,-3.02197E-002,-1.82859E-003,7.56612E-002,-3.02513E-002,-9.89414E-001,7.61657E-002,1.07853E+000,-8.55608E-003,0.00000E+000,4.23186E-003,9.73026E-001,0.00000E+000,-1.52515E-003,-7.60192E-002,1.00000E+000,11
969,1327,5.13356E+000,-2.90301E-001,-1.84309E-002,2.83128E+000,-3.48752E-001,1.10695E-002,2.85270E+000,7.61343E-003,5.20679E-001,0,4.33287E+001,-5.84072E+000,9.99761E-001,-2.85231E-001,-3.97992E+001,9.99359E-001,7.23711E-002,-2.97249E-002,1.13999E-003,7.23839E-002,-2.97376E-002,6.39650E-001,7.27665E-002,1.07497E+000,-1.98065E-002,0.00000E+000,2.10037E-002,9.72681E-001,0.00000E+000,-1.45050E-002,-6.69801E-002,1.00000E+000,11
889,1307,-4.96969E-001,-1.65112E+000,1.39169E-001,2.44801E+000,-3.75735E-001,1.84670E-001,2.48355E+000,9.06650E-003,4.95512E-001,0,3.71332E+001,-6.53894E+000,9.99375E-001,-7.13091E+000,-4.19126E+001,9.97885E-001,7.68333E-002,-3.02188E-002,-1.78999E-003,7.68633E-002,-3.02487E-002,-9.57669E-001,7.74419E-002,1.07983E+000,-8.54333E-003,0.00000E+000,4.25236E-003,9.73027E-001,0.00000E+000,-1.06646E-003,-7.60147E-002,1.00000E+000,11
969,1337,5.14221E+000,3.33127E-001,-4.09267E-002,2.82134E+000,-3.71886E-001,-3.02187E-002,2.84591E+000,8.26799E-003,4.50570E-001,0,4.33187E+001,-6.10367E+000,9.99606E-001,-9.95823E-002,-4.01505E+001,9.99223E-001,7.14772E-002,-2.97223E-002,1.14419E-003,7.14901E-002,-2.97353E-002,6.47690E-001,7.18261E-002,1.07398E+000,-1.98354E-002,0.00000E+000,2.09006E-002,9.72678E-001,0.00000E+000,-1.21639E-002,-6.69120E-002,1.00000E+000,11
969,1347,5.15498E+000,9.72960E-001,-3.94340E-002,2.81075E+000,-3.84748E-001,-6.86512E-002,2.83779E+000,7.67380E-003,4.85920E-001,0,4.32828E+001,-6.22232E+000,9.99464E-001,2.02337E-001,-4.02505E+001,9.98985E-001,7.05704E-002,-2.97194E-002,1.14481E-003,7.05835E-002,-2.97325E-002,6.53918E-001,7.08748E-002,1.07298E+000,-1.98717E-002,0.00000E+000,2.07968E-002,9.72674E-001,0.00000E+000,-9.80558E-003,-6.68262E-002,1.00000E+000,11
879,1327,-1.18048E+000,-4.19568E-001,1.22168E-002,2.39360E+000,-4.21100E-001,8.61011E-002,2.43188E+000,6.16330E-003,5.40742E-001,0,3.66516E+001,-7.05749E+000,9.99656E-001,-7.73975E+000,-4.27005E+001,9.99406E-001,7.48704E-002,-3.03669E-002,-2.18297E-003,7.49156E-002,-3.04122E-002,-1.18782E+000,7.53561E-002,1.07772E+000,-7.45819E-003,0.00000E+000,2.47306E-003,9.72864E-001,0.00000E+000,-3.02471E-004,-7.56609E-002,1.00000E+000,11
879,1337,-1.16983E+000,2.06699E-001,-2.71449E-002,2.38791E+000,-4.39424E-001,3.24384E-002,2.42823E+000,6.09317E-003,5.30101E-001,0,3.67375E+001,-7.23603E+000,9.99452E-001,-7.55229E+000,-4.29566E+001,9.99291E-001,7.37299E-002,-3.03666E-002,-2.19446E-003,7.37761E-002,-3.04129E-002,-1.20714E+000,7.41540E-002,1.07649E+000,-7.48869E-003,0.00000E+000,2.54899E-003,9.72866E-001,0.00000E+000,-1.16359E-003,-7.56823E-002,1.00000E+000,11
879,1347,-1.14734E+000,8.42370E-001,-2.10254E-002,2.38567E+000,-4.55506E-001,-1.57213E-002,2.42881E+000,7.63239E-003,5.51159E-001,0,3.68541E+001,-7.39031E+000,9.99377E-001,-7.07526E+000,-4.31519E+001,9.99232E-001,7.25787E-002,-3.03662E-002,-2.21318E-003,7.26262E-002,-3.04137E-002,-1.23103E+000,7.29450E-002,1.07526E+000,-7.53471E-003,0.00000E+000,2.62550E-003,9.72869E-001,0.00000E+000,-2.03126E-003,-7.57145E-002,1.00000E+000,11
879,1307,-1.19657E+000,-1.65315E+000,1.57140E-001,2.39420E+000,-3.75643E-001,1.83169E-001,2.43041E+000,9.49920E-003,5.17923E-001,0,3.63383E+001,-6.53291E+000,9.99196E-001,-7.87664E+000,-4.20621E+001,9.98116E-001,7.71353E-002,-3.03673E-002,-2.17371E-003,7.71792E-002,-3.04113E-002,-1.15789E+000,7.77548E-002,1.08017E+000,-7.42663E-003,0.00000E+000,2.32189E-003,9.72862E-001,0.00000E+000,1.41204E-003,-7.56388E-002,1.00000E+000,11
879,1317,-1.18961E+000,-1.04019E+000,7.33303E-002,2.39628E+000,-3.98697E-001,1.39677E-001,2.43323E+000,6.72583E-003,4.85126E-001,0,3.65165E+001,-6.80739E+000,9.99596E-001,-7.85173E+000,-4.24383E+001,9.99045E-001,7.60084E-002,-3.03672E-002,-2.17539E-003,7.60528E-002,-3.04117E-002,-1.17105E+000,7.65594E-002,1.07895E+000,-7.43603E-003,0.00000E+000,2.39717E-003,9.72863E-001,0.00000E+000,5.58223E-004,-7.56453E-002,1.00000E+000,11
979,1307,5.85442E+000,-1.51260E+000,1.15094E-001,2.91445E+000,-2.96431E-001,8.85538E-002,2.93083E+000,1.18056E-002,5.16523E-001,0,4.42890E+001,-5.15534E+000,9.99797E-001,9.54855E-001,-3.88897E+001,9.99444E-001,7.38029E-002,-2.95850E-002,1.09536E-003,7.38145E-002,-2.95966E-002,6.06936E-001,7.42956E-002,1.07655E+000,-2.07956E-002,0.00000E+000,2.20001E-002,9.72661E-001,0.00000E+000,-1.83652E-002,-6.47980E-002,1.00000E+000,11
979,1317,5.84461E+000,-8.92684E-001,3.89687E-002,2.89654E+000,-3.16977E-001,4.10039E-002,2.91412E+000,5.95557E-003,5.02732E-001,0,4.41839E+001,-5.38235E+000,9.99719E-001,7.40944E-001,-3.91499E+001,9.99264E-001,7.31245E-002,-2.95820E-002,1.13018E-003,7.31369E-002,-2.95944E-002,6.30381E-001,7.35789E-002,1.07578E+000,-2.08054E-002,0.00000E+000,2.19492E-002,9.72661E-001,0.00000E+000,-1.61514E-002,-6.47699E-002,1.00000E+000,11
979,1327,5.84172E+000,-2.69462E-001,-1.23684E-002,2.88140E+000,-3.36438E-001,-2.45686E-004,2.90098E+000,6.42123E-003,4.85872E-001,0,4.40970E+001,-5.61230E+000,9.99473E-001,6.86387E-001,-3.94134E+001,9.98767E-001,7.24397E-002,-2.95783E-002,1.16265E-003,7.24529E-002,-2.95916E-002,6.52862E-001,7.28568E-002,1.07501E+000,-2.08201E-002,0.00000E+000,2.18982E-002,9.72660E-001,0.00000E+000,-1.39341E-002,-6.47273E-002,1.00000E+000,11
979,1337,5.84651E+000,3.58379E-001,-4.32489E-002,2.86980E+000,-3.54324E-001,-3.95691E-002,2.89186E+000,8.74274E-003,4.69453E-001,0,4.40546E+001,-5.81854E+000,9.99087E-001,7.94275E-001,-3.96504E+001,9.98536E-001,7.17476E-002,-2.95741E-002,1.19275E-003,7.17616E-002,-2.95881E-002,6.74357E-001,7.21285E-002,1.07424E+000,-2.08400E-002,0.00000E+000,2.18471E-002,9.72658E-001,0.00000E+000,-1.17105E-002,-6.46701E-002,1.00000E+000,11
979,1347,5.85853E+000,9.95649E-001,-3.67941E-002,2.85693E+000,-3.69493E-001,-7.91410E-002,2.88181E+000,9.32567E-003,4.80238E-001,0,4.39890E+001,-5.97955E+000,9.98599E-001,1.09292E+000,-3.98116E+001,9.98106E-001,7.10457E-002,-2.95686E-002,1.21818E-003,7.10604E-002,-2.95833E-002,6.93571E-001,7.13914E-002,1.07346E+000,-2.08702E-002,0.00000E+000,2.17956E-002,9.72656E-001,0.00000E+000,-9.47239E-003,-6.45832E-002,1.00000E+000,11
979,1297,5.85666E+000,-2.12331E+000,1.88224E-001,2.92322E+000,-2.67225E-001,1.25928E-001,2.93810E+000,1.01110E-002,5.29800E-001,0,4.42861E+001,-4.77802E+000,9.99677E-001,1.04700E+000,-3.84822E+001,9.98913E-001,7.44759E-002,-2.95878E-002,1.05952E-003,7.44867E-002,-2.95986E-002,5.83274E-001,7.50079E-002,1.07732E+000,-2.07877E-002,0.00000E+000,2.20510E-002,9.72662E-001,0.00000E+000,-2.05788E-002,-6.48206E-002,1.00000E+000,11
869,1317,-1.89292E+000,-1.04255E+000,7.24000E-002,2.34136E+000,-3.97040E-001,1.33273E-001,2.37852E+000,5.97451E-003,5.08829E-001,0,3.57188E+001,-6.76229E+000,9.99621E-001,-8.69437E+000,-4.25546E+001,9.98749E-001,7.62333E-002,-3.05513E-002,-2.28708E-003,7.62823E-002,-3.06003E-002,-1.22639E+000,7.67777E-002,1.07920E+000,-6.22499E-003,0.00000E+000,9.87593E-004,9.72653E-001,0.00000E+000,2.01099E-003,-7.51908E-002,1.00000E+000,11
869,1327,-1.88288E+000,-4.22671E-001,1.22796E-002,2.34006E+000,-4.18748E-001,8.23301E-002,2.37866E+000,6.49167E-003,5.54547E-001,0,3.58653E+001,-7.01764E+000,9.99596E-001,-8.56596E+000,-4.28369E+001,9.99098E-001,7.52370E-002,-3.05510E-002,-2.28986E-003,7.52865E-002,-3.06005E-002,-1.23944E+000,7.57245E-002,1.07813E+000,-6.24367E-003,0.00000E+000,1.09173E-003,9.72655E-001,0.00000E+000,8.13217E-004,-7.52115E-002,1.00000E+000,11
869,1337,-1.86852E+000,2.01597E-001,-2.16254E-002,2.33762E+000,-4.39829E-001,3.12789E-002,2.37884E+000,7.08068E-003,5.45465E-001,0,3.59922E+001,-7.23700E+000,9.99262E-001,-8.30820E+000,-4.31362E+001,9.98996E-001,7.42347E-002,-3.05506E-002,-2.29677E-003,7.42850E-002,-3.06009E-002,-1.25505E+000,7.46681E-002,1.07705E+000,-6.27120E-003,0.00000E+000,1.19624E-003,9.72658E-001,0.00000E+000,-3.88782E-004,-7.52421E-002,1.00000E+000,11
869,1347,-1.84833E+000,8.36022E-001,-2.53334E-002,2.33581E+000,-4.53822E-001,-1.47011E-002,2.37953E+000,9.67937E-003,5.28064E-001,0,3.61078E+001,-7.36526E+000,9.99394E-001,-7.88790E+000,-4.33504E+001,9.99136E-001,7.32274E-002,-3.05500E-002,-2.30763E-003,7.32787E-002,-3.06013E-002,-1.27321E+000,7.36097E-002,1.07596E+000,-6.30713E-003,0.00000E+000,1.30102E-003,9.72661E-001,0.00000E+000,-1.59385E-003,-7.52821E-002,1.00000E+000,11
869,1307,-1.89648E+000,-1.65444E+000,1.66799E-001,2.34214E+000,-3.72882E-001,1.84946E-001,2.37884E+000,7.90909E-003,5.39027E-001,0,3.55584E+001,-6.49682E+000,9.99299E-001,-8.64149E+000,-4.21833E+001,9.98463E-001,7.72217E-002,-3.05515E-002,-2.28949E-003,7.72703E-002,-3.06001E-002,-1.21644E+000,7.78253E-002,1.08028E+000,-6.21760E-003,0.00000E+000,8.84042E-004,9.72653E-001,0.00000E+000,3.20197E-003,-7.51826E-002,1.00000E+000,11
989,1307,6.55783E+000,-1.48609E+000,1.02577E-001,2.96105E+000,-2.76885E-001,6.54279E-002,2.97469E+000,8.93418E-003,5.05691E-001,0,4.50399E+001,-4.80286E+000,9.99491E-001,1.81952E+000,-3.83683E+001,9.98862E-001,7.34834E-002,-2.95572E-002,1.01105E-003,7.34933E-002,-2.95671E-002,5.62120E-001,7.39594E-002,1.07617E+000,-2.14600E-002,0.00000E+000,2.23129E-002,9.72549E-001,0.00000E+000,-1.68406E-002,-6.26916E-002,1.00000E+000,11
989,1317,6.54516E+000,-8.64214E-001,2.59745E-002,2.94141E+000,-2.96628E-001,2.29216E-002,2.95641E+000,8.93067E-003,5.39273E-001,0,4.48923E+001,-5.02549E+000,9.99659E-001,1.56040E+000,-3.85720E+001,9.98926E-001,7.29881E-002,-2.95528E-002,1.07228E-003,7.29993E-002,-2.95640E-002,5.99059E-001,7.34373E-002,1.07560E+000,-2.14661E-002,0.00000E+000,2.23194E-002,9.72549E-001,0.00000E+000,-1.47532E-002,-6.26689E-002,1.00000E+000,11
989,1327,6.54880E+000,-2.41485E-001,-1.09846E-002,2.93074E+000,-3.18883E-001,-1.25371E-002,2.94806E+000,1.12730E-002,5.33632E-001,0,4.48542E+001,-5.30472E+000,9.99385E-001,1.63599E+000,-3.88661E+001,9.98294E-001,7.24874E-002,-2.95468E-002,1.13059E-003,7.25000E-002,-2.95594E-002,6.34762E-001,7.29104E-002,1.07504E+000,-2.14788E-002,0.00000E+000,2.23259E-002,9.72549E-001,0.00000E+000,-1.26619E-002,-6.26221E-002,1.00000E+000,11
989,1297,6.56799E+000,-2.10291E+000,1.85254E-001,2.97693E+000,-2.53535E-001,1.08441E-001,2.98968E+000,8.60077E-003,4.93803E-001,0,4.51264E+001,-4.52551E+000,9.99419E-001,2.05312E+000,-3.80889E+001,9.98472E-001,7.39732E-002,-2.95613E-002,9.49294E-004,7.39819E-002,-2.95700E-002,5.25278E-001,7.44765E-002,1.07673E+000,-2.14549E-002,0.00000E+000,2.23064E-002,9.72548E-001,0.00000E+000,-1.89246E-002,-6.27102E-002,1.00000E+000,11
989,1337,6.55407E+000,3.83601E-001,-3.41631E-002,2.91673E+000,-3.39416E-001,-5.64882E-002,2.93696E+000,7.89210E-003,4.72910E-001,0,4.47921E+001,-5.55256E+000,9.98971E-001,1.76593E+000,-3.91830E+001,9.98669E-001,7.19829E-002,-2.95398E-002,1.18665E-003,7.19967E-002,-2.95536E-002,6.69580E-001,7.23803E-002,1.07447E+000,-2.14959E-002,0.00000E+000,2.23324E-002,9.72549E-001,0.00000E+000,-1.05732E-002,-6.25591E-002,1.00000E+000,11
989,1347,6.56486E+000,1.01881E+000,-3.27093E-002,2.90473E+000,-3.54482E-001,-9.10716E-002,2.92770E+000,7.95195E-003,4.69456E-001,0,4.47241E+001,-5.73086E+000,9.99538E-001,2.03322E+000,-3.93710E+001,9.99407E-001,7.14708E-002,-2.95319E-002,1.24142E-003,7.14861E-002,-2.95472E-002,7.04078E-001,7.18432E-002,1.07390E+000,-2.15160E-002,0.00000E+000,2.23390E-002,9.72549E-001,0.00000E+000,-8.47276E-003,-6.24846E-002,1.00000E+000,11
859,1327,-2.58281E+000,-4.24641E-001,9.24586E-003,2.28837E+000,-4.16032E-001,7.45615E-002,2.32708E+000,6.46857E-003,5.58887E-001,0,3.51189E+001,-6.94902E+000,9.99380E-001,-9.35696E+000,-4.29537E+001,9.98865E-001,7.54919E-002,-3.06499E-002,-2.29322E-003,7.55415E-002,-3.06994E-002,-1.23712E+000,7.59815E-002,1.07841E+000,-5.18744E-003,0.00000E+000,9.88843E-005,9.72512E-001,0.00000E+000,1.34425E-003,-7.45508E-002,1.00000E+000,11
859,1337,-2.56664E+000,2.00006E-001,-2.05115E-002,2.28804E+000,-4.35677E-001,2.83149E-002,2.32932E+000,7.40282E-003,5.50350E-001,0,3.52613E+001,-7.16862E+000,9.99210E-001,-9.06067E+000,-4.32573E+001,9.98939E-001,7.46640E-002,-3.06501E-002,-2.30775E-003,7.47146E-002,-3.07006E-002,-1.25472E+000,7.51089E-002,1.07751E+000,-5.20982E-003,0.00000E+000,1.93798E-004,9.72514E-001,0.00000E+000,-3.02899E-005,-7.45852E-002,1.00000E+000,11
859,1347,-2.54547E+000,8.30663E-001,-1.64861E-002,2.28674E+000,-4.53713E-001,-1.30265E-002,2.33135E+000,1.04546E-002,5.13878E-001,0,3.53701E+001,-7.35970E+000,9.99508E-001,-8.60618E+000,-4.35578E+001,9.99282E-001,7.38300E-002,-3.06503E-002,-2.32608E-003,7.38817E-002,-3.07021E-002,-1.27475E+000,7.42321E-002,1.07662E+000,-5.24018E-003,0.00000E+000,2.89119E-004,9.72517E-001,0.00000E+000,-1.41074E-003,-7.46319E-002,1.00000E+000,11
859,1307,-2.59679E+000,-1.65346E+000,1.69857E-001,2.28966E+000,-3.69470E-001,1.82197E-001,2.32642E+000,1.03182E-002,6.16157E-001,0,3.47854E+001,-6.43958E+000,9.99360E-001,-9.42352E+000,-4.22279E+001,9.98675E-001,7.71295E-002,-3.06497E-002,-2.27526E-003,7.71775E-002,-3.06977E-002,-1.20882E+000,7.77135E-002,1.08019E+000,-5.16642E-003,0.00000E+000,-8.97119E-005,9.72510E-001,0.00000E+000,4.07551E-003,-7.45185E-002,1.00000E+000,11
859,1317,-2.59117E+000,-1.04525E+000,7.08744E-002,2.29093E+000,-3.96714E-001,1.25640E-001,2.32842E+000,7.61533E-003,5.45451E-001,0,3.49932E+001,-6.72855E+000,9.99381E-001,-9.45645E+000,-4.26677E+001,9.98316E-001,7.63137E-002,-3.06498E-002,-2.28220E-003,7.63624E-002,-3.06984E-002,-1.22173E+000,7.68496E-002,1.07930E+000,-5.17253E-003,0.00000E+000,4.38950E-006,9.72510E-001,0.00000E+000,2.71273E-003,-7.45279E-002,1.00000E+000,11
999,1337,7.25621E+000,4.03580E-001,-3.90648E-002,2.96388E+000,-3.23873E-001,-6.06434E-002,2.98214E+000,7.72149E-003,4.31983E-001,0,4.54899E+001,-5.31399E+000,9.99668E-001,2.62821E+000,-3.87890E+001,9.99198E-001,7.20679E-002,-2.95508E-002,1.04922E-003,7.20787E-002,-2.95616E-002,5.91500E-001,7.24658E-002,1.07454E+000,-2.19318E-002,0.00000E+000,2.23456E-002,9.72407E-001,0.00000E+000,-9.01771E-003,-6.04108E-002,1.00000E+000,11
999,1347,7.27188E+000,1.04161E+000,-2.87431E-002,2.95432E+000,-3.39262E-001,-9.61407E-002,2.97529E+000,6.53947E-003,4.36672E-001,0,4.54621E+001,-5.47704E+000,9.99772E-001,2.98781E+000,-3.89467E+001,9.99352E-001,7.17279E-002,-2.95421E-002,1.11142E-003,7.17401E-002,-2.95542E-002,6.28712E-001,7.21098E-002,1.07416E+000,-2.19466E-002,0.00000E+000,2.23754E-002,9.72408E-001,0.00000E+000,-7.12740E-003,-6.03373E-002,1.00000E+000,11
999,1307,7.26361E+000,-1.46393E+000,9.50227E-002,3.00960E+000,-2.61760E-001,4.74894E-002,3.02134E+000,5.95339E-003,4.97669E-001,0,4.58036E+001,-4.53071E+000,9.99608E-001,2.73480E+000,-3.79232E+001,9.99204E-001,7.30561E-002,-2.95686E-002,8.53941E-004,7.30632E-002,-2.95757E-002,4.76715E-001,7.35034E-002,1.07566E+000,-2.19094E-002,0.00000E+000,2.22572E-002,9.72405E-001,0.00000E+000,-1.46308E-002,-6.05225E-002,1.00000E+000,11
999,1317,7.25464E+000,-8.42379E-001,3.11801E-002,2.99326E+000,-2.81455E-001,1.62550E-002,3.00651E+000,1.04281E-002,5.13732E-001,0,4.56675E+001,-4.78159E+000,9.99110E-001,2.55896E+000,-3.81658E+001,9.97045E-001,7.27305E-002,-2.95639E-002,9.20527E-004,7.27388E-002,-2.95721E-002,5.15538E-001,7.31610E-002,1.07529E+000,-2.19137E-002,0.00000E+000,2.22867E-002,9.72406E-001,0.00000E+000,-1.27609E-002,-6.05011E-002,1.00000E+000,11
999,1327,7.25476E+000,-2.24593E-001,-1.71955E-002,2.98053E+000,-3.07345E-001,-2.37991E-002,2.99643E+000,1.17899E-002,5.04150E-001,0,4.56171E+001,-5.11353E+000,9.99375E-001,2.55535E+000,-3.85125E+001,9.98097E-001,7.24008E-002,-2.95579E-002,9.85661E-004,7.24104E-002,-2.95674E-002,5.53824E-001,7.28149E-002,1.07491E+000,-2.19212E-002,0.00000E+000,2.23162E-002,9.72406E-001,0.00000E+000,-1.08886E-002,-6.04636E-002,1.00000E+000,11
999,1297,7.27584E+000,-2.08367E+000,1.81040E-001,3.02716E+000,-2.41537E-001,9.19401E-002,3.03817E+000,6.54094E-003,5.03029E-001,0,4.59104E+001,-4.31088E+000,9.99326E-001,3.00627E+000,-3.76888E+001,9.97970E-001,7.33779E-002,-2.95728E-002,7.86806E-004,7.33839E-002,-2.95788E-002,4.37852E-001,7.38421E-002,1.07604E+000,-2.19063E-002,0.00000E+000,2.22278E-002,9.72405E-001,0.00000E+000,-1.64988E-002,-6.05380E-002,1.00000E+000,11
849,1337,-3.26517E+000,1.97821E-001,-1.43259E-002,2.23679E+000,-4.34569E-001,2.65486E-002,2.27877E+000,9.41026E-003,5.72466E-001,0,3.45003E+001,-7.12948E+000,9.99460E-001,-9.80340E+000,-4.33904E+001,9.99139E-001,7.49541E-002,-3.06219E-002,-2.14576E-003,7.49977E-002,-3.06655E-002,-1.16386E+000,7.54116E-002,1.07783E+000,-4.23756E-003,0.00000E+000,-3.59879E-004,9.72477E-001,0.00000E+000,-1.02074E-004,-7.36984E-002,1.00000E+000,11
849,1347,-3.24824E+000,8.24584E-001,-1.89268E-002,2.23407E+000,-4.53287E-001,-1.07454E-002,2.27962E+000,8.05027E-003,5.13030E-001,0,3.45748E+001,-7.34604E+000,9.99534E-001,-9.43371E+000,-4.37458E+001,9.99463E-001,7.43212E-002,-3.06220E-002,-2.15779E-003,7.43655E-002,-3.06664E-002,-1.17742E+000,7.47452E-002,1.07715E+000,-4.25781E-003,0.00000E+000,-2.66206E-004,9.72480E-001,0.00000E+000,-1.45340E-003,-7.37386E-002,1.00000E+000,11
849,1357,-3.21860E+000,1.46369E+000,1.98571E-002,2.23361E+000,-4.69258E-001,-5.53257E-002,2.28304E+000,6.77448E-003,5.06703E-001,0,3.47023E+001,-7.50128E+000,9.99657E-001,-8.76293E+000,-4.39823E+001,9.99445E-001,7.36794E-002,-3.06222E-002,-2.17486E-003,7.37247E-002,-3.06675E-002,-1.19402E+000,7.40709E-002,1.07646E+000,-4.28869E-003,0.00000E+000,-1.71552E-004,9.72484E-001,0.00000E+000,-2.81889E-003,-7.37999E-002,1.00000E+000,11
849,1327,-3.27687E+000,-4.23582E-001,1.85348E-002,2.24032E+000,-4.12093E-001,7.03118E-002,2.27899E+000,9.06093E-003,5.72192E-001,0,3.44146E+001,-6.86602E+000,9.99597E-001,-1.00237E+001,-4.30453E+001,9.99174E-001,7.55844E-002,-3.06218E-002,-2.13587E-003,7.56273E-002,-3.06647E-002,-1.15163E+000,7.60765E-002,1.07851E+000,-4.22181E-003,0.00000E+000,-4.53497E-004,9.72475E-001,0.00000E+000,1.24846E-003,-7.36672E-002,1.00000E+000,11
1009,1337,7.96488E+000,4.31915E-001,-4.36374E-002,3.01877E+000,-3.02328E-001,-5.68146E-002,3.03440E+000,9.49551E-003,4.84285E-001,0,4.62747E+001,-4.99491E+000,9.99713E-001,3.59685E+000,-3.82193E+001,9.99484E-001,7.20725E-002,-2.95558E-002,8.48220E-004,7.20795E-002,-2.95629E-002,4.78163E-001,7.24665E-002,1.07453E+000,-2.21716E-002,0.00000E+000,2.20636E-002,9.72295E-001,0.00000E+000,-7.38707E-003,-5.84880E-002,1.00000E+000,11
1009,1347,7.97643E+000,1.05764E+000,-3.28500E-002,3.00285E+000,-3.29636E-001,-1.00956E-001,3.02258E+000,6.67208E-003,4.40471E-001,0,4.61851E+001,-5.32824E+000,9.99879E-001,3.89014E+000,-3.85913E+001,9.99621E-001,7.18753E-002,-2.95477E-002,9.05581E-004,7.18834E-002,-2.95558E-002,5.11526E-001,7.22606E-002,1.07430E+000,-2.21810E-002,0.00000E+000,2.20956E-002,9.72296E-001,0.00000E+000,-5.77078E-003,-5.84196E-002,1.00000E+000,11
1009,1297,7.98005E+000,-2.06457E+000,1.73689E-001,3.07486E+000,-2.27685E-001,7.91513E-002,3.08429E+000,7.93535E-003,4.53899E-001,0,4.66423E+001,-4.06262E+000,9.98969E-001,3.90116E+000,-3.73140E+001,9.98002E-001,7.28290E-002,-2.95746E-002,6.09208E-004,7.28326E-002,-2.95782E-002,3.40842E-001,7.32594E-002,1.07540E+000,-2.21576E-002,0.00000E+000,2.19368E-002,9.72293E-001,0.00000E+000,-1.37991E-002,-5.85899E-002,1.00000E+000,11
1009,1307,7.96969E+000,-1.44410E+000,9.26282E-002,3.05914E+000,-2.46652E-001,3.97054E-002,3.06933E+000,7.71090E-003,4.54304E-001,0,4.65465E+001,-4.28861E+000,9.99356E-001,3.66900E+000,-3.75428E+001,9.99242E-001,7.26443E-002,-2.95709E-002,6.69629E-004,7.26487E-002,-2.95753E-002,3.75333E-001,7.30655E-002,1.07518E+000,-2.21595E-002,0.00000E+000,2.19684E-002,9.72293E-001,0.00000E+000,-1.22010E-002,-5.85765E-002,1.00000E+000,11
1009,1317,7.96420E+000,-8.22703E-001,2.83875E-002,3.04595E+000,-2.66594E-001,6.84716E-003,3.05760E+000,8.10068E-003,4.66722E-001,0,4.64648E+001,-4.54328E+000,9.99567E-001,3.54616E+000,-3.77866E+001,9.99136E-001,7.24567E-002,-2.95667E-002,7.29745E-004,7.24619E-002,-2.95719E-002,4.09793E-001,7.28687E-002,1.07497E+000,-2.21621E-002,0.00000E+000,2.20001E-002,9.72294E-001,0.00000E+000,-1.05998E-002,-5.85573E-002,1.00000E+000,11
849,1317,-3.29057E+000,-1.03990E+000,7.85635E-002,2.23880E+000,-3.87439E-001,1.26376E-001,2.27559E+000,1.00360E-002,6.28332E-001,0,3.42100E+001,-6.61300E+000,9.99431E-001,-1.02090E+001,-4.26538E+001,9.98632E-001,7.62105E-002,-3.06217E-002,-2.12747E-003,7.62529E-002,-3.06640E-002,-1.14039E+000,7.67382E-002,1.07919E+000,-4.20917E-003,0.00000E+000,-5.46813E-004,9.72473E-001,0.00000E+000,2.59465E-003,-7.36421E-002,1.00000E+000,11
1009,1327,7.96314E+000,-1.98230E-001,-1.27432E-002,3.03026E+000,-2.87748E-001,-3.31438E-002,3.04407E+000,8.02981E-003,4.88336E-001,0,4.63676E+001,-4.80699E+000,9.99709E-001,3.53905E+000,-3.80286E+001,9.99446E-001,7.22658E-002,-2.95611E-002,7.88955E-004,7.22719E-002,-2.95672E-002,4.43892E-001,7.26689E-002,1.07475E+000,-2.21671E-002,0.00000E+000,2.20319E-002,9.72294E-001,0.00000E+000,-8.99279E-003,-5.85209E-002,1.00000E+000,11
849,1307,-3.29887E+000,-1.65447E+000,1.69372E-001,2.23484E+000,-3.65803E-001,1.74910E-001,2.27132E+000,1.19453E-002,5.85101E-001,0,3.39898E+001,-6.35106E+000,9.99249E-001,-1.02367E+001,-4.23501E+001,9.98477E-001,7.68319E-002,-3.06217E-002,-2.12277E-003,7.68738E-002,-3.06636E-002,-1.13130E+000,7.73961E-002,1.07987E+000,-4.20451E-003,0.00000E+000,-6.39749E-004,9.72473E-001,0.00000E+000,3.93536E-003,-7.36329E-002,1.00000E+000,11
839,1337,-3.96325E+000,1.90424E-001,-4.97708E-003,2.18533E+000,-4.36932E-001,2.64298E-002,2.22873E+000,1.84572E-002,5.48209E-001,0,3.37306E+001,-7.15542E+000,9.99493E-001,-1.05279E+001,-4.36340E+001,9.99030E-001,7.50805E-002,-3.06322E-002,-1.90491E-003,7.51148E-002,-3.06665E-002,-1.03201E+000,7.55351E-002,1.07797E+000,-3.47321E-003,0.00000E+000,-5.46443E-004,9.72382E-001,0.00000E+000,-5.52194E-004,-7.25037E-002,1.00000E+000,11
839,1347,-3.94839E+000,8.18006E-001,-1.89347E-002,2.18263E+000,-4.53582E-001,-1.07175E-002,2.22929E+000,7.11442E-003,5.11890E-001,0,3.38044E+001,-7.34606E+000,9.99590E-001,-1.02111E+001,-4.39468E+001,9.99271E-001,7.45495E-002,-3.06325E-002,-1.91640E-003,7.45844E-002,-3.06674E-002,-1.04346E+000,7.49757E-002,1.07740E+000,-3.48848E-003,0.00000E+000,-4.54544E-004,9.72384E-001,0.00000E+000,-1.95985E-003,-7.25414E-002,1.00000E+000,11
839,1357,-3.91831E+000,1.45889E+000,1.90174E-002,2.18374E+000,-4.66799E-001,-5.18121E-002,2.23368E+000,5.74404E-003,5.03832E-001,0,3.39438E+001,-7.46741E+000,9.99691E-001,-9.53264E+000,-4.41565E+001,9.99423E-001,7.40106E-002,-3.06328E-002,-1.93258E-003,7.40463E-002,-3.06685E-002,-1.05767E+000,7.44090E-002,1.07682E+000,-3.51358E-003,0.00000E+000,-3.61676E-004,9.72388E-001,0.00000E+000,-3.38234E-003,-7.26033E-002,1.00000E+000,11
1019,1337,8.67610E+000,4.56978E-001,-3.35476E-002,3.06964E+000,-2.87532E-001,-6.49222E-002,3.08376E+000,8.13778E-003,5.27302E-001,0,4.70391E+001,-4.75521E+000,9.99698E-001,4.63771E+000,-3.77367E+001,9.99441E-001,7.20317E-002,-2.95421E-002,6.26647E-004,7.20355E-002,-2.95459E-002,3.53462E-001,7.24221E-002,1.07447E+000,-2.23733E-002,0.00000E+000,2.17207E-002,9.72238E-001,0.00000E+000,-5.82079E-003,-5.71465E-002,1.00000E+000,11
1019,1347,8.68117E+000,1.08266E+000,-3.63135E-002,3.05286E+000,-3.12039E-001,-9.74317E-002,3.07031E+000,7.45556E-003,4.83521E-001,0,4.68974E+001,-5.06196E+000,9.99756E-001,4.80183E+000,-3.80789E+001,9.99596E-001,7.19390E-002,-2.95349E-002,6.89192E-004,7.19436E-002,-2.95396E-002,3.89119E-001,7.23260E-002,1.07436E+000,-2.23768E-002,0.00000E+000,2.17705E-002,9.72240E-001,0.00000E+000,-4.43356E-003,-5.70998E-002,1.00000E+000,11
839,1327,-3.98382E+000,-4.26315E-001,1.71953E-002,2.18434E+000,-4.07432E-001,8.15927E-002,2.22352E+000,1.64236E-002,5.79737E-001,0,3.35397E+001,-6.81399E+000,9.99683E-001,-1.09105E+001,-4.31774E+001,9.99018E-001,7.56104E-002,-3.06320E-002,-1.89268E-003,7.56441E-002,-3.06657E-002,-1.02028E+000,7.60941E-002,1.07854E+000,-3.45619E-003,0.00000E+000,-6.38552E-004,9.72379E-001,0.00000E+000,8.58673E-004,-7.24617E-002,1.00000E+000,11
1019,1327,8.66971E+000,-1.77242E-001,-1.93849E-002,3.08153E+000,-2.73018E-001,-3.67033E-002,3.09382E+000,8.27739E-003,4.81121E-001,0,4.71236E+001,-4.56366E+000,9.99629E-001,4.47532E+000,-3.75996E+001,9.99256E-001,7.21224E-002,-2.95485E-002,5.63786E-004,7.21255E-002,-2.95516E-002,3.17704E-001,7.25164E-002,1.07457E+000,-2.23703E-002,0.00000E+000,2.16710E-002,9.72237E-001,0.00000E+000,-7.20710E-003,-5.71854E-002,1.00000E+000,11
1019,1317,8.67199E+000,-8.03347E-001,3.23888E-002,3.09487E+000,-2.54503E-001,-2.17156E-003,3.10532E+000,9.37075E-003,4.60931E-001,0,4.72028E+001,-4.34553E+000,9.99655E-001,4.52307E+000,-3.74068E+001,9.99041E-001,7.22110E-002,-2.95535E-002,5.00536E-004,7.22134E-002,-2.95560E-002,2.81804E-001,7.26085E-002,1.07468E+000,-2.23685E-002,0.00000E+000,2.16215E-002,9.72236E-001,0.00000E+000,-8.58897E-003,-5.72091E-002,1.00000E+000,11
839,1317,-3.99275E+000,-1.04296E+000,8.02350E-002,2.18338E+000,-3.84736E-001,1.20374E-001,2.22028E+000,8.29392E-003,5.52754E-001,0,3.33987E+001,-6.53512E+000,9.99414E-001,-1.10149E+001,-4.28365E+001,9.98342E-001,7.61351E-002,-3.06319E-002,-1.88512E-003,7.61683E-002,-3.06651E-002,-1.01122E+000,7.66486E-002,1.07911E+000,-3.44917E-003,0.00000E+000,-7.30129E-004,9.72378E-001,0.00000E+000,2.26138E-003,-7.24444E-002,1.00000E+000,11
1019,1297,8.68244E+000,-2.04410E+000,1.62408E-001,3.12165E+000,-2.12153E-001,6.85017E-002,3.12961E+000,8.88294E-003,4.57836E-001,0,4.73522E+001,-3.81140E+000,9.99617E-001,4.76403E+000,-3.68836E+001,9.98870E-001,7.23817E-002,-2.95623E-002,3.73884E-004,7.23831E-002,-2.95637E-002,2.10131E-001,7.27866E-002,1.07489E+000,-2.23658E-002,0.00000E+000,2.15228E-002,9.72235E-001,0.00000E+000,-1.13431E-002,-5.72440E-002,1.00000E+000,11
1019,1307,8.67247E+000,-1.42357E+000,8.25348E-002,3.10551E+000,-2.33340E-001,2.71531E-002,3.11439E+000,1.16569E-002,5.05365E-001,0,4.72581E+001,-4.06611E+000,9.99674E-001,4.54007E+000,-3.70886E+001,9.98949E-001,7.22972E-002,-2.95583E-002,4.37451E-004,7.22991E-002,-2.95602E-002,2.46069E-001,7.26984E-002,1.07478E+000,-2.23668E-002,0.00000E+000,2.15722E-002,9.72235E-001,0.00000E+000,-9.96443E-003,-5.72308E-002,1.00000E+000,11
839,1307,-3.99721E+000,-1.65456E+000,1.69513E-001,2.18275E+000,-3.60292E-001,1.65056E-001,2.21843E+000,7.57007E-003,5.26009E-001,0,3.32419E+001,-6.23582E+000,9.99242E-001,-1.09861E+001,-4.24730E+001,9.97981E-001,7.66557E-002,-3.06318E-002,-1.87923E-003,7.66886E-002,-3.06647E-002,-1.00317E+000,7.71996E-002,1.07968E+000,-3.44571E-003,0.00000E+000,-8.21394E-004,9.72377E-001,0.00000E+000,3.65932E-003,-7.24359E-002,1.00000E+000,11
829,1337,-4.66582E+000,1.87730E-001,-7.28005E-003,2.13218E+000,-4.31756E-001,3.04510E-002,2.17567E+000,1.23917E-002,5.60037E-001,0,3.29197E+001,-7.09999E+000,9.99330E-001,-1.13445E+001,-4.37624E+001,9.98776E-001,7.49621E-002,-3.05901E-002,-1.62087E-003,7.49870E-002,-3.06150E-002,-8.79561E-001,7.54065E-002,1.07784E+000,-2.85022E-003,0.00000E+000,-5.20718E-004,9.72337E-001,0.00000E+000,-1.02907E-003,-7.12932E-002,1.00000E+000,11
829,1347,-4.64530E+000,8.16312E-001,-1.10563E-002,2.13273E+000,-4.50542E-001,-9.04898E-003,2.17982E+000,5.90844E-003,5.31934E-001,0,3.30498E+001,-7.29922E+000,9.99351E-001,-1.09144E+001,-4.40791E+001,9.99110E-001,7.44994E-002,-3.05927E-002,-1.66886E-003,7.45259E-002,-3.06192E-002,-9.09549E-001,7.49197E-002,1.07735E+000,-2.86536E-003,0.00000E+000,-4.96282E-004,9.72338E-001,0.00000E+000,-2.51910E-003,-7.13387E-002,1.00000E+000,11
829,1357,-4.61769E+000,1.45451E+000,1.93219E-002,2.13302E+000,-4.65325E-001,-5.06910E-002,2.18378E+000,5.91695E-003,5.27808E-001,0,3.31787E+001,-7.44328E+000,9.99614E-001,-1.02906E+001,-4.43136E+001,9.99482E-001,7.40316E-002,-3.05962E-002,-1.71974E-003,7.40599E-002,-3.06245E-002,-9.41418E-001,7.44283E-002,1.07685E+000,-2.88603E-003,0.00000E+000,-4.71708E-004,9.72339E-001,0.00000E+000,-4.01749E-003,-7.14007E-002,1.00000E+000,11
1029,1337,9.37354E+000,4.72464E-001,-4.46854E-002,3.11218E+000,-2.76532E-001,-6.89536E-002,3.12520E+000,7.68704E-003,4.94560E-001,0,4.76655E+001,-4.57693E+000,9.99539E-001,5.42585E+000,-3.73954E+001,9.98954E-001,7.20621E-002,-2.94119E-002,4.59509E-004,7.20642E-002,-2.94140E-002,2.59448E-001,7.24683E-002,1.07449E+000,-2.24195E-002,0.00000E+000,2.13433E-002,9.72317E-001,0.00000E+000,-4.13613E-003,-5.61661E-002,1.00000E+000,11
1029,1347,9.38090E+000,1.10667E+000,-4.46233E-002,3.09659E+000,-2.94319E-001,-1.02452E-001,3.11223E+000,7.14485E-003,5.15958E-001,0,4.75434E+001,-4.79477E+000,9.99631E-001,5.63009E+000,-3.75774E+001,9.99057E-001,7.20731E-002,-2.94026E-002,5.41836E-004,7.20760E-002,-2.94055E-002,3.05923E-001,7.24817E-002,1.07450E+000,-2.24192E-002,0.00000E+000,2.14324E-002,9.72320E-001,0.00000E+000,-2.83913E-003,-5.61206E-002,1.00000E+000,11
1029,1327,9.37396E+000,-1.58201E-001,-1.93162E-002,3.12833E+000,-2.59315E-001,-4.11046E-002,3.13933E+000,8.27248E-003,4.64185E-001,0,4.78132E+001,-4.36037E+000,9.99525E-001,5.39270E+000,-3.72207E+001,9.99060E-001,7.20495E-002,-2.94193E-002,3.77407E-004,7.20509E-002,-2.94207E-002,2.13104E-001,7.24534E-002,1.07448E+000,-2.24197E-002,0.00000E+000,2.12546E-002,9.72315E-001,0.00000E+000,-5.42894E-003,-5.61973E-002,1.00000E+000,11
829,1327,-4.68386E+000,-4.29821E-001,1.88333E-002,2.12974E+000,-4.05809E-001,7.05995E-002,2.16920E+000,1.21472E-002,5.50610E-001,0,3.27543E+001,-6.76328E+000,9.99584E-001,-1.16795E+001,-4.33452E+001,9.99152E-001,7.54205E-002,-3.05881E-002,-1.57465E-003,7.54439E-002,-3.06115E-002,-8.50818E-001,7.58893E-002,1.07834E+000,-2.83839E-003,0.00000E+000,-5.45053E-004,9.72337E-001,0.00000E+000,4.54749E-004,-7.12576E-002,1.00000E+000,11
829,1307,-4.69015E+000,-1.66076E+000,1.84401E-001,2.13574E+000,-3.61610E-001,1.70450E-001,2.17283E+000,9.22201E-003,4.83613E-001,0,3.25250E+001,-6.25704E+000,9.99313E-001,-1.16137E+001,-4.27126E+001,9.97948E-001,7.63254E-002,-3.05864E-002,-1.48930E-003,7.63461E-002,-3.06071E-002,-7.97934E-001,7.68444E-002,1.07932E+000,-2.82894E-003,0.00000E+000,-5.93468E-004,9.72336E-001,0.00000E+000,3.40685E-003,-7.12292E-002,1.00000E+000,11
829,1317,-4.69093E+000,-1.04721E+000,8.44158E-002,2.13190E+000,-3.83709E-001,1.18650E-001,2.16940E+000,1.00036E-002,5.12809E-001,0,3.26338E+001,-6.49987E+000,9.99377E-001,-1.17493E+001,-4.30246E+001,9.98857E-001,7.58749E-002,-3.05869E-002,-1.53082E-003,7.58969E-002,-3.06089E-002,-8.23635E-001,7.63686E-002,1.07883E+000,-2.83134E-003,0.00000E+000,-5.69302E-004,9.72336E-001,0.00000E+000,1.93330E-003,-7.12364E-002,1.00000E+000,11
1029,1317,9.37636E+000,-7.85256E-001,2.66253E-002,3.14211E+000,-2.43202E-001,-1.12037E-002,3.15153E+000,9.36180E-003,4.81231E-001,0,4.79158E+001,-4.15897E+000,9.99673E-001,5.43084E+000,-3.70130E+001,9.98988E-001,7.20354E-002,-2.94256E-002,2.95713E-004,7.20362E-002,-2.94265E-002,1.66990E-001,7.24372E-002,1.07448E+000,-2.24199E-002,0.00000E+000,2.11663E-002,9.72313E-001,0.00000E+000,-6.71474E-003,-5.62200E-002,1.00000E+000,11
1029,1307,9.38226E+000,-1.40502E+000,9.28815E-002,3.15682E+000,-2.21668E-001,2.78833E-002,3.16471E+000,8.76335E-003,5.29279E-001,0,4.79962E+001,-3.90608E+000,9.99732E-001,5.56430E+000,-3.67214E+001,9.97974E-001,7.20195E-002,-2.94313E-002,2.14128E-004,7.20200E-002,-2.94317E-002,1.20931E-001,7.24195E-002,1.07447E+000,-2.24200E-002,0.00000E+000,2.10782E-002,9.72312E-001,0.00000E+000,-7.99827E-003,-5.62375E-002,1.00000E+000,11
1029,1297,9.39142E+000,-2.02303E+000,1.68024E-001,3.17260E+000,-1.97936E-001,6.62467E-002,3.17946E+000,7.90543E-003,4.99554E-001,0,4.80937E+001,-3.60692E+000,9.99693E-001,5.76645E+000,-3.64600E+001,9.98240E-001,7.20020E-002,-2.94364E-002,1.32377E-004,7.20022E-002,-2.94366E-002,7.47708E-002,7.24001E-002,1.07446E+000,-2.24201E-002,0.00000E+000,2.09899E-002,9.72311E-001,0.00000E+000,-9.28389E-003,-5.62507E-002,1.00000E+000,11
819,1317,-5.38626E+000,-1.05455E+000,9.59024E-002,2.08213E+000,-3.86558E-001,1.20589E-001,2.12114E+000,1.01564E-002,5.01386E-001,0,3.18837E+001,-6.54360E+000,9.99245E-001,-1.24181E+001,-4.32615E+001,9.98170E-001,7.53437E-002,-3.04496E-002,-1.21081E-003,7.53576E-002,-3.04635E-002,-6.55638E-001,7.58168E-002,1.07825E+000,-2.40078E-003,0.00000E+000,-2.95539E-004,9.72369E-001,0.00000E+000,1.43213E-003,-6.97727E-002,1.00000E+000,11
819,1327,-5.38131E+000,-4.38733E-001,2.49217E-002,2.08014E+000,-4.08166E-001,7.80648E-002,2.12124E+000,1.04852E-002,5.15657E-001,0,3.19891E+001,-6.80407E+000,9.99515E-001,-1.23943E+001,-4.36087E+001,9.98291E-001,7.49494E-002,-3.04514E-002,-1.28875E-003,7.49652E-002,-3.04672E-002,-7.00426E-001,7.54016E-002,1.07783E+000,-2.40540E-003,0.00000E+000,-3.46938E-004,9.72369E-001,0.00000E+000,2.41214E-005,-6.97880E-002,1.00000E+000,11
819,1337,-5.36495E+000,1.85834E-001,-5.98925E-003,2.08170E+000,-4.27361E-001,3.65244E-002,2.12543E+000,7.23154E-003,5.47440E-001,0,3.21426E+001,-7.02851E+000,9.99405E-001,-1.20948E+001,-4.38983E+001,9.99064E-001,7.45503E-002,-3.04550E-002,-1.36963E-003,7.45682E-002,-3.04729E-002,-7.47162E-001,7.49818E-002,1.07740E+000,-2.41519E-003,0.00000E+000,-3.98678E-004,9.72367E-001,0.00000E+000,-1.39325E-003,-6.98203E-002,1.00000E+000,11
819,1307,-5.39112E+000,-1.66510E+000,1.80400E-001,2.08116E+000,-3.63067E-001,1.61475E-001,2.11875E+000,9.89735E-003,5.53102E-001,0,3.17358E+001,-6.26416E+000,9.99359E-001,-1.24066E+001,-4.28289E+001,9.98212E-001,7.57343E-002,-3.04485E-002,-1.13411E-003,7.57465E-002,-3.04606E-002,-6.11869E-001,7.62285E-002,1.07868E+000,-2.39816E-003,0.00000E+000,-2.44347E-004,9.72369E-001,0.00000E+000,2.83449E-003,-6.97640E-002,1.00000E+000,11
819,1347,-5.34206E+000,8.16267E-001,-9.95215E-003,2.08440E+000,-4.44631E-001,-5.03746E-003,2.13130E+000,6.31877E-003,5.64191E-001,0,3.23108E+001,-7.21791E+000,9.99610E-001,-1.16274E+001,-4.41651E+001,9.99578E-001,7.41475E-002,-3.04599E-002,-1.45251E-003,7.41676E-002,-3.04801E-002,-7.95366E-001,7.45586E-002,1.07697E+000,-2.42853E-003,0.00000E+000,-4.50619E-004,9.72366E-001,0.00000E+000,-2.81613E-003,-6.98643E-002,1.00000E+000,11
819,1357,-5.31515E+000,1.44811E+000,2.34582E-002,2.08366E+000,-4.65742E-001,-4.64505E-002,2.13558E+000,7.70740E-003,5.43774E-001,0,3.24242E+001,-7.45567E+000,9.99567E-001,-1.10058E+001,-4.45143E+001,9.99396E-001,7.37404E-002,-3.04665E-002,-1.53814E-003,7.37631E-002,-3.04892E-002,-8.45468E-001,7.41315E-002,1.07654E+000,-2.44677E-003,0.00000E+000,-5.02822E-004,9.72364E-001,0.00000E+000,-4.24619E-003,-6.99246E-002,1.00000E+000,11
1039,1337,1.00792E+001,4.92630E-001,-5.16809E-002,3.16081E+000,-2.63212E-001,-7.56928E-002,3.17266E+000,7.16156E-003,5.22961E-001,0,4.83916E+001,-4.36766E+000,9.99640E-001,6.35324E+000,-3.69593E+001,9.98697E-001,7.20673E-002,-2.92179E-002,1.81128E-004,7.20676E-002,-2.92183E-002,1.02461E-001,7.24961E-002,1.07449E+000,-2.24402E-002,0.00000E+000,2.07437E-002,9.72482E-001,0.00000E+000,-2.67250E-003,-5.55205E-002,1.00000E+000,11
1039,1347,1.00850E+001,1.12026E+000,-5.02924E-002,3.14402E+000,-2.85501E-001,-1.06090E-001,3.15874E+000,7.24631E-003,4.57457E-001,0,4.82427E+001,-4.65018E+000,9.99762E-001,6.53464E+000,-3.72879E+001,9.99270E-001,7.21650E-002,-2.92110E-002,2.45606E-004,7.21656E-002,-2.92116E-002,1.38811E-001,7.26005E-002,1.07460E+000,-2.24366E-002,0.00000E+000,2.08019E-002,9.72484E-001,0.00000E+000,-1.51937E-003,-5.54806E-002,1.00000E+000,11
1039,1317,1.00795E+001,-7.62862E-001,2.11734E-002,3.18943E+000,-2.25584E-001,-1.26420E-002,3.19743E+000,6.78061E-003,4.65528E-001,0,4.86003E+001,-3.88884E+000,9.99657E-001,6.32575E+000,-3.65716E+001,9.99081E-001,7.18682E-002,-2.92285E-002,5.34161E-005,7.18682E-002,-2.92285E-002,3.02732E-002,7.22841E-002,1.07429E+000,-2.24447E-002,0.00000E+000,2.06275E-002,9.72479E-001,0.00000E+000,-4.97517E-003,-5.55704E-002,1.00000E+000,11
1039,1327,1.00787E+001,-1.39266E-001,-2.08308E-002,3.17643E+000,-2.45522E-001,-4.16656E-002,3.18617E+000,6.82311E-003,4.47625E-001,0,4.85080E+001,-4.15586E+000,9.99677E-001,6.31855E+000,-3.68399E+001,9.98829E-001,7.19680E-002,-2.92236E-002,1.16914E-004,7.19682E-002,-2.92237E-002,6.61979E-002,7.23903E-002,1.07439E+000,-2.24427E-002,0.00000E+000,2.06854E-002,9.72480E-001,0.00000E+000,-3.82830E-003,-5.55489E-002,1.00000E+000,11
1039,1307,1.00861E+001,-1.38649E+000,7.90259E-002,3.20530E+000,-2.07116E-001,1.99256E-002,3.21205E+000,7.21538E-003,4.87622E-001,0,4.87222E+001,-3.66099E+000,9.99657E-001,6.45248E+000,-3.63363E+001,9.98854E-001,7.17670E-002,-2.92328E-002,-9.85476E-006,7.17670E-002,-2.92328E-002,-5.59046E-003,7.21768E-002,1.07418E+000,-2.24462E-002,0.00000E+000,2.05696E-002,9.72478E-001,0.00000E+000,-6.12089E-003,-5.55870E-002,1.00000E+000,11
1039,1297,1.00964E+001,-2.00651E+000,1.56724E-001,3.22173E+000,-1.85911E-001,5.83750E-002,3.22762E+000,7.18156E-003,4.72668E-001,0,4.88288E+001,-3.40248E+000,9.99462E-001,6.67725E+000,-3.61059E+001,9.98772E-001,7.16646E-002,-2.92366E-002,-7.29266E-005,7.16647E-002,-2.92366E-002,-4.14107E-002,7.20682E-002,1.07408E+000,-2.24471E-002,0.00000E+000,2.05118E-002,9.72478E-001,0.00000E+000,-7.26666E-003,-5.55978E-002,1.00000E+000,11
1049,1337,1.07896E+001,5.11092E-001,-5.17307E-002,3.21316E+000,-2.49566E-001,-7.84663E-002,3.22379E+000,1.03666E-002,4.61164E-001,0,4.91583E+001,-4.15622E+000,9.99805E-001,7.37293E+000,-3.66093E+001,9.99229E-001,7.20093E-002,-2.91518E-002,-1.90474E-004,7.20097E-002,-2.91521E-002,-1.07880E-001,7.24432E-002,1.07443E+000,-2.24464E-002,0.00000E+000,1.99690E-002,9.72515E-001,0.00000E+000,-1.56691E-003,-5.46619E-002,1.00000E+000,11
1049,1347,1.08002E+001,1.14413E+000,-3.83867E-002,3.19869E+000,-2.70377E-001,-1.06440E-001,3.21186E+000,9.18943E-003,4.78571E-001,0,4.90348E+001,-4.42794E+000,9.99721E-001,7.65016E+000,-3.68373E+001,9.98821E-001,7.22108E-002,-2.91474E-002,-1.47978E-004,7.22110E-002,-2.91477E-002,-8.36490E-002,7.26565E-002,1.07465E+000,-2.24381E-002,0.00000E+000,1.99982E-002,9.72516E-001,0.00000E+000,-7.72656E-004,-5.46316E-002,1.00000E+000,11
1049,1307,1.07954E+001,-1.36531E+000,8.72364E-002,3.25497E+000,-1.91543E-001,1.75846E-002,3.26064E+000,9.67161E-003,4.25993E-001,0,4.94426E+001,-3.41371E+000,9.99670E-001,7.47278E+000,-3.59668E+001,9.98977E-001,7.14061E-002,-2.91603E-002,-3.11215E-004,7.14070E-002,-2.91612E-002,-1.77307E-001,7.18055E-002,1.07379E+000,-2.24583E-002,0.00000E+000,1.98824E-002,9.72514E-001,0.00000E+000,-3.92932E-003,-5.47055E-002,1.00000E+000,11
1049,1317,1.07881E+001,-7.40738E-001,3.35191E-002,3.23799E+000,-2.09911E-001,-1.21311E-002,3.24481E+000,9.17198E-003,4.37899E-001,0,4.92941E+001,-3.65686E+000,9.99500E-001,7.34244E+000,-3.61781E+001,9.97913E-001,7.16074E-002,-2.91577E-002,-2.71364E-004,7.16082E-002,-2.91584E-002,-1.54298E-001,7.20182E-002,1.07400E+000,-2.24551E-002,0.00000E+000,1.99112E-002,9.72514E-001,0.00000E+000,-3.14339E-003,-5.46937E-002,1.00000E+000,11
1049,1327,1.07848E+001,-1.20729E-001,-2.20595E-002,3.22553E+000,-2.33087E-001,-4.11733E-002,3.23421E+000,5.91149E-003,4.40137E-001,0,4.92138E+001,-3.96324E+000,9.99687E-001,7.26903E+000,-3.64613E+001,9.98386E-001,7.18083E-002,-2.91552E-002,-2.31602E-004,7.18088E-002,-2.91557E-002,-1.31431E-001,7.22304E-002,1.07422E+000,-2.24520E-002,0.00000E+000,1.99401E-002,9.72514E-001,0.00000E+000,-2.35697E-003,-5.46826E-002,1.00000E+000,11
809,1347,-6.04550E+000,8.05308E-001,-1.37471E-002,2.02929E+000,-4.48093E-001,-4.42926E-003,2.07818E+000,5.99022E-003,5.52408E-001,0,3.14802E+001,-7.27239E+000,9.99754E-001,-1.24526E+001,-4.44316E+001,9.99580E-001,7.37426E-002,-3.03247E-002,-1.24644E-003,7.37575E-002,-3.03396E-002,-6.86113E-001,7.41430E-002,1.07653E+000,-2.14237E-003,0.00000E+000,-2.92595E-004,9.72402E-001,0.00000E+000,-3.08064E-003,-6.84411E-002,1.00000E+000,11
809,1357,-6.01922E+000,1.43986E+000,2.48791E-002,2.02744E+000,-4.67350E-001,-4.41384E-002,2.08108E+000,7.18959E-003,5.45226E-001,0,3.15695E+001,-7.48266E+000,9.99694E-001,-1.18250E+001,-4.47456E+001,9.99222E-001,7.34174E-002,-3.03362E-002,-1.38499E-003,7.34359E-002,-3.03546E-002,-7.64648E-001,7.38026E-002,1.07619E+000,-2.15717E-003,0.00000E+000,-4.55384E-004,9.72395E-001,0.00000E+000,-4.47406E-003,-6.85010E-002,1.00000E+000,11
809,1327,-6.08168E+000,-4.48063E-001,1.56503E-002,2.02718E+000,-4.13515E-001,7.04466E-002,2.07012E+000,7.62965E-003,5.61734E-001,0,3.12190E+001,-6.85820E+000,9.99655E-001,-1.31885E+001,-4.38057E+001,9.98221E-001,7.43799E-002,-3.03105E-002,-9.77814E-004,7.43891E-002,-3.03196E-002,-5.35083E-001,7.48114E-002,1.07721E+000,-2.12442E-003,0.00000E+000,2.95070E-005,9.72410E-001,0.00000E+000,-3.23535E-004,-6.83685E-002,1.00000E+000,11
809,1337,-6.06370E+000,1.76694E-001,-6.60139E-003,2.03007E+000,-4.31145E-001,3.52141E-002,2.07565E+000,4.99968E-003,5.45225E-001,0,3.13719E+001,-7.07098E+000,9.99688E-001,-1.28413E+001,-4.41366E+001,9.99593E-001,7.40628E-002,-3.03168E-002,-1.11140E-003,7.40746E-002,-3.03286E-002,-6.09977E-001,7.44786E-002,1.07687E+000,-2.13238E-003,0.00000E+000,-1.31274E-004,9.72406E-001,0.00000E+000,-1.69977E-003,-6.84007E-002,1.00000E+000,11
809,1307,-6.09248E+000,-1.66926E+000,1.80407E-001,2.02718E+000,-3.62303E-001,1.63420E-001,2.06578E+000,1.14082E-002,5.95870E-001,0,3.09203E+001,-6.26354E+000,9.98495E-001,-1.31914E+001,-4.29643E+001,9.97165E-001,7.50046E-002,-3.03055E-002,-7.16906E-004,7.50095E-002,-3.03104E-002,-3.90021E-001,7.54681E-002,1.07789E+000,-2.11869E-003,0.00000E+000,3.49249E-004,9.72413E-001,0.00000E+000,2.41336E-003,-6.83452E-002,1.00000E+000,11
809,1317,-6.08561E+000,-1.05970E+000,9.26842E-002,2.03037E+000,-3.87740E-001,1.20243E-001,2.07056E+000,1.11693E-002,5.72300E-001,0,3.11092E+001,-6.56238E+000,9.99541E-001,-1.31808E+001,-4.33929E+001,9.98134E-001,7.46936E-002,-3.03073E-002,-8.46781E-004,7.47005E-002,-3.03141E-002,-4.62022E-001,7.51410E-002,1.07755E+000,-2.12065E-003,0.00000E+000,1.89568E-004,9.72412E-001,0.00000E+000,1.04654E-003,-6.83532E-002,1.00000E+000,11
1049,1297,1.07999E+001,-1.99038E+000,1.54257E-001,3.26805E+000,-1.74564E-001,5.55953E-002,3.27318E+000,8.26610E-003,4.22215E-001,0,4.95019E+001,-3.21122E+000,9.99325E-001,7.58638E+000,-3.57885E+001,9.98142E-001,7.12042E-002,-2.91627E-002,-3.50876E-004,7.12054E-002,-2.91640E-002,-2.00299E-001,7.15925E-002,1.07357E+000,-2.24611E-002,0.00000E+000,1.98536E-002,9.72513E-001,0.00000E+000,-4.71454E-003,-5.47158E-002,1.00000E+000,11
799,1337,-6.76360E+000,1.68592E-001,-9.60741E-003,1.97779E+000,-4.32668E-001,3.61450E-002,2.02489E+000,5.03084E-003,5.34092E-001,0,3.05828E+001,-7.08754E+000,9.99760E-001,-1.36071E+001,-4.43585E+001,9.99628E-001,7.33780E-002,-3.01787E-002,-8.18731E-004,7.33844E-002,-3.01852E-002,-4.52949E-001,7.37681E-002,1.07614E+000,-1.88118E-003,0.00000E+000,2.27621E-004,9.72456E-001,0.00000E+000,-1.95341E-003,-6.71232E-002,1.00000E+000,11
799,1347,-6.74541E+000,7.96252E-001,-1.74262E-002,1.97752E+000,-4.50453E-001,-2.37095E-003,2.02818E+000,6.27926E-003,5.46570E-001,0,3.06951E+001,-7.30125E+000,9.99657E-001,-1.32190E+001,-4.46658E+001,9.99346E-001,7.31130E-002,-3.01889E-002,-9.95109E-004,7.31226E-002,-3.01985E-002,-5.51863E-001,7.34908E-002,1.07586E+000,-1.88922E-003,0.00000E+000,-2.98943E-005,9.72449E-001,0.00000E+000,-3.14702E-003,-6.71573E-002,1.00000E+000,11
799,1357,-6.71564E+000,1.43417E+000,2.33337E-002,1.97921E+000,-4.66023E-001,-4.08542E-002,2.03375E+000,6.36749E-003,5.38854E-001,0,3.08335E+001,-7.46055E+000,9.99591E-001,-1.25294E+001,-4.49342E+001,9.99131E-001,7.28442E-002,-3.02041E-002,-1.17500E-003,7.28575E-002,-3.02175E-002,-6.53198E-001,7.32097E-002,1.07557E+000,-1.90145E-003,0.00000E+000,-2.89641E-004,9.72438E-001,0.00000E+000,-4.35097E-003,-6.72090E-002,1.00000E+000,11
799,1327,-6.77746E+000,-4.57936E-001,2.01206E-002,1.97848E+000,-4.16249E-001,7.66106E-002,2.02324E+000,1.27758E-002,5.37968E-001,0,3.04698E+001,-6.91681E+000,9.99707E-001,-1.38734E+001,-4.40751E+001,9.98350E-001,7.36408E-002,-3.01706E-002,-6.43591E-004,7.36448E-002,-3.01746E-002,-3.55194E-001,7.40438E-002,1.07642E+000,-1.87484E-003,0.00000E+000,4.84542E-004,9.72462E-001,0.00000E+000,-7.62556E-004,-6.70963E-002,1.00000E+000,11
1059,1327,1.14917E+001,-1.03012E-001,-1.95323E-002,3.27417E+000,-2.21870E-001,-4.04909E-002,3.28193E+000,9.01798E-003,4.40295E-001,0,4.99105E+001,-3.79577E+000,9.99742E-001,8.24308E+000,-3.60998E+001,9.98696E-001,7.17190E-002,-2.92320E-002,-4.60180E-004,7.17210E-002,-2.92340E-002,-2.61173E-001,7.21281E-002,1.07412E+000,-2.21682E-002,0.00000E+000,1.91657E-002,9.72415E-001,0.00000E+000,-9.63809E-004,-5.39411E-002,1.00000E+000,11
1059,1337,1.14975E+001,5.30916E-001,-4.49963E-002,3.26225E+000,-2.36654E-001,-7.51996E-002,3.27169E+000,7.26619E-003,4.57842E-001,0,4.98524E+001,-3.96797E+000,9.99817E-001,8.36929E+000,-3.62245E+001,9.99352E-001,7.20013E-002,-2.92298E-002,-4.30759E-004,7.20032E-002,-2.92316E-002,-2.43799E-001,7.24263E-002,1.07443E+000,-2.21600E-002,0.00000E+000,1.91872E-002,9.72415E-001,0.00000E+000,-5.29863E-004,-5.39294E-002,1.00000E+000,11
1059,1347,1.15109E+001,1.16358E+000,-3.01520E-002,3.25012E+000,-2.57223E-001,-1.02699E-001,3.26190E+000,1.02328E-002,4.52967E-001,0,4.97631E+001,-4.24203E+000,9.99814E-001,8.68997E+000,-3.64710E+001,9.98869E-001,7.22845E-002,-2.92271E-002,-3.99589E-004,7.22861E-002,-2.92287E-002,-2.25534E-001,7.27256E-002,1.07473E+000,-2.21482E-002,0.00000E+000,1.92088E-002,9.72416E-001,0.00000E+000,-9.42254E-005,-5.39126E-002,1.00000E+000,11
1059,1297,1.15034E+001,-1.97292E+000,1.48423E-001,3.31591E+000,-1.60217E-001,5.80281E-002,3.32028E+000,7.81725E-003,3.89780E-001,0,5.01778E+001,-3.00167E+000,9.99449E-001,8.49213E+000,-3.54346E+001,9.98190E-001,7.08738E-002,-2.92368E-002,-5.43275E-004,7.08767E-002,-2.92398E-002,-3.10918E-001,7.12372E-002,1.07322E+000,-2.21822E-002,0.00000E+000,1.91014E-002,9.72414E-001,0.00000E+000,-2.25982E-003,-5.39611E-002,1.00000E+000,11
1059,1307,1.14992E+001,-1.35010E+000,8.11402E-002,3.30318E+000,-1.78753E-001,1.97182E-002,3.30807E+000,9.92154E-003,3.62620E-001,0,5.01266E+001,-3.22659E+000,9.99671E-001,8.38424E+000,-3.56607E+001,9.98685E-001,7.11549E-002,-2.92353E-002,-5.15954E-004,7.11575E-002,-2.92379E-002,-2.94461E-001,7.15332E-002,1.07352E+000,-2.21782E-002,0.00000E+000,1.91228E-002,9.72414E-001,0.00000E+000,-1.82925E-003,-5.39554E-002,1.00000E+000,11
1059,1317,1.14919E+001,-7.27796E-001,1.89246E-002,3.28657E+000,-2.00220E-001,-1.61536E-002,3.29270E+000,1.02429E-002,4.28082E-001,0,5.00084E+001,-3.51669E+000,9.99616E-001,8.23554E+000,-3.58604E+001,9.97881E-001,7.14366E-002,-2.92337E-002,-4.88410E-004,7.14390E-002,-2.92361E-002,-2.77966E-001,7.18302E-002,1.07382E+000,-2.21739E-002,0.00000E+000,1.91442E-002,9.72414E-001,0.00000E+000,-1.39718E-003,-5.39492E-002,1.00000E+000,11
799,1307,-6.78599E+000,-1.67758E+000,1.88808E-001,1.97945E+000,-3.64982E-001,1.67623E-001,2.01978E+000,1.42361E-002,5.60074E-001,0,3.01938E+001,-6.30762E+000,9.98939E-001,-1.38307E+001,-4.32201E+001,9.98562E-001,7.41579E-002,-3.01646E-002,-2.99997E-004,7.41587E-002,-3.01655E-002,-1.64762E-001,7.45872E-002,1.07698E+000,-1.87067E-003,0.00000E+000,9.94401E-004,9.72466E-001,0.00000E+000,1.60070E-003,-6.70786E-002,1.00000E+000,11
799,1317,-6.78623E+000,-1.06917E+000,7.83662E-002,1.97823E+000,-3.89751E-001,1.15208E-001,2.01955E+000,1.30941E-002,5.68636E-001,0,3.03429E+001,-6.58644E+000,9.99439E-001,-1.39871E+001,-4.36047E+001,9.97886E-001,7.39006E-002,-3.01656E-002,-4.70680E-004,7.39027E-002,-3.01678E-002,-2.59135E-001,7.43167E-002,1.07670E+000,-1.87111E-003,0.00000E+000,7.39992E-004,9.72465E-001,0.00000E+000,4.21483E-004,-6.70805E-002,1.00000E+000,11
789,1327,-7.47278E+000,-4.63379E-001,2.01700E-002,1.93048E+000,-4.14896E-001,8.18968E-002,1.97626E+000,1.01340E-002,5.56450E-001,0,2.97323E+001,-6.91814E+000,9.99689E-001,-1.45575E+001,-4.42457E+001,9.98707E-001,7.29081E-002,-3.00242E-002,-4.11884E-004,7.29097E-002,-3.00258E-002,-2.29264E-001,7.32867E-002,1.07563E+000,-1.70891E-003,0.00000E+000,8.07946E-004,9.72530E-001,0.00000E+000,-1.10145E-003,-6.59548E-002,1.00000E+000,11
789,1337,-7.45868E+000,1.64442E-001,-6.91956E-003,1.92951E+000,-4.30282E-001,4.07355E-002,1.97732E+000,5.82035E-003,5.27769E-001,0,2.98418E+001,-7.05851E+000,9.99656E-001,-1.42795E+001,-4.45291E+001,9.99524E-001,7.27108E-002,-3.00341E-002,-6.16948E-004,7.27145E-002,-3.00378E-002,-3.44025E-001,7.30798E-002,1.07542E+000,-1.71383E-003,0.00000E+000,4.75536E-004,9.72523E-001,0.00000E+000,-2.06451E-003,-6.59773E-002,1.00000E+000,11
789,1347,-7.43866E+000,7.92740E-001,-1.30060E-002,1.93077E+000,-4.48460E-001,1.73543E-003,1.98217E+000,6.82825E-003,5.58883E-001,0,2.99785E+001,-7.27238E+000,9.99544E-001,-1.38576E+001,-4.48225E+001,9.99101E-001,7.25118E-002,-3.00463E-002,-8.23345E-004,7.25184E-002,-3.00529E-002,-4.59936E-001,7.28717E-002,1.07521E+000,-1.71996E-003,0.00000E+000,1.41915E-004,9.72513E-001,0.00000E+000,-3.03108E-003,-6.60054E-002,1.00000E+000,11
789,1357,-7.41285E+000,1.42751E+000,2.10298E-002,1.93003E+000,-4.65988E-001,-3.69381E-002,1.98583E+000,6.23423E-003,5.69276E-001,0,3.00802E+001,-7.47049E+000,9.99432E-001,-1.32441E+001,-4.51179E+001,9.99048E-001,7.23105E-002,-3.00633E-002,-1.03219E-003,7.23209E-002,-3.00737E-002,-5.77612E-001,7.26617E-002,1.07500E+000,-1.72864E-003,0.00000E+000,-1.93700E-004,9.72499E-001,0.00000E+000,-4.00342E-003,-6.60451E-002,1.00000E+000,11
1069,1327,1.21991E+001,-8.74100E-002,-2.58826E-002,3.32396E+000,-2.12950E-001,-4.39957E-002,3.33107E+000,9.90975E-003,4.60610E-001,0,5.06402E+001,-3.65205E+000,9.99721E-001,9.21186E+000,-3.57416E+001,9.98166E-001,7.16580E-002,-2.92002E-002,-6.74948E-004,7.16625E-002,-2.92047E-002,-3.83403E-001,7.20699E-002,1.07407E+000,-2.18839E-002,0.00000E+000,1.84442E-002,9.72437E-001,0.00000E+000,-2.13418E-005,-5.35121E-002,1.00000E+000,11
1069,1337,1.22006E+001,5.45649E-001,-5.08074E-002,3.30853E+000,-2.26767E-001,-7.45054E-002,3.31713E+000,6.44867E-003,4.32307E-001,0,5.05145E+001,-3.81899E+000,9.99727E-001,9.27159E+000,-3.59028E+001,9.98867E-001,7.19602E-002,-2.91990E-002,-6.55202E-004,7.19644E-002,-2.92033E-002,-3.71080E-001,7.23889E-002,1.07439E+000,-2.18755E-002,0.00000E+000,1.84666E-002,9.72437E-001,0.00000E+000,2.63671E-005,-5.35108E-002,1.00000E+000,11
1069,1347,1.22111E+001,1.17797E+000,-4.79557E-002,3.29518E+000,-2.47601E-001,-1.06234E-001,3.30618E+000,6.51613E-003,4.50878E-001,0,5.04239E+001,-4.08668E+000,9.99775E-001,9.52324E+000,-3.61149E+001,9.99109E-001,7.22643E-002,-2.91976E-002,-6.33759E-004,7.22683E-002,-2.92015E-002,-3.57867E-001,7.27103E-002,1.07472E+000,-2.18637E-002,0.00000E+000,1.84892E-002,9.72438E-001,0.00000E+000,7.44140E-005,-5.35091E-002,1.00000E+000,11
789,1307,-7.47935E+000,-1.68367E+000,1.85025E-001,1.93361E+000,-3.64912E-001,1.70699E-001,1.97513E+000,1.12687E-002,5.60843E-001,0,2.94991E+001,-6.30923E+000,9.99293E-001,-1.44935E+001,-4.33977E+001,9.97047E-001,7.32962E-002,-3.00169E-002,-8.37323E-006,7.32962E-002,-3.00169E-002,-4.64366E-003,7.36951E-002,1.07605E+000,-1.70572E-003,0.00000E+000,1.46708E-003,9.72535E-001,0.00000E+000,8.08198E-004,-6.59402E-002,1.00000E+000,11
789,1317,-7.47686E+000,-1.07659E+000,9.86434E-002,1.93234E+000,-3.92028E-001,1.27930E-001,1.97585E+000,1.26981E-002,5.52722E-001,0,2.96163E+001,-6.64980E+000,9.99340E-001,-1.45484E+001,-4.38637E+001,9.96124E-001,7.31029E-002,-3.00199E-002,-2.09749E-004,7.31033E-002,-3.00203E-002,-1.16537E-001,7.34913E-002,1.07584E+000,-1.70696E-003,0.00000E+000,1.13786E-003,9.72533E-001,0.00000E+000,-1.45631E-004,-6.59459E-002,1.00000E+000,11
1069,1297,1.22009E+001,-1.95826E+000,1.26736E-001,3.35919E+000,-1.48865E-001,5.21636E-002,3.36290E+000,9.91328E-003,4.12828E-001,0,5.08159E+001,-2.82862E+000,9.99210E-001,9.27988E+000,-3.50635E+001,9.97613E-001,7.07514E-002,-2.92030E-002,-7.30236E-004,7.07567E-002,-2.92084E-002,-4.18555E-001,7.11145E-002,1.07309E+000,-2.19006E-002,0.00000E+000,1.83771E-002,9.72436E-001,0.00000E+000,-1.64364E-004,-5.35145E-002,1.00000E+000,11
1069,1307,1.21981E+001,-1.33685E+000,5.67413E-002,3.34890E+000,-1.68152E-001,1.60900E-002,3.35316E+000,7.88734E-003,3.69617E-001,0,5.07952E+001,-3.06504E+000,9.99655E-001,9.18738E+000,-3.53114E+001,9.98386E-001,7.10521E-002,-2.92022E-002,-7.12720E-004,7.10572E-002,-2.92073E-002,-4.07295E-001,7.14311E-002,1.07341E+000,-2.18968E-002,0.00000E+000,1.83993E-002,9.72436E-001,0.00000E+000,-1.16941E-004,-5.35140E-002,1.00000E+000,11
1069,1317,1.21991E+001,-7.09725E-001,1.52596E-002,3.33705E+000,-1.87998E-001,-1.36461E-002,3.34237E+000,9.16398E-003,4.53913E-001,0,5.07250E+001,-3.33967E+000,9.99760E-001,9.20724E+000,-3.54688E+001,9.98028E-001,7.13551E-002,-2.92012E-002,-6.93860E-004,7.13598E-002,-2.92060E-002,-3.95328E-001,7.17503E-002,1.07374E+000,-2.18904E-002,0.00000E+000,1.84218E-002,9.72436E-001,0.00000E+000,-6.91501E-005,-5.35130E-002,1.00000E+000,11
779,1327,-8.16284E+000,-4.64672E-001,3.14372E-002,1.88632E+000,-4.12012E-001,9.35360E-002,1.93306E+000,1.49224E-002,6.14633E-001,0,2.90334E+001,-6.90065E+000,9.99640E-001,-1.51273E+001,-4.43561E+001,9.98379E-001,7.21230E-002,-2.98019E-002,-3.31039E-004,7.21240E-002,-2.98029E-002,-1.86087E-001,7.24853E-002,1.07479E+000,-1.64870E-003,0.00000E+000,9.26426E-004,9.72687E-001,0.00000E+000,-1.33982E-003,-6.50205E-002,1.00000E+000,11
779,1337,-8.15001E+000,1.55088E-001,-5.21147E-003,1.88456E+000,-4.34134E-001,4.44731E-002,1.93443E+000,5.81727E-003,5.54173E-001,0,2.91560E+001,-7.12574E+000,9.99519E-001,-1.48937E+001,-4.47609E+001,9.99360E-001,7.20322E-002,-2.98128E-002,-5.61232E-004,7.20353E-002,-2.98159E-002,-3.15724E-001,7.23904E-002,1.07469E+000,-1.65088E-003,0.00000E+000,5.29818E-004,9.72678E-001,0.00000E+000,-2.11632E-003,-6.50381E-002,1.00000E+000,11
779,1347,-8.13254E+000,7.85634E-001,-9.88168E-003,1.88289E+000,-4.49121E-001,3.95101E-003,1.93572E+000,7.15209E-003,5.45215E-001,0,2.92501E+001,-7.28357E+000,9.99352E-001,-1.45053E+001,-4.50450E+001,9.99051E-001,7.19403E-002,-2.98268E-002,-7.92665E-004,7.19465E-002,-2.98330E-002,-4.46241E-001,7.22950E-002,1.07459E+000,-1.65374E-003,0.00000E+000,1.31657E-004,9.72666E-001,0.00000E+000,-2.89586E-003,-6.50613E-002,1.00000E+000,11
779,1357,-8.10859E+000,1.42061E+000,1.94606E-002,1.88124E+000,-4.66010E-001,-3.56481E-002,1.93842E+000,5.55297E-003,5.58945E-001,0,2.93399E+001,-7.46564E+000,9.99403E-001,-1.39299E+001,-4.53270E+001,9.99310E-001,7.18471E-002,-2.98454E-002,-1.02627E-003,7.18575E-002,-2.98558E-002,-5.78146E-001,7.21988E-002,1.07450E+000,-1.65756E-003,0.00000E+000,-2.69426E-004,9.72651E-001,0.00000E+000,-3.68112E-003,-6.50922E-002,1.00000E+000,11
779,1317,-8.16856E+000,-1.07709E+000,1.04778E-001,1.88636E+000,-3.86701E-001,1.33596E-001,1.93022E+000,1.60557E-002,5.48215E-001,0,2.89075E+001,-6.58009E+000,9.99686E-001,-1.51557E+001,-4.39805E+001,9.98171E-001,7.22128E-002,-2.97971E-002,-1.02162E-004,7.22129E-002,-2.97972E-002,-5.73810E-002,7.25794E-002,1.07488E+000,-1.64783E-003,0.00000E+000,1.32184E-003,9.72691E-001,0.00000E+000,-5.65645E-004,-6.50135E-002,1.00000E+000,11
1079,1337,1.29081E+001,5.62761E-001,-5.77949E-002,3.35801E+000,-2.16071E-001,-7.78195E-002,3.36586E+000,7.40871E-003,4.36429E-001,0,5.12379E+001,-3.64660E+000,9.99677E-001,1.02434E+001,-3.55263E+001,9.99417E-001,7.19925E-002,-2.92255E-002,-8.46737E-004,7.19996E-002,-2.92325E-002,-4.79262E-001,7.24224E-002,1.07443E+000,-2.15246E-002,0.00000E+000,1.77510E-002,9.72412E-001,0.00000E+000,5.21062E-004,-5.32553E-002,1.00000E+000,11
1079,1347,1.29201E+001,1.19681E+000,-4.84926E-002,3.34589E+000,-2.35359E-001,-1.03494E-001,3.35576E+000,4.54761E-003,4.71927E-001,0,5.11435E+001,-3.91438E+000,9.99845E-001,1.05285E+001,-3.57158E+001,9.99717E-001,7.23089E-002,-2.92248E-002,-8.31902E-004,7.23157E-002,-2.92316E-002,-4.69403E-001,7.27566E-002,1.07477E+000,-2.15122E-002,0.00000E+000,1.77730E-002,9.72412E-001,0.00000E+000,3.17433E-004,-5.32628E-002,1.00000E+000,11
1079,1297,1.29090E+001,-1.93863E+000,1.30823E-001,3.40877E+000,-1.35152E-001,5.61203E-002,3.41191E+000,9.70070E-003,4.45875E-001,0,5.15091E+001,-2.64071E+000,9.99459E-001,1.02842E+001,-3.46639E+001,9.98098E-001,7.07350E-002,-2.92273E-002,-8.94777E-004,7.07430E-002,-2.92353E-002,-5.12808E-001,7.10970E-002,1.07308E+000,-2.15505E-002,0.00000E+000,1.76636E-002,9.72410E-001,0.00000E+000,1.32931E-003,-5.32399E-002,1.00000E+000,11
1079,1307,1.29024E+001,-1.32157E+000,4.89685E-002,3.39602E+000,-1.58804E-001,1.41893E-002,3.39976E+000,8.89267E-003,4.10782E-001,0,5.14761E+001,-2.92608E+000,9.99682E-001,1.01098E+001,-3.49487E+001,9.98426E-001,7.10480E-002,-2.92270E-002,-8.84307E-004,7.10558E-002,-2.92347E-002,-5.05229E-001,7.14264E-002,1.07342E+000,-2.15472E-002,0.00000E+000,1.76854E-002,9.72410E-001,0.00000E+000,1.12830E-003,-5.32418E-002,1.00000E+000,11
1079,1327,1.29058E+001,-7.06249E-002,-3.38855E-002,3.37221E+000,-2.02343E-001,-5.04117E-002,3.37865E+000,9.16297E-003,4.72420E-001,0,5.13555E+001,-3.48237E+000,9.99735E-001,1.01693E+001,-3.53660E+001,9.99211E-001,7.16781E-002,-2.92260E-002,-8.59715E-004,7.16855E-002,-2.92333E-002,-4.88119E-001,7.20906E-002,1.07410E+000,-2.15332E-002,0.00000E+000,1.77291E-002,9.72411E-001,0.00000E+000,7.23300E-004,-5.32502E-002,1.00000E+000,11
1079,1317,1.29023E+001,-6.91982E-001,4.07995E-003,3.38317E+000,-1.76552E-001,-1.82256E-002,3.38782E+000,8.31767E-003,4.57924E-001,0,5.14008E+001,-3.14037E+000,9.99706E-001,1.01067E+001,-3.50774E+001,9.98826E-001,7.13633E-002,-2.92265E-002,-8.72190E-004,7.13708E-002,-2.92340E-002,-4.96748E-001,7.17586E-002,1.07376E+000,-2.15406E-002,0.00000E+000,1.77072E-002,9.72410E-001,0.00000E+000,9.25713E-004,-5.32458E-002,1.00000E+000,11
779,1307,-8.17429E+000,-1.69297E+000,1.89843E-001,1.88412E+000,-3.69820E-001,1.74029E-001,1.92794E+000,1.04920E-002,5.68754E-001,0,2.87471E+001,-6.38314E+000,9.99570E-001,-1.51554E+001,-4.36395E+001,9.97905E-001,7.23013E-002,-2.97939E-002,1.24971E-004,7.23014E-002,-2.97941E-002,7.01333E-002,7.26730E-002,1.07498E+000,-1.64731E-003,0.00000E+000,1.71453E-003,9.72693E-001,0.00000E+000,2.03172E-004,-6.50093E-002,1.00000E+000,11
1089,1337,1.36138E+001,5.80883E-001,-6.56295E-002,3.40524E+000,-2.04996E-001,-8.17484E-002,3.41238E+000,6.55541E-003,4.97990E-001,0,5.19281E+001,-3.48541E+000,9.99607E-001,1.11888E+001,-3.51041E+001,9.99304E-001,7.22770E-002,-2.92934E-002,-9.64161E-004,7.22861E-002,-2.93026E-002,-5.43817E-001,7.27164E-002,1.07475E+000,-2.10171E-002,0.00000E+000,1.70400E-002,9.72352E-001,0.00000E+000,8.71762E-004,-5.31370E-002,1.00000E+000,11
1089,1347,1.36262E+001,1.21553E+000,-5.78064E-002,3.39348E+000,-2.22855E-001,-1.08463E-001,3.40252E+000,5.77983E-003,4.77647E-001,0,5.18432E+001,-3.71671E+000,9.99755E-001,1.14760E+001,-3.53071E+001,9.99160E-001,7.26797E-002,-2.92938E-002,-9.56366E-004,7.26887E-002,-2.93027E-002,-5.37290E-001,7.31420E-002,1.07518E+000,-2.10012E-002,0.00000E+000,1.70512E-002,9.72352E-001,0.00000E+000,5.22259E-004,-5.31498E-002,1.00000E+000,11
769,1347,-8.82610E+000,7.78379E-001,-7.52619E-003,1.83567E+000,-4.50068E-001,9.42472E-003,1.89007E+000,5.86119E-003,5.50418E-001,0,2.85215E+001,-7.30514E+000,9.99380E-001,-1.51459E+001,-4.52587E+001,9.99165E-001,7.11840E-002,-2.96346E-002,-7.28273E-004,7.11893E-002,-2.96399E-002,-4.13853E-001,7.15206E-002,1.07378E+000,-1.45741E-003,0.00000E+000,6.49468E-005,9.72794E-001,0.00000E+000,-2.67896E-003,-6.41205E-002,1.00000E+000,11
769,1357,-8.80122E+000,1.41438E+000,2.00669E-002,1.83551E+000,-4.65536E-001,-3.01524E-002,1.89387E+000,5.83443E-003,5.55686E-001,0,2.86333E+001,-7.45962E+000,9.99498E-001,-1.45583E+001,-4.55271E+001,9.99361E-001,7.10780E-002,-2.96509E-002,-9.38854E-004,7.10867E-002,-2.96597E-002,-5.33969E-001,7.14107E-002,1.07367E+000,-1.46169E-003,0.00000E+000,-2.96090E-004,9.72780E-001,0.00000E+000,-3.39404E-003,-6.41480E-002,1.00000E+000,11
769,1327,-8.85554E+000,-4.71714E-001,3.82149E-002,1.83679E+000,-4.14076E-001,8.84299E-002,1.88497E+000,1.16531E-002,5.95798E-001,0,2.83021E+001,-6.92367E+000,9.99519E-001,-1.57452E+001,-4.45844E+001,9.97554E-001,7.13924E-002,-2.96143E-002,-3.12571E-004,7.13934E-002,-2.96153E-002,-1.77303E-001,7.17379E-002,1.07400E+000,-1.45218E-003,0.00000E+000,7.80398E-004,9.72811E-001,0.00000E+000,-1.26193E-003,-6.40869E-002,1.00000E+000,11
769,1337,-8.84438E+000,1.46458E-001,-2.47098E-003,1.83591E+000,-4.37035E-001,4.79938E-002,1.88783E+000,5.86669E-003,5.60406E-001,0,2.84124E+001,-7.17359E+000,9.99515E-001,-1.55474E+001,-4.49944E+001,9.99035E-001,7.12887E-002,-2.96224E-002,-5.19805E-004,7.12914E-002,-2.96251E-002,-2.95127E-001,7.16295E-002,1.07389E+000,-1.45424E-003,0.00000E+000,4.23276E-004,9.72805E-001,0.00000E+000,-1.96925E-003,-6.41001E-002,1.00000E+000,11
1089,1327,1.36091E+001,-5.11860E-002,-5.03890E-002,3.41890E+000,-1.86368E-001,-5.64837E-002,3.42444E+000,8.25564E-003,4.62595E-001,0,5.20439E+001,-3.24232E+000,9.99622E-001,1.10649E+001,-3.49420E+001,9.98739E-001,7.18742E-002,-2.92931E-002,-9.70198E-004,7.18835E-002,-2.93024E-002,-5.49401E-001,7.22912E-002,1.07432E+000,-2.10291E-002,0.00000E+000,1.70288E-002,9.72352E-001,0.00000E+000,1.22100E-003,-5.31273E-002,1.00000E+000,11
1089,1317,1.36100E+001,-6.78779E-001,-6.11679E-003,3.43280E+000,-1.68237E-001,-2.42052E-002,3.43701E+000,7.80729E-003,4.94434E-001,0,5.21347E+001,-3.03034E+000,9.99715E-001,1.10811E+001,-3.47419E+001,9.99177E-001,7.14734E-002,-2.92929E-002,-9.74622E-004,7.14828E-002,-2.93023E-002,-5.54102E-001,7.18685E-002,1.07389E+000,-2.10376E-002,0.00000E+000,1.70177E-002,9.72351E-001,0.00000E+000,1.56821E-003,-5.31204E-002,1.00000E+000,11
1089,1297,1.36173E+001,-1.91949E+000,1.30308E-001,3.45831E+000,-1.22610E-001,5.62915E-002,3.46094E+000,7.23969E-003,4.78478E-001,0,5.22149E+001,-2.45043E+000,9.99724E-001,1.12874E+001,-3.42624E+001,9.99128E-001,7.06730E-002,-2.92924E-002,-9.81167E-004,7.06827E-002,-2.93021E-002,-5.62289E-001,7.10258E-002,1.07303E+000,-2.10497E-002,0.00000E+000,1.69955E-002,9.72351E-001,0.00000E+000,2.26079E-003,-5.31106E-002,1.00000E+000,11
1089,1307,1.36113E+001,-1.30327E+000,4.74828E-002,3.44578E+000,-1.47644E-001,1.20525E-002,3.44896E+000,7.56690E-003,4.71918E-001,0,5.21952E+001,-2.76492E+000,9.99759E-001,1.11207E+001,-3.45422E+001,9.99184E-001,7.10726E-002,-2.92926E-002,-9.78670E-004,7.10821E-002,-2.93022E-002,-5.58626E-001,7.14462E-002,1.07346E+000,-2.10453E-002,0.00000E+000,1.70066E-002,9.72351E-001,0.00000E+000,1.91522E-003,-5.31142E-002,1.00000E+000,11
769,1317,-8.86341E+000,-1.08312E+000,1.06697E-001,1.83695E+000,-3.89658E-001,1.36109E-001,1.88275E+000,1.27337E-002,5.63496E-001,0,2.81572E+001,-6.59698E+000,9.99734E-001,-1.58189E+001,-4.41641E+001,9.98849E-001,7.14948E-002,-2.96087E-002,-1.07052E-004,7.14949E-002,-2.96088E-002,-6.06665E-002,7.18455E-002,1.07411E+000,-1.45080E-003,0.00000E+000,1.13512E-003,9.72816E-001,0.00000E+000,-5.59357E-004,-6.40780E-002,1.00000E+000,11
1099,1327,1.43135E+001,-3.58805E-002,-5.86237E-002,3.46604E+000,-1.76362E-001,-5.46361E-002,3.47095E+000,9.00288E-003,4.81605E-001,0,5.27108E+001,-3.09894E+000,9.99172E-001,1.19948E+001,-3.45858E+001,9.97761E-001,7.20676E-002,-2.93668E-002,-1.09717E-003,7.20795E-002,-2.93787E-002,-6.19645E-001,7.24887E-002,1.07454E+000,-2.05789E-002,0.00000E+000,1.63605E-002,9.72303E-001,0.00000E+000,1.40824E-003,-5.33495E-002,1.00000E+000,11
1099,1337,1.43230E+001,5.99747E-001,-6.76574E-002,3.45548E+000,-1.91871E-001,-8.06321E-002,3.46174E+000,8.31564E-003,4.90198E-001,0,5.26432E+001,-3.29204E+000,9.99264E-001,1.22054E+001,-3.47175E+001,9.98653E-001,7.25822E-002,-2.93664E-002,-1.07991E-003,7.25937E-002,-2.93778E-002,-6.06828E-001,7.30320E-002,1.07509E+000,-2.05620E-002,0.00000E+000,1.63907E-002,9.72304E-001,0.00000E+000,9.93411E-004,-5.33621E-002,1.00000E+000,11
1099,1347,1.43380E+001,1.23701E+000,-5.51203E-002,3.44406E+000,-2.08947E-001,-1.11001E-001,3.45218E+000,6.85951E-003,4.89347E-001,0,5.25763E+001,-3.50754E+000,9.99522E-001,1.25392E+001,-3.48790E+001,9.98959E-001,7.30978E-002,-2.93658E-002,-1.06023E-003,7.31087E-002,-2.93768E-002,-5.92779E-001,7.35770E-002,1.07564E+000,-2.05399E-002,0.00000E+000,1.64210E-002,9.72305E-001,0.00000E+000,5.77387E-004,-5.33787E-002,1.00000E+000,11
759,1347,-9.51712E+000,7.73449E-001,-9.26630E-003,1.79069E+000,-4.48964E-001,1.14123E-002,1.84615E+000,5.64138E-003,5.51574E-001,0,2.78366E+001,-7.27977E+000,9.99368E-001,-1.57531E+001,-4.54295E+001,9.98989E-001,7.04413E-002,-2.94856E-002,-6.42723E-004,7.04454E-002,-2.94898E-002,-3.68502E-001,7.07558E-002,1.07298E+000,-1.19035E-003,0.00000E+000,-3.03569E-005,9.72883E-001,0.00000E+000,-2.36446E-003,-6.32023E-002,1.00000E+000,11
759,1357,-9.49471E+000,1.40757E+000,1.77279E-002,1.78857E+000,-4.65732E-001,-2.72129E-002,1.84841E+000,6.07521E-003,5.66293E-001,0,2.79150E+001,-7.46304E+000,9.99472E-001,-1.52034E+001,-4.57228E+001,9.99069E-001,7.02495E-002,-2.94967E-002,-7.91323E-004,7.02557E-002,-2.95030E-002,-4.54510E-001,7.05553E-002,1.07278E+000,-1.19803E-003,0.00000E+000,-2.67454E-004,9.72874E-001,0.00000E+000,-3.09464E-003,-6.32299E-002,1.00000E+000,11
1099,1297,1.43214E+001,-1.90699E+000,1.15024E-001,3.50485E+000,-1.15216E-001,4.90094E-002,3.50708E+000,6.88508E-003,5.00480E-001,0,5.29049E+001,-2.32592E+000,9.99510E-001,1.21997E+001,-3.39385E+001,9.98596E-001,7.05327E-002,-2.93678E-002,-1.13746E-003,7.05456E-002,-2.93807E-002,-6.52255E-001,7.08729E-002,1.07289E+000,-2.06051E-002,0.00000E+000,1.62706E-002,9.72302E-001,0.00000E+000,2.64319E-003,-5.33298E-002,1.00000E+000,11
1099,1307,1.43177E+001,-1.28610E+000,3.95049E-002,3.49460E+000,-1.36202E-001,1.21865E-002,3.49728E+000,7.82856E-003,4.90359E-001,0,5.28915E+001,-2.58600E+000,9.99673E-001,1.20832E+001,-3.41612E+001,9.98983E-001,7.10437E-002,-2.93675E-002,-1.12548E-003,7.10563E-002,-2.93801E-002,-6.42102E-001,7.14101E-002,1.07344E+000,-2.05994E-002,0.00000E+000,1.63005E-002,9.72302E-001,0.00000E+000,2.23245E-003,-5.33340E-002,1.00000E+000,11
1099,1317,1.43144E+001,-6.62227E-001,-1.89057E-002,3.48086E+000,-1.56417E-001,-2.36364E-002,3.48446E+000,9.16362E-003,5.03299E-001,0,5.28193E+001,-2.84910E+000,9.99525E-001,1.20042E+001,-3.43633E+001,9.98673E-001,7.15553E-002,-2.93672E-002,-1.11198E-003,7.15676E-002,-2.93794E-002,-6.31190E-001,7.19486E-002,1.07399E+000,-2.05906E-002,0.00000E+000,1.63305E-002,9.72302E-001,0.00000E+000,1.82082E-003,-5.33407E-002,1.00000E+000,11
759,1327,-9.55087E+000,-4.80056E-001,3.76033E-002,1.78642E+000,-4.16481E-001,8.72947E-002,1.83640E+000,6.69933E-003,5.47577E-001,0,2.75455E+001,-6.93571E+000,9.99673E-001,-1.64181E+001,-4.48319E+001,9.99318E-001,7.08199E-002,-2.94721E-002,-3.50853E-004,7.08211E-002,-2.94734E-002,-2.00436E-001,7.11522E-002,1.07339E+000,-1.18112E-003,0.00000E+000,4.39898E-004,9.72893E-001,0.00000E+000,-9.16233E-004,-6.31692E-002,1.00000E+000,11
759,1337,-9.53593E+000,1.45086E-001,1.92199E-003,1.78915E+000,-4.32733E-001,5.03663E-002,1.84142E+000,5.64139E-003,5.67188E-001,0,2.76980E+001,-7.11282E+000,9.99473E-001,-1.61476E+001,-4.51193E+001,9.98990E-001,7.06312E-002,-2.94778E-002,-4.96199E-004,7.06336E-002,-2.94802E-002,-2.83983E-001,7.09544E-002,1.07319E+000,-1.18495E-003,0.00000E+000,2.05118E-004,9.72889E-001,0.00000E+000,-1.63928E-003,-6.31829E-002,1.00000E+000,11
759,1317,-9.55630E+000,-1.09307E+000,1.08138E-001,1.78802E+000,-3.94059E-001,1.32222E-001,1.83569E+000,1.02550E-002,5.94559E-001,0,2.74323E+001,-6.68268E+000,9.99633E-001,-1.64501E+001,-4.43992E+001,9.99013E-001,7.10067E-002,-2.94687E-002,-2.07310E-004,7.10071E-002,-2.94692E-002,-1.18217E-001,7.13482E-002,1.07359E+000,-1.17891E-003,0.00000E+000,6.72980E-004,9.72896E-001,0.00000E+000,-1.98417E-004,-6.31613E-002,1.00000E+000,11
749,1317,-1.02432E+001,-1.09686E+000,1.17754E-001,1.74347E+000,-3.94588E-001,1.30250E-001,1.79230E+000,8.05054E-003,6.10414E-001,0,2.67669E+001,-6.68335E+000,9.99593E-001,-1.69620E+001,-4.45637E+001,9.98713E-001,7.06131E-002,-2.93764E-002,-2.91939E-004,7.06139E-002,-2.93773E-002,-1.67285E-001,7.09451E-002,1.07317E+000,-7.57052E-004,0.00000E+000,1.08199E-004,9.72939E-001,0.00000E+000,1.25147E-004,-6.23876E-002,1.00000E+000,11
749,1327,-1.02385E+001,-4.83495E-001,3.94479E-002,1.74277E+000,-4.15893E-001,8.56664E-002,1.79375E+000,5.61303E-003,5.83012E-001,0,2.68922E+001,-6.92013E+000,9.99560E-001,-1.69614E+001,-4.49667E+001,9.99033E-001,7.03394E-002,-2.93781E-002,-3.85757E-004,7.03409E-002,-2.93796E-002,-2.21644E-001,7.06581E-002,1.07287E+000,-7.59558E-004,0.00000E+000,-3.20434E-005,9.72938E-001,0.00000E+000,-5.33179E-004,-6.23932E-002,1.00000E+000,11
749,1337,-1.02268E+001,1.41381E-001,4.07654E-003,1.74254E+000,-4.31374E-001,5.00984E-002,1.79584E+000,5.34384E-003,5.87072E-001,0,2.69941E+001,-7.09032E+000,9.99544E-001,-1.67396E+001,-4.52688E+001,9.99229E-001,7.00636E-002,-2.93816E-002,-4.81544E-004,7.00659E-002,-2.93839E-002,-2.77435E-001,7.03689E-002,1.07258E+000,-7.65021E-004,0.00000E+000,-1.73170E-004,9.72935E-001,0.00000E+000,-1.19566E-003,-6.24055E-002,1.00000E+000,11
749,1347,-1.02102E+001,7.67739E-001,-1.07597E-002,1.74276E+000,-4.48404E-001,1.11804E-002,1.79956E+000,5.66982E-003,5.45395E-001,0,2.71118E+001,-7.26336E+000,9.99546E-001,-1.63873E+001,-4.56170E+001,9.99340E-001,6.97863E-002,-2.93864E-002,-5.78577E-004,6.97897E-002,-2.93898E-002,-3.34250E-001,7.00786E-002,1.07228E+000,-7.72552E-004,0.00000E+000,-3.14706E-004,9.72931E-001,0.00000E+000,-1.86006E-003,-6.24224E-002,1.00000E+000,11
1109,1297,1.50266E+001,-1.89303E+000,1.05238E-001,3.55385E+000,-1.04186E-001,5.40995E-002,3.55579E+000,7.11560E-003,4.86192E-001,0,5.35841E+001,-2.17289E+000,9.99335E-001,1.31450E+001,-3.36216E+001,9.97946E-001,7.05411E-002,-2.95227E-002,-1.22703E-003,7.05561E-002,-2.95378E-002,-7.02448E-001,7.08668E-002,1.07292E+000,-1.98801E-002,0.00000E+000,1.54109E-002,9.72188E-001,0.00000E+000,3.14606E-003,-5.37647E-002,1.00000E+000,11
1109,1307,1.50217E+001,-1.27143E+000,3.08373E-002,3.54238E+000,-1.24384E-001,1.85974E-002,3.54461E+000,7.82079E-003,4.55197E-001,0,5.35479E+001,-2.41763E+000,9.99516E-001,1.30119E+001,-3.38446E+001,9.98780E-001,7.11016E-002,-2.95213E-002,-1.19426E-003,7.11158E-002,-2.95355E-002,-6.79898E-001,7.14550E-002,1.07351E+000,-1.98739E-002,0.00000E+000,1.54905E-002,9.72188E-001,0.00000E+000,2.54055E-003,-5.37710E-002,1.00000E+000,11
1109,1317,1.50188E+001,-6.47316E-001,-2.76010E-002,3.52912E+000,-1.44686E-001,-1.65205E-002,3.53213E+000,7.96527E-003,4.70789E-001,0,5.34813E+001,-2.68187E+000,9.99453E-001,1.29386E+001,-3.40397E+001,9.98665E-001,7.16630E-002,-2.95197E-002,-1.15982E-003,7.16763E-002,-2.95330E-002,-6.56644E-001,7.20451E-002,1.07412E+000,-1.98642E-002,0.00000E+000,1.55703E-002,9.72190E-001,0.00000E+000,1.93328E-003,-5.37807E-002,1.00000E+000,11
749,1357,-1.01859E+001,1.40064E+000,1.73963E-002,1.74308E+000,-4.65595E-001,-2.47780E-002,1.80436E+000,6.86513E-003,5.60829E-001,0,2.72196E+001,-7.46528E+000,9.99566E-001,-1.58030E+001,-4.59327E+001,9.99302E-001,6.95065E-002,-2.93934E-002,-6.77947E-004,6.95112E-002,-2.93980E-002,-3.92731E-001,6.97859E-002,1.07198E+000,-7.83574E-004,0.00000E+000,-4.57285E-004,9.72926E-001,0.00000E+000,-2.52935E-003,-6.24471E-002,1.00000E+000,11
1109,1327,1.50202E+001,-2.07210E-002,-6.44344E-002,3.51526E+000,-1.65485E-001,-4.97889E-002,3.51950E+000,7.05491E-003,4.67614E-001,0,5.33963E+001,-2.94742E+000,9.99217E-001,1.29698E+001,-3.42534E+001,9.98393E-001,7.22255E-002,-2.95176E-002,-1.12327E-003,7.22379E-002,-2.95300E-002,-6.32457E-001,7.26374E-002,1.07472E+000,-1.98502E-002,0.00000E+000,1.56504E-002,9.72191E-001,0.00000E+000,1.32410E-003,-5.37949E-002,1.00000E+000,11
1109,1337,1.50283E+001,6.15098E-001,-7.85232E-002,3.50278E+000,-1.81421E-001,-8.20978E-002,3.50844E+000,7.67840E-003,4.89777E-001,0,5.33241E+001,-3.13669E+000,9.99532E-001,1.31472E+001,-3.43627E+001,9.98992E-001,7.27900E-002,-2.95152E-002,-1.08434E-003,7.28015E-002,-2.95266E-002,-6.07192E-001,7.32329E-002,1.07532E+000,-1.98313E-002,0.00000E+000,1.57308E-002,9.72194E-001,0.00000E+000,7.11798E-004,-5.38140E-002,1.00000E+000,11
1109,1347,1.50471E+001,1.25360E+000,-5.18598E-002,3.49156E+000,-1.99796E-001,-1.12252E-001,3.49907E+000,8.00743E-003,4.92741E-001,0,5.32588E+001,-3.37082E+000,9.99537E-001,1.35632E+001,-3.45324E+001,9.98706E-001,7.33565E-002,-2.95120E-002,-1.04134E-003,7.33671E-002,-2.95225E-002,-5.79926E-001,7.38316E-002,1.07593E+000,-1.98039E-002,0.00000E+000,1.58117E-002,9.72198E-001,0.00000E+000,9.64193E-005,-5.38417E-002,1.00000E+000,11
739,1337,-1.09167E+001,1.33562E-001,4.93443E-003,1.69665E+000,-4.33432E-001,4.92844E-002,1.75183E+000,6.21820E-003,5.91098E-001,0,2.63027E+001,-7.12143E+000,9.99428E-001,-1.73168E+001,-4.54868E+001,9.99137E-001,6.94213E-002,-2.91612E-002,-5.58106E-004,6.94245E-002,-2.91643E-002,-3.24355E-001,6.97194E-002,1.07189E+000,-4.26973E-004,0.00000E+000,-6.41609E-004,9.73102E-001,0.00000E+000,-9.72940E-004,-6.16237E-002,1.00000E+000,11
739,1347,-1.09024E+001,7.61325E-001,-7.94665E-003,1.69508E+000,-4.48735E-001,1.39041E-002,1.75352E+000,4.95185E-003,5.57806E-001,0,2.63811E+001,-7.27725E+000,9.99703E-001,-1.69922E+001,-4.58156E+001,9.99485E-001,6.90301E-002,-2.91658E-002,-6.58191E-004,6.90345E-002,-2.91702E-002,-3.84021E-001,6.93101E-002,1.07147E+000,-4.37311E-004,0.00000E+000,-7.82594E-004,9.73099E-001,0.00000E+000,-1.71274E-003,-6.16420E-002,1.00000E+000,11
739,1357,-1.08785E+001,1.39486E+000,1.89465E-002,1.69553E+000,-4.64643E-001,-2.13578E-002,1.75817E+000,4.96959E-003,5.53808E-001,0,2.64882E+001,-7.45306E+000,9.99665E-001,-1.64157E+001,-4.61302E+001,9.99487E-001,6.86354E-002,-2.91727E-002,-7.61212E-004,6.86413E-002,-2.91786E-002,-4.45880E-001,6.88977E-002,1.07105E+000,-4.52482E-004,0.00000E+000,-9.24549E-004,9.73094E-001,0.00000E+000,-2.45762E-003,-6.16689E-002,1.00000E+000,11
739,1327,-1.09290E+001,-4.88495E-001,4.14387E-002,1.69610E+000,-4.15108E-001,8.58022E-002,1.74826E+000,6.85428E-003,5.48230E-001,0,2.61860E+001,-6.89360E+000,9.99670E-001,-1.75452E+001,-4.51612E+001,9.99225E-001,6.98109E-002,-2.91577E-002,-4.59539E-004,6.98131E-002,-2.91598E-002,-2.66032E-001,7.01277E-002,1.07231E+000,-4.19356E-004,0.00000E+000,-5.00969E-004,9.73105E-001,0.00000E+000,-2.34958E-004,-6.16103E-002,1.00000E+000,11
1119,1297,1.57297E+001,-1.87923E+000,9.61644E-002,3.60038E+000,-9.35024E-002,6.01836E-002,3.60210E+000,7.29062E-003,4.64020E-001,0,5.42210E+001,-2.01984E+000,9.99648E-001,1.40629E+001,-3.33130E+001,9.99035E-001,7.06591E-002,-2.93941E-002,-1.33934E-003,7.06771E-002,-2.94120E-002,-7.66795E-001,7.10076E-002,1.07306E+000,-1.91517E-002,0.00000E+000,1.45310E-002,9.72356E-001,0.00000E+000,3.16614E-003,-5.43182E-002,1.00000E+000,11
1119,1307,1.57267E+001,-1.25785E+000,2.57580E-002,3.58931E+000,-1.15042E-001,2.30302E-002,3.59123E+000,6.12560E-003,4.55459E-001,0,5.41978E+001,-2.29165E+000,9.99616E-001,1.39655E+001,-3.35348E+001,9.99451E-001,7.12137E-002,-2.93910E-002,-1.27957E-003,7.12300E-002,-2.94073E-002,-7.28576E-001,7.15897E-002,1.07365E+000,-1.91443E-002,0.00000E+000,1.46698E-002,9.72357E-001,0.00000E+000,2.42851E-003,-5.43274E-002,1.00000E+000,11
1119,1317,1.57268E+001,-6.33053E-001,-2.94255E-002,3.57824E+000,-1.34914E-001,-1.19699E-002,3.58080E+000,5.98526E-003,4.47829E-001,0,5.41641E+001,-2.54513E+000,9.99491E-001,1.39450E+001,-3.37360E+001,9.99433E-001,7.17683E-002,-2.93875E-002,-1.21840E-003,7.17830E-002,-2.94022E-002,-6.89979E-001,7.21730E-002,1.07424E+000,-1.91340E-002,0.00000E+000,1.48088E-002,9.72360E-001,0.00000E+000,1.68958E-003,-5.43402E-002,1.00000E+000,11
1119,1327,1.57290E+001,-5.18353E-003,-6.61447E-002,3.56432E+000,-1.54878E-001,-4.81917E-002,3.56801E+000,5.59250E-003,4.41913E-001,0,5.40895E+001,-2.79391E+000,9.99477E-001,1.39883E+001,-3.39298E+001,9.99292E-001,7.23239E-002,-2.93832E-002,-1.15505E-003,7.23370E-002,-2.93963E-002,-6.50574E-001,7.27585E-002,1.07484E+000,-1.91194E-002,0.00000E+000,1.49483E-002,9.72363E-001,0.00000E+000,9.48062E-004,-5.43584E-002,1.00000E+000,11
1119,1337,1.57376E+001,6.28307E-001,-8.00051E-002,3.55150E+000,-1.74073E-001,-8.28422E-002,3.55673E+000,5.90995E-003,4.78610E-001,0,5.40227E+001,-3.03073E+000,9.99708E-001,1.41714E+001,-3.40668E+001,9.99093E-001,7.28819E-002,-2.93781E-002,-1.08922E-003,7.28935E-002,-2.93897E-002,-6.10190E-001,7.33476E-002,1.07544E+000,-1.91001E-002,0.00000E+000,1.50886E-002,9.72368E-001,0.00000E+000,2.02128E-004,-5.43825E-002,1.00000E+000,11
1119,1347,1.57549E+001,1.26761E+000,-5.51045E-002,3.53929E+000,-1.90971E-001,-1.11848E-001,3.54620E+000,8.95362E-003,4.66923E-001,0,5.39386E+001,-3.24483E+000,9.99657E-001,1.45588E+001,-3.42261E+001,9.98957E-001,7.34406E-002,-2.93717E-002,-1.01991E-003,7.34507E-002,-2.93818E-002,-5.68307E-001,7.39386E-002,1.07604E+000,-1.90735E-002,0.00000E+000,1.52294E-002,9.72374E-001,0.00000E+000,-5.46074E-004,-5.44156E-002,1.00000E+000,11
739,1317,-1.09325E+001,-1.10050E+000,1.18430E-001,1.69773E+000,-3.93185E-001,1.27567E-001,1.74733E+000,8.27843E-003,5.79309E-001,0,2.60842E+001,-6.63812E+000,9.99648E-001,-1.75290E+001,-4.47308E+001,9.98984E-001,7.01969E-002,-2.91562E-002,-3.63685E-004,7.01983E-002,-2.91575E-002,-2.09729E-001,7.05327E-002,1.07272E+000,-4.16045E-004,0.00000E+000,-3.61364E-004,9.73106E-001,0.00000E+000,4.97597E-004,-6.16044E-002,1.00000E+000,11
1129,1297,1.64329E+001,-1.86195E+000,8.98867E-002,3.64534E+000,-7.99148E-002,6.42559E-002,3.64679E+000,8.99774E-003,4.43600E-001,0,5.48388E+001,-1.82058E+000,9.99753E-001,1.49907E+001,-3.29558E+001,9.98703E-001,7.06567E-002,-2.93292E-002,-1.44092E-003,7.06775E-002,-2.93499E-002,-8.25475E-001,7.10150E-002,1.07306E+000,-1.84280E-002,0.00000E+000,1.37175E-002,9.72447E-001,0.00000E+000,2.44417E-003,-5.46056E-002,1.00000E+000,11
1129,1307,1.64300E+001,-1.24456E+000,1.76585E-002,3.63425E+000,-1.05581E-001,2.45716E-002,3.63586E+000,1.27126E-002,4.30894E-001,0,5.48272E+001,-2.15155E+000,9.99709E-001,1.48930E+001,-3.32358E+001,9.97506E-001,7.12842E-002,-2.93249E-002,-1.35693E-003,7.13025E-002,-2.93432E-002,-7.72569E-001,7.16736E-002,1.07373E+000,-1.84193E-002,0.00000E+000,1.39004E-002,9.72449E-001,0.00000E+000,1.73056E-003,-5.46148E-002,1.00000E+000,11
1129,1317,1.64341E+001,-6.20012E-001,-3.32883E-002,3.62661E+000,-1.26118E-001,-7.76731E-003,3.62881E+000,7.37371E-003,4.18215E-001,0,5.48360E+001,-2.41975E+000,9.99737E-001,1.49403E+001,-3.34503E+001,9.97906E-001,7.19121E-002,-2.93198E-002,-1.27118E-003,7.19280E-002,-2.93357E-002,-7.19318E-001,7.23341E-002,1.07441E+000,-1.84072E-002,0.00000E+000,1.40837E-002,9.72452E-001,0.00000E+000,1.01539E-003,-5.46277E-002,1.00000E+000,11
729,1347,-1.15875E+001,7.52241E-001,-3.45485E-003,1.65280E+000,-4.53157E-001,1.21792E-002,1.71384E+000,4.51718E-003,5.68903E-001,0,2.57474E+001,-7.33734E+000,9.99827E-001,-1.74818E+001,-4.60586E+001,9.99649E-001,6.82381E-002,-2.89056E-002,-5.70007E-004,6.82415E-002,-2.89090E-002,-3.36177E-001,6.85063E-002,1.07062E+000,2.54279E-004,0.00000E+000,-1.23701E-003,9.73285E-001,0.00000E+000,-1.74790E-003,-6.05241E-002,1.00000E+000,11
729,1357,-1.15670E+001,1.38895E+000,1.72720E-002,1.65127E+000,-4.64943E-001,-2.31460E-002,1.71564E+000,4.72161E-003,5.70863E-001,0,2.58224E+001,-7.44847E+000,9.99725E-001,-1.69699E+001,-4.63101E+001,9.99643E-001,6.76676E-002,-2.89109E-002,-6.58069E-004,6.76721E-002,-2.89153E-002,-3.90380E-001,6.79102E-002,1.07001E+000,2.33623E-004,0.00000E+000,-1.33484E-003,9.73282E-001,0.00000E+000,-2.68235E-003,-6.05558E-002,1.00000E+000,11
1129,1327,1.64383E+001,9.99370E-003,-6.71415E-002,3.61515E+000,-1.43302E-001,-3.89119E-002,3.61820E+000,7.90308E-003,4.16597E-001,0,5.47792E+001,-2.64814E+000,9.99686E-001,1.50193E+001,-3.36133E+001,9.98920E-001,7.25403E-002,-2.93138E-002,-1.18345E-003,7.25541E-002,-2.93275E-002,-6.65607E-001,7.29965E-002,1.07508E+000,-1.83911E-002,0.00000E+000,1.42673E-002,9.72457E-001,0.00000E+000,2.98689E-004,-5.46448E-002,1.00000E+000,11
729,1337,-1.16060E+001,1.28111E-001,9.93530E-003,1.65137E+000,-4.32932E-001,5.43191E-002,1.70805E+000,5.50713E-003,5.76451E-001,0,2.56024E+001,-7.11572E+000,9.99632E-001,-1.78672E+001,-4.56866E+001,9.99338E-001,6.88050E-002,-2.89017E-002,-4.84543E-004,6.88074E-002,-2.89041E-002,-2.84130E-001,6.90998E-002,1.07123E+000,2.70180E-004,0.00000E+000,-1.13960E-003,9.73288E-001,0.00000E+000,-8.17509E-004,-6.04997E-002,1.00000E+000,11
729,1327,-1.16175E+001,-4.91779E-001,4.98245E-002,1.65058E+000,-4.14392E-001,8.96224E-002,1.70416E+000,6.21308E-003,5.63918E-001,0,2.54858E+001,-6.88041E+000,9.99582E-001,-1.80753E+001,-4.53179E+001,9.99115E-001,6.93669E-002,-2.88992E-002,-4.02343E-004,6.93686E-002,-2.89008E-002,-2.34588E-001,6.96893E-002,1.07183E+000,2.80253E-004,0.00000E+000,-1.04284E-003,9.73289E-001,0.00000E+000,1.06681E-004,-6.04842E-002,1.00000E+000,11
1129,1337,1.64541E+001,6.46400E-001,-6.37650E-002,3.60354E+000,-1.64524E-001,-7.98595E-002,3.60818E+000,7.39606E-003,4.98664E-001,0,5.47531E+001,-2.90571E+000,9.99740E-001,1.53433E+001,-3.37181E+001,9.99193E-001,7.31755E-002,-2.93051E-002,-1.08925E-003,7.31871E-002,-2.93166E-002,-6.08896E-001,7.36679E-002,1.07576E+000,-1.83631E-002,0.00000E+000,1.44534E-002,9.72464E-001,0.00000E+000,-4.27230E-004,-5.46746E-002,1.00000E+000,11
729,1317,-1.16241E+001,-1.10555E+000,1.18326E-001,1.65046E+000,-3.92708E-001,1.30488E-001,1.70155E+000,7.74981E-003,5.80647E-001,0,2.53610E+001,-6.62953E+000,9.99613E-001,-1.81298E+001,-4.49021E+001,9.98585E-001,6.99261E-002,-2.88977E-002,-3.22245E-004,6.99271E-002,-2.88987E-002,-1.86828E-001,7.02769E-002,1.07243E+000,2.86327E-004,0.00000E+000,-9.46362E-004,9.73290E-001,0.00000E+000,1.02821E-003,-6.04749E-002,1.00000E+000,11
1129,1347,1.64666E+001,1.28580E+000,-5.22789E-002,3.58923E+000,-1.80031E-001,-1.10678E-001,3.59545E+000,9.08431E-003,4.91969E-001,0,5.46458E+001,-3.09453E+000,9.99638E-001,1.56311E+001,-3.38430E+001,9.98907E-001,7.38073E-002,-2.92965E-002,-9.95700E-004,7.38169E-002,-2.93061E-002,-5.53251E-001,7.43370E-002,1.07644E+000,-1.83357E-002,0.00000E+000,1.46386E-002,9.72472E-001,0.00000E+000,-1.15024E-003,-5.47037E-002,1.00000E+000,11
719,1347,-1.22785E+001,7.50142E-001,-5.87425E-003,1.60576E+000,-4.49117E-001,1.12549E-002,1.66743E+000,6.94487E-003,5.72682E-001,0,2.50344E+001,-7.26828E+000,9.99665E-001,-1.80729E+001,-4.61838E+001,9.99406E-001,6.77018E-002,-2.87819E-002,-5.43158E-004,6.77049E-002,-2.87849E-002,-3.22535E-001,6.79573E-002,1.07005E+000,9.63101E-004,0.00000E+000,-1.84052E-003,9.73346E-001,0.00000E+000,-1.55199E-003,-5.95191E-002,1.00000E+000,11
719,1357,-1.22579E+001,1.38201E+000,1.54853E-002,1.60465E+000,-4.66033E-001,-2.26007E-002,1.67111E+000,5.37181E-003,5.86802E-001,0,2.51125E+001,-7.45906E+000,9.99679E-001,-1.75575E+001,-4.65067E+001,9.99597E-001,6.69781E-002,-2.87852E-002,-6.07364E-004,6.69819E-002,-2.87891E-002,-3.63370E-001,6.72016E-002,1.06928E+000,9.37347E-004,0.00000E+000,-1.87898E-003,9.73345E-001,0.00000E+000,-2.65449E-003,-5.95559E-002,1.00000E+000,11
719,1337,-1.22951E+001,1.25575E-001,9.15494E-003,1.60525E+000,-4.30541E-001,5.07766E-002,1.66276E+000,6.91238E-003,5.90977E-001,0,2.49122E+001,-7.06650E+000,9.99416E-001,-1.84267E+001,-4.58146E+001,9.99057E-001,6.84192E-002,-2.87794E-002,-4.82488E-004,6.84216E-002,-2.87818E-002,-2.84403E-001,6.87082E-002,1.07081E+000,9.82108E-004,0.00000E+000,-1.80230E-003,9.73347E-001,0.00000E+000,-4.56558E-004,-5.94920E-002,1.00000E+000,11
719,1327,-1.23058E+001,-4.93394E-001,5.60162E-002,1.60487E+000,-4.11620E-001,9.13968E-002,1.65934E+000,5.02319E-003,5.99140E-001,0,2.47871E+001,-6.84637E+000,9.99395E-001,-1.86039E+001,-4.54346E+001,9.99102E-001,6.91307E-002,-2.87779E-002,-4.25295E-004,6.91325E-002,-2.87797E-002,-2.48875E-001,6.94547E-002,1.07158E+000,9.94376E-004,0.00000E+000,-1.76431E-003,9.73348E-001,0.00000E+000,6.32480E-004,-5.94744E-002,1.00000E+000,11
719,1317,-1.23122E+001,-1.10777E+000,1.27199E-001,1.60374E+000,-3.91091E-001,1.29170E-001,1.65579E+000,7.22395E-003,5.85648E-001,0,2.46565E+001,-6.59891E+000,9.99380E-001,-1.86493E+001,-4.50470E+001,9.98612E-001,6.98387E-002,-2.87771E-002,-3.71003E-004,6.98401E-002,-2.87785E-002,-2.15548E-001,7.01992E-002,1.07234E+000,1.00073E-003,0.00000E+000,-1.72641E-003,9.73348E-001,0.00000E+000,1.71871E-003,-5.94653E-002,1.00000E+000,11
1139,1297,1.71464E+001,-1.85106E+000,9.25214E-002,3.69880E+000,-7.23810E-002,7.14010E-002,3.70020E+000,6.73698E-003,3.94289E-001,0,5.55730E+001,-1.72593E+000,9.99866E-001,1.60982E+001,-3.27298E+001,9.98752E-001,7.06935E-002,-2.93493E-002,-1.48538E-003,7.07156E-002,-2.93714E-002,-8.50445E-001,7.10527E-002,1.07311E+000,-1.76926E-002,0.00000E+000,1.30116E-002,9.72458E-001,0.00000E+000,1.56010E-003,-5.49924E-002,1.00000E+000,11
1139,1307,1.71425E+001,-1.23434E+000,1.30582E-002,3.68779E+000,-9.87644E-002,2.92213E-002,3.68923E+000,8.02117E-003,3.91330E-001,0,5.55742E+001,-2.06026E+000,9.99815E-001,1.59724E+001,-3.29984E+001,9.98649E-001,7.14110E-002,-2.93453E-002,-1.40060E-003,7.14305E-002,-2.93648E-002,-7.96253E-001,7.18059E-002,1.07388E+000,-1.76840E-002,0.00000E+000,1.31930E-002,9.72460E-001,0.00000E+000,8.90014E-004,-5.50000E-002,1.00000E+000,11
1139,1337,1.71634E+001,6.65061E-001,-6.61979E-002,3.65159E+000,-1.51791E-001,-8.02838E-002,3.65563E+000,8.62109E-003,5.10513E-001,0,5.54358E+001,-2.72586E+000,9.99609E-001,1.63730E+001,-3.33246E+001,9.98313E-001,7.35757E-002,-2.93252E-002,-1.12534E-003,7.35880E-002,-2.93376E-002,-6.26496E-001,7.40900E-002,1.07621E+000,-1.76169E-002,0.00000E+000,1.37418E-002,9.72476E-001,0.00000E+000,-1.13781E-003,-5.50584E-002,1.00000E+000,11
1139,1347,1.71844E+001,1.30302E+000,-3.88873E-002,3.64147E+000,-1.71904E-001,-1.11757E-001,3.64724E+000,8.89363E-003,5.04779E-001,0,5.53944E+001,-2.97791E+000,9.99540E-001,1.68178E+001,-3.35041E+001,9.97957E-001,7.43008E-002,-2.93158E-002,-1.02656E-003,7.43110E-002,-2.93259E-002,-5.67574E-001,7.48589E-002,1.07699E+000,-1.75805E-002,0.00000E+000,1.39261E-002,9.72485E-001,0.00000E+000,-1.81909E-003,-5.50902E-002,1.00000E+000,11
1139,1327,1.71499E+001,2.53610E-002,-7.25740E-002,3.66545E+000,-1.35399E-001,-4.31795E-002,3.66821E+000,8.74138E-003,4.72723E-001,0,5.55115E+001,-2.53080E+000,9.99622E-001,1.60812E+001,-3.32434E+001,9.98111E-001,7.28510E-002,-2.93339E-002,-1.22199E-003,7.28657E-002,-2.93485E-002,-6.85047E-001,7.33234E-002,1.07543E+000,-1.76490E-002,0.00000E+000,1.35578E-002,9.72469E-001,0.00000E+000,-4.57891E-004,-5.50305E-002,1.00000E+000,11
1139,1317,1.71397E+001,-6.09001E-001,-4.86667E-002,3.67426E+000,-1.18829E-001,-9.44211E-003,3.67619E+000,9.24813E-003,4.32358E-001,0,5.55194E+001,-2.32243E+000,9.99787E-001,1.58933E+001,-3.31496E+001,9.98303E-001,7.21293E-002,-2.93405E-002,-1.31373E-003,7.21463E-002,-2.93575E-002,-7.41644E-001,7.25619E-002,1.07465E+000,-1.76712E-002,0.00000E+000,1.33748E-002,9.72463E-001,0.00000E+000,2.18190E-004,-5.50111E-002,1.00000E+000,11
709,1347,-1.29704E+001,7.48399E-001,-4.97399E-003,1.55754E+000,-4.44635E-001,1.40103E-002,1.61983E+000,6.59727E-003,5.69652E-001,0,2.42913E+001,-7.19778E+000,9.99562E-001,-1.86636E+001,-4.63144E+001,9.99352E-001,6.72047E-002,-2.83157E-002,-5.84139E-004,6.72083E-002,-2.83193E-002,-3.50365E-001,6.74848E-002,1.06951E+000,1.76582E-003,0.00000E+000,-2.65934E-003,9.73749E-001,0.00000E+000,-1.40955E-003,-5.86668E-002,1.00000E+000,11
709,1357,-1.29490E+001,1.37900E+000,1.48968E-002,1.55792E+000,-4.61269E-001,-1.82962E-002,1.62487E+000,5.54858E-003,5.63121E-001,0,2.43875E+001,-7.39121E+000,9.99682E-001,-1.81394E+001,-4.66657E+001,9.99627E-001,6.63812E-002,-2.83193E-002,-6.56338E-004,6.63858E-002,-2.83239E-002,-3.97073E-001,6.66234E-002,1.06864E+000,1.73755E-003,0.00000E+000,-2.71127E-003,9.73748E-001,0.00000E+000,-2.53678E-003,-5.87031E-002,1.00000E+000,11
709,1337,-1.29827E+001,1.22467E-001,1.87199E-002,1.55961E+000,-4.28753E-001,5.41924E-002,1.61838E+000,5.98698E-003,5.81153E-001,0,2.42084E+001,-7.03735E+000,9.99505E-001,-1.89309E+001,-4.59861E+001,9.99123E-001,6.80216E-002,-2.83133E-002,-5.16445E-004,6.80244E-002,-2.83161E-002,-3.07147E-001,6.83416E-002,1.07039E+000,1.78527E-003,0.00000E+000,-2.60771E-003,9.73750E-001,0.00000E+000,-2.88735E-004,-5.86419E-002,1.00000E+000,11
709,1317,-1.29972E+001,-1.10685E+000,1.46351E-001,1.55899E+000,-3.87271E-001,1.33619E-001,1.61192E+000,8.06105E-003,6.02457E-001,0,2.39641E+001,-6.54823E+000,9.99584E-001,-1.90868E+001,-4.51591E+001,9.98997E-001,6.96383E-002,-2.83113E-002,-3.91285E-004,6.96399E-002,-2.83128E-002,-2.28878E-001,7.00440E-002,1.07212E+000,1.80414E-003,0.00000E+000,-2.50515E-003,9.73752E-001,0.00000E+000,1.93743E-003,-5.86176E-002,1.00000E+000,11
709,1327,-1.29896E+001,-4.93380E-001,7.45104E-002,1.56089E+000,-4.08320E-001,9.24460E-002,1.61606E+000,8.21649E-003,6.00517E-001,0,2.41156E+001,-6.79773E+000,9.99607E-001,-1.90251E+001,-4.55690E+001,9.99141E-001,6.88316E-002,-2.83121E-002,-4.53056E-004,6.88337E-002,-2.83142E-002,-2.67207E-001,6.91935E-002,1.07125E+000,1.79631E-003,0.00000E+000,-2.55638E-003,9.73751E-001,0.00000E+000,8.25323E-004,-5.86277E-002,1.00000E+000,11
1149,1297,1.78521E+001,-1.84104E+000,7.36612E-002,3.74589E+000,-6.71019E-002,6.49995E-002,3.74705E+000,1.37018E-002,4.17131E-001,0,5.62638E+001,-1.63396E+000,9.99700E-001,1.70506E+001,-3.24366E+001,9.97128E-001,7.08033E-002,-2.93915E-002,-1.52160E-003,7.08264E-002,-2.94146E-002,-8.69850E-001,7.11643E-002,1.07324E+000,-1.69630E-002,0.00000E+000,1.23386E-002,9.72454E-001,0.00000E+000,4.45109E-004,-5.55046E-002,1.00000E+000,11
1149,1307,1.78543E+001,-1.21624E+000,9.28006E-003,3.73964E+000,-8.54012E-002,3.28905E-002,3.74076E+000,8.77545E-003,4.05252E-001,0,5.62949E+001,-1.87620E+000,9.99756E-001,1.70455E+001,-3.26141E+001,9.98330E-001,7.15901E-002,-2.93884E-002,-1.45472E-003,7.16110E-002,-2.94094E-002,-8.25188E-001,7.19909E-002,1.07408E+000,-1.69519E-002,0.00000E+000,1.24785E-002,9.72456E-001,0.00000E+000,-1.50547E-004,-5.55125E-002,1.00000E+000,11
1149,1317,1.78546E+001,-5.91103E-001,-4.50610E-002,3.72697E+000,-1.07400E-001,-7.03133E-003,3.72852E+000,7.80777E-003,4.40322E-001,0,5.62587E+001,-2.15884E+000,9.99704E-001,1.70273E+001,-3.27855E+001,9.98343E-001,7.23798E-002,-2.93845E-002,-1.38489E-003,7.23986E-002,-2.94034E-002,-7.79535E-001,7.28226E-002,1.07493E+000,-1.69350E-002,0.00000E+000,1.26192E-002,9.72459E-001,0.00000E+000,-7.49227E-004,-5.55244E-002,1.00000E+000,11
1149,1327,1.78596E+001,4.06170E-002,-7.90745E-002,3.71457E+000,-1.23719E-001,-4.43953E-002,3.71690E+000,7.72780E-003,4.11563E-001,0,5.62121E+001,-2.35480E+000,9.99617E-001,1.71171E+001,-3.29317E+001,9.98234E-001,7.31686E-002,-2.93799E-002,-1.31249E-003,7.31854E-002,-2.93967E-002,-7.33155E-001,7.36555E-002,1.07578E+000,-1.69124E-002,0.00000E+000,1.27600E-002,9.72463E-001,0.00000E+000,-1.34805E-003,-5.55403E-002,1.00000E+000,11
1149,1337,1.78722E+001,6.77274E-001,-7.52375E-002,3.70125E+000,-1.44502E-001,-7.73342E-002,3.70488E+000,1.19600E-002,4.97718E-001,0,5.61319E+001,-2.61862E+000,9.99657E-001,1.73883E+001,-3.30288E+001,9.98520E-001,7.39659E-002,-2.93738E-002,-1.23436E-003,7.39807E-002,-2.93886E-002,-6.84251E-001,7.44996E-002,1.07664E+000,-1.68790E-002,0.00000E+000,1.29024E-002,9.72468E-001,0.00000E+000,-1.95424E-003,-5.55639E-002,1.00000E+000,11
1149,1347,1.78999E+001,1.31928E+000,-3.41487E-002,3.69377E+000,-1.63703E-001,-1.10132E-001,3.69904E+000,1.17501E-002,4.98997E-001,0,5.61337E+001,-2.84740E+000,9.99673E-001,1.79580E+001,-3.31704E+001,9.98281E-001,7.47648E-002,-2.93662E-002,-1.15064E-003,7.47775E-002,-2.93789E-002,-6.33013E-001,7.53473E-002,1.07750E+000,-1.68338E-002,0.00000E+000,1.30454E-002,9.72476E-001,0.00000E+000,-2.56247E-003,-5.55958E-002,1.00000E+000,11
699,1347,-1.36526E+001,7.45800E-001,3.81557E-003,1.51703E+000,-4.43469E-001,1.69156E-002,1.58061E+000,6.40741E-003,5.98679E-001,0,2.36673E+001,-7.17636E+000,9.99706E-001,-1.90824E+001,-4.64583E+001,9.99548E-001,6.66362E-002,-2.77736E-002,-5.34994E-004,6.66392E-002,-2.77766E-002,-3.24665E-001,6.69459E-002,1.06890E+000,2.73931E-003,0.00000E+000,-3.46026E-003,9.74214E-001,0.00000E+000,-1.25829E-003,-5.75902E-002,1.00000E+000,11
699,1357,-1.36333E+001,1.37339E+000,1.92318E-002,1.51591E+000,-4.62627E-001,-1.81091E-002,1.58504E+000,5.98285E-003,5.71998E-001,0,2.37484E+001,-7.39271E+000,9.99703E-001,-1.85996E+001,-4.68583E+001,9.99508E-001,6.57227E-002,-2.77737E-002,-5.50617E-004,6.57260E-002,-2.77770E-002,-3.37409E-001,6.59878E-002,1.06793E+000,2.70875E-003,0.00000E+000,-3.40907E-003,9.74216E-001,0.00000E+000,-2.25995E-003,-5.76217E-002,1.00000E+000,11
699,1337,-1.36706E+001,1.17797E-001,2.29275E-002,1.51358E+000,-4.28498E-001,5.35383E-002,1.57398E+000,5.36654E-003,5.76180E-001,0,2.35100E+001,-7.02325E+000,9.99631E-001,-1.94490E+001,-4.61677E+001,9.99382E-001,6.75447E-002,-2.77735E-002,-5.23569E-004,6.75475E-002,-2.77764E-002,-3.14705E-001,6.79016E-002,1.06987E+000,2.76099E-003,0.00000E+000,-3.51128E-003,9.74213E-001,0.00000E+000,-2.60002E-004,-5.75679E-002,1.00000E+000,11
699,1317,-1.36849E+001,-1.10566E+000,1.56452E-001,1.51075E+000,-3.84247E-001,1.26810E-001,1.56400E+000,8.87164E-003,6.36319E-001,0,2.32492E+001,-6.48198E+000,9.99667E-001,-1.95853E+001,-4.52400E+001,9.98877E-001,6.93370E-002,-2.77734E-002,-5.12904E-004,6.93397E-002,-2.77761E-002,-3.02605E-001,6.97951E-002,1.07180E+000,2.77838E-003,0.00000E+000,-3.61223E-003,9.74212E-001,0.00000E+000,1.71543E-003,-5.75500E-002,1.00000E+000,11
699,1327,-1.36790E+001,-4.92266E-001,7.88868E-002,1.51263E+000,-4.05372E-001,8.90369E-002,1.56854E+000,7.59634E-003,6.82580E-001,0,2.33903E+001,-6.74092E+000,9.99641E-001,-1.95659E+001,-4.56170E+001,9.98129E-001,6.84401E-002,-2.77734E-002,-5.17051E-004,6.84429E-002,-2.77762E-002,-3.07896E-001,6.88463E-002,1.07083E+000,2.77223E-003,0.00000E+000,-3.56167E-003,9.74212E-001,0.00000E+000,7.25949E-004,-5.75564E-002,1.00000E+000,11
1159,1307,1.85590E+001,-1.20648E+000,-1.04272E-002,3.78522E+000,-7.97384E-002,2.55115E-002,3.78615E+000,8.19241E-003,3.89317E-001,0,5.69665E+001,-1.77092E+000,9.99304E-001,1.79856E+001,-3.23408E+001,9.98290E-001,7.18703E-002,-2.95495E-002,-1.45252E-003,7.18911E-002,-2.95703E-002,-8.20356E-001,7.22671E-002,1.07440E+000,-1.62502E-002,0.00000E+000,1.19030E-002,9.72336E-001,0.00000E+000,-1.25418E-003,-5.60322E-002,1.00000E+000,11
1159,1317,1.85631E+001,-5.76292E-001,-6.15894E-002,3.77617E+000,-9.75189E-002,-1.13282E-002,3.77744E+000,7.82436E-003,4.37488E-001,0,5.69719E+001,-1.99318E+000,9.99450E-001,1.80312E+001,-3.24318E+001,9.99155E-001,7.27148E-002,-2.95485E-002,-1.42334E-003,7.27346E-002,-2.95683E-002,-7.97260E-001,7.31571E-002,1.07530E+000,-1.62319E-002,0.00000E+000,1.19590E-002,9.72337E-001,0.00000E+000,-1.77287E-003,-5.60426E-002,1.00000E+000,11
1159,1327,1.85737E+001,5.48468E-002,-8.12499E-002,3.76684E+000,-1.17135E-001,-4.36939E-002,3.76892E+000,5.67408E-003,4.33679E-001,0,5.69531E+001,-2.24624E+000,9.99750E-001,1.82308E+001,-3.26035E+001,9.99232E-001,7.35604E-002,-2.95471E-002,-1.38986E-003,7.35791E-002,-2.95659E-002,-7.72146E-001,7.40504E-002,1.07621E+000,-1.62043E-002,0.00000E+000,1.20151E-002,9.72339E-001,0.00000E+000,-2.29290E-003,-5.60583E-002,1.00000E+000,11
1159,1297,1.85575E+001,-1.82899E+000,5.54449E-002,3.79304E+000,-5.92066E-002,6.21311E-002,3.79401E+000,1.01318E-002,4.47851E-001,0,5.69403E+001,-1.51632E+000,9.99408E-001,1.80051E+001,-3.21096E+001,9.96186E-001,7.10304E-002,-2.95503E-002,-1.47915E-003,7.10522E-002,-2.95721E-002,-8.42356E-001,7.13840E-002,1.07349E+000,-1.62632E-002,0.00000E+000,1.18474E-002,9.72335E-001,0.00000E+000,-7.38928E-004,-5.60247E-002,1.00000E+000,11
1159,1337,1.85958E+001,6.90830E-001,-6.57378E-002,3.75942E+000,-1.39080E-001,-7.88495E-002,3.76282E+000,8.34345E-003,4.63097E-001,0,5.69696E+001,-2.52347E+000,9.99868E-001,1.86683E+001,-3.27625E+001,9.99562E-001,7.44120E-002,-2.95454E-002,-1.35018E-003,7.44296E-002,-2.95629E-002,-7.43978E-001,7.49522E-002,1.07713E+000,-1.61636E-002,0.00000E+000,1.20718E-002,9.72341E-001,0.00000E+000,-2.81742E-003,-5.60816E-002,1.00000E+000,11
1159,1347,1.86164E+001,1.33282E+000,-3.70581E-002,3.74742E+000,-1.55453E-001,-1.13247E-001,3.75235E+000,9.15284E-003,4.59763E-001,0,5.69104E+001,-2.72568E+000,9.99678E-001,1.91049E+001,-3.28784E+001,9.99176E-001,7.52626E-002,-2.95435E-002,-1.30861E-003,7.52789E-002,-2.95598E-002,-7.15248E-001,7.58548E-002,1.07805E+000,-1.61186E-002,0.00000E+000,1.21284E-002,9.72344E-001,0.00000E+000,-3.34187E-003,-5.61073E-002,1.00000E+000,11
689,1347,-1.43383E+001,7.40732E-001,7.50385E-003,1.47234E+000,-4.44885E-001,1.22197E-002,1.53813E+000,6.81038E-003,6.21361E-001,0,2.29997E+001,-7.17838E+000,9.99771E-001,-1.95622E+001,-4.66328E+001,9.99169E-001,6.60287E-002,-2.74865E-002,-5.35636E-004,6.60318E-002,-2.74896E-002,-3.28164E-001,6.63394E-002,1.06825E+000,3.71192E-003,0.00000E+000,-4.34670E-003,9.74443E-001,0.00000E+000,-1.30915E-003,-5.67384E-002,1.00000E+000,11
689,1357,-1.43210E+001,1.36707E+000,1.49406E-002,1.47149E+000,-4.62807E-001,-1.90248E-002,1.54267E+000,6.26512E-003,5.68998E-001,0,2.30739E+001,-7.37940E+000,9.99720E-001,-1.91312E+001,-4.70494E+001,9.99535E-001,6.50195E-002,-2.74871E-002,-5.59287E-004,6.50229E-002,-2.74904E-002,-3.46389E-001,6.52808E-002,1.06718E+000,3.68189E-003,0.00000E+000,-4.31823E-003,9.74444E-001,0.00000E+000,-2.22633E-003,-5.67640E-002,1.00000E+000,11
689,1337,-1.43548E+001,1.18530E-001,2.71541E-002,1.47109E+000,-4.22695E-001,5.46863E-002,1.53159E+000,7.09276E-003,6.03535E-001,0,2.28588E+001,-6.94178E+000,9.99690E-001,-1.99064E+001,-4.62498E+001,9.99535E-001,6.70375E-002,-2.74861E-002,-5.14167E-004,6.70403E-002,-2.74889E-002,-3.11652E-001,6.74011E-002,1.06933E+000,3.73733E-003,0.00000E+000,-4.37521E-003,9.74442E-001,0.00000E+000,-3.90631E-004,-5.67167E-002,1.00000E+000,11
1169,1327,1.92827E+001,6.73087E-002,-9.25903E-002,3.81418E+000,-1.10306E-001,-5.00174E-002,3.81611E+000,5.44905E-003,4.52518E-001,0,5.76462E+001,-2.14278E+000,9.99857E-001,1.92544E+001,-3.22850E+001,9.99428E-001,7.38862E-002,-2.97180E-002,-1.32983E-003,7.39032E-002,-2.97351E-002,-7.35266E-001,7.43715E-002,1.07658E+000,-1.53838E-002,0.00000E+000,1.14424E-002,9.72194E-001,0.00000E+000,-3.31041E-003,-5.63194E-002,1.00000E+000,11
1169,1337,1.93077E+001,7.07010E-001,-6.84841E-002,3.80759E+000,-1.28856E-001,-8.40094E-002,3.81069E+000,7.75596E-003,4.61300E-001,0,5.76689E+001,-2.37582E+000,9.99865E-001,1.97493E+001,-3.24136E+001,9.99420E-001,7.47523E-002,-2.97194E-002,-1.31497E-003,7.47688E-002,-2.97359E-002,-7.21023E-001,7.52886E-002,1.07751E+000,-1.53395E-002,0.00000E+000,1.14411E-002,9.72194E-001,0.00000E+000,-3.70738E-003,-5.63383E-002,1.00000E+000,11
1169,1347,1.93339E+001,1.34788E+000,-3.16878E-002,3.79900E+000,-1.47998E-001,-1.17778E-001,3.80371E+000,7.06335E-003,4.46146E-001,0,5.76594E+001,-2.61209E+000,9.99675E-001,2.02831E+001,-3.25686E+001,9.99345E-001,7.56191E-002,-2.97208E-002,-1.29816E-003,7.56351E-002,-2.97368E-002,-7.05943E-001,7.62084E-002,1.07845E+000,-1.52907E-002,0.00000E+000,1.14397E-002,9.72194E-001,0.00000E+000,-4.10512E-003,-5.63590E-002,1.00000E+000,11
689,1327,-1.43711E+001,-4.98631E-001,6.46861E-002,1.46445E+000,-4.03781E-001,8.40201E-002,1.52142E+000,7.77005E-003,6.52051E-001,0,2.26708E+001,-6.70249E+000,9.99562E-001,-2.01958E+001,-4.57967E+001,9.98875E-001,6.80339E-002,-2.74858E-002,-4.97206E-004,6.80365E-002,-2.74884E-002,-2.98229E-001,6.84530E-002,1.07040E+000,3.75336E-003,0.00000E+000,-4.40342E-003,9.74442E-001,0.00000E+000,5.18259E-004,-5.67030E-002,1.00000E+000,11
1169,1317,1.92712E+001,-5.67064E-001,-6.81454E-002,3.82238E+000,-9.15357E-002,-1.46650E-002,3.82351E+000,9.25664E-003,3.56891E-001,0,5.76360E+001,-1.89676E+000,9.99667E-001,1.90504E+001,-3.22254E+001,9.99426E-001,7.30233E-002,-2.97171E-002,-1.33707E-003,7.30407E-002,-2.97345E-002,-7.45484E-001,7.34598E-002,1.07565E+000,-1.54116E-002,0.00000E+000,1.14438E-002,9.72194E-001,0.00000E+000,-2.91541E-003,-5.63076E-002,1.00000E+000,11
1169,1307,1.92660E+001,-1.19549E+000,-2.40525E-002,3.83177E+000,-7.45497E-002,2.09670E-002,3.83255E+000,8.46551E-003,4.26363E-001,0,5.76404E+001,-1.68652E+000,9.99640E-001,1.89752E+001,-3.20349E+001,9.99004E-001,7.21686E-002,-2.97163E-002,-1.34115E-003,7.21863E-002,-2.97339E-002,-7.54032E-001,7.25588E-002,1.07473E+000,-1.54323E-002,0.00000E+000,1.14451E-002,9.72194E-001,0.00000E+000,-2.52463E-003,-5.62988E-002,1.00000E+000,11
1169,1297,1.92683E+001,-1.81658E+000,5.04567E-002,3.84256E+000,-5.15446E-002,6.24753E-002,3.84341E+000,8.72255E-003,4.75132E-001,0,5.76373E+001,-1.42051E+000,9.99571E-001,1.90683E+001,-3.18063E+001,9.97393E-001,7.13134E-002,-2.97157E-002,-1.34128E-003,7.13312E-002,-2.97335E-002,-7.60492E-001,7.16594E-002,1.07381E+000,-1.54444E-002,0.00000E+000,1.14464E-002,9.72194E-001,0.00000E+000,-2.13405E-003,-5.62937E-002,1.00000E+000,11
689,1317,-1.43776E+001,-1.11096E+000,1.41924E-001,1.46183E+000,-3.83394E-001,1.20767E-001,1.51609E+000,8.66602E-003,6.23325E-001,0,2.25221E+001,-6.43875E+000,9.99531E-001,-2.02238E+001,-4.53924E+001,9.98394E-001,6.90257E-002,-2.74858E-002,-4.84739E-004,6.90281E-002,-2.74882E-002,-2.87765E-001,6.95032E-002,1.07146E+000,3.75982E-003,0.00000E+000,-4.43156E-003,9.74442E-001,0.00000E+000,1.42469E-003,-5.66975E-002,1.00000E+000,11
679,1347,-1.50302E+001,7.35051E-001,-4.82918E-003,1.42280E+000,-4.42135E-001,1.41395E-003,1.48992E+000,1.05147E-002,6.69606E-001,0,2.22718E+001,-7.16606E+000,9.99337E-001,-2.01790E+001,-4.67700E+001,9.99241E-001,6.53937E-002,-2.72417E-002,-5.82351E-004,6.53973E-002,-2.72454E-002,-3.60170E-001,6.56998E-002,1.06757E+000,4.70002E-003,0.00000E+000,-5.33690E-003,9.74634E-001,0.00000E+000,-1.39065E-003,-5.59603E-002,1.00000E+000,11
679,1357,-1.50056E+001,1.36264E+000,1.10301E-002,1.43084E+000,-4.59913E-001,-1.32094E-002,1.50300E+000,4.80976E-003,6.01707E-001,0,2.24376E+001,-7.35614E+000,9.99703E-001,-1.96110E+001,-4.71942E+001,9.99557E-001,6.42477E-002,-2.72442E-002,-6.55860E-004,6.42524E-002,-2.72489E-002,-4.10697E-001,6.44987E-002,1.06635E+000,4.66896E-003,0.00000E+000,-5.40745E-003,9.74632E-001,0.00000E+000,-2.29589E-003,-5.59833E-002,1.00000E+000,11
1179,1297,1.99721E+001,-1.80802E+000,3.08186E-002,3.88928E+000,-4.53768E-002,6.62929E-002,3.89011E+000,1.47469E-002,5.06323E-001,0,5.82808E+001,-1.35406E+000,9.99756E-001,2.00031E+001,-3.15306E+001,9.97715E-001,7.15458E-002,-2.98422E-002,-1.25403E-003,7.15613E-002,-2.98577E-002,-7.08525E-001,7.18874E-002,1.07407E+000,-1.47075E-002,0.00000E+000,1.10259E-002,9.72097E-001,0.00000E+000,-3.56979E-003,-5.66623E-002,1.00000E+000,11
1179,1307,1.99759E+001,-1.18845E+000,-3.45800E-002,3.88206E+000,-6.92201E-002,2.40083E-002,3.88275E+000,6.38096E-003,3.96641E-001,0,5.83405E+001,-1.63723E+000,9.99802E-001,2.00200E+001,-3.18301E+001,9.98791E-001,7.23953E-002,-2.98419E-002,-1.23653E-003,7.24103E-002,-2.98568E-002,-6.92843E-001,7.27804E-002,1.07499E+000,-1.46919E-002,0.00000E+000,1.10462E-002,9.72097E-001,0.00000E+000,-3.78064E-003,-5.66659E-002,1.00000E+000,11
1179,1317,1.99790E+001,-5.60017E-001,-1.01568E-001,3.87519E+000,-8.52654E-002,-1.58337E-002,3.87616E+000,1.50544E-002,3.83605E-001,0,5.83932E+001,-1.82902E+000,9.99831E-001,2.00246E+001,-3.19409E+001,9.98919E-001,7.32457E-002,-2.98416E-002,-1.21968E-003,7.32602E-002,-2.98560E-002,-6.77769E-001,7.36766E-002,1.07590E+000,-1.46777E-002,0.00000E+000,1.10665E-002,9.72097E-001,0.00000E+000,-3.99188E-003,-5.66692E-002,1.00000E+000,11
1179,1337,2.00208E+001,7.17843E-001,-7.88632E-002,3.85708E+000,-1.23340E-001,-9.44131E-002,3.86021E+000,7.12238E-003,4.35497E-001,0,5.84099E+001,-2.28204E+000,9.99763E-001,2.08400E+001,-3.21426E+001,9.98793E-001,7.49713E-002,-2.98404E-002,-1.16015E-003,7.49841E-002,-2.98533E-002,-6.34098E-001,7.55011E-002,1.07776E+000,-1.45940E-002,0.00000E+000,1.11077E-002,9.72099E-001,0.00000E+000,-4.42125E-003,-5.66885E-002,1.00000E+000,11
1179,1347,2.00540E+001,1.36331E+000,-3.24539E-002,3.85291E+000,-1.40751E-001,-1.27912E-001,3.85760E+000,6.83370E-003,4.41565E-001,0,5.84641E+001,-2.48467E+000,9.99761E-001,2.14971E+001,-3.22349E+001,9.99263E-001,7.58377E-002,-2.98397E-002,-1.12560E-003,7.58497E-002,-2.98517E-002,-6.10184E-001,7.64204E-002,1.07870E+000,-1.45417E-002,0.00000E+000,1.11284E-002,9.72100E-001,0.00000E+000,-4.63717E-003,-5.67005E-002,1.00000E+000,11
679,1327,-1.50587E+001,-5.03168E-001,6.88146E-002,1.41837E+000,-4.02567E-001,8.61720E-002,1.47691E+000,9.17298E-003,6.24049E-001,0,2.19623E+001,-6.67820E+000,9.99393E-001,-2.07009E+001,-4.59860E+001,9.98628E-001,6.76610E-002,-2.72383E-002,-4.44291E-004,6.76631E-002,-2.72404E-002,-2.68234E-001,6.80898E-002,1.06999E+000,4.74527E-003,0.00000E+000,-5.19694E-003,9.74636E-001,0.00000E+000,4.05330E-004,-5.59267E-002,1.00000E+000,11
679,1337,-1.50455E+001,1.14884E-001,2.05261E-002,1.42290E+000,-4.20580E-001,5.09430E-002,1.48463E+000,9.19151E-003,6.23637E-001,0,2.21335E+001,-6.90002E+000,9.99562E-001,-2.04877E+001,-4.63804E+001,9.99398E-001,6.65317E-002,-2.72394E-002,-5.10217E-004,6.65345E-002,-2.72422E-002,-3.11739E-001,6.68972E-002,1.06878E+000,4.72890E-003,0.00000E+000,-5.26672E-003,9.74635E-001,0.00000E+000,-4.90059E-004,-5.59389E-002,1.00000E+000,11
1179,1327,1.99953E+001,7.57893E-002,-1.03407E-001,3.86558E+000,-1.04525E-001,-5.23462E-002,3.86734E+000,1.03239E-002,4.26868E-001,0,5.83844E+001,-2.08044E+000,9.99801E-001,2.03382E+001,-3.20513E+001,9.98175E-001,7.41060E-002,-2.98411E-002,-1.19255E-003,7.41196E-002,-2.98548E-002,-6.57223E-001,7.45851E-002,1.07683E+000,-1.46416E-002,0.00000E+000,1.10870E-002,9.72098E-001,0.00000E+000,-4.20581E-003,-5.66775E-002,1.00000E+000,11
679,1317,-1.50655E+001,-1.11424E+000,1.47966E-001,1.41541E+000,-3.81213E-001,1.25494E-001,1.47121E+000,8.20697E-003,6.37483E-001,0,2.18016E+001,-6.42384E+000,9.99623E-001,-2.07295E+001,-4.55435E+001,9.98171E-001,6.87842E-002,-2.72382E-002,-3.82759E-004,6.87857E-002,-2.72397E-002,-2.28384E-001,6.92799E-002,1.07120E+000,4.75269E-003,0.00000E+000,-5.12741E-003,9.74637E-001,0.00000E+000,1.29758E-003,-5.59212E-002,1.00000E+000,11
669,1327,-1.57425E+001,-5.11898E-001,6.71194E-002,1.37631E+000,-4.04488E-001,8.64677E-002,1.43712E+000,8.09446E-003,5.64971E-001,0,2.13217E+001,-6.69137E+000,9.99776E-001,-2.11621E+001,-4.62424E+001,9.98928E-001,6.72257E-002,-2.70250E-002,-3.12168E-004,6.72267E-002,-2.70261E-002,-1.89767E-001,6.76556E-002,1.06952E+000,6.09105E-003,0.00000E+000,-6.16426E-003,9.74793E-001,0.00000E+000,3.90170E-004,-5.50730E-002,1.00000E+000,11
669,1337,-1.57310E+001,1.11027E-001,2.05618E-002,1.37881E+000,-4.19592E-001,5.06490E-002,1.44213E+000,5.65329E-003,6.25231E-001,0,2.14614E+001,-6.86802E+000,9.99684E-001,-2.09683E+001,-4.65373E+001,9.99525E-001,6.59345E-002,-2.70268E-002,-4.25487E-004,6.59364E-002,-2.70287E-002,-2.62238E-001,6.62922E-002,1.06814E+000,6.07162E-003,0.00000E+000,-6.32401E-003,9.74790E-001,0.00000E+000,-5.54851E-004,-5.50863E-002,1.00000E+000,11
669,1347,-1.57149E+001,7.30875E-001,-4.67584E-003,1.38297E+000,-4.38682E-001,1.96422E-002,1.45101E+000,5.14161E-003,6.00403E-001,0,2.16137E+001,-7.09990E+000,9.99643E-001,-2.06453E+001,-4.69691E+001,9.99417E-001,6.46407E-002,-2.70295E-002,-5.41725E-004,6.46439E-002,-2.70327E-002,-3.38574E-001,6.49317E-002,1.06676E+000,6.04602E-003,0.00000E+000,-6.48377E-003,9.74787E-001,0.00000E+000,-1.49990E-003,-5.51038E-002,1.00000E+000,11
669,1357,-1.56908E+001,1.36191E+000,1.28943E-002,1.38766E+000,-4.53054E-001,-1.05118E-002,1.45978E+000,5.20398E-003,5.80989E-001,0,2.17685E+001,-7.26109E+000,9.99604E-001,-2.00777E+001,-4.73217E+001,9.99511E-001,6.33356E-002,-2.70346E-002,-6.66172E-004,6.33405E-002,-2.70395E-002,-4.22330E-001,6.35658E-002,1.06537E+000,6.00449E-003,0.00000E+000,-6.64458E-003,9.74783E-001,0.00000E+000,-2.45115E-003,-5.51323E-002,1.00000E+000,11
1189,1337,2.07380E+001,7.30273E-001,-8.57774E-002,3.90969E+000,-1.18478E-001,-1.03036E-001,3.91284E+000,9.52304E-003,4.41802E-001,0,5.91896E+001,-2.18821E+000,9.99812E-001,2.20038E+001,-3.18383E+001,9.98904E-001,7.50107E-002,-2.99578E-002,-1.00956E-003,7.50204E-002,-2.99676E-002,-5.50990E-001,7.55243E-002,1.07782E+000,-1.38772E-002,0.00000E+000,1.07752E-002,9.71976E-001,0.00000E+000,-4.81670E-003,-5.64590E-002,1.00000E+000,11
669,1317,-1.57476E+001,-1.11973E+000,1.54744E-001,1.37392E+000,-3.80357E-001,1.27442E-001,1.43128E+000,1.10594E-002,5.76509E-001,0,2.11649E+001,-6.40770E+000,9.99745E-001,-2.11381E+001,-4.57670E+001,9.98452E-001,6.85059E-002,-2.70254E-002,-2.05916E-004,6.85063E-002,-2.70258E-002,-1.23499E-001,6.90128E-002,1.07089E+000,6.09682E-003,0.00000E+000,-6.00554E-003,9.74793E-001,0.00000E+000,1.32909E-003,-5.50690E-002,1.00000E+000,11
1189,1297,2.06910E+001,-1.79649E+000,4.61642E-002,3.94039E+000,-4.00149E-002,6.50753E-002,3.94113E+000,1.08791E-002,4.73855E-001,0,5.90034E+001,-1.28714E+000,9.99716E-001,2.12327E+001,-3.13135E+001,9.97221E-001,7.17930E-002,-2.99542E-002,-1.03268E-003,7.18035E-002,-2.99647E-002,-5.81440E-001,7.21300E-002,1.07435E+000,-1.39797E-002,0.00000E+000,1.08759E-002,9.71979E-001,0.00000E+000,-5.05095E-003,-5.64659E-002,1.00000E+000,11
1189,1307,2.06863E+001,-1.17680E+000,-4.32106E-002,3.92920E+000,-6.44061E-002,1.68164E-002,3.92977E+000,7.03409E-003,4.51445E-001,0,5.90307E+001,-1.56327E+000,9.99640E-001,2.10796E+001,-3.15158E+001,9.98725E-001,7.25921E-002,-2.99547E-002,-1.03460E-003,7.26025E-002,-2.99652E-002,-5.77983E-001,7.29702E-002,1.07521E+000,-1.39709E-002,0.00000E+000,1.08509E-002,9.71979E-001,0.00000E+000,-4.99286E-003,-5.64653E-002,1.00000E+000,11
1189,1317,2.07018E+001,-5.38242E-001,-7.37704E-002,3.92515E+000,-7.85800E-002,-2.31075E-002,3.92600E+000,7.32161E-003,4.88750E-001,0,5.91210E+001,-1.70888E+000,9.99833E-001,2.13351E+001,-3.15204E+001,9.99552E-001,7.33986E-002,-2.99556E-002,-1.02874E-003,7.34088E-002,-2.99659E-002,-5.70220E-001,7.38200E-002,1.07608E+000,-1.39451E-002,0.00000E+000,1.08257E-002,9.71978E-001,0.00000E+000,-4.93417E-003,-5.64636E-002,1.00000E+000,11
1189,1327,2.07160E+001,9.20806E-002,-9.21044E-002,3.91574E+000,-1.01175E-001,-6.68952E-002,3.91762E+000,9.88479E-003,4.47743E-001,0,5.91475E+001,-1.97109E+000,9.99859E-001,2.15896E+001,-3.17210E+001,9.99334E-001,7.42038E-002,-2.99567E-002,-1.02045E-003,7.42138E-002,-2.99667E-002,-5.61247E-001,7.46704E-002,1.07695E+000,-1.39140E-002,0.00000E+000,1.08005E-002,9.71977E-001,0.00000E+000,-4.87552E-003,-5.64615E-002,1.00000E+000,11
659,1327,-1.64261E+001,-5.06361E-001,7.19226E-002,1.33297E+000,-3.94413E-001,8.65349E-002,1.39279E+000,1.29397E-002,5.63205E-001,0,2.06573E+001,-6.52508E+000,9.99689E-001,-2.15924E+001,-4.62648E+001,9.97745E-001,6.66584E-002,-2.68936E-002,-3.11616E-004,6.66594E-002,-2.68947E-002,-1.90846E-001,6.70723E-002,1.06890E+000,7.43936E-003,0.00000E+000,-7.38352E-003,9.74886E-001,0.00000E+000,2.08787E-004,-5.45928E-002,1.00000E+000,11
659,1337,-1.64026E+001,1.07047E-001,4.35142E-002,1.34749E+000,-4.18970E-001,6.86596E-002,1.41279E+000,1.49134E-002,6.62432E-001,0,2.09363E+001,-6.90957E+000,9.99567E-001,-2.11669E+001,-4.67261E+001,9.99133E-001,6.53108E-002,-2.68953E-002,-4.39854E-004,6.53129E-002,-2.68974E-002,-2.73312E-001,6.56506E-002,1.06747E+000,7.41922E-003,0.00000E+000,-7.57501E-003,9.74884E-001,0.00000E+000,-7.19744E-004,-5.46058E-002,1.00000E+000,11
659,1347,-1.63901E+001,7.30700E-001,1.27875E-002,1.34799E+000,-4.33957E-001,3.12169E-002,1.41647E+000,7.14054E-003,6.38504E-001,0,2.10478E+001,-7.06650E+000,9.99798E-001,-2.09128E+001,-4.70898E+001,9.99689E-001,6.39611E-002,-2.68981E-002,-5.71183E-004,6.39647E-002,-2.69016E-002,-3.60169E-001,6.42332E-002,1.06603E+000,7.39245E-003,0.00000E+000,-7.76641E-003,9.74880E-001,0.00000E+000,-1.64785E-003,-5.46230E-002,1.00000E+000,11
659,1357,-1.63707E+001,1.36179E+000,1.96640E-002,1.34867E+000,-4.47462E-001,-6.43084E-003,1.42098E+000,4.75769E-003,5.93987E-001,0,2.11602E+001,-7.18582E+000,9.99692E-001,-2.04461E+001,-4.74333E+001,9.99738E-001,6.26005E-002,-2.69034E-002,-7.10251E-004,6.26061E-002,-2.69090E-002,-4.54628E-001,6.28114E-002,1.06458E+000,7.35081E-003,0.00000E+000,-7.95895E-003,9.74875E-001,0.00000E+000,-2.58154E-003,-5.46499E-002,1.00000E+000,11
1199,1307,2.14017E+001,-1.16231E+000,-4.44070E-002,3.97771E+000,-5.79693E-002,5.14182E-003,3.97813E+000,9.96696E-003,4.49899E-001,0,5.97558E+001,-1.43460E+000,9.99625E-001,2.22319E+001,-3.12010E+001,9.98402E-001,7.27176E-002,-2.99703E-002,-8.00562E-004,7.27238E-002,-2.99766E-002,-4.46646E-001,7.30966E-002,1.07536E+000,-1.31583E-002,0.00000E+000,1.06135E-002,9.71953E-001,0.00000E+000,-5.76975E-003,-5.62206E-002,1.00000E+000,11
1199,1317,2.14129E+001,-5.31665E-001,-8.32198E-002,3.97164E+000,-7.71693E-002,-3.37273E-002,3.97253E+000,8.48200E-003,4.35965E-001,0,5.98160E+001,-1.66202E+000,9.99400E-001,2.24056E+001,-3.13351E+001,9.98186E-001,7.34787E-002,-2.99722E-002,-8.10896E-004,7.34851E-002,-2.99786E-002,-4.49074E-001,7.38990E-002,1.07618E+000,-1.31368E-002,0.00000E+000,1.05525E-002,9.71951E-001,0.00000E+000,-5.54373E-003,-5.62147E-002,1.00000E+000,11
1199,1327,2.14289E+001,1.02588E-001,-1.09308E-001,3.96770E+000,-9.38427E-002,-7.06430E-002,3.96944E+000,8.99128E-003,4.19875E-001,0,5.98977E+001,-1.86323E+000,9.99599E-001,2.26757E+001,-3.14432E+001,9.98637E-001,7.42399E-002,-2.99743E-002,-8.19686E-004,7.42464E-002,-2.99807E-002,-4.50617E-001,7.47031E-002,1.07700E+000,-1.31118E-002,0.00000E+000,1.04915E-002,9.71949E-001,0.00000E+000,-5.31749E-003,-5.62078E-002,1.00000E+000,11
659,1317,-1.64386E+001,-1.12223E+000,1.37531E-001,1.32548E+000,-3.77383E-001,1.19496E-001,1.38333E+000,1.11610E-002,5.98021E-001,0,2.04468E+001,-6.33288E+000,9.99046E-001,-2.17469E+001,-4.58538E+001,9.95850E-001,6.79951E-002,-2.68934E-002,-1.88197E-004,6.79955E-002,-2.68938E-002,-1.13637E-001,6.84885E-002,1.07033E+000,7.45075E-003,0.00000E+000,-7.19319E-003,9.74888E-001,0.00000E+000,1.13175E-003,-5.45854E-002,1.00000E+000,11
1199,1337,2.14602E+001,7.45084E-001,-7.47099E-002,3.96422E+000,-1.12124E-001,-1.03961E-001,3.96717E+000,8.54492E-003,4.47002E-001,0,5.99648E+001,-2.09810E+000,9.99729E-001,2.32786E+001,-3.15370E+001,9.98287E-001,7.50092E-002,-2.99775E-002,-8.20252E-004,7.50156E-002,-2.99839E-002,-4.47611E-001,7.55171E-002,1.07783E+000,-1.30685E-002,0.00000E+000,1.04298E-002,9.71946E-001,0.00000E+000,-5.08861E-003,-5.61958E-002,1.00000E+000,11
1199,1297,2.14042E+001,-1.78206E+000,3.41359E-002,3.98743E+000,-3.30084E-002,4.52056E-002,3.98782E+000,7.54130E-003,4.59131E-001,0,5.97378E+001,-1.12581E+000,9.99555E-001,2.23332E+001,-3.09851E+001,9.98151E-001,7.19599E-002,-2.99692E-002,-7.84643E-004,7.19659E-002,-2.99753E-002,-4.41024E-001,7.22995E-002,1.07455E+000,-1.31676E-002,0.00000E+000,1.06740E-002,9.71953E-001,0.00000E+000,-5.99451E-003,-5.62232E-002,1.00000E+000,11
649,1347,-1.70774E+001,7.32744E-001,8.32166E-003,1.30078E+000,-4.27209E-001,2.24645E-002,1.36932E+000,7.63804E-003,6.83931E-001,0,2.03462E+001,-6.95082E+000,9.99673E-001,-2.14221E+001,-4.71268E+001,9.99064E-001,6.32083E-002,-2.67473E-002,-5.33277E-004,6.32114E-002,-2.67505E-002,-3.39646E-001,6.34596E-002,1.06521E+000,8.86238E-003,0.00000E+000,-9.03884E-003,9.74977E-001,0.00000E+000,-1.70225E-003,-5.38815E-002,1.00000E+000,11
649,1357,-1.70552E+001,1.36147E+000,2.39870E-002,1.30494E+000,-4.42033E-001,-3.86826E-003,1.37778E+000,5.37572E-003,6.01049E-001,0,2.04819E+001,-7.10457E+000,9.99709E-001,-2.08855E+001,-4.75466E+001,9.99485E-001,6.17419E-002,-2.67518E-002,-6.66160E-004,6.17469E-002,-2.67568E-002,-4.31277E-001,6.19296E-002,1.06366E+000,8.81899E-003,0.00000E+000,-9.22526E-003,9.74972E-001,0.00000E+000,-2.55639E-003,-5.39053E-002,1.00000E+000,11
649,1337,-1.70962E+001,1.10096E-001,3.63484E-002,1.29363E+000,-4.09696E-001,5.61651E-002,1.35812E+000,8.48179E-003,6.10675E-001,0,2.01416E+001,-6.72524E+000,9.99748E-001,-2.17812E+001,-4.67895E+001,9.99141E-001,6.46687E-002,-2.67451E-002,-4.07779E-004,6.46705E-002,-2.67469E-002,-2.55578E-001,6.49916E-002,1.06677E+000,8.89063E-003,0.00000E+000,-8.85281E-003,9.74980E-001,0.00000E+000,-8.49835E-004,-5.38661E-002,1.00000E+000,11
649,1327,-1.71121E+001,-5.01356E-001,7.72420E-002,1.28621E+000,-3.85592E-001,8.44169E-002,1.34541E+000,7.13123E-003,6.07482E-001,0,1.99449E+001,-6.39134E+000,9.99823E-001,-2.20561E+001,-4.62743E+001,9.99479E-001,6.61181E-002,-2.67440E-002,-2.86569E-004,6.61190E-002,-2.67449E-002,-1.76810E-001,6.65198E-002,1.06832E+000,8.91112E-003,0.00000E+000,-8.66781E-003,9.74983E-001,0.00000E+000,-2.15025E-006,-5.38548E-002,1.00000E+000,11
1209,1307,2.21191E+001,-1.14760E+000,-4.32320E-002,4.02844E+000,-5.00671E-002,-1.55076E-003,4.02875E+000,7.62461E-003,4.66333E-001,0,6.04933E+001,-1.31741E+000,9.99662E-001,2.34231E+001,-3.08790E+001,9.98577E-001,7.26627E-002,-2.97889E-002,-5.21558E-004,7.26653E-002,-2.97916E-002,-2.91670E-001,7.30568E-002,1.07531E+000,-1.22867E-002,0.00000E+000,1.03832E-002,9.72109E-001,0.00000E+000,-5.99511E-003,-5.58099E-002,1.00000E+000,11
1209,1317,2.21286E+001,-5.20504E-001,-8.63556E-002,4.02242E+000,-7.20071E-002,-3.77000E-002,4.02324E+000,8.87136E-003,4.52611E-001,0,6.05463E+001,-1.59369E+000,9.99609E-001,2.35632E+001,-3.10573E+001,9.98086E-001,7.34569E-002,-2.97902E-002,-5.26070E-004,7.34596E-002,-2.97929E-002,-2.91926E-001,7.38950E-002,1.07617E+000,-1.22664E-002,0.00000E+000,1.03254E-002,9.72108E-001,0.00000E+000,-5.59058E-003,-5.58003E-002,1.00000E+000,11
1209,1327,2.21510E+001,1.16705E-001,-9.81922E-002,4.02010E+000,-8.80013E-002,-7.80194E-002,4.02182E+000,8.34003E-003,4.13670E-001,0,6.06639E+001,-1.77428E+000,9.99678E-001,2.39534E+001,-3.11600E+001,9.98759E-001,7.42536E-002,-2.97920E-002,-5.25148E-004,7.42562E-002,-2.97946E-002,-2.89179E-001,7.47375E-002,1.07702E+000,-1.22342E-002,0.00000E+000,1.02673E-002,9.72105E-001,0.00000E+000,-5.18436E-003,-5.57850E-002,1.00000E+000,11
1209,1337,2.21828E+001,7.59129E-001,-6.31751E-002,4.01657E+000,-1.07839E-001,-1.11936E-001,4.01958E+000,8.90580E-003,4.51097E-001,0,6.07337E+001,-2.02061E+000,9.99716E-001,2.45617E+001,-3.12494E+001,9.97888E-001,7.50583E-002,-2.97944E-002,-5.18055E-004,7.50609E-002,-2.97969E-002,-2.83077E-001,7.55902E-002,1.07789E+000,-1.21883E-002,0.00000E+000,1.02086E-002,9.72102E-001,0.00000E+000,-4.77351E-003,-5.57632E-002,1.00000E+000,11
1209,1297,2.21191E+001,-1.77015E+000,2.88009E-002,4.03753E+000,-2.61719E-002,3.88787E-002,4.03780E+000,7.47498E-003,4.34951E-001,0,6.04651E+001,-1.01323E+000,9.99639E-001,2.34754E+001,-3.07145E+001,9.97955E-001,7.18695E-002,-2.97880E-002,-5.13268E-004,7.18721E-002,-2.97906E-002,-2.89276E-001,7.22216E-002,1.07446E+000,-1.22987E-002,0.00000E+000,1.04409E-002,9.72110E-001,0.00000E+000,-6.39864E-003,-5.58156E-002,1.00000E+000,11
649,1317,-1.71210E+001,-1.11645E+000,1.51763E-001,1.28101E+000,-3.69022E-001,1.18823E-001,1.33839E+000,6.02236E-003,6.09022E-001,0,1.97666E+001,-6.19360E+000,9.99673E-001,-2.21290E+001,-4.58844E+001,9.99324E-001,6.75593E-002,-2.67446E-002,-1.71157E-004,6.75596E-002,-2.67449E-002,-1.03989E-001,6.80462E-002,1.06986E+000,8.92010E-003,0.00000E+000,-8.48347E-003,9.74984E-001,0.00000E+000,8.42459E-004,-5.38499E-002,1.00000E+000,11
639,1347,-1.77624E+001,7.35599E-001,6.19947E-003,1.25651E+000,-4.18121E-001,2.21051E-002,1.32443E+000,7.99800E-003,6.20850E-001,0,1.96663E+001,-6.77284E+000,9.99499E-001,-2.18850E+001,-4.72105E+001,9.98979E-001,6.24907E-002,-2.64896E-002,-4.88426E-004,6.24934E-002,-2.64923E-002,-3.14492E-001,6.27340E-002,1.06444E+000,1.04709E-002,0.00000E+000,-1.04306E-002,9.75156E-001,0.00000E+000,-1.71738E-003,-5.27582E-002,1.00000E+000,11
639,1357,-1.77379E+001,1.36526E+000,2.27801E-002,1.26300E+000,-4.32628E-001,-4.37165E-003,1.33505E+000,5.02401E-003,6.01057E-001,0,1.98381E+001,-6.94313E+000,9.99658E-001,-2.13082E+001,-4.75878E+001,9.99556E-001,6.09431E-002,-2.64938E-002,-6.21884E-004,6.09475E-002,-2.64982E-002,-4.07482E-001,6.11202E-002,1.06279E+000,1.04251E-002,0.00000E+000,-1.06186E-002,9.75151E-001,0.00000E+000,-2.59437E-003,-5.27826E-002,1.00000E+000,11
639,1317,-1.78026E+001,-1.11557E+000,1.69479E-001,1.23722E+000,-3.66768E-001,1.23340E-001,1.29632E+000,8.34485E-003,6.92736E-001,0,1.90837E+001,-6.17595E+000,9.99684E-001,-2.24860E+001,-4.59613E+001,9.98710E-001,6.70687E-002,-2.64890E-002,-1.30928E-004,6.70689E-002,-2.64892E-002,-8.01813E-002,6.75605E-002,1.06932E+000,1.05244E-002,0.00000E+000,-9.87202E-003,9.75162E-001,0.00000E+000,8.87948E-004,-5.27297E-002,1.00000E+000,11
639,1327,-1.77936E+001,-5.06733E-001,8.94998E-002,1.24399E+000,-3.86214E-001,9.12322E-002,1.30576E+000,6.32425E-003,6.17704E-001,0,1.92807E+001,-6.41914E+000,9.99750E-001,-2.24280E+001,-4.64745E+001,9.98983E-001,6.55562E-002,-2.64875E-002,-2.43707E-004,6.55569E-002,-2.64882E-002,-1.51703E-001,6.59580E-002,1.06770E+000,1.05186E-002,0.00000E+000,-1.00570E-002,9.75161E-001,0.00000E+000,2.53808E-005,-5.27328E-002,1.00000E+000,11
639,1337,-1.77813E+001,1.13426E-001,2.93162E-002,1.24968E+000,-4.01838E-001,5.41153E-002,1.31381E+000,6.38376E-003,6.63895E-001,0,1.94722E+001,-6.59149E+000,9.99721E-001,-2.22609E+001,-4.67954E+001,9.99223E-001,6.40260E-002,-2.64876E-002,-3.62725E-004,6.40275E-002,-2.64890E-002,-2.29603E-001,6.43445E-002,1.06607E+000,1.05017E-002,0.00000E+000,-1.02437E-002,9.75159E-001,0.00000E+000,-8.45453E-004,-5.27418E-002,1.00000E+000,11
1219,1317,2.28505E+001,-5.05088E-001,-7.72637E-002,4.07519E+000,-6.69088E-002,-4.31867E-002,4.07597E+000,1.01938E-002,5.20959E-001,0,6.13095E+001,-1.51328E+000,9.99704E-001,2.48389E+001,-3.07137E+001,9.98056E-001,7.33331E-002,-2.97533E-002,-1.94092E-004,7.33335E-002,-2.97537E-002,-1.07876E-001,7.37667E-002,1.07604E+000,-1.13038E-002,0.00000E+000,1.00863E-002,9.72103E-001,0.00000E+000,-5.29885E-003,-5.50064E-002,1.00000E+000,11
1219,1327,2.28700E+001,1.30222E-001,-9.50819E-002,4.07194E+000,-8.27559E-002,-8.15111E-002,4.07359E+000,5.98125E-003,4.33261E-001,0,6.14069E+001,-1.68968E+000,9.99827E-001,2.51737E+001,-3.08561E+001,9.98889E-001,7.41097E-002,-2.97546E-002,-1.91359E-004,7.41100E-002,-2.97550E-002,-1.05561E-001,7.45878E-002,1.07688E+000,-1.12748E-002,0.00000E+000,1.00280E-002,9.72101E-001,0.00000E+000,-4.74469E-003,-5.49871E-002,1.00000E+000,11
1219,1337,2.29033E+001,7.73932E-001,-6.12917E-002,4.06899E+000,-1.01879E-001,-1.19200E-001,4.07201E+000,7.40993E-003,4.74204E-001,0,6.15004E+001,-1.91962E+000,9.99742E-001,2.58008E+001,-3.09196E+001,9.98655E-001,7.48965E-002,-2.97566E-002,-1.80910E-004,7.48968E-002,-2.97569E-002,-9.90445E-002,7.54216E-002,1.07772E+000,-1.12287E-002,0.00000E+000,9.96874E-003,9.72098E-001,0.00000E+000,-4.18238E-003,-5.49564E-002,1.00000E+000,11
1219,1297,2.28375E+001,-1.75767E+000,2.62504E-002,4.08955E+000,-2.07810E-002,3.11961E-002,4.08972E+000,8.29085E-003,4.07496E-001,0,6.12253E+001,-8.97006E-001,9.99608E-001,2.46807E+001,-3.04426E+001,9.97948E-001,7.17779E-002,-2.97515E-002,-1.88974E-004,7.17783E-002,-2.97518E-002,-1.06643E-001,7.21272E-002,1.07438E+000,-1.13388E-002,0.00000E+000,1.02030E-002,9.72105E-001,0.00000E+000,-6.40660E-003,-5.50296E-002,1.00000E+000,11
1219,1307,2.28423E+001,-1.13285E+000,-3.07916E-002,4.08265E+000,-4.40910E-002,-3.79245E-003,4.08289E+000,9.87680E-003,4.70690E-001,0,6.12640E+001,-1.21866E+000,9.99674E-001,2.47254E+001,-3.05860E+001,9.97744E-001,7.25549E-002,-2.97523E-002,-1.92662E-004,7.25553E-002,-2.97527E-002,-1.07897E-001,7.29454E-002,1.07521E+000,-1.13237E-002,0.00000E+000,1.01447E-002,9.72104E-001,0.00000E+000,-5.85350E-003,-5.50196E-002,1.00000E+000,11
629,1347,-1.84447E+001,7.33596E-001,5.88176E-004,1.21504E+000,-4.13757E-001,2.09234E-002,1.28372E+000,6.96897E-003,6.04956E-001,0,1.90328E+001,-6.68759E+000,9.99454E-001,-2.23132E+001,-4.73373E+001,9.99059E-001,6.18770E-002,-2.67148E-002,-4.94576E-004,6.18797E-002,-2.67176E-002,-3.19848E-001,6.20715E-002,1.06377E+000,1.20939E-002,0.00000E+000,-1.19346E-002,9.74862E-001,0.00000E+000,-1.66360E-003,-5.16285E-002,1.00000E+000,11
629,1357,-1.84182E+001,1.36331E+000,1.99022E-002,1.22336E+000,-4.28296E-001,-4.65157E-003,1.29617E+000,5.85917E-003,5.94053E-001,0,1.92301E+001,-6.86444E+000,9.99528E-001,-2.16968E+001,-4.77168E+001,9.99263E-001,6.04049E-002,-2.67152E-002,-5.18594E-004,6.04080E-002,-2.67183E-002,-3.41044E-001,6.05420E-002,1.06220E+000,1.20501E-002,0.00000E+000,-1.19136E-002,9.74862E-001,0.00000E+000,-2.54065E-003,-5.16531E-002,1.00000E+000,11
629,1327,-1.84767E+001,-5.05289E-001,8.56504E-002,1.20116E+000,-3.78996E-001,8.96945E-002,1.26272E+000,6.12649E-003,6.05097E-001,0,1.86272E+001,-6.29241E+000,9.99620E-001,-2.28636E+001,-4.65473E+001,9.98972E-001,6.47930E-002,-2.67147E-002,-4.67135E-004,6.47953E-002,-2.67171E-002,-2.92478E-001,6.51265E-002,1.06687E+000,1.21377E-002,0.00000E+000,-1.19764E-002,9.74861E-001,0.00000E+000,7.91997E-005,-5.16039E-002,1.00000E+000,11
629,1337,-1.84616E+001,1.12441E-001,2.76588E-002,1.20964E+000,-3.96747E-001,5.43052E-002,1.27420E+000,6.23889E-003,6.41690E-001,0,1.88575E+001,-6.49977E+000,9.99541E-001,-2.26479E+001,-4.69164E+001,9.99322E-001,6.33375E-002,-2.67147E-002,-4.78082E-004,6.33400E-002,-2.67172E-002,-3.04169E-001,6.35977E-002,1.06532E+000,1.21217E-002,0.00000E+000,-1.19555E-002,9.74861E-001,0.00000E+000,-7.91593E-004,-5.16129E-002,1.00000E+000,11
1229,1317,2.35711E+001,-4.89288E-001,-7.73632E-002,4.12928E+000,-5.74902E-002,-4.61793E-002,4.12993E+000,9.01938E-003,4.93201E-001,0,6.20810E+001,-1.35978E+000,9.99700E-001,2.60845E+001,-3.03925E+001,9.99040E-001,7.32319E-002,-2.96503E-002,1.54288E-004,7.32321E-002,-2.96505E-002,8.59240E-002,7.36725E-002,1.07594E+000,-1.03536E-002,0.00000E+000,9.87965E-003,9.72173E-001,0.00000E+000,-4.77680E-003,-5.44034E-002,1.00000E+000,11
1229,1327,2.35883E+001,1.43510E-001,-9.53786E-002,4.12312E+000,-7.91368E-002,-8.60206E-002,4.12477E+000,7.10649E-003,5.12623E-001,0,6.21440E+001,-1.63080E+000,9.99727E-001,2.63807E+001,-3.05188E+001,9.98641E-001,7.39721E-002,-2.96503E-002,1.70284E-004,7.39724E-002,-2.96506E-002,9.41543E-002,7.44558E-002,1.07673E+000,-1.03253E-002,0.00000E+000,9.84019E-003,9.72171E-001,0.00000E+000,-4.05407E-003,-5.43776E-002,1.00000E+000,11
1229,1337,2.36203E+001,7.86543E-001,-7.16082E-002,4.12173E+000,-9.39279E-002,-1.22592E-001,4.12462E+000,7.16613E-003,4.53929E-001,0,6.22567E+001,-1.80372E+000,9.99678E-001,2.69716E+001,-3.06188E+001,9.98458E-001,7.47131E-002,-2.96504E-002,1.91870E-004,7.47134E-002,-2.96508E-002,1.05336E-001,7.52414E-002,1.07753E+000,-1.02849E-002,0.00000E+000,9.80062E-003,9.72169E-001,0.00000E+000,-3.32945E-003,-5.43408E-002,1.00000E+000,11
629,1317,-1.84878E+001,-1.11449E+000,1.68901E-001,1.19214E+000,-3.59726E-001,1.23967E-001,1.25139E+000,6.99276E-003,6.75806E-001,0,1.83900E+001,-6.06325E+000,9.99655E-001,-2.29427E+001,-4.60473E+001,9.98965E-001,6.62332E-002,-2.67149E-002,-4.61352E-004,6.62355E-002,-2.67172E-002,-2.84381E-001,6.66465E-002,1.06841E+000,1.21427E-002,0.00000E+000,-1.19971E-002,9.74861E-001,0.00000E+000,9.42648E-004,-5.16011E-002,1.00000E+000,11
1229,1297,2.35557E+001,-1.74305E+000,2.45726E-002,4.14088E+000,-1.35514E-002,2.45165E-002,4.14097E+000,8.29303E-003,4.55628E-001,0,6.19693E+001,-7.87361E-001,9.99558E-001,2.58872E+001,-3.01017E+001,9.97502E-001,7.17572E-002,-2.96502E-002,1.33285E-004,7.17574E-002,-2.96503E-002,7.53064E-002,7.21169E-002,1.07436E+000,-1.03863E-002,0.00000E+000,9.95809E-003,9.72174E-001,0.00000E+000,-6.21345E-003,-5.44332E-002,1.00000E+000,11
1229,1307,2.35642E+001,-1.11627E+000,-3.27242E-002,4.13895E+000,-3.38309E-002,-5.42844E-003,4.13909E+000,1.13040E-002,4.78235E-001,0,6.20624E+001,-1.06288E+000,9.99562E-001,2.59887E+001,-3.02323E+001,9.97991E-001,7.24937E-002,-2.96502E-002,1.42061E-004,7.24939E-002,-2.96504E-002,7.96861E-002,7.28929E-002,1.07515E+000,-1.03737E-002,0.00000E+000,9.91895E-003,9.72174E-001,0.00000E+000,-5.49654E-003,-5.44216E-002,1.00000E+000,11
619,1327,-1.91599E+001,-5.04990E-001,8.34378E-002,1.15755E+000,-3.73164E-001,8.84727E-002,1.21943E+000,4.89819E-003,5.80614E-001,0,1.79603E+001,-6.18136E+000,9.99649E-001,-2.32926E+001,-4.66472E+001,9.99250E-001,6.41842E-002,-2.64865E-002,-6.39902E-004,6.41887E-002,-2.64910E-002,-4.04334E-001,6.45140E-002,1.06620E+000,1.38007E-002,0.00000E+000,-1.38387E-002,9.75018E-001,0.00000E+000,5.13877E-005,-5.07726E-002,1.00000E+000,11
619,1337,-1.91434E+001,1.14087E-001,3.20109E-002,1.16677E+000,-3.89960E-001,5.50422E-002,1.23145E+000,5.24467E-003,6.30226E-001,0,1.81957E+001,-6.38575E+000,9.99394E-001,-2.30353E+001,-4.70049E+001,9.99224E-001,6.27101E-002,-2.64867E-002,-5.93965E-004,6.27141E-002,-2.64906E-002,-3.81513E-001,6.29653E-002,1.06463E+000,1.37829E-002,0.00000E+000,-1.37097E-002,9.75019E-001,0.00000E+000,-7.91977E-004,-5.07821E-002,1.00000E+000,11
619,1347,-1.91244E+001,7.35668E-001,4.38316E-004,1.17561E+000,-4.05347E-001,2.43746E-002,1.24376E+000,6.30269E-003,6.23158E-001,0,1.84165E+001,-6.56869E+000,9.99331E-001,-2.26812E+001,-4.73964E+001,9.99222E-001,6.12331E-002,-2.64865E-002,-5.51262E-004,6.12365E-002,-2.64900E-002,-3.60049E-001,6.14218E-002,1.06306E+000,1.37581E-002,0.00000E+000,-1.35807E-002,9.75021E-001,0.00000E+000,-1.63532E-003,-5.07954E-002,1.00000E+000,11
619,1357,-1.90984E+001,1.36455E+000,1.28072E-002,1.18453E+000,-4.19572E-001,-2.44002E-003,1.25664E+000,5.61445E-003,5.96970E-001,0,1.86264E+001,-6.73151E+000,9.99638E-001,-2.20917E+001,-4.77830E+001,9.99466E-001,5.97448E-002,-2.64854E-002,-5.16011E-004,5.97479E-002,-2.64884E-002,-3.42848E-001,5.98756E-002,1.06148E+000,1.37169E-002,0.00000E+000,-1.34509E-002,9.75025E-001,0.00000E+000,-2.48333E-003,-5.08176E-002,1.00000E+000,11
619,1317,-1.91685E+001,-1.11162E+000,1.70041E-001,1.15114E+000,-3.49880E-001,1.26602E-001,1.20978E+000,7.95213E-003,6.25166E-001,0,1.77529E+001,-5.90966E+000,9.99535E-001,-2.33224E+001,-4.61258E+001,9.99069E-001,6.56461E-002,-2.64856E-002,-6.91360E-004,6.56512E-002,-2.64908E-002,-4.29918E-001,6.60575E-002,1.06776E+000,1.38060E-002,0.00000E+000,-1.39669E-002,9.75017E-001,0.00000E+000,8.89485E-004,-5.07697E-002,1.00000E+000,11
1239,1307,2.42763E+001,-1.10677E+000,-4.49333E-002,4.18575E+000,-2.90494E-002,-1.44026E-002,4.18587E+000,1.19185E-002,4.63869E-001,0,6.27497E+001,-9.81779E-001,9.99413E-001,2.70868E+001,-2.99788E+001,9.98319E-001,7.22907E-002,-2.94036E-002,3.09205E-004,7.22916E-002,-2.94045E-002,1.74208E-001,7.27095E-002,1.07494E+000,-9.58439E-003,0.00000E+000,9.53200E-003,9.72382E-001,0.00000E+000,-5.47235E-003,-5.37536E-002,1.00000E+000,11
1239,1317,2.42896E+001,-4.74277E-001,-8.80620E-002,4.18272E+000,-4.63784E-002,-5.23416E-002,4.18330E+000,1.03436E-002,4.30212E-001,0,6.28548E+001,-1.17804E+000,9.99505E-001,2.72847E+001,-3.00784E+001,9.98957E-001,7.30556E-002,-2.94007E-002,3.63810E-004,7.30569E-002,-2.94020E-002,2.03447E-001,7.35188E-002,1.07576E+000,-9.56388E-003,0.00000E+000,9.55768E-003,9.72383E-001,0.00000E+000,-4.41030E-003,-5.37269E-002,1.00000E+000,11
1239,1327,2.43106E+001,1.60367E-001,-8.49193E-002,4.17556E+000,-7.11150E-002,-8.83511E-002,4.17710E+000,8.63704E-003,5.25802E-001,0,6.28869E+001,-1.50898E+000,9.99572E-001,2.76696E+001,-3.01824E+001,9.98816E-001,7.38275E-002,-2.93964E-002,4.25755E-004,7.38293E-002,-2.93981E-002,2.36316E-001,7.43377E-002,1.07658E+000,-9.52856E-003,0.00000E+000,9.58365E-003,9.72384E-001,0.00000E+000,-3.33593E-003,-5.36811E-002,1.00000E+000,11
1239,1337,2.43367E+001,8.02017E-001,-6.81856E-002,4.17174E+000,-8.45459E-002,-1.18064E-001,4.17426E+000,7.50244E-003,4.41482E-001,0,6.29376E+001,-1.67829E+000,9.99464E-001,2.81556E+001,-3.03006E+001,9.98044E-001,7.45922E-002,-2.93918E-002,4.88308E-004,7.45945E-002,-2.93941E-002,2.69052E-001,7.51507E-002,1.07740E+000,-9.49104E-003,0.00000E+000,9.60945E-003,9.72385E-001,0.00000E+000,-2.26913E-003,-5.36323E-002,1.00000E+000,11
1239,1297,2.42721E+001,-1.73127E+000,2.18535E-002,4.19101E+000,-6.85574E-003,2.10029E-002,4.19106E+000,7.51341E-003,4.72721E-001,0,6.26823E+001,-7.03879E-001,9.99559E-001,2.70668E+001,-2.98186E+001,9.98240E-001,7.15263E-002,-2.94056E-002,2.58718E-004,7.15269E-002,-2.94062E-002,1.46865E-001,7.19026E-002,1.07412E+000,-9.59624E-003,0.00000E+000,9.50640E-003,9.72382E-001,0.00000E+000,-6.53123E-003,-5.37690E-002,1.00000E+000,11
609,1347,-1.98029E+001,7.37691E-001,3.64504E-003,1.13605E+000,-3.98219E-001,2.57693E-002,1.20410E+000,8.04534E-003,6.36502E-001,0,1.78034E+001,-6.45601E+000,9.99314E-001,-2.30165E+001,-4.74659E+001,9.99039E-001,6.06569E-002,-2.59421E-002,-7.10883E-004,6.06627E-002,-2.59480E-002,-4.70294E-001,6.08735E-002,1.06243E+000,1.53017E-002,0.00000E+000,-1.53305E-002,9.75483E-001,0.00000E+000,-1.46940E-003,-4.99027E-002,1.00000E+000,11
609,1357,-1.97784E+001,1.36821E+000,9.07252E-003,1.14458E+000,-4.09687E-001,-2.63245E-003,1.21569E+000,6.38430E-003,6.21130E-001,0,1.80104E+001,-6.57910E+000,9.99559E-001,-2.24678E+001,-4.78087E+001,9.99358E-001,5.91735E-002,-2.59408E-002,-6.46103E-004,5.91784E-002,-2.59457E-002,-4.34899E-001,5.93278E-002,1.06085E+000,1.52633E-002,0.00000E+000,-1.51467E-002,9.75487E-001,0.00000E+000,-2.35358E-003,-4.99243E-002,1.00000E+000,11
609,1317,-1.98519E+001,-1.11063E+000,1.68082E-001,1.10647E+000,-3.43332E-001,1.22836E-001,1.16501E+000,9.67346E-003,6.17077E-001,0,1.70757E+001,-5.80032E+000,9.99548E-001,-2.37483E+001,-4.62060E+001,9.98431E-001,6.50620E-002,-2.59399E-002,-9.35694E-004,6.50716E-002,-2.59496E-002,-5.89040E-001,6.55146E-002,1.06712E+000,1.53488E-002,0.00000E+000,-1.58787E-002,9.75477E-001,0.00000E+000,1.16752E-003,-4.98762E-002,1.00000E+000,11
609,1327,-1.98410E+001,-5.04380E-001,8.15895E-002,1.11573E+000,-3.68038E-001,8.77121E-002,1.17813E+000,6.48388E-003,6.17285E-001,0,1.73191E+001,-6.09775E+000,9.99608E-001,-2.36832E+001,-4.67126E+001,9.98788E-001,6.36002E-002,-2.59417E-002,-8.55524E-004,6.36083E-002,-2.59499E-002,-5.47363E-001,6.39665E-002,1.06556E+000,1.53448E-002,0.00000E+000,-1.56964E-002,9.75478E-001,0.00000E+000,2.90599E-004,-4.98785E-002,1.00000E+000,11
609,1337,-1.98229E+001,1.15565E-001,3.22249E-002,1.12653E+000,-3.82268E-001,5.58716E-002,1.19093E+000,6.87685E-003,6.07750E-001,0,1.75738E+001,-6.25977E+000,9.99420E-001,-2.33954E+001,-4.70925E+001,9.98870E-001,6.21331E-002,-2.59423E-002,-7.81566E-004,6.21400E-002,-2.59492E-002,-5.08380E-001,6.24207E-002,1.06400E+000,1.53271E-002,0.00000E+000,-1.55138E-002,9.75480E-001,0.00000E+000,-5.87595E-004,-4.98884E-002,1.00000E+000,11
1249,1297,2.49917E+001,-1.71581E+000,2.79132E-002,4.24224E+000,1.53251E-003,2.05943E-002,4.24229E+000,9.35296E-003,5.19997E-001,0,6.33965E+001,-5.98022E-001,9.99578E-001,2.83118E+001,-2.94817E+001,9.98214E-001,7.10829E-002,-2.89872E-002,4.14601E-004,7.10847E-002,-2.89889E-002,2.37377E-001,7.14863E-002,1.07366E+000,-8.52935E-003,0.00000E+000,8.87491E-003,9.72762E-001,0.00000E+000,-7.01611E-003,-5.31328E-002,1.00000E+000,11
1249,1307,2.49911E+001,-1.09450E+000,-5.15956E-002,4.23470E+000,-2.21944E-002,-1.80881E-002,4.23479E+000,1.21063E-002,4.78002E-001,0,6.34459E+001,-8.84876E-001,9.99522E-001,2.82393E+001,-2.96798E+001,9.97920E-001,7.19385E-002,-2.89814E-002,5.72676E-004,7.19418E-002,-2.89847E-002,3.25114E-001,7.23926E-002,1.07457E+000,-8.51954E-003,0.00000E+000,9.09302E-003,9.72764E-001,0.00000E+000,-5.58030E-003,-5.31174E-002,1.00000E+000,11
1249,1317,2.50013E+001,-4.66388E-001,-9.90789E-002,4.22950E+000,-4.32200E-002,-5.65453E-002,4.23010E+000,1.01346E-002,4.23986E-001,0,6.35236E+001,-1.13218E+000,9.99264E-001,2.83819E+001,-2.98468E+001,9.98099E-001,7.27945E-002,-2.89717E-002,7.36811E-004,7.27999E-002,-2.89770E-002,4.14806E-001,7.33027E-002,1.07548E+000,-8.49788E-003,0.00000E+000,9.31199E-003,9.72770E-001,0.00000E+000,-4.13876E-003,-5.30832E-002,1.00000E+000,11
1249,1327,2.50230E+001,1.74720E-001,-1.01830E-001,4.22561E+000,-5.83605E-002,-8.82305E-002,4.22693E+000,8.80754E-003,4.49812E-001,0,6.35851E+001,-1.32069E+000,9.99320E-001,2.87682E+001,-2.98705E+001,9.98731E-001,7.36546E-002,-2.89573E-002,9.08700E-004,7.36626E-002,-2.89653E-002,5.07342E-001,7.42205E-002,1.07641E+000,-8.46197E-003,0.00000E+000,9.53275E-003,9.72778E-001,0.00000E+000,-2.68548E-003,-5.30265E-002,1.00000E+000,11
1249,1337,2.50507E+001,8.17732E-001,-7.76408E-002,4.22045E+000,-7.44112E-002,-1.20660E-001,4.22283E+000,6.58928E-003,4.33826E-001,0,6.36271E+001,-1.52319E+000,9.99652E-001,2.92881E+001,-2.99481E+001,9.99285E-001,7.45136E-002,-2.89394E-002,1.08554E-003,7.45250E-002,-2.89508E-002,6.01122E-001,7.51404E-002,1.07733E+000,-8.41577E-003,0.00000E+000,9.75401E-003,9.72789E-001,0.00000E+000,-1.22889E-003,-5.29537E-002,1.00000E+000,11
1259,1327,2.57382E+001,1.85177E-001,-1.07745E-001,4.27437E+000,-5.25294E-002,-9.06695E-002,4.27565E+000,7.67384E-003,4.24020E-001,0,6.42742E+001,-1.24154E+000,9.99675E-001,2.99298E+001,-2.96182E+001,9.99061E-001,7.35276E-002,-2.87788E-002,1.39357E-003,7.35466E-002,-2.87978E-002,7.80265E-001,7.41209E-002,1.07627E+000,-7.57458E-003,0.00000E+000,9.62427E-003,9.72901E-001,0.00000E+000,-1.64038E-003,-5.20275E-002,1.00000E+000,11
1259,1337,2.57677E+001,8.27400E-001,-8.26560E-002,4.27037E+000,-7.01506E-002,-1.23837E-001,4.27274E+000,6.91172E-003,4.05344E-001,0,6.43374E+001,-1.46099E+000,9.99789E-001,3.04770E+001,-2.97095E+001,9.99477E-001,7.43826E-002,-2.87533E-002,1.63361E-003,7.44085E-002,-2.87792E-002,9.07226E-001,7.50417E-002,1.07720E+000,-7.52759E-003,0.00000E+000,9.95433E-003,9.72917E-001,0.00000E+000,1.30535E-004,-5.19371E-002,1.00000E+000,11
599,1347,-2.04780E+001,7.44751E-001,8.67732E-003,1.09902E+000,-3.86029E-001,2.60059E-002,1.16514E+000,7.41542E-003,6.49695E-001,0,1.72307E+001,-6.26897E+000,9.99608E-001,-2.32887E+001,-4.74619E+001,9.99496E-001,6.04064E-002,-2.61026E-002,-5.25877E-004,6.04096E-002,-2.61058E-002,-3.48277E-001,6.05947E-002,1.06214E+000,1.66294E-002,0.00000E+000,-1.62050E-002,9.75257E-001,0.00000E+000,-1.13932E-003,-4.87489E-002,1.00000E+000,11
599,1357,-2.04521E+001,1.37168E+000,1.56192E-002,1.10958E+000,-4.00769E-001,1.91358E-003,1.17974E+000,5.31713E-003,6.48030E-001,0,1.74586E+001,-6.45584E+000,9.99655E-001,-2.27135E+001,-4.78581E+001,9.99508E-001,5.90194E-002,-2.60993E-002,-3.06999E-004,5.90205E-002,-2.61004E-002,-2.06646E-001,5.91517E-002,1.06067E+000,1.65950E-002,0.00000E+000,-1.57259E-002,9.75268E-001,0.00000E+000,-2.01742E-003,-4.87695E-002,1.00000E+000,11
1259,1287,2.57070E+001,-2.32776E+000,1.04861E-001,4.29437E+000,2.97660E-002,4.47020E-002,4.29470E+000,1.08732E-002,4.18502E-001,0,6.40185E+001,-1.82547E-001,9.99441E-001,2.95458E+001,-2.91205E+001,9.95449E-001,7.01051E-002,-2.88259E-002,4.95142E-004,7.01075E-002,-2.88284E-002,2.86751E-001,7.04751E-002,1.07263E+000,-7.64633E-003,0.00000E+000,8.31833E-003,9.72875E-001,0.00000E+000,-8.64742E-003,-5.21654E-002,1.00000E+000,11
1259,1297,2.57034E+001,-1.70715E+000,5.53674E-003,4.28932E+000,6.49787E-003,7.38752E-003,4.28934E+000,8.88593E-003,4.63412E-001,0,6.41035E+001,-4.84382E-001,9.99418E-001,2.93972E+001,-2.92427E+001,9.97073E-001,7.09630E-002,-2.88217E-002,7.11531E-004,7.09680E-002,-2.88268E-002,4.08529E-001,7.13831E-002,1.07354E+000,-7.64434E-003,0.00000E+000,8.64343E-003,9.72876E-001,0.00000E+000,-6.90312E-003,-5.21616E-002,1.00000E+000,11
1259,1307,2.57071E+001,-1.08115E+000,-6.24005E-002,4.28480E+000,-1.42170E-002,-2.43330E-002,4.28489E+000,8.61234E-003,4.69620E-001,0,6.41684E+001,-7.51926E-001,9.99545E-001,2.94090E+001,-2.93664E+001,9.97952E-001,7.18190E-002,-2.88130E-002,9.32874E-004,7.18276E-002,-2.88216E-002,5.31080E-001,7.22930E-002,1.07445E+000,-7.63273E-003,0.00000E+000,8.96929E-003,9.72880E-001,0.00000E+000,-5.15469E-003,-5.21393E-002,1.00000E+000,11
599,1327,-2.05200E+001,-4.93685E-001,9.02638E-002,1.07417E+000,-3.53264E-001,8.92157E-002,1.13428E+000,6.49749E-003,6.37957E-001,0,1.66725E+001,-5.87156E+000,9.99631E-001,-2.40047E+001,-4.66536E+001,9.99060E-001,6.31576E-002,-2.60998E-002,-9.75268E-004,6.31683E-002,-2.61105E-002,-6.25941E-001,6.34837E-002,1.06507E+000,1.66682E-002,0.00000E+000,-1.71583E-002,9.75244E-001,0.00000E+000,6.07950E-004,-4.87257E-002,1.00000E+000,11
599,1337,-2.05023E+001,1.21094E-001,3.06539E-002,1.08616E+000,-3.71115E-001,5.57592E-002,1.14916E+000,5.76860E-003,6.26966E-001,0,1.69507E+001,-6.08757E+000,9.99607E-001,-2.37535E+001,-4.70934E+001,9.99318E-001,6.17873E-002,-2.61032E-002,-7.48266E-004,6.17937E-002,-2.61096E-002,-4.87747E-001,6.20405E-002,1.06361E+000,1.66552E-002,0.00000E+000,-1.66830E-002,9.75248E-001,0.00000E+000,-2.63234E-004,-4.87335E-002,1.00000E+000,11
1259,1317,2.57183E+001,-4.51044E-001,-9.93719E-002,4.28013E+000,-3.42295E-002,-5.34193E-002,4.28060E+000,8.18793E-003,4.63993E-001,0,6.42159E+001,-1.01918E+000,9.99700E-001,2.95809E+001,-2.94993E+001,9.98564E-001,7.26736E-002,-2.87991E-002,1.15970E-003,7.26869E-002,-2.88124E-002,6.54700E-001,7.32052E-002,1.07536E+000,-7.61052E-003,0.00000E+000,9.29615E-003,9.72888E-001,0.00000E+000,-3.40096E-003,-5.20966E-002,1.00000E+000,11
599,1317,-2.05352E+001,-1.10577E+000,1.72091E-001,1.06039E+000,-3.35359E-001,1.18646E-001,1.11847E+000,8.26080E-003,6.21002E-001,0,1.63759E+001,-5.64935E+000,9.99592E-001,-2.41500E+001,-4.62335E+001,9.99172E-001,6.45233E-002,-2.60935E-002,-1.20647E-003,6.45393E-002,-2.61095E-002,-7.62653E-001,6.49301E-002,1.06652E+000,1.66715E-002,0.00000E+000,-1.76329E-002,9.75243E-001,0.00000E+000,1.47802E-003,-4.87238E-002,1.00000E+000,11
589,1347,-2.11582E+001,7.52297E-001,1.22090E-002,1.05724E+000,-3.72864E-001,2.92661E-002,1.12145E+000,5.57991E-003,6.44358E-001,0,1.65750E+001,-6.06078E+000,9.99684E-001,-2.36385E+001,-4.74574E+001,9.99463E-001,6.01786E-002,-2.60846E-002,-1.45192E-004,6.01788E-002,-2.60849E-002,-9.64356E-002,6.03562E-002,1.06187E+000,1.83050E-002,0.00000E+000,-1.70103E-002,9.75219E-001,0.00000E+000,-9.84661E-004,-4.78797E-002,1.00000E+000,11
589,1357,-2.11297E+001,1.37880E+000,1.69931E-002,1.06993E+000,-3.89033E-001,-3.02709E-004,1.13846E+000,4.42904E-003,6.53323E-001,0,1.68505E+001,-6.25185E+000,9.99686E-001,-2.30297E+001,-4.78515E+001,9.99636E-001,5.88091E-002,-2.60816E-002,7.56026E-005,5.88091E-002,-2.60817E-002,5.10269E-002,5.89342E-002,1.06042E+000,1.82701E-002,0.00000E+000,-1.65312E-002,9.75231E-001,0.00000E+000,-1.83094E-003,-4.79000E-002,1.00000E+000,11
589,1337,-2.11802E+001,1.27328E-001,3.86427E-002,1.04557E+000,-3.59974E-001,5.77447E-002,1.10731E+000,4.92549E-003,6.40939E-001,0,1.63177E+001,-5.92350E+000,9.99747E-001,-2.40569E+001,-4.71067E+001,9.99543E-001,6.15398E-002,-2.60839E-002,-3.70562E-004,6.15413E-002,-2.60855E-002,-2.42299E-001,6.17787E-002,1.06332E+000,1.83280E-002,0.00000E+000,-1.74875E-002,9.75212E-001,0.00000E+000,-1.41727E-004,-4.78662E-002,1.00000E+000,11
589,1327,-2.11946E+001,-4.80179E-001,1.00720E-001,1.03707E+000,-3.35660E-001,9.50076E-002,1.09417E+000,9.06735E-003,6.99156E-001,0,1.60832E+001,-5.62661E+000,9.99759E-001,-2.42482E+001,-4.65345E+001,9.99075E-001,6.28894E-002,-2.60801E-002,-5.98992E-004,6.28934E-002,-2.60842E-002,-3.85724E-001,6.31975E-002,1.06475E+000,1.83412E-002,0.00000E+000,-1.79616E-002,9.75207E-001,0.00000E+000,6.95737E-004,-4.78586E-002,1.00000E+000,11
1269,1327,2.64574E+001,1.97550E-001,-1.08882E-001,4.32617E+000,-4.68899E-002,-8.98699E-002,4.32736E+000,6.69392E-003,4.39454E-001,0,6.49940E+001,-1.16475E+000,9.99786E-001,3.11642E+001,-2.93257E+001,9.99028E-001,7.33447E-002,-2.84826E-002,1.78396E-003,7.33760E-002,-2.85139E-002,1.00338E+000,7.39805E-002,1.07608E+000,-6.69321E-003,0.00000E+000,9.56464E-003,9.73093E-001,0.00000E+000,-1.09809E-003,-5.00634E-002,1.00000E+000,11
1269,1337,2.64897E+001,8.36926E-001,-8.32729E-002,4.32383E+000,-6.74134E-002,-1.25831E-001,4.32619E+000,7.30541E-003,4.18976E-001,0,6.50946E+001,-1.43241E+000,9.99661E-001,3.17524E+001,-2.94615E+001,9.98577E-001,7.41968E-002,-2.84518E-002,2.06384E-003,7.42382E-002,-2.84932E-002,1.15136E+000,7.49034E-002,1.07700E+000,-6.64481E-003,0.00000E+000,9.97546E-003,9.73115E-001,0.00000E+000,6.68941E-004,-4.99703E-002,1.00000E+000,11
589,1317,-2.12118E+001,-1.09465E+000,1.84783E-001,1.02088E+000,-3.20142E-001,1.24944E-001,1.07717E+000,7.19765E-003,6.13550E-001,0,1.57486E+001,-5.41461E+000,9.99429E-001,-2.44187E+001,-4.61883E+001,9.98423E-001,6.42367E-002,-2.60730E-002,-8.32393E-004,6.42444E-002,-2.60806E-002,-5.28041E-001,6.46220E-002,1.06619E+000,1.83437E-002,0.00000E+000,-1.84359E-002,9.75206E-001,0.00000E+000,1.53352E-003,-4.78571E-002,1.00000E+000,11
1269,1317,2.64394E+001,-4.38026E-001,-9.85029E-002,4.33178E+000,-2.78513E-002,-5.89030E-002,4.33227E+000,7.19069E-003,4.40384E-001,0,6.49569E+001,-9.13834E-001,9.99729E-001,3.08491E+001,-2.92219E+001,9.98788E-001,7.24928E-002,-2.85048E-002,1.51221E-003,7.25154E-002,-2.85275E-002,8.57616E-001,7.30627E-002,1.07517E+000,-6.72624E-003,0.00000E+000,9.15582E-003,9.73078E-001,0.00000E+000,-2.85650E-003,-5.01269E-002,1.00000E+000,11
1269,1307,2.64272E+001,-1.06863E+000,-5.98865E-002,4.33557E+000,-8.55218E-003,-2.81486E-002,4.33567E+000,7.56598E-003,4.55657E-001,0,6.48892E+001,-6.58193E-001,9.99530E-001,3.06649E+001,-2.90970E+001,9.98460E-001,7.16411E-002,-2.85210E-002,1.24655E-003,7.16566E-002,-2.85365E-002,7.12915E-001,7.21496E-002,1.07426E+000,-6.74854E-003,0.00000E+000,8.74904E-003,9.73068E-001,0.00000E+000,-4.60611E-003,-5.01698E-002,1.00000E+000,11
1269,1297,2.64196E+001,-1.69695E+000,3.57523E-004,4.33875E+000,1.10917E-002,5.18748E-003,4.33877E+000,8.87142E-003,4.32083E-001,0,6.47988E+001,-3.96809E-001,9.99508E-001,3.05813E+001,-2.90035E+001,9.97832E-001,7.07867E-002,-2.85331E-002,9.84459E-004,7.07965E-002,-2.85429E-002,5.67841E-001,7.12377E-002,1.07335E+000,-6.76372E-003,0.00000E+000,8.34287E-003,9.73062E-001,0.00000E+000,-6.35314E-003,-5.01989E-002,1.00000E+000,11
1269,1287,2.64256E+001,-2.31811E+000,1.03949E-001,4.34397E+000,3.25615E-002,3.84489E-002,4.34426E+000,1.35977E-002,4.10643E-001,0,6.47316E+001,-1.20329E-001,9.99659E-001,3.07724E+001,-2.88886E+001,9.96045E-001,6.99326E-002,-2.85361E-002,7.31158E-004,6.99380E-002,-2.85415E-002,4.25407E-001,7.03307E-002,1.07245E+000,-6.76260E-003,0.00000E+000,7.93866E-003,9.73062E-001,0.00000E+000,-8.09172E-003,-5.01968E-002,1.00000E+000,11
579,1347,-2.18344E+001,7.57748E-001,1.40963E-002,1.01834E+000,-3.62661E-001,2.66482E-002,1.08131E+000,5.00108E-003,6.42769E-001,0,1.59796E+001,-5.88416E+000,9.99645E-001,-2.39287E+001,-4.74792E+001,9.99542E-001,5.96085E-002,-2.60287E-002,2.08994E-004,5.96090E-002,-2.60292E-002,1.39827E-001,5.97682E-002,1.06124E+000,1.99154E-002,0.00000E+000,-1.77937E-002,9.75229E-001,0.00000E+000,-1.28813E-003,-4.72177E-002,1.00000E+000,11
579,1357,-2.18023E+001,1.38717E+000,2.39777E-002,1.03450E+000,-3.76243E-001,3.09583E-004,1.10079E+000,4.81249E-003,6.57011E-001,0,1.63000E+001,-6.04113E+000,9.99798E-001,-2.32473E+001,-4.78386E+001,9.99752E-001,5.81604E-002,-2.60260E-002,4.39033E-004,5.81627E-002,-2.60283E-002,2.98787E-001,5.82695E-002,1.05970E+000,1.98783E-002,0.00000E+000,-1.72918E-002,9.75241E-001,0.00000E+000,-2.28065E-003,-4.72418E-002,1.00000E+000,11
579,1337,-2.18591E+001,1.35630E-001,4.58558E-002,1.00390E+000,-3.47158E-001,6.04219E-002,1.06395E+000,4.81319E-003,6.40692E-001,0,1.56651E+001,-5.71779E+000,9.99577E-001,-2.43716E+001,-4.70941E+001,9.99548E-001,6.10466E-002,-2.60273E-002,-2.60260E-005,6.10466E-002,-2.60273E-002,-1.71254E-002,6.12669E-002,1.06276E+000,1.99394E-002,0.00000E+000,-1.82933E-002,9.75221E-001,0.00000E+000,-3.00138E-004,-4.72022E-002,1.00000E+000,11
579,1327,-2.18786E+001,-4.74271E-001,9.61788E-002,9.90822E-001,-3.25449E-001,8.96383E-002,1.04675E+000,6.85519E-003,6.84955E-001,0,1.53812E+001,-5.42765E+000,9.99727E-001,-2.46765E+001,-4.65392E+001,9.98803E-001,6.24716E-002,-2.60232E-002,-2.63504E-004,6.24723E-002,-2.60239E-002,-1.70603E-001,6.27616E-002,1.06428E+000,1.99545E-002,0.00000E+000,-1.87895E-002,9.75216E-001,0.00000E+000,6.81129E-004,-4.71924E-002,1.00000E+000,11
579,1317,-2.18920E+001,-1.08321E+000,1.81552E-001,9.78713E-001,-3.05919E-001,1.22504E-001,1.03270E+000,9.16130E-003,6.95949E-001,0,1.51024E+001,-5.18485E+000,9.99452E-001,-2.47828E+001,-4.60602E+001,9.98095E-001,6.38913E-002,-2.60153E-002,-5.06131E-004,6.38941E-002,-2.60182E-002,-3.22534E-001,6.42599E-002,1.06579E+000,1.99576E-002,0.00000E+000,-1.92850E-002,9.75215E-001,0.00000E+000,1.66103E-003,-4.71904E-002,1.00000E+000,11
1279,1317,2.71545E+001,-4.29812E-001,-1.03967E-001,4.38031E+000,-2.39164E-002,-5.82372E-002,4.38076E+000,6.71365E-003,4.20997E-001,0,6.56278E+001,-8.69886E-001,9.99611E-001,3.20179E+001,-2.90041E+001,9.98198E-001,7.22057E-002,-2.80790E-002,1.79981E-003,7.22380E-002,-2.81113E-002,1.02784E+000,7.28274E-002,1.07487E+000,-5.89439E-003,0.00000E+000,8.94395E-003,9.73410E-001,0.00000E+000,-2.39611E-003,-4.83306E-002,1.00000E+000,11
1279,1327,2.71798E+001,2.10539E-001,-1.05003E-001,4.38038E+000,-4.06639E-002,-8.52983E-002,4.38140E+000,9.14220E-003,4.48197E-001,0,6.57322E+001,-1.08693E+000,9.99655E-001,3.24593E+001,-2.90378E+001,9.98873E-001,7.31220E-002,-2.80514E-002,2.12181E-003,7.31665E-002,-2.80959E-002,1.20090E+000,7.38199E-002,1.07585E+000,-5.85648E-003,0.00000E+000,9.44090E-003,9.73429E-001,0.00000E+000,-4.46857E-004,-4.82555E-002,1.00000E+000,11
1279,1337,2.72123E+001,8.51694E-001,-7.73646E-002,4.37804E+000,-6.09629E-002,-1.18743E-001,4.38007E+000,7.09868E-003,4.51341E-001,0,6.58230E+001,-1.34769E+000,9.99690E-001,3.30500E+001,-2.91374E+001,9.99147E-001,7.40369E-002,-2.80150E-002,2.45124E-003,7.40958E-002,-2.80739E-002,1.37516E+000,7.48169E-002,1.07684E+000,-5.80440E-003,0.00000E+000,9.93979E-003,9.73455E-001,0.00000E+000,1.51001E-003,-4.81524E-002,1.00000E+000,11
1279,1307,2.71385E+001,-1.05930E+000,-6.90300E-002,4.38158E+000,-3.48051E-003,-2.66493E-002,4.38167E+000,8.05806E-003,4.62328E-001,0,6.55188E+001,-5.97678E-001,9.99575E-001,3.17696E+001,-2.88429E+001,9.97586E-001,7.12926E-002,-2.80991E-002,1.48581E-003,7.13148E-002,-2.81213E-002,8.56262E-001,7.18437E-002,1.07389E+000,-5.92026E-003,0.00000E+000,8.45129E-003,9.73397E-001,0.00000E+000,-4.32851E-003,-4.83818E-002,1.00000E+000,11
1279,1297,2.71360E+001,-1.68579E+000,6.04843E-003,4.38660E+000,1.74895E-002,8.65574E-003,4.38665E+000,1.35503E-002,3.64220E-001,0,6.54444E+001,-2.99933E-001,9.99587E-001,3.17885E+001,-2.87911E+001,9.98073E-001,7.03754E-002,-2.81100E-002,1.17876E-003,7.03895E-002,-2.81241E-002,6.85634E-001,7.08614E-002,1.07292E+000,-5.93150E-003,0.00000E+000,7.95908E-003,9.73391E-001,0.00000E+000,-6.25916E-003,-4.84041E-002,1.00000E+000,11
1279,1287,2.71372E+001,-2.31562E+000,8.86745E-002,4.39085E+000,3.20525E-002,3.55260E-002,4.39112E+000,1.25915E-002,3.29855E-001,0,6.53937E+001,-1.01156E-001,9.99635E-001,3.18729E+001,-2.87748E+001,9.97280E-001,6.94567E-002,-2.81168E-002,8.75719E-004,6.94645E-002,-2.81247E-002,5.14173E-001,6.98823E-002,1.07194E+000,-5.93623E-003,0.00000E+000,7.46858E-003,9.73389E-001,0.00000E+000,-8.18311E-003,-4.84134E-002,1.00000E+000,11
569,1347,-2.25092E+001,7.68781E-001,2.16286E-002,9.80694E-001,-3.46971E-001,3.13512E-002,1.04074E+000,5.10970E-003,6.59843E-001,0,1.53830E+001,-5.64256E+000,9.99588E-001,-2.41753E+001,-4.74185E+001,9.99469E-001,5.92822E-002,-2.58998E-002,5.29007E-004,5.92855E-002,-2.59031E-002,3.55807E-001,5.94425E-002,1.06086E+000,2.16009E-002,0.00000E+000,-1.87234E-002,9.75301E-001,0.00000E+000,-1.33485E-003,-4.64179E-002,1.00000E+000,11
569,1357,-2.24788E+001,1.39358E+000,2.27851E-002,9.96734E-001,-3.62831E-001,3.95004E-003,1.06073E+000,5.12583E-003,6.59049E-001,0,1.57047E+001,-5.84097E+000,9.99698E-001,-2.35434E+001,-4.78393E+001,9.99487E-001,5.78063E-002,-2.58986E-002,7.96525E-004,5.78139E-002,-2.59062E-002,5.45153E-001,5.79177E-002,1.05930E+000,2.15665E-002,0.00000E+000,-1.81477E-002,9.75314E-001,0.00000E+000,-2.47595E-003,-4.64430E-002,1.00000E+000,11
569,1327,-2.25559E+001,-4.71350E-001,8.60986E-002,9.51486E-001,-3.17162E-001,8.29339E-002,1.00638E+000,9.37507E-003,6.79620E-001,0,1.47905E+001,-5.26864E+000,9.99837E-001,-2.50175E+001,-4.65726E+001,9.99320E-001,6.22082E-002,-2.58927E-002,-1.57669E-005,6.22082E-002,-2.58927E-002,-1.02539E-002,6.24986E-002,1.06396E+000,2.16427E-002,0.00000E+000,-1.98692E-002,9.75286E-001,0.00000E+000,9.36196E-004,-4.63874E-002,1.00000E+000,11
569,1337,-2.25341E+001,1.46435E-001,4.86550E-002,9.65357E-001,-3.32690E-001,5.66430E-002,1.02265E+000,4.56369E-003,6.30998E-001,0,1.50769E+001,-5.45854E+000,9.99664E-001,-2.46355E+001,-4.70380E+001,9.99576E-001,6.07500E-002,-2.58969E-002,2.56872E-004,6.07508E-002,-2.58977E-002,1.69856E-001,6.09704E-002,1.06241E+000,2.16236E-002,0.00000E+000,-1.92975E-002,9.75293E-001,0.00000E+000,-1.96987E-004,-4.64013E-002,1.00000E+000,11
1289,1327,2.78917E+001,2.18470E-001,-1.14938E-001,4.42641E+000,-3.72254E-002,-8.37183E-002,4.42736E+000,8.54154E-003,4.42662E-001,0,6.63623E+001,-1.04801E+000,9.99517E-001,3.35724E+001,-2.88067E+001,9.98321E-001,7.28486E-002,-2.74628E-002,2.43419E-003,7.29076E-002,-2.75218E-002,1.38927E+000,7.36336E-002,1.07556E+000,-4.90884E-003,0.00000E+000,9.17657E-003,9.73911E-001,0.00000E+000,7.49921E-005,-4.61810E-002,1.00000E+000,11
1289,1337,2.79252E+001,8.62312E-001,-8.51749E-002,4.42508E+000,-5.52814E-002,-1.14357E-001,4.42691E+000,8.37549E-003,4.55414E-001,0,6.64563E+001,-1.28105E+000,9.99653E-001,3.41803E+001,-2.88628E+001,9.98687E-001,7.38515E-002,-2.74230E-002,2.79663E-003,7.39287E-002,-2.75002E-002,1.58058E+000,7.47321E-002,1.07665E+000,-4.85170E-003,0.00000E+000,9.73289E-003,9.73940E-001,0.00000E+000,2.18967E-003,-4.60696E-002,1.00000E+000,11
569,1317,-2.25718E+001,-1.07537E+000,1.79135E-001,9.35395E-001,-2.93054E-001,1.14212E-001,9.86858E-001,1.01365E-002,6.92327E-001,0,1.44524E+001,-4.96979E+000,9.99571E-001,-2.51364E+001,-4.60324E+001,9.98376E-001,6.36591E-002,-2.58817E-002,-2.96720E-004,6.36601E-002,-2.58826E-002,-1.89864E-001,6.40294E-002,1.06551E+000,2.16423E-002,0.00000E+000,-2.04396E-002,9.75286E-001,0.00000E+000,2.06675E-003,-4.63876E-002,1.00000E+000,11
1289,1317,2.78696E+001,-4.17834E-001,-1.03538E-001,4.42731E+000,-2.00258E-002,-5.51976E-002,4.42770E+000,1.10666E-002,4.97770E-001,0,6.62644E+001,-8.28605E-001,9.99687E-001,3.31980E+001,-2.86930E+001,9.97240E-001,7.18493E-002,-2.74904E-002,2.08352E-003,7.18930E-002,-2.75340E-002,1.20100E+000,7.25462E-002,1.07449E+000,-4.94654E-003,0.00000E+000,8.62543E-003,9.73891E-001,0.00000E+000,-2.01999E-003,-4.62545E-002,1.00000E+000,11
1289,1287,2.78491E+001,-2.29985E+000,7.94837E-002,4.43583E+000,4.21925E-002,3.24074E-002,4.43615E+000,1.23299E-002,4.21404E-001,0,6.60213E+001,2.35811E-002,9.99657E-001,3.29904E+001,-2.83817E+001,9.97481E-001,6.88308E-002,-2.75319E-002,1.06511E-003,6.88426E-002,-2.75436E-002,6.33197E-001,6.92991E-002,1.07128E+000,-4.99440E-003,0.00000E+000,6.97931E-003,9.73867E-001,0.00000E+000,-8.27729E-003,-4.63478E-002,1.00000E+000,11
1289,1297,2.78533E+001,-1.67666E+000,1.07685E-002,4.43339E+000,2.12055E-002,6.43572E-003,4.43344E+000,1.31325E-002,3.35522E-001,0,6.60968E+001,-2.51748E-001,9.99705E-001,3.30084E+001,-2.85886E+001,9.98052E-001,6.98374E-002,-2.75213E-002,1.40067E-003,6.98575E-002,-2.75415E-002,8.24069E-001,7.03764E-002,1.07234E+000,-4.98345E-003,0.00000E+000,7.52520E-003,9.73872E-001,0.00000E+000,-6.20221E-003,-4.63264E-002,1.00000E+000,11
1289,1307,2.78559E+001,-1.04949E+000,-7.14193E-002,4.42965E+000,-6.44608E-004,-3.15063E-002,4.42976E+000,1.03839E-002,4.84903E-001,0,6.62029E+001,-5.53259E-001,9.99806E-001,3.29826E+001,-2.85876E+001,9.97799E-001,7.08461E-002,-2.75108E-002,1.73844E-003,7.08768E-002,-2.75415E-002,1.01227E+000,7.14609E-002,1.07342E+000,-4.97291E-003,0.00000E+000,8.07525E-003,9.73878E-001,0.00000E+000,-4.11134E-003,-4.63059E-002,1.00000E+000,11
559,1327,-2.32266E+001,-4.61112E-001,7.83965E-002,9.17576E-001,-3.03178E-001,7.29941E-002,9.69119E-001,1.71603E-002,8.21329E-001,0,1.42901E+001,-5.07616E+000,9.99853E-001,-2.52434E+001,-4.64248E+001,9.99202E-001,6.19593E-002,-2.59079E-002,2.76800E-004,6.19601E-002,-2.59088E-002,1.80491E-001,6.22362E-002,1.06366E+000,2.33585E-002,0.00000E+000,-2.08803E-002,9.75200E-001,0.00000E+000,1.10177E-003,-4.52747E-002,1.00000E+000,11
559,1337,-2.32087E+001,1.55828E-001,4.49957E-002,9.27838E-001,-3.18400E-001,5.22430E-002,9.82340E-001,4.41960E-003,6.60968E-001,0,1.45057E+001,-5.22728E+000,9.99881E-001,-2.49084E+001,-4.69698E+001,9.99662E-001,6.05308E-002,-2.59125E-002,5.14440E-004,6.05338E-002,-2.59155E-002,3.40962E-001,6.07420E-002,1.06214E+000,2.33407E-002,0.00000E+000,-2.03775E-002,9.75206E-001,0.00000E+000,-1.07029E-004,-4.52889E-002,1.00000E+000,11
559,1347,-2.31862E+001,7.77119E-001,2.05107E-002,9.40839E-001,-3.31978E-001,2.88785E-002,9.98109E-001,6.08418E-003,6.38812E-001,0,1.47697E+001,-5.40389E+000,9.99682E-001,-2.44758E+001,-4.73996E+001,9.99355E-001,5.90944E-002,-2.59157E-002,7.50842E-004,5.91010E-002,-2.59223E-002,5.06006E-001,5.92493E-002,1.06062E+000,2.33185E-002,0.00000E+000,-1.98734E-002,9.75213E-001,0.00000E+000,-1.31936E-003,-4.53065E-002,1.00000E+000,11
559,1357,-2.31555E+001,1.40112E+000,2.01542E-002,9.57909E-001,-3.47560E-001,3.70675E-003,1.01902E+000,5.02400E-003,6.43079E-001,0,1.51015E+001,-5.61056E+000,9.99692E-001,-2.38434E+001,-4.78286E+001,9.99572E-001,5.76479E-002,-2.59158E-002,9.83822E-004,5.76595E-002,-2.59274E-002,6.74437E-001,5.77568E-002,1.05909E+000,2.32867E-002,0.00000E+000,-1.93669E-002,9.75224E-001,0.00000E+000,-2.53702E-003,-4.53318E-002,1.00000E+000,11
559,1317,-2.32467E+001,-1.06485E+000,1.80854E-001,8.96761E-001,-2.79409E-001,1.10962E-001,9.45813E-001,1.72013E-002,7.14492E-001,0,1.38619E+001,-4.73556E+000,9.99731E-001,-2.53971E+001,-4.59587E+001,9.98918E-001,6.33819E-002,-2.58975E-002,3.05997E-005,6.33819E-002,-2.58975E-002,1.96376E-002,6.37340E-002,1.06518E+000,2.33570E-002,0.00000E+000,-2.13823E-002,9.75201E-001,0.00000E+000,2.30903E-003,-4.52758E-002,1.00000E+000,11
1299,1327,2.86107E+001,2.30169E-001,-1.19674E-001,4.47506E+000,-3.29554E-002,-9.19068E-002,4.47613E+000,1.10693E-002,4.47622E-001,0,6.70682E+001,-9.69387E-001,9.99495E-001,3.48092E+001,-2.85225E+001,9.98670E-001,7.25924E-002,-2.68113E-002,2.70261E-003,7.26659E-002,-2.68848E-002,1.55624E+000,7.34803E-002,1.07529E+000,-3.79319E-003,0.00000E+000,8.68343E-003,9.74451E-001,0.00000E+000,4.29952E-004,-4.38870E-002,1.00000E+000,11
1299,1337,2.86499E+001,8.74896E-001,-7.96823E-002,4.47792E+000,-5.17859E-002,-1.16866E-001,4.47974E+000,1.05659E-002,4.82506E-001,0,6.72007E+001,-1.22711E+000,9.99436E-001,3.55166E+001,-2.85745E+001,9.98374E-001,7.36788E-002,-2.67678E-002,3.09180E-003,7.37739E-002,-2.68629E-002,1.76137E+000,7.46763E-002,1.07647E+000,-3.72874E-003,0.00000E+000,9.28612E-003,9.74484E-001,0.00000E+000,2.66372E-003,-4.37645E-002,1.00000E+000,11
1299,1287,2.85695E+001,-2.28818E+000,8.38432E-002,4.48446E+000,4.50382E-002,2.70667E-002,4.48476E+000,9.91322E-003,4.96682E-001,0,6.67121E+001,6.36662E-002,9.99624E-001,3.42618E+001,-2.80882E+001,9.97721E-001,6.82487E-002,-2.68814E-002,1.24235E-003,6.82649E-002,-2.68976E-002,7.48083E-001,6.87742E-002,1.07066E+000,-3.88329E-003,0.00000E+000,6.30879E-003,9.74404E-001,0.00000E+000,-8.37122E-003,-4.40583E-002,1.00000E+000,11
1299,1297,2.85730E+001,-1.66727E+000,9.76681E-003,4.48279E+000,2.20199E-002,1.11165E-003,4.48284E+000,1.05134E-002,4.98132E-001,0,6.68012E+001,-2.82120E-001,9.99717E-001,3.42621E+001,-2.82743E+001,9.98181E-001,6.93378E-002,-2.68722E-002,1.59947E-003,6.93644E-002,-2.68988E-002,9.52178E-001,6.99442E-002,1.07181E+000,-3.87394E-003,0.00000E+000,6.89905E-003,9.74409E-001,0.00000E+000,-6.18353E-003,-4.40405E-002,1.00000E+000,11
1299,1307,2.85841E+001,-1.03396E+000,-3.75462E-002,4.48333E+000,5.77094E-003,-1.73424E-002,4.48336E+000,1.80760E-002,5.29077E-001,0,6.68859E+001,-5.11177E-001,9.99717E-001,3.44164E+001,-2.83100E+001,9.98497E-001,7.04284E-002,-2.68570E-002,1.96344E-003,7.04680E-002,-2.68966E-002,1.15573E+000,7.11226E-002,1.07297E+000,-3.85508E-003,0.00000E+000,7.49352E-003,9.74419E-001,0.00000E+000,-3.98024E-003,-4.40046E-002,1.00000E+000,11
1299,1317,2.85954E+001,-4.03406E-001,-8.58917E-002,4.47910E+000,-1.46095E-002,-5.47192E-002,4.47946E+000,1.46220E-002,5.02489E-001,0,6.69776E+001,-7.53482E-001,9.99574E-001,3.45711E+001,-2.84162E+001,9.98235E-001,7.15134E-002,-2.68364E-002,2.33148E-003,7.15686E-002,-2.68916E-002,1.35724E+000,7.23015E-002,1.07413E+000,-3.82759E-003,0.00000E+000,8.08837E-003,9.74433E-001,0.00000E+000,-1.77552E-003,-4.39524E-002,1.00000E+000,11
559,1307,-2.32624E+001,-1.67025E+000,2.88680E-001,8.78629E-001,-2.58441E-001,1.43251E-001,9.26986E-001,7.56235E-003,6.88303E-001,0,1.34902E+001,-4.47359E+000,9.99445E-001,-2.54675E+001,-4.54871E+001,9.98679E-001,6.48002E-002,-2.58857E-002,-2.17244E-004,6.48007E-002,-2.58862E-002,-1.37255E-001,6.52358E-002,1.06669E+000,2.33515E-002,0.00000E+000,-2.18842E-002,9.75202E-001,0.00000E+000,3.51566E-003,-4.52802E-002,1.00000E+000,11
549,1347,-2.38587E+001,7.89262E-001,2.29888E-002,9.05012E-001,-3.15467E-001,3.01540E-002,9.58893E-001,4.95282E-003,6.83081E-001,0,1.42089E+001,-5.14758E+000,9.99699E-001,-2.46929E+001,-4.72974E+001,9.99433E-001,5.89249E-002,-2.58942E-002,9.89781E-004,5.89364E-002,-2.59058E-002,6.68481E-001,5.90798E-002,1.06041E+000,2.49529E-002,0.00000E+000,-2.09219E-002,9.75163E-001,0.00000E+000,-1.13310E-003,-4.41550E-002,1.00000E+000,11
549,1357,-2.38280E+001,1.41568E+000,2.60559E-002,9.21349E-001,-3.29440E-001,3.12300E-003,9.78481E-001,5.17706E-003,6.47929E-001,0,1.45333E+001,-5.30092E+000,9.99685E-001,-2.40482E+001,-4.77185E+001,9.99563E-001,5.75152E-002,-2.58945E-002,1.21534E-003,5.75329E-002,-2.59122E-002,8.34604E-001,5.76272E-002,1.05892E+000,2.49204E-002,0.00000E+000,-2.04309E-002,9.75173E-001,0.00000E+000,-2.37749E-003,-4.41821E-002,1.00000E+000,11
549,1327,-2.39097E+001,-4.46278E-001,9.92199E-002,8.69188E-001,-2.83962E-001,8.15998E-002,9.18031E-001,1.36489E-002,7.69807E-001,0,1.35135E+001,-4.77473E+000,9.99557E-001,-2.55663E+001,-4.63659E+001,9.97905E-001,6.17166E-002,-2.58842E-002,5.27308E-004,6.17198E-002,-2.58874E-002,3.44872E-001,6.19863E-002,1.06337E+000,2.49873E-002,0.00000E+000,-2.18982E-002,9.75151E-001,0.00000E+000,1.34135E-003,-4.41263E-002,1.00000E+000,11
549,1337,-2.38836E+001,1.68770E-001,5.12207E-002,8.89275E-001,-2.99177E-001,5.52311E-002,9.39876E-001,4.46200E-003,6.72248E-001,0,1.38972E+001,-4.95299E+000,9.99801E-001,-2.51503E+001,-4.68782E+001,9.99636E-001,6.03282E-002,-2.58902E-002,7.59127E-004,6.03349E-002,-2.58969E-002,5.04419E-001,6.05361E-002,1.06189E+000,2.49735E-002,0.00000E+000,-2.14120E-002,9.75156E-001,0.00000E+000,1.09131E-004,-4.41378E-002,1.00000E+000,11
1309,1317,2.93075E+001,-3.98911E-001,-1.08312E-001,4.52470E+000,-1.39136E-002,-6.53278E-002,4.52520E+000,1.10377E-002,4.55249E-001,0,6.76506E+001,-7.16423E-001,9.99492E-001,3.56814E+001,-2.82340E+001,9.98530E-001,7.13528E-002,-2.62601E-002,2.59219E-003,7.14216E-002,-2.63289E-002,1.52011E+000,7.22385E-002,1.07397E+000,-2.53431E-003,0.00000E+000,7.42007E-003,9.74903E-001,0.00000E+000,-1.61714E-003,-4.15864E-002,1.00000E+000,11
1309,1327,2.93310E+001,2.39253E-001,-1.23396E-001,4.52600E+000,-2.96455E-002,-9.35553E-002,4.52706E+000,1.29168E-002,4.36633E-001,0,6.77808E+001,-9.25569E-001,9.99398E-001,3.60702E+001,-2.82893E+001,9.98253E-001,7.25055E-002,-2.62340E-002,2.94989E-003,7.25935E-002,-2.63221E-002,1.70971E+000,7.35015E-002,1.07520E+000,-2.49230E-003,0.00000E+000,7.98594E-003,9.74922E-001,0.00000E+000,6.52880E-004,-4.15094E-002,1.00000E+000,11
1309,1337,2.93680E+001,8.84858E-001,-8.69962E-002,4.52778E+000,-4.69307E-002,-1.17234E-001,4.52954E+000,1.16868E-002,4.67867E-001,0,6.78925E+001,-1.16384E+000,9.99604E-001,3.67362E+001,-2.83201E+001,9.99010E-001,7.36626E-002,-2.61945E-002,3.32190E-003,7.37730E-002,-2.63048E-002,1.90323E+000,7.47780E-002,1.07646E+000,-2.42571E-003,0.00000E+000,8.55741E-003,9.74952E-001,0.00000E+000,2.94532E-003,-4.13875E-002,1.00000E+000,11
549,1317,-2.39238E+001,-1.05338E+000,1.91089E-001,8.55607E-001,-2.64195E-001,1.16339E-001,9.02993E-001,1.09224E-002,7.36614E-001,0,1.32087E+001,-4.50485E+000,9.99684E-001,-2.56602E+001,-4.58891E+001,9.98746E-001,6.30995E-002,-2.58743E-002,2.89960E-004,6.31005E-002,-2.58753E-002,1.86721E-001,6.34398E-002,1.06484E+000,2.49885E-002,0.00000E+000,-2.23838E-002,9.75151E-001,0.00000E+000,2.57217E-003,-4.41253E-002,1.00000E+000,11
549,1307,-2.39390E+001,-1.65887E+000,2.84110E-001,8.38761E-001,-2.42687E-001,1.39457E-001,8.84231E-001,8.09455E-003,7.00241E-001,0,1.28810E+001,-4.20982E+000,9.99446E-001,-2.57691E+001,-4.53908E+001,9.98717E-001,6.44812E-002,-2.58630E-002,5.02491E-005,6.44813E-002,-2.58630E-002,3.18677E-002,6.49004E-002,1.06632E+000,2.49852E-002,0.00000E+000,-2.28702E-002,9.75152E-001,0.00000E+000,3.80509E-003,-4.41281E-002,1.00000E+000,11
1309,1287,2.92904E+001,-2.28285E+000,8.50454E-002,4.53225E+000,4.45549E-002,1.52477E-002,4.53249E+000,9.35766E-003,4.73439E-001,0,6.74175E+001,6.16027E-002,9.99642E-001,3.55406E+001,-2.79360E+001,9.97403E-001,6.78742E-002,-2.62942E-002,1.56044E-003,6.79001E-002,-2.63201E-002,9.49088E-001,6.84693E-002,1.07027E+000,-2.58125E-003,0.00000E+000,5.73201E-003,9.74881E-001,0.00000E+000,-8.38886E-003,-4.16723E-002,1.00000E+000,11
1309,1297,2.92918E+001,-1.66211E+000,-4.69320E-004,4.53016E+000,1.96719E-002,-1.54135E-002,4.53023E+000,1.16444E-002,4.78766E-001,0,6.75226E+001,-2.68184E-001,9.99614E-001,3.54925E+001,-2.80970E+001,9.97800E-001,6.90388E-002,-2.62879E-002,1.89982E-003,6.90766E-002,-2.63257E-002,1.14127E+000,6.97245E-002,1.07150E+000,-2.57456E-003,0.00000E+000,6.29391E-003,9.74885E-001,0.00000E+000,-6.13478E-003,-4.16601E-002,1.00000E+000,11
1309,1307,2.92923E+001,-1.03169E+000,-7.33733E-002,4.52587E+000,6.07156E-003,-3.87200E-002,4.52604E+000,1.12409E-002,3.94745E-001,0,6.75584E+001,-4.32653E-001,9.99599E-001,3.54489E+001,-2.81791E+001,9.99027E-001,7.01934E-002,-2.62800E-002,2.23934E-003,7.02453E-002,-2.63319E-002,1.32900E+000,7.09749E-002,1.07273E+000,-2.56526E-003,0.00000E+000,6.85417E-003,9.74889E-001,0.00000E+000,-3.88727E-003,-4.16430E-002,1.00000E+000,11
539,1347,-2.45337E+001,8.01831E-001,2.41215E-002,8.66265E-001,-2.97164E-001,2.89963E-002,9.16277E-001,4.65159E-003,6.70816E-001,0,1.36074E+001,-4.85227E+000,9.99692E-001,-2.49455E+001,-4.72144E+001,9.99583E-001,5.88038E-002,-2.58614E-002,1.13054E-003,5.88189E-002,-2.58765E-002,7.64893E-001,5.89602E-002,1.06024E+000,2.64202E-002,0.00000E+000,-2.20057E-002,9.75120E-001,0.00000E+000,-1.00299E-003,-4.29546E-002,1.00000E+000,11
539,1357,-2.45034E+001,1.42923E+000,2.33153E-002,8.83235E-001,-3.09472E-001,4.07648E-003,9.35892E-001,4.65674E-003,6.61095E-001,0,1.39359E+001,-4.99093E+000,9.99738E-001,-2.43183E+001,-4.76013E+001,9.99631E-001,5.74844E-002,-2.58629E-002,1.35015E-003,5.75063E-002,-2.58848E-002,9.27814E-001,5.76016E-002,1.05885E+000,2.63922E-002,0.00000E+000,-2.15310E-002,9.75130E-001,0.00000E+000,-2.26093E-003,-4.29799E-002,1.00000E+000,11
539,1327,-2.45826E+001,-4.34731E-001,9.66914E-002,8.32745E-001,-2.64905E-001,7.95316E-002,8.77477E-001,6.25514E-003,6.57948E-001,0,1.29511E+001,-4.44306E+000,9.99270E-001,-2.58003E+001,-4.63363E+001,9.98895E-001,6.14211E-002,-2.58508E-002,6.82502E-004,6.14265E-002,-2.58561E-002,4.48040E-001,6.16820E-002,1.06302E+000,2.64529E-002,0.00000E+000,-2.29512E-002,9.75109E-001,0.00000E+000,1.50255E-003,-4.29251E-002,1.00000E+000,11
539,1337,-2.45589E+001,1.82689E-001,5.17040E-002,8.49971E-001,-2.79801E-001,5.30568E-002,8.96412E-001,5.31592E-003,6.50723E-001,0,1.32896E+001,-4.63343E+000,9.99528E-001,-2.54112E+001,-4.67759E+001,9.99442E-001,6.01174E-002,-2.58569E-002,9.07107E-004,6.01269E-002,-2.58664E-002,6.04433E-001,6.03219E-002,1.06163E+000,2.64390E-002,0.00000E+000,-2.24796E-002,9.75114E-001,0.00000E+000,2.52786E-004,-4.29376E-002,1.00000E+000,11
1319,1297,2.99999E+001,-1.65631E+000,-1.96175E-002,4.57136E+000,2.33214E-002,-2.31520E-002,4.57148E+000,9.77548E-003,3.70092E-001,0,6.81150E+001,-1.80605E-001,9.99605E-001,3.65497E+001,-2.79367E+001,9.98304E-001,6.87574E-002,-2.56675E-002,2.25504E-003,6.88112E-002,-2.57213E-002,1.36729E+000,6.95380E-002,1.07120E+000,-1.06409E-003,0.00000E+000,5.61094E-003,9.75387E-001,0.00000E+000,-6.36324E-003,-3.88962E-002,1.00000E+000,11
1319,1307,3.00081E+001,-1.02825E+000,-8.02539E-002,4.57141E+000,4.56379E-003,-4.58320E-002,4.57164E+000,1.08172E-002,3.53016E-001,0,6.82135E+001,-4.44895E-001,9.99555E-001,3.66406E+001,-2.80459E+001,9.99042E-001,7.00113E-002,-2.56571E-002,2.59244E-003,7.00815E-002,-2.57273E-002,1.55110E+000,7.09018E-002,1.07253E+000,-1.04729E-003,0.00000E+000,6.16085E-003,9.75394E-001,0.00000E+000,-3.92438E-003,-3.88655E-002,1.00000E+000,11
539,1307,-2.46147E+001,-1.64873E+000,2.81118E-001,7.99061E-001,-2.26554E-001,1.34034E-001,8.41303E-001,5.39243E-003,6.63992E-001,0,1.22775E+001,-3.94440E+000,9.99630E-001,-2.60460E+001,-4.53409E+001,9.99109E-001,6.40072E-002,-2.58289E-002,2.21165E-004,6.40078E-002,-2.58294E-002,1.41054E-001,6.44036E-002,1.06578E+000,2.64499E-002,0.00000E+000,-2.38905E-002,9.75110E-001,0.00000E+000,3.99180E-003,-4.29278E-002,1.00000E+000,11
539,1317,-2.46002E+001,-1.04606E+000,1.80801E-001,8.15965E-001,-2.48678E-001,1.08470E-001,8.59887E-001,5.81191E-003,6.77151E-001,0,1.26120E+001,-4.25227E+000,9.99527E-001,-2.59721E+001,-4.58804E+001,9.98910E-001,6.27172E-002,-2.58409E-002,4.53047E-004,6.27196E-002,-2.58432E-002,2.93105E-001,6.30422E-002,1.06440E+000,2.64546E-002,0.00000E+000,-2.34213E-002,9.75109E-001,0.00000E+000,2.74843E-003,-4.29235E-002,1.00000E+000,11
1319,1287,3.00035E+001,-2.28215E+000,6.79251E-002,4.57603E+000,4.04485E-002,9.01906E-004,4.57621E+000,1.04974E-002,4.41282E-001,0,6.80774E+001,3.23050E-002,9.99619E-001,3.66771E+001,-2.78225E+001,9.98320E-001,6.75005E-002,-2.56706E-002,1.92558E-003,6.75403E-002,-2.57104E-002,1.18347E+000,6.81785E-002,1.06987E+000,-1.06641E-003,0.00000E+000,5.06309E-003,9.75386E-001,0.00000E+000,-8.79298E-003,-3.89005E-002,1.00000E+000,11
529,1327,-2.52560E+001,-4.22706E-001,9.74445E-002,7.94544E-001,-2.47561E-001,7.52534E-002,8.35613E-001,5.64371E-003,6.65493E-001,0,1.23660E+001,-4.17229E+000,9.99199E-001,-2.60277E+001,-4.62471E+001,9.98768E-001,6.11199E-002,-2.56958E-002,8.33880E-004,6.11279E-002,-2.57038E-002,5.50268E-001,6.13850E-002,1.06267E+000,2.75302E-002,0.00000E+000,-2.36671E-002,9.75195E-001,0.00000E+000,1.84696E-003,-4.17424E-002,1.00000E+000,11
529,1307,-2.52881E+001,-1.63785E+000,2.83668E-001,7.60327E-001,-2.11056E-001,1.28080E-001,7.99403E-001,6.96351E-003,6.29660E-001,0,1.16895E+001,-3.68062E+000,9.99702E-001,-2.62660E+001,-4.52901E+001,9.99252E-001,6.33986E-002,-2.56786E-002,4.82335E-004,6.34012E-002,-2.56812E-002,3.10233E-001,6.37811E-002,1.06510E+000,2.75264E-002,0.00000E+000,-2.43968E-002,9.75196E-001,0.00000E+000,4.40759E-003,-4.17464E-002,1.00000E+000,11
529,1317,-2.52748E+001,-1.03397E+000,1.74286E-001,7.77411E-001,-2.30936E-001,1.02649E-001,8.17457E-001,5.75809E-003,6.45386E-001,0,1.20258E+001,-3.94728E+000,9.99710E-001,-2.62399E+001,-4.57926E+001,9.99100E-001,6.22622E-002,-2.56886E-002,6.60176E-004,6.22671E-002,-2.56935E-002,4.30042E-001,6.25832E-002,1.06389E+000,2.75333E-002,0.00000E+000,-2.40323E-002,9.75194E-001,0.00000E+000,3.12875E-003,-4.17391E-002,1.00000E+000,11
