Coordinates.Image X [Pixel],Coordinates.Image Y [Pixel],coor.X [mm],coor.Y [mm],coor.Z [mm],disp.Horizontal Displacement U [mm],disp.Vertical Displacement V [mm],disp.Out-Of-Plane: W [mm],disp.Displacement Magnitude [mm],stats.Sigma [mm],stats.Epipolar Distance [Pixel],stats.Shape Index [-],SameCamera.Horizontal: u [Pixel],SameCamera.Vertical: v [Pixel],SameCamera.Correlation Value 2D [-],CrossCamera.Horizontal: q [Pixel],CrossCamera.Vertical: r [Pixel],CrossCamera.Correlation Value Persp [-],strain.Strain-global frame: Exx [ ],strain.Strain-global frame: Eyy [ ],strain.Strain-global frame: Exy [ ],strain.Maximum Principal Strain: EI [ ],strain.Minimum Principal Strain: EII [ ],strain.Shear Angle Gamma [deg],strain.Von Mises Equivalent Strain [ ],defgradient.F[0,0] [-],defgradient.F[0,1] [-],defgradient.F[0,2] [-],defgradient.F[1,0] [-],defgradient.F[1,1] [-],defgradient.F[1,2] [-],defgradient.F[2,0] [-],defgradient.F[2,1] [-],defgradient.F[2,2] [-],ext.Current Image [#]
929,1317,3.02634E+000,-1.03952E+000,5.43717E-002,3.36241E+000,-4.23157E-001,1.41092E-001,3.39187E+000,9.01875E-003,4.86802E-001,0,5.11653E+001,-7.30917E+000,9.99468E-001,7.17270E+000,-4.18293E+001,9.98417E-001,9.41568E-002,-3.89681E-002,2.42037E-004,9.41572E-002,-3.89686E-002,1.04170E-001,9.46218E-002,1.09870E+000,-1.58551E-002,0.00000E+000,1.53234E-002,9.64653E-001,0.00000E+000,-1.34967E-002,-7.87641E-002,1.00000E+000,14
919,1307,2.30714E+000,-1.66809E+000,1.14716E-001,3.30976E+000,-4.02459E-001,2.06233E-001,3.34051E+000,1.11199E-002,5.16717E-001,0,5.01791E+001,-7.11331E+000,9.99109E-001,6.08873E+000,-4.17487E+001,9.96546E-001,9.62653E-002,-3.87257E-002,-1.24798E-004,9.62654E-002,-3.87258E-002,-5.29694E-002,9.68763E-002,1.10103E+000,-1.42166E-002,0.00000E+000,1.30861E-002,9.64987E-001,0.00000E+000,-1.23525E-002,-7.96852E-002,1.00000E+000,14
919,1317,2.29745E+000,-1.06197E+000,1.21150E-002,3.29726E+000,-4.31333E-001,1.54543E-001,3.32894E+000,1.20379E-002,4.76252E-001,0,5.01691E+001,-7.46426E+000,9.98793E-001,5.81585E+000,-4.21866E+001,9.96421E-001,9.46558E-002,-3.87322E-002,-3.28739E-004,9.46566E-002,-3.87330E-002,-1.41206E-001,9.51755E-002,1.09924E+000,-1.42246E-002,0.00000E+000,1.26053E-002,9.64985E-001,0.00000E+000,-1.08626E-002,-7.96785E-002,1.00000E+000,14
919,1327,2.30489E+000,-4.45017E-001,-2.97175E-002,3.28757E+000,-4.61449E-001,9.75801E-002,3.32123E+000,1.00334E-002,5.16593E-001,0,5.02126E+001,-7.82255E+000,9.99322E-001,5.94271E+000,-4.25451E+001,9.97588E-001,9.30229E-002,-3.87472E-002,-5.52928E-004,9.30252E-002,-3.87495E-002,-2.40416E-001,9.34561E-002,1.09743E+000,-1.42722E-002,0.00000E+000,1.21188E-002,9.64972E-001,0.00000E+000,-9.35525E-003,-7.96388E-002,1.00000E+000,14
929,1307,3.03233E+000,-1.64697E+000,1.40799E-001,3.37559E+000,-3.92336E-001,1.96498E-001,3.40399E+000,8.96465E-003,5.18581E-001,0,5.11733E+001,-6.93444E+000,9.99498E-001,7.35227E+000,-4.13833E+001,9.98703E-001,9.58015E-002,-3.89646E-002,3.30457E-004,9.58023E-002,-3.89655E-002,1.40493E-001,9.63563E-002,1.10054E+000,-1.58346E-002,0.00000E+000,1.55916E-002,9.64656E-001,0.00000E+000,-1.53185E-002,-7.87845E-002,1.00000E+000,14
929,1327,3.02802E+000,-4.22711E-001,-1.27795E-003,3.35065E+000,-4.48695E-001,8.76221E-002,3.38170E+000,7.67789E-003,4.65263E-001,0,5.11669E+001,-7.61225E+000,9.99593E-001,7.18023E+000,-4.21911E+001,9.98952E-001,9.25012E-002,-3.89729E-002,1.45197E-004,9.25013E-002,-3.89731E-002,6.32760E-002,9.28823E-002,1.09686E+000,-1.58936E-002,0.00000E+000,1.50544E-002,9.64648E-001,0.00000E+000,-1.16693E-002,-7.87259E-002,1.00000E+000,14
939,1307,3.75088E+000,-1.62847E+000,1.31541E-001,3.43980E+000,-3.80742E-001,1.76848E-001,3.46532E+000,9.82199E-003,5.22511E-001,0,5.21779E+001,-6.72061E+000,9.99507E-001,8.43947E+000,-4.09832E+001,9.98814E-001,9.52220E-002,-3.86528E-002,6.95206E-004,9.52256E-002,-3.86564E-002,2.97524E-001,9.57856E-002,1.09991E+000,-1.76251E-002,0.00000E+000,1.80227E-002,9.64821E-001,0.00000E+000,-1.76077E-002,-7.74569E-002,1.00000E+000,14
939,1317,3.74543E+000,-1.02053E+000,5.31932E-002,3.42636E+000,-4.11019E-001,1.26098E-001,3.45323E+000,1.02799E-002,4.67210E-001,0,5.21507E+001,-7.09725E+000,9.99338E-001,8.28619E+000,-4.14489E+001,9.98046E-001,9.37227E-002,-3.86554E-002,6.29733E-004,9.37257E-002,-3.86583E-002,2.72552E-001,9.42033E-002,1.09823E+000,-1.76461E-002,0.00000E+000,1.77824E-002,9.64818E-001,0.00000E+000,-1.55302E-002,-7.74309E-002,1.00000E+000,14
939,1327,3.74818E+000,-3.99020E-001,2.27663E-003,3.41402E+000,-4.35120E-001,7.05634E-002,3.44236E+000,7.51439E-003,4.76210E-001,0,5.21505E+001,-7.35708E+000,9.99376E-001,8.32071E+000,-4.17311E+001,9.98604E-001,9.22050E-002,-3.86589E-002,5.55263E-004,9.22074E-002,-3.86613E-002,2.43104E-001,9.26070E-002,1.09653E+000,-1.76859E-002,0.00000E+000,1.75402E-002,9.64813E-001,0.00000E+000,-1.34363E-002,-7.73818E-002,1.00000E+000,14
919,1337,2.31923E+000,1.80471E-001,-4.61816E-002,3.27987E+000,-4.84553E-001,4.29136E-002,3.31575E+000,8.13892E-003,4.96811E-001,0,5.02736E+001,-8.07727E+000,9.99174E-001,6.23407E+000,-4.28577E+001,9.98521E-001,9.13854E-002,-3.87650E-002,-7.83457E-004,9.13901E-002,-3.87698E-002,-3.44883E-001,9.17393E-002,1.09562E+000,-1.43335E-002,0.00000E+000,1.16324E-002,9.64956E-001,0.00000E+000,-7.84812E-003,-7.95878E-002,1.00000E+000,14
929,1337,3.03786E+000,1.98596E-001,-3.16298E-002,3.34089E+000,-4.75338E-001,3.11632E-002,3.37468E+000,7.38001E-003,4.77002E-001,0,5.12062E+001,-7.92060E+000,9.99674E-001,7.36970E+000,-4.25216E+001,9.99222E-001,9.08304E-002,-3.89791E-002,3.97478E-005,9.08304E-002,-3.89791E-002,1.75440E-002,9.11339E-002,1.09501E+000,-1.59498E-002,0.00000E+000,1.47838E-002,9.64640E-001,0.00000E+000,-9.83175E-003,-7.86702E-002,1.00000E+000,14
939,1337,3.75642E+000,2.21816E-001,-2.71180E-002,3.40351E+000,-4.61215E-001,1.96427E-002,3.43467E+000,6.57915E-003,4.80348E-001,0,5.21611E+001,-7.67471E+000,9.99617E-001,8.48654E+000,-4.20735E+001,9.99208E-001,9.06805E-002,-3.86630E-002,4.76192E-004,9.06822E-002,-3.86647E-002,2.10937E-001,9.10093E-002,1.09483E+000,-1.77353E-002,0.00000E+000,1.72980E-002,9.64806E-001,0.00000E+000,-1.13420E-002,-7.73208E-002,1.00000E+000,14
949,1317,4.46857E+000,-9.95716E-001,5.26125E-002,3.49255E+000,-3.95768E-001,1.05881E-001,3.51650E+000,1.29697E-002,4.86909E-001,0,5.31856E+001,-6.81693E+000,9.98893E-001,9.46852E+000,-4.09597E+001,9.97558E-001,9.32815E-002,-3.83102E-002,9.45876E-004,9.32883E-002,-3.83170E-002,4.11811E-001,9.37826E-002,1.09774E+000,-1.92666E-002,0.00000E+000,1.99044E-002,9.64986E-001,0.00000E+000,-1.69850E-002,-7.56750E-002,1.00000E+000,14
949,1327,4.46785E+000,-3.76498E-001,-1.55734E-003,3.47782E+000,-4.20255E-001,5.24043E-002,3.50351E+000,1.16465E-002,4.63263E-001,0,5.31439E+001,-7.09216E+000,9.99085E-001,9.44185E+000,-4.12853E+001,9.98247E-001,9.19877E-002,-3.83113E-002,9.06075E-004,9.19940E-002,-3.83176E-002,3.98398E-001,9.24204E-002,1.09628E+000,-1.92985E-002,0.00000E+000,1.97043E-002,9.64981E-001,0.00000E+000,-1.46226E-002,-7.56233E-002,1.00000E+000,14
949,1337,4.47535E+000,2.44028E-001,-2.89391E-002,3.46706E+000,-4.46713E-001,6.46064E-003,3.49573E+000,8.91549E-003,4.72174E-001,0,5.31352E+001,-7.42511E+000,9.99356E-001,9.59938E+000,-4.16329E+001,9.98523E-001,9.06829E-002,-3.83126E-002,8.61597E-004,9.06887E-002,-3.83184E-002,3.82672E-001,9.10508E-002,1.09482E+000,-1.93401E-002,0.00000E+000,1.95036E-002,9.64975E-001,0.00000E+000,-1.22530E-002,-7.55560E-002,1.00000E+000,14
949,1307,4.47588E+000,-1.60744E+000,1.34050E-001,3.50755E+000,-3.68480E-001,1.57943E-001,3.53039E+000,1.01762E-002,5.26834E-001,0,5.32316E+001,-6.49434E+000,9.99272E-001,9.65637E+000,-4.05682E+001,9.98409E-001,9.45630E-002,-3.83093E-002,9.78970E-004,9.45702E-002,-3.83166E-002,4.22110E-001,9.51355E-002,1.09919E+000,-1.92492E-002,0.00000E+000,2.01037E-002,9.64988E-001,0.00000E+000,-1.93377E-002,-7.57034E-002,1.00000E+000,14
909,1317,1.58414E+000,-1.07776E+000,8.96394E-003,3.23566E+000,-4.39318E-001,1.53700E-001,3.26896E+000,1.15060E-002,4.54178E-001,0,4.92679E+001,-7.59771E+000,9.98424E-001,4.78997E+000,-4.25288E+001,9.96129E-001,9.52004E-002,-3.89922E-002,-9.26979E-004,9.52068E-002,-3.89986E-002,-3.95764E-001,9.57239E-002,1.09984E+000,-1.24551E-002,0.00000E+000,9.67561E-003,9.64781E-001,0.00000E+000,-7.92892E-003,-7.98920E-002,1.00000E+000,14
909,1327,1.59487E+000,-4.56911E-001,-3.16364E-002,3.22976E+000,-4.66081E-001,9.97381E-002,3.26474E+000,8.86345E-003,4.90612E-001,0,4.93572E+001,-7.89297E+000,9.98806E-001,4.97189E+000,-4.28328E+001,9.97998E-001,9.36283E-002,-3.90055E-002,-1.14077E-003,9.36381E-002,-3.90153E-002,-4.92748E-001,9.40707E-002,1.09810E+000,-1.24992E-002,0.00000E+000,9.24110E-003,9.64770E-001,0.00000E+000,-6.91768E-003,-7.98663E-002,1.00000E+000,14
909,1337,1.60859E+000,1.72051E-001,-4.66779E-002,3.22133E+000,-4.88620E-001,4.55175E-002,3.25849E+000,9.81252E-003,5.44196E-001,0,4.94041E+001,-8.12986E+000,9.99112E-001,5.25815E+000,-4.30600E+001,9.98518E-001,9.20475E-002,-3.90219E-002,-1.36194E-003,9.20616E-002,-3.90360E-002,-5.95276E-001,9.24152E-002,1.09636E+000,-1.25578E-002,0.00000E+000,8.80515E-003,9.64755E-001,0.00000E+000,-5.90310E-003,-7.98321E-002,1.00000E+000,14
909,1307,1.59054E+000,-1.68309E+000,1.15605E-001,3.24384E+000,-4.09847E-001,2.04736E-001,3.27603E+000,1.20061E-002,4.36204E-001,0,4.92146E+001,-7.21725E+000,9.98575E-001,5.02232E+000,-4.21151E+001,9.94699E-001,9.67496E-002,-3.89872E-002,-7.33324E-004,9.67536E-002,-3.89912E-002,-3.09531E-001,9.73586E-002,1.10155E+000,-1.24501E-002,0.00000E+000,1.01047E-002,9.64782E-001,0.00000E+000,-8.92742E-003,-7.98949E-002,1.00000E+000,14
919,1347,2.34012E+000,8.13738E-001,-5.00653E-002,3.27547E+000,-5.03833E-001,-1.40817E-002,3.31402E+000,1.27273E-002,5.08233E-001,0,5.03898E+001,-8.25893E+000,9.99575E-001,6.65543E+000,-4.30640E+001,9.99016E-001,8.97354E-002,-3.87848E-002,-1.01924E-003,8.97435E-002,-3.87929E-002,-4.54352E-001,9.00176E-002,1.09381E+000,-1.44038E-002,0.00000E+000,1.11438E-002,9.64937E-001,0.00000E+000,-6.33420E-003,-7.95292E-002,1.00000E+000,14
929,1347,3.05488E+000,8.27504E-001,-3.44123E-002,3.33312E+000,-4.97983E-001,-2.15484E-002,3.37018E+000,7.08318E-003,4.68951E-001,0,5.12591E+001,-8.16618E+000,9.99652E-001,7.73142E+000,-4.28065E+001,9.99229E-001,8.91487E-002,-3.89863E-002,-7.28956E-005,8.91487E-002,-3.89863E-002,-3.25954E-002,8.93819E-002,1.09315E+000,-1.60207E-002,0.00000E+000,1.45125E-002,9.64629E-001,0.00000E+000,-7.98884E-003,-7.85998E-002,1.00000E+000,14
939,1347,3.77326E+000,8.51702E-001,-2.44422E-002,3.39588E+000,-4.82984E-001,-2.53009E-002,3.43015E+000,1.08919E-002,4.89244E-001,0,5.21905E+001,-7.92979E+000,9.99529E-001,8.85583E+000,-4.23455E+001,9.98556E-001,8.91426E-002,-3.86678E-002,3.89770E-004,8.91438E-002,-3.86690E-002,1.74727E-001,8.94040E-002,1.09313E+000,-1.77998E-002,0.00000E+000,1.70547E-002,9.64796E-001,0.00000E+000,-9.23843E-003,-7.72412E-002,1.00000E+000,14
949,1347,4.49624E+000,8.73643E-001,-1.50900E-002,3.46143E+000,-4.71128E-001,-3.56321E-002,3.49353E+000,8.83036E-003,4.97638E-001,0,5.31862E+001,-7.72214E+000,9.99159E-001,1.00532E+001,-4.19233E+001,9.98257E-001,8.93620E-002,-3.83143E-002,8.08156E-004,8.93671E-002,-3.83194E-002,3.62647E-001,8.96688E-002,1.09334E+000,-1.94005E-002,0.00000E+000,1.93016E-002,9.64967E-001,0.00000E+000,-9.86738E-003,-7.54581E-002,1.00000E+000,14
959,1317,5.18538E+000,-9.76065E-001,3.99918E-002,3.55386E+000,-3.83186E-001,8.22626E-002,3.57541E+000,1.13289E-002,4.88754E-001,0,5.41590E+001,-6.58107E+000,9.99090E-001,1.05310E+001,-4.05342E+001,9.98397E-001,9.28962E-002,-3.79291E-002,1.04237E-003,9.29045E-002,-3.79374E-002,4.56475E-001,9.34233E-002,1.09729E+000,-2.09253E-002,0.00000E+000,2.15802E-002,9.65182E-001,0.00000E+000,-1.77271E-002,-7.37454E-002,1.00000E+000,14
959,1327,5.18513E+000,-3.56286E-001,-1.49921E-002,3.54127E+000,-4.06355E-001,3.60455E-002,3.56469E+000,1.57448E-002,4.83243E-001,0,5.41265E+001,-6.85855E+000,9.99610E-001,1.05094E+001,-4.08383E+001,9.98873E-001,9.17651E-002,-3.79265E-002,1.05302E-003,9.17736E-002,-3.79350E-002,4.65170E-001,9.22318E-002,1.09601E+000,-2.09501E-002,0.00000E+000,2.14655E-002,9.65180E-001,0.00000E+000,-1.52394E-002,-7.36973E-002,1.00000E+000,14
959,1337,5.19584E+000,2.65199E-001,-2.72820E-002,3.53136E+000,-4.34384E-001,-4.72813E-003,3.55797E+000,1.27963E-002,4.89263E-001,0,5.41132E+001,-7.21270E+000,9.99210E-001,1.07476E+001,-4.12033E+001,9.98399E-001,9.06198E-002,-3.79230E-002,1.05612E-003,9.06285E-002,-3.79317E-002,4.70703E-001,9.10285E-002,1.09472E+000,-2.09915E-002,0.00000E+000,2.13502E-002,9.65176E-001,0.00000E+000,-1.27364E-002,-7.36169E-002,1.00000E+000,14
959,1307,5.19127E+000,-1.58712E+000,1.20443E-001,3.56833E+000,-3.53602E-001,1.36874E-001,3.58841E+000,8.63066E-003,5.12313E-001,0,5.41864E+001,-6.23410E+000,9.99191E-001,1.06948E+001,-4.01405E+001,9.98686E-001,9.40180E-002,-3.79313E-002,1.02817E-003,9.40260E-002,-3.79393E-002,4.46420E-001,9.46079E-002,1.09857E+000,-2.09081E-002,0.00000E+000,2.16946E-002,9.65183E-001,0.00000E+000,-2.02106E-002,-7.37787E-002,1.00000E+000,14
959,1347,5.21344E+000,8.91155E-001,-2.43853E-002,3.52433E+000,-4.60219E-001,-4.84049E-002,3.55458E+000,8.95283E-003,4.93701E-001,0,5.41509E+001,-7.53470E+000,9.99108E-001,1.11250E+001,-4.15354E+001,9.98748E-001,8.94652E-002,-3.79192E-002,1.05526E-003,8.94740E-002,-3.79279E-002,4.74598E-001,8.98187E-002,1.09343E+000,-2.10410E-002,0.00000E+000,2.12347E-002,9.65171E-001,0.00000E+000,-1.02295E-002,-7.35209E-002,1.00000E+000,14
909,1347,1.63032E+000,8.03305E-001,-3.67490E-002,3.21586E+000,-5.09418E-001,-7.66130E-003,3.25597E+000,1.17060E-002,5.20398E-001,0,4.94895E+001,-8.35237E+000,9.99509E-001,5.72459E+000,-4.33470E+001,9.98304E-001,9.04657E-002,-3.90411E-002,-1.58900E-003,9.04852E-002,-3.90606E-002,-7.02855E-001,9.07664E-002,1.09462E+000,-1.26298E-002,0.00000E+000,8.36991E-003,9.64737E-001,0.00000E+000,-4.89018E-003,-7.97902E-002,1.00000E+000,14
899,1327,8.86894E-001,-4.59283E-001,4.38462E-004,3.16546E+000,-4.68399E-001,9.81389E-002,3.20143E+000,6.18071E-003,5.11398E-001,0,4.84085E+001,-7.91438E+000,9.99114E-001,4.11429E+000,-4.30236E+001,9.98933E-001,9.40654E-002,-3.92301E-002,-1.67267E-003,9.40864E-002,-3.92511E-002,-7.18830E-001,9.45156E-002,1.09859E+000,-1.08187E-002,0.00000E+000,6.56035E-003,9.64622E-001,0.00000E+000,-4.51426E-003,-8.04901E-002,1.00000E+000,14
899,1337,9.01597E-001,1.65123E-001,-3.30122E-002,3.16189E+000,-4.91099E-001,4.27028E-002,3.20008E+000,9.78152E-003,5.18806E-001,0,4.85348E+001,-8.15506E+000,9.99608E-001,4.37508E+000,-4.33062E+001,9.99347E-001,9.26286E-002,-3.92409E-002,-1.84725E-003,9.26545E-002,-3.92668E-002,-8.02397E-001,9.30124E-002,1.09701E+000,-1.08627E-002,0.00000E+000,6.24048E-003,9.64613E-001,0.00000E+000,-4.05801E-003,-8.04774E-002,1.00000E+000,14
899,1347,9.27516E-001,7.95502E-001,-2.13689E-002,3.16078E+000,-5.12947E-001,-8.90640E-003,3.20215E+000,8.45495E-003,5.00302E-001,0,4.86811E+001,-8.39480E+000,9.99591E-001,4.91160E+000,-4.36092E+001,9.99053E-001,9.11842E-002,-3.92556E-002,-2.03196E-003,9.12158E-002,-3.92872E-002,-8.92253E-001,9.15074E-002,1.09542E+000,-1.09274E-002,0.00000E+000,5.91940E-003,9.64600E-001,0.00000E+000,-3.60005E-003,-8.04587E-002,1.00000E+000,14
899,1317,8.81194E-001,-1.07516E+000,6.09683E-002,3.17242E+000,-4.40977E-001,1.54221E-001,3.20663E+000,8.23255E-003,5.07840E-001,0,4.83274E+001,-7.60551E+000,9.99070E-001,4.05493E+000,-4.26659E+001,9.98017E-001,9.54953E-002,-3.92219E-002,-1.50473E-003,9.55121E-002,-3.92387E-002,-6.39863E-001,9.60171E-002,1.10016E+000,-1.07882E-002,0.00000E+000,6.87919E-003,9.64628E-001,0.00000E+000,-4.96903E-003,-8.04989E-002,1.00000E+000,14
899,1307,8.80371E-001,-1.68316E+000,1.48267E-001,3.17860E+000,-4.10040E-001,2.10485E-001,3.21184E+000,8.97284E-003,4.46860E-001,0,4.82296E+001,-7.20475E+000,9.98973E-001,4.13296E+000,-4.22719E+001,9.96885E-001,9.69172E-002,-3.92162E-002,-1.34358E-003,9.69305E-002,-3.92295E-002,-5.65413E-001,9.75154E-002,1.10173E+000,-1.07712E-002,0.00000E+000,7.19672E-003,9.64632E-001,0.00000E+000,-5.42194E-003,-8.05039E-002,1.00000E+000,14
889,1327,1.75856E-001,-4.66385E-001,1.08533E-002,3.10244E+000,-4.71804E-001,9.69874E-002,3.13961E+000,5.28575E-003,5.16637E-001,0,4.74795E+001,-7.95368E+000,9.99393E-001,3.16518E+000,-4.32488E+001,9.99257E-001,9.45673E-002,-3.87230E-002,-2.24463E-003,9.46051E-002,-3.87608E-002,-9.64504E-001,9.51179E-002,1.09915E+000,-9.36689E-003,0.00000E+000,4.00791E-003,9.65204E-001,0.00000E+000,-2.15563E-003,-8.14966E-002,1.00000E+000,14
889,1337,1.86637E-001,1.58536E-001,-2.29012E-002,3.09623E+000,-4.92362E-001,4.64854E-002,3.13547E+000,8.60392E-003,5.19374E-001,0,4.75477E+001,-8.17916E+000,9.99628E-001,3.36571E+000,-4.35277E+001,9.99285E-001,9.31685E-002,-3.87243E-002,-2.28715E-003,9.32081E-002,-3.87640E-002,-9.93169E-001,9.36467E-002,1.09761E+000,-9.40652E-003,0.00000E+000,4.00761E-003,9.65204E-001,0.00000E+000,-2.60877E-003,-8.15083E-002,1.00000E+000,14
889,1347,2.13059E-001,7.86749E-001,-1.50081E-002,3.09640E+000,-5.15642E-001,-6.22130E-003,3.13905E+000,7.42557E-003,4.95299E-001,0,4.77171E+001,-8.43786E+000,9.99487E-001,3.90297E+000,-4.38604E+001,9.99068E-001,9.17605E-002,-3.87262E-002,-2.33956E-003,9.18024E-002,-3.87681E-002,-1.02685E+000,9.21712E-002,1.09607E+000,-9.46749E-003,0.00000E+000,4.00730E-003,9.65204E-001,0.00000E+000,-3.06421E-003,-8.15262E-002,1.00000E+000,14
969,1297,5.92818E+000,-2.17304E+000,2.14244E-001,3.65056E+000,-3.09730E-001,1.60520E-001,3.66719E+000,1.34167E-002,4.80484E-001,0,5.53031E+001,-5.58784E+000,9.99441E-001,1.22003E+001,-3.93217E+001,9.98184E-001,9.44003E-002,-3.77507E-002,9.62505E-004,9.44073E-002,-3.77577E-002,4.17277E-001,9.50353E-002,1.09903E+000,-2.23764E-002,0.00000E+000,2.30053E-002,9.65187E-001,0.00000E+000,-2.30177E-002,-7.16990E-002,1.00000E+000,14
969,1307,5.91089E+000,-1.56931E+000,1.16079E-001,3.63128E+000,-3.43438E-001,1.18100E-001,3.64939E+000,2.02147E-002,4.92579E-001,0,5.51665E+001,-6.03095E+000,9.99233E-001,1.18222E+001,-3.97735E+001,9.97561E-001,9.34520E-002,-3.77477E-002,1.01164E-003,9.34598E-002,-3.77555E-002,4.41754E-001,9.40326E-002,1.09793E+000,-2.23798E-002,0.00000E+000,2.29442E-002,9.65187E-001,0.00000E+000,-2.04587E-002,-7.16910E-002,1.00000E+000,14
969,1317,5.90642E+000,-9.57596E-001,4.50522E-002,3.61717E+000,-3.72587E-001,6.84556E-002,3.63696E+000,8.44229E-003,4.64540E-001,0,5.51279E+001,-6.38984E+000,9.99635E-001,1.17003E+001,-4.01776E+001,9.99017E-001,9.24950E-002,-3.77433E-002,1.05492E-003,9.25036E-002,-3.77519E-002,4.64052E-001,9.30228E-002,1.09683E+000,-2.23964E-002,0.00000E+000,2.28830E-002,9.65186E-001,0.00000E+000,-1.78957E-002,-7.16523E-002,1.00000E+000,14
889,1317,1.68016E-001,-1.08111E+000,7.33494E-002,3.10670E+000,-4.43865E-001,1.52885E-001,3.14197E+000,7.64668E-003,5.36614E-001,0,4.73583E+001,-7.64639E+000,9.99378E-001,3.07712E+000,-4.28642E+001,9.98883E-001,9.59611E-002,-3.87220E-002,-2.20734E-003,9.59973E-002,-3.87582E-002,-9.38691E-001,9.65885E-002,1.10068E+000,-9.33857E-003,0.00000E+000,4.00822E-003,9.65204E-001,0.00000E+000,-1.70343E-003,-8.14882E-002,1.00000E+000,14
969,1327,5.90617E+000,-3.35697E-001,-5.45810E-003,3.60388E+000,-3.94148E-001,2.40422E-002,3.62545E+000,9.39504E-003,4.71807E-001,0,5.50788E+001,-6.65478E+000,9.99556E-001,1.16879E+001,-4.04507E+001,9.99174E-001,9.15283E-002,-3.77382E-002,1.09547E-003,9.15376E-002,-3.77475E-002,4.85506E-001,9.20050E-002,1.09572E+000,-2.24189E-002,0.00000E+000,2.28216E-002,9.65185E-001,0.00000E+000,-1.53266E-002,-7.15999E-002,1.00000E+000,14
889,1307,1.64687E-001,-1.69006E+000,1.60756E-001,3.10966E+000,-4.14679E-001,2.06258E-001,3.14396E+000,1.03662E-002,4.87995E-001,0,4.72224E+001,-7.26983E+000,9.99094E-001,3.11692E+000,-4.24774E+001,9.97423E-001,9.73468E-002,-3.87213E-002,-2.17625E-003,9.73816E-002,-3.87561E-002,-9.16065E-001,9.80550E-002,1.10221E+000,-9.32364E-003,0.00000E+000,4.00852E-003,9.65204E-001,0.00000E+000,-1.25321E-003,-8.14838E-002,1.00000E+000,14
969,1337,5.91483E+000,2.82633E-001,-2.90168E-002,3.59396E+000,-4.22379E-001,-1.83089E-002,3.61875E+000,1.00121E-002,4.26849E-001,0,5.50730E+001,-7.01093E+000,9.99401E-001,1.18694E+001,-4.08640E+001,9.98934E-001,9.05521E-002,-3.77321E-002,1.13157E-003,9.05621E-002,-3.77421E-002,5.05341E-001,9.09796E-002,1.09462E+000,-2.24511E-002,0.00000E+000,2.27602E-002,9.65183E-001,0.00000E+000,-1.27522E-002,-7.15251E-002,1.00000E+000,14
969,1347,5.92608E+000,9.17084E-001,-3.37248E-002,3.58185E+000,-4.40624E-001,-6.29419E-002,3.60940E+000,8.81759E-003,4.72531E-001,0,5.50354E+001,-7.20807E+000,9.99304E-001,1.21321E+001,-4.10266E+001,9.98689E-001,8.95614E-002,-3.77250E-002,1.16395E-003,8.95720E-002,-3.77357E-002,5.23873E-001,8.99412E-002,1.09351E+000,-2.24915E-002,0.00000E+000,2.26982E-002,9.65181E-001,0.00000E+000,-1.01591E-002,-7.14309E-002,1.00000E+000,14
879,1327,-5.32716E-001,-4.69867E-001,2.60348E-002,3.04136E+000,-4.71400E-001,9.99191E-002,3.07930E+000,7.50390E-003,5.15097E-001,0,4.65640E+001,-7.94436E+000,9.99468E-001,2.27040E+000,-4.34317E+001,9.99185E-001,9.50832E-002,-3.88977E-002,-2.58999E-003,9.51332E-002,-3.89478E-002,-1.10704E+000,9.56523E-002,1.09973E+000,-8.12997E-003,0.00000E+000,2.11163E-003,9.65017E-001,0.00000E+000,-2.77932E-004,-8.11663E-002,1.00000E+000,14
879,1337,-5.21974E-001,1.51172E-001,-1.54048E-002,3.03577E+000,-4.94951E-001,4.41786E-002,3.07617E+000,7.33041E-003,4.94374E-001,0,4.66592E+001,-8.19789E+000,9.99255E-001,2.45299E+000,-4.37674E+001,9.98948E-001,9.37834E-002,-3.88971E-002,-2.59934E-003,9.38343E-002,-3.89480E-002,-1.12191E+000,9.42844E-002,1.09830E+000,-8.16540E-003,0.00000E+000,2.21050E-003,9.65019E-001,0.00000E+000,-1.26067E-003,-8.11907E-002,1.00000E+000,14
879,1347,-4.99290E-001,7.81337E-001,-1.15360E-002,3.03371E+000,-5.16539E-001,-6.23194E-003,3.07738E+000,9.14527E-003,5.25635E-001,0,4.67859E+001,-8.44097E+000,9.99211E-001,2.92507E+000,-4.40360E+001,9.98801E-001,9.24716E-002,-3.88963E-002,-2.61692E-003,9.25237E-002,-3.89484E-002,-1.14076E+000,9.29083E-002,1.09686E+000,-8.21888E-003,0.00000E+000,2.31010E-003,9.65023E-001,0.00000E+000,-2.25054E-003,-8.12275E-002,1.00000E+000,14
879,1307,-5.49793E-001,-1.69165E+000,1.79152E-001,3.04098E+000,-4.14135E-001,2.05180E-001,3.07590E+000,1.13148E-002,4.98986E-001,0,4.62050E+001,-7.25019E+000,9.98794E-001,2.13898E+000,-4.26281E+001,9.97508E-001,9.76642E-002,-3.88984E-002,-2.58689E-003,9.77131E-002,-3.89474E-002,-1.08483E+000,9.83808E-002,1.10257E+000,-8.09338E-003,0.00000E+000,1.91470E-003,9.65014E-001,0.00000E+000,1.67933E-003,-8.11412E-002,1.00000E+000,14
879,1317,-5.42286E-001,-1.08452E+000,9.18827E-002,3.04360E+000,-4.43023E-001,1.58229E-001,3.07974E+000,7.82686E-003,4.59116E-001,0,4.64051E+001,-7.60805E+000,9.99438E-001,2.16374E+000,-4.30892E+001,9.98793E-001,9.63799E-002,-3.88982E-002,-2.58509E-003,9.64293E-002,-3.89475E-002,-1.09436E+000,9.70212E-002,1.10116E+000,-8.10425E-003,0.00000E+000,2.01278E-003,9.65015E-001,0.00000E+000,7.04491E-004,-8.11486E-002,1.00000E+000,14
979,1307,6.64761E+000,-1.54873E+000,1.24519E-001,3.70765E+000,-3.32559E-001,9.79785E-002,3.72382E+000,1.24216E-002,4.78514E-001,0,5.63529E+001,-5.81788E+000,9.99762E-001,1.32452E+001,-3.93860E+001,9.99412E-001,9.29298E-002,-3.75147E-002,9.62646E-004,9.29369E-002,-3.75218E-002,4.22797E-001,9.35093E-002,1.09731E+000,-2.35791E-002,0.00000E+000,2.38193E-002,9.65228E-001,0.00000E+000,-1.96745E-002,-6.93031E-002,1.00000E+000,14
979,1317,6.63324E+000,-9.33403E-001,4.96745E-002,3.68517E+000,-3.57697E-001,5.17097E-002,3.70285E+000,6.66087E-003,4.67435E-001,0,5.61757E+001,-6.12383E+000,9.99594E-001,1.29627E+001,-3.97173E+001,9.99202E-001,9.22182E-002,-3.75086E-002,1.03711E-003,9.22265E-002,-3.75169E-002,4.58016E-001,9.27592E-002,1.09649E+000,-2.35895E-002,0.00000E+000,2.38241E-002,9.65228E-001,0.00000E+000,-1.72488E-002,-6.92723E-002,1.00000E+000,14
979,1327,6.62816E+000,-3.14530E-001,-3.46985E-003,3.66785E+000,-3.81506E-001,8.65291E-003,3.68765E+000,7.72834E-003,4.62776E-001,0,5.60627E+001,-6.42712E+000,9.99082E-001,1.28692E+001,-4.00366E+001,9.98461E-001,9.14993E-002,-3.75013E-002,1.10912E-003,9.15088E-002,-3.75109E-002,4.92570E-001,9.20026E-002,1.09566E+000,-2.36054E-002,0.00000E+000,2.38290E-002,9.65228E-001,0.00000E+000,-1.48196E-002,-6.92257E-002,1.00000E+000,14
979,1337,6.63199E+000,3.08872E-001,-3.58149E-002,3.65527E+000,-4.03831E-001,-3.21350E-002,3.67765E+000,1.06246E-002,4.58730E-001,0,5.60111E+001,-6.70901E+000,9.98643E-001,1.29572E+001,-4.03310E+001,9.97891E-001,9.07720E-002,-3.74929E-002,1.17871E-003,9.07828E-002,-3.75038E-002,5.26467E-001,9.12386E-002,1.09483E+000,-2.36267E-002,0.00000E+000,2.38339E-002,9.65228E-001,0.00000E+000,-1.23838E-002,-6.91632E-002,1.00000E+000,14
979,1347,6.64248E+000,9.41322E-001,-3.42951E-002,3.64087E+000,-4.23820E-001,-7.66420E-002,3.66626E+000,1.08708E-002,4.66070E-001,0,5.59391E+001,-6.93556E+000,9.98290E-001,1.32193E+001,-4.05557E+001,9.97267E-001,9.00338E-002,-3.74822E-002,1.24358E-003,9.00460E-002,-3.74943E-002,5.58696E-001,9.04646E-002,1.09400E+000,-2.36590E-002,0.00000E+000,2.38388E-002,9.65228E-001,0.00000E+000,-9.93268E-003,-6.90683E-002,1.00000E+000,14
979,1297,6.65004E+000,-2.15246E+000,2.05228E-001,3.71659E+000,-2.96369E-001,1.42933E-001,3.73113E+000,1.13944E-002,4.90108E-001,0,5.63236E+001,-5.34358E+000,9.99536E-001,1.33566E+001,-3.88890E+001,9.98785E-001,9.36350E-002,-3.75204E-002,8.87097E-004,9.36410E-002,-3.75264E-002,3.87508E-001,9.42540E-002,1.09814E+000,-2.35706E-002,0.00000E+000,2.38144E-002,9.65228E-001,0.00000E+000,-2.21001E-002,-6.93279E-002,1.00000E+000,14
869,1317,-1.26087E+000,-1.08609E+000,9.07981E-002,2.97341E+000,-4.40583E-001,1.51671E-001,3.00970E+000,6.70712E-003,4.76398E-001,0,4.53806E+001,-7.54533E+000,9.99481E-001,1.08200E+000,-4.31980E+001,9.98542E-001,9.65890E-002,-3.90899E-002,-2.68702E-003,9.66422E-002,-3.91431E-002,-1.13411E+000,9.72216E-002,1.10140E+000,-6.75527E-003,0.00000E+000,5.08634E-004,9.64784E-001,0.00000E+000,2.41855E-003,-8.05150E-002,1.00000E+000,14
869,1327,-1.24968E+000,-4.71846E-001,2.75631E-002,2.97327E+000,-4.67923E-001,9.76137E-002,3.01144E+000,8.14221E-003,5.24665E-001,0,4.55565E+001,-7.88626E+000,9.99270E-001,1.21977E+000,-4.35577E+001,9.98780E-001,9.54781E-002,-3.90895E-002,-2.68828E-003,9.55318E-002,-3.91432E-002,-1.14400E+000,9.60493E-002,1.10017E+000,-6.77651E-003,0.00000E+000,6.36691E-004,9.64786E-001,0.00000E+000,1.05517E-003,-8.05386E-002,1.00000E+000,14
869,1337,-1.23462E+000,1.46201E-001,-8.72205E-003,2.97152E+000,-4.95225E-001,4.41822E-002,3.01283E+000,8.61634E-003,5.13869E-001,0,4.57029E+001,-8.19966E+000,9.98911E-001,1.48085E+000,-4.39470E+001,9.98571E-001,9.43605E-002,-3.90889E-002,-2.69413E-003,9.44148E-002,-3.91433E-002,-1.15608E+000,9.48729E-002,1.09894E+000,-6.80783E-003,0.00000E+000,7.65173E-004,9.64789E-001,0.00000E+000,-3.12731E-004,-8.05735E-002,1.00000E+000,14
869,1347,-1.21396E+000,7.76197E-001,-1.37156E-002,2.97017E+000,-5.13647E-001,-3.08334E-003,3.01426E+000,1.15159E-002,5.12676E-001,0,4.58296E+001,-8.40524E+000,9.99178E-001,1.90304E+000,-4.42171E+001,9.98733E-001,9.32371E-002,-3.90881E-002,-2.70441E-003,9.32924E-002,-3.91434E-002,-1.17034E+000,9.36938E-002,1.09771E+000,-6.84873E-003,0.00000E+000,8.93956E-004,9.64793E-001,0.00000E+000,-1.68385E-003,-8.06189E-002,1.00000E+000,14
869,1307,-1.26451E+000,-1.69224E+000,1.89737E-001,2.97410E+000,-4.10686E-001,2.07884E-001,3.00951E+000,9.36900E-003,5.17134E-001,0,4.52018E+001,-7.20217E+000,9.98934E-001,1.14448E+000,-4.27437E+001,9.98010E-001,9.76909E-002,-3.90901E-002,-2.69156E-003,9.77439E-002,-3.91431E-002,-1.12688E+000,9.83873E-002,1.10262E+000,-6.74692E-003,0.00000E+000,3.81269E-004,9.64783E-001,0.00000E+000,3.77457E-003,-8.05057E-002,1.00000E+000,14
989,1307,7.36230E+000,-1.51985E+000,1.13753E-001,3.76552E+000,-3.10644E-001,7.66039E-002,3.77909E+000,9.57842E-003,4.82633E-001,0,5.72595E+001,-5.44161E+000,9.99371E-001,1.42928E+001,-3.88230E+001,9.98812E-001,9.24736E-002,-3.74341E-002,8.46245E-004,9.24791E-002,-3.74397E-002,3.73215E-001,9.30357E-002,1.09677E+000,-2.43329E-002,0.00000E+000,2.41225E-002,9.65146E-001,0.00000E+000,-1.80678E-002,-6.70242E-002,1.00000E+000,14
989,1317,7.34589E+000,-9.02413E-001,3.65047E-002,3.74214E+000,-3.34827E-001,3.34517E-002,3.75724E+000,9.66952E-003,5.26517E-001,0,5.70591E+001,-5.74061E+000,9.99531E-001,1.39738E+001,-3.90876E+001,9.98908E-001,9.19798E-002,-3.74259E-002,9.59352E-004,9.19869E-002,-3.74330E-002,4.24732E-001,9.25165E-002,1.09618E+000,-2.43392E-002,0.00000E+000,2.42083E-002,9.65147E-001,0.00000E+000,-1.57744E-002,-6.69992E-002,1.00000E+000,14
989,1327,7.34824E+000,-2.85040E-001,-5.03784E-003,3.73018E+000,-3.62439E-001,-6.59032E-003,3.74775E+000,1.29560E-002,5.22093E-001,0,5.70184E+001,-6.09735E+000,9.99032E-001,1.40183E+001,-3.94522E+001,9.98064E-001,9.14798E-002,-3.74148E-002,1.06958E-003,9.14886E-002,-3.74237E-002,4.75401E-001,9.19917E-002,1.09560E+000,-2.43522E-002,0.00000E+000,2.42942E-002,9.65148E-001,0.00000E+000,-1.34771E-002,-6.69480E-002,1.00000E+000,14
989,1297,7.37512E+000,-2.13067E+000,2.01491E-001,3.78406E+000,-2.81291E-001,1.24678E-001,3.79655E+000,9.66259E-003,4.75352E-001,0,5.73660E+001,-5.08040E+000,9.99231E-001,1.45784E+001,-3.84605E+001,9.98205E-001,9.29611E-002,-3.74419E-002,7.32671E-004,9.29653E-002,-3.74460E-002,3.21904E-001,9.35490E-002,1.09734E+000,-2.43278E-002,0.00000E+000,2.40369E-002,9.65145E-001,0.00000E+000,-2.03575E-002,-6.70446E-002,1.00000E+000,14
989,1337,7.35182E+000,3.34653E-001,-2.94565E-002,3.71448E+000,-3.88364E-001,-5.17817E-002,3.73508E+000,9.51722E-003,4.52189E-001,0,5.69355E+001,-6.42510E+000,9.98407E-001,1.41175E+001,-3.98526E+001,9.98200E-001,9.09750E-002,-3.74019E-002,1.17741E-003,9.09858E-002,-3.74127E-002,5.25432E-001,9.14629E-002,1.09502E+000,-2.43697E-002,0.00000E+000,2.43800E-002,9.65151E-001,0.00000E+000,-1.11831E-002,-6.68789E-002,1.00000E+000,14
989,1347,7.36161E+000,9.65766E-001,-2.93756E-002,3.70149E+000,-4.07528E-001,-8.77379E-002,3.72489E+000,9.49445E-003,4.50696E-001,0,5.68567E+001,-6.66863E+000,9.99304E-001,1.43641E+001,-4.00980E+001,9.99194E-001,9.04619E-002,-3.73875E-002,1.28419E-003,9.04748E-002,-3.74004E-002,5.75433E-001,9.09262E-002,1.09444E+000,-2.43903E-002,0.00000E+000,2.44663E-002,9.65154E-001,0.00000E+000,-8.87631E-003,-6.67973E-002,1.00000E+000,14
859,1327,-1.96412E+000,-4.72396E-001,2.44660E-002,2.90707E+000,-4.63787E-001,8.97817E-002,2.94520E+000,7.70437E-003,5.30616E-001,0,4.45941E+001,-7.79441E+000,9.99021E-001,2.01794E-001,-4.36534E+001,9.98532E-001,9.57383E-002,-3.91722E-002,-2.64285E-003,9.57900E-002,-3.92240E-002,-1.12183E+000,9.63119E-002,1.10047E+000,-5.55530E-003,0.00000E+000,-3.82837E-004,9.64647E-001,0.00000E+000,1.61603E-003,-7.97762E-002,1.00000E+000,14
859,1337,-1.94687E+000,1.46627E-001,-9.27417E-003,2.90781E+000,-4.89057E-001,3.95522E-002,2.94891E+000,8.61125E-003,5.30813E-001,0,4.47665E+001,-8.10043E+000,9.98948E-001,5.03378E-001,-4.40291E+001,9.98590E-001,9.48482E-002,-3.91728E-002,-2.66446E-003,9.49011E-002,-3.92257E-002,-1.13849E+000,9.53752E-002,1.09949E+000,-5.57986E-003,0.00000E+000,-2.78223E-004,9.64650E-001,0.00000E+000,4.16434E-005,-7.98155E-002,1.00000E+000,14
859,1347,-1.92527E+000,7.71132E-001,-1.16607E-002,2.90695E+000,-5.13244E-001,-8.20108E-003,2.95192E+000,1.22188E-002,5.05265E-001,0,4.49030E+001,-8.38135E+000,9.99359E-001,9.46883E-001,-4.44033E+001,9.98987E-001,9.39513E-002,-3.91735E-002,-2.69018E-003,9.40056E-002,-3.92278E-002,-1.15720E+000,9.44333E-002,1.09850E+000,-5.61317E-003,0.00000E+000,-1.73183E-004,9.64654E-001,0.00000E+000,-1.53916E-003,-7.98690E-002,1.00000E+000,14
859,1307,-1.98042E+000,-1.69105E+000,1.89436E-001,2.90602E+000,-4.07055E-001,2.01776E-001,2.94132E+000,1.19119E-002,6.13069E-001,0,4.42073E+001,-7.14186E+000,9.99074E-001,1.10853E-001,-4.27702E+001,9.98388E-001,9.74978E-002,-3.91717E-002,-2.61170E-003,9.75477E-002,-3.92216E-002,-1.09437E+000,9.81693E-002,1.10242E+000,-5.53229E-003,0.00000E+000,-5.90777E-004,9.64645E-001,0.00000E+000,4.74543E-003,-7.97392E-002,1.00000E+000,14
859,1317,-1.97333E+000,-1.08907E+000,8.74060E-002,2.90877E+000,-4.40536E-001,1.42171E-001,2.94538E+000,9.06347E-003,5.11496E-001,0,4.44500E+001,-7.50931E+000,9.99043E-001,9.31348E-002,-4.33138E+001,9.97814E-001,9.66214E-002,-3.91719E-002,-2.62507E-003,9.66721E-002,-3.92226E-002,-1.10705E+000,9.72432E-002,1.10144E+000,-5.53897E-003,0.00000E+000,-4.87011E-004,9.64646E-001,0.00000E+000,3.18380E-003,-7.97499E-002,1.00000E+000,14
999,1337,8.06819E+000,3.56680E-001,-3.16329E-002,3.77586E+000,-3.70772E-001,-5.32116E-002,3.79439E+000,8.75830E-003,3.90956E-001,0,5.78303E+001,-6.15288E+000,9.99566E-001,1.52106E+001,-3.94415E+001,9.99022E-001,9.10194E-002,-3.73885E-002,1.02915E-003,9.10277E-002,-3.73968E-002,4.59170E-001,9.15089E-002,1.09505E+000,-2.48189E-002,0.00000E+000,2.43649E-002,9.65012E-001,0.00000E+000,-9.57136E-003,-6.45169E-002,1.00000E+000,14
999,1347,8.08251E+000,9.90359E-001,-2.21659E-002,3.76495E+000,-3.90517E-001,-8.95635E-002,3.78621E+000,7.26467E-003,3.97374E-001,0,5.77842E+001,-6.38622E+000,9.99720E-001,1.55448E+001,-3.96619E+001,9.99223E-001,9.07108E-002,-3.73738E-002,1.13746E-003,9.07209E-002,-3.73839E-002,5.08762E-001,9.11873E-002,1.09469E+000,-2.48326E-002,0.00000E+000,2.44661E-002,9.65016E-001,0.00000E+000,-7.53497E-003,-6.44379E-002,1.00000E+000,14
999,1307,8.08076E+000,-1.49534E+000,1.09163E-001,3.82675E+000,-2.93167E-001,6.16297E-002,3.83846E+000,6.43196E-003,4.73602E-001,0,5.81954E+001,-5.14074E+000,9.99454E-001,1.54152E+001,-3.83470E+001,9.99238E-001,9.19113E-002,-3.74190E-002,6.97524E-004,9.19151E-002,-3.74227E-002,3.09005E-001,9.24419E-002,1.09610E+000,-2.47980E-002,0.00000E+000,2.40645E-002,9.65006E-001,0.00000E+000,-1.56203E-002,-6.46371E-002,1.00000E+000,14
999,1317,8.06956E+000,-8.79302E-001,3.76995E-002,3.80819E+000,-3.18378E-001,2.27744E-002,3.82154E+000,1.09489E-002,4.97524E-001,0,5.80544E+001,-5.46849E+000,9.99003E-001,1.51885E+001,-3.86531E+001,9.96963E-001,9.16183E-002,-3.74108E-002,8.09446E-004,9.16234E-002,-3.74159E-002,3.59418E-001,9.21348E-002,1.09575E+000,-2.48020E-002,0.00000E+000,2.41646E-002,9.65007E-001,0.00000E+000,-1.36049E-002,-6.46140E-002,1.00000E+000,14
999,1327,8.06822E+000,-2.67106E-001,-1.34888E-002,3.79399E+000,-3.49858E-001,-2.00924E-002,3.81014E+000,1.30174E-002,5.05276E-001,0,5.79930E+001,-5.89350E+000,9.99209E-001,1.51549E+001,-3.90697E+001,9.97798E-001,9.13208E-002,-3.74006E-002,9.20065E-004,9.13273E-002,-3.74072E-002,4.09507E-001,9.18236E-002,1.09540E+000,-2.48090E-002,0.00000E+000,2.42648E-002,9.65009E-001,0.00000E+000,-1.15872E-002,-6.45737E-002,1.00000E+000,14
999,1297,8.09547E+000,-2.11038E+000,1.98686E-001,3.84679E+000,-2.68247E-001,1.09586E-001,3.85769E+000,7.48537E-003,4.74308E-001,0,5.83253E+001,-4.84920E+000,9.98980E-001,1.57325E+001,-3.80511E+001,9.97669E-001,9.22000E-002,-3.74263E-002,5.85125E-004,9.22026E-002,-3.74290E-002,2.58622E-001,9.27448E-002,1.09645E+000,-2.47951E-002,0.00000E+000,2.39645E-002,9.65005E-001,0.00000E+000,-1.76337E-002,-6.46538E-002,1.00000E+000,14
849,1337,-2.66077E+000,1.44953E-001,-3.51936E-003,2.84119E+000,-4.87437E-001,3.73551E-002,2.88294E+000,1.06586E-002,5.60876E-001,0,4.37773E+001,-8.05446E+000,9.99325E-001,-4.80747E-001,-4.41511E+001,9.98907E-001,9.51565E-002,-3.90716E-002,-2.44809E-003,9.52012E-002,-3.91162E-002,-1.04451E+000,9.57039E-002,1.09983E+000,-4.51487E-003,0.00000E+000,-7.89513E-004,9.64665E-001,0.00000E+000,3.15047E-005,-7.87418E-002,1.00000E+000,14
849,1347,-2.64267E+000,7.65534E-001,-1.43928E-002,2.83964E+000,-5.12337E-001,-6.21138E-003,2.88549E+000,9.51776E-003,5.06897E-001,0,4.38904E+001,-8.35893E+000,9.99396E-001,-1.10331E-001,-4.45836E+001,9.99202E-001,9.45266E-002,-3.90724E-002,-2.47010E-003,9.45722E-002,-3.91180E-002,-1.05886E+000,9.50414E-002,1.09914E+000,-4.53544E-003,0.00000E+000,-6.94071E-004,9.64667E-001,0.00000E+000,-1.52237E-003,-7.87880E-002,1.00000E+000,14
849,1357,-2.61302E+000,1.39939E+000,2.51389E-002,2.83919E+000,-5.33558E-001,-5.00439E-002,2.88932E+000,7.99462E-003,5.07273E-001,0,4.40148E+001,-8.60368E+000,9.99487E-001,5.59208E-001,-4.48975E+001,9.99282E-001,9.38874E-002,-3.90735E-002,-2.49727E-003,9.39343E-002,-3.91204E-002,-1.07562E+000,9.43703E-002,1.09844E+000,-4.56684E-003,0.00000E+000,-5.97665E-004,9.64672E-001,0.00000E+000,-3.09194E-003,-7.88585E-002,1.00000E+000,14
849,1327,-2.67366E+000,-4.71342E-001,2.86649E-002,2.84353E+000,-4.59854E-001,8.04419E-002,2.88160E+000,1.05493E-002,5.34956E-001,0,4.36749E+001,-7.69382E+000,9.99420E-001,-7.18950E-001,-4.37403E+001,9.98976E-001,9.57834E-002,-3.90710E-002,-2.42823E-003,9.58271E-002,-3.91147E-002,-1.03124E+000,9.63642E-002,1.10052E+000,-4.49888E-003,0.00000E+000,-8.84914E-004,9.64662E-001,0.00000E+000,1.58472E-003,-7.87059E-002,1.00000E+000,14
1009,1337,8.78966E+000,3.86775E-001,-4.19092E-002,3.84355E+000,-3.47468E-001,-5.50864E-002,3.85962E+000,1.16311E-002,4.36026E-001,0,5.88200E+001,-5.79238E+000,9.99570E-001,1.63711E+001,-3.88342E+001,9.99298E-001,9.09723E-002,-3.73591E-002,7.98932E-004,9.09772E-002,-3.73641E-002,3.56679E-001,9.14597E-002,1.09498E+000,-2.50265E-002,0.00000E+000,2.39929E-002,9.64928E-001,0.00000E+000,-7.97397E-003,-6.25858E-002,1.00000E+000,14
1009,1347,8.80032E+000,1.00651E+000,-2.58175E-002,3.82675E+000,-3.80771E-001,-9.39232E-002,3.84679E+000,7.76059E-003,3.91319E-001,0,5.86978E+001,-6.23366E+000,9.99810E-001,1.66581E+001,-3.93091E+001,9.99548E-001,9.08279E-002,-3.73476E-002,8.81755E-004,9.08340E-002,-3.73537E-002,3.94129E-001,9.13100E-002,1.09481E+000,-2.50336E-002,0.00000E+000,2.40632E-002,9.64931E-001,0.00000E+000,-6.33314E-003,-6.25165E-002,1.00000E+000,14
1009,1297,8.81200E+000,-2.09029E+000,1.89748E-001,3.90681E+000,-2.53410E-001,9.52105E-002,3.91617E+000,9.04011E-003,4.25700E-001,0,5.92401E+001,-4.58420E+000,9.98528E-001,1.68196E+001,-3.76562E+001,9.97687E-001,9.15186E-002,-3.73865E-002,4.61387E-004,9.15203E-002,-3.73882E-002,2.05074E-001,9.20294E-002,1.09564E+000,-2.50159E-002,0.00000E+000,2.37137E-002,9.64924E-001,0.00000E+000,-1.44865E-002,-6.26891E-002,1.00000E+000,14
1009,1307,8.79953E+000,-1.47424E+000,1.04666E-001,3.88898E+000,-2.76792E-001,5.17434E-002,3.89916E+000,8.76361E-003,4.41849E-001,0,5.91285E+001,-4.88212E+000,9.99190E-001,1.65462E+001,-3.79354E+001,9.99041E-001,9.13864E-002,-3.73810E-002,5.46194E-004,9.13887E-002,-3.73833E-002,2.43026E-001,9.18912E-002,1.09548E+000,-2.50173E-002,0.00000E+000,2.37833E-002,9.64924E-001,0.00000E+000,-1.28631E-002,-6.26755E-002,1.00000E+000,14
1009,1317,8.79293E+000,-8.57571E-001,3.97095E-002,3.87468E+000,-3.01463E-001,1.81692E-002,3.88643E+000,9.00174E-003,4.58024E-001,0,5.90340E+001,-5.21460E+000,9.99481E-001,1.64038E+001,-3.82473E+001,9.98945E-001,9.12513E-002,-3.73749E-002,6.30826E-004,9.12544E-002,-3.73780E-002,2.80989E-001,9.17502E-002,1.09531E+000,-2.50193E-002,0.00000E+000,2.38530E-002,9.64925E-001,0.00000E+000,-1.12366E-002,-6.26561E-002,1.00000E+000,14
849,1317,-2.68731E+000,-1.08242E+000,9.21951E-002,2.84206E+000,-4.29958E-001,1.40007E-001,2.87780E+000,1.18431E-002,5.89393E-001,0,4.34583E+001,-7.36293E+000,9.99201E-001,-8.94222E-001,-4.32777E+001,9.98109E-001,9.64056E-002,-3.90705E-002,-2.40989E-003,9.64485E-002,-3.91133E-002,-1.01877E+000,9.70206E-002,1.10121E+000,-4.48606E-003,0.00000E+000,-9.80019E-004,9.64661E-001,0.00000E+000,3.13310E-003,-7.86771E-002,1.00000E+000,14
1009,1327,8.79024E+000,-2.38208E-001,-5.32841E-003,3.85736E+000,-3.27726E-001,-2.57290E-002,3.87134E+000,9.61013E-003,4.53329E-001,0,5.89271E+001,-5.53981E+000,9.99556E-001,1.63623E+001,-3.85712E+001,9.99253E-001,9.11131E-002,-3.73668E-002,7.14892E-004,9.11171E-002,-3.73708E-002,3.18794E-001,9.16062E-002,1.09514E+000,-2.50231E-002,0.00000E+000,2.39230E-002,9.64927E-001,0.00000E+000,-9.60470E-003,-6.26191E-002,1.00000E+000,14
849,1307,-2.69751E+000,-1.68964E+000,1.89795E-001,2.83620E+000,-4.00969E-001,1.95332E-001,2.87106E+000,1.35620E-002,5.85665E-001,0,4.31846E+001,-7.01763E+000,9.99035E-001,-9.34291E-001,-4.28567E+001,9.98064E-001,9.70227E-002,-3.90703E-002,-2.39528E-003,9.70649E-002,-3.91124E-002,-1.00801E+000,9.76724E-002,1.10190E+000,-4.48135E-003,0.00000E+000,-1.07476E-003,9.64660E-001,0.00000E+000,4.67564E-003,-7.86665E-002,1.00000E+000,14
839,1337,-3.37424E+000,1.37834E-001,1.71638E-002,2.77434E+000,-4.89523E-001,4.85706E-002,2.81761E+000,2.18865E-002,5.38937E-001,0,4.27412E+001,-8.10043E+000,9.99310E-001,-1.41863E+000,-4.44157E+001,9.98705E-001,9.52712E-002,-3.90789E-002,-2.13361E-003,9.53051E-002,-3.91128E-002,-9.09605E-001,9.58139E-002,1.09996E+000,-3.66806E-003,0.00000E+000,-8.88742E-004,9.64551E-001,0.00000E+000,-4.03258E-004,-7.73437E-002,1.00000E+000,14
839,1347,-3.35749E+000,7.58982E-001,-1.07659E-002,2.77353E+000,-5.12606E-001,-2.54872E-003,2.82050E+000,7.89042E-003,4.99734E-001,0,4.28893E+001,-8.36174E+000,9.99461E-001,-1.10850E+000,-4.47970E+001,9.99180E-001,9.47859E-002,-3.90796E-002,-2.15290E-003,9.48206E-002,-3.91143E-002,-9.21145E-001,9.53032E-002,1.09942E+000,-3.68230E-003,0.00000E+000,-7.95821E-004,9.64554E-001,0.00000E+000,-1.96770E-003,-7.73856E-002,1.00000E+000,14
839,1357,-3.32672E+000,1.39552E+000,2.49728E-002,2.77533E+000,-5.30160E-001,-4.58566E-002,2.82588E+000,6.29035E-003,4.86530E-001,0,4.30452E+001,-8.54577E+000,9.99622E-001,-4.27591E-001,-4.50694E+001,9.99359E-001,9.42931E-002,-3.90808E-002,-2.17660E-003,9.43286E-002,-3.91163E-002,-9.34709E-001,9.47852E-002,1.09889E+000,-3.70572E-003,0.00000E+000,-7.01960E-004,9.64558E-001,0.00000E+000,-3.54798E-003,-7.74545E-002,1.00000E+000,14
1019,1337,9.51569E+000,4.13380E-001,-3.06721E-002,3.90924E+000,-3.31130E-001,-6.20467E-002,3.92373E+000,1.00987E-002,4.95018E-001,0,5.97948E+001,-5.54159E+000,9.99475E-001,1.76482E+001,-3.83207E+001,9.99254E-001,9.08901E-002,-3.73366E-002,5.67970E-004,9.08926E-002,-3.73391E-002,2.53780E-001,9.13734E-002,1.09487E+000,-2.51548E-002,0.00000E+000,2.35527E-002,9.64875E-001,0.00000E+000,-6.27297E-003,-6.11986E-002,1.00000E+000,14
1019,1347,9.51860E+000,1.03233E+000,-3.16810E-002,3.89029E+000,-3.62371E-001,-9.27992E-002,3.90823E+000,9.12883E-003,4.48126E-001,0,5.96145E+001,-5.95861E+000,9.99607E-001,1.77794E+001,-3.87706E+001,9.99440E-001,9.08671E-002,-3.73278E-002,6.44367E-004,9.08704E-002,-3.73310E-002,2.87986E-001,9.13509E-002,1.09484E+000,-2.51559E-002,0.00000E+000,2.36201E-002,9.64877E-001,0.00000E+000,-4.88719E-003,-6.11521E-002,1.00000E+000,14
839,1327,-3.39700E+000,-4.72913E-001,2.85954E-002,2.77117E+000,-4.54030E-001,9.29928E-002,2.80966E+000,1.84577E-002,5.56032E-001,0,4.25502E+001,-7.63131E+000,9.99604E-001,-1.85845E+000,-4.38523E+001,9.98843E-001,9.57549E-002,-3.90781E-002,-2.11362E-003,9.57880E-002,-3.91113E-002,-8.97865E-001,9.63234E-002,1.10049E+000,-3.65218E-003,0.00000E+000,-9.81868E-004,9.64549E-001,0.00000E+000,1.16464E-003,-7.72970E-002,1.00000E+000,14
1019,1327,9.51040E+000,-2.16479E-001,-1.29694E-002,3.92221E+000,-3.12254E-001,-3.02878E-002,3.93474E+000,9.67591E-003,4.60468E-001,0,5.98832E+001,-5.29204E+000,9.99451E-001,1.75118E+001,-3.81200E+001,9.99062E-001,9.09112E-002,-3.73446E-002,4.91443E-004,9.09131E-002,-3.73465E-002,2.19538E-001,9.13941E-002,1.09490E+000,-2.51540E-002,0.00000E+000,2.34854E-002,9.64873E-001,0.00000E+000,-7.65796E-003,-6.12375E-002,1.00000E+000,14
1019,1317,9.51393E+000,-8.38878E-001,3.71616E-002,3.93681E+000,-2.90035E-001,2.60124E-003,3.94748E+000,1.02183E-002,4.55264E-001,0,5.99865E+001,-5.01621E+000,9.99603E-001,1.75768E+001,-3.78607E+001,9.98831E-001,9.09303E-002,-3.73508E-002,4.14930E-004,9.09316E-002,-3.73521E-002,1.85323E-001,9.14130E-002,1.09494E+000,-2.51534E-002,0.00000E+000,2.34183E-002,9.64872E-001,0.00000E+000,-9.03879E-003,-6.12611E-002,1.00000E+000,14
839,1317,-3.40421E+000,-1.08353E+000,9.60132E-002,2.77192E+000,-4.25304E-001,1.36153E-001,2.80766E+000,9.61927E-003,5.35281E-001,0,4.24200E+001,-7.26840E+000,9.99255E-001,-1.92470E+000,-4.34258E+001,9.97801E-001,9.62334E-002,-3.90778E-002,-2.09797E-003,9.62659E-002,-3.91103E-002,-8.88073E-001,9.68280E-002,1.10102E+000,-3.64565E-003,0.00000E+000,-1.07449E-003,9.64547E-001,0.00000E+000,2.72412E-003,-7.72778E-002,1.00000E+000,14
1019,1297,9.52812E+000,-2.06826E+000,1.76833E-001,3.96734E+000,-2.36313E-001,8.29270E-002,3.97523E+000,1.00631E-002,4.39624E-001,0,6.01542E+001,-4.31223E+000,9.99420E-001,1.78968E+001,-3.71916E+001,9.98739E-001,9.09626E-002,-3.73619E-002,2.62124E-004,9.09631E-002,-3.73624E-002,1.17035E-001,9.14450E-002,1.09500E+000,-2.51526E-002,0.00000E+000,2.32846E-002,9.64870E-001,0.00000E+000,-1.17910E-002,-6.12960E-002,1.00000E+000,14
1019,1307,9.51600E+000,-1.45299E+000,9.31253E-002,3.94905E+000,-2.62757E-001,3.77437E-002,3.95796E+000,1.31123E-002,4.76734E-001,0,6.00437E+001,-4.63918E+000,9.99545E-001,1.76316E+001,-3.74735E+001,9.98757E-001,9.09474E-002,-3.73568E-002,3.38683E-004,9.09483E-002,-3.73577E-002,1.51241E-001,9.14299E-002,1.09497E+000,-2.51529E-002,0.00000E+000,2.33515E-002,9.64871E-001,0.00000E+000,-1.04132E-002,-6.12828E-002,1.00000E+000,14
839,1307,-3.40899E+000,-1.68938E+000,1.90616E-001,2.77096E+000,-3.95117E-001,1.86159E-001,2.80518E+000,8.37516E-003,5.01652E-001,0,4.22391E+001,-6.88447E+000,9.99006E-001,-1.88744E+000,-4.29897E+001,9.97698E-001,9.67076E-002,-3.90776E-002,-2.08387E-003,9.67396E-002,-3.91096E-002,-8.79032E-001,9.73287E-002,1.10155E+000,-3.64245E-003,0.00000E+000,-1.16682E-003,9.64547E-001,0.00000E+000,4.27853E-003,-7.72684E-002,1.00000E+000,14
829,1337,-4.09045E+000,1.35609E-001,5.87351E-003,2.70756E+000,-4.83877E-001,4.36045E-002,2.75081E+000,1.52140E-002,5.37807E-001,0,4.17555E+001,-8.00945E+000,9.98935E-001,-2.46969E+000,-4.45254E+001,9.98234E-001,9.50869E-002,-3.90218E-002,-1.79565E-003,9.51110E-002,-3.90458E-002,-7.66980E-001,9.56172E-002,1.09975E+000,-3.00834E-003,0.00000E+000,-7.67414E-004,9.64505E-001,0.00000E+000,-1.01009E-003,-7.59792E-002,1.00000E+000,14
829,1347,-4.06910E+000,7.58057E-001,-2.47273E-003,2.70893E+000,-5.08798E-001,-4.65445E-004,2.75629E+000,7.06862E-003,5.11863E-001,0,4.19132E+001,-8.29798E+000,9.99046E-001,-2.04049E+000,-4.49240E+001,9.98809E-001,9.47002E-002,-3.90257E-002,-1.86278E-003,9.47261E-002,-3.90516E-002,-7.97915E-001,9.52111E-002,1.09933E+000,-3.02123E-003,0.00000E+000,-7.64007E-004,9.64505E-001,0.00000E+000,-2.66358E-003,-7.60297E-002,1.00000E+000,14
829,1357,-4.04082E+000,1.39171E+000,2.57526E-002,2.70990E+000,-5.28123E-001,-4.42603E-002,2.76123E+000,6.92111E-003,5.12971E-001,0,4.20584E+001,-8.51323E+000,9.99431E-001,-1.41424E+000,-4.52194E+001,9.99359E-001,9.43085E-002,-3.90309E-002,-1.93250E-003,9.43365E-002,-3.90589E-002,-8.30159E-001,9.48001E-002,1.09891E+000,-3.03882E-003,0.00000E+000,-7.60582E-004,9.64505E-001,0.00000E+000,-4.32594E-003,-7.60986E-002,1.00000E+000,14
1029,1337,1.02251E+001,4.29692E-001,-3.98247E-002,3.96378E+000,-3.19304E-001,-6.40928E-002,3.97714E+000,9.02053E-003,4.75516E-001,0,6.05865E+001,-5.36341E+000,9.99271E-001,1.86312E+001,-3.79630E+001,9.98683E-001,9.09154E-002,-3.71690E-002,3.68876E-004,9.09164E-002,-3.71701E-002,1.65007E-001,9.14188E-002,1.09489E+000,-2.51516E-002,0.00000E+000,2.30642E-002,9.64980E-001,0.00000E+000,-4.55809E-003,-6.00759E-002,1.00000E+000,14
1029,1347,1.02303E+001,1.05959E+000,-3.91732E-002,3.94600E+000,-3.41406E-001,-9.70018E-002,3.96193E+000,8.66092E-003,4.80130E-001,0,6.04286E+001,-5.64481E+000,9.99387E-001,1.88000E+001,-3.82197E+001,9.98783E-001,9.10023E-002,-3.71592E-002,4.55190E-004,9.10039E-002,-3.71608E-002,2.03493E-001,9.15121E-002,1.09498E+000,-2.51484E-002,0.00000E+000,2.31525E-002,9.64983E-001,0.00000E+000,-3.28258E-003,-6.00312E-002,1.00000E+000,14
1029,1327,1.02276E+001,-1.96085E-001,-1.29656E-002,3.98202E+000,-2.97199E-001,-3.47540E-002,3.99324E+000,9.45288E-003,4.49382E-001,0,6.07600E+001,-5.07252E+000,9.99369E-001,1.86352E+001,-3.77157E+001,9.98798E-001,9.08271E-002,-3.71770E-002,2.83192E-004,9.08277E-002,-3.71776E-002,1.26759E-001,9.13243E-002,1.09480E+000,-2.51538E-002,0.00000E+000,2.29761E-002,9.64978E-001,0.00000E+000,-5.82972E-003,-6.01066E-002,1.00000E+000,14
829,1327,-4.10895E+000,-4.74962E-001,3.21370E-002,2.70465E+000,-4.50950E-001,8.39032E-002,2.74327E+000,1.37075E-002,5.47719E-001,0,4.15814E+001,-7.57108E+000,9.99387E-001,-2.80940E+000,-4.39927E+001,9.99047E-001,9.54693E-002,-3.90187E-002,-1.73013E-003,9.54915E-002,-3.90410E-002,-7.36923E-001,9.60191E-002,1.10017E+000,-2.99827E-003,0.00000E+000,-7.70807E-004,9.64505E-001,0.00000E+000,6.36777E-004,-7.59398E-002,1.00000E+000,14
829,1307,-4.11453E+000,-1.69556E+000,2.07763E-001,2.71136E+000,-3.96410E-001,1.93812E-001,2.74703E+000,1.02995E-002,4.64606E-001,0,4.13276E+001,-6.91141E+000,9.99126E-001,-2.70688E+000,-4.32324E+001,9.97646E-001,9.62217E-002,-3.90161E-002,-1.60527E-003,9.62408E-002,-3.90352E-002,-6.79974E-001,9.68109E-002,1.10101E+000,-2.99024E-003,0.00000E+000,-7.77561E-004,9.64505E-001,0.00000E+000,3.91435E-003,-7.59083E-002,1.00000E+000,14
829,1317,-4.11621E+000,-1.08633E+000,1.04058E-001,2.70662E+000,-4.22832E-001,1.38292E-001,2.74294E+000,1.13717E-002,5.07616E-001,0,4.14362E+001,-7.22361E+000,9.99160E-001,-2.86563E+000,-4.35953E+001,9.98662E-001,9.58475E-002,-3.90169E-002,-1.66670E-003,9.58681E-002,-3.90375E-002,-7.07939E-001,9.64169E-002,1.10059E+000,-2.99227E-003,0.00000E+000,-7.74189E-004,9.64505E-001,0.00000E+000,2.27817E-003,-7.59163E-002,1.00000E+000,14
1029,1317,1.02316E+001,-8.19673E-001,3.25304E-002,3.99737E+000,-2.77619E-001,-5.29855E-003,4.00700E+000,1.03907E-002,4.66349E-001,0,6.08875E+001,-4.81222E+000,9.99612E-001,1.86982E+001,-3.74553E+001,9.98744E-001,9.07377E-002,-3.71838E-002,1.98170E-004,9.07380E-002,-3.71841E-002,8.87595E-002,9.12289E-002,1.09471E+000,-2.51554E-002,0.00000E+000,2.28885E-002,9.64977E-001,0.00000E+000,-7.09460E-003,-6.01288E-002,1.00000E+000,14
1029,1307,1.02391E+001,-1.43354E+000,1.04208E-001,4.01362E+000,-2.50183E-001,3.92099E-002,4.02160E+000,9.65494E-003,4.99275E-001,0,6.09698E+001,-4.46795E+000,9.99624E-001,1.88672E+001,-3.70931E+001,9.97765E-001,9.06468E-002,-3.71899E-002,1.13400E-004,9.06469E-002,-3.71900E-002,5.08252E-002,9.11321E-002,1.09462E+000,-2.51567E-002,0.00000E+000,2.28010E-002,9.64975E-001,0.00000E+000,-8.35732E-003,-6.01461E-002,1.00000E+000,14
1029,1297,1.02495E+001,-2.04641E+000,1.80159E-001,4.03063E+000,-2.21315E-001,7.83817E-002,4.03747E+000,8.96080E-003,4.77033E-001,0,6.10809E+001,-4.09032E+000,9.99487E-001,1.90905E+001,-3.67519E+001,9.98066E-001,9.05541E-002,-3.71954E-002,2.85776E-005,9.05541E-002,-3.71954E-002,1.28171E-002,9.10337E-002,1.09453E+000,-2.51576E-002,0.00000E+000,2.27134E-002,9.64974E-001,0.00000E+000,-9.62219E-003,-6.01591E-002,1.00000E+000,14
819,1317,-4.82564E+000,-1.09487E+000,1.13959E-001,2.64275E+000,-4.26883E-001,1.38645E-001,2.68059E+000,1.15015E-002,4.89950E-001,0,4.04804E+001,-7.27769E+000,9.98949E-001,-3.75889E+000,-4.38521E+001,9.97877E-001,9.51774E-002,-3.88352E-002,-1.30294E-003,9.51901E-002,-3.88478E-002,-5.56989E-001,9.57245E-002,1.09985E+000,-2.61014E-003,0.00000E+000,-3.59316E-004,9.64567E-001,0.00000E+000,1.70585E-003,-7.43574E-002,1.00000E+000,14
819,1327,-4.82102E+000,-4.84991E-001,3.82601E-002,2.64042E+000,-4.54424E-001,9.14032E-002,2.68080E+000,1.16115E-002,5.01809E-001,0,4.05974E+001,-7.62202E+000,9.99287E-001,-3.75279E+000,-4.42807E+001,9.98155E-001,9.48747E-002,-3.88376E-002,-1.40682E-003,9.48895E-002,-3.88524E-002,-6.02735E-001,9.54067E-002,1.09952E+000,-2.61376E-003,0.00000E+000,-4.44328E-004,9.64566E-001,0.00000E+000,1.41941E-004,-7.43743E-002,1.00000E+000,14
819,1337,-4.80353E+000,1.33914E-001,4.98494E-003,2.64313E+000,-4.79281E-001,4.74986E-002,2.68665E+000,8.84706E-003,5.30252E-001,0,4.07767E+001,-7.93071E+000,9.99069E-001,-3.44331E+000,-4.46526E+001,9.98690E-001,9.45674E-002,-3.88425E-002,-1.51323E-003,9.45845E-002,-3.88597E-002,-6.49779E-001,9.50844E-002,1.09918E+000,-2.62144E-003,0.00000E+000,-5.29881E-004,9.64564E-001,0.00000E+000,-1.43192E-003,-7.44102E-002,1.00000E+000,14
819,1307,-4.82983E+000,-1.70024E+000,2.04409E-001,2.64244E+000,-3.98208E-001,1.85483E-001,2.67871E+000,1.13020E-002,5.33594E-001,0,4.03224E+001,-6.92326E+000,9.99084E-001,-3.72174E+000,-4.33572E+001,9.97871E-001,9.54765E-002,-3.88337E-002,-1.20019E-003,9.54872E-002,-3.88444E-002,-5.11939E-001,9.60386E-002,1.10019E+000,-2.60809E-003,0.00000E+000,-2.74637E-004,9.64567E-001,0.00000E+000,3.26364E-003,-7.43478E-002,1.00000E+000,14
819,1347,-4.78001E+000,7.59771E-001,-1.07794E-003,2.64645E+000,-5.01128E-001,3.83674E-003,2.69348E+000,8.09331E-003,5.31398E-001,0,4.09612E+001,-8.18167E+000,9.99390E-001,-2.97335E+000,-4.49915E+001,9.99309E-001,9.42564E-002,-3.88491E-002,-1.62137E-003,9.42761E-002,-3.88688E-002,-6.97786E-001,9.47584E-002,1.09885E+000,-2.63191E-003,0.00000E+000,-6.15750E-004,9.64561E-001,0.00000E+000,-3.01161E-003,-7.44591E-002,1.00000E+000,14
819,1357,-4.75337E+000,1.38531E+000,3.42151E-002,2.64544E+000,-5.28536E-001,-3.56935E-002,2.69796E+000,9.67995E-003,5.33797E-001,0,4.10641E+001,-8.53583E+000,9.99263E-001,-2.35457E+000,-4.54289E+001,9.99127E-001,9.39413E-002,-3.88580E-002,-1.73186E-003,9.39639E-002,-3.88806E-002,-7.47036E-001,9.44284E-002,1.09851E+000,-2.64623E-003,0.00000E+000,-7.02030E-004,9.64557E-001,0.00000E+000,-4.59884E-003,-7.45260E-002,1.00000E+000,14
1039,1337,1.09437E+001,4.51476E-001,-4.68748E-002,4.02537E+000,-3.04366E-001,-7.08867E-002,4.03749E+000,8.30016E-003,5.11264E-001,0,6.14990E+001,-5.13469E+000,9.99475E-001,1.97644E+001,-3.74967E+001,9.98393E-001,9.09372E-002,-3.69352E-002,5.04967E-005,9.09372E-002,-3.69353E-002,2.26260E-002,9.14695E-002,1.09491E+000,-2.51544E-002,0.00000E+000,2.23609E-002,9.65186E-001,0.00000E+000,-2.92516E-003,-5.94850E-002,1.00000E+000,14
1039,1347,1.09474E+001,1.07233E+000,-4.41699E-002,4.00643E+000,-3.33432E-001,-9.99678E-002,4.02152E+000,8.36629E-003,4.32749E-001,0,6.13132E+001,-5.52233E+000,9.99658E-001,1.99120E+001,-3.79378E+001,9.99098E-001,9.11182E-002,-3.69288E-002,1.11011E-004,9.11183E-002,-3.69289E-002,4.96726E-002,9.16616E-002,1.09511E+000,-2.51476E-002,0.00000E+000,2.24019E-002,9.65188E-001,0.00000E+000,-1.77049E-003,-5.94450E-002,1.00000E+000,14
1039,1317,1.09475E+001,-7.94112E-001,2.93511E-002,4.05735E+000,-2.56834E-001,-4.46419E-003,4.06547E+000,8.12527E-003,4.52435E-001,0,6.17446E+001,-4.50101E+000,9.99498E-001,1.97988E+001,-3.69674E+001,9.98741E-001,9.05715E-002,-3.69451E-002,-6.82672E-005,9.05716E-002,-3.69452E-002,-3.06738E-002,9.10822E-002,1.09452E+000,-2.51629E-002,0.00000E+000,2.22792E-002,9.65184E-001,0.00000E+000,-5.23143E-003,-5.95349E-002,1.00000E+000,14
1039,1327,1.09453E+001,-1.75858E-001,-1.63200E-002,4.04304E+000,-2.82113E-001,-3.71549E-002,4.05304E+000,7.76461E-003,4.42631E-001,0,6.16471E+001,-4.85086E+000,9.99521E-001,1.97628E+001,-3.73046E+001,9.98638E-001,9.07543E-002,-3.69405E-002,-9.33970E-006,9.07543E-002,-3.69405E-002,-4.19066E-003,9.12757E-002,1.09471E+000,-2.51592E-002,0.00000E+000,2.23199E-002,9.65185E-001,0.00000E+000,-4.08271E-003,-5.95133E-002,1.00000E+000,14
1039,1307,1.09557E+001,-1.41387E+000,8.80118E-002,4.07489E+000,-2.34499E-001,2.89115E-002,4.08173E+000,8.60738E-003,4.59105E-001,0,6.18880E+001,-4.20295E+000,9.99473E-001,1.99541E+001,-3.66834E+001,9.98502E-001,9.03875E-002,-3.69492E-002,-1.26801E-004,9.03876E-002,-3.69494E-002,-5.70546E-002,9.08876E-002,1.09432E+000,-2.51657E-002,0.00000E+000,2.22385E-002,9.65184E-001,0.00000E+000,-6.37909E-003,-5.95514E-002,1.00000E+000,14
1039,1297,1.09674E+001,-2.02953E+000,1.67395E-001,4.09271E+000,-2.08932E-001,6.90468E-002,4.09862E+000,8.66177E-003,4.48027E-001,0,6.20077E+001,-3.87801E+000,9.99166E-001,2.02042E+001,-3.63889E+001,9.98369E-001,9.02021E-002,-3.69528E-002,-1.84941E-004,9.02023E-002,-3.69531E-002,-8.33337E-002,9.06917E-002,1.09413E+000,-2.51676E-002,0.00000E+000,2.21978E-002,9.65183E-001,0.00000E+000,-7.52689E-003,-5.95623E-002,1.00000E+000,14
1049,1337,1.16680E+001,4.71160E-001,-5.27372E-002,4.09153E+000,-2.89498E-001,-7.94728E-002,4.10253E+000,1.20746E-002,4.58005E-001,0,6.24855E+001,-4.89784E+000,9.99759E-001,2.09920E+001,-3.71093E+001,9.98900E-001,9.09180E-002,-3.68963E-002,-3.59134E-004,9.09190E-002,-3.68973E-002,-1.60988E-001,9.14550E-002,1.09489E+000,-2.51270E-002,0.00000E+000,2.14672E-002,9.65185E-001,0.00000E+000,-1.54090E-003,-5.84723E-002,1.00000E+000,14
1049,1347,1.16779E+001,1.09780E+000,-3.58135E-002,4.07633E+000,-3.16706E-001,-1.03867E-001,4.08993E+000,1.03959E-002,4.58169E-001,0,6.23377E+001,-5.27197E+000,9.99588E-001,2.12615E+001,-3.74507E+001,9.98551E-001,9.12203E-002,-3.68932E-002,-3.24734E-004,9.12211E-002,-3.68940E-002,-1.45229E-001,9.17747E-002,1.09522E+000,-2.51143E-002,0.00000E+000,2.14687E-002,9.65185E-001,0.00000E+000,-7.00435E-004,-5.84403E-002,1.00000E+000,14
1049,1307,1.16791E+001,-1.39203E+000,9.67800E-002,4.13866E+000,-2.18257E-001,2.71283E-002,4.14450E+000,1.16583E-002,3.99990E-001,0,6.28093E+001,-3.94980E+000,9.99511E-001,2.11987E+001,-3.63020E+001,9.98558E-001,9.00135E-002,-3.69025E-002,-4.52922E-004,9.00152E-002,-3.69041E-002,-2.04466E-001,9.05002E-002,1.09390E+000,-2.51452E-002,0.00000E+000,2.14627E-002,9.65185E-001,0.00000E+000,-4.04155E-003,-5.85184E-002,1.00000E+000,14
1049,1317,1.16696E+001,-7.71619E-001,4.02105E-002,4.11952E+000,-2.40792E-001,-5.43967E-003,4.12655E+000,1.03554E-002,4.20342E-001,0,6.26395E+001,-4.25986E+000,9.99291E-001,2.10282E+001,-3.65658E+001,9.97479E-001,9.03153E-002,-3.69006E-002,-4.22202E-004,9.03167E-002,-3.69020E-002,-1.90149E-001,9.08185E-002,1.09423E+000,-2.51402E-002,0.00000E+000,2.14642E-002,9.65185E-001,0.00000E+000,-3.20958E-003,-5.85059E-002,1.00000E+000,14
1049,1327,1.16646E+001,-1.56464E-001,-1.80680E-002,4.10537E+000,-2.68822E-001,-3.71818E-002,4.11433E+000,6.71156E-003,4.28601E-001,0,6.25448E+001,-4.64260E+000,9.99598E-001,2.09223E+001,-3.69135E+001,9.97958E-001,9.06164E-002,-3.68987E-002,-3.91628E-004,9.06176E-002,-3.68999E-002,-1.75966E-001,9.11363E-002,1.09456E+000,-2.51356E-002,0.00000E+000,2.14657E-002,9.65185E-001,0.00000E+000,-2.37708E-003,-5.84942E-002,1.00000E+000,14
809,1347,-5.49828E+000,7.48267E-001,-5.08015E-003,2.57651E+000,-5.05133E-001,4.23771E-003,2.62556E+000,7.31575E-003,5.26389E-001,0,3.99090E+001,-8.24558E+000,9.99622E-001,-4.03058E+000,-4.52644E+001,9.99413E-001,9.37431E-002,-3.86747E-002,-1.39241E-003,9.37578E-002,-3.86893E-002,-6.02391E-001,9.42334E-002,1.09828E+000,-2.44465E-003,0.00000E+000,-3.18366E-004,9.64624E-001,0.00000E+000,-3.32552E-003,-7.29805E-002,1.00000E+000,14
809,1357,-5.47245E+000,1.37746E+000,3.42974E-002,2.57420E+000,-5.29757E-001,-3.47201E-002,2.62838E+000,8.23278E-003,5.38711E-001,0,3.99883E+001,-8.55344E+000,9.99550E-001,-3.41124E+000,-4.56515E+001,9.99074E-001,9.35385E-002,-3.86892E-002,-1.56247E-003,9.35570E-002,-3.87077E-002,-6.76909E-001,9.40200E-002,1.09806E+000,-2.45401E-003,0.00000E+000,-5.30813E-004,9.64615E-001,0.00000E+000,-4.85058E-003,-7.30461E-002,1.00000E+000,14
809,1327,-5.53551E+000,-4.95391E-001,2.73394E-002,2.57335E+000,-4.60844E-001,8.21357E-002,2.61558E+000,8.24098E-003,5.34097E-001,0,3.96217E+001,-7.68048E+000,9.99559E-001,-4.77117E+000,-4.44992E+001,9.98089E-001,9.41411E-002,-3.86567E-002,-1.05935E-003,9.41495E-002,-3.86651E-002,-4.57021E-001,9.46490E-002,1.09871E+000,-2.43330E-003,0.00000E+000,1.02153E-004,9.64635E-001,0.00000E+000,-3.06781E-004,-7.29010E-002,1.00000E+000,14
809,1337,-5.51666E+000,1.23981E-001,4.23393E-003,2.57711E+000,-4.83857E-001,4.60495E-002,2.62254E+000,5.90011E-003,5.24579E-001,0,3.97911E+001,-7.98163E+000,9.99611E-001,-4.41475E+000,-4.49062E+001,9.99407E-001,9.39436E-002,-3.86647E-002,-1.22529E-003,9.39549E-002,-3.86761E-002,-5.29347E-001,9.44426E-002,1.09850E+000,-2.43833E-003,0.00000E+000,-1.07768E-004,9.64630E-001,0.00000E+000,-1.81372E-003,-7.29362E-002,1.00000E+000,14
809,1307,-5.54588E+000,-1.70487E+000,1.97806E-001,2.57378E+000,-3.97920E-001,1.80818E-001,2.61062E+000,1.32575E-002,5.74844E-001,0,3.93077E+001,-6.91327E+000,9.97864E-001,-4.75173E+000,-4.34884E+001,9.96440E-001,9.45270E-002,-3.86503E-002,-7.32252E-004,9.45310E-002,-3.86543E-002,-3.15018E-001,9.50525E-002,1.09914E+000,-2.42967E-003,0.00000E+000,5.19765E-004,9.64639E-001,0.00000E+000,2.69108E-003,-7.28756E-002,1.00000E+000,14
809,1317,-5.53925E+000,-1.10069E+000,1.05793E-001,2.57673E+000,-4.28732E-001,1.33351E-001,2.61555E+000,1.25959E-002,5.49915E-001,0,3.95082E+001,-7.28884E+000,9.99269E-001,-4.75607E+000,-4.39903E+001,9.97965E-001,9.43354E-002,-3.86526E-002,-8.95351E-004,9.43414E-002,-3.86587E-002,-3.85725E-001,9.48520E-002,1.09893E+000,-2.43091E-003,0.00000E+000,3.11195E-004,9.64638E-001,0.00000E+000,1.19384E-003,-7.28843E-002,1.00000E+000,14
1049,1297,1.16845E+001,-2.01328E+000,1.65233E-001,4.15263E+000,-1.97460E-001,6.65715E-002,4.15785E+000,9.61886E-003,3.94028E-001,0,6.28754E+001,-3.68555E+000,9.99179E-001,2.13294E+001,-3.60706E+001,9.97485E-001,8.97113E-002,-3.69043E-002,-4.83377E-004,8.97131E-002,-3.69061E-002,-2.18732E-001,9.01816E-002,1.09358E+000,-2.51495E-002,0.00000E+000,2.14613E-002,9.65185E-001,0.00000E+000,-4.87279E-003,-5.85294E-002,1.00000E+000,14
799,1337,-6.23107E+000,1.16046E-001,9.05921E-004,2.51032E+000,-4.85214E-001,4.66583E-002,2.55721E+000,6.20568E-003,5.37149E-001,0,3.87852E+001,-8.00504E+000,9.99639E-001,-5.40758E+000,-4.51148E+001,9.99455E-001,9.30821E-002,-3.84714E-002,-8.93043E-004,9.30882E-002,-3.84775E-002,-3.88925E-001,9.35530E-002,1.09755E+000,-2.29757E-003,0.00000E+000,4.31151E-004,9.64712E-001,0.00000E+000,-2.12287E-003,-7.14345E-002,1.00000E+000,14
799,1347,-6.21270E+000,7.39186E-001,-6.42721E-003,2.51023E+000,-5.07519E-001,8.62802E-003,2.56104E+000,7.54155E-003,5.32473E-001,0,3.88989E+001,-8.28424E+000,9.99472E-001,-5.01739E+000,-4.54999E+001,9.99141E-001,9.29524E-002,-3.84841E-002,-1.10745E-003,9.29617E-002,-3.84934E-002,-4.82712E-001,9.34182E-002,1.09741E+000,-2.30151E-003,0.00000E+000,1.13344E-004,9.64703E-001,0.00000E+000,-3.46714E-003,-7.14729E-002,1.00000E+000,14
799,1357,-6.18279E+000,1.37191E+000,3.12216E-002,2.51206E+000,-5.28279E-001,-3.29663E-002,2.56722E+000,7.76433E-003,5.26961E-001,0,3.90483E+001,-8.52095E+000,9.99341E-001,-4.33640E+000,-4.58387E+001,9.98826E-001,9.28197E-002,-3.85030E-002,-1.32465E-003,9.28331E-002,-3.85163E-002,-5.77865E-001,9.32802E-002,1.09728E+000,-2.30750E-003,0.00000E+000,-2.07113E-004,9.64689E-001,0.00000E+000,-4.82263E-003,-7.15312E-002,1.00000E+000,14
799,1327,-6.24467E+000,-5.05566E-001,3.32405E-002,2.51127E+000,-4.63879E-001,8.97305E-002,2.55533E+000,1.35454E-002,5.60505E-001,0,3.86675E+001,-7.77058E+000,9.99615E-001,-5.66185E+000,-4.47528E+001,9.98275E-001,9.32097E-002,-3.84613E-002,-6.79541E-004,9.32132E-002,-3.84648E-002,-2.95687E-001,9.36861E-002,1.09769E+000,-2.29447E-003,0.00000E+000,7.48268E-004,9.64719E-001,0.00000E+000,-7.81519E-004,-7.14042E-002,1.00000E+000,14
1059,1327,1.23846E+001,-1.39549E-001,-1.75090E-002,4.16711E+000,-2.58407E-001,-3.84676E-002,4.17529E+000,1.02283E-002,4.28779E-001,0,6.34370E+001,-4.48529E+000,9.99648E-001,2.21005E+001,-3.65586E+001,9.98436E-001,9.05681E-002,-3.70069E-002,-6.37488E-004,9.05713E-002,-3.70101E-002,-2.86295E-001,9.10740E-002,1.09452E+000,-2.47206E-002,0.00000E+000,2.05482E-002,9.65048E-001,0.00000E+000,-1.01220E-003,-5.75757E-002,1.00000E+000,14
1059,1337,1.23904E+001,4.91915E-001,-4.33994E-002,4.15523E+000,-2.75655E-001,-7.36027E-002,4.16501E+000,8.21039E-003,4.42871E-001,0,6.33805E+001,-4.69740E+000,9.99759E-001,2.22248E+001,-3.67201E+001,9.99194E-001,9.09470E-002,-3.70056E-002,-6.14751E-004,9.09499E-002,-3.70086E-002,-2.75270E-001,9.14738E-002,1.09493E+000,-2.47094E-002,0.00000E+000,2.05454E-002,9.65047E-001,0.00000E+000,-4.95611E-004,-5.75617E-002,1.00000E+000,14
1059,1347,1.24017E+001,1.11849E+000,-2.90479E-002,4.14098E+000,-3.02316E-001,-1.01595E-001,4.15325E+000,1.13505E-002,4.36978E-001,0,6.32607E+001,-5.06802E+000,9.99711E-001,2.25084E+001,-3.70583E+001,9.98763E-001,9.13267E-002,-3.70040E-002,-5.89739E-004,9.13294E-002,-3.70067E-002,-2.63293E-001,9.18750E-002,1.09535E+000,-2.46933E-002,0.00000E+000,2.05427E-002,9.65047E-001,0.00000E+000,2.28910E-005,-5.75417E-002,1.00000E+000,14
1059,1297,1.24011E+001,-1.99479E+000,1.56991E-001,4.21367E+000,-1.82085E-001,6.65961E-002,4.21812E+000,8.96713E-003,3.57029E-001,0,6.37491E+001,-3.45456E+000,9.99288E-001,2.24401E+001,-3.56966E+001,9.97712E-001,8.94338E-002,-3.70100E-002,-6.99012E-004,8.94376E-002,-3.70138E-002,-3.16732E-001,8.98790E-002,1.09328E+000,-2.47398E-002,0.00000E+000,2.05563E-002,9.65048E-001,0.00000E+000,-2.55530E-003,-5.75995E-002,1.00000E+000,14
1059,1307,1.23963E+001,-1.37671E+000,8.93686E-002,4.20021E+000,-2.05359E-001,2.79467E-002,4.20532E+000,1.10212E-002,3.48917E-001,0,6.36897E+001,-3.76624E+000,9.99525E-001,2.23194E+001,-3.59840E+001,9.98541E-001,8.98110E-002,-3.70090E-002,-6.78952E-004,8.98147E-002,-3.70126E-002,-3.06731E-001,9.02761E-002,1.09369E+000,-2.47343E-002,0.00000E+000,2.05536E-002,9.65048E-001,0.00000E+000,-2.04262E-003,-5.75927E-002,1.00000E+000,14
1059,1317,1.23865E+001,-7.59090E-001,2.42445E-002,4.18114E+000,-2.31514E-001,-1.08337E-002,4.18756E+000,1.13417E-002,4.01701E-001,0,6.35465E+001,-4.12058E+000,9.99496E-001,2.21262E+001,-3.62545E+001,9.97508E-001,9.01893E-002,-3.70080E-002,-6.58654E-004,9.01927E-002,-3.70114E-002,-2.96679E-001,9.06745E-002,1.09410E+000,-2.47284E-002,0.00000E+000,2.05509E-002,9.65048E-001,0.00000E+000,-1.52816E-003,-5.75853E-002,1.00000E+000,14
799,1307,-6.25312E+000,-1.71316E+000,2.05298E-001,2.51232E+000,-4.00565E-001,1.84113E-001,2.55071E+000,1.67108E-002,5.53368E-001,0,3.83783E+001,-6.96041E+000,9.98535E-001,-5.60738E+000,-4.37362E+001,9.98063E-001,9.34573E-002,-3.84536E-002,-2.57664E-004,9.34578E-002,-3.84541E-002,-1.11917E-001,9.39449E-002,1.09796E+000,-2.29242E-003,0.00000E+000,1.37780E-003,9.64724E-001,0.00000E+000,1.88129E-003,-7.13843E-002,1.00000E+000,14
799,1317,-6.25304E+000,-1.11016E+000,9.53839E-002,2.51142E+000,-4.30743E-001,1.32226E-001,2.55152E+000,1.50132E-002,5.71073E-001,0,3.85330E+001,-7.33242E+000,9.99105E-001,-5.75812E+000,-4.41996E+001,9.97637E-001,9.33346E-002,-3.84550E-002,-4.67830E-004,9.33363E-002,-3.84567E-002,-2.03387E-001,9.38167E-002,1.09783E+000,-2.29264E-003,0.00000E+000,1.06363E-003,9.64723E-001,0.00000E+000,5.52431E-004,-7.13864E-002,1.00000E+000,14
789,1327,-6.95352E+000,-5.11159E-001,3.75165E-002,2.44974E+000,-4.62676E-001,9.92432E-002,2.49503E+000,1.15939E-002,5.68126E-001,0,3.77141E+001,-7.77646E+000,9.99488E-001,-6.54623E+000,-4.49418E+001,9.98538E-001,9.22955E-002,-3.82617E-002,-4.22743E-004,9.22969E-002,-3.82631E-002,-1.85521E-001,9.27449E-002,1.09669E+000,-2.24638E-003,0.00000E+000,1.23107E-003,9.64813E-001,0.00000E+000,-1.19838E-003,-6.99606E-002,1.00000E+000,14
789,1337,-6.93945E+000,1.11838E-001,3.47404E-003,2.44875E+000,-4.82886E-001,5.11291E-002,2.49643E+000,7.47725E-003,5.33854E-001,0,3.78451E+001,-7.97651E+000,9.99441E-001,-6.28779E+000,-4.52860E+001,9.99230E-001,9.22382E-002,-3.82743E-002,-6.75001E-004,9.22417E-002,-3.82778E-002,-2.96319E-001,9.26852E-002,1.09663E+000,-2.24780E-003,0.00000E+000,8.23072E-004,9.64803E-001,0.00000E+000,-2.35304E-003,-6.99876E-002,1.00000E+000,14
789,1347,-6.91945E+000,7.35169E-001,-3.36835E-003,2.44998E+000,-5.06031E-001,1.13730E-002,2.50172E+000,8.23378E-003,5.48956E-001,0,3.79839E+001,-8.26057E+000,9.99276E-001,-5.87021E+000,-4.56609E+001,9.98812E-001,9.21793E-002,-3.82896E-002,-9.28350E-004,9.21859E-002,-3.82962E-002,-4.07660E-001,9.26245E-002,1.09657E+000,-2.24956E-003,0.00000E+000,4.13639E-004,9.64792E-001,0.00000E+000,-3.51177E-003,-7.00212E-002,1.00000E+000,14
789,1357,-6.89360E+000,1.36552E+000,3.09537E-002,2.44928E+000,-5.27976E-001,-2.70143E-002,2.50568E+000,7.34715E-003,5.51350E-001,0,3.80846E+001,-8.52651E+000,9.99162E-001,-5.25792E+000,-4.60274E+001,9.98777E-001,9.21186E-002,-3.83109E-002,-1.18355E-003,9.21293E-002,-3.83216E-002,-5.19860E-001,9.25621E-002,1.09651E+000,-2.25205E-003,0.00000E+000,1.86233E-006,9.64775E-001,0.00000E+000,-4.67712E-003,-7.00688E-002,1.00000E+000,14
1069,1327,1.31057E+001,-1.23693E-001,-2.43018E-002,4.23057E+000,-2.49233E-001,-4.24149E-002,4.23812E+000,1.11767E-002,4.61367E-001,0,6.43649E+001,-4.34479E+000,9.99570E-001,2.32857E+001,-3.61880E+001,9.97914E-001,9.05325E-002,-3.69631E-002,-8.74352E-004,9.05385E-002,-3.69691E-002,-3.92904E-001,9.10443E-002,1.09449E+000,-2.43148E-002,0.00000E+000,1.96882E-002,9.65071E-001,0.00000E+000,-1.45790E-004,-5.69103E-002,1.00000E+000,14
1069,1337,1.31063E+001,5.05368E-001,-4.96497E-002,4.21421E+000,-2.67048E-001,-7.33476E-002,4.22330E+000,7.20749E-003,4.22227E-001,0,6.42266E+001,-4.57165E+000,9.99609E-001,2.33281E+001,-3.64134E+001,9.98723E-001,9.09163E-002,-3.69625E-002,-8.59431E-004,9.09220E-002,-3.69683E-002,-3.85043E-001,9.14493E-002,1.09491E+000,-2.43039E-002,0.00000E+000,1.96906E-002,9.65071E-001,0.00000E+000,1.35911E-005,-5.69062E-002,1.00000E+000,14
1069,1347,1.31155E+001,1.13308E+000,-4.73929E-002,4.19954E+000,-2.92486E-001,-1.05671E-001,4.21104E+000,7.10436E-003,4.22636E-001,0,6.41177E+001,-4.90425E+000,9.99681E-001,2.35556E+001,-3.67025E+001,9.99068E-001,9.13024E-002,-3.69619E-002,-8.42434E-004,9.13080E-002,-3.69674E-002,-3.76294E-001,9.18573E-002,1.09533E+000,-2.42886E-002,0.00000E+000,1.96929E-002,9.65071E-001,0.00000E+000,1.74078E-004,-5.69004E-002,1.00000E+000,14
789,1307,-6.95932E+000,-1.72018E+000,2.03891E-001,2.45364E+000,-4.01424E-001,1.89564E-001,2.49347E+000,1.24429E-002,5.54497E-001,0,3.74843E+001,-6.98043E+000,9.99080E-001,-6.46477E+000,-4.39343E+001,9.96664E-001,9.24048E-002,-3.82522E-002,7.66911E-005,9.24048E-002,-3.82523E-002,3.36306E-002,9.28597E-002,1.09681E+000,-2.24547E-003,0.00000E+000,2.04036E-003,9.64819E-001,0.00000E+000,1.09196E-003,-6.99431E-002,1.00000E+000,14
789,1317,-6.95779E+000,-1.11897E+000,1.14934E-001,2.45141E+000,-4.34411E-001,1.44220E-001,2.49378E+000,1.39600E-002,5.65305E-001,0,3.75966E+001,-7.41922E+000,9.99072E-001,-6.54185E+000,-4.44750E+001,9.95814E-001,9.23509E-002,-3.82562E-002,-1.72722E-004,9.23511E-002,-3.82564E-002,-7.57710E-002,9.28027E-002,1.09675E+000,-2.24582E-003,0.00000E+000,1.63612E-003,9.64817E-001,0.00000E+000,-5.20628E-005,-6.99499E-002,1.00000E+000,14
1069,1297,1.31107E+001,-1.97864E+000,1.35890E-001,4.26896E+000,-1.69251E-001,6.13171E-002,4.27276E+000,1.13921E-002,3.78905E-001,0,6.45562E+001,-3.26110E+000,9.98881E-001,2.34208E+001,-3.53031E+001,9.96991E-001,8.93805E-002,-3.69645E-002,-9.14140E-004,8.93872E-002,-3.69711E-002,-4.14521E-001,8.98308E-002,1.09323E+000,-2.43364E-002,0.00000E+000,1.96812E-002,9.65070E-001,0.00000E+000,-6.23647E-004,-5.69185E-002,1.00000E+000,14
1069,1307,1.31072E+001,-1.36138E+000,6.59257E-002,4.25796E+000,-1.92681E-001,2.52744E-002,4.26239E+000,8.79315E-003,3.57177E-001,0,6.45260E+001,-3.57712E+000,9.99490E-001,2.33165E+001,-3.56027E+001,9.98184E-001,8.97627E-002,-3.69641E-002,-9.01981E-004,8.97692E-002,-3.69705E-002,-4.07776E-001,9.02331E-002,1.09365E+000,-2.43315E-002,0.00000E+000,1.96835E-002,9.65070E-001,0.00000E+000,-4.65186E-004,-5.69167E-002,1.00000E+000,14
1069,1317,1.31075E+001,-7.38200E-001,2.32159E-002,4.24541E+000,-2.16473E-001,-5.68971E-003,4.25093E+000,1.00107E-002,4.39073E-001,0,6.44504E+001,-3.91359E+000,9.99637E-001,2.33219E+001,-3.58178E+001,9.97871E-001,9.01476E-002,-3.69636E-002,-8.88197E-004,9.01538E-002,-3.69698E-002,-4.00331E-001,9.06385E-002,1.09407E+000,-2.43232E-002,0.00000E+000,1.96859E-002,9.65071E-001,0.00000E+000,-3.05518E-004,-5.69135E-002,1.00000E+000,14
779,1327,-7.65634E+000,-5.12519E-001,4.60185E-002,2.39282E+000,-4.59859E-001,1.08117E-001,2.43900E+000,1.67779E-002,5.93507E-001,0,3.68320E+001,-7.73575E+000,9.99439E-001,-7.32202E+000,-4.50651E+001,9.98176E-001,9.13336E-002,-3.79502E-002,-3.44480E-004,9.13345E-002,-3.79511E-002,-1.52665E-001,9.17680E-002,1.09563E+000,-2.37250E-003,0.00000E+000,1.50425E-003,9.65036E-001,0.00000E+000,-1.35477E-003,-6.88094E-002,1.00000E+000,14
779,1337,-7.64442E+000,1.01605E-001,6.36757E-003,2.39015E+000,-4.87616E-001,5.60522E-002,2.44003E+000,7.18112E-003,5.48150E-001,0,3.69508E+001,-8.05226E+000,9.99299E-001,-7.11169E+000,-4.55415E+001,9.99014E-001,9.13950E-002,-3.79647E-002,-6.39809E-004,9.13982E-002,-3.79678E-002,-2.83374E-001,9.18331E-002,1.09570E+000,-2.37093E-003,0.00000E+000,9.95524E-004,9.65025E-001,0.00000E+000,-2.30813E-003,-6.88311E-002,1.00000E+000,14
779,1347,-7.62727E+000,7.27764E-001,-6.90344E-004,2.38817E+000,-5.06990E-001,1.31423E-002,2.44142E+000,8.71106E-003,5.33669E-001,0,3.70473E+001,-8.27273E+000,9.99080E-001,-6.73615E+000,-4.58895E+001,9.98571E-001,9.14556E-002,-3.79832E-002,-9.36069E-004,9.14624E-002,-3.79899E-002,-4.14320E-001,9.18982E-002,1.09577E+000,-2.36886E-003,0.00000E+000,4.84883E-004,9.65010E-001,0.00000E+000,-3.26509E-003,-6.88595E-002,1.00000E+000,14
779,1357,-7.60350E+000,1.35833E+000,2.74395E-002,2.38632E+000,-5.28294E-001,-2.76692E-002,2.44426E+000,6.67608E-003,5.41416E-001,0,3.71373E+001,-8.52015E+000,9.99196E-001,-6.16926E+000,-4.62383E+001,9.98980E-001,9.15156E-002,-3.80075E-002,-1.23418E-003,9.15274E-002,-3.80192E-002,-5.45888E-001,9.19632E-002,1.09584E+000,-2.36610E-003,0.00000E+000,-2.94016E-005,9.64990E-001,0.00000E+000,-4.22887E-003,-6.88975E-002,1.00000E+000,14
779,1317,-7.66094E+000,-1.11947E+000,1.18341E-001,2.39398E+000,-4.29084E-001,1.47159E-001,2.43658E+000,1.76679E-002,5.28643E-001,0,3.67251E+001,-7.32592E+000,9.99547E-001,-7.33463E+000,-4.46034E+001,9.97986E-001,9.12712E-002,-3.79437E-002,-4.95439E-005,9.12712E-002,-3.79437E-002,-2.19685E-002,9.17024E-002,1.09556E+000,-2.37313E-003,0.00000E+000,2.01158E-003,9.65041E-001,0.00000E+000,-4.04005E-004,-6.88009E-002,1.00000E+000,14
1079,1337,1.38275E+001,5.23125E-001,-5.63529E-002,4.27736E+000,-2.55707E-001,-7.63775E-002,4.28568E+000,8.50285E-003,4.12046E-001,0,6.51449E+001,-4.38493E+000,9.99515E-001,2.45180E+001,-3.60333E+001,9.99353E-001,9.10415E-002,-3.70366E-002,-1.08527E-003,9.10507E-002,-3.70458E-002,-4.85451E-001,9.15756E-002,1.09506E+000,-2.38808E-002,0.00000E+000,1.88512E-002,9.65004E-001,0.00000E+000,5.16393E-004,-5.66889E-002,1.00000E+000,14
1079,1347,1.38379E+001,1.15233E+000,-5.25608E-002,4.26363E+000,-2.79839E-001,-1.07562E-001,4.27416E+000,5.16119E-003,4.36282E-001,0,6.50461E+001,-4.71386E+000,9.99787E-001,2.47651E+001,-3.62890E+001,9.99670E-001,9.14328E-002,-3.70378E-002,-1.08419E-003,9.14419E-002,-3.70470E-002,-4.83486E-001,9.19888E-002,1.09549E+000,-2.38651E-002,0.00000E+000,1.88392E-002,9.65004E-001,0.00000E+000,3.70774E-004,-5.66942E-002,1.00000E+000,14
1079,1297,1.38324E+001,-1.95702E+000,1.44173E-001,4.33213E+000,-1.53534E-001,6.94696E-002,4.33541E+000,1.10139E-002,4.24732E-001,0,6.54275E+001,-3.05945E+000,9.99223E-001,2.46485E+001,-3.48737E+001,9.97780E-001,8.94857E-002,-3.70334E-002,-1.07615E-003,8.94949E-002,-3.70426E-002,-4.87299E-001,8.99360E-002,1.09335E+000,-2.39133E-002,0.00000E+000,1.88989E-002,9.65005E-001,0.00000E+000,1.09453E-003,-5.66778E-002,1.00000E+000,14
1079,1307,1.38242E+001,-1.34427E+000,6.21513E-002,4.31786E+000,-1.81507E-001,2.73721E-002,4.32176E+000,1.00385E-002,3.94448E-001,0,6.53741E+001,-3.41849E+000,9.99566E-001,2.44500E+001,-3.52209E+001,9.98164E-001,8.98730E-002,-3.70341E-002,-1.08025E-003,8.98822E-002,-3.70432E-002,-4.87660E-001,9.03437E-002,1.09378E+000,-2.39093E-002,0.00000E+000,1.88870E-002,9.65005E-001,0.00000E+000,9.50733E-004,-5.66792E-002,1.00000E+000,14
1079,1327,1.38258E+001,-1.06900E-001,-3.22657E-002,4.29231E+000,-2.38619E-001,-4.87919E-002,4.29921E+000,1.05410E-002,4.66750E-001,0,6.52734E+001,-4.17389E+000,9.99617E-001,2.44577E+001,-3.58142E+001,9.99049E-001,9.06526E-002,-3.70357E-002,-1.08418E-003,9.06618E-002,-3.70449E-002,-4.86440E-001,9.11652E-002,1.09463E+000,-2.38916E-002,0.00000E+000,1.88631E-002,9.65004E-001,0.00000E+000,6.61042E-004,-5.66852E-002,1.00000E+000,14
1079,1317,1.38238E+001,-7.19960E-001,1.31866E-002,4.30460E+000,-2.04529E-001,-9.11900E-003,4.30947E+000,9.21806E-003,4.39847E-001,0,6.53089E+001,-3.70942E+000,9.99575E-001,2.44316E+001,-3.54216E+001,9.98690E-001,9.02631E-002,-3.70349E-002,-1.08244E-003,9.02723E-002,-3.70441E-002,-4.87150E-001,9.07546E-002,1.09420E+000,-2.39009E-002,0.00000E+000,1.88751E-002,9.65005E-001,0.00000E+000,8.05822E-004,-5.66821E-002,1.00000E+000,14
779,1307,-7.66721E+000,-1.73093E+000,2.08782E-001,2.39119E+000,-4.07784E-001,1.92967E-001,2.43337E+000,1.19724E-002,5.60640E-001,0,3.65383E+001,-7.07466E+000,9.99355E-001,-7.32861E+000,-4.42011E+001,9.97533E-001,9.12082E-002,-3.79391E-002,2.43475E-004,9.12087E-002,-3.79396E-002,1.08016E-001,9.16371E-002,1.09549E+000,-2.37351E-003,0.00000E+000,2.51545E-003,9.65044E-001,0.00000E+000,5.40253E-004,-6.87957E-002,1.00000E+000,14
1089,1337,1.45471E+001,5.42636E-001,-6.17169E-002,4.33857E+000,-2.43243E-001,-7.78357E-002,4.34608E+000,7.39052E-003,4.51756E-001,0,6.60261E+001,-4.19914E+000,9.99430E-001,2.56905E+001,-3.56044E+001,9.99235E-001,9.14489E-002,-3.71357E-002,-1.21441E-003,9.14604E-002,-3.71472E-002,-5.41061E-001,9.19958E-002,1.09552E+000,-2.32776E-002,0.00000E+000,1.80364E-002,9.64916E-001,0.00000E+000,9.86072E-004,-5.65361E-002,1.00000E+000,14
1089,1347,1.45575E+001,1.17143E+000,-5.63622E-002,4.32474E+000,-2.66951E-001,-1.07019E-001,4.33429E+000,6.69086E-003,4.28538E-001,0,6.59188E+001,-4.51808E+000,9.99614E-001,2.59379E+001,-3.58920E+001,9.99019E-001,9.19342E-002,-3.71387E-002,-1.22684E-003,9.19459E-002,-3.71503E-002,-5.44531E-001,9.25086E-002,1.09605E+000,-2.32581E-002,0.00000E+000,1.80028E-002,9.64914E-001,0.00000E+000,6.63432E-004,-5.65479E-002,1.00000E+000,14
769,1347,-8.33460E+000,7.19982E-001,3.75464E-004,2.32718E+000,-5.08465E-001,1.73264E-002,2.38214E+000,7.08092E-003,5.34930E-001,0,3.61154E+001,-8.29590E+000,9.99122E-001,-7.59452E+000,-4.61121E+001,9.98807E-001,9.05182E-002,-3.76835E-002,-8.72492E-004,9.05241E-002,-3.76894E-002,-3.89909E-001,9.09455E-002,1.09474E+000,-2.33492E-003,0.00000E+000,5.51271E-004,9.65233E-001,0.00000E+000,-2.86918E-003,-6.78567E-002,1.00000E+000,14
769,1357,-8.30997E+000,1.35150E+000,2.56943E-002,2.32676E+000,-5.28412E-001,-2.45250E-002,2.38613E+000,6.74834E-003,5.48526E-001,0,3.62296E+001,-8.52153E+000,9.99319E-001,-7.01921E+000,-4.64388E+001,9.99198E-001,9.05430E-002,-3.77051E-002,-1.14398E-003,9.05532E-002,-3.77153E-002,-5.11026E-001,9.09732E-002,1.09477E+000,-2.33374E-003,0.00000E+000,8.13891E-005,9.65215E-001,0.00000E+000,-3.71930E-003,-6.78895E-002,1.00000E+000,14
769,1327,-8.36329E+000,-5.20138E-001,5.44797E-002,2.32904E+000,-4.62500E-001,1.04695E-001,2.37683E+000,1.26621E-002,5.73906E-001,0,3.58810E+001,-7.76941E+000,9.99303E-001,-8.15746E+000,-4.53080E+001,9.97429E-001,9.04665E-002,-3.76562E-002,-3.34039E-004,9.04674E-002,-3.76570E-002,-1.49379E-001,9.08894E-002,1.09468E+000,-2.33636E-003,0.00000E+000,1.48270E-003,9.65255E-001,0.00000E+000,-1.18401E-003,-6.78167E-002,1.00000E+000,14
769,1337,-8.35226E+000,9.17298E-002,8.19377E-003,2.32804E+000,-4.91763E-001,5.86586E-002,2.38014E+000,6.88542E-003,5.43034E-001,0,3.60076E+001,-8.11010E+000,9.99241E-001,-7.97769E+000,-4.57995E+001,9.98850E-001,9.04927E-002,-3.76672E-002,-6.02893E-004,9.04956E-002,-3.76700E-002,-2.69524E-001,9.09176E-002,1.09471E+000,-2.33579E-003,0.00000E+000,1.01772E-003,9.65246E-001,0.00000E+000,-2.02526E-003,-6.78325E-002,1.00000E+000,14
1089,1327,1.45430E+001,-8.50226E-002,-4.67965E-002,4.35280E+000,-2.20204E-001,-5.28912E-002,4.35869E+000,9.03386E-003,4.26454E-001,0,6.61519E+001,-3.88761E+000,9.99457E-001,2.55772E+001,-3.53704E+001,9.98698E-001,9.09635E-002,-3.71332E-002,-1.19987E-003,9.09747E-002,-3.71444E-002,-5.36621E-001,9.14833E-002,1.09499E+000,-2.32924E-002,0.00000E+000,1.80700E-002,9.64916E-001,0.00000E+000,1.30851E-003,-5.65271E-002,1.00000E+000,14
1089,1317,1.45442E+001,-7.08055E-001,1.55131E-004,4.36698E+000,-1.97512E-001,-1.79332E-002,4.37148E+000,8.66407E-003,4.83944E-001,0,6.62358E+001,-3.61893E+000,9.99593E-001,2.56037E+001,-3.50949E+001,9.99116E-001,9.04804E-002,-3.71311E-002,-1.18351E-003,9.04913E-002,-3.71421E-002,-5.31317E-001,9.09738E-002,1.09446E+000,-2.33028E-002,0.00000E+000,1.81034E-002,9.64917E-001,0.00000E+000,1.62911E-003,-5.65208E-002,1.00000E+000,14
1089,1297,1.45543E+001,-1.93667E+000,1.44942E-001,4.39521E+000,-1.39791E-001,7.09254E-002,4.39801E+000,8.38416E-003,4.55963E-001,0,6.63214E+001,-2.85469E+000,9.99603E-001,2.58691E+001,-3.44555E+001,9.98923E-001,8.95155E-002,-3.71275E-002,-1.14811E-003,8.95259E-002,-3.71379E-002,-5.19373E-001,8.99578E-002,1.09340E+000,-2.33177E-002,0.00000E+000,1.81700E-002,9.64918E-001,0.00000E+000,2.26867E-003,-5.65118E-002,1.00000E+000,14
1089,1307,1.45458E+001,-1.32654E+000,5.56457E-002,4.38021E+000,-1.70918E-001,2.02155E-002,4.38359E+000,8.69672E-003,4.81228E-001,0,6.62913E+001,-3.26989E+000,9.99660E-001,2.56518E+001,-3.47984E+001,9.99014E-001,8.99972E-002,-3.71291E-002,-1.16670E-003,9.00079E-002,-3.71398E-002,-5.25774E-001,9.04648E-002,1.09393E+000,-2.33123E-002,0.00000E+000,1.81367E-002,9.64918E-001,0.00000E+000,1.94953E-003,-5.65150E-002,1.00000E+000,14
769,1317,-8.37016E+000,-1.12625E+000,1.21121E-001,2.33019E+000,-4.32796E-001,1.50533E-001,2.37482E+000,1.43458E-002,5.31642E-001,0,3.57557E+001,-7.34864E+000,9.99612E-001,-8.21950E+000,-4.48082E+001,9.98685E-001,9.04396E-002,-3.76484E-002,-6.68869E-005,9.04397E-002,-3.76484E-002,-2.99195E-002,9.08613E-002,1.09465E+000,-2.33674E-003,0.00000E+000,1.94461E-003,9.65261E-001,0.00000E+000,-3.48308E-004,-6.78062E-002,1.00000E+000,14
1099,1327,1.52609E+001,-6.85184E-002,-5.51334E-002,4.41341E+000,-2.09000E-001,-5.11459E-002,4.41866E+000,9.94664E-003,4.50587E-001,0,6.70113E+001,-3.73016E+000,9.98974E-001,2.67215E+001,-3.49915E+001,9.97346E-001,9.12919E-002,-3.72349E-002,-1.32933E-003,9.13056E-002,-3.72486E-002,-5.92516E-001,9.18199E-002,1.09536E+000,-2.27311E-002,0.00000E+000,1.73034E-002,9.64843E-001,0.00000E+000,1.57780E-003,-5.67188E-002,1.00000E+000,14
1099,1337,1.52695E+001,5.62558E-001,-6.43597E-002,4.40192E+000,-2.29061E-001,-7.73345E-002,4.40855E+000,9.39676E-003,4.47730E-001,0,6.69299E+001,-3.99213E+000,9.98998E-001,2.69147E+001,-3.51968E+001,9.98388E-001,9.19003E-002,-3.72372E-002,-1.33782E-003,9.19141E-002,-3.72511E-002,-5.93477E-001,9.24623E-002,1.09603E+000,-2.27108E-002,0.00000E+000,1.72786E-002,9.64842E-001,0.00000E+000,1.17923E-003,-5.67310E-002,1.00000E+000,14
1099,1347,1.52828E+001,1.19426E+000,-5.14032E-002,4.38881E+000,-2.51693E-001,-1.07284E-001,4.39733E+000,8.38936E-003,4.46309E-001,0,6.68354E+001,-4.29851E+000,9.99221E-001,2.72197E+001,-3.54434E+001,9.98565E-001,9.25097E-002,-3.72400E-002,-1.34351E-003,9.25236E-002,-3.72539E-002,-5.93192E-001,9.31065E-002,1.09669E+000,-2.26841E-002,0.00000E+000,1.72537E-002,9.64841E-001,0.00000E+000,7.79562E-004,-5.67469E-002,1.00000E+000,14
759,1347,-9.03877E+000,7.15598E-001,1.35970E-003,2.26904E+000,-5.06814E-001,2.20383E-002,2.32505E+000,6.75080E-003,5.48185E-001,0,3.52238E+001,-8.27260E+000,9.99055E-001,-8.39956E+000,-4.62760E+001,9.98662E-001,8.95754E-002,-3.74523E-002,-7.75167E-004,8.95801E-002,-3.74571E-002,-3.49622E-001,8.99794E-002,1.09371E+000,-2.17676E-003,0.00000E+000,5.78420E-004,9.65399E-001,0.00000E+000,-2.53197E-003,-6.69731E-002,1.00000E+000,14
759,1357,-9.01678E+000,1.34493E+000,2.76009E-002,2.26650E+000,-5.28374E-001,-1.73400E-002,2.32734E+000,7.04927E-003,5.61071E-001,0,3.52977E+001,-8.53013E+000,9.99178E-001,-7.86066E+000,-4.66410E+001,9.98937E-001,8.94778E-002,-3.74674E-002,-9.70464E-004,8.94852E-002,-3.74748E-002,-4.37978E-001,8.98778E-002,1.09361E+000,-2.18068E-003,0.00000E+000,2.57822E-004,9.65387E-001,0.00000E+000,-3.35417E-003,-6.70041E-002,1.00000E+000,14
1099,1297,1.52721E+001,-1.92434E+000,1.25801E-001,4.45554E+000,-1.32568E-001,5.97866E-002,4.45792E+000,7.90941E-003,4.75306E-001,0,6.72234E+001,-2.72520E+000,9.99358E-001,2.69940E+001,-3.41260E+001,9.98191E-001,8.94766E-002,-3.72299E-002,-1.29094E-003,8.94897E-002,-3.72430E-002,-5.83674E-001,8.99080E-002,1.09337E+000,-2.27626E-002,0.00000E+000,1.73772E-002,9.64844E-001,0.00000E+000,2.76459E-003,-5.67000E-002,1.00000E+000,14
1099,1307,1.52673E+001,-1.30851E+000,5.01493E-002,4.44420E+000,-1.58613E-001,2.28308E-002,4.44709E+000,9.21043E-003,4.63412E-001,0,6.71961E+001,-3.06728E+000,9.99538E-001,2.68598E+001,-3.44258E+001,9.98667E-001,9.00810E-002,-3.72313E-002,-1.30539E-003,9.00944E-002,-3.72446E-002,-5.87396E-001,9.05437E-002,1.09403E+000,-2.27559E-002,0.00000E+000,1.73526E-002,9.64844E-001,0.00000E+000,2.36983E-003,-5.67040E-002,1.00000E+000,14
1099,1317,1.52630E+001,-6.89776E-001,-1.07069E-002,4.42939E+000,-1.83966E-001,-1.54376E-002,4.43323E+000,1.07370E-002,4.82830E-001,0,6.71183E+001,-3.41253E+000,9.99273E-001,2.67586E+001,-3.46971E+001,9.98333E-001,9.06860E-002,-3.72329E-002,-1.31810E-003,9.06996E-002,-3.72465E-002,-5.90302E-001,9.11810E-002,1.09470E+000,-2.27452E-002,0.00000E+000,1.73280E-002,9.64844E-001,0.00000E+000,1.97426E-003,-5.67104E-002,1.00000E+000,14
759,1327,-9.07223E+000,-5.29638E-001,5.16758E-002,2.26506E+000,-4.66063E-001,1.01367E-001,2.31473E+000,8.01299E-003,5.49916E-001,0,3.49262E+001,-7.80525E+000,9.99328E-001,-9.04809E+000,-4.55582E+001,9.99290E-001,8.97667E-002,-3.74337E-002,-3.89191E-004,8.97679E-002,-3.74349E-002,-1.75304E-001,9.01791E-002,1.09392E+000,-2.17205E-003,0.00000E+000,1.21448E-003,9.65413E-001,0.00000E+000,-9.00737E-004,-6.69358E-002,1.00000E+000,14
759,1337,-9.05679E+000,9.18890E-002,1.37485E-002,2.26828E+000,-4.85930E-001,6.21928E-002,2.32058E+000,6.92363E-003,5.61973E-001,0,3.50936E+001,-8.03258E+000,9.99073E-001,-8.77695E+000,-4.58989E+001,9.98722E-001,8.96715E-002,-3.74415E-002,-5.81716E-004,8.96742E-002,-3.74442E-002,-2.62199E-001,9.00796E-002,1.09381E+000,-2.17400E-003,0.00000E+000,8.96895E-004,9.65407E-001,0.00000E+000,-1.71521E-003,-6.69513E-002,1.00000E+000,14
759,1317,-9.07731E+000,-1.13667E+000,1.26211E-001,2.26701E+000,-4.37656E-001,1.50294E-001,2.31376E+000,1.19865E-002,5.58912E-001,0,3.48049E+001,-7.44585E+000,9.99377E-001,-9.06277E+000,-4.50617E+001,9.98893E-001,8.98605E-002,-3.74288E-002,-1.98412E-004,8.98608E-002,-3.74291E-002,-8.93094E-002,9.02773E-002,1.09402E+000,-2.17092E-003,0.00000E+000,1.52982E-003,9.65417E-001,0.00000E+000,-9.20198E-005,-6.69269E-002,1.00000E+000,14
749,1317,-9.77686E+000,-1.14023E+000,1.39010E-001,2.20980E+000,-4.37957E-001,1.51506E-001,2.25787E+000,9.05602E-003,5.83000E-001,0,3.39391E+001,-7.45262E+000,9.99335E-001,-9.76341E+000,-4.52269E+001,9.98620E-001,8.93294E-002,-3.72746E-002,-3.17878E-004,8.93302E-002,-3.72754E-002,-1.43857E-001,8.97368E-002,1.09344E+000,-1.79670E-003,0.00000E+000,9.60462E-004,9.65508E-001,0.00000E+000,7.88948E-005,-6.60113E-002,1.00000E+000,14
749,1327,-9.77205E+000,-5.32240E-001,5.58753E-002,2.20918E+000,-4.64638E-001,1.02094E-001,2.25982E+000,6.46772E-003,5.70457E-001,0,3.40816E+001,-7.77289E+000,9.99205E-001,-9.77522E+000,-4.56939E+001,9.99015E-001,8.91196E-002,-3.72770E-002,-4.40372E-004,8.91211E-002,-3.72785E-002,-1.99618E-001,8.95169E-002,1.09321E+000,-1.79865E-003,0.00000E+000,7.69684E-004,9.65506E-001,0.00000E+000,-6.11603E-004,-6.60172E-002,1.00000E+000,14
749,1337,-9.76094E+000,8.80134E-002,1.66091E-002,2.20842E+000,-4.84742E-001,6.26309E-002,2.26186E+000,6.41604E-003,5.91743E-001,0,3.41875E+001,-8.01769E+000,9.99202E-001,-9.57348E+000,-4.60492E+001,9.99076E-001,8.89080E-002,-3.72818E-002,-5.64672E-004,8.89105E-002,-3.72843E-002,-2.56379E-001,8.92952E-002,1.09298E+000,-1.80292E-003,0.00000E+000,5.77739E-004,9.65503E-001,0.00000E+000,-1.30632E-003,-6.60301E-002,1.00000E+000,14
749,1347,-9.74508E+000,7.09484E-001,1.68172E-004,2.20788E+000,-5.06659E-001,2.21082E-002,2.26538E+000,6.84357E-003,5.53674E-001,0,3.42986E+001,-8.26739E+000,9.99279E-001,-9.23887E+000,-4.64662E+001,9.99136E-001,8.86952E-002,-3.72883E-002,-6.90061E-004,8.86990E-002,-3.72921E-002,-3.13819E-001,8.90725E-002,1.09275E+000,-1.80879E-003,0.00000E+000,3.85264E-004,9.65498E-001,0.00000E+000,-2.00296E-003,-6.60478E-002,1.00000E+000,14
1109,1297,1.59907E+001,-1.90998E+000,1.16784E-001,4.51791E+000,-1.21134E-001,6.56461E-002,4.52001E+000,8.17197E-003,4.71866E-001,0,6.80900E+001,-2.57491E+000,9.99128E-001,2.81535E+001,-3.37977E+001,9.97337E-001,8.96092E-002,-3.74330E-002,-1.38466E-003,8.96243E-002,-3.74481E-002,-6.24382E-001,9.00267E-002,1.09354E+000,-2.19096E-002,0.00000E+000,1.64050E-002,9.64690E-001,0.00000E+000,3.36713E-003,-5.71534E-002,1.00000E+000,14
1109,1307,1.59851E+001,-1.29259E+000,4.21067E-002,4.50579E+000,-1.45541E-001,2.98668E-002,4.50823E+000,9.19933E-003,4.32839E-001,0,6.80467E+001,-2.88523E+000,9.99299E-001,2.80093E+001,-3.40874E+001,9.98403E-001,9.02645E-002,-3.74328E-002,-1.37213E-003,9.02792E-002,-3.74475E-002,-6.15561E-001,9.07151E-002,1.09425E+000,-2.19022E-002,0.00000E+000,1.64417E-002,9.64690E-001,0.00000E+000,2.79038E-003,-5.71594E-002,1.00000E+000,14
1109,1317,1.59814E+001,-6.73169E-001,-1.78990E-002,4.49170E+000,-1.70539E-001,-6.81857E-003,4.49494E+000,9.68659E-003,4.59869E-001,0,6.79749E+001,-3.22926E+000,9.99104E-001,2.79194E+001,-3.43443E+001,9.98184E-001,9.09208E-002,-3.74326E-002,-1.35772E-003,9.09351E-002,-3.74469E-002,-6.05983E-001,9.14055E-002,1.09497E+000,-2.18907E-002,0.00000E+000,1.64785E-002,9.64691E-001,0.00000E+000,2.21201E-003,-5.71686E-002,1.00000E+000,14
749,1357,-9.72107E+000,1.33766E+000,2.76404E-002,2.20786E+000,-5.28569E-001,-1.45339E-002,2.27030E+000,8.25327E-003,5.53626E-001,0,3.44029E+001,-8.53569E+000,9.99302E-001,-8.66388E+000,-4.68594E+001,9.99095E-001,8.84803E-002,-3.72977E-002,-8.17596E-004,8.84856E-002,-3.73030E-002,-3.72419E-001,8.88478E-002,1.09252E+000,-1.81740E-003,0.00000E+000,1.91415E-004,9.65491E-001,0.00000E+000,-2.70457E-003,-6.60737E-002,1.00000E+000,14
1109,1327,1.59811E+001,-5.25931E-002,-6.01572E-002,4.47612E+000,-1.97357E-001,-4.55116E-002,4.48070E+000,8.44388E-003,4.61600E-001,0,6.78858E+001,-3.58311E+000,9.98841E-001,2.79126E+001,-3.46350E+001,9.97811E-001,9.15782E-002,-3.74323E-002,-1.34092E-003,9.15922E-002,-3.74462E-002,-5.95439E-001,9.20982E-002,1.09569E+000,-2.18740E-002,0.00000E+000,1.65154E-002,9.64692E-001,0.00000E+000,1.63188E-003,-5.71821E-002,1.00000E+000,14
1109,1337,1.59874E+001,5.77951E-001,-7.66587E-002,4.46188E+000,-2.18569E-001,-8.02334E-002,4.46795E+000,8.98168E-003,4.81787E-001,0,6.77962E+001,-3.85212E+000,9.99284E-001,2.80558E+001,-3.48197E+001,9.98775E-001,9.22381E-002,-3.74320E-002,-1.32147E-003,9.22516E-002,-3.74455E-002,-5.83821E-001,9.27945E-002,1.09641E+000,-2.18515E-002,0.00000E+000,1.65525E-002,9.64693E-001,0.00000E+000,1.04884E-003,-5.72003E-002,1.00000E+000,14
1109,1347,1.60055E+001,1.21239E+000,-4.85466E-002,4.44991E+000,-2.41001E-001,-1.08939E-001,4.45777E+000,9.26135E-003,4.75552E-001,0,6.77125E+001,-4.15220E+000,9.99300E-001,2.84593E+001,-3.50578E+001,9.98453E-001,9.29002E-002,-3.74316E-002,-1.29738E-003,9.29131E-002,-3.74445E-002,-5.70271E-001,9.34940E-002,1.09714E+000,-2.18187E-002,0.00000E+000,1.65898E-002,9.64695E-001,0.00000E+000,4.62985E-004,-5.72267E-002,1.00000E+000,14
739,1337,-1.04635E+001,7.89145E-002,1.83909E-002,2.14994E+000,-4.88080E-001,6.27409E-002,2.20554E+000,7.51272E-003,5.72944E-001,0,3.33039E+001,-8.05774E+000,9.99115E-001,-1.03441E+001,-4.63017E+001,9.98845E-001,8.80984E-002,-3.70120E-002,-6.45854E-004,8.81017E-002,-3.70153E-002,-2.95766E-001,8.84755E-002,1.09210E+000,-1.48161E-003,0.00000E+000,1.35698E-004,9.65725E-001,0.00000E+000,-1.25797E-003,-6.54223E-002,1.00000E+000,14
739,1347,-1.04505E+001,7.01647E-001,2.19536E-003,2.14696E+000,-5.08413E-001,2.40461E-002,2.20646E+000,5.52365E-003,5.51591E-001,0,3.33706E+001,-8.29282E+000,9.99580E-001,-1.00518E+001,-4.66937E+001,9.99450E-001,8.77412E-002,-3.70177E-002,-7.63038E-004,8.77458E-002,-3.70224E-002,-3.50410E-001,8.81017E-002,1.09171E+000,-1.49121E-003,0.00000E+000,-3.96745E-005,9.65721E-001,0.00000E+000,-1.92708E-003,-6.54389E-002,1.00000E+000,14
739,1357,-1.04274E+001,1.33115E+000,2.87824E-002,2.14661E+000,-5.28354E-001,-1.15220E-002,2.21071E+000,6.15233E-003,5.42897E-001,0,3.34656E+001,-8.53039E+000,9.99407E-001,-9.49067E+000,-4.70709E+001,9.99328E-001,8.73810E-002,-3.70260E-002,-8.83048E-004,8.73872E-002,-3.70323E-002,-4.06662E-001,8.77251E-002,1.09132E+000,-1.50530E-003,0.00000E+000,-2.16213E-004,9.65714E-001,0.00000E+000,-2.60065E-003,-6.54631E-002,1.00000E+000,14
739,1327,-1.04749E+001,-5.37860E-001,6.00426E-002,2.15023E+000,-4.64473E-001,1.04406E-001,2.20230E+000,7.53455E-003,5.30396E-001,0,3.31841E+001,-7.75671E+000,9.99513E-001,-1.05444E+001,-4.59068E+001,9.99226E-001,8.84542E-002,-3.70077E-002,-5.30103E-004,8.84565E-002,-3.70099E-002,-2.42081E-001,8.88483E-002,1.09248E+000,-1.47453E-003,0.00000E+000,3.10663E-004,9.65728E-001,0.00000E+000,-5.90406E-004,-6.54102E-002,1.00000E+000,14
1119,1297,1.67067E+001,-1.89551E+000,1.05897E-001,4.57740E+000,-1.09791E-001,6.99164E-002,4.57925E+000,8.52941E-003,4.37470E-001,0,6.89175E+001,-2.40366E+000,9.99498E-001,2.92749E+001,-3.34798E+001,9.98761E-001,8.98754E-002,-3.72940E-002,-1.51731E-003,8.98935E-002,-3.73121E-002,-6.83489E-001,9.03248E-002,1.09385E+000,-2.10762E-002,0.00000E+000,1.54086E-002,9.64877E-001,0.00000E+000,3.39883E-003,-5.78103E-002,1.00000E+000,14
1119,1307,1.67030E+001,-1.27881E+000,3.43792E-002,4.56560E+000,-1.36007E-001,3.16514E-002,4.56774E+000,7.10661E-003,4.32101E-001,0,6.88893E+001,-2.75200E+000,9.99456E-001,2.91637E+001,-3.37682E+001,9.99316E-001,9.05122E-002,-3.72917E-002,-1.46973E-003,9.05291E-002,-3.73086E-002,-6.58777E-001,9.09941E-002,1.09454E+000,-2.10675E-002,0.00000E+000,1.55193E-002,9.64879E-001,0.00000E+000,2.70961E-003,-5.78189E-002,1.00000E+000,14
1119,1317,1.67025E+001,-6.58690E-001,-2.18942E-002,4.55394E+000,-1.60551E-001,-4.43869E-003,4.55677E+000,7.44867E-003,4.37646E-001,0,6.88521E+001,-3.08688E+000,9.99171E-001,2.91310E+001,-3.40308E+001,9.99185E-001,9.11492E-002,-3.72890E-002,-1.42057E-003,9.11649E-002,-3.73047E-002,-6.33608E-001,9.16646E-002,1.09524E+000,-2.10555E-002,0.00000E+000,1.56302E-002,9.64881E-001,0.00000E+000,2.01922E-003,-5.78309E-002,1.00000E+000,14
1119,1327,1.67037E+001,-3.60231E-002,-6.03100E-002,4.53901E+000,-1.85718E-001,-4.23571E-002,4.54301E+000,7.08424E-003,4.31051E-001,0,6.87697E+001,-3.41692E+000,9.99119E-001,2.91539E+001,-3.42998E+001,9.98934E-001,9.17874E-002,-3.72858E-002,-1.36899E-003,9.18019E-002,-3.73003E-002,-6.07607E-001,9.23375E-002,1.09593E+000,-2.10384E-002,0.00000E+000,1.57415E-002,9.64883E-001,0.00000E+000,1.32649E-003,-5.78479E-002,1.00000E+000,14
1119,1337,1.67110E+001,5.91664E-001,-7.48925E-002,4.52491E+000,-2.10716E-001,-7.77296E-002,4.53048E+000,6.61235E-003,4.79793E-001,0,6.86864E+001,-3.75238E+000,9.99594E-001,2.93131E+001,-3.45171E+001,9.98988E-001,9.24283E-002,-3.72819E-002,-1.31468E-003,9.24416E-002,-3.72952E-002,-5.80645E-001,9.30144E-002,1.09664E+000,-2.10157E-002,0.00000E+000,1.58534E-002,9.64887E-001,0.00000E+000,6.29717E-004,-5.78704E-002,1.00000E+000,14
1119,1347,1.67271E+001,1.22575E+000,-4.91004E-002,4.51156E+000,-2.32839E-001,-1.05844E-001,4.51881E+000,9.93762E-003,4.61015E-001,0,6.85806E+001,-4.05025E+000,9.99503E-001,2.96807E+001,-3.47607E+001,9.98881E-001,9.30700E-002,-3.72771E-002,-1.25645E-003,9.30821E-002,-3.72892E-002,-5.52220E-001,9.36931E-002,1.09734E+000,-2.09846E-002,0.00000E+000,1.59657E-002,9.64892E-001,0.00000E+000,-6.90524E-005,-5.79013E-002,1.00000E+000,14
739,1317,-1.04780E+001,-1.14450E+000,1.39146E-001,2.15216E+000,-4.37188E-001,1.48283E-001,2.20112E+000,9.27053E-003,5.58940E-001,0,3.30791E+001,-7.41834E+000,9.99458E-001,-1.05171E+001,-4.54004E+001,9.98941E-001,8.88069E-002,-3.70057E-002,-4.16990E-004,8.88083E-002,-3.70071E-002,-1.89897E-001,8.92181E-002,1.09287E+000,-1.47145E-003,0.00000E+000,4.84376E-004,9.65730E-001,0.00000E+000,7.23822E-005,-6.54049E-002,1.00000E+000,14
1129,1297,1.74231E+001,-1.87753E+000,9.80531E-002,4.63558E+000,-9.54969E-002,7.24223E-002,4.63713E+000,9.94444E-003,4.08575E-001,0,6.97285E+001,-2.18793E+000,9.99651E-001,3.04108E+001,-3.31112E+001,9.98594E-001,8.99965E-002,-3.72619E-002,-1.66268E-003,9.00182E-002,-3.72836E-002,-7.48423E-001,9.04592E-002,1.09399E+000,-2.02497E-002,0.00000E+000,1.44379E-002,9.64940E-001,0.00000E+000,2.68876E-003,-5.80807E-002,1.00000E+000,14
1129,1307,1.74193E+001,-1.26625E+000,2.27565E-002,4.62350E+000,-1.27270E-001,2.96696E-002,4.62535E+000,1.37789E-002,3.90714E-001,0,6.97164E+001,-2.60908E+000,9.99586E-001,3.02921E+001,-3.34799E+001,9.97374E-001,9.06989E-002,-3.72575E-002,-1.57809E-003,9.07183E-002,-3.72769E-002,-7.06487E-001,9.11971E-002,1.09476E+000,-2.02399E-002,0.00000E+000,1.46183E-002,9.64942E-001,0.00000E+000,2.00554E-003,-5.80895E-002,1.00000E+000,14
1129,1317,1.74224E+001,-6.47826E-001,-3.36054E-002,4.61487E+000,-1.53932E-001,-8.08437E-003,4.61745E+000,8.09642E-003,3.97344E-001,0,6.97326E+001,-2.97462E+000,9.99594E-001,3.03133E+001,-3.37659E+001,9.97786E-001,9.14016E-002,-3.72522E-002,-1.49155E-003,9.14189E-002,-3.72695E-002,-6.64141E-001,9.19369E-002,1.09553E+000,-2.02260E-002,0.00000E+000,1.47990E-002,9.64945E-001,0.00000E+000,1.32090E-003,-5.81018E-002,1.00000E+000,14
729,1347,-1.11473E+001,6.91266E-001,9.04019E-003,2.09300E+000,-5.14132E-001,2.46742E-002,2.15536E+000,5.00420E-003,5.60483E-001,0,3.25540E+001,-8.37575E+000,9.99736E-001,-1.07172E+001,-4.69644E+001,9.99650E-001,8.67583E-002,-3.67282E-002,-6.57439E-004,8.67618E-002,-3.67317E-002,-3.05030E-001,8.71009E-002,1.09064E+000,-7.99404E-004,0.00000E+000,-4.44233E-004,9.65946E-001,0.00000E+000,-1.95423E-003,-6.45699E-002,1.00000E+000,14
729,1357,-1.11284E+001,1.32476E+000,2.91606E-002,2.08988E+000,-5.29139E-001,-1.12574E-002,2.15586E+000,5.90801E-003,5.56430E-001,0,3.26056E+001,-8.53463E+000,9.99482E-001,-1.02334E+001,-4.72661E+001,9.99544E-001,8.61870E-002,-3.67339E-002,-7.51108E-004,8.61916E-002,-3.67385E-002,-3.50088E-001,8.65037E-002,1.09001E+000,-8.20455E-004,0.00000E+000,-5.54208E-004,9.65942E-001,0.00000E+000,-2.79104E-003,-6.45983E-002,1.00000E+000,14
1129,1327,1.74266E+001,-2.18831E-002,-6.54168E-002,4.60347E+000,-1.75179E-001,-3.71872E-002,4.60696E+000,8.96191E-003,3.99578E-001,0,6.96692E+001,-3.27714E+000,9.99519E-001,3.03950E+001,-3.39921E+001,9.98779E-001,9.21048E-002,-3.72461E-002,-1.40283E-003,9.21200E-002,-3.72613E-002,-6.21284E-001,9.26786E-002,1.09630E+000,-2.02076E-002,0.00000E+000,1.49801E-002,9.64950E-001,0.00000E+000,6.34833E-004,-5.81182E-002,1.00000E+000,14
729,1337,-1.11660E+001,7.33720E-002,2.28637E-002,2.09133E+000,-4.87671E-001,6.72475E-002,2.14849E+000,6.72598E-003,5.53497E-001,0,3.24032E+001,-8.04818E+000,9.99423E-001,-1.11030E+001,-4.65058E+001,9.99074E-001,8.73262E-002,-3.67237E-002,-5.66373E-004,8.73288E-002,-3.67263E-002,-2.61587E-001,8.76955E-002,1.09125E+000,-7.83197E-004,0.00000E+000,-3.34717E-004,9.65949E-001,0.00000E+000,-1.12091E-003,-6.45480E-002,1.00000E+000,14
729,1327,-1.11768E+001,-5.41467E-001,6.51859E-002,2.09128E+000,-4.64080E-001,1.04984E-001,2.14472E+000,7.40293E-003,5.38137E-001,0,3.22901E+001,-7.73578E+000,9.99335E-001,-1.12918E+001,-4.60670E+001,9.98881E-001,8.78894E-002,-3.67209E-002,-4.78587E-004,8.78912E-002,-3.67228E-002,-2.20050E-001,8.82860E-002,1.09187E+000,-7.72929E-004,0.00000E+000,-2.25909E-004,9.65950E-001,0.00000E+000,-2.92980E-004,-6.45342E-002,1.00000E+000,14
1129,1337,1.74416E+001,6.09771E-001,-6.05978E-002,4.59106E+000,-2.01153E-001,-7.66922E-002,4.59611E+000,8.78402E-003,4.87551E-001,0,6.96247E+001,-3.61892E+000,9.99478E-001,3.07059E+001,-3.41686E+001,9.99109E-001,9.28157E-002,-3.72374E-002,-1.30700E-003,9.28288E-002,-3.72505E-002,-5.75729E-001,9.34299E-002,1.09708E+000,-2.01757E-002,0.00000E+000,1.51635E-002,9.64957E-001,0.00000E+000,-5.98796E-005,-5.81467E-002,1.00000E+000,14
729,1317,-1.11826E+001,-1.15061E+000,1.34329E-001,2.09191E+000,-4.37766E-001,1.46491E-001,2.14224E+000,8.91547E-003,5.63285E-001,0,3.21738E+001,-7.41590E+000,9.99372E-001,-1.13320E+001,-4.55780E+001,9.98411E-001,8.84500E-002,-3.67192E-002,-3.92905E-004,8.84512E-002,-3.67204E-002,-1.79849E-001,8.88748E-002,1.09248E+000,-7.66736E-004,0.00000E+000,-1.17399E-004,9.65952E-001,0.00000E+000,5.32681E-004,-6.45258E-002,1.00000E+000,14
1129,1347,1.74526E+001,1.24492E+000,-4.89672E-002,4.57520E+000,-2.20912E-001,-1.07367E-001,4.58179E+000,1.06593E-002,4.84111E-001,0,6.94923E+001,-3.88001E+000,9.99369E-001,3.09665E+001,-3.43558E+001,9.98733E-001,9.35227E-002,-3.72287E-002,-1.21185E-003,9.35339E-002,-3.72399E-002,-5.30979E-001,9.41786E-002,1.09785E+000,-2.01444E-002,0.00000E+000,1.53462E-002,9.64964E-001,0.00000E+000,-7.51811E-004,-5.81746E-002,1.00000E+000,14
719,1347,-1.18513E+001,6.89997E-001,9.47771E-003,2.03296E+000,-5.09262E-001,2.66069E-002,2.09595E+000,8.53611E-003,5.86532E-001,0,3.16355E+001,-8.31001E+000,9.99366E-001,-1.15025E+001,-4.70735E+001,9.99250E-001,8.60550E-002,-3.65793E-002,-6.13900E-004,8.60580E-002,-3.65824E-002,-2.86809E-001,8.63794E-002,1.08987E+000,-4.06845E-005,0.00000E+000,-1.04415E-003,9.66028E-001,0.00000E+000,-1.74252E-003,-6.35859E-002,1.00000E+000,14
719,1357,-1.18324E+001,1.31753E+000,3.01565E-002,2.03017E+000,-5.30521E-001,-7.92949E-003,2.09836E+000,6.86452E-003,5.76345E-001,0,3.16895E+001,-8.55650E+000,9.99389E-001,-1.10165E+001,-4.74730E+001,9.99446E-001,8.52911E-002,-3.65823E-002,-6.71652E-004,8.52949E-002,-3.65860E-002,-3.15748E-001,8.55815E-002,1.08904E+000,-6.83505E-005,0.00000E+000,-1.06862E-003,9.66028E-001,0.00000E+000,-2.76524E-003,-6.36200E-002,1.00000E+000,14
719,1337,-1.18685E+001,7.05959E-002,2.20066E-002,2.03189E+000,-4.85520E-001,6.36283E-002,2.09006E+000,9.02387E-003,5.91517E-001,0,3.15115E+001,-8.01286E+000,9.98982E-001,-1.18695E+001,-4.66273E+001,9.98462E-001,8.68124E-002,-3.65771E-002,-5.59795E-004,8.68150E-002,-3.65797E-002,-2.59933E-001,8.71722E-002,1.09069E+000,-2.02661E-005,0.00000E+000,-1.01983E-003,9.66029E-001,0.00000E+000,-7.26163E-004,-6.35607E-002,1.00000E+000,14
719,1327,-1.18780E+001,-5.43370E-001,6.82716E-002,2.03263E+000,-4.61597E-001,1.03652E-001,2.08696E+000,6.47745E-003,5.79352E-001,0,3.14045E+001,-7.70086E+000,9.98945E-001,-1.20296E+001,-4.61800E+001,9.98606E-001,8.75640E-002,-3.65757E-002,-5.09284E-004,8.75661E-002,-3.65778E-002,-2.35051E-001,8.79604E-002,1.09151E+000,-7.08626E-006,0.00000E+000,-9.95655E-004,9.66029E-001,0.00000E+000,2.84452E-004,-6.35444E-002,1.00000E+000,14
719,1317,-1.18843E+001,-1.15267E+000,1.44639E-001,2.03169E+000,-4.35983E-001,1.46610E-001,2.08311E+000,8.51120E-003,5.69645E-001,0,3.12604E+001,-7.38500E+000,9.99023E-001,-1.20571E+001,-4.57243E+001,9.98302E-001,8.83122E-002,-3.65750E-002,-4.61796E-004,8.83139E-002,-3.65767E-002,-2.11859E-001,8.87466E-002,1.09233E+000,-2.53535E-007,0.00000E+000,-9.71536E-004,9.66030E-001,0.00000E+000,1.29263E-003,-6.35360E-002,1.00000E+000,14
1139,1297,1.81515E+001,-1.86683E+000,9.94323E-002,4.70388E+000,-8.81487E-002,7.83119E-002,4.70536E+000,7.26872E-003,3.47936E-001,0,7.06790E+001,-2.09001E+000,9.99796E-001,3.17521E+001,-3.28896E+001,9.98735E-001,9.01293E-002,-3.73344E-002,-1.75609E-003,9.01535E-002,-3.73586E-002,-7.89175E-001,9.05930E-002,1.09415E+000,-1.93897E-002,0.00000E+000,1.35590E-002,9.64904E-001,0.00000E+000,1.58466E-003,-5.84318E-002,1.00000E+000,14
1139,1307,1.81459E+001,-1.25687E+000,1.38458E-002,4.69110E+000,-1.21299E-001,3.00089E-002,4.69277E+000,8.73245E-003,3.42412E-001,0,7.06801E+001,-2.51931E+000,9.99699E-001,3.15881E+001,-3.32493E+001,9.98642E-001,9.09210E-002,-3.73295E-002,-1.65641E-003,9.09423E-002,-3.73509E-002,-7.39837E-001,9.14244E-002,1.09502E+000,-1.93800E-002,0.00000E+000,1.37639E-002,9.64906E-001,0.00000E+000,9.72204E-004,-5.84387E-002,1.00000E+000,14
1139,1337,1.81643E+001,6.29525E-001,-6.35816E-002,4.65253E+000,-1.87328E-001,-7.76675E-002,4.65694E+000,9.79260E-003,4.94714E-001,0,7.04991E+001,-3.42093E+000,9.99321E-001,3.19486E+001,-3.37578E+001,9.98185E-001,9.33091E-002,-3.73053E-002,-1.33425E-003,9.33227E-002,-3.73189E-002,-5.85207E-001,9.39442E-002,1.09763E+000,-1.93046E-002,0.00000E+000,1.43837E-002,9.64924E-001,0.00000E+000,-8.80747E-004,-5.84921E-002,1.00000E+000,14
1139,1347,1.81847E+001,1.26225E+000,-3.71075E-002,4.64176E+000,-2.12672E-001,-1.09977E-001,4.64793E+000,9.99176E-003,4.95936E-001,0,7.04498E+001,-3.76009E+000,9.99246E-001,3.23780E+001,-3.40107E+001,9.97868E-001,9.41089E-002,-3.72939E-002,-1.21910E-003,9.41202E-002,-3.73052E-002,-5.31504E-001,9.47919E-002,1.09851E+000,-1.92636E-002,0.00000E+000,1.45919E-002,9.64933E-001,0.00000E+000,-1.50311E-003,-5.85211E-002,1.00000E+000,14
1139,1327,1.81520E+001,-6.29987E-003,-7.05422E-002,4.66761E+000,-1.67060E-001,-4.11478E-002,4.67078E+000,1.00971E-002,4.50018E-001,0,7.05967E+001,-3.15654E+000,9.99420E-001,3.16779E+001,-3.36208E+001,9.97709E-001,9.25097E-002,-3.73156E-002,-1.44706E-003,9.25258E-002,-3.73317E-002,-6.38523E-001,9.30988E-002,1.09676E+000,-1.93406E-002,0.00000E+000,1.41759E-002,9.64915E-001,0.00000E+000,-2.59570E-004,-5.84666E-002,1.00000E+000,14
1139,1317,1.81415E+001,-6.36767E-001,-4.91149E-002,4.67599E+000,-1.46596E-001,-9.89030E-003,4.67830E+000,1.00325E-002,4.07080E-001,0,7.06081E+001,-2.87609E+000,9.99705E-001,3.14814E+001,-3.34651E+001,9.98180E-001,9.17135E-002,-3.73237E-002,-1.55443E-003,9.17322E-002,-3.73424E-002,-6.90075E-001,9.22587E-002,1.09588E+000,-1.93657E-002,0.00000E+000,1.39693E-002,9.64909E-001,0.00000E+000,3.58207E-004,-5.84488E-002,1.00000E+000,14
709,1347,-1.25580E+001,6.88585E-001,7.09792E-003,1.96994E+000,-5.04449E-001,2.60822E-002,2.03367E+000,7.76032E-003,5.78735E-001,0,3.06769E+001,-8.22269E+000,9.99335E-001,-1.23310E+001,-4.71961E+001,9.99184E-001,8.53797E-002,-3.60307E-002,-6.70708E-004,8.53834E-002,-3.60344E-002,-3.16506E-001,8.57287E-002,1.08913E+000,7.85684E-004,0.00000E+000,-1.89589E-003,9.66510E-001,0.00000E+000,-1.58326E-003,-6.28031E-002,1.00000E+000,14
709,1357,-1.25369E+001,1.31474E+000,2.48053E-002,1.97005E+000,-5.25522E-001,-8.38769E-003,2.03895E+000,6.93652E-003,5.55608E-001,0,3.07750E+001,-8.47398E+000,9.99482E-001,-1.18188E+001,-4.76180E+001,9.99471E-001,8.44858E-002,-3.60342E-002,-7.41226E-004,8.44904E-002,-3.60387E-002,-3.52365E-001,8.47938E-002,1.08816E+000,7.54463E-004,0.00000E+000,-1.94317E-003,9.66508E-001,0.00000E+000,-2.60807E-003,-6.28360E-002,1.00000E+000,14
709,1337,-1.25683E+001,6.56063E-002,2.82799E-002,1.97403E+000,-4.85613E-001,6.37524E-002,2.03388E+000,7.33030E-003,5.78267E-001,0,3.06325E+001,-8.00257E+000,9.99171E-001,-1.25728E+001,-4.68237E+001,9.98844E-001,8.62668E-002,-3.60283E-002,-6.05007E-004,8.62698E-002,-3.60313E-002,-2.83439E-001,8.66589E-002,1.09010E+000,8.07173E-004,0.00000E+000,-1.84887E-003,9.66511E-001,0.00000E+000,-5.64044E-004,-6.27804E-002,1.00000E+000,14
709,1317,-1.25814E+001,-1.15255E+000,1.63676E-001,1.97485E+000,-4.32970E-001,1.50944E-001,2.02739E+000,9.07028E-003,5.89675E-001,0,3.03854E+001,-7.34696E+000,9.99347E-001,-1.26829E+001,-4.58483E+001,9.98971E-001,8.80238E-002,-3.60261E-002,-4.84550E-004,8.80257E-002,-3.60280E-002,-2.23798E-001,8.85072E-002,1.09202E+000,8.28016E-004,0.00000E+000,-1.75545E-003,9.66512E-001,0.00000E+000,1.46084E-003,-6.27584E-002,1.00000E+000,14
709,1327,-1.25742E+001,-5.44908E-001,8.50806E-002,1.97630E+000,-4.59849E-001,1.03016E-001,2.03171E+000,1.02194E-002,5.86853E-001,0,3.05511E+001,-7.67436E+000,9.99324E-001,-1.26475E+001,-4.63331E+001,9.98823E-001,8.71469E-002,-3.60270E-002,-5.43911E-004,8.71493E-002,-3.60294E-002,-2.53000E-001,8.75838E-002,1.09106E+000,8.19369E-004,0.00000E+000,-1.80212E-003,9.66511E-001,0.00000E+000,4.49246E-004,-6.27675E-002,1.00000E+000,14
1149,1297,1.88717E+001,-1.85500E+000,8.97762E-002,4.76557E+000,-8.10621E-002,8.11144E-002,4.76694E+000,1.55815E-002,3.86407E-001,0,7.15412E+001,-1.99967E+000,9.99441E-001,3.29526E+001,-3.25787E+001,9.96894E-001,9.02950E-002,-3.73822E-002,-1.81450E-003,9.03207E-002,-3.74079E-002,-8.14047E-001,9.07633E-002,1.09434E+000,-1.85526E-002,0.00000E+000,1.27819E-002,9.64893E-001,0.00000E+000,2.43367E-004,-5.88560E-002,1.00000E+000,14
1149,1307,1.88736E+001,-1.23621E+000,1.68200E-002,4.75892E+000,-1.05378E-001,4.04304E-002,4.76026E+000,9.95368E-003,3.84116E-001,0,7.16018E+001,-2.32659E+000,9.99587E-001,3.29263E+001,-3.28243E+001,9.98168E-001,9.11624E-002,-3.73781E-002,-1.73087E-003,9.11857E-002,-3.74014E-002,-7.71332E-001,9.16750E-002,1.09529E+000,-1.85401E-002,0.00000E+000,1.29479E-002,9.64895E-001,0.00000E+000,-2.80022E-004,-5.88629E-002,1.00000E+000,14
1149,1317,1.88726E+001,-6.17148E-001,-4.22742E-002,4.74500E+000,-1.33445E-001,-4.24447E-003,4.74688E+000,8.69535E-003,4.31949E-001,0,7.15669E+001,-2.70396E+000,9.99606E-001,3.28795E+001,-3.30711E+001,9.98093E-001,9.20330E-002,-3.73730E-002,-1.64395E-003,9.20539E-002,-3.73939E-002,-7.27719E-001,9.25921E-002,1.09625E+000,-1.85211E-002,0.00000E+000,1.31147E-002,9.64899E-001,0.00000E+000,-8.06018E-004,-5.88733E-002,1.00000E+000,14
1149,1327,1.88764E+001,1.08080E-002,-7.46461E-002,4.73132E+000,-1.53528E-001,-3.99669E-002,4.73398E+000,8.81395E-003,3.98613E-001,0,7.14948E+001,-2.96441E+000,9.99485E-001,3.29504E+001,-3.32794E+001,9.97855E-001,9.29026E-002,-3.73670E-002,-1.55421E-003,9.29212E-002,-3.73855E-002,-6.83452E-001,9.35102E-002,1.09720E+000,-1.84958E-002,0.00000E+000,1.32815E-002,9.64903E-001,0.00000E+000,-1.33209E-003,-5.88873E-002,1.00000E+000,14
1149,1337,1.88886E+001,6.41484E-001,-7.30025E-002,4.71769E+000,-1.80292E-001,-7.50992E-002,4.72174E+000,1.34741E-002,4.88329E-001,0,7.14183E+001,-3.32239E+000,9.99484E-001,3.32100E+001,-3.34603E+001,9.98472E-001,9.37816E-002,-3.73591E-002,-1.45806E-003,9.37978E-002,-3.73753E-002,-6.36926E-001,9.44402E-002,1.09817E+000,-1.84583E-002,0.00000E+000,1.34504E-002,9.64910E-001,0.00000E+000,-1.86455E-003,-5.89080E-002,1.00000E+000,14
1149,1347,1.89153E+001,1.27752E+000,-3.43455E-002,4.70915E+000,-2.05461E-001,-1.10329E-001,4.71492E+000,1.29619E-002,4.91597E-001,0,7.14117E+001,-3.64358E+000,9.99518E-001,3.37546E+001,-3.36856E+001,9.98229E-001,9.46620E-002,-3.73492E-002,-1.35573E-003,9.46760E-002,-3.73632E-002,-5.88335E-001,9.53740E-002,1.09914E+000,-1.84075E-002,0.00000E+000,1.36197E-002,9.64919E-001,0.00000E+000,-2.39868E-003,-5.89360E-002,1.00000E+000,14
699,1347,-1.32519E+001,6.85503E-001,1.58943E-002,1.91781E+000,-5.03766E-001,2.89944E-002,1.98308E+000,7.33967E-003,6.01945E-001,0,2.98766E+001,-8.20439E+000,9.99559E-001,-1.29303E+001,-4.73517E+001,9.99488E-001,8.46282E-002,-3.54240E-002,-5.92436E-004,8.46311E-002,-3.54269E-002,-2.82735E-001,8.50041E-002,1.08831E+000,1.88213E-003,0.00000E+000,-2.73130E-003,9.67030E-001,0.00000E+000,-1.36404E-003,-6.17343E-002,1.00000E+000,14
699,1357,-1.32335E+001,1.30702E+000,2.76551E-002,1.91568E+000,-5.29001E-001,-9.68587E-003,1.98740E+000,7.27223E-003,5.68134E-001,0,2.99530E+001,-8.50549E+000,9.99514E-001,-1.24753E+001,-4.78396E+001,9.99368E-001,8.36352E-002,-3.54243E-002,-6.12477E-004,8.36383E-002,-3.54275E-002,-2.94736E-001,8.39633E-002,1.08723E+000,1.84831E-003,0.00000E+000,-2.68702E-003,9.67031E-001,0.00000E+000,-2.28278E-003,-6.17631E-002,1.00000E+000,14
699,1337,-1.32691E+001,5.93601E-002,3.36623E-002,1.91502E+000,-4.86934E-001,6.42731E-002,1.97700E+000,6.21390E-003,5.78742E-001,0,2.97339E+001,-8.01696E+000,9.99453E-001,-1.32893E+001,-4.70309E+001,9.99264E-001,8.56162E-002,-3.54238E-002,-5.76959E-004,8.56190E-002,-3.54265E-002,-2.73103E-001,8.60423E-002,1.08939E+000,1.90611E-003,0.00000E+000,-2.77544E-003,9.67029E-001,0.00000E+000,-4.48193E-004,-6.17139E-002,1.00000E+000,14
699,1317,-1.32827E+001,-1.15205E+000,1.77235E-001,1.91300E+000,-4.30638E-001,1.47593E-001,1.96642E+000,9.94896E-003,6.33199E-001,0,2.94537E+001,-7.30245E+000,9.99451E-001,-1.33831E+001,-4.59440E+001,9.98861E-001,8.75666E-002,-3.54236E-002,-5.59296E-004,8.75691E-002,-3.54262E-002,-2.60545E-001,8.80994E-002,1.09151E+000,1.92535E-003,0.00000E+000,-2.86280E-003,9.67028E-001,0.00000E+000,1.36466E-003,-6.16975E-002,1.00000E+000,14
699,1327,-1.32769E+001,-5.44455E-001,9.06211E-002,1.91475E+000,-4.57561E-001,1.00771E-001,1.97124E+000,8.32736E-003,6.73498E-001,0,2.96205E+001,-7.63130E+000,9.99406E-001,-1.33914E+001,-4.63930E+001,9.98147E-001,8.65905E-002,-3.54237E-002,-5.66847E-004,8.65931E-002,-3.54263E-002,-2.66174E-001,8.70687E-002,1.09045E+000,1.91854E-003,0.00000E+000,-2.81904E-003,9.67028E-001,0.00000E+000,4.56557E-004,-6.17033E-002,1.00000E+000,14
1159,1307,1.95917E+001,-1.22615E+000,3.07902E-004,4.81793E+000,-9.94090E-002,3.62466E-002,4.81909E+000,1.00828E-002,3.72992E-001,0,7.24508E+001,-2.22784E+000,9.98850E-001,3.40864E+001,-3.25495E+001,9.97692E-001,9.15114E-002,-3.75517E-002,-1.72515E-003,9.15344E-002,-3.75747E-002,-7.65673E-001,9.20219E-002,1.09569E+000,-1.77552E-002,0.00000E+000,1.23244E-002,9.64761E-001,0.00000E+000,-1.37540E-003,-5.92865E-002,1.00000E+000,14
1159,1317,1.95955E+001,-6.01140E-001,-5.44634E-002,4.80861E+000,-1.22367E-001,-4.20219E-003,4.81017E+000,9.72712E-003,4.29426E-001,0,7.24676E+001,-2.53173E+000,9.99082E-001,3.41207E+001,-3.27067E+001,9.98820E-001,9.24372E-002,-3.75505E-002,-1.69223E-003,9.24592E-002,-3.75725E-002,-7.45729E-001,9.29980E-002,1.09670E+000,-1.77348E-002,0.00000E+000,1.23876E-002,9.64762E-001,0.00000E+000,-1.93640E-003,-5.92978E-002,1.00000E+000,14
1159,1327,1.96060E+001,2.51963E-002,-7.46790E-002,4.79920E+000,-1.46785E-001,-3.71230E-002,4.80159E+000,6.70487E-003,4.35999E-001,0,7.24496E+001,-2.86814E+000,9.99600E-001,3.43157E+001,-3.29442E+001,9.99049E-001,9.33639E-002,-3.75490E-002,-1.65460E-003,9.33848E-002,-3.75699E-002,-7.24005E-001,9.39770E-002,1.09772E+000,-1.77040E-002,0.00000E+000,1.24509E-002,9.64764E-001,0.00000E+000,-2.49876E-003,-5.93148E-002,1.00000E+000,14
1159,1297,1.95902E+001,-1.84323E+000,6.80672E-002,4.82576E+000,-7.34430E-002,7.47534E-002,4.82689E+000,1.13583E-002,4.37395E-001,0,7.24154E+001,-1.89084E+000,9.99132E-001,3.41097E+001,-3.22371E+001,9.95660E-001,9.05904E-002,-3.75527E-002,-1.75529E-003,9.06144E-002,-3.75767E-002,-7.84634E-001,9.10531E-002,1.09468E+000,-1.77698E-002,0.00000E+000,1.22617E-002,9.64760E-001,0.00000E+000,-8.18093E-004,-5.92784E-002,1.00000E+000,14
1159,1337,1.96272E+001,6.55833E-001,-6.08116E-002,4.79080E+000,-1.74077E-001,-7.39233E-002,4.79453E+000,9.62369E-003,4.65928E-001,0,7.24567E+001,-3.22949E+000,9.99773E-001,3.47317E+001,-3.31799E+001,9.99531E-001,9.42971E-002,-3.75470E-002,-1.61019E-003,9.43167E-002,-3.75666E-002,-6.99606E-001,9.49648E-002,1.09875E+000,-1.76585E-002,0.00000E+000,1.25147E-002,9.64767E-001,0.00000E+000,-3.06587E-003,-5.93399E-002,1.00000E+000,14
1159,1347,1.96468E+001,1.29168E+000,-3.59232E-002,4.77780E+000,-1.96590E-001,-1.12112E-001,4.78316E+000,1.07373E-002,4.51373E-001,0,7.23962E+001,-3.51723E+000,9.99509E-001,3.51427E+001,-3.33859E+001,9.98960E-001,9.52288E-002,-3.75448E-002,-1.56374E-003,9.52472E-002,-3.75632E-002,-6.74674E-001,9.59530E-002,1.09978E+000,-1.76083E-002,0.00000E+000,1.25785E-002,9.64770E-001,0.00000E+000,-3.63287E-003,-5.93676E-002,1.00000E+000,14
689,1347,-1.39491E+001,6.78821E-001,1.90617E-002,1.86150E+000,-5.06796E-001,2.37776E-002,1.92940E+000,7.58183E-003,6.04107E-001,0,2.90348E+001,-8.21873E+000,9.99633E-001,-1.35919E+001,-4.75615E+001,9.99111E-001,8.38422E-002,-3.50783E-002,-5.66079E-004,8.38449E-002,-3.50810E-002,-2.72728E-001,8.42162E-002,1.08745E+000,2.97402E-003,0.00000E+000,-3.65564E-003,9.67303E-001,0.00000E+000,-1.29408E-003,-6.07563E-002,1.00000E+000,14
689,1357,-1.39333E+001,1.29958E+000,2.35758E-002,1.85920E+000,-5.30298E-001,-1.03897E-002,1.93338E+000,7.46334E-003,5.78838E-001,0,2.90950E+001,-8.51565E+000,9.99516E-001,-1.31936E+001,-4.80430E+001,9.99441E-001,8.27274E-002,-3.50793E-002,-6.01739E-004,8.27305E-002,-3.50824E-002,-2.92648E-001,8.30480E-002,1.08624E+000,2.94026E-003,0.00000E+000,-3.64701E-003,9.67304E-001,0.00000E+000,-2.15714E-003,-6.07804E-002,1.00000E+000,14
689,1337,-1.39643E+001,6.19699E-002,3.90600E-002,1.86162E+000,-4.79255E-001,6.65922E-002,1.92347E+000,8.32668E-003,5.79415E-001,0,2.89136E+001,-7.89402E+000,9.99522E-001,-1.39123E+001,-4.71012E+001,9.99437E-001,8.49567E-002,-3.50774E-002,-5.32812E-004,8.49591E-002,-3.50797E-002,-2.54320E-001,8.53877E-002,1.08867E+000,3.00260E-003,0.00000E+000,-3.66429E-003,9.67303E-001,0.00000E+000,-4.29665E-004,-6.07359E-002,1.00000E+000,14
1169,1327,2.03285E+001,3.74904E-002,-8.65555E-002,4.86004E+000,-1.40125E-001,-4.39827E-002,4.86226E+000,6.32870E-003,4.41845E-001,0,7.33354E+001,-2.76179E+000,9.99728E-001,3.55542E+001,-3.26322E+001,9.99383E-001,9.37276E-002,-3.77319E-002,-1.61180E-003,9.37473E-002,-3.77517E-002,-7.02351E-001,9.43372E-002,1.09814E+000,-1.68274E-002,0.00000E+000,1.18256E-002,9.64616E-001,0.00000E+000,-3.66285E-003,-5.96703E-002,1.00000E+000,14
1169,1337,2.03533E+001,6.72159E-001,-6.44652E-002,4.85322E+000,-1.63707E-001,-7.99905E-002,4.85664E+000,9.06593E-003,4.65949E-001,0,7.33611E+001,-3.08079E+000,9.99767E-001,3.60385E+001,-3.28244E+001,9.99314E-001,9.46753E-002,-3.77340E-002,-1.60012E-003,9.46947E-002,-3.77534E-002,-6.92265E-001,9.53405E-002,1.09918E+000,-1.67779E-002,0.00000E+000,1.18203E-002,9.64616E-001,0.00000E+000,-4.17620E-003,-5.96947E-002,1.00000E+000,14
1169,1347,2.03790E+001,1.30701E+000,-3.00555E-002,4.84417E+000,-1.88869E-001,-1.16146E-001,4.84924E+000,8.25869E-003,4.34642E-001,0,7.33524E+001,-3.40159E+000,9.99508E-001,3.65571E+001,-3.30731E+001,9.99196E-001,9.56236E-002,-3.77363E-002,-1.58632E-003,9.56425E-002,-3.77552E-002,-6.81407E-001,9.63462E-002,1.10023E+000,-1.67235E-002,0.00000E+000,1.18150E-002,9.64616E-001,0.00000E+000,-4.69051E-003,-5.97214E-002,1.00000E+000,14
689,1327,-1.39816E+001,-5.51113E-001,7.83631E-002,1.85392E+000,-4.56263E-001,9.76970E-002,1.91173E+000,9.15563E-003,6.42279E-001,0,2.87033E+001,-7.60004E+000,9.99240E-001,-1.42119E+001,-4.65832E+001,9.98673E-001,8.60578E-002,-3.50768E-002,-5.04618E-004,8.60599E-002,-3.50790E-002,-2.38675E-001,8.65482E-002,1.08987E+000,3.02062E-003,0.00000E+000,-3.67284E-003,9.67303E-001,0.00000E+000,4.25851E-004,-6.07231E-002,1.00000E+000,14
1169,1317,2.03180E+001,-5.91048E-001,-5.98353E-002,4.86923E+000,-1.15519E-001,-6.35483E-003,4.87060E+000,1.13080E-002,3.41008E-001,0,7.33306E+001,-2.42296E+000,9.99427E-001,3.53716E+001,-3.24919E+001,9.99262E-001,9.27829E-002,-3.77304E-002,-1.61520E-003,9.28029E-002,-3.77504E-002,-7.08931E-001,9.33390E-002,1.09710E+000,-1.68584E-002,0.00000E+000,1.18309E-002,9.64617E-001,0.00000E+000,-3.15192E-003,-5.96551E-002,1.00000E+000,14
1169,1307,2.03125E+001,-1.21420E+000,-1.28776E-002,4.87825E+000,-9.32612E-002,3.21420E-002,4.87925E+000,1.01286E-002,3.96973E-001,0,7.33173E+001,-2.12529E+000,9.99420E-001,3.52969E+001,-3.22347E+001,9.98713E-001,9.18470E-002,-3.77292E-002,-1.61518E-003,9.18671E-002,-3.77493E-002,-7.14052E-001,9.23519E-002,1.09607E+000,-1.68815E-002,0.00000E+000,1.18361E-002,9.64617E-001,0.00000E+000,-2.64640E-003,-5.96438E-002,1.00000E+000,14
1169,1297,2.03144E+001,-1.83136E+000,6.07925E-002,4.88865E+000,-6.63252E-002,7.28111E-002,4.88964E+000,9.47243E-003,4.64414E-001,0,7.33100E+001,-1.80039E+000,9.99522E-001,3.53827E+001,-3.19362E+001,9.96992E-001,9.09102E-002,-3.77283E-002,-1.61087E-003,9.09304E-002,-3.77485E-002,-7.17334E-001,9.13659E-002,1.09504E+000,-1.68950E-002,0.00000E+000,1.18413E-002,9.64617E-001,0.00000E+000,-2.14108E-003,-5.96371E-002,1.00000E+000,14
689,1317,-1.39882E+001,-1.15793E+000,1.63055E-001,1.85115E+000,-4.30372E-001,1.41897E-001,1.90581E+000,9.96620E-003,6.14271E-001,0,2.85297E+001,-7.26476E+000,9.99324E-001,-1.42205E+001,-4.61107E+001,9.98041E-001,8.71541E-002,-3.50767E-002,-4.81410E-004,8.71560E-002,-3.50786E-002,-2.25657E-001,8.77069E-002,1.09106E+000,3.02788E-003,0.00000E+000,-3.68138E-003,9.67303E-001,0.00000E+000,1.27922E-003,-6.07179E-002,1.00000E+000,14
679,1347,-1.46532E+001,6.72359E-001,1.19348E-002,1.79983E+000,-5.04827E-001,1.81780E-002,1.86937E+000,1.23604E-002,6.18990E-001,0,2.81081E+001,-8.21192E+000,9.99252E-001,-1.43821E+001,-4.77403E+001,9.98830E-001,8.30379E-002,-3.47920E-002,-6.11286E-004,8.30411E-002,-3.47952E-002,-2.97232E-001,8.34034E-002,1.08658E+000,4.07881E-003,0.00000E+000,-4.72650E-003,9.67530E-001,0.00000E+000,-1.31337E-003,-5.99708E-002,1.00000E+000,14
679,1357,-1.46290E+001,1.29453E+000,1.84453E-002,1.80744E+000,-5.28015E-001,-5.79418E-003,1.88299E+000,5.77747E-003,6.10862E-001,0,2.82937E+001,-8.49751E+000,9.99505E-001,-1.38492E+001,-4.81962E+001,9.99456E-001,8.17498E-002,-3.47957E-002,-7.12382E-004,8.17542E-002,-3.48001E-002,-3.50202E-001,8.20548E-002,1.08518E+000,4.04326E-003,0.00000E+000,-4.84412E-003,9.67527E-001,0.00000E+000,-2.19647E-003,-5.99933E-002,1.00000E+000,14
1179,1297,2.10332E+001,-1.82367E+000,4.20294E-002,4.95032E+000,-6.10327E-002,7.75037E-002,4.95130E+000,1.63312E-002,4.95851E-001,0,7.41624E+001,-1.75152E+000,9.99619E-001,3.65573E+001,-3.16743E+001,9.97528E-001,9.12006E-002,-3.78660E-002,-1.51659E-003,9.12184E-002,-3.78839E-002,-6.73127E-001,9.16535E-002,1.09538E+000,-1.61198E-002,0.00000E+000,1.14207E-002,9.64518E-001,0.00000E+000,-3.57316E-003,-6.01331E-002,1.00000E+000,14
1179,1307,2.10368E+001,-1.20730E+000,-2.41052E-002,4.94298E+000,-8.80744E-002,3.44831E-002,4.94388E+000,6.84426E-003,3.64381E-001,0,7.42242E+001,-2.07735E+000,9.99745E-001,3.65709E+001,-3.20307E+001,9.98776E-001,9.21084E-002,-3.78661E-002,-1.50393E-003,9.21258E-002,-3.78835E-002,-6.62850E-001,9.26087E-002,1.09637E+000,-1.61029E-002,0.00000E+000,1.14381E-002,9.64518E-001,0.00000E+000,-3.93289E-003,-6.01392E-002,1.00000E+000,14
1179,1317,2.10405E+001,-5.83335E-001,-9.30429E-002,4.93668E+000,-1.08584E-001,-7.30905E-003,4.93788E+000,1.61254E-002,3.47156E-001,0,7.42946E+001,-2.33754E+000,9.99729E-001,3.65808E+001,-3.22064E+001,9.98976E-001,9.30171E-002,-3.78662E-002,-1.49197E-003,9.30341E-002,-3.78832E-002,-6.53017E-001,9.35667E-002,1.09737E+000,-1.60874E-002,0.00000E+000,1.14556E-002,9.64519E-001,0.00000E+000,-4.29331E-003,-6.01448E-002,1.00000E+000,14
1179,1337,2.10807E+001,6.82939E-001,-7.43963E-002,4.91699E+000,-1.58244E-001,-8.99462E-002,4.92036E+000,7.84311E-003,4.40716E-001,0,7.43020E+001,-2.99137E+000,9.99667E-001,3.73579E+001,-3.25536E+001,9.98709E-001,9.48596E-002,-3.78664E-002,-1.44076E-003,9.48752E-002,-3.78820E-002,-6.21858E-001,9.55147E-002,1.09940E+000,-1.59962E-002,0.00000E+000,1.14911E-002,9.64520E-001,0.00000E+000,-5.02560E-003,-6.01777E-002,1.00000E+000,14
1179,1347,2.11147E+001,1.32265E+000,-3.10226E-002,4.91354E+000,-1.81410E-001,-1.26481E-001,4.91851E+000,7.60001E-003,4.35031E-001,0,7.43769E+001,-3.27546E+000,9.99655E-001,3.80168E+001,-3.27316E+001,9.99207E-001,9.57844E-002,-3.78665E-002,-1.41011E-003,9.57993E-002,-3.78814E-002,-6.04422E-001,9.64952E-002,1.10042E+000,-1.59393E-002,0.00000E+000,1.15089E-002,9.64521E-001,0.00000E+000,-5.39381E-003,-6.01983E-002,1.00000E+000,14
679,1327,-1.46810E+001,-5.55909E-001,8.40740E-002,1.79607E+000,-4.55307E-001,1.01431E-001,1.85566E+000,1.06580E-002,6.07394E-001,0,2.78115E+001,-7.57844E+000,9.99120E-001,-1.48950E+001,-4.67847E+001,9.98253E-001,8.55866E-002,-3.47870E-002,-4.19449E-004,8.55880E-002,-3.47885E-002,-1.99647E-001,8.60858E-002,1.08935E+000,4.13058E-003,0.00000E+000,-4.49310E-003,9.67534E-001,0.00000E+000,4.38956E-004,-5.99380E-002,1.00000E+000,14
679,1337,-1.46682E+001,5.76655E-002,3.39192E-002,1.80016E+000,-4.77799E-001,6.43360E-002,1.86360E+000,1.08668E-002,6.03084E-001,0,2.79820E+001,-7.86617E+000,9.99378E-001,-1.46949E+001,-4.72450E+001,9.99191E-001,8.43170E-002,-3.47887E-002,-5.11833E-004,8.43192E-002,-3.47909E-002,-2.46211E-001,8.47474E-002,1.08797E+000,4.11185E-003,0.00000E+000,-4.60948E-003,9.67533E-001,0.00000E+000,-4.34770E-004,-5.99499E-002,1.00000E+000,14
1179,1327,2.10558E+001,4.69450E-002,-9.41539E-002,4.92615E+000,-1.33369E-001,-4.30936E-002,4.92815E+000,1.17117E-002,4.31842E-001,0,7.42689E+001,-2.70161E+000,9.99633E-001,3.68780E+001,-3.23812E+001,9.98051E-001,9.39357E-002,-3.78663E-002,-1.46916E-003,9.39521E-002,-3.78826E-002,-6.38552E-001,9.45371E-002,1.09838E+000,-1.60480E-002,0.00000E+000,1.14733E-002,9.64519E-001,0.00000E+000,-4.65821E-003,-6.01590E-002,1.00000E+000,14
679,1317,-1.46883E+001,-1.16209E+000,1.65493E-001,1.79262E+000,-4.29062E-001,1.43020E-001,1.84879E+000,9.21649E-003,6.25589E-001,0,2.76354E+001,-7.25277E+000,9.99418E-001,-1.49238E+001,-4.62704E+001,9.97947E-001,8.68495E-002,-3.47867E-002,-3.32057E-004,8.68504E-002,-3.47876E-002,-1.56411E-001,8.74212E-002,1.09073E+000,4.13906E-003,0.00000E+000,-4.37712E-003,9.67535E-001,0.00000E+000,1.30976E-003,-5.99327E-002,1.00000E+000,14
669,1327,-1.53773E+001,-5.64401E-001,9.00805E-002,1.74154E+000,-4.56990E-001,1.09429E-001,1.80382E+000,9.08456E-003,5.97284E-001,0,2.69591E+001,-7.62854E+000,9.99640E-001,-1.55279E+001,-4.70310E+001,9.98853E-001,8.50175E-002,-3.45480E-002,-2.77732E-004,8.50182E-002,-3.45487E-002,-1.33088E-001,8.55136E-002,1.08872E+000,5.66064E-003,0.00000E+000,-5.57597E-003,9.67708E-001,0.00000E+000,4.23403E-004,-5.90383E-002,1.00000E+000,14
669,1337,-1.53666E+001,5.34154E-002,3.96592E-002,1.74318E+000,-4.77203E-001,6.97463E-002,1.80866E+000,6.59160E-003,6.15193E-001,0,2.70973E+001,-7.85688E+000,9.99553E-001,-1.53592E+001,-4.74167E+001,9.99400E-001,8.35502E-002,-3.45503E-002,-4.18888E-004,8.35517E-002,-3.45518E-002,-2.03218E-001,8.39671E-002,1.08713E+000,5.63817E-003,0.00000E+000,-5.78536E-003,9.67705E-001,0.00000E+000,-4.78355E-004,-5.90510E-002,1.00000E+000,14
669,1347,-1.53509E+001,6.68128E-001,9.75112E-003,1.74701E+000,-5.01430E-001,3.40691E-002,1.81786E+000,5.86608E-003,6.02511E-001,0,2.72583E+001,-8.16674E+000,9.99517E-001,-1.50561E+001,-4.79103E+001,9.99298E-001,8.20800E-002,-3.45538E-002,-5.63354E-004,8.20827E-002,-3.45566E-002,-2.76736E-001,8.24236E-002,1.08553E+000,5.60857E-003,0.00000E+000,-5.99473E-003,9.67701E-001,0.00000E+000,-1.38004E-003,-5.90677E-002,1.00000E+000,14
669,1357,-1.53265E+001,1.29463E+000,2.19392E-002,1.75198E+000,-5.20337E-001,-1.46693E-003,1.82762E+000,6.03606E-003,5.94125E-001,0,2.74325E+001,-8.39393E+000,9.99390E-001,-1.45012E+001,-4.83142E+001,9.99439E-001,8.05974E-002,-3.45604E-002,-7.17202E-004,8.06019E-002,-3.45649E-002,-3.56819E-001,8.08736E-002,1.08392E+000,5.56052E-003,0.00000E+000,-6.20543E-003,9.67695E-001,0.00000E+000,-2.28742E-003,-5.90949E-002,1.00000E+000,14
1189,1337,2.18128E+001,6.94899E-001,-8.37501E-002,4.98453E+000,-1.53852E-001,-1.01009E-001,4.98793E+000,1.03777E-002,4.43783E-001,0,7.53026E+001,-2.90021E+000,9.99731E-001,3.87562E+001,-3.22513E+001,9.98867E-001,9.48142E-002,-3.80268E-002,-1.27120E-003,9.48264E-002,-3.80389E-002,-5.48215E-001,9.54422E-002,1.09936E+000,-1.52676E-002,0.00000E+000,1.12080E-002,9.64360E-001,0.00000E+000,-5.51265E-003,-6.00351E-002,1.00000E+000,14
669,1317,-1.53831E+001,-1.16717E+000,1.78905E-001,1.73843E+000,-4.27803E-001,1.51603E-001,1.79670E+000,1.15550E-002,5.78257E-001,0,2.67864E+001,-7.25047E+000,9.99663E-001,-1.55103E+001,-4.64964E+001,9.98511E-001,8.64726E-002,-3.45484E-002,-1.44660E-004,8.64728E-002,-3.45485E-002,-6.84873E-002,8.70527E-002,1.09031E+000,5.66730E-003,0.00000E+000,-5.36788E-003,9.67709E-001,0.00000E+000,1.31954E-003,-5.90345E-002,1.00000E+000,14
1189,1297,2.17672E+001,-1.81201E+000,5.74806E-002,5.01655E+000,-5.55343E-002,7.63917E-002,5.01744E+000,1.17137E-002,4.65884E-001,0,7.50975E+001,-1.68610E+000,9.99610E-001,3.80273E+001,-3.14526E+001,9.97085E-001,9.14987E-002,-3.80191E-002,-1.25118E-003,9.15108E-002,-3.80312E-002,-5.53427E-001,9.19445E-002,1.09572E+000,-1.53753E-002,0.00000E+000,1.13555E-002,9.64365E-001,0.00000E+000,-4.98923E-003,-6.00196E-002,1.00000E+000,14
1189,1307,2.17615E+001,-1.19693E+000,-3.14927E-002,5.00436E+000,-8.45322E-002,2.85344E-002,5.00516E+000,7.75622E-003,4.42002E-001,0,7.51107E+001,-2.03909E+000,9.99493E-001,3.78595E+001,-3.17260E+001,9.98653E-001,9.23224E-002,-3.80202E-002,-1.26402E-003,9.23346E-002,-3.80324E-002,-5.55568E-001,9.28112E-002,1.09662E+000,-1.53660E-002,0.00000E+000,1.13189E-002,9.64364E-001,0.00000E+000,-5.11906E-003,-6.00210E-002,1.00000E+000,14
1189,1317,2.17778E+001,-5.61833E-001,-6.94474E-002,5.00114E+000,-1.02171E-001,-1.87845E-002,5.00221E+000,8.31015E-003,4.75205E-001,0,7.52424E+001,-2.22610E+000,9.99743E-001,3.81147E+001,-3.17680E+001,9.99506E-001,9.31534E-002,-3.80221E-002,-1.26896E-003,9.31657E-002,-3.80344E-002,-5.54198E-001,9.36871E-002,1.09754E+000,-1.53389E-002,0.00000E+000,1.12820E-002,9.64363E-001,0.00000E+000,-5.25020E-003,-6.00249E-002,1.00000E+000,14
1189,1327,2.17926E+001,6.31294E-002,-8.87238E-002,4.99228E+000,-1.30126E-001,-6.35146E-002,4.99437E+000,1.11536E-002,4.64680E-001,0,7.52809E+001,-2.58947E+000,9.99769E-001,3.83736E+001,-3.20320E+001,9.99293E-001,9.39830E-002,-3.80243E-002,-1.27140E-003,9.39953E-002,-3.80365E-002,-5.51762E-001,9.45631E-002,1.09845E+000,-1.53062E-002,0.00000E+000,1.12450E-002,9.64362E-001,0.00000E+000,-5.38124E-003,-6.00296E-002,1.00000E+000,14
659,1327,-1.60727E+001,-5.57799E-001,9.34235E-002,1.68629E+000,-4.45851E-001,1.08036E-001,1.74758E+000,1.41292E-002,5.79146E-001,0,2.61172E+001,-7.43268E+000,9.99505E-001,-1.61459E+001,-4.70436E+001,9.97732E-001,8.42795E-002,-3.43408E-002,-2.37527E-004,8.42800E-002,-3.43413E-002,-1.14729E-001,8.47597E-002,1.08791E+000,7.26481E-003,0.00000E+000,-6.91223E-003,9.67862E-001,0.00000E+000,1.93636E-004,-5.83615E-002,1.00000E+000,14
659,1337,-1.60498E+001,4.63761E-002,5.58178E-002,1.70028E+000,-4.79641E-001,8.09632E-002,1.76849E+000,1.66825E-002,6.54810E-001,0,2.64154E+001,-7.93092E+000,9.99348E-001,-1.57566E+001,-4.76380E+001,9.99132E-001,8.27387E-002,-3.43430E-002,-3.99962E-004,8.27401E-002,-3.43444E-002,-1.95725E-001,8.31368E-002,1.08623E+000,7.24139E-003,0.00000E+000,-7.16584E-003,9.67858E-001,0.00000E+000,-6.96031E-004,-5.83739E-002,1.00000E+000,14
659,1347,-1.60368E+001,6.67027E-001,2.58334E-002,1.70131E+000,-4.97630E-001,4.42628E-002,1.77314E+000,8.07488E-003,6.19950E-001,0,2.65332E+001,-8.13281E+000,9.99730E-001,-1.54936E+001,-4.80538E+001,9.99631E-001,8.11955E-002,-3.43467E-002,-5.65917E-004,8.11982E-002,-3.43494E-002,-2.80621E-001,8.15183E-002,1.08456E+000,7.21024E-003,0.00000E+000,-7.41931E-003,9.67853E-001,0.00000E+000,-1.58520E-003,-5.83905E-002,1.00000E+000,14
659,1357,-1.60186E+001,1.29471E+000,3.06497E-002,1.70084E+000,-5.14541E-001,4.55480E-003,1.77697E+000,5.60774E-003,5.93613E-001,0,2.66334E+001,-8.31148E+000,9.99577E-001,-1.50519E+001,-4.84352E+001,9.99651E-001,7.96399E-002,-3.43535E-002,-7.40787E-004,7.96447E-002,-3.43583E-002,-3.72316E-001,7.98943E-002,1.08288E+000,7.16178E-003,0.00000E+000,-7.67424E-003,9.67846E-001,0.00000E+000,-2.47952E-003,-5.84162E-002,1.00000E+000,14
1199,1307,2.24908E+001,-1.18314E+000,-3.54237E-002,5.06683E+000,-7.88052E-002,1.41251E-002,5.06747E+000,1.09072E-002,4.42107E-001,0,7.60429E+001,-1.91844E+000,9.99492E-001,3.92305E+001,-3.14141E+001,9.98261E-001,9.24376E-002,-3.80122E-002,-9.78229E-004,9.24450E-002,-3.80195E-002,-4.29623E-001,9.29290E-002,1.09676E+000,-1.45020E-002,0.00000E+000,1.11576E-002,9.64362E-001,0.00000E+000,-5.92224E-003,-5.98107E-002,1.00000E+000,14
1199,1317,2.25016E+001,-5.57054E-001,-7.80221E-002,5.06041E+000,-1.02559E-001,-2.85296E-002,5.06153E+000,9.72679E-003,4.46656E-001,0,7.61133E+001,-2.22261E+000,9.99068E-001,3.93911E+001,-3.15992E+001,9.97898E-001,9.32155E-002,-3.80149E-002,-9.99266E-004,9.32231E-002,-3.80225E-002,-4.36250E-001,9.37492E-002,1.09762E+000,-1.44795E-002,0.00000E+000,1.10812E-002,9.64360E-001,0.00000E+000,-5.81629E-003,-5.98079E-002,1.00000E+000,14
1199,1327,2.25179E+001,7.27156E-002,-1.05679E-001,5.05664E+000,-1.23715E-001,-6.70136E-002,5.05860E+000,1.01559E-002,4.27636E-001,0,7.62038E+001,-2.49380E+000,9.99381E-001,3.96595E+001,-3.17725E+001,9.98457E-001,9.39935E-002,-3.80180E-002,-1.01874E-003,9.40014E-002,-3.80259E-002,-4.42118E-001,9.45709E-002,1.09847E+000,-1.44535E-002,0.00000E+000,1.10048E-002,9.64357E-001,0.00000E+000,-5.71025E-003,-5.98046E-002,1.00000E+000,14
659,1317,-1.60865E+001,-1.16979E+000,1.62480E-001,1.67755E+000,-4.24948E-001,1.44445E-001,1.73656E+000,1.19176E-002,6.17469E-001,0,2.58767E+001,-7.18699E+000,9.98907E-001,-1.63088E+001,-4.65794E+001,9.95325E-001,8.58081E-002,-3.43405E-002,-8.06827E-005,8.58082E-002,-3.43405E-002,-3.84755E-002,8.63760E-002,1.08957E+000,7.27805E-003,0.00000E+000,-6.66011E-003,9.67864E-001,0.00000E+000,1.07808E-003,-5.83544E-002,1.00000E+000,14
1199,1337,2.25488E+001,7.09751E-001,-7.36057E-002,5.05277E+000,-1.47458E-001,-1.02857E-001,5.05597E+000,8.94035E-003,4.45635E-001,0,7.62731E+001,-2.80808E+000,9.99642E-001,4.02481E+001,-3.19476E+001,9.98321E-001,9.47795E-002,-3.80227E-002,-1.02993E-003,9.47875E-002,-3.80307E-002,-4.44314E-001,9.54020E-002,1.09934E+000,-1.44084E-002,0.00000E+000,1.09275E-002,9.64353E-001,0.00000E+000,-5.60300E-003,-5.97990E-002,1.00000E+000,14
1199,1297,2.24941E+001,-1.79658E+000,4.53421E-002,5.07739E+000,-4.75289E-002,5.64118E-002,5.07792E+000,8.47976E-003,4.49317E-001,0,7.60258E+001,-1.51041E+000,9.99353E-001,3.93484E+001,-3.11080E+001,9.97895E-001,9.16631E-002,-3.80105E-002,-9.51543E-004,9.16701E-002,-3.80174E-002,-4.20406E-001,9.21135E-002,1.09592E+000,-1.45116E-002,0.00000E+000,1.12335E-002,9.64363E-001,0.00000E+000,-6.02763E-003,-5.98118E-002,1.00000E+000,14
649,1347,-1.67367E+001,6.69458E-001,2.18822E-002,1.64145E+000,-4.90495E-001,3.60250E-002,1.71355E+000,8.79118E-003,6.41990E-001,0,2.56370E+001,-7.99887E+000,9.99525E-001,-1.61963E+001,-4.80993E+001,9.98905E-001,8.02332E-002,-3.40907E-002,-5.19018E-004,8.02355E-002,-3.40930E-002,-2.60110E-001,8.05365E-002,1.08351E+000,8.94175E-003,0.00000E+000,-8.87082E-003,9.68051E-001,0.00000E+000,-1.74347E-003,-5.77215E-002,1.00000E+000,14
649,1357,-1.67145E+001,1.29371E+000,3.46241E-002,1.64565E+000,-5.09795E-001,6.76888E-003,1.72282E+000,6.20542E-003,5.94775E-001,0,2.57812E+001,-8.23583E+000,9.99590E-001,-1.56697E+001,-4.85625E+001,9.99357E-001,7.85434E-002,-3.40967E-002,-6.94687E-004,7.85477E-002,-3.41010E-002,-3.53343E-001,7.87745E-002,1.08168E+000,8.89089E-003,0.00000E+000,-9.13059E-003,9.68044E-001,0.00000E+000,-2.61302E-003,-5.77457E-002,1.00000E+000,14
649,1337,-1.67565E+001,5.21090E-002,4.99614E-002,1.63331E+000,-4.67683E-001,6.97781E-002,1.70038E+000,9.30427E-003,6.00859E-001,0,2.54159E+001,-7.70497E+000,9.99667E-001,-1.65690E+001,-4.76656E+001,9.99039E-001,8.19161E-002,-3.40876E-002,-3.51880E-004,8.19171E-002,-3.40887E-002,-1.73796E-001,8.23003E-002,1.08533E+000,8.97485E-003,0.00000E+000,-8.61152E-003,9.68056E-001,0.00000E+000,-8.75492E-004,-5.77057E-002,1.00000E+000,14
649,1327,-1.67731E+001,-5.53796E-001,9.17868E-002,1.62522E+000,-4.38032E-001,9.89617E-002,1.68612E+000,7.92026E-003,6.07385E-001,0,2.52051E+001,-7.28934E+000,9.99753E-001,-1.68499E+001,-4.70633E+001,9.99420E-001,8.35862E-002,-3.40861E-002,-1.89800E-004,8.35865E-002,-3.40864E-002,-9.24153E-002,8.40588E-002,1.08714E+000,8.99886E-003,0.00000E+000,-8.35363E-003,9.68059E-001,0.00000E+000,-1.22314E-005,-5.76943E-002,1.00000E+000,14
1209,1307,2.32220E+001,-1.16815E+000,-3.90099E-002,5.13129E+000,-7.06197E-002,2.67139E-003,5.13178E+000,8.96864E-003,4.48561E-001,0,7.69914E+001,-1.78380E+000,9.99429E-001,4.06339E+001,-3.10811E+001,9.98279E-001,9.23058E-002,-3.78147E-002,-6.55759E-004,9.23091E-002,-3.78180E-002,-2.88740E-001,9.28096E-002,1.09663E+000,-1.35414E-002,0.00000E+000,1.09606E-002,9.64539E-001,0.00000E+000,-6.26388E-003,-5.95402E-002,1.00000E+000,14
1209,1317,2.32310E+001,-5.46803E-001,-8.35918E-002,5.12478E+000,-9.83067E-002,-3.49362E-002,5.12584E+000,1.01373E-002,4.42066E-001,0,7.70440E+001,-2.15462E+000,9.99384E-001,4.07625E+001,-3.13396E+001,9.97740E-001,9.31260E-002,-3.78165E-002,-6.66955E-004,9.31294E-002,-3.78199E-002,-2.91826E-001,9.36753E-002,1.09753E+000,-1.35201E-002,0.00000E+000,1.08914E-002,9.64537E-001,0.00000E+000,-5.93295E-003,-5.95324E-002,1.00000E+000,14
1209,1327,2.32542E+001,8.71616E-002,-9.38057E-002,5.12329E+000,-1.17544E-001,-7.36329E-002,5.12516E+000,9.49568E-003,4.08912E-001,0,7.71661E+001,-2.39752E+000,9.99502E-001,4.11655E+001,-3.14907E+001,9.98603E-001,9.39486E-002,-3.78190E-002,-6.72574E-004,9.39521E-002,-3.78225E-002,-2.92441E-001,9.45448E-002,1.09843E+000,-1.34862E-002,0.00000E+000,1.08220E-002,9.64534E-001,0.00000E+000,-5.60070E-003,-5.95199E-002,1.00000E+000,14
1209,1337,2.32860E+001,7.23624E-001,-6.38537E-002,5.11975E+000,-1.43344E-001,-1.12615E-001,5.12299E+000,9.75735E-003,4.43439E-001,0,7.72543E+001,-2.72854E+000,9.99575E-001,4.17618E+001,-3.16603E+001,9.97746E-001,9.47795E-002,-3.78224E-002,-6.71902E-004,9.47829E-002,-3.78258E-002,-2.90311E-001,9.54243E-002,1.09935E+000,-1.34378E-002,0.00000E+000,1.07519E-002,9.64531E-001,0.00000E+000,-5.26474E-003,-5.95021E-002,1.00000E+000,14
1209,1297,2.32229E+001,-1.78431E+000,3.68483E-002,5.14134E+000,-4.03354E-002,4.69261E-002,5.14171E+000,8.34557E-003,4.20368E-001,0,7.69594E+001,-1.38530E+000,9.99423E-001,4.07073E+001,-3.08263E+001,9.97813E-001,9.14866E-002,-3.78133E-002,-6.40683E-004,9.14897E-002,-3.78165E-002,-2.83892E-001,9.19466E-002,1.09574E+000,-1.35541E-002,0.00000E+000,1.10295E-002,9.64540E-001,0.00000E+000,-6.59405E-003,-5.95449E-002,1.00000E+000,14
649,1317,-1.67810E+001,-1.16416E+000,1.72629E-001,1.62100E+000,-4.16735E-001,1.39689E-001,1.67953E+000,6.78982E-003,6.20697E-001,0,2.50235E+001,-7.03578E+000,9.99590E-001,-1.68889E+001,-4.66089E+001,9.99164E-001,8.52468E-002,-3.40869E-002,-3.44612E-005,8.52468E-002,-3.40870E-002,-1.65459E-002,8.58148E-002,1.08895E+000,9.00938E-003,0.00000E+000,-8.09663E-003,9.68061E-001,0.00000E+000,8.48040E-004,-5.76893E-002,1.00000E+000,14
639,1347,-1.74337E+001,6.73156E-001,1.86402E-002,1.58519E+000,-4.80564E-001,3.45459E-002,1.65679E+000,9.22667E-003,6.05191E-001,0,2.47765E+001,-7.81719E+000,9.99313E-001,-1.68475E+001,-4.81559E+001,9.98724E-001,7.93153E-002,-3.37403E-002,-4.92992E-004,7.93175E-002,-3.37424E-002,-2.49838E-001,7.96111E-002,1.08250E+000,1.08104E-002,0.00000E+000,-1.04919E-002,9.68332E-001,0.00000E+000,-1.86602E-003,-5.69547E-002,1.00000E+000,14
639,1357,-1.74091E+001,1.29828E+000,3.22060E-002,1.59174E+000,-4.99601E-001,5.05428E-003,1.66831E+000,6.01119E-003,6.01434E-001,0,2.49574E+001,-8.06122E+000,9.99494E-001,-1.62806E+001,-4.85872E+001,9.99406E-001,7.75220E-002,-3.37459E-002,-6.68879E-004,7.75260E-002,-3.37499E-002,-3.44413E-001,7.77418E-002,1.08056E+000,1.07565E-002,0.00000E+000,-1.07510E-002,9.68324E-001,0.00000E+000,-2.78639E-003,-5.69804E-002,1.00000E+000,14
639,1317,-1.74741E+001,-1.16433E+000,1.90866E-001,1.56578E+000,-4.15533E-001,1.44727E-001,1.62643E+000,9.41420E-003,6.98811E-001,0,2.41647E+001,-7.03159E+000,9.99558E-001,-1.74211E+001,-4.67072E+001,9.98543E-001,8.46201E-002,-3.37396E-002,-1.54650E-005,8.46201E-002,-3.37396E-002,-7.48635E-003,8.51968E-002,1.08825E+000,1.08734E-002,0.00000E+000,-9.72179E-003,9.68340E-001,0.00000E+000,8.69340E-004,-5.69248E-002,1.00000E+000,14
639,1327,-1.74650E+001,-5.61128E-001,1.07117E-001,1.57264E+000,-4.40609E-001,1.08850E-001,1.63682E+000,7.05201E-003,6.10269E-001,0,2.43749E+001,-7.34974E+000,9.99651E-001,-1.73738E+001,-4.73050E+001,9.98870E-001,8.28676E-002,-3.37376E-002,-1.67125E-004,8.28678E-002,-3.37378E-002,-8.21195E-002,8.33429E-002,1.08634E+000,1.08666E-002,0.00000E+000,-9.97680E-003,9.68339E-001,0.00000E+000,-3.64412E-005,-5.69280E-002,1.00000E+000,14
639,1337,-1.74533E+001,5.48870E-002,4.37410E-002,1.57770E+000,-4.60377E-001,6.85402E-002,1.64493E+000,7.18325E-003,6.43658E-001,0,2.45663E+001,-7.57510E+000,9.99621E-001,-1.72263E+001,-4.76885E+001,9.99078E-001,8.10945E-002,-3.37376E-002,-3.26189E-004,8.10954E-002,-3.37385E-002,-1.62751E-001,8.14757E-002,1.08442E+000,1.08467E-002,0.00000E+000,-1.02342E-002,9.68336E-001,0.00000E+000,-9.50751E-004,-5.69375E-002,1.00000E+000,14
1219,1317,2.39673E+001,-5.31437E-001,-7.62831E-002,5.19203E+000,-9.32576E-002,-4.22061E-002,5.19304E+000,1.20138E-002,5.13069E-001,0,7.80169E+001,-2.07461E+000,9.99480E-001,4.22666E+001,-3.09901E+001,9.97677E-001,9.29143E-002,-3.78027E-002,-3.08430E-004,9.29150E-002,-3.78035E-002,-1.35190E-001,9.34508E-002,1.09731E+000,-1.24896E-002,0.00000E+000,1.06694E-002,9.64522E-001,0.00000E+000,-5.72625E-003,-5.89978E-002,1.00000E+000,14
1219,1327,2.39874E+001,1.00143E-001,-9.44130E-002,5.18933E+000,-1.12834E-001,-8.08421E-002,5.19118E+000,6.55988E-003,4.24324E-001,0,7.81230E+001,-2.31317E+000,9.99711E-001,4.26072E+001,-3.11877E+001,9.98896E-001,9.37051E-002,-3.78041E-002,-3.05657E-004,9.37058E-002,-3.78048E-002,-1.33167E-001,9.42865E-002,1.09818E+000,-1.24595E-002,0.00000E+000,1.06103E-002,9.64520E-001,0.00000E+000,-5.20760E-003,-5.89797E-002,1.00000E+000,14
1219,1337,2.40206E+001,7.38979E-001,-6.19558E-002,5.18631E+000,-1.36832E-001,-1.19864E-001,5.18950E+000,8.25387E-003,4.49796E-001,0,7.82185E+001,-2.61312E+000,9.99636E-001,4.32271E+001,-3.13289E+001,9.98507E-001,9.45062E-002,-3.78062E-002,-2.95040E-004,9.45069E-002,-3.78068E-002,-1.27762E-001,9.51343E-002,1.09905E+000,-1.24117E-002,0.00000E+000,1.05502E-002,9.64516E-001,0.00000E+000,-4.68150E-003,-5.89511E-002,1.00000E+000,14
1219,1297,2.39553E+001,-1.77191E+000,3.18036E-002,5.20735E+000,-3.50249E-002,3.67493E-002,5.20760E+000,9.33965E-003,3.94202E-001,0,7.79253E+001,-1.26781E+000,9.99418E-001,4.21325E+001,-3.05483E+001,9.97665E-001,9.13302E-002,-3.78008E-002,-3.03221E-004,9.13309E-002,-3.78015E-002,-1.34539E-001,9.17812E-002,1.09558E+000,-1.25259E-002,0.00000E+000,1.07878E-002,9.64524E-001,0.00000E+000,-6.76322E-003,-5.90195E-002,1.00000E+000,14
1219,1307,2.39599E+001,-1.15285E+000,-2.75352E-002,5.20026E+000,-6.40988E-002,-5.36015E-004,5.20066E+000,1.16042E-002,4.34690E-001,0,7.79722E+001,-1.66783E+000,9.99436E-001,4.21701E+001,-3.07853E+001,9.97308E-001,9.21216E-002,-3.78017E-002,-3.06972E-004,9.21224E-002,-3.78024E-002,-1.35373E-001,9.26147E-002,1.09644E+000,-1.25103E-002,0.00000E+000,1.07287E-002,9.64523E-001,0.00000E+000,-6.24543E-003,-5.90102E-002,1.00000E+000,14
629,1347,-1.81274E+001,6.70718E-001,1.30362E-002,1.53232E+000,-4.76635E-001,3.33714E-002,1.60508E+000,8.21336E-003,5.95118E-001,0,2.39686E+001,-7.74046E+000,9.99228E-001,-1.74518E+001,-4.82879E+001,9.98736E-001,7.85408E-002,-3.40240E-002,-5.07858E-004,7.85431E-002,-3.40263E-002,-2.58494E-001,7.87763E-002,1.08164E+000,1.27369E-002,0.00000E+000,-1.22500E-002,9.67989E-001,0.00000E+000,-1.78817E-003,-5.61023E-002,1.00000E+000,14
629,1357,-1.81005E+001,1.29581E+000,2.91863E-002,1.54106E+000,-4.95800E-001,4.63251E-003,1.61886E+000,6.95099E-003,5.92568E-001,0,2.41812E+001,-7.98828E+000,9.99294E-001,-1.68400E+001,-4.87263E+001,9.99026E-001,7.68338E-002,-3.40253E-002,-5.59810E-004,7.68366E-002,-3.40281E-002,-2.89319E-001,7.70037E-002,1.07979E+000,1.26853E-002,0.00000E+000,-1.22745E-002,9.67989E-001,0.00000E+000,-2.69846E-003,-5.61278E-002,1.00000E+000,14
629,1327,-1.81600E+001,-5.59792E-001,1.02180E-001,1.51786E+000,-4.33499E-001,1.06224E-001,1.58212E+000,6.74207E-003,5.79512E-001,0,2.35417E+001,-7.21176E+000,9.99489E-001,-1.79965E+001,-4.73876E+001,9.98884E-001,8.19224E-002,-3.40237E-002,-4.28122E-004,8.19240E-002,-3.40253E-002,-2.11556E-001,8.23146E-002,1.08530E+000,1.27885E-002,0.00000E+000,-1.22011E-002,9.67990E-001,0.00000E+000,2.13485E-005,-5.60768E-002,1.00000E+000,14
629,1337,-1.81449E+001,5.34843E-002,4.20863E-002,1.52641E+000,-4.55703E-001,6.87328E-002,1.59447E+000,7.19190E-003,6.28649E-001,0,2.37797E+001,-7.49235E+000,9.99433E-001,-1.77870E+001,-4.78136E+001,9.99082E-001,8.02345E-002,-3.40236E-002,-4.64761E-004,8.02364E-002,-3.40255E-002,-2.33054E-001,8.05442E-002,1.08347E+000,1.27696E-002,0.00000E+000,-1.22255E-002,9.67990E-001,0.00000E+000,-8.82871E-004,-5.60861E-002,1.00000E+000,14
1229,1317,2.47029E+001,-5.13627E-001,-7.61809E-002,5.26111E+000,-8.18285E-002,-4.49970E-002,5.26193E+000,1.06213E-002,4.92320E-001,0,7.89968E+001,-1.89654E+000,9.99488E-001,4.37520E+001,-3.06332E+001,9.98887E-001,9.27842E-002,-3.76084E-002,9.73198E-005,9.27843E-002,-3.76085E-002,4.27632E-002,9.33370E-002,1.09718E+000,-1.14378E-002,0.00000E+000,1.04993E-002,9.64666E-001,0.00000E+000,-5.15663E-003,-5.82107E-002,1.00000E+000,14
1229,1327,2.47194E+001,1.12269E-001,-9.79464E-002,5.25418E+000,-1.10378E-001,-8.85885E-002,5.25609E+000,7.82143E-003,5.02566E-001,0,7.90642E+001,-2.26665E+000,9.99594E-001,4.40283E+001,-3.08605E+001,9.98579E-001,9.35307E-002,-3.76082E-002,1.16283E-004,9.35308E-002,-3.76083E-002,5.08050E-002,9.41265E-002,1.09799E+000,-1.14088E-002,0.00000E+000,1.04645E-002,9.64665E-001,0.00000E+000,-4.47087E-003,-5.81863E-002,1.00000E+000,14
1229,1337,2.47524E+001,7.51681E-001,-7.36088E-002,5.25381E+000,-1.28789E-001,-1.24592E-001,5.25687E+000,7.98306E-003,4.39812E-001,0,7.91873E+001,-2.50042E+000,9.99507E-001,4.46321E+001,-3.10172E+001,9.98333E-001,9.42778E-002,-3.76080E-002,1.40878E-004,9.42779E-002,-3.76082E-002,6.12023E-002,9.49181E-002,1.09881E+000,-1.13673E-002,0.00000E+000,1.04297E-002,9.64663E-001,0.00000E+000,-3.78347E-003,-5.81514E-002,1.00000E+000,14
629,1317,-1.81713E+001,-1.16400E+000,1.86869E-001,1.50860E+000,-4.09240E-001,1.41935E-001,1.56955E+000,8.08719E-003,6.46292E-001,0,2.32954E+001,-6.90372E+000,9.99481E-001,-1.80742E+001,-4.68167E+001,9.98743E-001,8.35926E-002,-3.40244E-002,-3.97660E-004,8.35939E-002,-3.40258E-002,-1.93713E-001,8.40742E-002,1.08711E+000,1.27943E-002,0.00000E+000,-1.21769E-002,9.67990E-001,0.00000E+000,9.18109E-004,-5.60739E-002,1.00000E+000,14
1229,1297,2.46882E+001,-1.75733E+000,3.16785E-002,5.27337E+000,-2.78310E-002,3.16223E-002,5.27354E+000,9.42582E-003,4.49070E-001,0,7.88687E+001,-1.16752E+000,9.99346E-001,4.35760E+001,-3.02065E+001,9.97059E-001,9.12968E-002,-3.76086E-002,7.04796E-005,9.12968E-002,-3.76087E-002,3.13267E-002,9.17676E-002,1.09555E+000,-1.14715E-002,0.00000E+000,1.05684E-002,9.64668E-001,0.00000E+000,-6.52009E-003,-5.82390E-002,1.00000E+000,14
1229,1307,2.46976E+001,-1.13474E+000,-2.56906E-002,5.27237E+000,-5.23067E-002,1.60515E-003,5.27263E+000,1.28897E-002,4.60083E-001,0,7.89770E+001,-1.50788E+000,9.99305E-001,4.36911E+001,-3.04055E+001,9.97734E-001,9.20396E-002,-3.76085E-002,8.21582E-005,9.20397E-002,-3.76086E-002,3.63084E-002,9.25507E-002,1.09636E+000,-1.14585E-002,0.00000E+000,1.05339E-002,9.64667E-001,0.00000E+000,-5.83966E-003,-5.82280E-002,1.00000E+000,14
619,1327,-1.88551E+001,-5.59641E-001,9.89447E-002,1.46243E+000,-4.27814E-001,1.03980E-001,1.52727E+000,5.19384E-003,5.77408E-001,0,2.26963E+001,-7.11086E+000,9.99530E-001,-1.86108E+001,-4.74779E+001,9.99280E-001,8.11976E-002,-3.37561E-002,-6.11231E-004,8.12008E-002,-3.37594E-002,-3.04641E-001,8.15841E-002,1.08449E+000,1.47789E-002,0.00000E+000,-1.43379E-002,9.68175E-001,0.00000E+000,-8.44338E-006,-5.52335E-002,1.00000E+000,14
619,1337,-1.88376E+001,5.53706E-002,4.77666E-002,1.47261E+000,-4.48677E-001,7.07979E-002,1.54107E+000,6.01838E-003,6.32641E-001,0,2.29468E+001,-7.38422E+000,9.99188E-001,-1.83393E+001,-4.78949E+001,9.99018E-001,7.94770E-002,-3.37563E-002,-5.87703E-004,7.94800E-002,-3.37593E-002,-2.97366E-001,7.97795E-002,1.08262E+000,1.47578E-002,0.00000E+000,-1.42488E-002,9.68176E-001,0.00000E+000,-8.94966E-004,-5.52435E-002,1.00000E+000,14
619,1347,-1.88188E+001,6.72980E-001,1.38656E-002,1.48123E+000,-4.68035E-001,3.78018E-002,1.55388E+000,7.39399E-003,6.23512E-001,0,2.31711E+001,-7.62470E+000,9.99062E-001,-1.79965E+001,-4.83425E+001,9.98967E-001,7.77528E-002,-3.37562E-002,-5.67947E-004,7.77557E-002,-3.37591E-002,-2.91814E-001,7.79800E-002,1.08076E+000,1.47284E-002,0.00000E+000,-1.41597E-002,9.68177E-001,0.00000E+000,-1.78136E-003,-5.52575E-002,1.00000E+000,14
619,1357,-1.87918E+001,1.29694E+000,2.09694E-002,1.49117E+000,-4.87174E-001,5.72217E-003,1.56875E+000,6.65593E-003,6.08765E-001,0,2.34112E+001,-7.85984E+000,9.99418E-001,-1.74089E+001,-4.87862E+001,9.99326E-001,7.60155E-002,-3.37557E-002,-5.57062E-004,7.60184E-002,-3.37585E-002,-2.90752E-001,7.61767E-002,1.07889E+000,1.46796E-002,0.00000E+000,-1.40701E-002,9.68180E-001,0.00000E+000,-2.67241E-003,-5.52807E-002,1.00000E+000,14
619,1317,-1.88646E+001,-1.16134E+000,1.83578E-001,1.45503E+000,-3.99604E-001,1.40139E-001,1.51540E+000,9.41206E-003,5.99514E-001,0,2.24776E+001,-6.74432E+000,9.99268E-001,-1.86601E+001,-4.68886E+001,9.98806E-001,8.29038E-002,-3.37557E-002,-6.41388E-004,8.29074E-002,-3.37592E-002,-3.14996E-001,8.33821E-002,1.08634E+000,1.47851E-002,0.00000E+000,-1.44265E-002,9.68174E-001,0.00000E+000,8.72731E-004,-5.52305E-002,1.00000E+000,14
1239,1307,2.54232E+001,-1.12533E+000,-3.92130E-002,5.33269E+000,-4.76130E-002,-8.68227E-003,5.33291E+000,1.36556E-002,4.55481E-001,0,7.98579E+001,-1.43231E+000,9.99189E-001,4.50040E+001,-3.01443E+001,9.97887E-001,9.17677E-002,-3.72820E-002,2.71259E-004,9.17682E-002,-3.72826E-002,1.20433E-001,9.23042E-002,1.09607E+000,-1.06118E-002,0.00000E+000,1.01524E-002,9.64950E-001,0.00000E+000,-5.71685E-003,-5.75728E-002,1.00000E+000,14
1239,1317,2.54357E+001,-4.97136E-001,-8.40888E-002,5.32883E+000,-6.92374E-002,-4.83683E-002,5.32950E+000,1.23246E-002,4.25554E-001,0,7.99581E+001,-1.69868E+000,9.99314E-001,4.51851E+001,-3.03026E+001,9.98535E-001,9.25481E-002,-3.72783E-002,3.37173E-004,9.25490E-002,-3.72792E-002,1.48802E-001,9.31300E-002,1.09692E+000,-1.05905E-002,0.00000E+000,1.01970E-002,9.64951E-001,0.00000E+000,-4.69259E-003,-5.75472E-002,1.00000E+000,14
1239,1327,2.54567E+001,1.30768E-001,-8.57663E-002,5.32167E+000,-1.00714E-001,-8.91980E-002,5.32337E+000,9.76505E-003,5.07481E-001,0,8.00096E+001,-2.12179E+000,9.99448E-001,4.55599E+001,-3.05051E+001,9.98545E-001,9.33356E-002,-3.72728E-002,4.10664E-004,9.33369E-002,-3.72741E-002,1.80149E-001,9.39651E-002,1.09778E+000,-1.05538E-002,0.00000E+000,1.02421E-002,9.64953E-001,0.00000E+000,-3.65671E-003,-5.75029E-002,1.00000E+000,14
1239,1337,2.54817E+001,7.67602E-001,-7.31363E-002,5.31679E+000,-1.18961E-001,-1.23015E-001,5.31954E+000,8.48293E-003,4.31132E-001,0,8.00596E+001,-2.36568E+000,9.99256E-001,4.60197E+001,-3.06825E+001,9.97682E-001,9.41158E-002,-3.72669E-002,4.84699E-004,9.41176E-002,-3.72687E-002,2.11372E-001,9.47940E-002,1.09864E+000,-1.05148E-002,0.00000E+000,1.02869E-002,9.64955E-001,0.00000E+000,-2.62817E-003,-5.74560E-002,1.00000E+000,14
1239,1297,2.54189E+001,-1.74510E+000,2.96334E-002,5.33779E+000,-2.06877E-002,2.87829E-002,5.33791E+000,8.52168E-003,4.67141E-001,0,7.97781E+001,-1.08119E+000,9.99383E-001,4.49850E+001,-2.99160E+001,9.97876E-001,9.09877E-002,-3.72846E-002,2.09557E-004,9.09881E-002,-3.72849E-002,9.36031E-002,9.14805E-002,1.09522E+000,-1.06242E-002,0.00000E+000,1.01080E-002,9.64949E-001,0.00000E+000,-6.73823E-003,-5.75877E-002,1.00000E+000,14
609,1347,-1.95086E+001,6.74204E-001,1.44113E-002,1.43029E+000,-4.61707E-001,3.65356E-002,1.50340E+000,9.56103E-003,6.43486E-001,0,2.23904E+001,-7.52054E+000,9.98956E-001,-1.85154E+001,-4.84167E+001,9.98779E-001,7.70215E-002,-3.30808E-002,-7.70618E-004,7.70269E-002,-3.30861E-002,-4.00994E-001,7.72814E-002,1.07994E+000,1.65472E-002,0.00000E+000,-1.62106E-002,9.68745E-001,0.00000E+000,-1.59599E-003,-5.42245E-002,1.00000E+000,14
609,1357,-1.94833E+001,1.30120E+000,1.80787E-002,1.43964E+000,-4.76699E-001,6.37376E-003,1.51652E+000,7.62367E-003,6.23172E-001,0,2.26150E+001,-7.69383E+000,9.99334E-001,-1.79608E+001,-4.88110E+001,9.99144E-001,7.52868E-002,-3.30800E-002,-7.32961E-004,7.52918E-002,-3.30850E-002,-3.87508E-001,7.54758E-002,1.07807E+000,1.65016E-002,0.00000E+000,-1.60719E-002,9.68748E-001,0.00000E+000,-2.55933E-003,-5.42481E-002,1.00000E+000,14
609,1317,-1.95603E+001,-1.16059E+000,1.84303E-001,1.39806E+000,-3.93286E-001,1.39058E-001,1.45897E+000,1.09405E-002,6.14001E-001,0,2.16042E+001,-6.65470E+000,9.99311E-001,-1.92677E+001,-4.69682E+001,9.98192E-001,8.21722E-002,-3.30791E-002,-9.19935E-004,8.21796E-002,-3.30865E-002,-4.57295E-001,8.26976E-002,1.08552E+000,1.66031E-002,0.00000E+000,-1.66247E-002,9.68741E-001,0.00000E+000,1.27807E-003,-5.41957E-002,1.00000E+000,14
609,1327,-1.95479E+001,-5.59091E-001,9.56483E-002,1.40886E+000,-4.22749E-001,1.01771E-001,1.47443E+000,7.18990E-003,6.21512E-001,0,2.18787E+001,-7.02760E+000,9.99396E-001,-1.91866E+001,-4.75388E+001,9.98760E-001,8.04631E-002,-3.30803E-002,-8.63952E-004,8.04696E-002,-3.30869E-002,-4.35930E-001,8.08918E-002,1.08366E+000,1.65983E-002,0.00000E+000,-1.64869E-002,9.68741E-001,0.00000E+000,3.22102E-004,-5.41982E-002,1.00000E+000,14
609,1337,-1.95291E+001,5.69060E-002,4.63714E-002,1.42037E+000,-4.40927E-001,7.00182E-002,1.48888E+000,8.00572E-003,6.13041E-001,0,2.21449E+001,-7.25383E+000,9.99073E-001,-1.88889E+001,-4.79782E+001,9.98707E-001,7.87477E-002,-3.30808E-002,-8.15291E-004,7.87536E-002,-3.30867E-002,-4.17688E-001,7.90879E-002,1.08181E+000,1.65774E-002,0.00000E+000,-1.63491E-002,9.68743E-001,0.00000E+000,-6.35037E-004,-5.42090E-002,1.00000E+000,14
1249,1297,2.61524E+001,-1.72834E+000,3.55907E-002,5.40302E+000,-1.09976E-002,2.82719E-002,5.40310E+000,1.05951E-002,4.97728E-001,0,8.06863E+001,-9.49121E-001,9.99365E-001,4.64537E+001,-2.95657E+001,9.97897E-001,9.03909E-002,-3.67778E-002,3.72266E-004,9.03920E-002,-3.67789E-002,1.67722E-001,9.09130E-002,1.09459E+000,-9.47695E-003,0.00000E+000,9.44935E-003,9.65414E-001,0.00000E+000,-7.24967E-003,-5.70265E-002,1.00000E+000,14
1249,1307,2.61518E+001,-1.11271E+000,-4.82128E-002,5.39538E+000,-4.04091E-002,-1.47053E-002,5.39555E+000,1.37620E-002,4.51966E-001,0,8.07546E+001,-1.31843E+000,9.99306E-001,4.63737E+001,-2.98424E+001,9.97476E-001,9.12930E-002,-3.67709E-002,5.56278E-004,9.12954E-002,-3.67733E-002,2.48873E-001,9.18687E-002,1.09556E+000,-9.46641E-003,0.00000E+000,9.70978E-003,9.65417E-001,0.00000E+000,-5.82072E-003,-5.70111E-002,1.00000E+000,14
1249,1317,2.61613E+001,-4.89605E-001,-9.55137E-002,5.38948E+000,-6.64372E-002,-5.29802E-002,5.39015E+000,1.16594E-002,4.05713E-001,0,8.08221E+001,-1.65293E+000,9.98971E-001,4.65043E+001,-3.00812E+001,9.97637E-001,9.21954E-002,-3.67593E-002,7.46694E-004,9.21998E-002,-3.67636E-002,3.31748E-001,9.28279E-002,1.09655E+000,-9.44313E-003,0.00000E+000,9.97121E-003,9.65423E-001,0.00000E+000,-4.38635E-003,-5.69771E-002,1.00000E+000,14
1249,1327,2.61812E+001,1.46095E-001,-1.04755E-001,5.38388E+000,-8.69851E-002,-9.11555E-002,5.38536E+000,1.00706E-002,4.50420E-001,0,8.08839E+001,-1.92546E+000,9.99121E-001,4.68516E+001,-3.01629E+001,9.98364E-001,9.31020E-002,-3.67422E-002,9.45364E-004,9.31089E-002,-3.67491E-002,4.17127E-001,9.37947E-002,1.09754E+000,-9.40454E-003,0.00000E+000,1.02347E-002,9.65433E-001,0.00000E+000,-2.94062E-003,-5.69208E-002,1.00000E+000,14
1249,1337,2.62088E+001,7.84782E-001,-8.15845E-002,5.37851E+000,-1.07361E-001,-1.24604E-001,5.38102E+000,7.82485E-003,4.32303E-001,0,8.09246E+001,-2.19702E+000,9.99520E-001,4.73626E+001,-3.03038E+001,9.99020E-001,9.40074E-002,-3.67211E-002,1.14925E-003,9.40175E-002,-3.67312E-002,5.03642E-001,9.47635E-002,1.09853E+000,-9.35491E-003,0.00000E+000,1.04988E-002,9.65446E-001,0.00000E+000,-1.49184E-003,-5.68483E-002,1.00000E+000,14
1259,1327,2.69101E+001,1.57929E-001,-1.09016E-001,5.44626E+000,-7.97780E-002,-9.19405E-002,5.44762E+000,8.40419E-003,4.19739E-001,0,8.17545E+001,-1.82872E+000,9.99578E-001,4.82341E+001,-2.98940E+001,9.98965E-001,9.29636E-002,-3.65350E-002,1.48508E-003,9.29806E-002,-3.65520E-002,6.56948E-001,9.36861E-002,1.09739E+000,-8.49480E-003,0.00000E+000,1.04105E-002,9.65584E-001,0.00000E+000,-1.62520E-003,-5.60411E-002,1.00000E+000,14
1259,1337,2.69393E+001,7.95384E-001,-8.54872E-002,5.44196E+000,-1.02167E-001,-1.26669E-001,5.44439E+000,7.86168E-003,4.00782E-001,0,8.18175E+001,-2.12374E+000,9.99733E-001,4.87703E+001,-3.00534E+001,9.99340E-001,9.38769E-002,-3.65041E-002,1.76831E-003,9.39009E-002,-3.65281E-002,7.76890E-001,9.46689E-002,1.09840E+000,-8.44357E-003,0.00000E+000,1.08076E-002,9.65604E-001,0.00000E+000,2.15747E-004,-5.59471E-002,1.00000E+000,14
599,1347,-2.01939E+001,6.82430E-001,1.92454E-002,1.38310E+000,-4.48351E-001,3.65740E-002,1.45442E+000,8.81929E-003,6.34945E-001,0,2.16622E+001,-7.30258E+000,9.99424E-001,-1.89443E+001,-4.84064E+001,9.99342E-001,7.66534E-002,-3.32299E-002,-5.53167E-004,7.66562E-002,-3.32326E-002,-2.88425E-001,7.68817E-002,1.07952E+000,1.81165E-002,0.00000E+000,-1.72152E-002,9.68526E-001,0.00000E+000,-1.27397E-003,-5.31271E-002,1.00000E+000,14
599,1357,-2.01666E+001,1.30433E+000,2.44919E-002,1.39505E+000,-4.68115E-001,1.07862E-002,1.47153E+000,6.23658E-003,6.34176E-001,0,2.19166E+001,-7.56628E+000,9.99501E-001,-1.83550E+001,-4.88744E+001,9.99362E-001,7.50252E-002,-3.32271E-002,-3.35772E-004,7.50262E-002,-3.32281E-002,-1.77715E-001,7.51892E-002,1.07777E+000,1.80754E-002,0.00000E+000,-1.67332E-002,9.68537E-001,0.00000E+000,-2.25207E-003,-5.31500E-002,1.00000E+000,14
1259,1287,2.68825E+001,-2.33376E+000,1.14719E-001,5.46989E+000,2.37632E-002,5.45599E-002,5.47021E+000,1.15343E-002,4.34590E-001,0,8.15016E+001,-4.52659E-001,9.99235E-001,4.79263E+001,-2.90895E+001,9.95271E-001,8.93044E-002,-3.65926E-002,4.18510E-004,8.93058E-002,-3.65940E-002,1.90461E-001,8.97893E-002,1.09342E+000,-8.57301E-003,0.00000E+000,8.83834E-003,9.65553E-001,0.00000E+000,-8.91280E-003,-5.61846E-002,1.00000E+000,14
1259,1297,2.68786E+001,-1.71881E+000,1.45094E-002,5.46457E+000,-5.16263E-003,1.63602E-002,5.46460E+000,9.94002E-003,4.51304E-001,0,8.15896E+001,-8.32108E-001,9.99199E-001,4.77731E+001,-2.93095E+001,9.96646E-001,9.02220E-002,-3.65873E-002,6.76356E-004,9.02257E-002,-3.65909E-002,3.05584E-001,9.07607E-002,1.09441E+000,-8.57084E-003,0.00000E+000,9.22980E-003,9.65554E-001,0.00000E+000,-7.09818E-003,-5.61806E-002,1.00000E+000,14
1259,1307,2.68818E+001,-1.09834E+000,-5.73144E-002,5.45949E+000,-3.14033E-002,-1.92469E-002,5.45961E+000,9.77632E-003,4.49217E-001,0,8.16643E+001,-1.17834E+000,9.99311E-001,4.77704E+001,-2.95126E+001,9.97658E-001,9.11374E-002,-3.65765E-002,9.39500E-004,9.11443E-002,-3.65834E-002,4.21454E-001,9.17334E-002,1.09540E+000,-8.55818E-003,0.00000E+000,9.62213E-003,9.65559E-001,0.00000E+000,-5.27956E-003,-5.61574E-002,1.00000E+000,14
599,1327,-2.02378E+001,-5.46390E-001,1.06716E-001,1.35633E+000,-4.05968E-001,1.05668E-001,1.41972E+000,7.51582E-003,6.13127E-001,0,2.10568E+001,-6.75924E+000,9.99491E-001,-1.96694E+001,-4.74699E+001,9.98814E-001,7.98826E-002,-3.32261E-002,-1.00211E-003,7.98915E-002,-3.32350E-002,-5.07571E-001,8.02664E-002,1.08301E+000,1.81627E-002,0.00000E+000,-1.81745E-002,9.68513E-001,0.00000E+000,6.72788E-004,-5.31013E-002,1.00000E+000,14
599,1337,-2.02199E+001,6.33083E-002,4.39397E-002,1.36857E+000,-4.28901E-001,6.90450E-002,1.43586E+000,6.68997E-003,6.07006E-001,0,2.13484E+001,-7.05197E+000,9.99352E-001,-1.94250E+001,-4.79778E+001,9.99248E-001,7.82743E-002,-3.32299E-002,-7.74801E-004,7.82797E-002,-3.32353E-002,-3.98101E-001,7.85761E-002,1.08127E+000,1.81472E-002,0.00000E+000,-1.76962E-002,9.68518E-001,0.00000E+000,-2.97973E-004,-5.31100E-002,1.00000E+000,14
1259,1317,2.68920E+001,-4.73454E-001,-9.85329E-002,5.45389E+000,-5.66403E-002,-5.25803E-002,5.45443E+000,9.12038E-003,4.41882E-001,0,8.17161E+001,-1.52200E+000,9.99524E-001,4.79201E+001,-2.97159E+001,9.98501E-001,9.20510E-002,-3.65596E-002,1.20851E-003,9.20624E-002,-3.65710E-002,5.38327E-001,9.27082E-002,1.09639E+000,-8.53397E-003,0.00000E+000,1.00156E-002,9.65569E-001,0.00000E+000,-3.45573E-003,-5.61130E-002,1.00000E+000,14
599,1317,-2.02546E+001,-1.15466E+000,1.89033E-001,1.34090E+000,-3.84249E-001,1.35588E-001,1.40145E+000,9.58072E-003,6.01608E-001,0,2.07321E+001,-6.47918E+000,9.99479E-001,-1.98375E+001,-4.69903E+001,9.98891E-001,8.14854E-002,-3.32193E-002,-1.23442E-003,8.14987E-002,-3.32325E-002,-6.16507E-001,8.19596E-002,1.08475E+000,1.81666E-002,0.00000E+000,-1.86524E-002,9.68512E-001,0.00000E+000,1.64248E-003,-5.30992E-002,1.00000E+000,14
589,1347,-2.08846E+001,6.91383E-001,2.48719E-002,1.33078E+000,-4.33778E-001,4.19290E-002,1.40032E+000,6.56657E-003,6.33036E-001,0,2.08387E+001,-7.07762E+000,9.99477E-001,-1.94500E+001,-4.83845E+001,9.99378E-001,7.63406E-002,-3.31303E-002,-1.19119E-004,7.63407E-002,-3.31304E-002,-6.23452E-002,7.65622E-002,1.07915E+000,2.01122E-002,0.00000E+000,-1.81714E-002,9.68547E-001,0.00000E+000,-1.23207E-003,-5.19939E-002,1.00000E+000,14
589,1357,-2.08552E+001,1.31329E+000,3.08979E-002,1.34443E+000,-4.54543E-001,1.36021E-002,1.41926E+000,5.22707E-003,6.40465E-001,0,2.11263E+001,-7.34426E+000,9.99471E-001,-1.88247E+001,-4.88516E+001,9.99608E-001,7.47200E-002,-3.31279E-002,1.00024E-004,7.47201E-002,-3.31280E-002,5.31392E-002,7.48797E-002,1.07740E+000,2.00703E-002,0.00000E+000,-1.76925E-002,9.68559E-001,0.00000E+000,-2.14516E-003,-5.20158E-002,1.00000E+000,14
589,1337,-2.09085E+001,7.02754E-002,5.27136E-002,1.31728E+000,-4.17027E-001,7.18156E-002,1.38358E+000,5.51158E-003,6.13927E-001,0,2.05485E+001,-6.87334E+000,9.99635E-001,-1.98908E+001,-4.79864E+001,9.99498E-001,7.79514E-002,-3.31290E-002,-3.43876E-004,7.79524E-002,-3.31300E-002,-1.77371E-001,7.82442E-002,1.08088E+000,2.01398E-002,0.00000E+000,-1.86486E-002,9.68540E-001,0.00000E+000,-3.22417E-004,-5.19794E-002,1.00000E+000,14
589,1327,-2.09239E+001,-5.33232E-001,1.16487E-001,1.30779E+000,-3.88713E-001,1.10774E-001,1.36882E+000,1.05062E-002,6.86440E-001,0,2.02932E+001,-6.52316E+000,9.99667E-001,-2.00912E+001,-4.73500E+001,9.98837E-001,7.95483E-002,-3.31246E-002,-5.72547E-004,7.95512E-002,-3.31275E-002,-2.91139E-001,7.99207E-002,1.08261E+000,2.01556E-002,0.00000E+000,-1.91227E-002,9.68535E-001,0.00000E+000,5.81494E-004,-5.19712E-002,1.00000E+000,14
1269,1327,2.76446E+001,1.71304E-001,-1.08996E-001,5.51334E+000,-7.31352E-002,-8.99832E-002,5.51456E+000,7.56689E-003,4.29063E-001,0,8.26821E+001,-1.73856E+000,9.99672E-001,4.97145E+001,-2.95900E+001,9.98912E-001,9.28161E-002,-3.61811E-002,1.93423E-003,9.28451E-002,-3.62101E-002,8.58857E-001,9.35910E-002,1.09724E+000,-7.56350E-003,0.00000E+000,1.04287E-002,9.65817E-001,0.00000E+000,-9.42988E-004,-5.39646E-002,1.00000E+000,14
1269,1337,2.76776E+001,8.05504E-001,-8.07279E-002,5.51178E+000,-9.88359E-002,-1.23286E-001,5.51404E+000,8.22660E-003,4.00037E-001,0,8.27813E+001,-2.09355E+000,9.99486E-001,5.03143E+001,-2.98137E+001,9.98414E-001,9.37485E-002,-3.61427E-002,2.27424E-003,9.37883E-002,-3.61825E-002,1.00277E+000,9.46004E-002,1.09826E+000,-7.50941E-003,0.00000E+000,1.09377E-002,9.65844E-001,0.00000E+000,8.99870E-004,-5.38675E-002,1.00000E+000,14
589,1317,-2.09428E+001,-1.14299E+000,2.02751E-001,1.28994E+000,-3.68480E-001,1.42911E-001,1.34913E+000,8.19112E-003,6.03772E-001,0,1.99258E+001,-6.24178E+000,9.99206E-001,-2.02793E+001,-4.69354E+001,9.98113E-001,8.11424E-002,-3.31169E-002,-8.07107E-004,8.11481E-002,-3.31226E-002,-4.04700E-001,8.16030E-002,1.08434E+000,2.01586E-002,0.00000E+000,-1.95971E-002,9.68534E-001,0.00000E+000,1.48592E-003,-5.19696E-002,1.00000E+000,14
1269,1317,2.76281E+001,-4.59330E-001,-9.65397E-002,5.52053E+000,-4.91553E-002,-5.69398E-002,5.52104E+000,7.80032E-003,4.23484E-001,0,8.26605E+001,-1.40715E+000,9.99635E-001,4.94297E+001,-2.94197E+001,9.98705E-001,9.18835E-002,-3.62089E-002,1.60318E-003,9.19036E-002,-3.62289E-002,7.16952E-001,9.25868E-002,1.09622E+000,-7.60040E-003,0.00000E+000,9.92212E-003,9.65799E-001,0.00000E+000,-2.77730E-003,-5.40309E-002,1.00000E+000,14
1269,1307,2.76167E+001,-1.08502E+000,-5.43730E-002,5.52506E+000,-2.49474E-002,-2.26351E-002,5.52516E+000,8.46276E-003,4.41438E-001,0,8.25885E+001,-1.07882E+000,9.99350E-001,4.92635E+001,-2.92273E+001,9.98250E-001,9.09510E-002,-3.62291E-002,1.27888E-003,9.09638E-002,-3.62420E-002,5.76067E-001,9.15874E-002,1.09520E+000,-7.62532E-003,0.00000E+000,9.41797E-003,9.65786E-001,0.00000E+000,-4.60275E-003,-5.40757E-002,1.00000E+000,14
1269,1297,2.76084E+001,-1.70851E+000,6.71848E-003,5.52762E+000,-4.63811E-004,1.15484E-002,5.52764E+000,9.54185E-003,4.44168E-001,0,8.24840E+001,-7.51376E-001,9.99300E-001,4.91720E+001,-2.90498E+001,9.97785E-001,9.00153E-002,-3.62444E-002,9.58480E-004,9.00225E-002,-3.62517E-002,4.34918E-001,9.05890E-002,1.09419E+000,-7.64227E-003,0.00000E+000,8.91451E-003,9.65778E-001,0.00000E+000,-6.42571E-003,-5.41061E-002,1.00000E+000,14
1269,1287,2.76153E+001,-2.32416E+000,1.13444E-001,5.53363E+000,2.65087E-002,4.79449E-002,5.53390E+000,1.43135E-002,4.24442E-001,0,8.24120E+001,-3.91421E-001,9.99480E-001,4.93787E+001,-2.88574E+001,9.96089E-001,8.90794E-002,-3.62484E-002,6.47758E-004,8.90827E-002,-3.62518E-002,2.96123E-001,8.95955E-002,1.09317E+000,-7.64102E-003,0.00000E+000,8.41334E-003,9.65779E-001,0.00000E+000,-8.24034E-003,-5.41039E-002,1.00000E+000,14
579,1347,-2.15721E+001,6.98242E-001,2.91364E-002,1.28062E+000,-4.22168E-001,4.16883E-002,1.34905E+000,5.69770E-003,6.45278E-001,0,2.00632E+001,-6.89018E+000,9.99481E-001,-1.99060E+001,-4.83844E+001,9.99479E-001,7.56689E-002,-3.29730E-002,3.06003E-004,7.56698E-002,-3.29739E-002,1.61379E-001,7.58777E-002,1.07838E+000,2.20624E-002,0.00000E+000,-1.90921E-002,9.68638E-001,0.00000E+000,-1.61967E-003,-5.11193E-002,1.00000E+000,14
579,1357,-2.15385E+001,1.32372E+000,3.65757E-002,1.29834E+000,-4.39696E-001,1.29076E-002,1.37084E+000,5.61171E-003,6.58632E-001,0,2.04145E+001,-7.10450E+000,9.99662E-001,-1.92097E+001,-4.87983E+001,9.99733E-001,7.39584E-002,-3.29711E-002,5.40759E-004,7.39611E-002,-3.29738E-002,2.89744E-001,7.41057E-002,1.07654E+000,2.20179E-002,0.00000E+000,-1.85811E-002,9.68650E-001,0.00000E+000,-2.63166E-003,-5.11438E-002,1.00000E+000,14
579,1337,-2.15985E+001,7.89800E-002,5.94621E-002,1.26446E+000,-4.03808E-001,7.40281E-002,1.32944E+000,5.62697E-003,6.26725E-001,0,1.97253E+001,-6.66574E+000,9.99381E-001,-2.03781E+001,-4.79615E+001,9.99447E-001,7.73678E-002,-3.29708E-002,6.51693E-005,7.73678E-002,-3.29709E-002,3.38406E-002,7.76486E-002,1.08021E+000,2.20911E-002,0.00000E+000,-1.96010E-002,9.68630E-001,0.00000E+000,-6.12067E-004,-5.11035E-002,1.00000E+000,14
579,1327,-2.16201E+001,-5.25883E-001,1.13125E-001,1.24929E+000,-3.77061E-001,1.06584E-001,1.30930E+000,7.29366E-003,6.91782E-001,0,1.93989E+001,-6.31290E+000,9.99668E-001,-2.07037E+001,-4.73269E+001,9.98781E-001,7.90511E-002,-3.29659E-002,-1.78828E-004,7.90514E-002,-3.29662E-002,-9.14686E-002,7.94135E-002,1.08203E+000,2.21092E-002,0.00000E+000,-2.01064E-002,9.68625E-001,0.00000E+000,3.88811E-004,-5.10936E-002,1.00000E+000,14
579,1317,-2.16347E+001,-1.13020E+000,2.01871E-001,1.23594E+000,-3.52918E-001,1.42822E-001,1.29325E+000,1.03550E-002,6.76019E-001,0,1.90908E+001,-5.98984E+000,9.99240E-001,-2.08177E+001,-4.67982E+001,9.97786E-001,8.07283E-002,-3.29571E-002,-4.28974E-004,8.07299E-002,-3.29587E-002,-2.16192E-001,8.11816E-002,1.08385E+000,2.21129E-002,0.00000E+000,-2.06112E-002,9.68624E-001,0.00000E+000,1.38849E-003,-5.10915E-002,1.00000E+000,14
1279,1317,2.83565E+001,-4.51201E-001,-1.01553E-001,5.58232E+000,-4.53054E-002,-5.58231E-002,5.58278E+000,7.27095E-003,3.92909E-001,0,8.35123E+001,-1.36206E+000,9.99513E-001,5.08122E+001,-2.92086E+001,9.98014E-001,9.15718E-002,-3.56772E-002,1.92859E-003,9.16010E-002,-3.57064E-002,8.68112E-001,9.23396E-002,1.09588E+000,-6.68631E-003,0.00000E+000,9.71826E-003,9.66217E-001,0.00000E+000,-2.12862E-003,-5.21102E-002,1.00000E+000,14
1279,1327,2.83820E+001,1.84885E-001,-1.04816E-001,5.58251E+000,-6.63176E-002,-8.51120E-002,5.58355E+000,1.06377E-002,4.38079E-001,0,8.36263E+001,-1.65495E+000,9.99395E-001,5.12493E+001,-2.92921E+001,9.98733E-001,9.25847E-002,-3.56424E-002,2.32420E-003,9.26268E-002,-3.56846E-002,1.03807E+000,9.34363E-002,1.09699E+000,-6.64350E-003,0.00000E+000,1.03383E-002,9.66241E-001,0.00000E+000,-8.79267E-005,-5.20315E-002,1.00000E+000,14
1279,1337,2.84148E+001,8.19875E-001,-7.65007E-002,5.58057E+000,-9.27824E-002,-1.17879E-001,5.58258E+000,8.34415E-003,4.33469E-001,0,8.37186E+001,-2.01414E+000,9.99462E-001,5.18428E+001,-2.94901E+001,9.99039E-001,9.35957E-002,-3.55968E-002,2.72807E-003,9.36533E-002,-3.56544E-002,1.20916E+000,9.45376E-002,1.09811E+000,-6.58468E-003,0.00000E+000,1.09606E-002,9.66274E-001,0.00000E+000,1.96031E-003,-5.19235E-002,1.00000E+000,14
1279,1307,2.83405E+001,-1.07542E+000,-6.36841E-002,5.58358E+000,-1.96034E-002,-2.13034E-002,5.58365E+000,8.75300E-003,4.46389E-001,0,8.33903E+001,-1.01491E+000,9.99434E-001,5.05692E+001,-2.89683E+001,9.97369E-001,9.05620E-002,-3.57025E-002,1.54208E-003,9.05808E-002,-3.57213E-002,6.99619E-001,9.12523E-002,1.09478E+000,-6.71552E-003,0.00000E+000,9.10349E-003,9.66201E-001,0.00000E+000,-4.15200E-003,-5.21638E-002,1.00000E+000,14
1279,1297,2.83390E+001,-1.69509E+000,1.60746E-002,5.58951E+000,8.19263E-003,1.86819E-002,5.58955E+000,1.51434E-002,3.69813E-001,0,8.33071E+001,-6.26658E-001,9.99278E-001,5.06087E+001,-2.88120E+001,9.98021E-001,8.95475E-002,-3.57165E-002,1.16317E-003,8.95583E-002,-3.57273E-002,5.31974E-001,9.01661E-002,1.09368E+000,-6.72820E-003,0.00000E+000,8.48914E-003,9.66194E-001,0.00000E+000,-6.17400E-003,-5.21871E-002,1.00000E+000,14
1279,1287,2.83392E+001,-2.32315E+000,9.67483E-002,5.59290E+000,2.45239E-002,4.35998E-002,5.59313E+000,1.40254E-002,3.29402E-001,0,8.32507E+001,-3.86676E-001,9.99359E-001,5.06769E+001,-2.87697E+001,9.97167E-001,8.85310E-002,-3.57252E-002,7.88783E-004,8.85360E-002,-3.57302E-002,3.63696E-001,8.90831E-002,1.09258E+000,-6.73352E-003,0.00000E+000,7.87686E-003,9.66191E-001,0.00000E+000,-8.18917E-003,-5.21969E-002,1.00000E+000,14
569,1347,-2.22577E+001,7.10572E-001,3.32098E-002,1.23227E+000,-4.05180E-001,4.29324E-002,1.29789E+000,6.14974E-003,6.57737E-001,0,1.93102E+001,-6.61684E+000,9.99447E-001,-2.03270E+001,-4.82998E+001,9.99189E-001,7.52770E-002,-3.27289E-002,6.70064E-004,7.52812E-002,-3.27331E-002,3.55442E-001,7.54941E-002,1.07792E+000,2.40789E-002,0.00000E+000,-2.02022E-002,9.68811E-001,0.00000E+000,-1.75206E-003,-5.02709E-002,1.00000E+000,14
569,1357,-2.22258E+001,1.33094E+000,3.24357E-002,1.24973E+000,-4.25466E-001,1.36006E-002,1.32024E+000,5.90043E-003,6.53516E-001,0,1.96595E+001,-6.87991E+000,9.99597E-001,-1.96810E+001,-4.87849E+001,9.99330E-001,7.35226E-002,-3.27287E-002,9.52931E-004,7.35311E-002,-3.27372E-002,5.13811E-001,7.36781E-002,1.07603E+000,2.40375E-002,0.00000E+000,-1.95978E-002,9.68824E-001,0.00000E+000,-2.92112E-003,-5.02966E-002,1.00000E+000,14
569,1327,-2.23075E+001,-5.21559E-001,1.06517E-001,1.19994E+000,-3.67370E-001,1.03352E-001,1.25916E+000,1.03916E-002,6.80611E-001,0,1.86449E+001,-6.13564E+000,9.99769E-001,-2.11876E+001,-4.73503E+001,9.99237E-001,7.87553E-002,-3.27193E-002,9.23783E-005,7.87553E-002,-3.27193E-002,4.74806E-002,7.91297E-002,1.08167E+000,2.41292E-002,0.00000E+000,-2.14055E-002,9.68794E-001,0.00000E+000,5.75131E-004,-5.02397E-002,1.00000E+000,14
569,1337,-2.22840E+001,9.17530E-002,6.27781E-002,1.21550E+000,-3.87373E-001,7.07661E-002,1.27770E+000,5.51417E-003,6.47370E-001,0,1.89748E+001,-6.39118E+000,9.99519E-001,-2.08003E+001,-4.78623E+001,9.99391E-001,7.70220E-002,-3.27248E-002,3.81588E-004,7.70233E-002,-3.27261E-002,1.99213E-001,7.73125E-002,1.07980E+000,2.41063E-002,0.00000E+000,-2.08051E-002,9.68802E-001,0.00000E+000,-5.86101E-004,-5.02539E-002,1.00000E+000,14
1289,1327,2.91069E+001,1.92398E-001,-1.14435E-001,5.64165E+000,-6.32979E-002,-8.32154E-002,5.64262E+000,9.75366E-003,4.30170E-001,0,8.44358E+001,-1.62415E+000,9.99192E-001,5.25738E+001,-2.90681E+001,9.98178E-001,9.23017E-002,-3.49007E-002,2.68725E-003,9.23584E-002,-3.49575E-002,1.20970E+000,9.32630E-002,1.09669E+000,-5.57361E-003,0.00000E+000,1.00751E-002,9.66854E-001,0.00000E+000,6.39449E-004,-4.98179E-002,1.00000E+000,14
1289,1337,2.91413E+001,8.31345E-001,-8.55547E-002,5.64126E+000,-8.62487E-002,-1.14737E-001,5.64309E+000,9.63097E-003,4.35698E-001,0,8.45450E+001,-1.93316E+000,9.99407E-001,5.31908E+001,-2.91991E+001,9.98582E-001,9.34306E-002,-3.48503E-002,3.13743E-003,9.35073E-002,-3.49270E-002,1.40020E+000,9.44993E-002,1.09794E+000,-5.50783E-003,0.00000E+000,1.07754E-002,9.66891E-001,0.00000E+000,2.91594E-003,-4.96978E-002,1.00000E+000,14
569,1317,-2.23260E+001,-1.12024E+000,2.01968E-001,1.18118E+000,-3.37925E-001,1.37044E-001,1.23619E+000,1.14173E-002,6.65168E-001,0,1.82576E+001,-5.74201E+000,9.99329E-001,-2.13384E+001,-4.67480E+001,9.98200E-001,8.04801E-002,-3.27066E-002,-2.06833E-004,8.04805E-002,-3.27070E-002,-1.04700E-001,8.09492E-002,1.08354E+000,2.41287E-002,0.00000E+000,-2.20048E-002,9.68795E-001,0.00000E+000,1.73403E-003,-5.02400E-002,1.00000E+000,14
1289,1317,2.90847E+001,-4.39554E-001,-1.00185E-001,5.64239E+000,-4.17460E-002,-5.18443E-002,5.64278E+000,1.19811E-002,4.73267E-001,0,8.43244E+001,-1.33171E+000,9.99507E-001,5.22033E+001,-2.89017E+001,9.97168E-001,9.11761E-002,-3.49359E-002,2.25055E-003,9.12162E-002,-3.49760E-002,1.02205E+000,9.20387E-002,1.09545E+000,-5.61701E-003,0.00000E+000,9.38112E-003,9.66829E-001,0.00000E+000,-1.61642E-003,-4.98971E-002,1.00000E+000,14
1289,1287,2.90658E+001,-2.30569E+000,8.83474E-002,5.65257E+000,3.63512E-002,4.12710E-002,5.65284E+000,1.46236E-002,4.13767E-001,0,8.40780E+001,-2.36543E-001,9.99307E-001,5.20309E+001,-2.83540E+001,9.97052E-001,8.77729E-002,-3.49892E-002,9.78308E-004,8.77807E-002,-3.49970E-002,4.56559E-001,8.83793E-002,1.09176E+000,-5.67205E-003,0.00000E+000,7.30773E-003,9.66798E-001,0.00000E+000,-8.35621E-003,-4.99976E-002,1.00000E+000,14
1289,1297,2.90703E+001,-1.68680E+000,2.19798E-002,5.65042E+000,1.10656E-002,1.76470E-002,5.65045E+000,1.52213E-002,3.09225E-001,0,8.41495E+001,-5.80269E-001,9.99380E-001,5.20562E+001,-2.86399E+001,9.97916E-001,8.89082E-002,-3.49756E-002,1.39782E-003,8.89240E-002,-3.49914E-002,6.46377E-001,8.95939E-002,1.09299E+000,-5.65947E-003,0.00000E+000,7.99536E-003,9.66805E-001,0.00000E+000,-6.12098E-003,-4.99747E-002,1.00000E+000,14
1289,1307,2.90722E+001,-1.06519E+000,-6.21661E-002,5.64595E+000,-1.63446E-002,-2.22530E-002,5.64601E+000,1.11787E-002,4.58665E-001,0,8.42556E+001,-9.69523E-001,9.99720E-001,5.20166E+001,-2.87188E+001,9.97700E-001,9.00455E-002,-3.49620E-002,1.82013E-003,9.00720E-002,-3.49885E-002,8.34000E-001,9.08161E-002,1.09422E+000,-5.64735E-003,0.00000E+000,8.68824E-003,9.66812E-001,0.00000E+000,-3.86872E-003,-4.99525E-002,1.00000E+000,14
559,1327,-2.29874E+001,-5.11097E-001,9.89731E-002,1.15671E+000,-3.53163E-001,9.35708E-002,1.21304E+000,1.94962E-002,7.71552E-001,0,1.80010E+001,-5.91311E+000,9.99791E-001,-2.15557E+001,-4.72258E+001,9.99055E-001,7.84439E-002,-3.26596E-002,4.34948E-004,7.84456E-002,-3.26613E-002,2.24297E-001,7.88106E-002,1.08129E+000,2.62140E-002,0.00000E+000,-2.26135E-002,9.68767E-001,0.00000E+000,5.81244E-004,-4.90309E-002,1.00000E+000,14
559,1337,-2.29694E+001,1.02110E-001,5.96269E-002,1.16711E+000,-3.72118E-001,6.68741E-002,1.22682E+000,5.16436E-003,6.52577E-001,0,1.82343E+001,-6.13207E+000,9.99807E-001,-2.12381E+001,-4.77942E+001,9.99598E-001,7.67476E-002,-3.26653E-002,6.81104E-004,7.67518E-002,-3.26696E-002,3.56653E-001,7.70341E-002,1.07945E+000,2.61926E-002,0.00000E+000,-2.21000E-002,9.68773E-001,0.00000E+000,-6.15803E-004,-4.90449E-002,1.00000E+000,14
559,1347,-2.29462E+001,7.20323E-001,3.25955E-002,1.18089E+000,-3.88774E-001,4.09633E-002,1.24392E+000,6.73200E-003,6.41398E-001,0,1.85173E+001,-6.35812E+000,9.99563E-001,-2.08025E+001,-4.82596E+001,9.99294E-001,7.50419E-002,-3.26696E-002,9.25696E-004,7.50498E-002,-3.26776E-002,4.92364E-001,7.52583E-002,1.07762E+000,2.61661E-002,0.00000E+000,-2.15850E-002,9.68780E-001,0.00000E+000,-1.81627E-003,-4.90622E-002,1.00000E+000,14
559,1357,-2.29129E+001,1.34040E+000,3.15459E-002,1.20043E+000,-4.08280E-001,1.50984E-002,1.26805E+000,5.68642E-003,6.38195E-001,0,1.88898E+001,-6.62254E+000,9.99533E-001,-2.01363E+001,-4.87497E+001,9.99549E-001,7.33242E-002,-3.26709E-002,1.16606E-003,7.33371E-002,-3.26837E-002,6.30215E-001,7.34813E-002,1.07577E+000,2.61278E-002,0.00000E+000,-2.10678E-002,9.68791E-001,0.00000E+000,-3.02183E-003,-4.90872E-002,1.00000E+000,14
559,1317,-2.30116E+001,-1.10741E+000,2.02953E-001,1.13184E+000,-3.21969E-001,1.33061E-001,1.18424E+000,1.92138E-002,7.02045E-001,0,1.75032E+001,-5.47626E+000,9.99541E-001,-2.17650E+001,-4.66314E+001,9.98868E-001,8.01336E-002,-3.26479E-002,1.78561E-004,8.01339E-002,-3.26482E-002,9.07132E-002,8.05905E-002,1.08311E+000,2.62123E-002,0.00000E+000,-2.31265E-002,9.68767E-001,0.00000E+000,1.77714E-003,-4.90320E-002,1.00000E+000,14
1299,1327,2.98408E+001,2.05639E-001,-1.12372E-001,5.70514E+000,-5.74855E-002,-8.46042E-002,5.70606E+000,1.25866E-002,4.47027E-001,0,8.53178E+001,-1.54506E+000,9.99238E-001,5.40571E+001,-2.87677E+001,9.98479E-001,9.20448E-002,-3.40566E-002,3.01866E-003,9.21170E-002,-3.41288E-002,1.37052E+000,9.31413E-002,1.09642E+000,-4.25301E-003,0.00000E+000,9.54340E-003,9.67557E-001,0.00000E+000,1.14217E-003,-4.72450E-002,1.00000E+000,14
1299,1337,2.98810E+001,8.44198E-001,-7.90148E-002,5.70904E+000,-8.24832E-002,-1.16198E-001,5.71082E+000,1.17602E-002,4.77163E-001,0,8.54914E+001,-1.88696E+000,9.99186E-001,5.47675E+001,-2.89004E+001,9.98177E-001,9.32971E-002,-3.40005E-002,3.51005E-003,9.33938E-002,-3.40972E-002,1.57825E+000,9.45202E-002,1.09780E+000,-4.17699E-003,0.00000E+000,1.03114E-002,9.67599E-001,0.00000E+000,3.64838E-003,-4.71074E-002,1.00000E+000,14
1299,1287,2.98002E+001,-2.29411E+000,9.45761E-002,5.71522E+000,3.91119E-002,3.77996E-002,5.71548E+000,1.10509E-002,5.00449E-001,0,8.49537E+001,-2.09261E-001,9.99462E-001,5.35292E+001,-2.80590E+001,9.97437E-001,8.70262E-002,-3.41473E-002,1.16543E-003,8.70374E-002,-3.41585E-002,5.50996E-001,8.77059E-002,1.09096E+000,-4.35922E-003,0.00000E+000,6.51586E-003,9.67498E-001,0.00000E+000,-8.73764E-003,-4.74372E-002,1.00000E+000,14
1299,1297,2.98032E+001,-1.67960E+000,1.51811E-002,5.71300E+000,9.69602E-003,6.52592E-003,5.71301E+000,1.13576E-002,4.60418E-001,0,8.50597E+001,-6.28173E-001,9.99687E-001,5.35141E+001,-2.83516E+001,9.97869E-001,8.82859E-002,-3.41354E-002,1.61946E-003,8.83073E-002,-3.41568E-002,7.57764E-001,8.90586E-002,1.09231E+000,-4.34821E-003,0.00000E+000,7.26854E-003,9.67504E-001,0.00000E+000,-6.28142E-003,-4.74173E-002,1.00000E+000,14
1299,1307,2.98166E+001,-1.04965E+000,-3.05145E-002,5.71574E+000,-9.91384E-003,-1.03108E-002,5.71576E+000,2.01028E-002,5.10893E-001,0,8.51705E+001,-9.28933E-001,9.99639E-001,5.37037E+001,-2.84305E+001,9.98200E-001,8.95464E-002,-3.41157E-002,2.08161E-003,8.95815E-002,-3.41507E-002,9.64097E-001,9.04200E-002,1.09368E+000,-4.32598E-003,0.00000E+000,8.02649E-003,9.67516E-001,0.00000E+000,-3.80799E-003,-4.73771E-002,1.00000E+000,14
1299,1317,2.98255E+001,-4.24439E-001,-8.48805E-002,5.70919E+000,-3.56428E-002,-5.37080E-002,5.70955E+000,1.63718E-002,4.97010E-001,0,8.52541E+001,-1.25273E+000,9.99331E-001,5.38129E+001,-2.85983E+001,9.98062E-001,9.07995E-002,-3.40890E-002,2.54839E-003,9.08515E-002,-3.41409E-002,1.16849E+000,9.17812E-002,1.09505E+000,-4.29358E-003,0.00000E+000,8.78485E-003,9.67534E-001,0.00000E+000,-1.33322E-003,-4.73184E-002,1.00000E+000,14
559,1307,-2.30307E+001,-1.70901E+000,3.12831E-001,1.11029E+000,-2.97201E-001,1.67402E-001,1.16150E+000,8.76190E-003,6.79693E-001,0,1.70716E+001,-5.15898E+000,9.99100E-001,-2.18806E+001,-4.61046E+001,9.98497E-001,8.18181E-002,-3.26348E-002,-7.97834E-005,8.18181E-002,-3.26349E-002,-3.99400E-002,8.23741E-002,1.08494E+000,2.62056E-002,0.00000E+000,-2.36393E-002,9.68769E-001,0.00000E+000,2.97249E-003,-4.90364E-002,1.00000E+000,14
549,1347,-2.36288E+001,7.33967E-001,3.66666E-002,1.13496E+000,-3.70761E-001,4.38318E-002,1.19479E+000,5.78384E-003,6.85117E-001,0,1.77960E+001,-6.08055E+000,9.99529E-001,-2.11696E+001,-4.81392E+001,9.99336E-001,7.48199E-002,-3.25510E-002,1.19757E-003,7.48333E-002,-3.25643E-002,6.38945E-001,7.50428E-002,1.07733E+000,2.81509E-002,0.00000E+000,-2.28545E-002,9.68812E-001,0.00000E+000,-1.71392E-003,-4.78858E-002,1.00000E+000,14
549,1357,-2.35957E+001,1.35752E+000,3.89723E-002,1.15366E+000,-3.87600E-001,1.60394E-002,1.21714E+000,6.09906E-003,6.63718E-001,0,1.81594E+001,-6.28562E+000,9.99523E-001,-2.04925E+001,-4.85947E+001,9.99484E-001,7.31482E-002,-3.25524E-002,1.42268E-003,7.31674E-002,-3.25716E-002,7.70988E-001,7.33139E-002,1.07553E+000,2.81119E-002,0.00000E+000,-2.23686E-002,9.68822E-001,0.00000E+000,-2.93917E-003,-4.79123E-002,1.00000E+000,14
549,1327,-2.36858E+001,-4.93685E-001,1.22709E-001,1.09316E+000,-3.31369E-001,1.05089E-001,1.14710E+000,1.54161E-002,7.67224E-001,0,1.69809E+001,-5.60005E+000,9.99309E-001,-2.21014E+001,-4.71121E+001,9.97791E-001,7.81311E-002,-3.25389E-002,7.33381E-004,7.81360E-002,-3.25438E-002,3.79662E-001,7.84983E-002,1.08090E+000,2.81921E-002,0.00000E+000,-2.38209E-002,9.68801E-001,0.00000E+000,7.23073E-004,-4.78576E-002,1.00000E+000,14
549,1337,-2.36552E+001,1.16817E-001,6.66639E-002,1.11762E+000,-3.51130E-001,7.06743E-002,1.17361E+000,5.19871E-003,6.49575E-001,0,1.74545E+001,-5.82337E+000,9.99651E-001,-2.16445E+001,-4.76858E+001,9.99607E-001,7.64844E-002,-3.25460E-002,9.66331E-004,7.64929E-002,-3.25545E-002,5.07757E-001,7.67748E-002,1.07912E+000,2.81755E-002,0.00000E+000,-2.33396E-002,9.68805E-001,0.00000E+000,-4.90561E-004,-4.78689E-002,1.00000E+000,14
1309,1317,3.05507E+001,-4.20103E-001,-1.05506E-001,5.76794E+000,-3.51056E-002,-6.25222E-002,5.76839E+000,1.29365E-002,4.56187E-001,0,8.61002E+001,-1.22734E+000,9.99193E-001,5.51376E+001,-2.84180E+001,9.98200E-001,9.06588E-002,-3.33361E-002,2.87981E-003,9.07257E-002,-3.34029E-002,1.32975E+000,9.17708E-002,1.09490E+000,-2.68824E-003,0.00000E+000,8.00719E-003,9.68152E-001,0.00000E+000,-1.15485E-003,-4.46250E-002,1.00000E+000,14
1309,1327,3.05749E+001,2.13928E-001,-1.21066E-001,5.76988E+000,-5.49703E-002,-9.12246E-002,5.77086E+000,1.50371E-002,4.37487E-001,0,8.62412E+001,-1.50557E+000,9.99045E-001,5.55334E+001,-2.85338E+001,9.97912E-001,9.20245E-002,-3.33022E-002,3.33779E-003,9.21133E-002,-3.33910E-002,1.52450E+000,9.32671E-002,1.09640E+000,-2.63737E-003,0.00000E+000,8.73730E-003,9.68177E-001,0.00000E+000,1.41469E-003,-4.45378E-002,1.00000E+000,14
1309,1337,3.06126E+001,8.54357E-001,-8.84749E-002,5.77238E+000,-7.74322E-002,-1.18713E-001,5.77412E+000,1.35903E-002,4.63385E-001,0,8.63769E+001,-1.81871E+000,9.99397E-001,5.62010E+001,-2.86366E+001,9.98794E-001,9.33941E-002,-3.32509E-002,3.81286E-003,9.35088E-002,-3.33656E-002,1.72291E+000,9.47782E-002,1.09792E+000,-2.55673E-003,0.00000E+000,9.47442E-003,9.68216E-001,0.00000E+000,4.00889E-003,-4.43997E-002,1.00000E+000,14
549,1317,-2.37004E+001,-1.09526E+000,2.12290E-001,1.07893E+000,-3.06070E-001,1.37540E-001,1.12990E+000,1.29899E-002,7.59969E-001,0,1.66702E+001,-5.24993E+000,9.99453E-001,-2.22109E+001,-4.65329E+001,9.98601E-001,7.97717E-002,-3.25281E-002,4.93823E-004,7.97738E-002,-3.25302E-002,2.51944E-001,8.02248E-002,1.08267E+000,2.81935E-002,0.00000E+000,-2.43017E-002,9.68800E-001,0.00000E+000,1.93557E-003,-4.78567E-002,1.00000E+000,14
549,1307,-2.37180E+001,-1.69637E+000,3.04940E-001,1.05976E+000,-2.80183E-001,1.60287E-001,1.10782E+000,9.29599E-003,7.06349E-001,0,1.63059E+001,-4.87462E+000,9.99151E-001,-2.23553E+001,-4.59759E+001,9.98571E-001,8.14108E-002,-3.25158E-002,2.51544E-004,8.14113E-002,-3.25164E-002,1.26505E-001,8.19587E-002,1.08445E+000,2.81895E-002,0.00000E+000,-2.47834E-002,9.68801E-001,0.00000E+000,3.15024E-003,-4.78594E-002,1.00000E+000,14
1309,1287,3.05346E+001,-2.28940E+000,9.56853E-002,5.77649E+000,3.80023E-002,2.58877E-002,5.77667E+000,1.02341E-002,4.58582E-001,0,8.58441E+001,-2.13526E-001,9.99476E-001,5.50240E+001,-2.79244E+001,9.97177E-001,8.65309E-002,-3.33805E-002,1.55479E-003,8.65510E-002,-3.34007E-002,7.42741E-001,8.72989E-002,1.09043E+000,-2.74502E-003,0.00000E+000,5.82852E-003,9.68124E-001,0.00000E+000,-8.82243E-003,-4.47222E-002,1.00000E+000,14
1309,1297,3.05351E+001,-1.67483E+000,7.68244E-003,5.77351E+000,6.94708E-003,-7.26174E-003,5.77352E+000,1.31526E-002,4.77321E-001,0,8.59495E+001,-6.45926E-001,9.99441E-001,5.49591E+001,-2.81672E+001,9.97382E-001,8.79139E-002,-3.33723E-002,1.99111E-003,8.79465E-002,-3.34050E-002,9.40266E-001,8.87891E-002,1.09192E+000,-2.73693E-003,0.00000E+000,6.55380E-003,9.68128E-001,0.00000E+000,-6.26988E-003,-4.47084E-002,1.00000E+000,14
1309,1307,3.05359E+001,-1.04775E+000,-6.90798E-002,5.76938E+000,-9.99156E-003,-3.44265E-002,5.76949E+000,1.31473E-002,3.98223E-001,0,8.60053E+001,-8.62768E-001,9.99429E-001,5.49130E+001,-2.82879E+001,9.98715E-001,8.92841E-002,-3.33619E-002,2.42747E-003,8.93321E-002,-3.34100E-002,1.13343E+000,9.02727E-002,1.09340E+000,-2.72570E-003,0.00000E+000,7.27695E-003,9.68134E-001,0.00000E+000,-3.72485E-003,-4.46892E-002,1.00000E+000,14
539,1347,-2.43149E+001,7.48547E-001,3.76812E-002,1.08507E+000,-3.50449E-001,4.25560E-002,1.14105E+000,5.46512E-003,6.67920E-001,0,1.70219E+001,-5.74953E+000,9.99563E-001,-2.15927E+001,-4.80291E+001,9.99456E-001,7.46534E-002,-3.23864E-002,1.35708E-003,7.46706E-002,-3.24036E-002,7.26257E-001,7.48874E-002,1.07710E+000,2.99385E-002,0.00000E+000,-2.41626E-002,9.68881E-001,0.00000E+000,-1.68537E-003,-4.65936E-002,1.00000E+000,14
539,1357,-2.42820E+001,1.37335E+000,3.51717E-002,1.10467E+000,-3.65344E-001,1.59329E-002,1.16363E+000,5.35602E-003,6.61575E-001,0,1.73958E+001,-5.92822E+000,9.99665E-001,-2.09319E+001,-4.84492E+001,9.99519E-001,7.30795E-002,-3.23891E-002,1.56668E-003,7.31028E-002,-3.24123E-002,8.50845E-001,7.32589E-002,1.07541E+000,2.99047E-002,0.00000E+000,-2.37089E-002,9.68890E-001,0.00000E+000,-3.00107E-003,-4.66199E-002,1.00000E+000,14
539,1327,-2.43674E+001,-4.79855E-001,1.13311E-001,1.04803E+000,-3.10029E-001,9.61509E-002,1.09715E+000,6.98127E-003,6.53374E-001,0,1.63015E+001,-5.21529E+000,9.99040E-001,-2.24889E+001,-4.70348E+001,9.98704E-001,7.77755E-002,-3.23742E-002,9.26951E-004,7.77833E-002,-3.23820E-002,4.82120E-001,7.81456E-002,1.08047E+000,2.99780E-002,0.00000E+000,-2.50665E-002,9.68870E-001,0.00000E+000,9.35773E-004,-4.65628E-002,1.00000E+000,14
539,1337,-2.43414E+001,1.33323E-001,6.64065E-002,1.06746E+000,-3.29167E-001,6.77593E-002,1.11911E+000,6.01764E-003,6.45640E-001,0,1.66800E+001,-5.46929E+000,9.99370E-001,-2.20735E+001,-4.75349E+001,9.99329E-001,7.62203E-002,-3.23811E-002,1.14284E-003,7.62323E-002,-3.23931E-002,6.02847E-001,7.65182E-002,1.07879E+000,2.99613E-002,0.00000E+000,-2.46156E-002,9.68875E-001,0.00000E+000,-3.71712E-004,-4.65758E-002,1.00000E+000,14
1319,1297,3.12549E+001,-1.66845E+000,-1.53336E-002,5.82638E+000,1.11838E-002,-1.88682E-002,5.82642E+000,1.10022E-002,3.59495E-001,0,8.67164E+001,-5.38609E-001,9.99427E-001,5.62005E+001,-2.79930E+001,9.98051E-001,8.75780E-002,-3.25639E-002,2.44780E-003,8.76278E-002,-3.26138E-002,1.16671E+000,8.85771E-002,1.09156E+000,-8.06165E-004,0.00000E+000,5.72463E-003,9.68793E-001,0.00000E+000,-6.44865E-003,-4.17032E-002,1.00000E+000,14
1319,1307,3.12630E+001,-1.04535E+000,-8.06922E-002,5.82628E+000,-1.25407E-002,-4.62703E-002,5.82648E+000,1.26306E-002,3.39325E-001,0,8.68343E+001,-8.74196E-001,9.99360E-001,5.62827E+001,-2.81683E+001,9.98777E-001,8.90981E-002,-3.25505E-002,2.88499E-003,8.91665E-002,-3.26189E-002,1.35780E+000,9.02304E-002,1.09320E+000,-7.85395E-004,0.00000E+000,6.44433E-003,9.68802E-001,0.00000E+000,-3.73450E-003,-4.16690E-002,1.00000E+000,14
539,1307,-2.44045E+001,-1.68545E+000,3.00109E-001,1.00925E+000,-2.63269E-001,1.53025E-001,1.05419E+000,6.22684E-003,6.72764E-001,0,1.55397E+001,-4.59319E+000,9.99434E-001,-2.28029E+001,-4.59101E+001,9.98962E-001,8.08604E-002,-3.23515E-002,4.80289E-004,8.08624E-002,-3.23535E-002,2.43065E-001,8.13986E-002,1.08381E+000,2.99742E-002,0.00000E+000,-2.59648E-002,9.68871E-001,0.00000E+000,3.54071E-003,-4.65657E-002,1.00000E+000,14
539,1317,-2.43874E+001,-1.08716E+000,1.98690E-001,1.02877E+000,-2.89776E-001,1.26359E-001,1.07625E+000,6.69483E-003,6.93689E-001,0,1.59192E+001,-4.97319E+000,9.99291E-001,-2.26937E+001,-4.65101E+001,9.98710E-001,7.93216E-002,-3.23638E-002,7.05117E-004,7.93260E-002,-3.23683E-002,3.61713E-001,7.97720E-002,1.08214E+000,2.99800E-002,0.00000E+000,-2.55161E-002,9.68870E-001,0.00000E+000,2.23948E-003,-4.65612E-002,1.00000E+000,14
1319,1287,3.12603E+001,-2.28980E+000,7.79026E-002,5.83288E+000,3.27938E-002,1.08793E-002,5.83299E+000,1.14570E-002,4.26307E-001,0,8.66793E+001,-2.60068E-001,9.99444E-001,5.63632E+001,-2.78256E+001,9.98208E-001,8.60534E-002,-3.25678E-002,2.02026E-003,8.60878E-002,-3.26022E-002,9.75439E-001,8.69280E-002,1.08991E+000,-8.09011E-004,0.00000E+000,5.00751E-003,9.68792E-001,0.00000E+000,-9.15307E-003,-4.17079E-002,1.00000E+000,14
529,1327,-2.50513E+001,-4.66409E-001,1.14427E-001,9.99319E-001,-2.91264E-001,9.22361E-002,1.04498E+000,6.25379E-003,6.66476E-001,0,1.55523E+001,-4.92473E+000,9.98982E-001,-2.28756E+001,-4.69232E+001,9.98596E-001,7.74675E-002,-3.20606E-002,1.10709E-003,7.74786E-002,-3.20718E-002,5.79057E-001,7.78602E-002,1.08010E+000,3.12596E-002,0.00000E+000,-2.59037E-002,9.69096E-001,0.00000E+000,1.44938E-003,-4.52821E-002,1.00000E+000,14
529,1307,-2.50889E+001,-1.67248E+000,3.04596E-001,9.59515E-001,-2.45685E-001,1.49008E-001,1.00162E+000,8.17999E-003,6.47471E-001,0,1.47759E+001,-4.30440E+000,9.99519E-001,-2.31847E+001,-4.58282E+001,9.99106E-001,8.01845E-002,-3.20449E-002,8.01999E-004,8.01902E-002,-3.20506E-002,4.09412E-001,8.07264E-002,1.08304E+000,3.12550E-002,0.00000E+000,-2.65372E-002,9.69097E-001,0.00000E+000,4.21817E-003,-4.52864E-002,1.00000E+000,14
529,1317,-2.50728E+001,-1.07356E+000,1.94816E-001,9.79420E-001,-2.70532E-001,1.23179E-001,1.02354E+000,6.31934E-003,6.43266E-001,0,1.51590E+001,-4.63974E+000,9.99577E-001,-2.31178E+001,-4.64156E+001,9.99076E-001,7.88294E-002,-3.20539E-002,9.57078E-004,7.88377E-002,-3.20621E-002,4.94494E-001,7.92940E-002,1.08157E+000,3.12633E-002,0.00000E+000,-2.62208E-002,9.69096E-001,0.00000E+000,2.83522E-003,-4.52786E-002,1.00000E+000,14
