Coordinates.Image X [Pixel],Coordinates.Image Y [Pixel],coor.X [mm],coor.Y [mm],coor.Z [mm],disp.Horizontal Displacement U [mm],disp.Vertical Displacement V [mm],disp.Out-Of-Plane: W [mm],disp.Displacement Magnitude [mm],stats.Sigma [mm],stats.Epipolar Distance [Pixel],stats.Shape Index [-],SameCamera.Horizontal: u [Pixel],SameCamera.Vertical: v [Pixel],SameCamera.Correlation Value 2D [-],CrossCamera.Horizontal: q [Pixel],CrossCamera.Vertical: r [Pixel],CrossCamera.Correlation Value Persp [-],strain.Strain-global frame: Exx [ ],strain.Strain-global frame: Eyy [ ],strain.Strain-global frame: Exy [ ],strain.Maximum Principal Strain: EI [ ],strain.Minimum Principal Strain: EII [ ],strain.Shear Angle Gamma [deg],strain.Von Mises Equivalent Strain [ ],defgradient.F[0,0] [-],defgradient.F[0,1] [-],defgradient.F[0,2] [-],defgradient.F[1,0] [-],defgradient.F[1,1] [-],defgradient.F[1,2] [-],defgradient.F[2,0] [-],defgradient.F[2,1] [-],defgradient.F[2,2] [-],ext.Current Image [#]
929,1317,6.38587E+000,-1.13700E+000,7.74959E-002,6.72194E+000,-5.20639E-001,1.64217E-001,6.74407E+000,1.41589E-002,4.63723E-001,0,1.02384E+002,-9.30102E+000,9.98492E-001,5.91599E+001,-4.29593E+001,9.97042E-001,1.82830E-001,-7.66974E-002,-3.40579E-004,1.82830E-001,-7.66979E-002,-7.51894E-002,1.83618E-001,1.20054E+000,-2.07260E-002,0.00000E+000,1.66631E-002,9.30378E-001,0.00000E+000,-1.55160E-002,-9.68589E-002,1.00000E+000,28
919,1307,5.60373E+000,-1.74065E+000,1.45939E-001,6.60635E+000,-4.75013E-001,2.37456E-001,6.62766E+000,1.69727E-002,4.87613E-001,0,1.00442E+002,-8.70732E+000,9.96592E-001,5.71051E+001,-4.25281E+001,9.94836E-001,1.86373E-001,-7.64365E-002,-9.43506E-004,1.86377E-001,-7.64399E-002,-2.05693E-001,1.87377E-001,1.20483E+000,-1.83902E-002,0.00000E+000,1.35704E-002,9.30745E-001,0.00000E+000,-1.40315E-002,-9.77396E-002,1.00000E+000,28
919,1317,5.58852E+000,-1.15971E+000,3.21880E-002,6.58833E+000,-5.29078E-001,1.74617E-001,6.61185E+000,2.05156E-002,4.62864E-001,0,1.00399E+002,-9.44905E+000,9.94930E-001,5.67229E+001,-4.33172E+001,9.93349E-001,1.84096E-001,-7.64446E-002,-1.18016E-003,1.84102E-001,-7.64500E-002,-2.59524E-001,1.84981E-001,1.20206E+000,-1.84023E-002,0.00000E+000,1.30279E-002,9.30743E-001,0.00000E+000,-1.24748E-002,-9.77328E-002,1.00000E+000,28
919,1327,5.59292E+000,-5.69376E-001,-1.93721E-002,6.57560E+000,-5.85808E-001,1.07926E-001,6.60253E+000,1.55422E-002,4.91384E-001,0,1.00435E+002,-1.02089E+001,9.97567E-001,5.67753E+001,-4.40645E+001,9.96020E-001,1.81790E-001,-7.64624E-002,-1.44410E-003,1.81798E-001,-7.64705E-002,-3.20374E-001,1.82560E-001,1.19927E+000,-1.84753E-002,0.00000E+000,1.24802E-002,9.30728E-001,0.00000E+000,-1.09029E-002,-9.76916E-002,1.00000E+000,28
929,1307,6.39663E+000,-1.71774E+000,1.73905E-001,6.73988E+000,-4.63105E-001,2.29605E-001,6.75967E+000,1.40602E-002,4.95002E-001,0,1.02418E+002,-8.51684E+000,9.98631E-001,5.94361E+001,-4.21287E+001,9.97585E-001,1.85161E-001,-7.66959E-002,-2.81440E-004,1.85161E-001,-7.66962E-002,-6.15807E-002,1.86067E-001,1.20338E+000,-2.06944E-002,0.00000E+000,1.68877E-002,9.30380E-001,0.00000E+000,-1.74694E-002,-9.68807E-002,1.00000E+000,28
929,1327,6.38215E+000,-5.43455E-001,6.82572E-003,6.70479E+000,-5.69439E-001,9.57258E-002,6.72960E+000,1.31167E-002,4.50923E-001,0,1.02362E+002,-9.95264E+000,9.98572E-001,5.90476E+001,-4.36366E+001,9.97684E-001,1.80484E-001,-7.66995E-002,-4.11263E-004,1.80485E-001,-7.67002E-002,-9.16216E-002,1.81161E-001,1.19770E+000,-2.07850E-002,0.00000E+000,1.64379E-002,9.30373E-001,0.00000E+000,-1.35583E-002,-9.68183E-002,1.00000E+000,28
939,1307,7.18207E+000,-1.69962E+000,1.59306E-001,6.87098E+000,-4.51886E-001,2.04613E-001,6.88887E+000,1.51909E-002,4.93099E-001,0,1.04421E+002,-8.30373E+000,9.98750E-001,6.15677E+001,-4.17185E+001,9.97838E-001,1.83701E-001,-7.61279E-002,1.94517E-004,1.83701E-001,-7.61280E-002,4.28936E-002,1.84596E-001,1.20163E+000,-2.34642E-002,0.00000E+000,2.01502E-002,9.30736E-001,0.00000E+000,-2.00695E-002,-9.55584E-002,1.00000E+000,28
939,1317,7.17038E+000,-1.11730E+000,6.62686E-002,6.85131E+000,-5.07787E-001,1.39173E-001,6.87151E+000,1.50769E-002,4.32700E-001,0,1.04361E+002,-9.05992E+000,9.98323E-001,6.12850E+001,-4.25446E+001,9.96764E-001,1.81605E-001,-7.61262E-002,1.87927E-004,1.81606E-001,-7.61263E-002,4.17776E-002,1.82395E-001,1.19906E+000,-2.34961E-002,0.00000E+000,1.99976E-002,9.30734E-001,0.00000E+000,-1.77861E-002,-9.55300E-002,1.00000E+000,28
939,1327,7.16874E+000,-5.16790E-001,4.82789E-003,6.83458E+000,-5.52889E-001,7.31146E-002,6.85729E+000,1.30193E-002,4.69839E-001,0,1.04336E+002,-9.65304E+000,9.97909E-001,6.12245E+001,-4.31069E+001,9.96896E-001,1.79485E-001,-7.61238E-002,1.69595E-004,1.79485E-001,-7.61240E-002,3.80154E-002,1.80173E-001,1.19648E+000,-2.35562E-002,0.00000E+000,1.98440E-002,9.30731E-001,0.00000E+000,-1.54867E-002,-9.54765E-002,1.00000E+000,28
919,1337,5.60499E+000,3.39403E-002,-4.19687E-002,6.56563E+000,-6.31084E-001,4.71265E-002,6.59605E+000,1.47264E-002,4.60166E-001,0,1.00484E+002,-1.08041E+001,9.97020E-001,5.70095E+001,-4.47041E+001,9.96552E-001,1.79478E-001,-7.64834E-002,-1.71682E-003,1.79489E-001,-7.64950E-002,-3.84281E-001,1.80140E-001,1.19649E+000,-1.85692E-002,0.00000E+000,1.19329E-002,9.30710E-001,0.00000E+000,-9.33216E-003,-9.76387E-002,1.00000E+000,28
929,1337,6.38998E+000,5.26620E-002,-3.02494E-002,6.69300E+000,-6.21273E-001,3.25437E-002,6.72185E+000,1.31058E-002,4.41796E-001,0,1.02398E+002,-1.06423E+001,9.98743E-001,5.91839E+001,-4.43442E+001,9.98231E-001,1.78118E-001,-7.67021E-002,-4.93614E-004,1.78119E-001,-7.67031E-002,-1.10987E-001,1.78690E-001,1.19484E+000,-2.08711E-002,0.00000E+000,1.62117E-002,9.30366E-001,0.00000E+000,-1.15912E-002,-9.67590E-002,1.00000E+000,28
939,1337,7.17400E+000,7.97252E-002,-3.20189E-002,6.82109E+000,-6.03306E-001,1.47419E-002,6.84773E+000,1.19335E-002,4.66677E-001,0,1.04331E+002,-1.03436E+001,9.98610E-001,6.13207E+001,-4.38046E+001,9.98054E-001,1.77356E-001,-7.61212E-002,1.44910E-004,1.77356E-001,-7.61213E-002,3.27553E-002,1.77948E-001,1.19390E+000,-2.36308E-002,0.00000E+000,1.96904E-002,9.30726E-001,0.00000E+000,-1.31879E-002,-9.54100E-002,1.00000E+000,28
949,1317,7.96153E+000,-1.08799E+000,6.66889E-002,6.98552E+000,-4.88038E-001,1.19958E-001,7.00357E+000,2.25258E-002,4.65221E-001,0,1.06385E+002,-8.72840E+000,9.95716E-001,6.35428E+001,-4.19737E+001,9.93995E-001,1.80320E-001,-7.54672E-002,6.14237E-004,1.80322E-001,-7.54687E-002,1.37587E-001,1.81118E-001,1.19750E+000,-2.59993E-002,0.00000E+000,2.28876E-002,9.31110E-001,0.00000E+000,-1.95645E-002,-9.34816E-002,1.00000E+000,28
949,1327,7.95462E+000,-4.89390E-001,3.62724E-003,6.96459E+000,-5.33147E-001,5.75888E-002,6.98521E+000,2.01403E-002,4.49826E-001,0,1.06286E+002,-9.32475E+000,9.96533E-001,6.33973E+001,-4.25873E+001,9.95417E-001,1.78593E-001,-7.54607E-002,6.51008E-004,1.78595E-001,-7.54623E-002,1.46818E-001,1.79308E-001,1.19538E+000,-2.60454E-002,0.00000E+000,2.27936E-002,9.31108E-001,0.00000E+000,-1.68834E-002,-9.34234E-002,1.00000E+000,28
949,1337,7.95966E+000,1.05899E-001,-3.16816E-002,6.95138E+000,-5.84843E-001,3.71811E-003,6.97594E+000,1.51107E-002,4.70645E-001,0,1.06271E+002,-1.00537E+001,9.97729E-001,6.34920E+001,-4.32937E+001,9.96855E-001,1.76852E-001,-7.54531E-002,6.81833E-004,1.76853E-001,-7.54549E-002,1.54836E-001,1.77487E-001,1.19326E+000,-2.61053E-002,0.00000E+000,2.26993E-002,9.31105E-001,0.00000E+000,-1.41958E-002,-9.33476E-002,1.00000E+000,28
949,1307,7.97618E+000,-1.67783E+000,1.55842E-001,7.00785E+000,-4.38868E-001,1.79735E-001,7.02388E+000,1.82621E-002,5.00221E-001,0,1.06506E+002,-8.06397E+000,9.97344E-001,6.38619E+001,-4.12699E+001,9.96117E-001,1.82032E-001,-7.54723E-002,5.68953E-004,1.82033E-001,-7.54736E-002,1.26594E-001,1.82916E-001,1.19961E+000,-2.59740E-002,0.00000E+000,2.29813E-002,9.31111E-001,0.00000E+000,-2.22366E-002,-9.35136E-002,1.00000E+000,28
909,1317,4.80965E+000,-1.17556E+000,3.00850E-002,6.46117E+000,-5.37117E-001,1.74821E-001,6.48581E+000,1.94074E-002,4.34933E-001,0,9.85317E+001,-9.57366E+000,9.93290E-001,5.46670E+001,-4.36727E+001,9.91978E-001,1.85359E-001,-7.70646E-002,-2.10778E-003,1.85376E-001,-7.70816E-002,-4.60159E-001,1.86249E-001,1.20359E+000,-1.59331E-002,0.00000E+000,9.07450E-003,9.30220E-001,0.00000E+000,-9.14497E-003,-9.78507E-002,1.00000E+000,28
909,1327,4.82032E+000,-5.78490E-001,-2.19029E-002,6.45521E+000,-5.87660E-001,1.09472E-001,6.48283E+000,1.55007E-002,4.68328E-001,0,9.86637E+001,-1.02277E+001,9.95383E-001,5.48169E+001,-4.43135E+001,9.95733E-001,1.83119E-001,-7.70796E-002,-2.34984E-003,1.83141E-001,-7.71008E-002,-5.17378E-001,1.83901E-001,1.20088E+000,-1.60013E-002,0.00000E+000,8.61094E-003,9.30208E-001,0.00000E+000,-8.14265E-003,-9.78254E-002,1.00000E+000,28
909,1337,4.82973E+000,2.81564E-002,-4.16100E-002,6.44246E+000,-6.32515E-001,5.05854E-002,6.47363E+000,1.68584E-002,5.10616E-001,0,9.86618E+001,-1.08100E+001,9.97179E-001,5.50173E+001,-4.48734E+001,9.96956E-001,1.80869E-001,-7.70979E-002,-2.60202E-003,1.80895E-001,-7.71241E-002,-5.77846E-001,1.81548E-001,1.19818E+000,-1.60921E-002,0.00000E+000,8.14618E-003,9.30192E-001,0.00000E+000,-7.13772E-003,-9.77917E-002,1.00000E+000,28
909,1307,4.81835E+000,-1.75609E+000,1.45169E-001,6.47165E+000,-4.82841E-001,2.34299E-001,6.49386E+000,1.88553E-002,4.18492E-001,0,9.84719E+001,-8.81098E+000,9.94612E-001,5.49528E+001,-4.29000E+001,9.90431E-001,1.87568E-001,-7.70589E-002,-1.89294E-003,1.87582E-001,-7.70724E-002,-4.09822E-001,1.88573E-001,1.20626E+000,-1.59256E-002,0.00000E+000,9.53310E-003,9.30221E-001,0.00000E+000,-1.01366E-002,-9.78535E-002,1.00000E+000,28
919,1347,5.62537E+000,6.47402E-001,-5.43459E-002,6.56071E+000,-6.70169E-001,-1.83623E-002,6.59488E+000,2.23701E-002,4.86988E-001,0,1.00620E+002,-1.12976E+001,9.98300E-001,5.73949E+001,-4.51814E+001,9.97783E-001,1.77148E-001,-7.65067E-002,-1.99667E-003,1.77164E-001,-7.65224E-002,-4.50974E-001,1.77710E-001,1.19369E+000,-1.86769E-002,0.00000E+000,1.13833E-002,9.30689E-001,0.00000E+000,-7.75501E-003,-9.75780E-002,1.00000E+000,28
929,1347,6.40611E+000,6.58507E-001,-4.43077E-002,6.68435E+000,-6.66980E-001,-3.14438E-002,6.71762E+000,1.24785E-002,4.49617E-001,0,1.02476E+002,-1.12441E+001,9.98571E-001,5.94975E+001,-4.49441E+001,9.98349E-001,1.75738E-001,-7.67052E-002,-5.85847E-004,1.75739E-001,-7.67066E-002,-1.32966E-001,1.76212E-001,1.19198E+000,-2.09799E-002,0.00000E+000,1.59850E-002,9.30358E-001,0.00000E+000,-9.61962E-003,-9.66842E-002,1.00000E+000,28
939,1347,7.19065E+000,6.85502E-001,-3.94925E-002,6.81327E+000,-6.49184E-001,-4.03512E-002,6.84424E+000,1.71451E-002,4.68874E-001,0,1.04392E+002,-1.09625E+001,9.98495E-001,6.16546E+001,-4.44211E+001,9.97285E-001,1.75210E-001,-7.61182E-002,1.10437E-004,1.75210E-001,-7.61182E-002,2.51766E-002,1.75711E-001,1.19131E+000,-2.37282E-002,0.00000E+000,1.95363E-002,9.30720E-001,0.00000E+000,-1.08807E-002,-9.53233E-002,1.00000E+000,28
949,1347,7.98002E+000,7.10112E-001,-2.75102E-002,6.94521E+000,-6.34660E-001,-4.80522E-002,6.97431E+000,1.42705E-002,4.81759E-001,0,1.06347E+002,-1.07318E+001,9.97624E-001,6.39049E+001,-4.39535E+001,9.96320E-001,1.75090E-001,-7.54436E-002,7.01385E-004,1.75092E-001,-7.54455E-002,1.60401E-001,1.75649E-001,1.19112E+000,-2.61925E-002,0.00000E+000,2.26045E-002,9.31102E-001,0.00000E+000,-1.14925E-002,-9.32374E-002,1.00000E+000,28
959,1317,8.74328E+000,-1.06566E+000,5.37954E-002,7.11176E+000,-4.72778E-001,9.60661E-002,7.12810E+000,2.07056E-002,4.46221E-001,0,1.08306E+002,-8.44964E+000,9.96392E-001,6.56324E+001,-4.15093E+001,9.95477E-001,1.79171E-001,-7.47211E-002,6.48804E-004,1.79172E-001,-7.47227E-002,1.46414E-001,1.79992E-001,1.19608E+000,-2.86614E-002,0.00000E+000,2.50825E-002,9.31534E-001,0.00000E+000,-2.04484E-002,-9.09064E-002,1.00000E+000,28
959,1327,8.74171E+000,-4.67916E-001,-1.37137E-002,7.09785E+000,-5.17985E-001,3.73239E-002,7.11682E+000,2.80592E-002,4.54733E-001,0,1.08304E+002,-9.06588E+000,9.98329E-001,6.55603E+001,-4.21120E+001,9.97455E-001,1.77755E-001,-7.47070E-002,7.77262E-004,1.77758E-001,-7.47094E-002,1.76396E-001,1.78509E-001,1.19433E+000,-2.86950E-002,0.00000E+000,2.51364E-002,9.31535E-001,0.00000E+000,-1.75598E-002,-9.08510E-002,1.00000E+000,28
959,1337,8.74829E+000,1.26468E-001,-3.62795E-002,7.08380E+000,-5.73115E-001,-1.37255E-002,7.10696E+000,2.13397E-002,4.59622E-001,0,1.08267E+002,-9.83300E+000,9.97340E-001,6.57034E+001,-4.28658E+001,9.96627E-001,1.76322E-001,-7.46888E-002,8.96901E-004,1.76326E-001,-7.46920E-002,2.04723E-001,1.77010E-001,1.19257E+000,-2.87511E-002,0.00000E+000,2.51905E-002,9.31537E-001,0.00000E+000,-1.46564E-002,-9.07583E-002,1.00000E+000,28
959,1307,8.75396E+000,-1.65264E+000,1.41700E-001,7.13101E+000,-4.19119E-001,1.58130E-001,7.14507E+000,1.57594E-002,4.74470E-001,0,1.08369E+002,-7.73062E+000,9.97220E-001,6.58876E+001,-4.07644E+001,9.96081E-001,1.80574E-001,-7.47332E-002,5.16059E-004,1.80575E-001,-7.47342E-002,1.15813E-001,1.81466E-001,1.19783E+000,-2.86380E-002,0.00000E+000,2.50288E-002,9.31533E-001,0.00000E+000,-2.33333E-002,-9.09450E-002,1.00000E+000,28
959,1347,8.76236E+000,7.26233E-001,-4.01785E-002,7.07325E+000,-6.25141E-001,-6.41981E-002,7.10111E+000,1.56112E-002,4.53281E-001,0,1.08275E+002,-1.05562E+001,9.97176E-001,6.60005E+001,-4.35844E+001,9.96783E-001,1.74878E-001,-7.46685E-002,1.01171E-003,1.74882E-001,-7.46726E-002,2.32283E-001,1.75502E-001,1.19081E+000,-2.88182E-002,0.00000E+000,2.52447E-002,9.31539E-001,0.00000E+000,-1.17497E-002,-9.06477E-002,1.00000E+000,28
909,1347,4.85098E+000,6.37915E-001,-3.95183E-002,6.43652E+000,-6.74807E-001,-1.04305E-002,6.47180E+000,1.92292E-002,5.11235E-001,0,9.87646E+001,-1.13762E+001,9.98323E-001,5.54478E+001,-4.54545E+001,9.96877E-001,1.78617E-001,-7.71193E-002,-2.86255E-003,1.78649E-001,-7.71513E-002,-6.41225E-001,1.79201E-001,1.19547E+000,-1.62035E-002,0.00000E+000,7.68248E-003,9.30173E-001,0.00000E+000,-6.13510E-003,-9.77504E-002,1.00000E+000,28
899,1327,4.04214E+000,-5.78567E-001,1.25511E-002,6.32070E+000,-5.87683E-001,1.10252E-001,6.34892E+000,1.19540E-002,4.76957E-001,0,9.66672E+001,-1.02028E+001,9.96601E-001,5.28575E+001,-4.44880E+001,9.96751E-001,1.84059E-001,-7.75559E-002,-3.10480E-003,1.84095E-001,-7.75928E-002,-6.79850E-001,1.84851E-001,1.20203E+000,-1.36966E-002,0.00000E+000,5.16036E-003,9.29836E-001,0.00000E+000,-5.28903E-003,-9.83214E-002,1.00000E+000,28
899,1337,4.05878E+000,2.45510E-002,-2.93250E-002,6.31907E+000,-6.31670E-001,4.63900E-002,6.35073E+000,1.78520E-002,4.98030E-001,0,9.68544E+001,-1.07779E+001,9.98574E-001,5.31230E+001,-4.50660E+001,9.98281E-001,1.82043E-001,-7.75678E-002,-3.30222E-003,1.82085E-001,-7.76098E-002,-7.28637E-001,1.82745E-001,1.19961E+000,-1.37636E-002,0.00000E+000,4.83044E-003,9.29827E-001,0.00000E+000,-4.91403E-003,-9.83110E-002,1.00000E+000,28
899,1347,4.08912E+000,6.30352E-001,-2.55106E-002,6.32239E+000,-6.78096E-001,-1.30481E-002,6.35866E+000,1.48664E-002,4.99741E-001,0,9.70935E+001,-1.14074E+001,9.98526E-001,5.36987E+001,-4.57124E+001,9.97915E-001,1.80018E-001,-7.75840E-002,-3.51342E-003,1.80066E-001,-7.76319E-002,-7.81260E-001,1.80635E-001,1.19718E+000,-1.38626E-002,0.00000E+000,4.49965E-003,9.29814E-001,0.00000E+000,-4.53804E-003,-9.82957E-002,1.00000E+000,28
899,1317,4.03920E+000,-1.17052E+000,8.57185E-002,6.33042E+000,-5.36340E-001,1.78972E-001,6.35562E+000,1.52529E-002,4.83459E-001,0,9.65782E+001,-9.53973E+000,9.96129E-001,5.28726E+001,-4.37900E+001,9.94583E-001,1.86065E-001,-7.75468E-002,-2.91640E-003,1.86097E-001,-7.75791E-002,-6.33774E-001,1.86952E-001,1.20444E+000,-1.36501E-002,0.00000E+000,5.48946E-003,9.29843E-001,0.00000E+000,-5.66309E-003,-9.83286E-002,1.00000E+000,28
899,1307,4.03849E+000,-1.75269E+000,1.80606E-001,6.33672E+000,-4.79574E-001,2.42824E-001,6.35948E+000,1.51226E-002,4.26591E-001,0,9.64459E+001,-8.74037E+000,9.96445E-001,5.29710E+001,-4.30182E+001,9.93123E-001,1.88060E-001,-7.75405E-002,-2.73716E-003,1.88089E-001,-7.75687E-002,-5.90380E-001,1.89048E-001,1.20685E+000,-1.36243E-002,0.00000E+000,5.81745E-003,9.29846E-001,0.00000E+000,-6.03590E-003,-9.83326E-002,1.00000E+000,28
889,1327,3.26427E+000,-5.85536E-001,2.33965E-002,6.19086E+000,-5.90955E-001,1.09531E-001,6.21996E+000,1.02520E-002,4.94235E-001,0,9.47500E+001,-1.02376E+001,9.97731E-001,5.08570E+001,-4.47138E+001,9.97753E-001,1.85033E-001,-7.68933E-002,-3.87563E-003,1.85090E-001,-7.69506E-002,-8.47539E-001,1.85964E-001,1.20322E+000,-1.17856E-002,0.00000E+000,1.96820E-003,9.30527E-001,0.00000E+000,-2.21825E-003,-9.89629E-002,1.00000E+000,28
889,1337,3.27459E+000,1.78950E-002,-2.42115E-002,6.18418E+000,-6.33003E-001,4.51751E-002,6.21666E+000,1.59637E-002,5.01435E-001,0,9.48611E+001,-1.07836E+001,9.98517E-001,5.10132E+001,-4.52843E+001,9.98190E-001,1.83096E-001,-7.68929E-002,-3.89977E-003,1.83155E-001,-7.69514E-002,-8.59164E-001,1.83932E-001,1.20089E+000,-1.18454E-002,0.00000E+000,2.05568E-003,9.30529E-001,0.00000E+000,-2.96396E-003,-9.89821E-002,1.00000E+000,28
889,1347,3.30705E+000,6.21359E-001,-1.96855E-002,6.19040E+000,-6.81033E-001,-1.08988E-002,6.22776E+000,1.31203E-002,4.89395E-001,0,9.51333E+001,-1.14405E+001,9.98167E-001,5.16247E+001,-4.59767E+001,9.97826E-001,1.81148E-001,-7.68923E-002,-3.93735E-003,1.81208E-001,-7.69524E-002,-8.73987E-001,1.81892E-001,1.19855E+000,-1.19376E-002,0.00000E+000,2.14350E-003,9.30533E-001,0.00000E+000,-3.71259E-003,-9.90116E-002,1.00000E+000,28
969,1297,9.56538E+000,-2.21047E+000,2.49210E-001,7.28777E+000,-3.47162E-001,1.95486E-001,7.29865E+000,2.05822E-002,4.82086E-001,0,1.10512E+002,-6.69044E+000,9.98395E-001,6.85959E+001,-3.95199E+001,9.96941E-001,1.80236E-001,-7.43128E-002,2.55683E-004,1.80236E-001,-7.43131E-002,5.75509E-002,1.81158E-001,1.19746E+000,-3.09037E-002,0.00000E+000,2.65446E-002,9.31669E-001,0.00000E+000,-2.68468E-002,-8.82527E-002,1.00000E+000,28
969,1307,9.53268E+000,-1.63996E+000,1.15826E-001,7.25306E+000,-4.14088E-001,1.17847E-001,7.26582E+000,3.64672E-002,4.55907E-001,0,1.10284E+002,-7.56972E+000,9.97775E-001,6.79083E+001,-4.04240E+001,9.95624E-001,1.79144E-001,-7.43011E-002,4.38570E-004,1.79144E-001,-7.43019E-002,9.91463E-002,1.80010E-001,1.19607E+000,-3.09081E-002,0.00000E+000,2.66656E-002,9.31670E-001,0.00000E+000,-2.37844E-002,-8.82432E-002,1.00000E+000,28
969,1317,9.52769E+000,-1.05096E+000,5.11879E-002,7.23845E+000,-4.65952E-001,7.45914E-002,7.25381E+000,1.34553E-002,4.21099E-001,0,1.10223E+002,-8.30890E+000,9.98852E-001,6.77878E+001,-4.11880E+001,9.98251E-001,1.78040E-001,-7.42846E-002,6.14774E-004,1.78041E-001,-7.42861E-002,1.39597E-001,1.78852E-001,1.19467E+000,-3.09290E-002,0.00000E+000,2.67867E-002,9.31671E-001,0.00000E+000,-2.07197E-002,-8.81972E-002,1.00000E+000,28
889,1317,3.25587E+000,-1.17577E+000,9.68203E-002,6.19455E+000,-5.38520E-001,1.76356E-001,6.22042E+000,1.39158E-002,5.23776E-001,0,9.45762E+001,-9.56305E+000,9.97810E-001,5.07887E+001,-4.39770E+001,9.97088E-001,1.86962E-001,-7.68936E-002,-3.85866E-003,1.87019E-001,-7.69500E-002,-8.37661E-001,1.87994E-001,1.20554E+000,-1.17429E-002,0.00000E+000,1.88085E-003,9.30526E-001,0.00000E+000,-1.47364E-003,-9.89492E-002,1.00000E+000,28
969,1327,9.52243E+000,-4.52397E-001,-1.37815E-002,7.22015E+000,-5.10847E-001,1.57188E-002,7.23821E+000,1.68977E-002,4.56929E-001,0,1.10156E+002,-8.93513E+000,9.98375E-001,6.76634E+001,-4.17684E+001,9.97867E-001,1.76923E-001,-7.42658E-002,7.87998E-004,1.76926E-001,-7.42683E-002,1.79739E-001,1.77683E-001,1.19328E+000,-3.09573E-002,0.00000E+000,2.69080E-002,9.31674E-001,0.00000E+000,-1.76489E-002,-8.81348E-002,1.00000E+000,28
889,1307,3.25077E+000,-1.75866E+000,1.93628E-001,6.19574E+000,-4.83273E-001,2.39130E-001,6.21916E+000,1.68932E-002,4.75356E-001,0,9.43709E+001,-8.78633E+000,9.97172E-001,5.08238E+001,-4.32146E+001,9.94579E-001,1.88881E-001,-7.68937E-002,-3.85006E-003,1.88937E-001,-7.69495E-002,-8.29765E-001,1.90017E-001,1.20786E+000,-1.17205E-002,0.00000E+000,1.79382E-003,9.30525E-001,0.00000E+000,-7.31738E-004,-9.89421E-002,1.00000E+000,28
969,1337,9.52679E+000,1.41472E-001,-4.46888E-002,7.20593E+000,-5.63540E-001,-3.39808E-002,7.22801E+000,1.77508E-002,4.03417E-001,0,1.10114E+002,-9.66629E+000,9.97867E-001,6.77548E+001,-4.25398E+001,9.97473E-001,1.75794E-001,-7.42435E-002,9.56191E-004,1.75798E-001,-7.42472E-002,2.19105E-001,1.76503E-001,1.19188E+000,-3.09977E-002,0.00000E+000,2.70295E-002,9.31677E-001,0.00000E+000,-1.45736E-002,-8.80461E-002,1.00000E+000,28
969,1347,9.53423E+000,7.58970E-001,-5.26113E-002,7.18999E+000,-5.98737E-001,-8.18285E-002,7.21534E+000,1.49695E-002,4.24304E-001,0,1.10028E+002,-1.01232E+001,9.97738E-001,6.79419E+001,-4.29607E+001,9.97029E-001,1.74647E-001,-7.42181E-002,1.12082E-003,1.74653E-001,-7.42231E-002,2.58038E-001,1.75307E-001,1.19047E+000,-3.10484E-002,0.00000E+000,2.71518E-002,9.31682E-001,0.00000E+000,-1.14777E-002,-8.79344E-002,1.00000E+000,28
879,1327,2.49217E+000,-5.86512E-001,4.33216E-002,6.06625E+000,-5.88045E-001,1.17206E-001,6.09581E+000,1.46839E-002,5.00437E-001,0,9.28793E+001,-1.01950E+001,9.97847E-001,4.89722E+001,-4.48715E+001,9.97621E-001,1.85816E-001,-7.71444E-002,-4.35530E-003,1.85888E-001,-7.72165E-002,-9.48618E-001,1.86773E-001,1.20418E+000,-1.01372E-002,0.00000E+000,-3.91980E-004,9.30250E-001,0.00000E+000,-1.03284E-004,-9.84153E-002,1.00000E+000,28
879,1337,2.50142E+000,1.12046E-002,-1.71360E-002,6.05917E+000,-6.34918E-001,4.24473E-002,6.09249E+000,1.42595E-002,4.95654E-001,0,9.30201E+001,-1.07915E+001,9.97061E-001,4.90832E+001,-4.55107E+001,9.96894E-001,1.84100E-001,-7.71396E-002,-4.29949E-003,1.84170E-001,-7.72104E-002,-9.42637E-001,1.84970E-001,1.20211E+000,-1.01883E-002,0.00000E+000,-1.19703E-004,9.30256E-001,0.00000E+000,-1.36115E-003,-9.84464E-002,1.00000E+000,28
879,1347,2.52932E+000,6.19236E-001,-1.73972E-002,6.06233E+000,-6.78640E-001,-1.20932E-002,6.10021E+000,1.68412E-002,5.10142E-001,0,9.32394E+001,-1.13756E+001,9.97030E-001,4.96161E+001,-4.61113E+001,9.96881E-001,1.82368E-001,-7.71328E-002,-4.25407E-003,1.82438E-001,-7.72025E-002,-9.38929E-001,1.83155E-001,1.20003E+000,-1.02655E-002,0.00000E+000,1.54265E-004,9.30267E-001,0.00000E+000,-2.62683E-003,-9.84935E-002,1.00000E+000,28
879,1307,2.46528E+000,-1.75770E+000,2.12133E-001,6.05605E+000,-4.80190E-001,2.38162E-001,6.07973E+000,1.93765E-002,4.81951E-001,0,9.23002E+001,-8.71603E+000,9.96346E-001,4.87305E+001,-4.33367E+001,9.94076E-001,1.89225E-001,-7.71500E-002,-4.48695E-003,1.89300E-001,-7.72255E-002,-9.64754E-001,1.90367E-001,1.20830E+000,-1.00847E-002,0.00000E+000,-9.34805E-004,9.30243E-001,0.00000E+000,2.40447E-003,-9.83834E-002,1.00000E+000,28
879,1317,2.47793E+000,-1.17487E+000,1.19875E-001,6.06382E+000,-5.33380E-001,1.86222E-001,6.09008E+000,1.42254E-002,4.44631E-001,0,9.26051E+001,-9.45805E+000,9.98060E-001,4.88217E+001,-4.41537E+001,9.96992E-001,1.87528E-001,-7.71480E-002,-4.41697E-003,1.87602E-001,-7.72217E-002,-9.55808E-001,1.88576E-001,1.20624E+000,-1.01002E-002,0.00000E+000,-6.64326E-004,9.30245E-001,0.00000E+000,1.15491E-003,-9.83928E-002,1.00000E+000,28
979,1307,1.03458E+001,-1.61816E+000,1.39294E-001,7.40580E+000,-4.01985E-001,1.12753E-001,7.41756E+000,2.08744E-002,4.39708E-001,0,1.12530E+002,-7.37972E+000,9.98997E-001,7.05645E+001,-4.00421E+001,9.98892E-001,1.77888E-001,-7.38421E-002,3.79661E-004,1.77888E-001,-7.38426E-002,8.64138E-002,1.78741E-001,1.19450E+000,-3.26565E-002,0.00000E+000,2.78245E-002,9.31823E-001,0.00000E+000,-2.29235E-002,-8.52647E-002,1.00000E+000,28
979,1317,1.03214E+001,-1.02427E+000,5.21104E-002,7.37329E+000,-4.48566E-001,5.41456E-002,7.38712E+000,1.21512E-002,4.25903E-001,0,1.12254E+002,-8.00715E+000,9.98443E-001,7.00998E+001,-4.06727E+001,9.98056E-001,1.77186E-001,-7.38223E-002,6.08113E-004,1.77187E-001,-7.38238E-002,1.38808E-001,1.78006E-001,1.19359E+000,-3.26679E-002,0.00000E+000,2.80410E-002,9.31826E-001,0.00000E+000,-1.99171E-002,-8.52266E-002,1.00000E+000,28
979,1327,1.03074E+001,-4.28996E-001,-1.25357E-002,7.34708E+000,-4.95972E-001,-4.12977E-004,7.36380E+000,1.36374E-002,4.27636E-001,0,1.12055E+002,-8.67079E+000,9.97014E-001,6.98405E+001,-4.13212E+001,9.96058E-001,1.76474E-001,-7.37993E-002,8.34137E-004,1.76476E-001,-7.38021E-002,1.90959E-001,1.77262E-001,1.19268E+000,-3.26852E-002,0.00000E+000,2.82578E-002,9.31830E-001,0.00000E+000,-1.69077E-002,-8.51692E-002,1.00000E+000,28
979,1337,1.03060E+001,1.73298E-001,-5.06219E-002,7.32932E+000,-5.39405E-001,-4.69421E-002,7.34930E+000,1.86140E-002,4.18048E-001,0,1.11948E+002,-9.28128E+000,9.95440E-001,6.98296E+001,-4.19236E+001,9.94792E-001,1.75750E-001,-7.37730E-002,1.05791E-003,1.75755E-001,-7.37775E-002,2.42913E-001,1.76507E-001,1.19177E+000,-3.27085E-002,0.00000E+000,2.84750E-002,9.31836E-001,0.00000E+000,-1.38915E-002,-8.50922E-002,1.00000E+000,28
979,1347,1.03131E+001,7.87361E-001,-5.17353E-002,7.31148E+000,-5.77780E-001,-9.40821E-002,7.33487E+000,1.91818E-002,4.19120E-001,0,1.11831E+002,-9.80043E+000,9.93899E-001,7.00217E+001,-4.24209E+001,9.93087E-001,1.75014E-001,-7.37400E-002,1.27758E-003,1.75020E-001,-7.37466E-002,2.94256E-001,1.75740E-001,1.19086E+000,-3.27437E-002,0.00000E+000,2.86933E-002,9.31844E-001,0.00000E+000,-1.08590E-002,-8.49755E-002,1.00000E+000,28
979,1297,1.03485E+001,-2.19135E+000,2.29507E-001,7.41508E+000,-3.35258E-001,1.67212E-001,7.42454E+000,1.69807E-002,4.59389E-001,0,1.12459E+002,-6.43853E+000,9.98575E-001,7.07025E+001,-3.90967E+001,9.98165E-001,1.78580E-001,-7.38605E-002,1.50001E-004,1.78580E-001,-7.38606E-002,3.40453E-002,1.79467E-001,1.19540E+000,-3.26472E-002,0.00000E+000,2.76080E-002,9.31821E-001,0.00000E+000,-2.59303E-002,-8.52952E-002,1.00000E+000,28
869,1317,1.68720E+000,-1.17165E+000,1.14401E-001,5.92148E+000,-5.26135E-001,1.75273E-001,5.94739E+000,1.08770E-002,4.70976E-001,0,9.05243E+001,-9.30629E+000,9.98519E-001,4.65995E+001,-4.41827E+001,9.96952E-001,1.87733E-001,-7.75370E-002,-4.50323E-003,1.87810E-001,-7.76134E-002,-9.72279E-001,1.88749E-001,1.20651E+000,-8.21193E-003,0.00000E+000,-2.42532E-003,9.29827E-001,0.00000E+000,2.90177E-003,-9.77921E-002,1.00000E+000,28
869,1327,1.70362E+000,-5.83386E-001,4.26122E-002,5.92656E+000,-5.79462E-001,1.12663E-001,5.95589E+000,1.46975E-002,5.32019E-001,0,9.08161E+001,-1.00542E+001,9.97495E-001,4.67940E+001,-4.49111E+001,9.96862E-001,1.86368E-001,-7.75337E-002,-4.43430E-003,1.86443E-001,-7.76081E-002,-9.62371E-001,1.87312E-001,1.20486E+000,-8.24037E-003,0.00000E+000,-2.11766E-003,9.29833E-001,0.00000E+000,1.26588E-003,-9.78203E-002,1.00000E+000,28
869,1337,1.72068E+000,9.12727E-003,-4.25515E-003,5.92682E+000,-6.32299E-001,4.86491E-002,5.96066E+000,1.59074E-002,5.21066E-001,0,9.10330E+001,-1.07554E+001,9.96302E-001,4.70551E+001,-4.56642E+001,9.95975E-001,1.84995E-001,-7.75289E-002,-4.37081E-003,1.85067E-001,-7.76017E-002,-9.53576E-001,1.85869E-001,1.20320E+000,-8.28241E-003,0.00000E+000,-1.80919E-003,9.29840E-001,0.00000E+000,-3.74305E-004,-9.78619E-002,1.00000E+000,28
869,1347,1.74352E+000,6.19082E-001,-1.68701E-002,5.92765E+000,-6.70762E-001,-6.23778E-003,5.96548E+000,1.99362E-002,5.00245E-001,0,9.12177E+001,-1.12600E+001,9.97170E-001,4.74845E+001,-4.62283E+001,9.96948E-001,1.83615E-001,-7.75229E-002,-4.31259E-003,1.83686E-001,-7.75941E-002,-9.45876E-001,1.84421E-001,1.20154E+000,-8.33739E-003,0.00000E+000,-1.50020E-003,9.29851E-001,0.00000E+000,-2.01726E-003,-9.79164E-002,1.00000E+000,28
869,1307,1.68081E+000,-1.75376E+000,2.21794E-001,5.91943E+000,-4.72207E-001,2.39940E-001,5.94308E+000,1.56834E-002,4.99155E-001,0,9.02647E+001,-8.58613E+000,9.97081E-001,4.66396E+001,-4.33887E+001,9.95289E-001,1.89088E-001,-7.75386E-002,-4.57889E-003,1.89166E-001,-7.76172E-002,-9.83579E-001,1.90178E-001,1.20816E+000,-8.20087E-003,0.00000E+000,-2.73160E-003,9.29825E-001,0.00000E+000,4.53028E-003,-9.77812E-002,1.00000E+000,28
989,1307,1.11173E+001,-1.58178E+000,1.20298E-001,7.52052E+000,-3.72575E-001,8.31493E-002,7.53020E+000,1.61560E-002,4.60712E-001,0,1.14283E+002,-6.88718E+000,9.97790E-001,7.25005E+001,-3.93307E+001,9.97586E-001,1.76841E-001,-7.36590E-002,2.90634E-004,1.76842E-001,-7.36593E-002,6.64752E-002,1.77661E-001,1.19318E+000,-3.35225E-002,0.00000E+000,2.81719E-002,9.31767E-001,0.00000E+000,-2.11394E-002,-8.25365E-002,1.00000E+000,28
989,1317,1.10909E+001,-9.84704E-001,4.07959E-002,7.48711E+000,-4.17118E-001,3.77430E-002,7.49881E+000,1.68763E-002,5.07188E-001,0,1.13948E+002,-7.51545E+000,9.98218E-001,7.20193E+001,-3.98967E+001,9.97582E-001,1.76478E-001,-7.36359E-002,5.74912E-004,1.76479E-001,-7.36372E-002,1.31699E-001,1.77283E-001,1.19269E+000,-3.35278E-002,0.00000E+000,2.84907E-002,9.31770E-001,0.00000E+000,-1.81676E-002,-8.25043E-002,1.00000E+000,28
989,1327,1.10902E+001,-3.93080E-001,-1.61409E-002,7.47218E+000,-4.70478E-001,-1.76934E-002,7.48700E+000,2.03664E-002,5.08730E-001,0,1.13924E+002,-8.25796E+000,9.97275E-001,7.19813E+001,-4.06149E+001,9.95746E-001,1.76105E-001,-7.36060E-002,8.56925E-004,1.76108E-001,-7.36089E-002,1.96617E-001,1.76896E-001,1.19219E+000,-3.35388E-002,0.00000E+000,2.88098E-002,9.31777E-001,0.00000E+000,-1.51930E-002,-8.24382E-002,1.00000E+000,28
989,1297,1.11371E+001,-2.16811E+000,2.24702E-001,7.54603E+000,-3.18731E-001,1.47888E-001,7.55421E+000,1.53460E-002,4.56473E-001,0,1.14423E+002,-6.16575E+000,9.97481E-001,7.29275E+001,-3.86306E+001,9.96826E-001,1.77195E-001,-7.36807E-002,6.12830E-006,1.77195E-001,-7.36807E-002,1.39960E-003,1.78031E-001,1.19368E+000,-3.35181E-002,0.00000E+000,2.78536E-002,9.31764E-001,0.00000E+000,-2.41068E-002,-8.25628E-002,1.00000E+000,28
989,1337,1.10886E+001,2.03891E-001,-4.33634E-002,7.45124E+000,-5.19126E-001,-6.56886E-002,7.46959E+000,1.64178E-002,4.30429E-001,0,1.13774E+002,-8.94422E+000,9.95225E-001,7.19849E+001,-4.13563E+001,9.95026E-001,1.75724E-001,-7.35714E-002,1.13642E-003,1.75729E-001,-7.35766E-002,2.61178E-001,1.76502E-001,1.19170E+000,-3.35537E-002,0.00000E+000,2.91283E-002,9.31787E-001,0.00000E+000,-1.22243E-002,-8.23493E-002,1.00000E+000,28
989,1347,1.10956E+001,8.15950E-001,-4.88912E-002,7.43547E+000,-5.57343E-001,-1.07253E-001,7.45710E+000,1.77794E-002,4.30987E-001,0,1.13671E+002,-9.48866E+000,9.97437E-001,7.21662E+001,-4.18736E+001,9.97550E-001,1.75332E-001,-7.35335E-002,1.41580E-003,1.75340E-001,-7.35416E-002,3.25944E-001,1.76097E-001,1.19120E+000,-3.35712E-002,0.00000E+000,2.94484E-002,9.31798E-001,0.00000E+000,-9.24009E-003,-8.22442E-002,1.00000E+000,28
859,1327,9.19603E-001,-5.79179E-001,3.95454E-002,5.79079E+000,-5.70570E-001,1.04861E-001,5.81977E+000,1.38255E-002,5.25720E-001,0,8.88198E+001,-9.87313E+000,9.96759E-001,4.46860E+001,-4.49476E+001,9.96086E-001,1.86650E-001,-7.76391E-002,-4.27983E-003,1.86720E-001,-7.77084E-002,-9.27507E-001,1.87592E-001,1.20521E+000,-6.62845E-003,0.00000E+000,-3.12115E-003,9.29634E-001,0.00000E+000,1.94968E-003,-9.67456E-002,1.00000E+000,28
859,1337,9.41356E-001,1.68617E-002,-2.41693E-003,5.79604E+000,-6.18822E-001,4.64094E-002,5.82916E+000,1.61066E-002,5.26650E-001,0,8.90919E+001,-1.05333E+001,9.96337E-001,4.50314E+001,-4.56520E+001,9.95680E-001,1.85669E-001,-7.76370E-002,-4.25443E-003,1.85738E-001,-7.77058E-002,-9.25447E-001,1.86561E-001,1.20402E+000,-6.65806E-003,0.00000E+000,-2.88314E-003,9.29640E-001,0.00000E+000,1.29590E-004,-9.67911E-002,1.00000E+000,28
859,1347,9.64413E-001,6.16518E-001,-1.35298E-002,5.79662E+000,-6.67859E-001,-1.00702E-002,5.83498E+000,2.14827E-002,4.96561E-001,0,8.92803E+001,-1.11924E+001,9.97757E-001,4.54672E+001,-4.63849E+001,9.97422E-001,1.84680E-001,-7.76343E-002,-4.23337E-003,1.84748E-001,-7.77026E-002,-9.24348E-001,1.85523E-001,1.20283E+000,-6.69829E-003,0.00000E+000,-2.64433E-003,9.29648E-001,0.00000E+000,-1.69656E-003,-9.68528E-002,1.00000E+000,28
859,1307,8.95878E-001,-1.74890E+000,2.20400E-001,5.78232E+000,-4.64909E-001,2.32740E-001,5.80565E+000,1.84799E-002,5.86448E-001,0,8.82492E+001,-8.45327E+000,9.97681E-001,4.45221E+001,-4.33684E+001,9.96907E-001,1.88591E-001,-7.76411E-002,-4.34331E-003,1.88662E-001,-7.77120E-002,-9.34392E-001,1.89635E-001,1.20757E+000,-6.60087E-003,0.00000E+000,-3.59477E-003,9.29629E-001,0.00000E+000,5.57151E-003,-9.67033E-002,1.00000E+000,28
859,1317,9.09015E-001,-1.17484E+000,1.09431E-001,5.79112E+000,-5.26301E-001,1.64196E-001,5.81730E+000,1.48419E-002,5.14286E-001,0,8.86260E+001,-9.26557E+000,9.97334E-001,4.45758E+001,-4.43019E+001,9.95171E-001,1.87624E-001,-7.76405E-002,-4.30923E-003,1.87694E-001,-7.77105E-002,-9.30444E-001,1.88617E-001,1.20639E+000,-6.60880E-003,0.00000E+000,-3.35833E-003,9.29630E-001,0.00000E+000,3.76339E-003,-9.67155E-002,1.00000E+000,28
999,1337,1.18656E+001,2.29702E-001,-4.92122E-002,7.57326E+000,-4.97751E-001,-7.07908E-002,7.58993E+000,1.31013E-002,3.84916E-001,0,1.15556E+002,-8.62305E+000,9.98989E-001,7.40338E+001,-4.08639E+001,9.98244E-001,1.75512E-001,-7.34626E-002,9.85835E-004,1.75516E-001,-7.34665E-002,2.26863E-001,1.76290E-001,1.19141E+000,-3.38986E-002,0.00000E+000,2.89371E-002,9.31665E-001,0.00000E+000,-1.00840E-002,-7.93716E-002,1.00000E+000,28
999,1347,1.18782E+001,8.43165E-001,-4.66633E-002,7.56066E+000,-5.37711E-001,-1.14061E-001,7.58061E+000,1.21741E-002,3.93797E-001,0,1.15507E+002,-9.17281E+000,9.99100E-001,7.43159E+001,-4.13708E+001,9.98484E-001,1.75423E-001,-7.34245E-002,1.25981E-003,1.75429E-001,-7.34309E-002,2.90054E-001,1.76203E-001,1.19128E+000,-3.39035E-002,0.00000E+000,2.92512E-002,9.31677E-001,0.00000E+000,-7.27803E-003,-7.92631E-002,1.00000E+000,28
999,1307,1.18968E+001,-1.55241E+000,1.12366E-001,7.64279E+000,-3.50243E-001,6.48329E-002,7.65109E+000,1.11385E-002,4.36003E-001,0,1.16110E+002,-6.50549E+000,9.98330E-001,7.45859E+001,-3.87735E+001,9.98138E-001,1.75729E-001,-7.35436E-002,1.65826E-004,1.75729E-001,-7.35437E-002,3.81155E-002,1.76505E-001,1.19179E+000,-3.38911E-002,0.00000E+000,2.80032E-002,9.31647E-001,0.00000E+000,-1.84291E-002,-7.95366E-002,1.00000E+000,28
999,1317,1.18783E+001,-9.58674E-001,3.47252E-002,7.61695E+000,-3.97750E-001,1.98001E-002,7.62735E+000,1.73506E-002,4.87749E-001,0,1.15891E+002,-7.19692E+000,9.97147E-001,7.42312E+001,-3.93896E+001,9.94507E-001,1.75664E-001,-7.35213E-002,4.39892E-004,1.75665E-001,-7.35221E-002,1.01145E-001,1.76440E-001,1.19166E+000,-3.38926E-002,0.00000E+000,2.83145E-002,9.31650E-001,0.00000E+000,-1.56472E-002,-7.95048E-002,1.00000E+000,28
999,1327,1.18735E+001,-3.73167E-001,-2.34151E-002,7.59928E+000,-4.55919E-001,-3.00187E-002,7.61300E+000,1.98169E-002,4.98874E-001,0,1.15810E+002,-8.03936E+000,9.97899E-001,7.41247E+001,-4.01939E+001,9.95842E-001,1.75592E-001,-7.34942E-002,7.13445E-004,1.75594E-001,-7.34963E-002,1.64108E-001,1.76369E-001,1.19154E+000,-3.38951E-002,0.00000E+000,2.86261E-002,9.31656E-001,0.00000E+000,-1.28636E-002,-7.94495E-002,1.00000E+000,28
999,1297,1.19199E+001,-2.14785E+000,2.16884E-001,7.67126E+000,-3.05715E-001,1.27784E-001,7.67841E+000,1.21660E-002,4.61153E-001,0,1.16303E+002,-5.93610E+000,9.96976E-001,7.50624E+001,-3.82015E+001,9.95125E-001,1.75786E-001,-7.35640E-002,-1.08405E-004,1.75786E-001,-7.35640E-002,-2.49094E-002,1.76563E-001,1.19191E+000,-3.38901E-002,0.00000E+000,2.76921E-002,9.31644E-001,0.00000E+000,-2.12087E-002,-7.95596E-002,1.00000E+000,28
849,1337,1.59270E-001,1.79605E-002,1.43082E-003,5.66123E+000,-6.14430E-001,4.23053E-002,5.69463E+000,1.92267E-002,5.41658E-001,0,8.70946E+001,-1.04229E+001,9.97556E-001,4.29737E+001,-4.57427E+001,9.97009E-001,1.86006E-001,-7.73964E-002,-3.84614E-003,1.86062E-001,-7.74525E-002,-8.36381E-001,1.86930E-001,1.20443E+000,-5.28735E-003,0.00000E+000,-3.16668E-003,9.29735E-001,0.00000E+000,1.05770E-004,-9.53875E-002,1.00000E+000,28
849,1347,1.77182E-001,6.12619E-001,-1.67916E-002,5.65949E+000,-6.65252E-001,-8.61009E-003,5.69846E+000,1.67899E-002,4.83485E-001,0,8.72312E+001,-1.11251E+001,9.97951E-001,4.33147E+001,-4.65537E+001,9.97896E-001,1.85457E-001,-7.73945E-002,-3.82359E-003,1.85513E-001,-7.74501E-002,-8.33221E-001,1.86353E-001,1.20377E+000,-5.30696E-003,0.00000E+000,-2.95520E-003,9.29741E-001,0.00000E+000,-1.61964E-003,-9.54387E-002,1.00000E+000,28
849,1357,2.09786E-001,1.22279E+000,1.34245E-002,5.66200E+000,-7.10153E-001,-6.17583E-002,5.70669E+000,1.44130E-002,4.95426E-001,0,8.74278E+001,-1.17358E+001,9.98129E-001,4.39945E+001,-4.71980E+001,9.98204E-001,1.84900E-001,-7.73916E-002,-3.80514E-003,1.84956E-001,-7.74468E-002,-8.30972E-001,1.85768E-001,1.20311E+000,-5.33693E-003,0.00000E+000,-2.74185E-003,9.29751E-001,0.00000E+000,-3.36027E-003,-9.55170E-002,1.00000E+000,28
849,1327,1.45756E-001,-5.72264E-001,4.64918E-002,5.66295E+000,-5.60776E-001,9.82688E-002,5.69149E+000,1.89656E-002,5.23570E-001,0,8.69357E+001,-9.67564E+000,9.97897E-001,4.27630E+001,-4.49607E+001,9.97436E-001,1.86552E-001,-7.73979E-002,-3.87057E-003,1.86608E-001,-7.74546E-002,-8.39947E-001,1.87504E-001,1.20509E+000,-5.27213E-003,0.00000E+000,-3.37819E-003,9.29730E-001,0.00000E+000,1.83140E-003,-9.53477E-002,1.00000E+000,28
1009,1337,1.26524E+001,2.68258E-001,-6.11135E-002,7.70631E+000,-4.65984E-001,-7.42907E-002,7.72074E+000,1.83491E-002,4.07665E-001,0,1.17495E+002,-8.12798E+000,9.98856E-001,7.62298E+001,-4.01257E+001,9.98715E-001,1.75268E-001,-7.32978E-002,6.67818E-004,1.75270E-001,-7.32996E-002,1.53934E-001,1.76050E-001,1.19111E+000,-3.38758E-002,0.00000E+000,2.81857E-002,9.31646E-001,0.00000E+000,-8.27680E-003,-7.67435E-002,1.00000E+000,28
1009,1347,1.26582E+001,8.58582E-001,-4.83071E-002,7.68463E+000,-5.28696E-001,-1.16413E-001,7.70368E+000,1.25247E-002,4.10585E-001,0,1.17310E+002,-9.05726E+000,9.99452E-001,7.64198E+001,-4.10155E+001,9.99153E-001,1.75419E-001,-7.32678E-002,8.82474E-004,1.75422E-001,-7.32709E-002,2.03313E-001,1.76213E-001,1.19127E+000,-3.38687E-002,0.00000E+000,2.84106E-002,9.31656E-001,0.00000E+000,-5.90451E-003,-7.66437E-002,1.00000E+000,28
1009,1297,1.26965E+001,-2.12613E+000,2.09413E-001,7.79134E+000,-2.89249E-001,1.14875E-001,7.79755E+000,1.55875E-002,3.99445E-001,0,1.18076E+002,-5.65144E+000,9.95520E-001,7.71065E+001,-3.77845E+001,9.94452E-001,1.74610E-001,-7.33726E-002,-1.80974E-004,1.74610E-001,-7.33727E-002,-4.18134E-002,1.75350E-001,1.19044E+000,-3.38862E-002,0.00000E+000,2.72915E-002,9.31632E-001,0.00000E+000,-1.77075E-002,-7.68925E-002,1.00000E+000,28
1009,1307,1.26780E+001,-1.52794E+000,1.07025E-001,7.76746E+000,-3.30495E-001,5.41025E-002,7.77467E+000,1.55382E-002,3.91615E-001,0,1.17946E+002,-6.19606E+000,9.97395E-001,7.67065E+001,-3.83073E+001,9.97519E-001,1.74783E-001,-7.33572E-002,3.04858E-005,1.74783E-001,-7.33572E-002,7.03921E-003,1.75532E-001,1.19061E+000,-3.38849E-002,0.00000E+000,2.75145E-002,9.31634E-001,0.00000E+000,-1.53556E-002,-7.68729E-002,1.00000E+000,28
1009,1317,1.26645E+001,-9.34264E-001,3.52300E-002,7.74622E+000,-3.78156E-001,1.36897E-002,7.75545E+000,1.57349E-002,4.37762E-001,0,1.17779E+002,-6.90280E+000,9.97910E-001,7.64396E+001,-3.89373E+001,9.97708E-001,1.74950E-001,-7.33402E-002,2.42365E-004,1.74950E-001,-7.33404E-002,5.59285E-002,1.75710E-001,1.19077E+000,-3.38829E-002,0.00000E+000,2.77379E-002,9.31636E-001,0.00000E+000,-1.29998E-002,-7.68449E-002,1.00000E+000,28
849,1317,1.25580E-001,-1.16201E+000,1.14787E-001,5.65495E+000,-5.09545E-001,1.62599E-001,5.68019E+000,1.92736E-002,5.83677E-001,0,8.65978E+001,-9.01117E+000,9.97407E-001,4.25020E+001,-4.41838E+001,9.96058E-001,1.87093E-001,-7.73991E-002,-3.89621E-003,1.87150E-001,-7.74565E-002,-8.43775E-001,1.88073E-001,1.20575E+000,-5.25994E-003,0.00000E+000,-3.58912E-003,9.29726E-001,0.00000E+000,3.55232E-003,-9.53158E-002,1.00000E+000,28
1009,1327,1.26586E+001,-3.37557E-001,-1.64235E-002,7.72574E+000,-4.27075E-001,-3.68241E-002,7.73762E+000,1.46999E-002,4.19237E-001,0,1.17654E+002,-7.57577E+000,9.98777E-001,7.63305E+001,-3.95956E+001,9.98654E-001,1.75112E-001,-7.33186E-002,4.55373E-004,1.75112E-001,-7.33194E-002,1.05023E-001,1.75882E-001,1.19094E+000,-3.38791E-002,0.00000E+000,2.79618E-002,9.31642E-001,0.00000E+000,-1.06376E-002,-7.67916E-002,1.00000E+000,28
849,1307,1.06033E-001,-1.74623E+000,2.19315E-001,5.63975E+000,-4.57561E-001,2.24852E-001,5.66274E+000,2.00562E-002,6.20244E-001,0,8.61484E+001,-8.32790E+000,9.97640E-001,4.23345E+001,-4.34102E+001,9.96817E-001,1.87629E-001,-7.73996E-002,-3.92493E-003,1.87687E-001,-7.74577E-002,-8.48272E-001,1.88638E-001,1.20641E+000,-5.25552E-003,0.00000E+000,-3.79947E-003,9.29725E-001,0.00000E+000,5.26842E-003,-9.53043E-002,1.00000E+000,28
839,1337,-6.23228E-001,7.98847E-003,2.37142E-002,5.52535E+000,-6.19368E-001,5.51210E-002,5.56023E+000,3.51629E-002,5.26722E-001,0,8.50249E+001,-1.05105E+001,9.98124E-001,4.09555E+001,-4.60596E+001,9.97130E-001,1.86042E-001,-7.74910E-002,-3.23368E-003,1.86082E-001,-7.75307E-002,-7.02906E-001,1.86942E-001,1.20448E+000,-4.08820E-003,0.00000E+000,-2.87593E-003,9.29506E-001,0.00000E+000,-5.94138E-004,-9.38192E-002,1.00000E+000,28
839,1347,-6.06146E-001,6.06449E-001,-1.48811E-002,5.52488E+000,-6.65139E-001,-6.66397E-003,5.56477E+000,1.43977E-002,4.76980E-001,0,8.52157E+001,-1.11087E+001,9.98202E-001,4.12387E+001,-4.67654E+001,9.97721E-001,1.85737E-001,-7.74887E-002,-3.19526E-003,1.85776E-001,-7.75275E-002,-6.95367E-001,1.86621E-001,1.20411E+000,-4.09794E-003,0.00000E+000,-2.64196E-003,9.29513E-001,0.00000E+000,-2.36845E-003,-9.38666E-002,1.00000E+000,28
839,1357,-5.71904E-001,1.22271E+000,1.54792E-002,5.53015E+000,-7.02975E-001,-5.53502E-002,5.57492E+000,1.17666E-002,4.81986E-001,0,8.54379E+001,-1.16182E+001,9.98587E-001,4.19477E+001,-4.73211E+001,9.98344E-001,1.85427E-001,-7.74849E-002,-3.15918E-003,1.85465E-001,-7.75228E-002,-6.88342E-001,1.86294E-001,1.20374E+000,-4.11399E-003,0.00000E+000,-2.40595E-003,9.29523E-001,0.00000E+000,-4.15824E-003,-9.39447E-002,1.00000E+000,28
1019,1337,1.34451E+001,2.96517E-001,-5.36366E-002,7.83869E+000,-4.47993E-001,-8.50111E-002,7.85194E+000,1.69189E-002,4.77610E-001,0,1.19444E+002,-7.85942E+000,9.98325E-001,7.85562E+001,-3.95652E+001,9.98440E-001,1.75023E-001,-7.32012E-002,3.65862E-004,1.75024E-001,-7.32018E-002,8.44489E-002,1.75802E-001,1.19081E+000,-3.37721E-002,0.00000E+000,2.74164E-002,9.31619E-001,0.00000E+000,-6.54919E-003,-7.48181E-002,1.00000E+000,28
1019,1347,1.34419E+001,8.88471E-001,-5.30532E-002,7.81357E+000,-5.06229E-001,-1.14171E-001,7.83078E+000,1.52207E-002,4.53669E-001,0,1.19166E+002,-8.72584E+000,9.98774E-001,7.85816E+001,-4.04160E+001,9.98783E-001,1.75318E-001,-7.31796E-002,5.47485E-004,1.75319E-001,-7.31808E-002,1.26232E-001,1.76115E-001,1.19115E+000,-3.37606E-002,0.00000E+000,2.76008E-002,9.31626E-001,0.00000E+000,-4.52896E-003,-7.47505E-002,1.00000E+000,28
839,1327,-6.54824E-001,-5.70343E-001,4.55094E-002,5.51334E+000,-5.51460E-001,1.09907E-001,5.54194E+000,3.12424E-002,5.47257E-001,0,8.46600E+001,-9.54770E+000,9.98561E-001,4.04139E+001,-4.50248E+001,9.97801E-001,1.86344E-001,-7.74936E-002,-3.27182E-003,1.86385E-001,-7.75342E-002,-7.10372E-001,1.87260E-001,1.20484E+000,-4.07733E-003,0.00000E+000,-3.11036E-003,9.29499E-001,0.00000E+000,1.18366E-003,-9.37664E-002,1.00000E+000,28
1019,1327,1.34421E+001,-3.14433E-001,-2.96063E-002,7.85395E+000,-4.10209E-001,-4.69246E-002,7.86480E+000,1.61959E-002,4.32769E-001,0,1.19544E+002,-7.30748E+000,9.98116E-001,7.84764E+001,-3.91005E+001,9.98021E-001,1.74724E-001,-7.32209E-002,1.84807E-004,1.74725E-001,-7.32211E-002,4.27057E-002,1.75486E-001,1.19046E+000,-3.37817E-002,0.00000E+000,2.72320E-002,9.31614E-001,0.00000E+000,-8.56893E-003,-7.48746E-002,1.00000E+000,28
1019,1317,1.34494E+001,-9.14870E-001,2.82384E-002,7.87225E+000,-3.66027E-001,-6.32188E-003,7.88075E+000,1.66129E-002,4.32400E-001,0,1.19669E+002,-6.69235E+000,9.98348E-001,7.86186E+001,-3.85246E+001,9.97998E-001,1.74422E-001,-7.32367E-002,5.53759E-006,1.74422E-001,-7.32367E-002,1.28112E-003,1.75167E-001,1.19012E+000,-3.37875E-002,0.00000E+000,2.70481E-002,9.31611E-001,0.00000E+000,-1.05839E-002,-7.49088E-002,1.00000E+000,28
839,1317,-6.61482E-001,-1.15639E+000,1.16292E-001,5.51465E+000,-4.98165E-001,1.56432E-001,5.53931E+000,1.62078E-002,5.39017E-001,0,8.45199E+001,-8.80267E+000,9.97554E-001,4.03684E+001,-4.42267E+001,9.95178E-001,1.86642E-001,-7.74947E-002,-3.31245E-003,1.86684E-001,-7.75363E-002,-7.18377E-001,1.87574E-001,1.20521E+000,-4.07288E-003,0.00000E+000,-3.34387E-003,9.29496E-001,0.00000E+000,2.95447E-003,-9.37447E-002,1.00000E+000,28
1019,1297,1.34719E+001,-2.09966E+000,1.87373E-001,7.91113E+000,-2.67709E-001,9.34673E-002,7.91621E+000,1.56316E-002,3.92534E-001,0,1.19874E+002,-5.28993E+000,9.98456E-001,7.91103E+001,-3.72359E+001,9.97832E-001,1.73807E-001,-7.32651E-002,-3.51130E-004,1.73807E-001,-7.32656E-002,-8.14267E-002,1.74519E-001,1.18944E+000,-3.37961E-002,0.00000E+000,2.66814E-002,9.31606E-001,0.00000E+000,-1.46011E-002,-7.49595E-002,1.00000E+000,28
1019,1307,1.34534E+001,-1.50671E+000,8.94549E-002,7.88649E+000,-3.16481E-001,3.40733E-002,7.89291E+000,1.94352E-002,4.59293E-001,0,1.19730E+002,-5.96580E+000,9.98698E-001,7.87188E+001,-3.78101E+001,9.98082E-001,1.74117E-001,-7.32520E-002,-1.72918E-004,1.74117E-001,-7.32521E-002,-4.00513E-002,1.74845E-001,1.18978E+000,-3.37929E-002,0.00000E+000,2.68650E-002,9.31608E-001,0.00000E+000,-1.25897E-002,-7.49403E-002,1.00000E+000,28
839,1307,-6.69284E-001,-1.73809E+000,2.19909E-001,5.51067E+000,-4.43826E-001,2.15452E-001,5.53272E+000,1.42477E-002,5.02665E-001,0,8.42536E+001,-8.04685E+000,9.96860E-001,4.03818E+001,-4.34451E+001,9.94537E-001,1.86936E-001,-7.74953E-002,-3.35391E-003,1.86978E-001,-7.75378E-002,-7.26555E-001,1.87883E-001,1.20557E+000,-4.07071E-003,0.00000E+000,-3.57674E-003,9.29495E-001,0.00000E+000,4.72044E-003,-9.37342E-002,1.00000E+000,28
829,1337,-1.40747E+000,1.08466E-002,1.07834E-002,5.39054E+000,-6.08639E-001,4.85145E-002,5.42501E+000,2.54887E-002,5.43660E-001,0,8.30300E+001,-1.03367E+001,9.96784E-001,3.88371E+001,-4.60865E+001,9.95646E-001,1.85555E-001,-7.74703E-002,-2.61573E-003,1.85581E-001,-7.74963E-002,-5.69717E-001,1.86420E-001,1.20389E+000,-3.23776E-003,0.00000E+000,-2.29552E-003,9.29400E-001,0.00000E+000,-1.45179E-003,-9.23792E-002,1.00000E+000,28
829,1347,-1.38553E+000,6.07574E-001,-6.71531E-003,5.39250E+000,-6.59280E-001,-4.70802E-003,5.43265E+000,1.34453E-002,5.02862E-001,0,8.32284E+001,-1.10101E+001,9.96746E-001,3.92444E+001,-4.68617E+001,9.96258E-001,1.85428E-001,-7.74725E-002,-2.65383E-003,1.85455E-001,-7.74993E-002,-5.78288E-001,1.86287E-001,1.20374E+000,-3.24227E-003,0.00000E+000,-2.20141E-003,9.29402E-001,0.00000E+000,-3.34853E-003,-9.24370E-002,1.00000E+000,28
829,1357,-1.35615E+000,1.22081E+000,1.62980E-002,5.39456E+000,-6.99019E-001,-5.37149E-002,5.43992E+000,1.33728E-002,5.11812E-001,0,8.34038E+001,-1.15473E+001,9.97960E-001,3.98631E+001,-4.74486E+001,9.97952E-001,1.85297E-001,-7.74756E-002,-2.69292E-003,1.85325E-001,-7.75032E-002,-5.87091E-001,1.86150E-001,1.20359E+000,-3.24843E-003,0.00000E+000,-2.10687E-003,9.29406E-001,0.00000E+000,-5.25371E-003,-9.25160E-002,1.00000E+000,28
1029,1337,1.42121E+001,3.13792E-001,-6.07341E-002,7.95073E+000,-4.35203E-001,-8.50022E-002,7.96309E+000,1.44860E-002,4.67551E-001,0,1.21052E+002,-7.68489E+000,9.97654E-001,8.04590E+001,-3.91863E+001,9.97285E-001,1.74965E-001,-7.29124E-002,1.62587E-004,1.74965E-001,-7.29125E-002,3.75814E-002,1.75772E-001,1.19074E+000,-3.34896E-002,0.00000E+000,2.66862E-002,9.31801E-001,0.00000E+000,-4.61286E-003,-7.32911E-002,1.00000E+000,28
1029,1347,1.42120E+001,9.23305E-001,-5.45107E-002,7.92770E+000,-4.77688E-001,-1.12339E-001,7.94287E+000,1.41740E-002,4.65016E-001,0,1.20792E+002,-8.30841E+000,9.98184E-001,8.05442E+001,-3.97649E+001,9.97620E-001,1.75378E-001,-7.28905E-002,3.47002E-004,1.75378E-001,-7.28910E-002,8.00815E-002,1.76209E-001,1.19123E+000,-3.34725E-002,0.00000E+000,2.68800E-002,9.31808E-001,0.00000E+000,-2.71677E-003,-7.32248E-002,1.00000E+000,28
1029,1327,1.42209E+001,-2.90707E-001,-2.69018E-002,7.97524E+000,-3.91820E-001,-4.86902E-002,7.98500E+000,1.58003E-002,4.42763E-001,0,1.21292E+002,-7.06268E+000,9.97650E-001,8.05818E+001,-3.86333E+001,9.97421E-001,1.74548E-001,-7.29304E-002,-1.94310E-005,1.74548E-001,-7.29304E-002,-4.49861E-003,1.75332E-001,1.19025E+000,-3.35014E-002,0.00000E+000,2.64929E-002,9.31796E-001,0.00000E+000,-6.50437E-003,-7.33366E-002,1.00000E+000,28
829,1327,-1.43280E+000,-5.71603E-001,4.17437E-002,5.38080E+000,-5.47592E-001,9.35099E-002,5.40940E+000,2.55318E-002,5.70291E-001,0,8.27312E+001,-9.46602E+000,9.97634E-001,3.84115E+001,-4.51296E+001,9.97464E-001,1.85679E-001,-7.74685E-002,-2.57826E-003,1.85704E-001,-7.74937E-002,-5.61300E-001,1.86549E-001,1.20404E+000,-3.23423E-003,0.00000E+000,-2.38931E-003,9.29397E-001,0.00000E+000,4.38365E-004,-9.23340E-002,1.00000E+000,28
829,1307,-1.43440E+000,-1.74582E+000,2.38919E-001,5.39149E+000,-4.46668E-001,2.24968E-001,5.41464E+000,1.71333E-002,4.57186E-001,0,8.24512E+001,-8.08984E+000,9.97441E-001,3.86310E+001,-4.37268E+001,9.94871E-001,1.85913E-001,-7.74670E-002,-2.50547E-003,1.85937E-001,-7.74909E-002,-5.44975E-001,1.86794E-001,1.20433E+000,-3.23144E-003,0.00000E+000,-2.57619E-003,9.29395E-001,0.00000E+000,4.20460E-003,-9.22982E-002,1.00000E+000,28
829,1317,-1.44040E+000,-1.15816E+000,1.21356E-001,5.38243E+000,-4.94656E-001,1.55590E-001,5.40735E+000,2.01688E-002,5.06127E-001,0,8.25482E+001,-8.72381E+000,9.97062E-001,3.83724E+001,-4.43843E+001,9.96444E-001,1.85798E-001,-7.74674E-002,-2.54153E-003,1.85822E-001,-7.74919E-002,-5.53059E-001,1.86673E-001,1.20418E+000,-3.23214E-003,0.00000E+000,-2.48286E-003,9.29396E-001,0.00000E+000,2.32374E-003,-9.23072E-002,1.00000E+000,28
1029,1317,1.42290E+001,-8.96301E-001,2.11332E-002,7.99479E+000,-3.54247E-001,-1.66957E-002,8.00265E+000,1.70554E-002,4.66971E-001,0,1.21470E+002,-6.51404E+000,9.98488E-001,8.07205E+001,-3.81052E+001,9.97525E-001,1.74130E-001,-7.29461E-002,-1.99428E-004,1.74130E-001,-7.29463E-002,-4.62462E-002,1.74892E-001,1.18976E+000,-3.35099E-002,0.00000E+000,2.63005E-002,9.31793E-001,0.00000E+000,-8.38655E-003,-7.33695E-002,1.00000E+000,28
1029,1307,1.42416E+001,-1.48820E+000,1.00754E-001,8.01613E+000,-3.04845E-001,3.57555E-002,8.02200E+000,1.44227E-002,5.05320E-001,0,1.21591E+002,-5.83071E+000,9.98726E-001,8.09855E+001,-3.74260E+001,9.96601E-001,1.73709E-001,-7.29604E-002,-3.78531E-004,1.73710E-001,-7.29609E-002,-8.79239E-002,1.74449E-001,1.18928E+000,-3.35165E-002,0.00000E+000,2.61084E-002,9.31790E-001,0.00000E+000,-1.02659E-002,-7.33950E-002,1.00000E+000,28
1029,1297,1.42563E+001,-2.07629E+000,1.90127E-001,8.03748E+000,-2.51193E-001,8.83502E-002,8.04189E+000,1.38990E-002,4.57149E-001,0,1.21707E+002,-5.06617E+000,9.98247E-001,8.13032E+001,-3.67510E+001,9.96934E-001,1.73283E-001,-7.29735E-002,-5.57442E-004,1.73285E-001,-7.29747E-002,-1.29697E-001,1.74002E-001,1.18879E+000,-3.35214E-002,0.00000E+000,2.59160E-002,9.31788E-001,0.00000E+000,-1.21489E-002,-7.34143E-002,1.00000E+000,28
819,1317,-2.21507E+000,-1.16883E+000,1.31473E-001,5.25332E+000,-5.00837E-001,1.56159E-001,5.27945E+000,1.94217E-002,4.86015E-001,0,8.06191E+001,-8.80150E+000,9.96376E-001,3.64574E+001,-4.46835E+001,9.95226E-001,1.84534E-001,-7.72313E-002,-1.96015E-003,1.84549E-001,-7.72459E-002,-4.29011E-001,1.85363E-001,1.20266E+000,-3.01057E-003,0.00000E+000,-1.48809E-003,9.29469E-001,0.00000E+000,1.50081E-003,-9.05783E-002,1.00000E+000,28
819,1327,-2.21145E+000,-5.83223E-001,5.08338E-002,5.25000E+000,-5.52657E-001,1.03977E-001,5.28003E+000,1.90057E-002,4.92940E-001,0,8.07445E+001,-9.52328E+000,9.97351E-001,3.64326E+001,-4.54722E+001,9.96426E-001,1.84528E-001,-7.72337E-002,-2.06702E-003,1.84544E-001,-7.72501E-002,-4.52402E-001,1.85358E-001,1.20265E+000,-3.01067E-003,0.00000E+000,-1.54190E-003,9.29468E-001,0.00000E+000,-2.49988E-004,-9.05971E-002,1.00000E+000,28
819,1337,-2.19166E+000,1.16031E-002,7.92871E-003,5.25500E+000,-6.01592E-001,5.04423E-002,5.28956E+000,1.64361E-002,5.24409E-001,0,8.09939E+001,-1.02000E+001,9.96718E-001,3.67474E+001,-4.61859E+001,9.96134E-001,1.84518E-001,-7.72388E-002,-2.17455E-003,1.84536E-001,-7.72569E-002,-4.75942E-001,1.85349E-001,1.20264E+000,-3.01087E-003,0.00000E+000,-1.59600E-003,9.29467E-001,0.00000E+000,-2.01021E-003,-9.06372E-002,1.00000E+000,28
819,1307,-2.22010E+000,-1.75224E+000,2.18812E-001,5.25218E+000,-4.50204E-001,1.99886E-001,5.27522E+000,1.82887E-002,5.00493E-001,0,8.04498E+001,-8.07052E+000,9.97042E-001,3.64766E+001,-4.38641E+001,9.95881E-001,1.84537E-001,-7.72298E-002,-1.85371E-003,1.84550E-001,-7.72429E-002,-4.05714E-001,1.85365E-001,1.20267E+000,-3.01052E-003,0.00000E+000,-1.43446E-003,9.29469E-001,0.00000E+000,3.24544E-003,-9.05676E-002,1.00000E+000,28
819,1347,-2.16340E+000,6.16116E-001,-3.06751E-003,5.26306E+000,-6.44783E-001,1.84717E-003,5.30241E+000,1.52494E-002,5.31113E-001,0,8.12673E+001,-1.07878E+001,9.97964E-001,3.72696E+001,-4.68327E+001,9.97958E-001,1.84506E-001,-7.72457E-002,-2.28254E-003,1.84526E-001,-7.72656E-002,-4.99584E-001,1.85337E-001,1.20263E+000,-3.01115E-003,0.00000E+000,-1.65027E-003,9.29465E-001,0.00000E+000,-3.77574E-003,-9.06917E-002,1.00000E+000,28
819,1357,-2.13638E+000,1.21283E+000,2.42727E-002,5.26243E+000,-7.01019E-001,-4.56360E-002,5.30911E+000,1.89758E-002,5.24527E-001,0,8.14007E+001,-1.15796E+001,9.97328E-001,3.78615E+001,-4.76938E+001,9.97182E-001,1.84490E-001,-7.72550E-002,-2.39114E-003,1.84512E-001,-7.72768E-002,-5.23359E-001,1.85321E-001,1.20262E+000,-3.01153E-003,0.00000E+000,-1.70474E-003,9.29463E-001,0.00000E+000,-5.54809E-003,-9.07664E-002,1.00000E+000,28
1039,1337,1.49941E+001,3.38648E-001,-6.40750E-002,8.07570E+000,-4.17194E-001,-8.80869E-002,8.08695E+000,1.26678E-002,4.81097E-001,0,1.22861E+002,-7.41630E+000,9.98388E-001,8.26073E+001,-3.86846E+001,9.97297E-001,1.75030E-001,-7.24797E-002,-2.82841E-004,1.75030E-001,-7.24800E-002,-6.54745E-002,1.75889E-001,1.19082E+000,-3.33474E-002,0.00000E+000,2.56194E-002,9.32154E-001,0.00000E+000,-2.72603E-003,-7.21532E-002,1.00000E+000,28
1039,1347,1.49924E+001,9.32758E-001,-6.26177E-002,8.05141E+000,-4.73001E-001,-1.18416E-001,8.06616E+000,1.27072E-002,4.18335E-001,0,1.22599E+002,-8.24025E+000,9.98998E-001,8.26562E+001,-3.95197E+001,9.98481E-001,1.75546E-001,-7.24670E-002,-1.66310E-004,1.75547E-001,-7.24671E-002,-3.84207E-002,1.76434E-001,1.19143E+000,-3.33261E-002,0.00000E+000,2.56919E-002,9.32156E-001,0.00000E+000,-9.81703E-004,-7.20930E-002,1.00000E+000,28
1039,1317,1.50061E+001,-8.64966E-001,1.61937E-002,8.11595E+000,-3.27687E-001,-1.76216E-002,8.12259E+000,1.36872E-002,4.30629E-001,0,1.23209E+002,-6.10851E+000,9.98317E-001,8.27918E+001,-3.75286E+001,9.97258E-001,1.73987E-001,-7.24997E-002,-5.09766E-004,1.73988E-001,-7.25007E-002,-1.18494E-001,1.74791E-001,1.18958E+000,-3.33740E-002,0.00000E+000,2.54745E-002,9.32151E-001,0.00000E+000,-6.21255E-003,-7.22284E-002,1.00000E+000,28
1039,1327,1.50006E+001,-2.68542E-001,-3.18705E-002,8.09827E+000,-3.74798E-001,-5.27054E-002,8.10711E+000,1.20862E-002,4.19454E-001,0,1.23074E+002,-6.80927E+000,9.98486E-001,8.26929E+001,-3.81901E+001,9.97601E-001,1.74508E-001,-7.24903E-002,-3.97366E-004,1.74509E-001,-7.24909E-002,-9.21759E-002,1.75339E-001,1.19020E+000,-3.33625E-002,0.00000E+000,2.55467E-002,9.32152E-001,0.00000E+000,-4.47568E-003,-7.21960E-002,1.00000E+000,28
1039,1307,1.50204E+001,-1.46485E+000,8.21784E-002,8.13959E+000,-2.85477E-001,2.30781E-002,8.14463E+000,1.41161E-002,4.42314E-001,0,1.23410E+002,-5.50197E+000,9.98230E-001,8.30592E+001,-3.69588E+001,9.97031E-001,1.73463E-001,-7.25082E-002,-6.21128E-004,1.73464E-001,-7.25098E-002,-1.44683E-001,1.74240E-001,1.18897E+000,-3.33828E-002,0.00000E+000,2.54023E-002,9.32150E-001,0.00000E+000,-7.94822E-003,-7.22533E-002,1.00000E+000,28
1039,1297,1.50375E+001,-2.05852E+000,1.73046E-001,8.16282E+000,-2.37919E-001,7.46976E-002,8.16662E+000,1.46495E-002,4.20724E-001,0,1.23558E+002,-4.83655E+000,9.97186E-001,8.34154E+001,-3.63621E+001,9.96572E-001,1.72935E-001,-7.25157E-002,-7.31402E-004,1.72937E-001,-7.25179E-002,-1.70730E-001,1.73686E-001,1.18835E+000,-3.33886E-002,0.00000E+000,2.53302E-002,9.32149E-001,0.00000E+000,-9.68458E-003,-7.22697E-002,1.00000E+000,28
1049,1337,1.57845E+001,3.62450E-001,-6.59656E-002,8.20808E+000,-3.98208E-001,-9.27012E-002,8.21826E+000,1.82730E-002,4.35685E-001,0,1.24782E+002,-7.13959E+000,9.99115E-001,8.48949E+001,-3.82309E+001,9.98258E-001,1.75017E-001,-7.23936E-002,-9.10375E-004,1.75021E-001,-7.23970E-002,-2.10822E-001,1.75889E-001,1.19081E+000,-3.31222E-002,0.00000E+000,2.41753E-002,9.32161E-001,0.00000E+000,-1.33174E-003,-7.04964E-002,1.00000E+000,28
1049,1347,1.57906E+001,9.61726E-001,-5.34829E-002,8.18908E+000,-4.52780E-001,-1.21536E-001,8.20248E+000,1.48800E-002,4.30305E-001,0,1.24592E+002,-7.94231E+000,9.98827E-001,8.50822E+001,-3.89794E+001,9.97682E-001,1.75636E-001,-7.23912E-002,-8.72344E-004,1.75639E-001,-7.23943E-002,-2.01513E-001,1.76540E-001,1.19155E+000,-3.30941E-002,0.00000E+000,2.41209E-002,9.32159E-001,0.00000E+000,1.35746E-005,-7.04452E-002,1.00000E+000,28
1049,1307,1.58075E+001,-1.43765E+000,9.43911E-002,8.26710E+000,-2.63879E-001,2.47393E-002,8.27135E+000,1.72770E-002,3.79783E-001,0,1.25228E+002,-5.18181E+000,9.98560E-001,8.53222E+001,-3.64966E+001,9.97645E-001,1.73160E-001,-7.23986E-002,-1.00640E-003,1.73164E-001,-7.24027E-002,-2.34816E-001,1.73937E-001,1.18860E+000,-3.31628E-002,0.00000E+000,2.43372E-002,9.32164E-001,0.00000E+000,-5.33864E-003,-7.05700E-002,1.00000E+000,28
1049,1317,1.57912E+001,-8.39857E-001,2.72117E-002,8.24105E+000,-3.09030E-001,-1.84384E-002,8.24687E+000,1.50312E-002,4.06410E-001,0,1.25001E+002,-5.84114E+000,9.97822E-001,8.50207E+001,-3.70760E+001,9.96350E-001,1.73780E-001,-7.23971E-002,-9.75400E-004,1.73784E-001,-7.24009E-002,-2.27012E-001,1.74588E-001,1.18934E+000,-3.31518E-002,0.00000E+000,2.42833E-002,9.32164E-001,0.00000E+000,-4.00530E-003,-7.05501E-002,1.00000E+000,28
1049,1327,1.57835E+001,-2.49674E-001,-3.20515E-002,8.22425E+000,-3.62032E-001,-5.11654E-002,8.23237E+000,1.00211E-002,3.83680E-001,0,1.24878E+002,-6.61187E+000,9.98606E-001,8.48672E+001,-3.78144E+001,9.97024E-001,1.74399E-001,-7.23956E-002,-9.44748E-004,1.74403E-001,-7.23992E-002,-2.19328E-001,1.75238E-001,1.19007E+000,-3.31415E-002,0.00000E+000,2.42294E-002,9.32163E-001,0.00000E+000,-2.67104E-003,-7.05314E-002,1.00000E+000,28
809,1347,-2.95528E+000,6.02904E-001,-9.48875E-003,5.11952E+000,-6.50497E-001,-1.70885E-004,5.16068E+000,1.27895E-002,5.21772E-001,0,7.91210E+001,-1.08602E+001,9.98795E-001,3.50569E+001,-4.71380E+001,9.98666E-001,1.83459E-001,-7.69598E-002,-1.93316E-003,1.83473E-001,-7.69742E-002,-4.25291E-001,1.84263E-001,1.20137E+000,-3.18758E-003,0.00000E+000,-8.45475E-004,9.29583E-001,0.00000E+000,-3.99924E-003,-8.89144E-002,1.00000E+000,28
809,1357,-2.92862E+000,1.20428E+000,2.36830E-002,5.11804E+000,-7.02933E-001,-4.53344E-002,5.16628E+000,1.51577E-002,5.04401E-001,0,7.92315E+001,-1.15832E+001,9.98239E-001,3.56603E+001,-4.79473E+001,9.97701E-001,1.83591E-001,-7.69784E-002,-2.14059E-003,1.83609E-001,-7.69960E-002,-4.70645E-001,1.84403E-001,1.20154E+000,-3.18034E-003,0.00000E+000,-1.10369E-003,9.29572E-001,0.00000E+000,-5.65589E-003,-8.89857E-002,1.00000E+000,28
809,1327,-2.99392E+000,-5.97283E-001,3.90883E-002,5.11494E+000,-5.62735E-001,9.38845E-002,5.14666E+000,1.24062E-002,5.16798E-001,0,7.87573E+001,-9.62336E+000,9.98580E-001,3.43497E+001,-4.57578E+001,9.97282E-001,1.83189E-001,-7.69367E-002,-1.52008E-003,1.83198E-001,-7.69456E-002,-3.34801E-001,1.83978E-001,1.20104E+000,-3.19637E-003,0.00000E+000,-3.33673E-004,9.29597E-001,0.00000E+000,-7.15590E-004,-8.88281E-002,1.00000E+000,28
809,1337,-2.97325E+000,-8.74901E-004,1.03656E-002,5.12052E+000,-6.08713E-001,5.21811E-002,5.15684E+000,1.10208E-002,5.20427E-001,0,7.89752E+001,-1.02889E+001,9.98511E-001,3.47128E+001,-4.64934E+001,9.98484E-001,1.83325E-001,-7.69471E-002,-1.72650E-003,1.83337E-001,-7.69585E-002,-3.80046E-001,1.84122E-001,1.20121E+000,-3.19248E-003,0.00000E+000,-5.89224E-004,9.29591E-001,0.00000E+000,-2.35516E-003,-8.88663E-002,1.00000E+000,28
809,1307,-3.00372E+000,-1.75269E+000,2.26807E-001,5.11594E+000,-4.45740E-001,2.09819E-001,5.13960E+000,2.20900E-002,5.85025E-001,0,7.83777E+001,-8.04028E+000,9.93452E-001,3.44261E+001,-4.39482E+001,9.92712E-001,1.82910E-001,-7.69284E-002,-1.10703E-003,1.82914E-001,-7.69331E-002,-2.44101E-001,1.83681E-001,1.20071E+000,-3.19917E-003,0.00000E+000,1.75329E-004,9.29601E-001,0.00000E+000,2.55009E-003,-8.88005E-002,1.00000E+000,28
809,1317,-2.99564E+000,-1.17389E+000,1.27344E-001,5.12033E+000,-5.01930E-001,1.54903E-001,5.14721E+000,1.97959E-002,5.48464E-001,0,7.86339E+001,-8.80212E+000,9.97693E-001,3.44237E+001,-4.48254E+001,9.96551E-001,1.83051E-001,-7.69315E-002,-1.31354E-003,1.83057E-001,-7.69381E-002,-2.89473E-001,1.83831E-001,1.20087E+000,-3.19821E-003,0.00000E+000,-7.89398E-005,9.29600E-001,0.00000E+000,9.18739E-004,-8.88100E-002,1.00000E+000,28
1049,1297,1.58158E+001,-2.04170E+000,1.73457E-001,8.28392E+000,-2.25885E-001,7.47960E-002,8.28734E+000,1.47793E-002,3.60285E-001,0,1.25291E+002,-4.64682E+000,9.97671E-001,8.55184E+001,-3.60372E+001,9.95679E-001,1.72538E-001,-7.24001E-002,-1.03692E-003,1.72543E-001,-7.24045E-002,-2.42550E-001,1.73284E-001,1.18787E+000,-3.31724E-002,0.00000E+000,2.43910E-002,9.32165E-001,0.00000E+000,-6.67094E-003,-7.05875E-002,1.00000E+000,28
799,1337,-3.75599E+000,-9.24200E-003,6.70382E-003,4.98541E+000,-6.10502E-001,5.24562E-002,5.02292E+000,1.12023E-002,5.21881E-001,0,7.69474E+001,-1.03032E+001,9.98788E-001,3.26519E+001,-4.67218E+001,9.98608E-001,1.81703E-001,-7.66211E-002,-1.23628E-003,1.81709E-001,-7.66270E-002,-2.74195E-001,1.82450E-001,1.19926E+000,-3.46448E-003,0.00000E+000,5.67602E-004,9.29737E-001,0.00000E+000,-2.71222E-003,-8.69507E-002,1.00000E+000,28
799,1347,-3.73693E+000,5.91855E-001,-6.97202E-003,4.98601E+000,-6.54851E-001,8.08321E-003,5.02883E+000,1.35054E-002,5.16977E-001,0,7.70928E+001,-1.09231E+001,9.98172E-001,3.30282E+001,-4.74260E+001,9.97882E-001,1.81903E-001,-7.66393E-002,-1.53340E-003,1.81912E-001,-7.66484E-002,-3.39803E-001,1.82660E-001,1.19950E+000,-3.45748E-003,0.00000E+000,1.19260E-004,9.29724E-001,0.00000E+000,-4.13373E-003,-8.69912E-002,1.00000E+000,28
799,1357,-3.70459E+000,1.20137E+000,2.51947E-002,4.99027E+000,-6.98820E-001,-3.89932E-002,5.03911E+000,1.40693E-002,5.04834E-001,0,7.72942E+001,-1.15169E+001,9.97665E-001,3.37207E+001,-4.81061E+001,9.97035E-001,1.82102E-001,-7.66664E-002,-1.83130E-003,1.82114E-001,-7.66794E-002,-4.05454E-001,1.82870E-001,1.19975E+000,-3.44684E-003,0.00000E+000,-3.32299E-004,9.29705E-001,0.00000E+000,-5.56544E-003,-8.70528E-002,1.00000E+000,28
799,1327,-3.76822E+000,-6.10072E-001,5.20089E-002,4.98772E+000,-5.68385E-001,1.08499E-001,5.02117E+000,1.94405E-002,5.20295E-001,0,7.68068E+001,-9.74920E+000,9.98945E-001,3.24568E+001,-4.60862E+001,9.97469E-001,1.81502E-001,-7.66063E-002,-9.39107E-004,1.81505E-001,-7.66097E-002,-2.08463E-001,1.82238E-001,1.19901E+000,-3.47000E-003,0.00000E+000,1.01518E-003,9.29747E-001,0.00000E+000,-1.29312E-003,-8.69188E-002,1.00000E+000,28
1059,1327,1.65676E+001,-2.34240E-001,-3.07110E-002,8.35012E+000,-3.53098E-001,-5.16696E-002,8.35774E+000,1.54854E-002,4.00070E-001,0,1.26686E+002,-6.49714E+000,9.98857E-001,8.70661E+001,-3.74693E+001,9.97532E-001,1.74488E-001,-7.26534E-002,-1.26944E-003,1.74494E-001,-7.26599E-002,-2.94290E-001,1.75305E-001,1.19020E+000,-3.23030E-002,0.00000E+000,2.28543E-002,9.31871E-001,0.00000E+000,-1.07715E-003,-6.92309E-002,1.00000E+000,28
1059,1337,1.65715E+001,3.82456E-001,-5.84890E-002,8.33629E+000,-3.85114E-001,-8.86923E-002,8.34565E+000,1.25848E-002,4.14790E-001,0,1.26606E+002,-6.95421E+000,9.99256E-001,8.71487E+001,-3.78450E+001,9.98666E-001,1.75153E-001,-7.26572E-002,-1.28841E-003,1.75160E-001,-7.26639E-002,-2.97879E-001,1.76005E-001,1.19099E+000,-3.22816E-002,0.00000E+000,2.27296E-002,9.31868E-001,0.00000E+000,-2.12963E-004,-6.92076E-002,1.00000E+000,28
1059,1347,1.65803E+001,9.83420E-001,-4.76885E-002,8.31958E+000,-4.37387E-001,-1.20235E-001,8.33194E+000,1.77512E-002,3.97149E-001,0,1.26460E+002,-7.72579E+000,9.99100E-001,8.73731E+001,-3.85680E+001,9.97652E-001,1.75820E-001,-7.26620E-002,-1.30362E-003,1.75826E-001,-7.26688E-002,-3.00583E-001,1.76705E-001,1.19179E+000,-3.22508E-002,0.00000E+000,2.26045E-002,9.31863E-001,0.00000E+000,6.53914E-004,-6.91741E-002,1.00000E+000,28
1059,1297,1.65933E+001,-2.02088E+000,1.61846E-001,8.40588E+000,-2.08174E-001,7.14510E-002,8.40876E+000,1.42342E-002,3.09835E-001,0,1.27046E+002,-4.37518E+000,9.98006E-001,8.75938E+001,-3.56202E+001,9.95435E-001,1.72490E-001,-7.26443E-002,-1.20166E-003,1.72496E-001,-7.26502E-002,-2.80858E-001,1.73209E-001,1.18782E+000,-3.23396E-002,0.00000E+000,2.32271E-002,9.31877E-001,0.00000E+000,-3.66007E-003,-6.92705E-002,1.00000E+000,28
1059,1307,1.65859E+001,-1.42126E+000,8.89224E-002,8.38988E+000,-2.49912E-001,2.75005E-002,8.39365E+000,1.57980E-002,3.25168E-001,0,1.26975E+002,-4.99356E+000,9.98692E-001,8.74217E+001,-3.61615E+001,9.97743E-001,1.73155E-001,-7.26471E-002,-1.22483E-003,1.73161E-001,-7.26532E-002,-2.85495E-001,1.73907E-001,1.18861E+000,-3.23291E-002,0.00000E+000,2.31032E-002,9.31875E-001,0.00000E+000,-2.80184E-003,-6.92592E-002,1.00000E+000,28
1059,1317,1.65694E+001,-8.27706E-001,1.22957E-002,8.36409E+000,-3.00130E-001,-2.27825E-002,8.36950E+000,1.68924E-002,4.00311E-001,0,1.26783E+002,-5.72572E+000,9.98245E-001,8.71000E+001,-3.67601E+001,9.96187E-001,1.73821E-001,-7.26501E-002,-1.24781E-003,1.73827E-001,-7.26564E-002,-2.90060E-001,1.74605E-001,1.18941E+000,-3.23178E-002,0.00000E+000,2.29789E-002,9.31873E-001,0.00000E+000,-1.94065E-003,-6.92469E-002,1.00000E+000,28
799,1307,-3.77563E+000,-1.76054E+000,2.41618E-001,4.98981E+000,-4.47944E-001,2.20433E-001,5.01473E+000,2.85701E-002,5.53501E-001,0,7.64577E+001,-8.08298E+000,9.95358E-001,3.25773E+001,-4.42173E+001,9.95396E-001,1.81095E-001,-7.65945E-002,-3.45529E-004,1.81095E-001,-7.65950E-002,-7.68263E-002,1.81811E-001,1.19853E+000,-3.47363E-003,0.00000E+000,1.90478E-003,9.29754E-001,0.00000E+000,1.52741E-003,-8.68978E-002,1.00000E+000,28
799,1317,-3.77486E+000,-1.18504E+000,1.23226E-001,4.98960E+000,-5.05628E-001,1.60068E-001,5.01771E+000,2.41793E-002,5.64728E-001,0,7.66617E+001,-8.87461E+000,9.97206E-001,3.24149E+001,-4.50844E+001,9.95835E-001,1.81299E-001,-7.65970E-002,-6.42474E-004,1.81301E-001,-7.65986E-002,-1.42735E-001,1.82025E-001,1.19877E+000,-3.47324E-003,0.00000E+000,1.46062E-003,9.29753E-001,0.00000E+000,1.19181E-004,-8.69000E-002,1.00000E+000,28
789,1327,-4.54237E+000,-6.16022E-001,5.20301E-002,4.86089E+000,-5.67538E-001,1.13757E-001,4.89523E+000,1.78814E-002,5.33310E-001,0,7.48882E+001,-9.74538E+000,9.98402E-001,3.05419E+001,-4.62767E+001,9.97528E-001,1.79868E-001,-7.62451E-002,-6.05681E-004,1.79870E-001,-7.62466E-002,-1.35497E-001,1.80563E-001,1.19706E+000,-3.92466E-003,0.00000E+000,2.03642E-003,9.29947E-001,0.00000E+000,-1.83293E-003,-8.52358E-002,1.00000E+000,28
789,1337,-4.52904E+000,-1.05713E-002,1.17481E-002,4.85916E+000,-6.05295E-001,5.94032E-002,4.89707E+000,1.37959E-002,5.08200E-001,0,7.50294E+001,-1.02214E+001,9.97965E-001,3.07677E+001,-4.68671E+001,9.97907E-001,1.80170E-001,-7.62650E-002,-9.82539E-004,1.80174E-001,-7.62688E-002,-2.19526E-001,1.80879E-001,1.19742E+000,-3.91613E-003,0.00000E+000,1.41823E-003,9.29933E-001,0.00000E+000,-3.04456E-003,-8.52641E-002,1.00000E+000,28
789,1347,-4.50640E+000,5.90376E-001,5.51502E-004,4.86303E+000,-6.50824E-001,1.52929E-002,4.90641E+000,1.52846E-002,5.33480E-001,0,7.52236E+001,-1.08612E+001,9.97270E-001,3.12061E+001,-4.75654E+001,9.96720E-001,1.80471E-001,-7.62890E-002,-1.35975E-003,1.80479E-001,-7.62962E-002,-3.03415E-001,1.81195E-001,1.19779E+000,-3.90552E-003,0.00000E+000,7.98146E-004,9.29915E-001,0.00000E+000,-4.25992E-003,-8.52993E-002,1.00000E+000,28
789,1357,-4.48149E+000,1.19548E+000,2.50429E-002,4.86139E+000,-6.98012E-001,-3.29250E-002,4.91136E+000,1.40896E-002,5.29150E-001,0,7.53393E+001,-1.15054E+001,9.96772E-001,3.17672E+001,-4.82955E+001,9.96155E-001,1.80772E-001,-7.63221E-002,-1.73705E-003,1.80784E-001,-7.63338E-002,-3.87094E-001,1.81511E-001,1.19815E+000,-3.89051E-003,0.00000E+000,1.75090E-004,9.29890E-001,0.00000E+000,-5.48109E-003,-8.53491E-002,1.00000E+000,28
1069,1327,1.73520E+001,-2.18574E-001,-3.87484E-002,8.47687E+000,-3.44114E-001,-5.68615E-002,8.48404E+000,1.64088E-002,4.24201E-001,0,1.28522E+002,-6.36261E+000,9.98720E-001,8.92573E+001,-3.70964E+001,9.96759E-001,1.74653E-001,-7.26730E-002,-1.58135E-003,1.74663E-001,-7.26831E-002,-3.66317E-001,1.75480E-001,1.19042E+000,-3.16161E-002,0.00000E+000,2.16587E-002,9.31815E-001,0.00000E+000,3.85570E-005,-6.82002E-002,1.00000E+000,28
1069,1337,1.73486E+001,3.93183E-001,-6.40827E-002,8.45655E+000,-3.79233E-001,-8.77806E-002,8.46550E+000,1.06561E-002,3.72295E-001,0,1.28325E+002,-6.87096E+000,9.98961E-001,8.92297E+001,-3.75864E+001,9.97954E-001,1.75281E-001,-7.26799E-002,-1.63224E-003,1.75292E-001,-7.26906E-002,-3.77135E-001,1.76140E-001,1.19117E+000,-3.15967E-002,0.00000E+000,2.15087E-002,9.31811E-001,0.00000E+000,4.12901E-004,-6.81906E-002,1.00000E+000,28
1069,1347,1.73544E+001,9.98086E-001,-6.57081E-002,8.43842E+000,-4.27484E-001,-1.23987E-001,8.45015E+000,1.09003E-002,4.04730E-001,0,1.28177E+002,-7.58269E+000,9.99138E-001,8.93833E+001,-3.81943E+001,9.98355E-001,1.75912E-001,-7.26882E-002,-1.68023E-003,1.75923E-001,-7.26995E-002,-3.87224E-001,1.76804E-001,1.19192E+000,-3.15695E-002,0.00000E+000,2.13577E-002,9.31805E-001,0.00000E+000,7.89652E-004,-6.81769E-002,1.00000E+000,28
789,1307,-4.54241E+000,-1.77018E+000,2.38408E-001,4.87055E+000,-4.51420E-001,2.24081E-001,4.89656E+000,1.90892E-002,5.36119E-001,0,7.46653E+001,-8.12269E+000,9.97061E-001,3.07689E+001,-4.44685E+001,9.94386E-001,1.79263E-001,-7.62288E-002,1.47434E-004,1.79263E-001,-7.62289E-002,3.30631E-002,1.79930E-001,1.19633E+000,-3.93017E-003,0.00000E+000,3.26416E-003,9.29957E-001,0.00000E+000,5.73399E-004,-8.52175E-002,1.00000E+000,28
789,1317,-4.54470E+000,-1.19843E+000,1.41984E-001,4.86450E+000,-5.13866E-001,1.71270E-001,4.89456E+000,2.03316E-002,5.46151E-001,0,7.47529E+001,-9.01576E+000,9.97170E-001,3.06107E+001,-4.54429E+001,9.93781E-001,1.79566E-001,-7.62358E-002,-2.29049E-004,1.79567E-001,-7.62360E-002,-5.13034E-002,1.80247E-001,1.19669E+000,-3.92803E-003,0.00000E+000,2.65083E-003,9.29953E-001,0.00000E+000,-6.28719E-004,-8.52246E-002,1.00000E+000,28
1069,1297,1.73602E+001,-2.00322E+000,1.39035E-001,8.51845E+000,-1.93827E-001,6.44627E-002,8.52090E+000,1.88459E-002,3.50679E-001,0,1.28674E+002,-4.17294E+000,9.96527E-001,8.94873E+001,-3.51841E+001,9.93082E-001,1.72767E-001,-7.26559E-002,-1.42068E-003,1.72775E-001,-7.26642E-002,-3.31653E-001,1.73500E-001,1.18817E+000,-3.16545E-002,0.00000E+000,2.21088E-002,9.31822E-001,0.00000E+000,-1.08428E-003,-6.82194E-002,1.00000E+000,28
1069,1307,1.73560E+001,-1.40703E+000,5.91702E-002,8.50682E+000,-2.38335E-001,1.85190E-002,8.51018E+000,1.31671E-002,3.09717E-001,0,1.28681E+002,-4.80523E+000,9.98579E-001,8.93542E+001,-3.57894E+001,9.96865E-001,1.73393E-001,-7.26609E-002,-1.47566E-003,1.73402E-001,-7.26697E-002,-3.43604E-001,1.74157E-001,1.18892E+000,-3.16458E-002,0.00000E+000,2.19595E-002,9.31821E-001,0.00000E+000,-7.11839E-004,-6.82151E-002,1.00000E+000,28
1069,1317,1.73560E+001,-8.05667E-001,9.15413E-003,8.49394E+000,-2.83939E-001,-1.97515E-002,8.49870E+000,1.45285E-002,4.25025E-001,0,1.28632E+002,-5.50039E+000,9.98831E-001,8.93352E+001,-3.63003E+001,9.96871E-001,1.74023E-001,-7.26669E-002,-1.52854E-003,1.74033E-001,-7.26764E-002,-3.54997E-001,1.74819E-001,1.18967E+000,-3.16311E-002,0.00000E+000,2.18092E-002,9.31818E-001,0.00000E+000,-3.36707E-004,-6.82077E-002,1.00000E+000,28
779,1327,-5.30939E+000,-6.15129E-001,6.26269E-002,4.73977E+000,-5.62469E-001,1.24726E-001,4.77466E+000,2.55149E-002,5.71142E-001,0,7.30350E+001,-9.67198E+000,9.98091E-001,2.87690E+001,-4.63713E+001,9.96972E-001,1.78158E-001,-7.56463E-002,-5.37836E-004,1.78159E-001,-7.56474E-002,-1.21415E-001,1.78833E-001,1.19501E+000,-4.65339E-003,0.00000E+000,2.74758E-003,9.30394E-001,0.00000E+000,-2.03891E-003,-8.38435E-002,1.00000E+000,28
779,1337,-5.29597E+000,-2.51334E-002,1.62411E-002,4.73860E+000,-6.14355E-001,6.59257E-002,4.77872E+000,1.34681E-002,5.16964E-001,0,7.32024E+001,-1.03567E+001,9.97290E-001,2.89788E+001,-4.72032E+001,9.97328E-001,1.78647E-001,-7.56718E-002,-1.02143E-003,1.78651E-001,-7.56759E-002,-2.30115E-001,1.79345E-001,1.19559E+000,-4.64006E-003,0.00000E+000,1.90867E-003,9.30375E-001,0.00000E+000,-3.06641E-003,-8.38668E-002,1.00000E+000,28
779,1347,-5.27923E+000,5.80885E-001,4.95443E-004,4.73620E+000,-6.53869E-001,1.43281E-002,4.78115E+000,1.68204E-002,5.08377E-001,0,7.33202E+001,-1.08857E+001,9.96212E-001,2.93180E+001,-4.78331E+001,9.95837E-001,1.79135E-001,-7.57039E-002,-1.50492E-003,1.79144E-001,-7.57128E-002,-3.38336E-001,1.79858E-001,1.19618E+000,-4.62259E-003,0.00000E+000,1.06705E-003,9.30350E-001,0.00000E+000,-4.09723E-003,-8.38973E-002,1.00000E+000,28
779,1357,-5.25739E+000,1.18965E+000,2.40124E-002,4.73244E+000,-6.96967E-001,-3.10963E-002,4.78359E+000,1.34672E-002,5.23042E-001,0,7.33932E+001,-1.14760E+001,9.96725E-001,2.98323E+001,-4.84974E+001,9.96656E-001,1.79626E-001,-7.57455E-002,-1.98914E-003,1.79641E-001,-7.57610E-002,-4.46253E-001,1.80373E-001,1.19678E+000,-4.59923E-003,0.00000E+000,2.20075E-004,9.30317E-001,0.00000E+000,-5.13460E-003,-8.39381E-002,1.00000E+000,28
779,1317,-5.30580E+000,-1.19293E+000,1.43506E-001,4.74911E+000,-5.02542E-001,1.72324E-001,4.77874E+000,2.50612E-002,5.14195E-001,0,7.30184E+001,-8.81992E+000,9.98583E-001,2.89085E+001,-4.54793E+001,9.97111E-001,1.77668E-001,-7.56338E-002,-5.17175E-005,1.77668E-001,-7.56338E-002,-1.16983E-002,1.78321E-001,1.19442E+000,-4.65866E-003,0.00000E+000,3.58511E-003,9.30401E-001,0.00000E+000,-1.01311E-003,-8.38343E-002,1.00000E+000,28
1079,1337,1.81317E+001,4.09919E-001,-8.16513E-002,8.58164E+000,-3.68912E-001,-1.01676E-001,8.59017E+000,1.63093E-002,3.85820E-001,0,1.30167E+002,-6.69805E+000,9.98154E-001,9.13888E+001,-3.71797E+001,9.98241E-001,1.75690E-001,-7.29011E-002,-1.91912E-003,1.75705E-001,-7.29159E-002,-4.42287E-001,1.76549E-001,1.19168E+000,-3.08529E-002,0.00000E+000,2.03475E-002,9.31596E-001,0.00000E+000,8.87328E-004,-6.76224E-002,1.00000E+000,28
1079,1347,1.81427E+001,1.01643E+000,-7.15360E-002,8.56843E+000,-4.15739E-001,-1.26537E-001,8.57944E+000,9.39239E-003,4.24654E-001,0,1.30050E+002,-7.41890E+000,9.99264E-001,9.16411E+001,-3.77831E+001,9.99151E-001,1.76274E-001,-7.29146E-002,-2.01141E-003,1.76291E-001,-7.29308E-002,-4.62440E-001,1.77164E-001,1.19237E+000,-3.08274E-002,0.00000E+000,2.01435E-002,9.31588E-001,0.00000E+000,8.29582E-004,-6.76246E-002,1.00000E+000,28
1079,1297,1.81463E+001,-1.97974E+000,1.46930E-001,8.64606E+000,-1.76262E-001,7.22271E-002,8.64816E+000,1.80022E-002,4.09534E-001,0,1.30463E+002,-3.95807E+000,9.97495E-001,9.17383E+001,-3.47120E+001,9.95424E-001,1.73363E-001,-7.28628E-002,-1.53226E-003,1.73373E-001,-7.28723E-002,-3.56533E-001,1.74105E-001,1.18890E+000,-3.09058E-002,0.00000E+000,2.11582E-002,9.31611E-001,0.00000E+000,1.11678E-003,-6.76181E-002,1.00000E+000,28
1079,1307,1.81354E+001,-1.39219E+000,5.35513E-002,8.62906E+000,-2.29423E-001,1.87722E-002,8.63213E+000,1.50814E-002,3.46607E-001,0,1.30424E+002,-4.68684E+000,9.98692E-001,9.14774E+001,-3.54324E+001,9.97191E-001,1.73943E-001,-7.28703E-002,-1.63127E-003,1.73954E-001,-7.28810E-002,-3.78665E-001,1.74714E-001,1.18959E+000,-3.08992E-002,0.00000E+000,2.09565E-002,9.31609E-001,0.00000E+000,1.05968E-003,-6.76186E-002,1.00000E+000,28
1079,1327,1.81337E+001,-2.03400E-001,-5.33469E-002,8.60019E+000,-3.35118E-001,-6.98731E-002,8.60700E+000,1.82521E-002,3.95082E-001,0,1.30334E+002,-6.19501E+000,9.98576E-001,9.14008E+001,-3.67437E+001,9.97802E-001,1.75109E-001,-7.28902E-002,-1.82414E-003,1.75122E-001,-7.29036E-002,-4.21404E-001,1.75938E-001,1.19098E+000,-3.08704E-002,0.00000E+000,2.05503E-002,9.31601E-001,0.00000E+000,9.44719E-004,-6.76210E-002,1.00000E+000,28
1079,1317,1.81321E+001,-7.88952E-001,-8.47937E-003,8.61294E+000,-2.73522E-001,-3.07849E-002,8.61734E+000,1.50033E-002,4.09949E-001,0,1.30372E+002,-5.30497E+000,9.98513E-001,9.13870E+001,-3.59128E+001,9.97412E-001,1.74526E-001,-7.28800E-002,-1.72810E-003,1.74538E-001,-7.28920E-002,-4.00177E-001,1.75326E-001,1.19029E+000,-3.08856E-002,0.00000E+000,2.07533E-002,9.31605E-001,0.00000E+000,1.00217E-003,-6.76197E-002,1.00000E+000,28
779,1307,-5.31695E+000,-1.78623E+000,2.46893E-001,4.74145E+000,-4.63082E-001,2.31079E-001,4.76961E+000,1.80268E-002,5.64584E-001,0,7.27092E+001,-8.31003E+000,9.98100E-001,2.88732E+001,-4.48214E+001,9.95859E-001,1.77180E-001,-7.56244E-002,4.32069E-004,1.77180E-001,-7.56252E-002,9.79242E-002,1.77812E-001,1.19384E+000,-4.66187E-003,0.00000E+000,4.41714E-003,9.30406E-001,0.00000E+000,5.95084E-006,-8.38287E-002,1.00000E+000,28
1089,1337,1.89135E+001,4.31515E-001,-8.69333E-002,8.70499E+000,-3.54365E-001,-1.03052E-001,8.71281E+000,1.43538E-002,4.61969E-001,0,1.31931E+002,-6.50873E+000,9.97800E-001,9.35527E+001,-3.66939E+001,9.97649E-001,1.76591E-001,-7.31964E-002,-2.03866E-003,1.76608E-001,-7.32130E-002,-4.67582E-001,1.77466E-001,1.19278E+000,-2.98071E-002,0.00000E+000,1.92532E-002,9.31303E-001,0.00000E+000,1.37823E-003,-6.69744E-002,1.00000E+000,28
1089,1347,1.89229E+001,1.03612E+000,-8.10518E-002,8.69018E+000,-4.02262E-001,-1.31708E-001,8.70048E+000,1.05332E-002,4.21859E-001,0,1.31805E+002,-7.21411E+000,9.98862E-001,9.37720E+001,-3.73552E+001,9.98214E-001,1.77274E-001,-7.32142E-002,-2.16618E-003,1.77293E-001,-7.32329E-002,-4.95434E-001,1.78184E-001,1.19360E+000,-2.97772E-002,0.00000E+000,1.89947E-002,9.31294E-001,0.00000E+000,1.04592E-003,-6.69866E-002,1.00000E+000,28
769,1347,-6.05119E+000,5.71188E-001,3.71955E-003,4.61059E+000,-6.57259E-001,2.06705E-002,4.65725E+000,1.35870E-002,5.03767E-001,0,7.14108E+001,-1.09315E+001,9.96631E-001,2.74563E+001,-4.81010E+001,9.96712E-001,1.77376E-001,-7.51234E-002,-1.51242E-003,1.77385E-001,-7.51324E-002,-3.43174E-001,1.78075E-001,1.19408E+000,-5.15737E-003,0.00000E+000,1.43895E-003,9.30792E-001,0.00000E+000,-3.68946E-003,-8.26303E-002,1.00000E+000,28
769,1357,-6.02657E+000,1.18323E+000,2.46165E-002,4.61016E+000,-6.96681E-001,-2.56028E-002,4.66258E+000,1.30633E-002,5.34490E-001,0,7.15362E+001,-1.14696E+001,9.97529E-001,2.80096E+001,-4.87027E+001,9.97587E-001,1.77766E-001,-7.51635E-002,-1.98691E-003,1.77781E-001,-7.51791E-002,-4.50055E-001,1.78485E-001,1.19455E+000,-5.13923E-003,0.00000E+000,6.05680E-004,9.30760E-001,0.00000E+000,-4.63238E-003,-8.26666E-002,1.00000E+000,28
769,1327,-6.07799E+000,-6.22582E-001,7.91319E-002,4.61434E+000,-5.64944E-001,1.29347E-001,4.65060E+000,1.87083E-002,5.56715E-001,0,7.11331E+001,-9.71520E+000,9.97768E-001,2.69906E+001,-4.66339E+001,9.96117E-001,1.76598E-001,-7.50711E-002,-5.65156E-004,1.76599E-001,-7.50723E-002,-1.28665E-001,1.77258E-001,1.19314E+000,-5.17952E-003,0.00000E+000,3.09259E-003,9.30831E-001,0.00000E+000,-1.81819E-003,-8.25860E-002,1.00000E+000,28
769,1337,-6.06938E+000,-3.90591E-002,1.78076E-002,4.61092E+000,-6.22552E-001,6.82725E-002,4.65326E+000,1.24885E-002,5.09733E-001,0,7.12755E+001,-1.04671E+001,9.97337E-001,2.70887E+001,-4.75323E+001,9.97114E-001,1.76987E-001,-7.50926E-002,-1.03918E-003,1.76991E-001,-7.50969E-002,-2.36192E-001,1.77666E-001,1.19361E+000,-5.17079E-003,0.00000E+000,2.26676E-003,9.30816E-001,0.00000E+000,-2.75270E-003,-8.26035E-002,1.00000E+000,28
1089,1327,1.89130E+001,-1.75705E-001,-6.93769E-002,8.72284E+000,-3.10886E-001,-7.54717E-002,8.72870E+000,1.58068E-002,3.94643E-001,0,1.32101E+002,-5.84609E+000,9.97904E-001,9.35108E+001,-3.61801E+001,9.96920E-001,1.75908E-001,-7.31811E-002,-1.90817E-003,1.75922E-001,-7.31957E-002,-4.38887E-001,1.76746E-001,1.19197E+000,-2.98298E-002,0.00000E+000,1.95117E-002,9.31311E-001,0.00000E+000,1.71047E-003,-6.69652E-002,1.00000E+000,28
1089,1317,1.89173E+001,-7.78825E-001,-1.82781E-002,8.74007E+000,-2.68282E-001,-3.63665E-002,8.74426E+000,1.46665E-002,4.27625E-001,0,1.32210E+002,-5.24568E+000,9.98610E-001,9.35976E+001,-3.56271E+001,9.98056E-001,1.75227E-001,-7.31683E-002,-1.77569E-003,1.75240E-001,-7.31810E-002,-4.09560E-001,1.76031E-001,1.19115E+000,-2.98459E-002,0.00000E+000,1.97687E-002,9.31316E-001,0.00000E+000,2.04092E-003,-6.69586E-002,1.00000E+000,28
1089,1297,1.89325E+001,-1.95685E+000,1.47343E-001,8.77343E+000,-1.59971E-001,7.33267E-002,8.77519E+000,1.27595E-002,4.56896E-001,0,1.32272E+002,-3.73107E+000,9.98758E-001,9.39817E+001,-3.42387E+001,9.98333E-001,1.73866E-001,-7.31460E-002,-1.50742E-003,1.73876E-001,-7.31552E-002,-3.49637E-001,1.74602E-001,1.18954E+000,-2.98686E-002,0.00000E+000,2.02816E-002,9.31323E-001,0.00000E+000,2.70033E-003,-6.69494E-002,1.00000E+000,28
1089,1307,1.89220E+001,-1.37236E+000,4.84583E-002,8.75639E+000,-2.16737E-001,1.30280E-002,8.75908E+000,1.22647E-002,4.31556E-001,0,1.32261E+002,-4.51799E+000,9.99026E-001,9.37172E+001,-3.49745E+001,9.98765E-001,1.74546E-001,-7.31560E-002,-1.64262E-003,1.74557E-001,-7.31669E-002,-3.79933E-001,1.75315E-001,1.19034E+000,-2.98604E-002,0.00000E+000,2.00256E-002,9.31320E-001,0.00000E+000,2.37123E-003,-6.69527E-002,1.00000E+000,28
769,1317,-6.08629E+000,-1.20179E+000,1.48452E-001,4.61406E+000,-5.08334E-001,1.77864E-001,4.64539E+000,2.12936E-002,5.20901E-001,0,7.09697E+001,-8.87241E+000,9.98727E-001,2.69187E+001,-4.57277E+001,9.98019E-001,1.76210E-001,-7.50551E-002,-9.28525E-005,1.76210E-001,-7.50552E-002,-2.11731E-002,1.76853E-001,1.19268E+000,-5.18535E-003,0.00000E+000,3.91338E-003,9.30842E-001,0.00000E+000,-8.89395E-004,-8.25744E-002,1.00000E+000,28
1099,1327,1.96914E+001,-1.57689E-001,-7.28005E-002,8.84396E+000,-2.98170E-001,-6.88129E-002,8.84925E+000,1.75902E-002,4.37058E-001,0,1.33798E+002,-5.69504E+000,9.95773E-001,9.56299E+001,-3.57729E+001,9.93686E-001,1.76810E-001,-7.34158E-002,-2.07315E-003,1.76827E-001,-7.34329E-002,-4.74658E-001,1.77671E-001,1.19306E+000,-2.90132E-002,0.00000E+000,1.85205E-002,9.31106E-001,0.00000E+000,2.05650E-003,-6.68519E-002,1.00000E+000,28
1099,1337,1.96992E+001,4.53040E-001,-8.85100E-002,8.83159E+000,-3.38579E-001,-1.01485E-001,8.83867E+000,1.71280E-002,4.40237E-001,0,1.33728E+002,-6.28120E+000,9.96140E-001,9.57877E+001,-3.62659E+001,9.96055E-001,1.77642E-001,-7.34318E-002,-2.20126E-003,1.77661E-001,-7.34511E-002,-5.02282E-001,1.78547E-001,1.19406E+000,-2.89829E-002,0.00000E+000,1.82651E-002,9.31098E-001,0.00000E+000,1.60357E-003,-6.68657E-002,1.00000E+000,28
1099,1347,1.97111E+001,1.06266E+000,-7.88639E-002,8.81717E+000,-3.83296E-001,-1.34744E-001,8.82652E+000,1.37656E-002,4.33653E-001,0,1.33622E+002,-6.93916E+000,9.97528E-001,9.60521E+001,-3.68393E+001,9.97142E-001,1.78475E-001,-7.34506E-002,-2.32582E-003,1.78496E-001,-7.34721E-002,-5.28903E-001,1.79423E-001,1.19505E+000,-2.89431E-002,0.00000E+000,1.80091E-002,9.31088E-001,0.00000E+000,1.14957E-003,-6.68839E-002,1.00000E+000,28
759,1347,-6.81658E+000,5.67861E-001,4.10421E-003,4.49123E+000,-6.54552E-001,2.47828E-002,4.53875E+000,1.23986E-002,5.22485E-001,0,6.96003E+001,-1.08848E+001,9.96655E-001,2.56949E+001,-4.82522E+001,9.96444E-001,1.75619E-001,-7.45969E-002,-1.43063E-003,1.75628E-001,-7.46050E-002,-3.27579E-001,1.76289E-001,1.19198E+000,-5.47129E-003,0.00000E+000,1.80702E-003,9.31201E-001,0.00000E+000,-3.23839E-003,-8.15728E-002,1.00000E+000,28
759,1357,-6.79678E+000,1.17432E+000,2.36842E-002,4.48650E+000,-6.98982E-001,-2.12567E-002,4.54067E+000,1.34515E-002,5.47115E-001,0,6.96597E+001,-1.14993E+001,9.97119E-001,2.61719E+001,-4.89425E+001,9.96708E-001,1.75786E-001,-7.46265E-002,-1.78736E-003,1.75799E-001,-7.46393E-002,-4.08929E-001,1.76465E-001,1.19218E+000,-5.46361E-003,0.00000E+000,1.20036E-003,9.31178E-001,0.00000E+000,-4.15384E-003,-8.16073E-002,1.00000E+000,28
1099,1297,1.97115E+001,-1.94559E+000,1.26325E-001,8.89498E+000,-1.53813E-001,6.03102E-002,8.89651E+000,1.21896E-002,4.77397E-001,0,1.34051E+002,-3.62372E+000,9.98127E-001,9.60822E+001,-3.39149E+001,9.96806E-001,1.74325E-001,-7.33809E-002,-1.67341E-003,1.74336E-001,-7.33923E-002,-3.87047E-001,1.75060E-001,1.19011E+000,-2.90601E-002,0.00000E+000,1.92815E-002,9.31118E-001,0.00000E+000,3.40602E-003,-6.68305E-002,1.00000E+000,28
1099,1307,1.97060E+001,-1.35286E+000,3.72790E-002,8.88294E+000,-2.02969E-001,9.96052E-003,8.88526E+000,1.40130E-002,4.55023E-001,0,1.34075E+002,-4.31085E+000,9.98539E-001,9.59139E+001,-3.45399E+001,9.97900E-001,1.75153E-001,-7.33909E-002,-1.80871E-003,1.75166E-001,-7.34040E-002,-4.16926E-001,1.75929E-001,1.19109E+000,-2.90500E-002,0.00000E+000,1.90283E-002,9.31115E-001,0.00000E+000,2.95702E-003,-6.68351E-002,1.00000E+000,28
1099,1317,1.96974E+001,-7.57358E-001,-2.94919E-002,8.86383E+000,-2.51549E-001,-3.42225E-002,8.86746E+000,1.82194E-002,4.61216E-001,0,1.33964E+002,-5.01654E+000,9.97381E-001,9.57323E+001,-3.51554E+001,9.96163E-001,1.75981E-001,-7.34026E-002,-1.94183E-003,1.75996E-001,-7.34177E-002,-4.46099E-001,1.76799E-001,1.19208E+000,-2.90341E-002,0.00000E+000,1.87747E-002,9.31111E-001,0.00000E+000,2.50722E-003,-6.68424E-002,1.00000E+000,28
759,1327,-6.85265E+000,-6.34936E-001,7.57005E-002,4.48464E+000,-5.71361E-001,1.25392E-001,4.52263E+000,1.47909E-002,5.14091E-001,0,6.91922E+001,-9.77605E+000,9.97704E-001,2.50744E+001,-4.69441E+001,9.98023E-001,1.75284E-001,-7.45587E-002,-7.19689E-004,1.75286E-001,-7.45607E-002,-1.65043E-001,1.75936E-001,1.19157E+000,-5.48054E-003,0.00000E+000,3.01202E-003,9.31229E-001,0.00000E+000,-1.42005E-003,-8.15313E-002,1.00000E+000,28
759,1337,-6.83527E+000,-3.34396E-002,2.62192E-002,4.48981E+000,-6.11258E-001,7.46636E-002,4.53184E+000,1.22836E-002,5.36779E-001,0,6.94281E+001,-1.03068E+001,9.96834E-001,2.53401E+001,-4.75571E+001,9.96924E-001,1.75452E-001,-7.45750E-002,-1.07509E-003,1.75457E-001,-7.45797E-002,-2.46359E-001,1.76112E-001,1.19178E+000,-5.47671E-003,0.00000E+000,2.41018E-003,9.31217E-001,0.00000E+000,-2.32822E-003,-8.15485E-002,1.00000E+000,28
759,1317,-6.85644E+000,-1.21853E+000,1.53414E-001,4.48788E+000,-5.19520E-001,1.77498E-001,4.52133E+000,1.93341E-002,5.42545E-001,0,6.90737E+001,-9.05682E+000,9.98093E-001,2.50916E+001,-4.60889E+001,9.97849E-001,1.75116E-001,-7.45478E-002,-3.65934E-004,1.75117E-001,-7.45484E-002,-8.39784E-002,1.75760E-001,1.19137E+000,-5.48276E-003,0.00000E+000,3.60997E-003,9.31235E-001,0.00000E+000,-5.17734E-004,-8.15214E-002,1.00000E+000,28
749,1317,-7.61553E+000,-1.22163E+000,1.71869E-001,4.37114E+000,-5.19352E-001,1.84364E-001,4.40574E+000,1.51499E-002,5.77972E-001,0,6.72942E+001,-9.06678E+000,9.98015E-001,2.34768E+001,-4.62604E+001,9.96810E-001,1.74009E-001,-7.41273E-002,-5.52695E-004,1.74010E-001,-7.41285E-002,-1.27619E-001,1.74644E-001,1.19005E+000,-5.33226E-003,0.00000E+000,3.13467E-003,9.31563E-001,0.00000E+000,-3.29427E-004,-8.06470E-002,1.00000E+000,28
749,1327,-7.61187E+000,-6.36260E-001,7.64769E-002,4.36937E+000,-5.68659E-001,1.22695E-001,4.40792E+000,1.20344E-002,5.36570E-001,0,6.74639E+001,-9.70949E+000,9.97285E-001,2.34128E+001,-4.70590E+001,9.97162E-001,1.73985E-001,-7.41338E-002,-8.12147E-004,1.73988E-001,-7.41364E-002,-1.87539E-001,1.74620E-001,1.19003E+000,-5.33250E-003,0.00000E+000,2.70343E-003,9.31560E-001,0.00000E+000,-1.06997E-003,-8.06533E-002,1.00000E+000,28
749,1337,-7.60226E+000,-3.70553E-002,2.68899E-002,4.36709E+000,-6.09811E-001,7.29117E-002,4.41007E+000,1.17990E-002,5.83787E-001,0,6.75814E+001,-1.02833E+001,9.97254E-001,2.35587E+001,-4.76979E+001,9.97423E-001,1.73960E-001,-7.41454E-002,-1.07311E-003,1.73965E-001,-7.41501E-002,-2.47809E-001,1.74595E-001,1.19000E+000,-5.33302E-003,0.00000E+000,2.26990E-003,9.31552E-001,0.00000E+000,-1.81447E-003,-8.06670E-002,1.00000E+000,28
749,1347,-7.58720E+000,5.61722E-001,1.85720E-003,4.36576E+000,-6.54421E-001,2.37973E-002,4.41460E+000,1.29864E-002,5.35706E-001,0,6.77088E+001,-1.08727E+001,9.97490E-001,2.38511E+001,-4.84447E+001,9.97470E-001,1.73935E-001,-7.41606E-002,-1.33474E-003,1.73942E-001,-7.41678E-002,-3.08237E-001,1.74569E-001,1.18997E+000,-5.33373E-003,0.00000E+000,1.83540E-003,9.31541E-001,0.00000E+000,-2.56061E-003,-8.06859E-002,1.00000E+000,28
1109,1297,2.04944E+001,-1.92970E+000,1.17922E-001,9.02169E+000,-1.40854E-001,6.67842E-002,9.02304E+000,1.31545E-002,4.78331E-001,0,1.35827E+002,-3.46308E+000,9.97208E-001,9.82694E+001,-3.35555E+001,9.94957E-001,1.74951E-001,-7.38774E-002,-1.77498E-003,1.74964E-001,-7.38900E-002,-4.08683E-001,1.75666E-001,1.19089E+000,-2.76780E-002,0.00000E+000,1.79603E-002,9.30689E-001,0.00000E+000,3.90373E-003,-6.69448E-002,1.00000E+000,28
1109,1307,2.04867E+001,-1.33544E+000,2.85256E-002,9.00742E+000,-1.88396E-001,1.62857E-002,9.00940E+000,1.47149E-002,4.24535E-001,0,1.35819E+002,-4.11414E+000,9.97733E-001,9.80666E+001,-3.41701E+001,9.96996E-001,1.75844E-001,-7.38840E-002,-1.86300E-003,1.75858E-001,-7.38978E-002,-4.27401E-001,1.76603E-001,1.19195E+000,-2.76672E-002,0.00000E+000,1.78029E-002,9.30688E-001,0.00000E+000,3.32569E-003,-6.69507E-002,1.00000E+000,28
1109,1317,2.04794E+001,-7.38399E-001,-3.47671E-002,8.98966E+000,-2.35769E-001,-2.36866E-002,8.99278E+000,1.68612E-002,4.25435E-001,0,1.35713E+002,-4.80513E+000,9.96723E-001,9.79104E+001,-3.47701E+001,9.95675E-001,1.76738E-001,-7.38917E-002,-1.94872E-003,1.76753E-001,-7.39068E-002,-4.45456E-001,1.77541E-001,1.19301E+000,-2.76502E-002,0.00000E+000,1.76450E-002,9.30685E-001,0.00000E+000,2.74616E-003,-6.69600E-002,1.00000E+000,28
749,1357,-7.56329E+000,1.16691E+000,2.52928E-002,4.36564E+000,-6.99319E-001,-1.68816E-002,4.42133E+000,1.57363E-002,5.40441E-001,0,6.78229E+001,-1.15023E+001,9.97504E-001,2.44029E+001,-4.91741E+001,9.97137E-001,1.73908E-001,-7.41819E-002,-1.59818E-003,1.73918E-001,-7.41922E-002,-3.69074E-001,1.74542E-001,1.18994E+000,-5.33478E-003,0.00000E+000,1.39820E-003,9.31524E-001,0.00000E+000,-3.31141E-003,-8.07137E-002,1.00000E+000,28
1109,1327,2.04742E+001,-1.40895E-001,-8.18592E-002,8.96928E+000,-2.85659E-001,-6.72137E-002,8.97408E+000,1.53285E-002,4.17032E-001,0,1.35576E+002,-5.52061E+000,9.95609E-001,9.78145E+001,-3.54032E+001,9.94274E-001,1.77633E-001,-7.39009E-002,-2.03148E-003,1.77649E-001,-7.39173E-002,-4.62702E-001,1.78481E-001,1.19408E+000,-2.76254E-002,0.00000E+000,1.74868E-002,9.30681E-001,0.00000E+000,2.16503E-003,-6.69735E-002,1.00000E+000,28
1109,1337,2.04784E+001,4.70488E-001,-9.72335E-002,8.95289E+000,-3.26031E-001,-1.00808E-001,8.95939E+000,1.62879E-002,4.54085E-001,0,1.35449E+002,-6.11770E+000,9.97209E-001,9.79156E+001,-3.58685E+001,9.97077E-001,1.78531E-001,-7.39118E-002,-2.11113E-003,1.78548E-001,-7.39295E-002,-4.79110E-001,1.79425E-001,1.19515E+000,-2.75919E-002,0.00000E+000,1.73278E-002,9.30676E-001,0.00000E+000,1.58119E-003,-6.69917E-002,1.00000E+000,28
1109,1347,2.04965E+001,1.08030E+000,-7.16152E-002,8.94092E+000,-3.73092E-001,-1.32007E-001,8.94967E+000,1.56692E-002,4.46578E-001,0,1.35369E+002,-6.81262E+000,9.97660E-001,9.82977E+001,-3.64725E+001,9.96645E-001,1.79431E-001,-7.39257E-002,-2.18493E-003,1.79450E-001,-7.39445E-002,-4.94065E-001,1.80373E-001,1.19623E+000,-2.75433E-002,0.00000E+000,1.71681E-002,9.30669E-001,0.00000E+000,9.94866E-004,-6.70182E-002,1.00000E+000,28
739,1337,-8.36646E+000,-5.02632E-002,2.63689E-002,4.24693E+000,-6.17258E-001,7.07189E-002,4.29213E+000,1.35640E-002,5.55900E-001,0,6.57756E+001,-1.03694E+001,9.97189E-001,2.18208E+001,-4.80209E+001,9.96878E-001,1.72388E-001,-7.35065E-002,-1.19921E-003,1.72394E-001,-7.35123E-002,-2.79418E-001,1.73015E-001,1.18813E+000,-5.28850E-003,0.00000E+000,1.98777E-003,9.32133E-001,0.00000E+000,-1.56207E-003,-8.04689E-002,1.00000E+000,28
739,1347,-8.35687E+000,5.51930E-001,3.12165E-003,4.24056E+000,-6.58130E-001,2.49724E-002,4.29140E+000,1.03189E-002,5.40261E-001,0,6.58132E+001,-1.09214E+001,9.98534E-001,2.20352E+001,-4.87055E+001,9.98506E-001,1.72130E-001,-7.35213E-002,-1.46606E-003,1.72139E-001,-7.35301E-002,-3.41927E-001,1.72747E-001,1.18783E+000,-5.29602E-003,0.00000E+000,1.55276E-003,9.32122E-001,0.00000E+000,-2.35215E-003,-8.04884E-002,1.00000E+000,28
739,1357,-8.33313E+000,1.16071E+000,2.63693E-002,4.24087E+000,-6.98789E-001,-1.39351E-002,4.29808E+000,1.17254E-002,5.15222E-001,0,6.59270E+001,-1.14757E+001,9.97898E-001,2.25873E+001,-4.93960E+001,9.97939E-001,1.71869E-001,-7.35422E-002,-1.73592E-003,1.71882E-001,-7.35544E-002,-4.05255E-001,1.72476E-001,1.18752E+000,-5.30705E-003,0.00000E+000,1.11526E-003,9.32107E-001,0.00000E+000,-3.14675E-003,-8.05170E-002,1.00000E+000,28
739,1327,-8.37770E+000,-6.43844E-001,7.63463E-002,4.24743E+000,-5.70457E-001,1.20710E-001,4.28727E+000,1.25073E-002,4.97172E-001,0,6.56294E+001,-9.70654E+000,9.98570E-001,2.16517E+001,-4.73004E+001,9.98419E-001,1.72645E-001,-7.34949E-002,-9.33685E-004,1.72649E-001,-7.34985E-002,-2.17336E-001,1.73283E-001,1.18843E+000,-5.28296E-003,0.00000E+000,2.42200E-003,9.32141E-001,0.00000E+000,-7.73407E-004,-8.04546E-002,1.00000E+000,28
1119,1297,2.12748E+001,-1.91415E+000,1.05844E-001,9.14550E+000,-1.28431E-001,6.98636E-002,9.14667E+000,1.42022E-002,4.27728E-001,0,1.37570E+002,-3.27456E+000,9.98374E-001,1.00416E+002,-3.32198E+001,9.97464E-001,1.75848E-001,-7.37855E-002,-1.99446E-003,1.75864E-001,-7.38014E-002,-4.57728E-001,1.76619E-001,1.19198E+000,-2.64413E-002,0.00000E+000,1.65805E-002,9.30831E-001,0.00000E+000,3.68214E-003,-6.74168E-002,1.00000E+000,28
1119,1307,2.12681E+001,-1.32147E+000,2.28339E-002,9.13072E+000,-1.78666E-001,2.01061E-002,9.13249E+000,1.27044E-002,4.16348E-001,0,1.37553E+002,-3.98840E+000,9.98272E-001,1.00238E+002,-3.38494E+001,9.98159E-001,1.76678E-001,-7.37877E-002,-2.01492E-003,1.76694E-001,-7.38039E-002,-4.60888E-001,1.77491E-001,1.19297E+000,-2.64290E-002,0.00000E+000,1.65541E-002,9.30831E-001,0.00000E+000,3.05801E-003,-6.74246E-002,1.00000E+000,28
1119,1317,2.12671E+001,-7.22584E-001,-3.57778E-002,9.11848E+000,-2.24444E-001,-1.83222E-002,9.12126E+000,1.37195E-002,4.01381E-001,0,1.37522E+002,-4.65832E+000,9.97432E-001,1.00189E+002,-3.44363E+001,9.97482E-001,1.77509E-001,-7.37903E-002,-2.03348E-003,1.77525E-001,-7.38067E-002,-4.63589E-001,1.78363E-001,1.19396E+000,-2.64119E-002,0.00000E+000,1.65277E-002,9.30831E-001,0.00000E+000,2.43294E-003,-6.74354E-002,1.00000E+000,28
1119,1327,2.12642E+001,-1.22373E-001,-7.69594E-002,9.09948E+000,-2.72068E-001,-5.90064E-002,9.10374E+000,1.27000E-002,3.90127E-001,0,1.37394E+002,-5.34813E+000,9.97247E-001,1.00137E+002,-3.50400E+001,9.97257E-001,1.78340E-001,-7.37934E-002,-2.04914E-003,1.78357E-001,-7.38100E-002,-4.65613E-001,1.79238E-001,1.19495E+000,-2.63876E-002,0.00000E+000,1.65011E-002,9.30830E-001,0.00000E+000,1.80594E-003,-6.74508E-002,1.00000E+000,28
1119,1337,2.12672E+001,4.81992E-001,-9.51561E-002,9.08109E+000,-3.20388E-001,-9.79932E-002,9.08727E+000,1.14925E-002,4.47682E-001,0,1.37261E+002,-6.06105E+000,9.98549E-001,1.00212E+002,-3.55963E+001,9.97935E-001,1.79175E-001,-7.37970E-002,-2.06173E-003,1.79192E-001,-7.38138E-002,-4.66920E-001,1.80116E-001,1.19595E+000,-2.63554E-002,0.00000E+000,1.64745E-002,9.30829E-001,0.00000E+000,1.17547E-003,-6.74711E-002,1.00000E+000,28
1119,1347,2.12811E+001,1.09099E+000,-7.37720E-002,9.06551E+000,-3.67596E-001,-1.30516E-001,9.07390E+000,1.71105E-002,4.24337E-001,0,1.37134E+002,-6.75476E+000,9.98399E-001,1.00521E+002,-3.62105E+001,9.97328E-001,1.80011E-001,-7.38015E-002,-2.06942E-003,1.80028E-001,-7.38183E-002,-4.67111E-001,1.80997E-001,1.19695E+000,-2.63111E-002,0.00000E+000,1.64478E-002,9.30828E-001,0.00000E+000,5.43504E-004,-6.74991E-002,1.00000E+000,28
739,1317,-8.37685E+000,-1.22581E+000,1.67144E-001,4.25335E+000,-5.18493E-001,1.76281E-001,4.28846E+000,1.63997E-002,5.41450E-001,0,6.55428E+001,-9.00656E+000,9.98107E-001,2.17745E+001,-4.64357E+001,9.97516E-001,1.72900E-001,-7.34888E-002,-6.71147E-004,1.72902E-001,-7.34906E-002,-1.56068E-001,1.73548E-001,1.18874E+000,-5.28056E-003,0.00000E+000,2.85349E-003,9.32145E-001,0.00000E+000,1.02713E-005,-8.04483E-002,1.00000E+000,28
1129,1297,2.20525E+001,-1.89038E+000,1.04670E-001,9.26496E+000,-1.08347E-001,7.90388E-002,9.26593E+000,1.43812E-002,3.98202E-001,0,1.39216E+002,-2.99334E+000,9.98968E-001,1.02542E+002,-3.27696E+001,9.98053E-001,1.76547E-001,-7.38620E-002,-2.25956E-003,1.76567E-001,-7.38824E-002,-5.16951E-001,1.77349E-001,1.19284E+000,-2.53146E-002,0.00000E+000,1.52257E-002,9.30809E-001,0.00000E+000,3.11414E-003,-6.77853E-002,1.00000E+000,28
1129,1307,2.20460E+001,-1.30764E+000,1.70269E-002,9.25017E+000,-1.68664E-001,2.39400E-002,9.25174E+000,2.01725E-002,3.72576E-001,0,1.39225E+002,-3.84698E+000,9.98645E-001,1.02360E+002,-3.35490E+001,9.96096E-001,1.77423E-001,-7.38599E-002,-2.21304E-003,1.77442E-001,-7.38794E-002,-5.04551E-001,1.78268E-001,1.19388E+000,-2.53012E-002,0.00000E+000,1.53275E-002,9.30810E-001,0.00000E+000,2.44027E-003,-6.77939E-002,1.00000E+000,28
1129,1317,2.20499E+001,-7.12106E-001,-4.28786E-002,9.24244E+000,-2.18212E-001,-1.73576E-002,9.24503E+000,1.19272E-002,3.68992E-001,0,1.39275E+002,-4.57590E+000,9.98615E-001,1.02386E+002,-3.41771E+001,9.96899E-001,1.78299E-001,-7.38574E-002,-2.16425E-003,1.78317E-001,-7.38760E-002,-4.91721E-001,1.79188E-001,1.19493E+000,-2.52825E-002,0.00000E+000,1.54294E-002,9.30812E-001,0.00000E+000,1.76513E-003,-6.78060E-002,1.00000E+000,28
729,1347,-9.11035E+000,5.37402E-001,1.38412E-002,4.13000E+000,-6.67996E-001,2.94752E-002,4.18377E+000,8.83215E-003,5.50048E-001,0,6.41320E+001,-1.10705E+001,9.99235E-001,2.04964E+001,-4.90551E+001,9.99046E-001,1.70281E-001,-7.29583E-002,-1.27370E-003,1.70287E-001,-7.29650E-002,-3.00014E-001,1.70867E-001,1.18563E+000,-4.60239E-003,0.00000E+000,1.37579E-003,9.32573E-001,0.00000E+000,-2.30869E-003,-7.94846E-002,1.00000E+000,28
729,1357,-9.09424E+000,1.15314E+000,2.95178E-002,4.12401E+000,-7.00756E-001,-1.09002E-002,4.18314E+000,1.08310E-002,5.39038E-001,0,6.41508E+001,-1.15015E+001,9.98426E-001,2.09152E+001,-4.96180E+001,9.98572E-001,1.69727E-001,-7.29726E-002,-1.47683E-003,1.69736E-001,-7.29816E-002,-3.48629E-001,1.70290E-001,1.18498E+000,-4.62455E-003,0.00000E+000,1.08656E-003,9.32563E-001,0.00000E+000,-3.29493E-003,-7.95181E-002,1.00000E+000,28
1129,1327,2.20529E+001,-1.07815E-001,-7.88957E-002,9.22972E+000,-2.61111E-001,-5.06661E-002,9.23355E+000,1.45629E-002,3.82780E-001,0,1.39211E+002,-5.23154E+000,9.98198E-001,1.02432E+002,-3.47138E+001,9.97909E-001,1.79175E-001,-7.38545E-002,-2.11289E-003,1.79192E-001,-7.38722E-002,-4.78396E-001,1.80110E-001,1.19597E+000,-2.52575E-002,0.00000E+000,1.55315E-002,9.30814E-001,0.00000E+000,1.08876E-003,-6.78222E-002,1.00000E+000,28
729,1337,-9.12963E+000,-5.63211E-002,3.55928E-002,4.12771E+000,-6.17365E-001,7.99766E-002,4.17439E+000,1.24339E-002,5.28098E-001,0,6.39452E+001,-1.03662E+001,9.97971E-001,2.01304E+001,-4.82550E+001,9.97402E-001,1.70831E-001,-7.29471E-002,-1.07345E-003,1.70836E-001,-7.29518E-002,-2.52289E-001,1.71442E-001,1.18628E+000,-4.58533E-003,0.00000E+000,1.66400E-003,9.32580E-001,0.00000E+000,-1.32596E-003,-7.94589E-002,1.00000E+000,28
729,1327,-9.13972E+000,-6.48130E-001,8.55167E-002,4.12836E+000,-5.70743E-001,1.25315E-001,4.16951E+000,1.26067E-002,5.06523E-001,0,6.38157E+001,-9.69810E+000,9.97985E-001,1.99787E+001,-4.74864E+001,9.97496E-001,1.71378E-001,-7.29395E-002,-8.76957E-004,1.71381E-001,-7.29426E-002,-2.05655E-001,1.72012E-001,1.18693E+000,-4.57453E-003,0.00000E+000,1.95058E-003,9.32585E-001,0.00000E+000,-3.48810E-004,-7.94426E-002,1.00000E+000,28
1129,1337,2.20661E+001,4.98267E-001,-8.37412E-002,9.21549E+000,-3.12657E-001,-9.98357E-002,9.22133E+000,1.61686E-002,4.57767E-001,0,1.39176E+002,-5.96174E+000,9.97793E-001,1.02686E+002,-3.52615E+001,9.97963E-001,1.80060E-001,-7.38505E-002,-2.05346E-003,1.80076E-001,-7.38671E-002,-4.63331E-001,1.81042E-001,1.19703E+000,-2.52140E-002,0.00000E+000,1.56348E-002,9.30818E-001,0.00000E+000,4.04338E-004,-6.78503E-002,1.00000E+000,28
729,1317,-9.14306E+000,-1.23396E+000,1.60679E-001,4.13146E+000,-5.21115E-001,1.72840E-001,4.16779E+000,1.45167E-002,5.34936E-001,0,6.37130E+001,-9.01920E+000,9.97809E-001,1.99967E+001,-4.66542E+001,9.97131E-001,1.71921E-001,-7.29344E-002,-6.82707E-004,1.71923E-001,-7.29363E-002,-1.59750E-001,1.72580E-001,1.18758E+000,-4.56802E-003,0.00000E+000,2.23652E-003,9.32588E-001,0.00000E+000,6.26184E-004,-7.94328E-002,1.00000E+000,28
1129,1347,2.20724E+001,1.11195E+000,-7.40216E-002,9.19501E+000,-3.53876E-001,-1.32421E-001,9.20277E+000,1.89643E-002,4.63376E-001,0,1.38978E+002,-6.57529E+000,9.97596E-001,1.02857E+002,-3.57621E+001,9.96776E-001,1.80940E-001,-7.38465E-002,-1.99467E-003,1.80956E-001,-7.38621E-002,-4.48518E-001,1.81970E-001,1.19808E+000,-2.51715E-002,0.00000E+000,1.57377E-002,9.30823E-001,0.00000E+000,-2.77364E-004,-6.78778E-002,1.00000E+000,28
719,1347,-9.87669E+000,5.39195E-001,1.71803E-002,4.00762E+000,-6.60064E-001,3.43095E-002,4.06176E+000,1.40184E-002,5.67581E-001,0,6.22604E+001,-1.09507E+001,9.98330E-001,1.87501E+001,-4.91356E+001,9.98206E-001,1.68868E-001,-7.26430E-002,-1.16257E-003,1.68874E-001,-7.26486E-002,-2.75797E-001,1.69422E-001,1.18396E+000,-3.71181E-003,0.00000E+000,8.73467E-004,9.32760E-001,0.00000E+000,-2.07620E-003,-7.80263E-002,1.00000E+000,28
719,1357,-9.86322E+000,1.14349E+000,2.84344E-002,3.99933E+000,-7.04556E-001,-9.65155E-003,4.06093E+000,1.20858E-002,5.59704E-001,0,6.22574E+001,-1.15478E+001,9.98339E-001,1.91166E+001,-4.98655E+001,9.98472E-001,1.68042E-001,-7.26507E-002,-1.28485E-003,1.68049E-001,-7.26576E-002,-3.05841E-001,1.68561E-001,1.18299E+000,-3.74431E-003,0.00000E+000,7.58406E-004,9.32757E-001,0.00000E+000,-3.27131E-003,-7.80661E-002,1.00000E+000,28
719,1337,-9.89383E+000,-5.72991E-002,3.98133E-002,4.00651E+000,-6.13415E-001,8.14350E-002,4.05401E+000,1.61081E-002,5.64575E-001,0,6.21035E+001,-1.03052E+001,9.96682E-001,1.84174E+001,-4.83683E+001,9.95969E-001,1.69688E-001,-7.26372E-002,-1.04453E-003,1.69692E-001,-7.26417E-002,-2.46963E-001,1.70277E-001,1.18493E+000,-3.68783E-003,0.00000E+000,9.87891E-004,9.32763E-001,0.00000E+000,-8.87705E-004,-7.79968E-002,1.00000E+000,28
719,1327,-9.90064E+000,-6.49317E-001,8.93236E-002,4.01002E+000,-5.67544E-001,1.24704E-001,4.05190E+000,1.15991E-002,5.59110E-001,0,6.20253E+001,-9.65168E+000,9.96708E-001,1.83144E+001,-4.75916E+001,9.96152E-001,1.70501E-001,-7.26333E-002,-9.30630E-004,1.70505E-001,-7.26368E-002,-2.19303E-001,1.71126E-001,1.18589E+000,-3.67237E-003,0.00000E+000,1.10175E-003,9.32765E-001,0.00000E+000,2.94899E-004,-7.79779E-002,1.00000E+000,28
719,1317,-9.90528E+000,-1.23673E+000,1.71801E-001,4.01069E+000,-5.20048E-001,1.73772E-001,4.04800E+000,1.49286E-002,5.40924E-001,0,6.18814E+001,-8.99346E+000,9.96758E-001,1.83317E+001,-4.68208E+001,9.95831E-001,1.71311E-001,-7.26310E-002,-8.20075E-004,1.71314E-001,-7.26337E-002,-1.92612E-001,1.71973E-001,1.18686E+000,-3.66437E-003,0.00000E+000,1.21540E-003,9.32766E-001,0.00000E+000,1.47538E-003,-7.79681E-002,1.00000E+000,28
1139,1297,2.28514E+001,-1.88118E+000,1.07286E-001,9.40384E+000,-1.02504E-001,8.61655E-002,9.40479E+000,9.89825E-003,3.41835E-001,0,1.41161E+002,-2.93378E+000,9.99388E-001,1.05009E+002,-3.25648E+001,9.98470E-001,1.77129E-001,-7.40459E-002,-2.45693E-003,1.77153E-001,-7.40699E-002,-5.60383E-001,1.77943E-001,1.19355E+000,-2.41723E-002,0.00000E+000,1.40108E-002,9.30695E-001,0.00000E+000,2.18358E-003,-6.83623E-002,1.00000E+000,28
1139,1307,2.28418E+001,-1.29951E+000,9.28081E-003,9.38709E+000,-1.63936E-001,2.54439E-002,9.38856E+000,1.32890E-002,3.23667E-001,0,1.41167E+002,-3.78914E+000,9.98977E-001,1.04764E+002,-3.33334E+001,9.97919E-001,1.78116E-001,-7.40421E-002,-2.37887E-003,1.78139E-001,-7.40645E-002,-5.40465E-001,1.78979E-001,1.19473E+000,-2.41592E-002,0.00000E+000,1.41721E-002,9.30697E-001,0.00000E+000,1.49066E-003,-6.83700E-002,1.00000E+000,28
1139,1337,2.28532E+001,5.22452E-001,-8.25932E-002,9.34142E+000,-2.94401E-001,-9.66791E-002,9.34656E+000,1.63932E-002,4.74236E-001,0,1.40941E+002,-5.72042E+000,9.97168E-001,1.04965E+002,-3.47797E+001,9.96627E-001,1.81092E-001,-7.40238E-002,-2.11739E-003,1.81110E-001,-7.40413E-002,-4.75495E-001,1.82111E-001,1.19829E+000,-2.40567E-002,0.00000E+000,1.46598E-002,9.30711E-001,0.00000E+000,-6.04226E-004,-6.84303E-002,1.00000E+000,28
1139,1347,2.28728E+001,1.12958E+000,-6.01335E-002,9.32989E+000,-3.45344E-001,-1.33003E-001,9.33723E+000,1.67564E-002,4.90313E-001,0,1.40891E+002,-6.47430E+000,9.96992E-001,1.05359E+002,-3.54022E+001,9.95910E-001,1.82088E-001,-7.40153E-002,-2.02104E-003,1.82104E-001,-7.40312E-002,-4.52113E-001,1.83161E-001,1.19948E+000,-2.40010E-002,0.00000E+000,1.48235E-002,9.30719E-001,0.00000E+000,-1.30734E-003,-6.84631E-002,1.00000E+000,28
1139,1327,2.28455E+001,-9.32416E-002,-8.71748E-002,9.36112E+000,-2.54001E-001,-5.77804E-002,9.36475E+000,1.59127E-002,4.27689E-001,0,1.41103E+002,-5.12774E+000,9.97728E-001,1.04784E+002,-3.43471E+001,9.96380E-001,1.80097E-001,-7.40315E-002,-2.21095E-003,1.80116E-001,-7.40507E-002,-4.98430E-001,1.81062E-001,1.19710E+000,-2.41057E-002,0.00000E+000,1.44964E-002,9.30704E-001,0.00000E+000,9.77032E-005,-6.84015E-002,1.00000E+000,28
1139,1317,2.28322E+001,-7.02398E-001,-6.02259E-002,9.36673E+000,-2.12227E-001,-2.10013E-002,9.36915E+000,1.42564E-002,3.73761E-001,0,1.41050E+002,-4.50175E+000,9.99016E-001,1.04562E+002,-3.38894E+001,9.97523E-001,1.79105E-001,-7.40376E-002,-2.29809E-003,1.79125E-001,-7.40585E-002,-5.20089E-001,1.80018E-001,1.19591E+000,-2.41398E-002,0.00000E+000,1.43338E-002,9.30700E-001,0.00000E+000,7.96145E-004,-6.83814E-002,1.00000E+000,28
709,1347,-1.06481E+001,5.39330E-001,1.42648E-002,3.87979E+000,-6.53704E-001,3.32491E-002,3.93462E+000,1.36979E-002,5.49375E-001,0,6.03201E+001,-1.08242E+001,9.97783E-001,1.69146E+001,-4.92467E+001,9.97832E-001,1.67534E-001,-7.15378E-002,-1.28243E-003,1.67541E-001,-7.15447E-002,-3.07334E-001,1.68134E-001,1.18239E+000,-2.82646E-003,0.00000E+000,-5.78486E-005,9.33716E-001,0.00000E+000,-1.87375E-003,-7.69680E-002,1.00000E+000,28
709,1357,-1.06306E+001,1.14389E+000,2.50683E-002,3.87636E+000,-6.96375E-001,-8.12471E-003,3.93842E+000,1.29364E-002,5.53573E-001,0,6.03836E+001,-1.14189E+001,9.98261E-001,1.73441E+001,-4.99668E+001,9.98395E-001,1.66581E-001,-7.15496E-002,-1.47299E-003,1.66590E-001,-7.15587E-002,-3.54394E-001,1.67141E-001,1.18126E+000,-2.86257E-003,0.00000E+000,-2.95853E-004,9.33709E-001,0.00000E+000,-3.12515E-003,-7.70083E-002,1.00000E+000,28
709,1337,-1.06531E+001,-6.50812E-002,4.33041E-002,3.88922E+000,-6.16300E-001,7.87765E-002,3.93854E+000,1.24606E-002,5.50138E-001,0,6.03336E+001,-1.03239E+001,9.97483E-001,1.67824E+001,-4.86097E+001,9.97291E-001,1.68479E-001,-7.15296E-002,-1.09750E-003,1.68484E-001,-7.15346E-002,-2.61991E-001,1.69122E-001,1.18350E+000,-2.80163E-003,0.00000E+000,1.79043E-004,9.33722E-001,0.00000E+000,-6.28213E-004,-7.69403E-002,1.00000E+000,28
709,1317,-1.06621E+001,-1.23769E+000,1.89170E-001,3.89411E+000,-5.18113E-001,1.76438E-001,3.93239E+000,1.57239E-002,5.59605E-001,0,6.01062E+001,-8.96032E+000,9.97948E-001,1.67721E+001,-4.69660E+001,9.97516E-001,1.70352E-001,-7.15209E-002,-7.40544E-004,1.70355E-001,-7.15232E-002,-1.75420E-001,1.71083E-001,1.18572E+000,-2.77759E-003,0.00000E+000,6.50102E-004,9.33727E-001,0.00000E+000,1.84855E-003,-7.69135E-002,1.00000E+000,28
709,1327,-1.06556E+001,-6.52107E-001,1.06772E-001,3.89490E+000,-5.67048E-001,1.24708E-001,3.93793E+000,1.71839E-002,5.90633E-001,0,6.02794E+001,-9.65080E+000,9.97927E-001,1.67830E+001,-4.77606E+001,9.97440E-001,1.69418E-001,-7.15246E-002,-9.18017E-004,1.69421E-001,-7.15281E-002,-2.18299E-001,1.70104E-001,1.18461E+000,-2.78755E-003,0.00000E+000,4.14734E-004,9.33725E-001,0.00000E+000,6.11019E-004,-7.69246E-002,1.00000E+000,28
1149,1297,2.36373E+001,-1.87288E+000,9.34475E-002,9.53108E+000,-9.89441E-002,8.47858E-002,9.53197E+000,2.33069E-002,3.85299E-001,0,1.42966E+002,-2.90110E+000,9.98307E-001,1.07251E+002,-3.22906E+001,9.95464E-001,1.77635E-001,-7.41805E-002,-2.61831E-003,1.77662E-001,-7.42077E-002,-5.95659E-001,1.78463E-001,1.19418E+000,-2.30654E-002,0.00000E+000,1.29208E-002,9.30634E-001,0.00000E+000,8.47364E-004,-6.90803E-002,1.00000E+000,28
1149,1307,2.36416E+001,-1.27390E+000,1.24806E-002,9.52700E+000,-1.43066E-001,3.60911E-002,9.52814E+000,1.48846E-002,3.70729E-001,0,1.43105E+002,-3.53485E+000,9.98733E-001,1.07251E+002,-3.28220E+001,9.97173E-001,1.78736E-001,-7.41772E-002,-2.54879E-003,1.78762E-001,-7.42029E-002,-5.77333E-001,1.79619E-001,1.19549E+000,-2.30481E-002,0.00000E+000,1.30578E-002,9.30635E-001,0.00000E+000,2.22681E-004,-6.90885E-002,1.00000E+000,28
1149,1317,2.36359E+001,-6.78346E-001,-5.15140E-002,9.50824E+000,-1.94643E-001,-1.34843E-002,9.51024E+000,1.36796E-002,4.02894E-001,0,1.43025E+002,-4.27925E+000,9.98592E-001,1.07118E+002,-3.34210E+001,9.96857E-001,1.79840E-001,-7.41732E-002,-2.47534E-003,1.79864E-001,-7.41974E-002,-5.58273E-001,1.80779E-001,1.19681E+000,-2.30219E-002,0.00000E+000,1.31954E-002,9.30638E-001,0.00000E+000,-4.04938E-004,-6.91009E-002,1.00000E+000,28
1149,1327,2.36347E+001,-7.17705E-002,-9.43347E-002,9.48970E+000,-2.36107E-001,-5.96555E-002,9.49282E+000,1.43551E-002,3.68599E-001,0,1.42925E+002,-4.86908E+000,9.98190E-001,1.07089E+002,-3.39284E+001,9.96486E-001,1.80942E-001,-7.41685E-002,-2.39838E-003,1.80965E-001,-7.41911E-002,-5.38593E-001,1.81940E-001,1.19813E+000,-2.29869E-002,0.00000E+000,1.33330E-002,9.30642E-001,0.00000E+000,-1.03247E-003,-6.91176E-002,1.00000E+000,28
1149,1337,2.36468E+001,5.31848E-001,-9.52717E-002,9.47590E+000,-2.89927E-001,-9.73684E-002,9.48083E+000,2.13419E-002,4.68628E-001,0,1.42855E+002,-5.66590E+000,9.98013E-001,1.07328E+002,-3.45072E+001,9.97393E-001,1.82055E-001,-7.41624E-002,-2.31382E-003,1.82076E-001,-7.41833E-002,-5.17364E-001,1.83113E-001,1.19947E+000,-2.29350E-002,0.00000E+000,1.34722E-002,9.30647E-001,0.00000E+000,-1.66730E-003,-6.91422E-002,1.00000E+000,28
1149,1347,2.36741E+001,1.14242E+000,-5.69347E-002,9.46797E+000,-3.40564E-001,-1.32918E-001,9.47503E+000,2.01809E-002,4.87933E-001,0,1.42851E+002,-6.40900E+000,9.98199E-001,1.07862E+002,-3.51073E+001,9.97073E-001,1.83169E-001,-7.41548E-002,-2.22167E-003,1.83188E-001,-7.41740E-002,-4.94629E-001,1.84289E-001,1.20081E+000,-2.28647E-002,0.00000E+000,1.36118E-002,9.30655E-001,0.00000E+000,-2.30376E-003,-6.91757E-002,1.00000E+000,28
699,1347,-1.13988E+001,5.33060E-001,2.13076E-002,3.77084E+000,-6.56209E-001,3.44077E-002,3.82766E+000,1.38003E-002,5.74353E-001,0,5.86645E+001,-1.08450E+001,9.98466E-001,1.54265E+001,-4.94538E+001,9.98426E-001,1.66057E-001,-7.05679E-002,-1.11174E-003,1.66063E-001,-7.05731E-002,-2.69186E-001,1.66685E-001,1.18064E+000,-1.37929E-003,0.00000E+000,-8.91837E-004,9.34537E-001,0.00000E+000,-1.61901E-003,-7.57793E-002,1.00000E+000,28
699,1357,-1.13844E+001,1.13145E+000,3.14581E-002,3.76478E+000,-7.04568E-001,-5.88282E-003,3.83015E+000,1.37180E-002,5.58004E-001,0,5.86855E+001,-1.15202E+001,9.98307E-001,1.58070E+001,-5.02800E+001,9.98196E-001,1.65050E-001,-7.05768E-002,-1.26678E-003,1.65057E-001,-7.05836E-002,-3.08021E-001,1.65633E-001,1.17946E+000,-1.41646E-003,0.00000E+000,-1.07484E-003,9.34531E-001,0.00000E+000,-2.72650E-003,-7.58141E-002,1.00000E+000,28
699,1337,-1.14148E+001,-7.48881E-002,4.64404E-002,3.76938E+000,-6.21183E-001,7.70511E-002,3.82100E+000,1.03905E-002,5.42532E-001,0,5.85193E+001,-1.03768E+001,9.98334E-001,1.51144E+001,-4.88786E+001,9.98427E-001,1.67060E-001,-7.05616E-002,-9.61671E-004,1.67064E-001,-7.05655E-002,-2.31875E-001,1.67733E-001,1.18183E+000,-1.35293E-003,0.00000E+000,-7.09279E-004,9.34541E-001,0.00000E+000,-5.14223E-004,-7.57547E-002,1.00000E+000,28
699,1317,-1.14261E+001,-1.23865E+000,2.04564E-001,3.76960E+000,-5.17240E-001,1.74922E-001,3.80894E+000,1.54569E-002,6.10864E-001,0,5.82180E+001,-8.93883E+000,9.98546E-001,1.51037E+001,-4.70917E+001,9.97854E-001,1.69039E-001,-7.05564E-002,-6.77484E-004,1.69041E-001,-7.05583E-002,-1.62009E-001,1.69808E-001,1.18417E+000,-1.33186E-003,0.00000E+000,-3.47540E-004,9.34544E-001,0.00000E+000,1.67492E-003,-7.57350E-002,1.00000E+000,28
699,1327,-1.14207E+001,-6.54142E-001,1.08871E-001,3.77092E+000,-5.67249E-001,1.19021E-001,3.81520E+000,1.20239E-002,6.86311E-001,0,5.84119E+001,-9.63566E+000,9.98422E-001,1.50603E+001,-4.78546E+001,9.97305E-001,1.68049E-001,-7.05583E-002,-8.18548E-004,1.68051E-001,-7.05611E-002,-1.96552E-001,1.68769E-001,1.18299E+000,-1.33930E-003,0.00000E+000,-5.28783E-004,9.34543E-001,0.00000E+000,5.78089E-004,-7.57420E-002,1.00000E+000,28
1159,1307,2.44225E+001,-1.26652E+000,-7.72033E-003,9.64868E+000,-1.39777E-001,2.82183E-002,9.64974E+000,1.78435E-002,3.80725E-001,0,1.44851E+002,-3.48961E+000,9.96064E-001,1.09410E+002,-3.25640E+001,9.94512E-001,1.79430E-001,-7.45474E-002,-2.60205E-003,1.79457E-001,-7.45741E-002,-5.86924E-001,1.80308E-001,1.19634E+000,-2.20208E-002,0.00000E+000,1.22285E-002,9.30336E-001,0.00000E+000,-1.08234E-003,-6.95998E-002,1.00000E+000,28
1159,1317,2.44265E+001,-6.60928E-001,-6.75866E-002,9.63958E+000,-1.82155E-001,-1.73254E-002,9.64131E+000,1.81541E-002,4.37884E-001,0,1.44896E+002,-4.10653E+000,9.96778E-001,1.09436E+002,-3.30005E+001,9.96567E-001,1.80619E-001,-7.45489E-002,-2.60111E-003,1.80645E-001,-7.45754E-002,-5.83977E-001,1.81558E-001,1.19776E+000,-2.19922E-002,0.00000E+000,1.22300E-002,9.30337E-001,0.00000E+000,-1.74194E-003,-6.96130E-002,1.00000E+000,28
1159,1327,2.44371E+001,-5.89726E-002,-9.11254E-002,9.63031E+000,-2.30954E-001,-5.35694E-002,9.63322E+000,1.21381E-002,4.05027E-001,0,1.44895E+002,-4.81545E+000,9.98536E-001,1.09619E+002,-3.36180E+001,9.97727E-001,1.81808E-001,-7.45508E-002,-2.59428E-003,1.81834E-001,-7.45770E-002,-5.79740E-001,1.82810E-001,1.19919E+000,-2.19491E-002,0.00000E+000,1.22314E-002,9.30337E-001,0.00000E+000,-2.40286E-003,-6.96330E-002,1.00000E+000,28
1159,1297,2.44219E+001,-1.86064E+000,6.94761E-002,9.65739E+000,-9.08590E-002,7.61622E-002,9.65812E+000,1.72040E-002,4.35821E-001,0,1.44782E+002,-2.79017E+000,9.97141E-001,1.09463E+002,-3.19305E+001,9.93248E-001,1.78247E-001,-7.45462E-002,-2.59972E-003,1.78274E-001,-7.45729E-002,-5.89145E-001,1.79065E-001,1.19492E+000,-2.20411E-002,0.00000E+000,1.22271E-002,9.30336E-001,0.00000E+000,-4.26930E-004,-6.95903E-002,1.00000E+000,28
1159,1337,2.44603E+001,5.43838E-001,-8.06052E-002,9.62391E+000,-2.86072E-001,-9.37169E-002,9.62862E+000,1.67856E-002,4.30529E-001,0,1.44943E+002,-5.61904E+000,9.99226E-001,1.10045E+002,-3.42690E+001,9.98960E-001,1.83004E-001,-7.45533E-002,-2.57916E-003,1.83030E-001,-7.45791E-002,-5.73680E-001,1.84072E-001,1.20063E+000,-2.18854E-002,0.00000E+000,1.22329E-002,9.30337E-001,0.00000E+000,-3.06897E-003,-6.96625E-002,1.00000E+000,28
1159,1347,2.44769E+001,1.15658E+000,-5.78952E-002,9.60792E+000,-3.31692E-001,-1.34084E-001,9.61458E+000,1.76247E-002,4.30037E-001,0,1.44840E+002,-6.28738E+000,9.98504E-001,1.10389E+002,-3.48105E+001,9.97873E-001,1.84198E-001,-7.45559E-002,-2.56145E-003,1.84223E-001,-7.45813E-002,-5.67107E-001,1.85332E-001,1.20207E+000,-2.18151E-002,0.00000E+000,1.22344E-002,9.30337E-001,0.00000E+000,-3.73482E-003,-6.96951E-002,1.00000E+000,28
689,1347,-1.21554E+001,5.22412E-001,2.46236E-002,3.65517E+000,-6.63206E-001,2.93395E-002,3.71497E+000,1.21473E-002,6.04090E-001,0,5.69214E+001,-1.09276E+001,9.98928E-001,1.38429E+001,-4.97188E+001,9.98166E-001,1.64474E-001,-6.97579E-002,-1.08374E-003,1.64479E-001,-6.97629E-002,-2.65088E-001,1.65108E-001,1.17878E+000,-7.62456E-005,0.00000E+000,-1.86269E-003,9.35228E-001,0.00000E+000,-1.68243E-003,-7.48579E-002,1.00000E+000,28
689,1357,-1.21441E+001,1.11934E+000,2.50924E-002,3.64832E+000,-7.10535E-001,-8.87304E-003,3.71688E+000,1.30521E-002,5.66662E-001,0,5.69246E+001,-1.15888E+001,9.98640E-001,1.41512E+001,-5.05591E+001,9.98503E-001,1.63268E-001,-6.97675E-002,-1.27615E-003,1.63275E-001,-6.97745E-002,-3.13751E-001,1.63849E-001,1.17736E+000,-1.15757E-004,0.00000E+000,-2.12395E-003,9.35221E-001,0.00000E+000,-2.67829E-003,-7.48857E-002,1.00000E+000,28
689,1337,-1.21660E+001,-6.99855E-002,4.36608E-002,3.65994E+000,-6.11211E-001,7.11931E-002,3.71131E+000,1.29422E-002,5.54409E-001,0,5.68718E+001,-1.01982E+001,9.98814E-001,1.35996E+001,-4.88974E+001,9.98957E-001,1.65679E-001,-6.97498E-002,-8.93644E-004,1.65682E-001,-6.97532E-002,-2.17480E-001,1.66370E-001,1.18020E+000,-4.28111E-005,0.00000E+000,-1.60093E-003,9.35234E-001,0.00000E+000,-6.84673E-004,-7.48344E-002,1.00000E+000,28
1169,1327,2.52253E+001,-4.83971E-002,-1.02378E-001,9.75686E+000,-2.26012E-001,-5.98053E-002,9.75966E+000,1.17213E-002,4.39858E-001,0,1.46703E+002,-4.76201E+000,9.98950E-001,1.11910E+002,-3.33130E+001,9.98396E-001,1.82427E-001,-7.48409E-002,-2.54458E-003,1.82452E-001,-7.48661E-002,-5.66627E-001,1.83428E-001,1.19996E+000,-2.08276E-002,0.00000E+000,1.15334E-002,9.30086E-001,0.00000E+000,-3.76473E-003,-6.97912E-002,1.00000E+000,28
1169,1337,2.52516E+001,5.63251E-001,-8.14808E-002,9.75154E+000,-2.72615E-001,-9.70061E-002,9.75583E+000,1.49445E-002,4.29959E-001,0,1.46749E+002,-5.43991E+000,9.99155E-001,1.12399E+002,-3.38655E+001,9.98671E-001,1.83610E-001,-7.48479E-002,-2.56361E-003,1.83636E-001,-7.48733E-002,-5.68234E-001,1.84675E-001,1.20138E+000,-2.07601E-002,0.00000E+000,1.14647E-002,9.30083E-001,0.00000E+000,-4.36166E-003,-6.98196E-002,1.00000E+000,28
1169,1347,2.52787E+001,1.17181E+000,-4.99466E-002,9.74380E+000,-3.24071E-001,-1.36037E-001,9.75013E+000,1.46484E-002,4.10772E-001,0,1.46764E+002,-6.18848E+000,9.98273E-001,1.12915E+002,-3.44981E+001,9.98152E-001,1.84793E-001,-7.48554E-002,-2.58007E-003,1.84819E-001,-7.48811E-002,-5.69260E-001,1.85924E-001,1.20281E+000,-2.06858E-002,0.00000E+000,1.13960E-002,9.30080E-001,0.00000E+000,-4.95960E-003,-6.98507E-002,1.00000E+000,28
689,1327,-1.21877E+001,-6.62650E-001,9.72685E-002,3.64790E+000,-5.67800E-001,1.16602E-001,3.69367E+000,1.44280E-002,6.29765E-001,0,5.65494E+001,-9.61405E+000,9.97803E-001,1.32780E+001,-4.80953E+001,9.97536E-001,1.66870E-001,-6.97448E-002,-7.10504E-004,1.66872E-001,-6.97469E-002,-1.72045E-001,1.67619E-001,1.18160E+000,-2.17451E-005,0.00000E+000,-1.34168E-003,9.35238E-001,0.00000E+000,3.03490E-004,-7.48196E-002,1.00000E+000,28
1169,1317,2.52183E+001,-6.52702E-001,-7.26867E-002,9.76949E+000,-1.77174E-001,-1.92062E-002,9.77111E+000,2.19778E-002,3.62596E-001,0,1.46735E+002,-4.04451E+000,9.97888E-001,1.11794E+002,-3.28018E+001,9.97807E-001,1.81247E-001,-7.48359E-002,-2.51543E-003,1.81271E-001,-7.48606E-002,-5.62729E-001,1.82184E-001,1.19854E+000,-2.08698E-002,0.00000E+000,1.16017E-002,9.30089E-001,0.00000E+000,-3.17019E-003,-6.97736E-002,1.00000E+000,28
1169,1307,2.52116E+001,-1.25568E+000,-1.92985E-002,9.77739E+000,-1.34745E-001,2.57210E-002,9.77835E+000,1.81502E-002,4.10771E-001,0,1.46675E+002,-3.42120E+000,9.97789E-001,1.11717E+002,-3.22602E+001,9.96816E-001,1.80076E-001,-7.48318E-002,-2.48240E-003,1.80101E-001,-7.48559E-002,-5.57898E-001,1.80953E-001,1.19713E+000,-2.09013E-002,0.00000E+000,1.16694E-002,9.30090E-001,0.00000E+000,-2.58177E-003,-6.97604E-002,1.00000E+000,28
1169,1297,2.52145E+001,-1.84994E+000,6.57958E-002,9.78870E+000,-8.49033E-002,7.78144E-002,9.78938E+000,1.45011E-002,4.68384E-001,0,1.46625E+002,-2.73816E+000,9.98211E-001,1.11835E+002,-3.16458E+001,9.95423E-001,1.78904E-001,-7.48286E-002,-2.44402E-003,1.78928E-001,-7.48522E-002,-5.51820E-001,1.79722E-001,1.19573E+000,-2.09197E-002,0.00000E+000,1.17370E-002,9.30091E-001,0.00000E+000,-1.99336E-003,-6.97527E-002,1.00000E+000,28
689,1317,-1.21934E+001,-1.24707E+000,1.91093E-001,3.64602E+000,-5.19508E-001,1.69936E-001,3.68676E+000,1.63064E-002,5.93033E-001,0,5.63559E+001,-8.93525E+000,9.97838E-001,1.33114E+001,-4.73062E+001,9.96023E-001,1.68057E-001,-6.97429E-002,-5.33011E-004,1.68058E-001,-6.97441E-002,-1.28424E-001,1.68865E-001,1.18300E+000,-1.32964E-005,0.00000E+000,-1.08290E-003,9.35240E-001,0.00000E+000,1.28988E-003,-7.48137E-002,1.00000E+000,28
679,1347,-1.29214E+001,5.15763E-001,1.79227E-002,3.53160E+000,-6.61423E-001,2.41658E-002,3.59309E+000,1.94418E-002,6.06397E-001,0,5.50518E+001,-1.09102E+001,9.97988E-001,1.20950E+001,-4.99156E+001,9.97567E-001,1.62828E-001,-6.90093E-002,-1.11479E-003,1.62833E-001,-6.90147E-002,-2.75498E-001,1.63462E-001,1.17684E+000,1.31821E-003,0.00000E+000,-3.01399E-003,9.35863E-001,0.00000E+000,-1.86232E-003,-7.39553E-002,1.00000E+000,28
679,1357,-1.28946E+001,1.11409E+000,2.03138E-002,3.54184E+000,-7.08457E-001,-3.92568E-003,3.61201E+000,9.83697E-003,5.94041E-001,0,5.52916E+001,-1.15650E+001,9.98664E-001,1.26475E+001,-5.07255E+001,9.98574E-001,1.61325E-001,-6.90237E-002,-1.44079E-003,1.61334E-001,-6.90327E-002,-3.58355E-001,1.61893E-001,1.17507E+000,1.27342E-003,0.00000E+000,-3.52599E-003,9.35850E-001,0.00000E+000,-2.84533E-003,-7.39802E-002,1.00000E+000,28
1179,1297,2.59970E+001,-1.84459E+000,3.77506E-002,9.91417E+000,-8.19492E-002,7.32249E-002,9.91478E+000,2.35398E-002,5.15385E-001,0,1.48410E+002,-2.72280E+000,9.98899E-001,1.14019E+002,-3.13865E+001,9.96558E-001,1.79366E-001,-7.49774E-002,-2.42330E-003,1.79389E-001,-7.50004E-002,-5.45830E-001,1.80190E-001,1.19630E+000,-2.00722E-002,0.00000E+000,1.12173E-002,9.29991E-001,0.00000E+000,-3.62533E-003,-7.02321E-002,1.00000E+000,28
1179,1307,2.60036E+001,-1.24847E+000,-3.30102E-002,9.90971E+000,-1.29239E-001,2.55781E-002,9.91059E+000,1.13290E-002,3.45517E-001,0,1.48541E+002,-3.35744E+000,9.99093E-001,1.14070E+002,-3.20556E+001,9.97729E-001,1.80450E-001,-7.49773E-002,-2.40596E-003,1.80473E-001,-7.50000E-002,-5.39626E-001,1.81328E-001,1.19760E+000,-2.00502E-002,0.00000E+000,1.12438E-002,9.29992E-001,0.00000E+000,-4.05896E-003,-7.02395E-002,1.00000E+000,28
1179,1317,2.60045E+001,-6.45188E-001,-1.13951E-001,9.90069E+000,-1.70436E-001,-2.82171E-002,9.90220E+000,2.50888E-002,3.17527E-001,0,1.48628E+002,-3.92992E+000,9.99089E-001,1.14018E+002,-3.25211E+001,9.98409E-001,1.81535E-001,-7.49773E-002,-2.38945E-003,1.81557E-001,-7.49995E-002,-5.33658E-001,1.82469E-001,1.19890E+000,-2.00301E-002,0.00000E+000,1.12703E-002,9.29992E-001,0.00000E+000,-4.49345E-003,-7.02462E-002,1.00000E+000,28
1179,1337,2.60480E+001,5.71004E-001,-9.39735E-002,9.88431E+000,-2.70179E-001,-1.09523E-001,9.88861E+000,1.27085E-002,4.21029E-001,0,1.48672E+002,-5.41092E+000,9.98812E-001,1.14818E+002,-3.36208E+001,9.97703E-001,1.83731E-001,-7.49771E-002,-2.32417E-003,1.83752E-001,-7.49980E-002,-5.14675E-001,1.84782E-001,1.20154E+000,-1.99114E-002,0.00000E+000,1.13242E-002,9.29994E-001,0.00000E+000,-5.37518E-003,-7.02858E-002,1.00000E+000,28
1179,1347,2.60874E+001,1.18661E+000,-5.13032E-002,9.88623E+000,-3.17444E-001,-1.46762E-001,9.89241E+000,1.25438E-002,4.14886E-001,0,1.48819E+002,-6.08853E+000,9.98852E-001,1.15540E+002,-3.41591E+001,9.98491E-001,1.84832E-001,-7.49771E-002,-2.28558E-003,1.84853E-001,-7.49972E-002,-5.03987E-001,1.85945E-001,1.20287E+000,-1.98373E-002,0.00000E+000,1.13512E-002,9.29996E-001,0.00000E+000,-5.81833E-003,-7.03105E-002,1.00000E+000,28
679,1327,-1.29464E+001,-6.69236E-001,1.04925E-001,3.53065E+000,-5.68635E-001,1.22282E-001,3.57824E+000,1.70834E-002,5.90276E-001,0,5.47487E+001,-9.61495E+000,9.97292E-001,1.16785E+001,-4.83382E+001,9.96602E-001,1.65800E-001,-6.89886E-002,-4.77961E-004,1.65801E-001,-6.89896E-002,-1.16637E-001,1.66577E-001,1.18034E+000,1.38340E-003,0.00000E+000,-1.99749E-003,9.35882E-001,0.00000E+000,8.93234E-005,-7.39189E-002,1.00000E+000,28
679,1337,-1.29326E+001,-7.66967E-002,4.44407E-002,3.53581E+000,-6.12161E-001,7.48575E-002,3.58919E+000,1.92672E-002,5.73745E-001,0,5.49699E+001,-1.02110E+001,9.97965E-001,1.18614E+001,-4.91011E+001,9.97895E-001,1.64319E-001,-6.89959E-002,-7.91796E-004,1.64322E-001,-6.89985E-002,-1.94440E-001,1.65023E-001,1.17859E+000,1.35983E-003,0.00000E+000,-2.50454E-003,9.35875E-001,0.00000E+000,-8.84181E-004,-7.39321E-002,1.00000E+000,28
1179,1327,2.60184E+001,-4.45239E-002,-1.12353E-001,9.88876E+000,-2.24838E-001,-6.12922E-002,9.89151E+000,1.70822E-002,4.11726E-001,0,1.48570E+002,-4.78383E+000,9.98943E-001,1.14283E+002,-3.31461E+001,9.97124E-001,1.82630E-001,-7.49772E-002,-2.36010E-003,1.82652E-001,-7.49988E-002,-5.24863E-001,1.83622E-001,1.20022E+000,-1.99788E-002,0.00000E+000,1.12972E-002,9.29993E-001,0.00000E+000,-4.93291E-003,-7.02633E-002,1.00000E+000,28
679,1317,-1.29525E+001,-1.25292E+000,2.01230E-001,3.52846E+000,-5.19895E-001,1.78757E-001,3.57104E+000,1.38991E-002,6.28151E-001,0,5.45425E+001,-8.97149E+000,9.98052E-001,1.17134E+001,-4.75038E+001,9.96807E-001,1.67274E-001,-6.89857E-002,-1.70479E-004,1.67274E-001,-6.89859E-002,-4.13431E-002,1.68127E-001,1.18208E+000,1.39405E-003,0.00000E+000,-1.49185E-003,9.35885E-001,0.00000E+000,1.06015E-003,-7.39130E-002,1.00000E+000,28
669,1327,-1.36994E+001,-6.83187E-001,1.10989E-001,3.41945E+000,-5.75777E-001,1.30338E-001,3.47003E+000,1.22043E-002,5.81247E-001,0,5.30351E+001,-9.74397E+000,9.99047E-001,1.01661E+001,-4.86752E+001,9.98700E-001,1.64594E-001,-6.83630E-002,-1.80297E-004,1.64594E-001,-6.83631E-002,-4.43441E-002,1.65378E-001,1.17891E+000,3.56359E-003,0.00000E+000,-3.14163E-003,9.36393E-001,0.00000E+000,-2.02584E-004,-7.28719E-002,1.00000E+000,28
669,1337,-1.36892E+001,-8.26440E-002,5.15761E-002,3.42060E+000,-6.13263E-001,8.16632E-002,3.47610E+000,1.17230E-002,5.95802E-001,0,5.31947E+001,-1.02290E+001,9.98508E-001,1.02978E+001,-4.93043E+001,9.98446E-001,1.62764E-001,-6.83712E-002,-5.71988E-004,1.62765E-001,-6.83726E-002,-1.41788E-001,1.63457E-001,1.17675E+000,3.53339E-003,0.00000E+000,-3.79866E-003,9.36383E-001,0.00000E+000,-1.12007E-003,-7.28847E-002,1.00000E+000,28
669,1347,-1.36743E+001,5.09239E-001,1.67401E-002,3.42360E+000,-6.60318E-001,4.10581E-002,3.48694E+000,1.03856E-002,5.73356E-001,0,5.33605E+001,-1.08874E+001,9.98406E-001,1.05677E+001,-5.01385E+001,9.98168E-001,1.60930E-001,-6.83826E-002,-9.67724E-004,1.60934E-001,-6.83867E-002,-2.41788E-001,1.61538E-001,1.17460E+000,3.49359E-003,0.00000E+000,-4.45540E-003,9.36371E-001,0.00000E+000,-2.03716E-003,-7.29017E-002,1.00000E+000,28
669,1357,-1.36493E+001,1.11566E+000,2.29837E-002,3.42913E+000,-6.99306E-001,-4.22468E-004,3.49970E+000,1.10582E-002,5.70569E-001,0,5.35605E+001,-1.14255E+001,9.98077E-001,1.11058E+001,-5.08298E+001,9.98347E-001,1.59082E-001,-6.84027E-002,-1.37620E-003,1.59090E-001,-6.84110E-002,-3.46601E-001,1.59609E-001,1.17244E+000,3.42897E-003,0.00000E+000,-5.11569E-003,9.36351E-001,0.00000E+000,-2.95920E-003,-7.29292E-002,1.00000E+000,28
1189,1337,2.68502E+001,5.82031E-001,-1.08888E-001,1.00220E+001,-2.66720E-001,-1.26147E-001,1.00263E+001,1.59270E-002,4.24623E-001,0,1.50680E+002,-5.33383E+000,9.99068E-001,1.17331E+002,-3.33133E+001,9.98240E-001,1.83387E-001,-7.52666E-002,-2.09562E-003,1.83404E-001,-7.52836E-002,-4.64171E-001,1.84381E-001,1.20115E+000,-1.91616E-002,0.00000E+000,1.12298E-002,9.29733E-001,0.00000E+000,-6.17475E-003,-7.03962E-002,1.00000E+000,28
669,1317,-1.37015E+001,-1.26094E+000,2.18065E-001,3.41995E+000,-5.21566E-001,1.90763E-001,3.46475E+000,1.46527E-002,6.06266E-001,0,5.28585E+001,-9.02880E+000,9.98920E-001,1.02930E+001,-4.77762E+001,9.98793E-001,1.66409E-001,-6.83621E-002,2.00253E-004,1.66409E-001,-6.83623E-002,4.88716E-002,1.67289E-001,1.18105E+000,3.57251E-003,0.00000E+000,-2.48819E-003,9.36395E-001,0.00000E+000,7.09894E-004,-7.28681E-002,1.00000E+000,28
1189,1297,2.68000E+001,-1.83534E+000,5.01115E-002,1.00494E+001,-7.88627E-002,6.90226E-002,1.00500E+001,1.66758E-002,4.63089E-001,0,1.50323E+002,-2.68714E+000,9.98661E-001,1.16585E+002,-3.12001E+001,9.96169E-001,1.79736E-001,-7.52603E-002,-2.10261E-003,1.79754E-001,-7.52777E-002,-4.72398E-001,1.80542E-001,1.19676E+000,-1.92908E-002,0.00000E+000,1.13225E-002,9.29736E-001,0.00000E+000,-5.41860E-003,-7.03739E-002,1.00000E+000,28
1189,1307,2.67924E+001,-1.24371E+000,-4.96054E-002,1.00353E+001,-1.31311E-001,1.04217E-002,1.00361E+001,1.33074E-002,4.06781E-001,0,1.50364E+002,-3.38730E+000,9.97928E-001,1.16374E+002,-3.18202E+001,9.97480E-001,1.80644E-001,-7.52612E-002,-2.10946E-003,1.80662E-001,-7.52786E-002,-4.72254E-001,1.81496E-001,1.19785E+000,-1.92797E-002,0.00000E+000,1.12995E-002,9.29736E-001,0.00000E+000,-5.60630E-003,-7.03758E-002,1.00000E+000,28
1189,1317,2.68119E+001,-6.25230E-001,-8.84383E-002,1.00352E+001,-1.65568E-001,-3.77754E-002,1.00367E+001,1.54085E-002,4.31546E-001,0,1.50547E+002,-3.85038E+000,9.98962E-001,1.16671E+002,-3.21109E+001,9.98887E-001,1.81559E-001,-7.52628E-002,-2.10762E-003,1.81577E-001,-7.52801E-002,-4.70158E-001,1.82458E-001,1.19895E+000,-1.92472E-002,0.00000E+000,1.12763E-002,9.29735E-001,0.00000E+000,-5.79575E-003,-7.03814E-002,1.00000E+000,28
1189,1327,2.68303E+001,-2.66243E-002,-1.06942E-001,1.00300E+001,-2.19880E-001,-8.17326E-002,1.00327E+001,1.80322E-002,4.42544E-001,0,1.50638E+002,-4.65661E+000,9.99151E-001,1.16977E+002,-3.27635E+001,9.98851E-001,1.82473E-001,-7.52646E-002,-2.10306E-003,1.82490E-001,-7.52817E-002,-4.67476E-001,1.83418E-001,1.20005E+000,-1.92080E-002,0.00000E+000,1.12531E-002,9.29734E-001,0.00000E+000,-5.98500E-003,-7.03882E-002,1.00000E+000,28
659,1327,-1.44494E+001,-6.70118E-001,1.15318E-001,3.30958E+000,-5.58170E-001,1.29930E-001,3.35883E+000,1.84681E-002,5.86461E-001,0,5.13566E+001,-9.45431E+000,9.98899E-001,8.70578E+000,-4.85856E+001,9.97400E-001,1.63120E-001,-6.79147E-002,-1.08221E-004,1.63120E-001,-6.79148E-002,-2.68383E-002,1.63879E-001,1.17716E+000,5.83847E-003,0.00000E+000,-4.79220E-003,9.36759E-001,0.00000E+000,-5.03246E-004,-7.21949E-002,1.00000E+000,28
659,1337,-1.44189E+001,-9.60169E-002,8.06848E-002,3.33118E+000,-6.22033E-001,1.05830E-001,3.39041E+000,2.70235E-002,6.70676E-001,0,5.17707E+001,-1.04429E+001,9.98620E-001,9.21124E+000,-4.96391E+001,9.98111E-001,1.61129E-001,-6.79216E-002,-5.09544E-004,1.61130E-001,-6.79227E-002,-1.27459E-001,1.61790E-001,1.17482E+000,5.80588E-003,0.00000E+000,-5.47347E-003,9.36750E-001,0.00000E+000,-1.37308E-003,-7.22070E-002,1.00000E+000,28
659,1347,-1.44103E+001,5.04922E-001,3.61537E-002,3.32777E+000,-6.59735E-001,5.45831E-002,3.39298E+000,1.52672E-002,6.08486E-001,0,5.18636E+001,-1.09139E+001,9.99027E-001,9.35997E+000,-5.03361E+001,9.99016E-001,1.59135E-001,-6.79319E-002,-9.15232E-004,1.59139E-001,-6.79356E-002,-2.30935E-001,1.59705E-001,1.17249E+000,5.76253E-003,0.00000E+000,-6.15411E-003,9.36737E-001,0.00000E+000,-2.24211E-003,-7.22231E-002,1.00000E+000,28
659,1357,-1.43957E+001,1.11576E+000,3.36158E-002,3.32367E+000,-6.93495E-001,7.52091E-003,3.39526E+000,1.08849E-002,5.83743E-001,0,5.19280E+001,-1.13469E+001,9.98520E-001,9.71813E+000,-5.09550E+001,9.98837E-001,1.57126E-001,-6.79501E-002,-1.33326E-003,1.57134E-001,-6.79580E-002,-3.39382E-001,1.57611E-001,1.17014E+000,5.69508E-003,0.00000E+000,-6.83813E-003,9.36718E-001,0.00000E+000,-3.11546E-003,-7.22482E-002,1.00000E+000,28
1199,1307,2.75902E+001,-1.23151E+000,-4.37196E-002,1.01662E+001,-1.27178E-001,5.82918E-003,1.01670E+001,1.70797E-002,4.21918E-001,0,1.52213E+002,-3.33018E+000,9.98123E-001,1.18853E+002,-3.15401E+001,9.97277E-001,1.80666E-001,-7.52150E-002,-1.69695E-003,1.80677E-001,-7.52263E-002,-3.79952E-001,1.81518E-001,1.19790E+000,-1.82414E-002,0.00000E+000,1.13351E-002,9.29777E-001,0.00000E+000,-6.58424E-003,-7.03826E-002,1.00000E+000,28
1199,1317,2.75996E+001,-6.28178E-001,-9.74672E-002,1.01584E+001,-1.73682E-001,-4.79748E-002,1.01600E+001,1.51594E-002,4.15955E-001,0,1.52313E+002,-3.98074E+000,9.97381E-001,1.18970E+002,-3.20487E+001,9.96025E-001,1.81462E-001,-7.52175E-002,-1.71151E-003,1.81474E-001,-7.52289E-002,-3.82019E-001,1.82355E-001,1.19885E+000,-1.82163E-002,0.00000E+000,1.12732E-002,9.29776E-001,0.00000E+000,-6.52543E-003,-7.03810E-002,1.00000E+000,28
1199,1327,2.76187E+001,-1.93672E-002,-1.30118E-001,1.01575E+001,-2.15798E-001,-9.14527E-002,1.01602E+001,1.57150E-002,4.02217E-001,0,1.52468E+002,-4.59198E+000,9.98168E-001,1.19269E+002,-3.25221E+001,9.97198E-001,1.82258E-001,-7.52202E-002,-1.72447E-003,1.82270E-001,-7.52317E-002,-3.83718E-001,1.83193E-001,1.19981E+000,-1.81873E-002,0.00000E+000,1.12112E-002,9.29774E-001,0.00000E+000,-6.46658E-003,-7.03792E-002,1.00000E+000,28
659,1317,-1.44630E+001,-1.26297E+000,1.93720E-001,3.30104E+000,-5.18128E-001,1.75685E-001,3.34607E+000,1.45810E-002,5.93415E-001,0,5.10881E+001,-8.90541E+000,9.97999E-001,8.57609E+000,-4.78666E+001,9.94945E-001,1.65095E-001,-6.79123E-002,2.84894E-004,1.65096E-001,-6.79127E-002,7.00543E-002,1.65958E-001,1.17949E+000,5.85686E-003,0.00000E+000,-4.11460E-003,9.36765E-001,0.00000E+000,3.61904E-004,-7.21881E-002,1.00000E+000,28
1199,1337,2.76523E+001,5.94517E-001,-1.05266E-001,1.01563E+001,-2.62692E-001,-1.34517E-001,1.01606E+001,1.22090E-002,4.32109E-001,0,1.52598E+002,-5.27742E+000,9.98973E-001,1.19871E+002,-3.30226E+001,9.97955E-001,1.83062E-001,-7.52242E-002,-1.72896E-003,1.83073E-001,-7.52358E-002,-3.83513E-001,1.84038E-001,1.20077E+000,-1.81370E-002,0.00000E+000,1.11486E-002,9.29771E-001,0.00000E+000,-6.40712E-003,-7.03761E-002,1.00000E+000,28
1199,1297,2.75951E+001,-1.81776E+000,4.39762E-002,1.01784E+001,-6.87031E-002,5.50458E-002,1.01788E+001,1.31943E-002,4.40881E-001,0,1.52179E+002,-2.49907E+000,9.97922E-001,1.19006E+002,-3.08310E+001,9.96390E-001,1.79873E-001,-7.52135E-002,-1.67662E-003,1.79884E-001,-7.52245E-002,-3.76570E-001,1.80685E-001,1.19695E+000,-1.82521E-002,0.00000E+000,1.13967E-002,9.29778E-001,0.00000E+000,-6.64277E-003,-7.03832E-002,1.00000E+000,28
649,1347,-1.51703E+001,5.10260E-001,3.00345E-002,3.20780E+000,-6.49693E-001,4.41773E-002,3.27323E+000,1.56173E-002,6.50427E-001,0,5.00543E+001,-1.07320E+001,9.98376E-001,7.72217E+000,-5.03299E+001,9.97400E-001,1.57167E-001,-6.73539E-002,-7.92035E-004,1.57170E-001,-6.73567E-002,-2.02117E-001,1.57703E-001,1.17017E+000,8.30212E-003,0.00000E+000,-7.93758E-003,9.37218E-001,0.00000E+000,-2.57066E-003,-7.15181E-002,1.00000E+000,28
649,1357,-1.51498E+001,1.11381E+000,4.10083E-002,3.21029E+000,-6.89688E-001,1.31531E-002,3.28357E+000,1.06369E-002,5.93346E-001,0,5.01775E+001,-1.12903E+001,9.98796E-001,8.20894E+000,-5.11076E+001,9.98391E-001,1.54877E-001,-6.73692E-002,-1.19855E-003,1.54884E-001,-6.73757E-002,-3.08979E-001,1.55319E-001,1.16750E+000,8.22799E-003,0.00000E+000,-8.59998E-003,9.37199E-001,0.00000E+000,-3.46192E-003,-7.15428E-002,1.00000E+000,28
649,1337,-1.51914E+001,-8.56425E-002,6.58181E-002,3.19848E+000,-6.05434E-001,8.56348E-002,3.25640E+000,1.65569E-002,6.11353E-001,0,4.97901E+001,-1.01133E+001,9.98643E-001,7.35988E+000,-4.95871E+001,9.98067E-001,1.59448E-001,-6.73458E-002,-3.97118E-004,1.59448E-001,-6.73465E-002,-1.00325E-001,1.60088E-001,1.17284E+000,8.35036E-003,0.00000E+000,-7.27585E-003,9.37229E-001,0.00000E+000,-1.68030E-003,-7.15020E-002,1.00000E+000,28
649,1327,-1.52116E+001,-6.62450E-001,1.14080E-001,3.18672E+000,-5.46685E-001,1.21255E-001,3.23554E+000,1.28552E-002,5.91530E-001,0,4.94982E+001,-9.23519E+000,9.99197E-001,7.04892E+000,-4.85691E+001,9.98996E-001,1.61711E-001,-6.73413E-002,-9.88890E-006,1.61711E-001,-6.73413E-002,-2.47364E-003,1.62462E-001,1.17549E+000,8.38533E-003,0.00000E+000,-6.61747E-003,9.37238E-001,0.00000E+000,-7.94441E-004,-7.14903E-002,1.00000E+000,28
1209,1307,2.83860E+001,-1.21620E+000,-4.71200E-002,1.02953E+001,-1.18660E-001,-5.43877E-003,1.02960E+001,1.28703E-002,4.28582E-001,0,1.54060E+002,-3.20131E+000,9.98663E-001,1.21293E+002,-3.11960E+001,9.97210E-001,1.80249E-001,-7.47975E-002,-1.23355E-003,1.80255E-001,-7.48034E-002,-2.77106E-001,1.81121E-001,1.19742E+000,-1.70888E-002,0.00000E+000,1.13444E-002,9.30130E-001,0.00000E+000,-6.93680E-003,-6.98575E-002,1.00000E+000,28
1209,1317,2.83951E+001,-6.19841E-001,-1.01056E-001,1.02889E+001,-1.71344E-001,-5.24003E-002,1.02905E+001,1.49642E-002,4.13096E-001,0,1.54159E+002,-3.95775E+000,9.98484E-001,1.21406E+002,-3.18158E+001,9.96097E-001,1.81089E-001,-7.47990E-002,-1.23826E-003,1.81095E-001,-7.48050E-002,-2.77250E-001,1.82005E-001,1.19842E+000,-1.70649E-002,0.00000E+000,1.12871E-002,9.30129E-001,0.00000E+000,-6.64762E-003,-6.98506E-002,1.00000E+000,28
1209,1327,2.84241E+001,-4.50922E-003,-1.24031E-001,1.02932E+001,-2.09215E-001,-1.03858E-001,1.02959E+001,1.44567E-002,3.85782E-001,0,1.54416E+002,-4.48930E+000,9.98704E-001,1.21870E+002,-3.22132E+001,9.97536E-001,1.81931E-001,-7.48010E-002,-1.23729E-003,1.81937E-001,-7.48070E-002,-2.76122E-001,1.82891E-001,1.19943E+000,-1.70271E-002,0.00000E+000,1.12296E-002,9.30127E-001,0.00000E+000,-6.35746E-003,-6.98397E-002,1.00000E+000,28
1209,1337,2.84560E+001,6.06779E-001,-9.76725E-002,1.02898E+001,-2.60189E-001,-1.46434E-001,1.02941E+001,1.41728E-002,4.38812E-001,0,1.54513E+002,-5.23328E+000,9.98595E-001,1.22445E+002,-3.27447E+001,9.96869E-001,1.82781E-001,-7.48037E-002,-1.22987E-003,1.82787E-001,-7.48096E-002,-2.73557E-001,1.83787E-001,1.20045E+000,-1.69732E-002,0.00000E+000,1.11716E-002,9.30124E-001,0.00000E+000,-6.06424E-003,-6.98242E-002,1.00000E+000,28
1209,1297,2.83916E+001,-1.80538E+000,3.57036E-002,1.03101E+001,-6.14025E-002,4.57814E-002,1.03103E+001,1.20677E-002,4.18647E-001,0,1.54056E+002,-2.38656E+000,9.98545E-001,1.21450E+002,-3.05382E+001,9.96557E-001,1.79409E-001,-7.47964E-002,-1.22489E-003,1.79415E-001,-7.48023E-002,-2.76070E-001,1.80239E-001,1.19641E+000,-1.71029E-002,0.00000E+000,1.14015E-002,9.30131E-001,0.00000E+000,-7.22541E-003,-6.98615E-002,1.00000E+000,28
649,1317,-1.52168E+001,-1.25744E+000,1.97523E-001,3.18525E+000,-5.10014E-001,1.64583E-001,3.23002E+000,1.11348E-002,5.94150E-001,0,4.93476E+001,-8.73346E+000,9.98685E-001,7.06221E+000,-4.78928E+001,9.98402E-001,1.63961E-001,-6.73423E-002,3.67826E-004,1.63962E-001,-6.73428E-002,9.11133E-002,1.64831E-001,1.17814E+000,8.40063E-003,0.00000E+000,-5.96097E-003,9.37242E-001,0.00000E+000,8.88806E-005,-7.14852E-002,1.00000E+000,28
639,1347,-1.59263E+001,5.16345E-001,2.62134E-002,3.09260E+000,-6.37376E-001,4.21191E-002,3.15788E+000,1.63310E-002,5.99684E-001,0,4.82933E+001,-1.04970E+001,9.97626E-001,6.15920E+000,-5.03633E+001,9.96975E-001,1.55355E-001,-6.66046E-002,-7.10177E-004,1.55357E-001,-6.66069E-002,-1.83320E-001,1.55883E-001,1.16803E+000,1.11336E-002,0.00000E+000,-1.00390E-002,9.37837E-001,0.00000E+000,-2.97671E-003,-7.05896E-002,1.00000E+000,28
639,1357,-1.59026E+001,1.12285E+000,3.82714E-002,3.09821E+000,-6.75031E-001,1.11197E-002,3.17092E+000,1.07037E-002,5.93171E-001,0,4.84639E+001,-1.10341E+001,9.98497E-001,6.69930E+000,-5.10740E+001,9.98341E-001,1.52877E-001,-6.66178E-002,-1.10632E-003,1.52883E-001,-6.66234E-002,-2.88777E-001,1.53302E-001,1.16514E+000,1.10536E-002,0.00000E+000,-1.06786E-002,9.37820E-001,0.00000E+000,-3.96407E-003,-7.06170E-002,1.00000E+000,28
639,1317,-1.59629E+001,-1.26607E+000,2.18561E-001,3.07693E+000,-5.17266E-001,1.72422E-001,3.12487E+000,1.46241E-002,6.59935E-001,0,4.76722E+001,-8.85511E+000,9.98578E-001,5.71381E+000,-4.81398E+001,9.97660E-001,1.62686E-001,-6.66020E-002,4.06073E-004,1.62686E-001,-6.66027E-002,1.01471E-001,1.63574E-001,1.17661E+000,1.12269E-002,0.00000E+000,-8.13539E-003,9.37858E-001,0.00000E+000,-3.83070E-005,-7.05577E-002,1.00000E+000,28
639,1327,-1.59558E+001,-6.81781E-001,1.28342E-001,3.08180E+000,-5.61262E-001,1.30074E-001,3.13519E+000,1.08911E-002,5.92187E-001,0,4.78749E+001,-9.47329E+000,9.98849E-001,5.70880E+000,-4.90008E+001,9.98250E-001,1.60264E-001,-6.65977E-002,4.51689E-005,1.60264E-001,-6.65977E-002,1.14078E-002,1.61024E-001,1.17377E+000,1.12168E-002,0.00000E+000,-8.76611E-003,9.37856E-001,0.00000E+000,-1.01190E-003,-7.05612E-002,1.00000E+000,28
639,1337,-1.59458E+001,-8.19479E-002,5.68812E-002,3.08526E+000,-5.97212E-001,8.16803E-002,3.14359E+000,1.34063E-002,6.36260E-001,0,4.80674E+001,-9.94676E+000,9.98297E-001,5.80503E+000,-4.96063E+001,9.97818E-001,1.57814E-001,-6.65981E-002,-3.27199E-004,1.57814E-001,-6.65986E-002,-8.35388E-002,1.58453E-001,1.17090E+000,1.11874E-002,0.00000E+000,-9.40243E-003,9.37849E-001,0.00000E+000,-1.99413E-003,-7.05712E-002,1.00000E+000,28
1219,1317,2.91992E+001,-6.06862E-001,-9.42345E-002,1.04239E+001,-1.68683E-001,-6.01575E-002,1.04255E+001,1.81261E-002,4.80070E-001,0,1.56075E+002,-3.92204E+000,9.98499E-001,1.23992E+002,-3.14979E+001,9.96132E-001,1.80527E-001,-7.47438E-002,-6.73107E-004,1.80529E-001,-7.47456E-002,-1.51078E-001,1.81416E-001,1.19777E+000,-1.56618E-002,0.00000E+000,1.12517E-002,9.30120E-001,0.00000E+000,-6.42135E-003,-6.89321E-002,1.00000E+000,28
1219,1327,2.92238E+001,6.98967E-003,-1.21018E-001,1.04257E+001,-2.05988E-001,-1.07447E-001,1.04283E+001,9.21936E-003,4.09986E-001,0,1.56281E+002,-4.45084E+000,9.99368E-001,1.24382E+002,-3.19303E+001,9.98368E-001,1.81333E-001,-7.47442E-002,-6.58227E-004,1.81334E-001,-7.47459E-002,-1.47273E-001,1.82264E-001,1.19873E+000,-1.56284E-002,0.00000E+000,1.12092E-002,9.30119E-001,0.00000E+000,-5.87721E-003,-6.89132E-002,1.00000E+000,28
1219,1337,2.92594E+001,6.23299E-001,-9.32122E-002,1.04251E+001,-2.52511E-001,-1.51120E-001,1.04292E+001,1.34511E-002,4.66426E-001,0,1.56421E+002,-5.12780E+000,9.98777E-001,1.25013E+002,-3.23835E+001,9.97263E-001,1.82148E-001,-7.47447E-002,-6.35279E-004,1.82149E-001,-7.47463E-002,-1.41688E-001,1.83122E-001,1.19970E+000,-1.55754E-002,0.00000E+000,1.11661E-002,9.30116E-001,0.00000E+000,-5.32567E-003,-6.88832E-002,1.00000E+000,28
1219,1297,2.91923E+001,-1.79308E+000,3.05398E-002,1.04443E+001,-5.61895E-002,3.54855E-002,1.04445E+001,1.32623E-002,3.85659E-001,0,1.55973E+002,-2.27752E+000,9.98503E-001,1.23968E+002,-3.02583E+001,9.96576E-001,1.78913E-001,-7.47433E-002,-6.92041E-004,1.78915E-001,-7.47452E-002,-1.56316E-001,1.79720E-001,1.19584E+000,-1.57020E-002,0.00000E+000,1.13368E-002,9.30122E-001,0.00000E+000,-7.50988E-003,-6.89548E-002,1.00000E+000,28
1219,1307,2.91931E+001,-1.20091E+000,-3.73300E-002,1.04335E+001,-1.12160E-001,-1.03308E-002,1.04341E+001,1.69682E-002,4.16109E-001,0,1.56008E+002,-3.09365E+000,9.98518E-001,1.23932E+002,-3.08894E+001,9.95870E-001,1.79720E-001,-7.47435E-002,-6.83744E-004,1.79722E-001,-7.47454E-002,-1.53952E-001,1.80567E-001,1.19680E+000,-1.56848E-002,0.00000E+000,1.12943E-002,9.30121E-001,0.00000E+000,-6.96629E-003,-6.89451E-002,1.00000E+000,28
629,1347,-1.66753E+001,5.10454E-001,2.40795E-002,2.98447E+000,-6.36899E-001,4.44147E-002,3.05199E+000,1.46334E-002,5.93609E-001,0,4.66313E+001,-1.04772E+001,9.97282E-001,4.71009E+000,-5.05612E+001,9.96677E-001,1.53839E-001,-6.69395E-002,-7.06083E-004,1.53841E-001,-6.69417E-002,-1.83238E-001,1.54272E-001,1.16623E+000,1.40553E-002,0.00000E+000,-1.23801E-002,9.37465E-001,0.00000E+000,-2.97421E-003,-7.01411E-002,1.00000E+000,28
629,1357,-1.66461E+001,1.11673E+000,3.38703E-002,2.99547E+000,-6.74877E-001,9.31652E-003,3.07057E+000,1.22916E-002,5.80074E-001,0,4.68967E+001,-1.10062E+001,9.97650E-001,5.33006E+000,-5.12750E+001,9.97326E-001,1.51467E-001,-6.69452E-002,-9.11627E-004,1.51471E-001,-6.69490E-002,-2.39140E-001,1.51810E-001,1.16347E+000,1.39786E-002,0.00000E+000,-1.26732E-002,9.37457E-001,0.00000E+000,-3.87965E-003,-7.01663E-002,1.00000E+000,28
629,1327,-1.67041E+001,-6.80660E-001,1.25368E-001,2.97374E+000,-5.54367E-001,1.29412E-001,3.02773E+000,1.16155E-002,5.83250E-001,0,4.62219E+001,-9.34779E+000,9.98119E-001,4.26811E+000,-4.90867E+001,9.97705E-001,1.58539E-001,-6.69383E-002,-3.29639E-004,1.58539E-001,-6.69388E-002,-8.37641E-002,1.59177E-001,1.17171E+000,1.41320E-002,0.00000E+000,-1.17968E-002,9.37474E-001,0.00000E+000,-1.17225E-003,-7.01159E-002,1.00000E+000,28
629,1337,-1.66899E+001,-8.71450E-002,5.74832E-002,2.98142E+000,-5.96332E-001,8.41297E-002,3.04163E+000,1.36360E-002,6.26024E-001,0,4.64721E+001,-9.92440E+000,9.97911E-001,4.43720E+000,-4.97990E+001,9.97437E-001,1.56193E-001,-6.69375E-002,-5.13373E-004,1.56194E-001,-6.69387E-002,-1.31824E-001,1.56724E-001,1.16897E+000,1.41040E-002,0.00000E+000,-1.20883E-002,9.37471E-001,0.00000E+000,-2.07297E-003,-7.01251E-002,1.00000E+000,28
1229,1317,3.00030E+001,-5.83737E-001,-9.62192E-002,1.05611E+001,-1.51939E-001,-6.50353E-002,1.05624E+001,1.89736E-002,4.73797E-001,0,1.58007E+002,-3.67660E+000,9.98169E-001,1.26566E+002,-3.10399E+001,9.97410E-001,1.80207E-001,-7.43430E-002,-4.12253E-005,1.80207E-001,-7.43430E-002,-9.27925E-003,1.81123E-001,1.19739E+000,-1.42919E-002,0.00000E+000,1.13329E-002,9.30434E-001,0.00000E+000,-5.64488E-003,-6.80362E-002,1.00000E+000,28
1229,1327,3.00219E+001,1.64107E-002,-1.21001E-001,1.05568E+001,-2.06236E-001,-1.11643E-001,1.05594E+001,1.21016E-002,4.74837E-001,0,1.58127E+002,-4.45760E+000,9.98811E-001,1.26869E+002,-3.16534E+001,9.97614E-001,1.80930E-001,-7.43408E-002,-9.52210E-007,1.80930E-001,-7.43408E-002,-2.13725E-004,1.81885E-001,1.19826E+000,-1.42612E-002,0.00000E+000,1.13348E-002,9.30434E-001,0.00000E+000,-4.98037E-003,-6.80126E-002,1.00000E+000,28
1229,1337,3.00593E+001,6.36414E-001,-1.02509E-001,1.05607E+001,-2.44056E-001,-1.53493E-001,1.05646E+001,1.27651E-002,4.27460E-001,0,1.58328E+002,-5.01141E+000,9.98358E-001,1.27515E+002,-3.20785E+001,9.96987E-001,1.81653E-001,-7.43378E-002,4.47539E-005,1.81653E-001,-7.43378E-002,1.00168E-002,1.82648E-001,1.19912E+000,-1.42174E-002,0.00000E+000,1.13368E-002,9.30434E-001,0.00000E+000,-4.31463E-003,-6.79789E-002,1.00000E+000,28
629,1317,-1.67171E+001,-1.26375E+000,2.22137E-001,2.96278E+000,-5.08983E-001,1.77203E-001,3.01140E+000,1.28644E-002,6.32897E-001,0,4.59099E+001,-8.71899E+000,9.98361E-001,4.20299E+000,-4.82291E+001,9.97813E-001,1.60860E-001,-6.69417E-002,-1.55431E-004,1.60860E-001,-6.69418E-002,-3.90934E-002,1.61612E-001,1.17444E+000,1.41407E-002,0.00000E+000,-1.15074E-002,9.37474E-001,0.00000E+000,-2.78421E-004,-7.01131E-002,1.00000E+000,28
1229,1297,2.99930E+001,-1.77788E+000,2.46630E-002,1.05781E+001,-4.83836E-002,2.46068E-002,1.05782E+001,1.48369E-002,4.38276E-001,0,1.57880E+002,-2.16504E+000,9.97775E-001,1.26489E+002,-2.98894E+001,9.95035E-001,1.78765E-001,-7.43461E-002,-1.10926E-004,1.78765E-001,-7.43461E-002,-2.51099E-002,1.79607E-001,1.19568E+000,-1.43274E-002,0.00000E+000,1.13291E-002,9.30434E-001,0.00000E+000,-6.96686E-003,-6.80636E-002,1.00000E+000,28
1229,1307,3.00035E+001,-1.17797E+000,-3.60902E-002,1.05782E+001,-9.55315E-002,-8.79439E-003,1.05786E+001,2.16363E-002,4.59679E-001,0,1.58025E+002,-2.87894E+000,9.97380E-001,1.26613E+002,-3.04170E+001,9.95728E-001,1.79485E-001,-7.43448E-002,-7.77804E-005,1.79485E-001,-7.43448E-002,-1.75570E-002,1.80364E-001,1.19653E+000,-1.43137E-002,0.00000E+000,1.13310E-002,9.30434E-001,0.00000E+000,-6.30701E-003,-6.80530E-002,1.00000E+000,28
619,1327,-1.74558E+001,-6.81430E-001,1.25961E-001,2.86175E+000,-5.49604E-001,1.30996E-001,2.91699E+000,9.57153E-003,5.75424E-001,0,4.44996E+001,-9.26011E+000,9.98194E-001,2.79186E+000,-4.92094E+001,9.98141E-001,1.57196E-001,-6.63474E-002,-5.81929E-004,1.57197E-001,-6.63489E-002,-1.49151E-001,1.57832E-001,1.17010E+000,1.71750E-002,0.00000E+000,-1.47137E-002,9.37964E-001,0.00000E+000,-1.31418E-003,-6.97749E-002,1.00000E+000,28
619,1337,-1.74373E+001,-8.61800E-002,6.43224E-002,2.87293E+000,-5.90227E-001,8.73537E-002,2.93423E+000,1.18060E-002,6.23861E-001,0,4.47982E+001,-9.82331E+000,9.96838E-001,3.04335E+000,-4.99071E+001,9.96681E-001,1.54749E-001,-6.63467E-002,-6.72054E-004,1.54751E-001,-6.63487E-002,-1.74157E-001,1.55274E-001,1.16725E+000,1.71429E-002,0.00000E+000,-1.48383E-002,9.37963E-001,0.00000E+000,-2.13058E-003,-6.97840E-002,1.00000E+000,28
619,1347,-1.74175E+001,5.14437E-001,2.48081E-002,2.88250E+000,-6.26578E-001,4.87444E-002,2.95022E+000,1.37204E-002,6.01939E-001,0,4.50550E+001,-1.03176E+001,9.96885E-001,3.37914E+000,-5.06057E+001,9.96540E-001,1.52298E-001,-6.63467E-002,-7.67458E-004,1.52300E-001,-6.63494E-002,-2.01109E-001,1.52720E-001,1.16439E+000,1.70984E-002,0.00000E+000,-1.49629E-002,9.37961E-001,0.00000E+000,-2.94655E-003,-6.97968E-002,1.00000E+000,28
619,1357,-1.73899E+001,1.12035E+000,2.86250E-002,2.89302E+000,-6.63763E-001,1.33778E-002,2.96822E+000,1.23014E-002,5.87104E-001,0,4.53136E+001,-1.08342E+001,9.98073E-001,3.95871E+000,-5.13147E+001,9.97935E-001,1.49828E-001,-6.63488E-002,-8.75948E-004,1.49832E-001,-6.63523E-002,-2.32157E-001,1.50158E-001,1.16152E+000,1.70241E-002,0.00000E+000,-1.50879E-002,9.37957E-001,0.00000E+000,-3.76607E-003,-6.98180E-002,1.00000E+000,28
619,1317,-1.74662E+001,-1.26060E+000,2.23262E-001,2.85344E+000,-4.98860E-001,1.79824E-001,2.90230E+000,1.58889E-002,6.07917E-001,0,4.42257E+001,-8.56621E+000,9.97541E-001,2.76938E+000,-4.82991E+001,9.97402E-001,1.59622E-001,-6.63497E-002,-5.01818E-004,1.59623E-001,-6.63508E-002,-1.27237E-001,1.60378E-001,1.17294E+000,1.71843E-002,0.00000E+000,-1.45898E-002,9.37964E-001,0.00000E+000,-5.02124E-004,-6.97722E-002,1.00000E+000,28
1239,1307,3.07951E+001,-1.16830E+000,-5.10100E-002,1.07045E+001,-9.05841E-002,-2.04792E-002,1.07050E+001,2.22935E-002,4.38706E-001,0,1.59827E+002,-2.79895E+000,9.97185E-001,1.28986E+002,-3.01509E+001,9.95341E-001,1.78936E-001,-7.36903E-002,1.99733E-004,1.78937E-001,-7.36905E-002,4.52995E-002,1.79862E-001,1.19589E+000,-1.32851E-002,0.00000E+000,1.10556E-002,9.31005E-001,0.00000E+000,-6.15486E-003,-6.73915E-002,1.00000E+000,28
1239,1317,3.08057E+001,-5.61444E-001,-1.12611E-001,1.06988E+001,-1.33546E-001,-7.68902E-002,1.06999E+001,2.14666E-002,4.25465E-001,0,1.59974E+002,-3.39264E+000,9.97532E-001,1.29111E+002,-3.05847E+001,9.96620E-001,1.79737E-001,-7.36823E-002,3.23547E-004,1.79737E-001,-7.36827E-002,7.31509E-002,1.80707E-001,1.19684E+000,-1.32612E-002,0.00000E+000,1.11942E-002,9.31009E-001,0.00000E+000,-5.07952E-003,-6.73646E-002,1.00000E+000,28
1239,1327,3.08269E+001,3.83843E-002,-1.07381E-001,1.06919E+001,-1.93098E-001,-1.10813E-001,1.06942E+001,1.62771E-002,4.97409E-001,0,1.59999E+002,-4.28276E+000,9.98014E-001,1.29485E+002,-3.12319E+001,9.97152E-001,1.80544E-001,-7.36702E-002,4.55595E-004,1.80545E-001,-7.36710E-002,1.02683E-001,1.81560E-001,1.19780E+000,-1.32202E-002,0.00000E+000,1.13342E-002,9.31015E-001,0.00000E+000,-3.99270E-003,-6.73182E-002,1.00000E+000,28
1239,1337,3.08508E+001,6.55834E-001,-9.54142E-002,1.06859E+001,-2.30729E-001,-1.45293E-001,1.06894E+001,1.40951E-002,4.04556E-001,0,1.60027E+002,-4.84163E+000,9.97418E-001,1.29910E+002,-3.17053E+001,9.95430E-001,1.81344E-001,-7.36576E-002,5.87753E-004,1.81345E-001,-7.36589E-002,1.32060E-001,1.82406E-001,1.19876E+000,-1.31766E-002,0.00000E+000,1.14733E-002,9.31021E-001,0.00000E+000,-2.91370E-003,-6.72689E-002,1.00000E+000,28
1239,1297,3.07900E+001,-1.76579E+000,2.17278E-002,1.07089E+001,-4.13718E-002,2.08773E-002,1.07090E+001,1.38670E-002,4.46298E-001,0,1.59711E+002,-2.08425E+000,9.97918E-001,1.28962E+002,-2.95978E+001,9.95848E-001,1.78136E-001,-7.36960E-002,8.02908E-005,1.78136E-001,-7.36960E-002,1.82675E-002,1.79018E-001,1.19494E+000,-1.32989E-002,0.00000E+000,1.09173E-002,9.31003E-001,0.00000E+000,-7.22759E-003,-6.74071E-002,1.00000E+000,28
609,1347,-1.81603E+001,5.13713E-001,2.90245E-002,2.77863E+000,-6.22198E-001,5.11487E-002,2.84790E+000,1.74763E-002,6.30687E-001,0,4.34531E+001,-1.02501E+001,9.96514E-001,2.05331E+000,-5.07202E+001,9.96258E-001,1.50823E-001,-6.50515E-002,-1.03924E-003,1.50828E-001,-6.50565E-002,-2.75820E-001,1.51301E-001,1.16263E+000,1.99105E-002,0.00000E+000,-1.77990E-002,9.39056E-001,0.00000E+000,-2.65334E-003,-6.87031E-002,1.00000E+000,28
609,1357,-1.81345E+001,1.12598E+000,2.71023E-002,2.78844E+000,-6.51925E-001,1.53974E-002,2.86368E+000,1.38052E-002,6.09349E-001,0,4.36999E+001,-1.06471E+001,9.97828E-001,2.59234E+000,-5.13247E+001,9.97579E-001,1.48303E-001,-6.50523E-002,-1.10910E-003,1.48308E-001,-6.50581E-002,-2.97834E-001,1.48680E-001,1.15971E+000,1.98397E-002,0.00000E+000,-1.78500E-002,9.39055E-001,0.00000E+000,-3.64627E-003,-6.87272E-002,1.00000E+000,28
609,1317,-1.82195E+001,-1.26330E+000,2.20610E-001,2.73883E+000,-4.95998E-001,1.75364E-001,2.78890E+000,1.56807E-002,6.10631E-001,0,4.24780E+001,-8.51061E+000,9.98092E-001,1.26321E+000,-4.84378E+001,9.97220E-001,1.58306E-001,-6.50545E-002,-8.83950E-004,1.58310E-001,-6.50580E-002,-2.26743E-001,1.59144E-001,1.17136E+000,1.99970E-002,0.00000E+000,-1.76467E-002,9.39058E-001,0.00000E+000,3.12795E-004,-6.86737E-002,1.00000E+000,28
609,1327,-1.82042E+001,-6.86099E-001,1.25998E-001,2.75256E+000,-5.49757E-001,1.32121E-001,2.81003E+000,1.12451E-002,6.30984E-001,0,4.28212E+001,-9.26517E+000,9.98381E-001,1.36688E+000,-4.93590E+001,9.97774E-001,1.55823E-001,-6.50526E-002,-9.26549E-004,1.55827E-001,-6.50565E-002,-2.40344E-001,1.56533E-001,1.16845E+000,1.99898E-002,0.00000E+000,-1.76974E-002,9.39058E-001,0.00000E+000,-6.74448E-004,-6.86762E-002,1.00000E+000,28
609,1337,-1.81821E+001,-8.54535E-002,6.45629E-002,2.76733E+000,-5.83286E-001,8.82097E-002,2.82950E+000,1.43273E-002,6.08262E-001,0,4.31738E+001,-9.70486E+000,9.96874E-001,1.67490E+000,-5.00111E+001,9.96535E-001,1.53331E-001,-6.50518E-002,-9.79786E-004,1.53336E-001,-6.50562E-002,-2.57054E-001,1.53921E-001,1.16555E+000,1.99573E-002,0.00000E+000,-1.77481E-002,9.39057E-001,0.00000E+000,-1.66214E-003,-6.86872E-002,1.00000E+000,28
1249,1297,3.15910E+001,-1.74718E+000,2.94580E-002,1.08416E+001,-2.98377E-002,2.21392E-002,1.08417E+001,1.59216E-002,4.80015E-001,0,1.61542E+002,-1.93988E+000,9.98168E-001,1.31513E+002,-2.92146E+001,9.96397E-001,1.77114E-001,-7.29424E-002,2.95505E-004,1.77115E-001,-7.29427E-002,6.77093E-002,1.78030E-001,1.19374E+000,-1.17363E-002,0.00000E+000,1.01606E-002,9.31683E-001,0.00000E+000,-7.82801E-003,-6.69148E-002,1.00000E+000,28
1249,1307,3.15877E+001,-1.15673E+000,-6.18485E-002,1.08313E+001,-8.44212E-002,-2.83409E-002,1.08317E+001,1.98556E-002,4.38251E-001,0,1.61616E+002,-2.70898E+000,9.98002E-001,1.31383E+002,-2.98537E+001,9.96042E-001,1.78116E-001,-7.29296E-002,6.07342E-004,1.78118E-001,-7.29311E-002,1.38611E-001,1.79089E-001,1.19493E+000,-1.17236E-002,0.00000E+000,1.06277E-002,9.31688E-001,0.00000E+000,-6.22136E-003,-6.68975E-002,1.00000E+000,28
1249,1317,3.15954E+001,-5.56092E-001,-1.17047E-001,1.08236E+001,-1.32924E-001,-7.45134E-002,1.08247E+001,1.91945E-002,3.96755E-001,0,1.61695E+002,-3.40130E+000,9.96393E-001,1.31471E+002,-3.04109E+001,9.95181E-001,1.79118E-001,-7.29088E-002,9.26420E-004,1.79122E-001,-7.29122E-002,2.10608E-001,1.80150E-001,1.19612E+000,-1.16954E-002,0.00000E+000,1.10964E-002,9.31699E-001,0.00000E+000,-4.60938E-003,-6.68593E-002,1.00000E+000,28
1249,1327,3.16130E+001,5.95284E-002,-1.27337E-001,1.08157E+001,-1.73552E-001,-1.13738E-001,1.08177E+001,1.81128E-002,4.39974E-001,0,1.61723E+002,-4.00616E+000,9.96498E-001,1.31768E+002,-3.07916E+001,9.96097E-001,1.80123E-001,-7.28784E-002,1.25518E-003,1.80129E-001,-7.28846E-002,2.84244E-001,1.81219E-001,1.19731E+000,-1.16487E-002,0.00000E+000,1.15685E-002,9.31718E-001,0.00000E+000,-2.98557E-003,-6.67960E-002,1.00000E+000,28
1249,1337,3.16405E+001,6.76759E-001,-1.07245E-001,1.08102E+001,-2.15384E-001,-1.50264E-001,1.08134E+001,1.41546E-002,4.13571E-001,0,1.61767E+002,-4.62324E+000,9.98173E-001,1.32256E+002,-3.12512E+001,9.97768E-001,1.81126E-001,-7.28410E-002,1.58969E-003,1.81136E-001,-7.28509E-002,3.58620E-001,1.82288E-001,1.19851E+000,-1.15887E-002,0.00000E+000,1.20414E-002,9.31741E-001,0.00000E+000,-1.35900E-003,-6.67147E-002,1.00000E+000,28
1259,1327,3.24072E+001,7.17891E-002,-1.37567E-001,1.09434E+001,-1.65917E-001,-1.20491E-001,1.09453E+001,1.47022E-002,3.89816E-001,0,1.63518E+002,-3.89152E+000,9.98325E-001,1.34193E+002,-3.05064E+001,9.97941E-001,1.79889E-001,-7.24723E-002,1.93377E-003,1.79904E-001,-7.24871E-002,4.39006E-001,1.81031E-001,1.19704E+000,-1.07134E-002,0.00000E+000,1.20145E-002,9.32061E-001,0.00000E+000,-1.19568E-003,-6.63001E-002,1.00000E+000,28
1259,1337,3.24351E+001,6.86310E-001,-1.20922E-001,1.09378E+001,-2.11240E-001,-1.62103E-001,1.09410E+001,1.35796E-002,3.85520E-001,0,1.63583E+002,-4.55740E+000,9.98848E-001,1.34681E+002,-3.09877E+001,9.98822E-001,1.80942E-001,-7.24187E-002,2.39535E-003,1.80965E-001,-7.24414E-002,5.41626E-001,1.82160E-001,1.19831E+000,-1.06487E-002,0.00000E+000,1.26846E-002,9.32095E-001,0.00000E+000,1.08086E-003,-6.61838E-002,1.00000E+000,28
599,1347,-1.88952E+001,5.25000E-001,3.74711E-002,2.68182E+000,-6.05781E-001,5.47997E-002,2.74993E+000,1.69805E-002,6.40818E-001,0,4.19528E+001,-9.99567E+000,9.97914E-001,8.69536E-001,-5.06679E+001,9.97972E-001,1.50074E-001,-6.50824E-002,-7.87021E-004,1.50076E-001,-6.50852E-002,-2.09579E-001,1.50516E-001,1.16172E+000,2.21461E-002,0.00000E+000,-1.91573E-002,9.38909E-001,0.00000E+000,-2.34488E-003,-6.72695E-002,1.00000E+000,28
599,1357,-1.88656E+001,1.12578E+000,3.24412E-002,2.69606E+000,-6.46672E-001,1.87355E-002,2.77260E+000,1.15474E-002,6.25718E-001,0,4.22722E+001,-1.05659E+001,9.98214E-001,1.45600E+000,-5.14403E+001,9.98112E-001,1.47716E-001,-6.50808E-002,-5.81248E-004,1.47717E-001,-6.50824E-002,-1.56500E-001,1.48064E-001,1.15899E+000,2.20825E-002,0.00000E+000,-1.86927E-002,9.38920E-001,0.00000E+000,-3.40483E-003,-6.72942E-002,1.00000E+000,28
1259,1287,3.23890E+001,-2.32727E+000,1.12552E-001,1.09764E+001,3.02526E-002,5.23925E-002,1.09765E+001,1.65812E-002,4.16444E-001,0,1.63264E+002,-1.04534E+000,9.97199E-001,1.34078E+002,-2.83581E+001,9.93634E-001,1.75649E-001,-7.25740E-002,1.65592E-004,1.75649E-001,-7.25742E-002,3.82225E-002,1.76530E-001,1.19203E+000,-1.08121E-002,0.00000E+000,9.35877E-003,9.32009E-001,0.00000E+000,-1.02185E-002,-6.64777E-002,1.00000E+000,28
1259,1297,3.23825E+001,-1.73763E+000,1.01540E-003,1.09684E+001,-2.39802E-002,2.86618E-003,1.09685E+001,1.46588E-002,4.35731E-001,0,1.63378E+002,-1.81842E+000,9.97766E-001,1.33875E+002,-2.89352E+001,9.94834E-001,1.76716E-001,-7.25641E-002,5.97451E-004,1.76717E-001,-7.25655E-002,1.37320E-001,1.77655E-001,1.19328E+000,-1.08093E-002,0.00000E+000,1.00205E-002,9.32010E-001,0.00000E+000,-7.97028E-003,-6.64728E-002,1.00000E+000,28
1259,1307,3.23824E+001,-1.14107E+000,-7.88775E-002,1.09601E+001,-7.41371E-002,-4.08100E-002,1.09604E+001,1.45998E-002,4.37325E-001,0,1.63449E+002,-2.54402E+000,9.98025E-001,1.33810E+002,-2.94798E+001,9.96440E-001,1.77777E-001,-7.25448E-002,1.03543E-003,1.77782E-001,-7.25491E-002,2.36992E-001,1.78780E-001,1.19453E+000,-1.07933E-002,0.00000E+000,1.06834E-002,9.32018E-001,0.00000E+000,-5.71804E-003,-6.64440E-002,1.00000E+000,28
599,1327,-1.89482E+001,-6.68016E-001,1.34677E-001,2.64596E+000,-5.27595E-001,1.33629E-001,2.70135E+000,1.21755E-002,6.11367E-001,0,4.11735E+001,-8.89509E+000,9.98419E-001,4.48756E-002,-4.92147E+001,9.97822E-001,1.54750E-001,-6.50767E-002,-1.22014E-003,1.54757E-001,-6.50834E-002,-3.18006E-001,1.55407E-001,1.16716E+000,2.22175E-002,0.00000E+000,-2.00828E-002,9.38897E-001,0.00000E+000,-2.33336E-004,-6.72418E-002,1.00000E+000,28
599,1337,-1.89255E+001,-7.67477E-002,6.42133E-002,2.66292E+000,-5.68957E-001,8.93186E-002,2.72448E+000,1.14366E-002,6.08747E-001,0,4.15634E+001,-9.46848E+000,9.98156E-001,3.34203E-001,-4.99834E+001,9.98173E-001,1.52421E-001,-6.50813E-002,-9.99174E-004,1.52425E-001,-6.50859E-002,-2.63201E-001,1.52966E-001,1.16444E+000,2.21936E-002,0.00000E+000,-1.96211E-002,9.38901E-001,0.00000E+000,-1.28667E-003,-6.72511E-002,1.00000E+000,28
1259,1317,3.23915E+001,-5.37237E-001,-1.20888E-001,1.09534E+001,-1.20423E-001,-7.49351E-002,1.09543E+001,1.51188E-002,4.26929E-001,0,1.63491E+002,-3.23526E+000,9.98304E-001,1.33936E+002,-2.99986E+001,9.97191E-001,1.78835E-001,-7.25151E-002,1.48022E-003,1.78844E-001,-7.25239E-002,3.37404E-001,1.79905E-001,1.19578E+000,-1.07628E-002,0.00000E+000,1.13479E-002,9.32035E-001,0.00000E+000,-3.46036E-003,-6.63891E-002,1.00000E+000,28
599,1317,-1.89711E+001,-1.25732E+000,2.29020E-001,2.62445E+000,-4.86908E-001,1.75576E-001,2.67501E+000,1.58338E-002,6.03604E-001,0,4.07164E+001,-8.33853E+000,9.98198E-001,-1.77240E-001,-4.84714E+001,9.97775E-001,1.57071E-001,-6.50691E-002,-1.44845E-003,1.57081E-001,-6.50786E-002,-3.73573E-001,1.57848E-001,1.16987E+000,2.22234E-002,0.00000E+000,-2.05442E-002,9.38896E-001,0.00000E+000,8.19453E-004,-6.72395E-002,1.00000E+000,28
589,1347,-1.96394E+001,5.36902E-001,4.13263E-002,2.57604E+000,-5.88259E-001,5.83833E-002,2.64300E+000,1.22183E-002,6.36488E-001,0,4.03108E+001,-9.71258E+000,9.98184E-001,-4.64360E-001,-5.06050E+001,9.98190E-001,1.49414E-001,-6.47474E-002,-1.34101E-004,1.49414E-001,-6.47475E-002,-3.58767E-002,1.49856E-001,1.16089E+000,2.52433E-002,0.00000E+000,-2.04485E-002,9.39108E-001,0.00000E+000,-2.23441E-003,-6.58578E-002,1.00000E+000,28
589,1357,-1.96051E+001,1.13709E+000,4.08095E-002,2.59459E+000,-6.30742E-001,2.35137E-002,2.67026E+000,9.63792E-003,6.52573E-001,0,4.06940E+001,-1.03154E+001,9.98542E-001,2.08211E-001,-5.13821E+001,9.98665E-001,1.47022E-001,-6.47465E-002,7.71645E-005,1.47022E-001,-6.47465E-002,2.08775E-002,1.47370E-001,1.15812E+000,2.51773E-002,0.00000E+000,-1.99884E-002,9.39119E-001,0.00000E+000,-3.15145E-003,-6.58797E-002,1.00000E+000,28
589,1337,-1.96659E+001,-6.93348E-002,7.20698E-002,2.55990E+000,-5.56637E-001,9.11719E-002,2.62131E+000,8.88708E-003,6.10036E-001,0,3.99705E+001,-9.27162E+000,9.98955E-001,-9.31433E-001,-4.99926E+001,9.98927E-001,1.51792E-001,-6.47447E-002,-3.54092E-004,1.51793E-001,-6.47453E-002,-9.36926E-002,1.52338E-001,1.16365E+000,2.52868E-002,0.00000E+000,-2.09071E-002,9.39101E-001,0.00000E+000,-1.32017E-003,-6.58434E-002,1.00000E+000,28
589,1327,-1.96831E+001,-6.47317E-001,1.42914E-001,2.54854E+000,-5.02798E-001,1.37201E-001,2.60129E+000,1.59785E-002,6.50134E-001,0,3.96612E+001,-8.51388E+000,9.99018E-001,-1.13302E+000,-4.89992E+001,9.98084E-001,1.54150E-001,-6.47392E-002,-5.80556E-004,1.54151E-001,-6.47407E-002,-1.51964E-001,1.54808E-001,1.16639E+000,2.53115E-002,0.00000E+000,-2.13631E-002,9.39097E-001,0.00000E+000,-4.11170E-004,-6.58352E-002,1.00000E+000,28
1269,1327,3.32085E+001,8.78057E-002,-1.34004E-001,1.10772E+001,-1.56634E-001,-1.14991E-001,1.10789E+001,1.23939E-002,3.98376E-001,0,1.65348E+002,-3.77965E+000,9.98820E-001,1.36749E+002,-3.01634E+001,9.98032E-001,1.79770E-001,-7.18388E-002,2.52747E-003,1.79795E-001,-7.18641E-002,5.75473E-001,1.80997E-001,1.19691E+000,-9.68633E-003,0.00000E+000,1.22868E-002,9.32512E-001,0.00000E+000,-2.77139E-004,-6.40088E-002,1.00000E+000,28
1269,1337,3.32442E+001,6.95718E-001,-1.11646E-001,1.10784E+001,-2.08622E-001,-1.54204E-001,1.10814E+001,1.25194E-002,3.77708E-001,0,1.65504E+002,-4.55645E+000,9.98579E-001,1.37365E+002,-3.07660E+001,9.97278E-001,1.80933E-001,-7.17698E-002,3.10430E-003,1.80971E-001,-7.18080E-002,7.03702E-001,1.82252E-001,1.19831E+000,-9.61241E-003,0.00000E+000,1.31611E-002,9.32558E-001,0.00000E+000,2.18605E-003,-6.38789E-002,1.00000E+000,28
589,1317,-1.97099E+001,-1.23882E+000,2.43763E-001,2.52281E+000,-4.64313E-001,1.83923E-001,2.57177E+000,1.32507E-002,5.81985E-001,0,3.91268E+001,-7.97828E+000,9.97536E-001,-1.39515E+000,-4.83321E+001,9.96318E-001,1.56503E-001,-6.47304E-002,-8.15628E-004,1.56506E-001,-6.47334E-002,-2.11230E-001,1.57283E-001,1.16914E+000,2.53161E-002,0.00000E+000,-2.18196E-002,9.39096E-001,0.00000E+000,4.98932E-004,-6.58337E-002,1.00000E+000,28
1269,1317,3.31971E+001,-5.20162E-001,-1.19026E-001,1.10895E+001,-1.09988E-001,-7.94258E-002,1.10903E+001,1.27120E-002,4.00742E-001,0,1.65392E+002,-3.08273E+000,9.98645E-001,1.36558E+002,-2.96536E+001,9.97694E-001,1.78603E-001,-7.18889E-002,1.96184E-003,1.78619E-001,-7.19043E-002,4.48701E-001,1.79746E-001,1.19551E+000,-9.73676E-003,0.00000E+000,1.14160E-002,9.32480E-001,0.00000E+000,-2.73048E-003,-6.40975E-002,1.00000E+000,28
1269,1307,3.31855E+001,-1.12540E+000,-7.32422E-002,1.10939E+001,-6.53260E-002,-4.15044E-002,1.10941E+001,1.35719E-002,4.38925E-001,0,1.65299E+002,-2.42977E+000,9.97949E-001,1.36400E+002,-2.91527E+001,9.96751E-001,1.77434E-001,-7.19259E-002,1.40490E-003,1.77442E-001,-7.19338E-002,3.22792E-001,1.78498E-001,1.19412E+000,-9.77081E-003,0.00000E+000,1.05490E-002,9.32459E-001,0.00000E+000,-5.17307E-003,-6.41574E-002,1.00000E+000,28
1269,1297,3.31774E+001,-1.72645E+000,-4.63325E-003,1.10966E+001,-1.84059E-002,1.96705E-004,1.10966E+001,1.42663E-002,4.28820E-001,0,1.65158E+002,-1.73922E+000,9.97778E-001,1.36323E+002,-2.86604E+001,9.96407E-001,1.76258E-001,-7.19539E-002,8.52691E-004,1.76261E-001,-7.19568E-002,1.96827E-001,1.77248E-001,1.19274E+000,-9.79398E-003,0.00000E+000,9.68290E-003,9.32444E-001,0.00000E+000,-7.61306E-003,-6.41981E-002,1.00000E+000,28
1269,1287,3.31870E+001,-2.31906E+000,1.12532E-001,1.11054E+001,3.16128E-002,4.70324E-002,1.11055E+001,1.91939E-002,3.91358E-001,0,1.65065E+002,-1.01047E+000,9.97986E-001,1.36579E+002,-2.81518E+001,9.95646E-001,1.75079E-001,-7.19619E-002,3.12721E-004,1.75079E-001,-7.19623E-002,7.25286E-002,1.76001E-001,1.19135E+000,-9.79227E-003,0.00000E+000,8.82018E-003,9.32446E-001,0.00000E+000,-1.00436E-002,-6.41951E-002,1.00000E+000,28
579,1347,-2.03769E+001,5.44515E-001,4.65969E-002,2.47584E+000,-5.75894E-001,5.91487E-002,2.54263E+000,1.04480E-002,6.57726E-001,0,3.87625E+001,-9.51397E+000,9.98179E-001,-1.68806E+000,-5.05975E+001,9.98589E-001,1.48145E-001,-6.42162E-002,5.86769E-004,1.48147E-001,-6.42178E-002,1.58310E-001,1.48584E-001,1.15934E+000,2.83990E-002,0.00000E+000,-2.16429E-002,9.39524E-001,0.00000E+000,-2.72953E-003,-6.49437E-002,1.00000E+000,28
579,1357,-2.03361E+001,1.15319E+000,4.94316E-002,2.50071E+000,-6.10221E-001,2.57635E-002,2.57421E+000,1.04646E-002,6.59810E-001,0,3.92381E+001,-9.98178E+000,9.99015E-001,-9.03400E-001,-5.12599E+001,9.99063E-001,1.45572E-001,-6.42161E-002,8.57427E-004,1.45575E-001,-6.42196E-002,2.34169E-001,1.45911E-001,1.15637E+000,2.83278E-002,0.00000E+000,-2.10712E-002,9.39538E-001,0.00000E+000,-3.75054E-003,-6.49682E-002,1.00000E+000,28
579,1337,-2.04096E+001,-5.84313E-002,8.20200E-002,2.45334E+000,-5.41220E-001,9.65861E-002,2.51418E+000,1.03933E-002,6.30289E-001,0,3.83100E+001,-9.03397E+000,9.97817E-001,-2.23640E+000,-4.99440E+001,9.98471E-001,1.50702E-001,-6.42116E-002,3.06595E-004,1.50702E-001,-6.42120E-002,8.17378E-002,1.51250E-001,1.16231E+000,2.84451E-002,0.00000E+000,-2.22126E-002,9.39515E-001,0.00000E+000,-1.71221E-003,-6.49279E-002,1.00000E+000,28
579,1327,-2.04368E+001,-6.39459E-001,1.41252E-001,2.43258E+000,-4.90636E-001,1.34712E-001,2.48522E+000,1.11638E-002,6.58590E-001,0,3.78767E+001,-8.29418E+000,9.98806E-001,-2.62401E+000,-4.89777E+001,9.98166E-001,1.53234E-001,-6.42037E-002,2.11498E-005,1.53234E-001,-6.42037E-002,5.57306E-003,1.53903E-001,1.16525E+000,2.84739E-002,0.00000E+000,-2.27788E-002,9.39510E-001,0.00000E+000,-7.01172E-004,-6.49180E-002,1.00000E+000,28
579,1317,-2.04555E+001,-1.22283E+000,2.40275E-001,2.41515E+000,-4.45542E-001,1.81226E-001,2.46258E+000,1.62648E-002,6.50331E-001,0,3.74720E+001,-7.66202E+000,9.97596E-001,-2.76537E+000,-4.81489E+001,9.96065E-001,1.55758E-001,-6.41917E-002,-2.73612E-004,1.55758E-001,-6.41920E-002,-7.12745E-002,1.56558E-001,1.16820E+000,2.84797E-002,0.00000E+000,-2.33447E-002,9.39509E-001,0.00000E+000,3.09353E-004,-6.49160E-002,1.00000E+000,28
1279,1317,3.39900E+001,-5.13393E-001,-1.22567E-001,1.12159E+001,-1.07498E-001,-7.68374E-002,1.12167E+001,1.09971E-002,3.75258E-001,0,1.67123E+002,-3.07474E+000,9.98380E-001,1.38982E+002,-2.94585E+001,9.97014E-001,1.78175E-001,-7.09301E-002,2.37638E-003,1.78198E-001,-7.09528E-002,5.46516E-001,1.79425E-001,1.19501E+000,-8.54032E-003,0.00000E+000,1.12329E-002,9.33228E-001,0.00000E+000,-2.01354E-003,-6.15252E-002,1.00000E+000,28
1279,1327,3.40172E+001,1.02509E-001,-1.25884E-001,1.12178E+001,-1.48694E-001,-1.06179E-001,1.12193E+001,1.84924E-002,4.19862E-001,0,1.67257E+002,-3.70554E+000,9.97586E-001,1.39432E+002,-2.98438E+001,9.97262E-001,1.79498E-001,-7.08684E-002,3.04577E-003,1.79535E-001,-7.09055E-002,6.96880E-001,1.80851E-001,1.19660E+000,-8.47919E-003,0.00000E+000,1.22855E-002,9.33269E-001,0.00000E+000,6.51735E-004,-6.14225E-002,1.00000E+000,28
1279,1337,3.40507E+001,7.09789E-001,-1.04142E-001,1.12164E+001,-2.02868E-001,-1.45520E-001,1.12192E+001,1.46395E-002,4.12086E-001,0,1.67379E+002,-4.50112E+000,9.98198E-001,1.40008E+002,-3.04474E+001,9.97789E-001,1.80816E-001,-7.07876E-002,3.72579E-003,1.80871E-001,-7.08427E-002,8.48200E-001,1.82280E-001,1.19819E+000,-8.39519E-003,0.00000E+000,1.33415E-002,9.33325E-001,0.00000E+000,3.32544E-003,-6.12813E-002,1.00000E+000,28
1279,1307,3.39710E+001,-1.11717E+000,-8.69364E-002,1.12141E+001,-6.13568E-002,-4.45557E-002,1.12144E+001,1.26362E-002,4.44372E-001,0,1.66964E+002,-2.38777E+000,9.98207E-001,1.38696E+002,-2.88999E+001,9.96264E-001,1.76853E-001,-7.09754E-002,1.71957E-003,1.76865E-001,-7.09873E-002,3.97525E-001,1.78008E-001,1.19344E+000,-8.58203E-003,0.00000E+000,1.01886E-002,9.33200E-001,0.00000E+000,-4.65741E-003,-6.15953E-002,1.00000E+000,28
1279,1297,3.39703E+001,-1.70996E+000,-1.68346E-003,1.12209E+001,-6.67489E-003,9.23850E-004,1.12209E+001,2.35026E-002,3.66833E-001,0,1.66857E+002,-1.57023E+000,9.97360E-001,1.38753E+002,-2.83493E+001,9.96230E-001,1.75521E-001,-7.10008E-002,1.07220E-003,1.75526E-001,-7.10055E-002,2.49190E-001,1.76589E-001,1.19187E+000,-8.60013E-003,0.00000E+000,9.14455E-003,9.33188E-001,0.00000E+000,-7.30096E-003,-6.16257E-002,1.00000E+000,28
1279,1287,3.39764E+001,-2.32193E+000,9.67914E-002,1.12301E+001,2.57457E-002,4.36428E-002,1.12302E+001,2.14254E-002,2.93218E-001,0,1.66801E+002,-1.07529E+000,9.97698E-001,1.38932E+002,-2.81223E+001,9.95367E-001,1.74184E-001,-7.10171E-002,4.30917E-004,1.74185E-001,-7.10178E-002,1.00691E-001,1.75171E-001,1.19030E+000,-8.60772E-003,0.00000E+000,8.10373E-003,9.33183E-001,0.00000E+000,-9.93624E-003,-6.16385E-002,1.00000E+000,28
569,1347,-2.11135E+001,5.61590E-001,5.42204E-002,2.37639E+000,-5.54162E-001,6.39430E-002,2.44099E+000,1.09254E-002,6.65632E-001,0,3.72113E+001,-9.16553E+000,9.98012E-001,-2.88372E+000,-5.04568E+001,9.98137E-001,1.47356E-001,-6.35709E-002,1.16603E-003,1.47362E-001,-6.35774E-002,3.16727E-001,1.47823E-001,1.15835E+000,3.16775E-002,0.00000E+000,-2.32219E-002,9.40050E-001,0.00000E+000,-2.91021E-003,-6.42174E-002,1.00000E+000,28
569,1357,-2.10757E+001,1.16209E+000,4.77038E-002,2.39983E+000,-5.94319E-001,2.88687E-002,2.47250E+000,1.04724E-002,6.55389E-001,0,3.76708E+001,-9.73018E+000,9.98594E-001,-2.17106E+000,-5.12328E+001,9.98402E-001,1.44651E-001,-6.35743E-002,1.55805E-003,1.44662E-001,-6.35860E-002,4.28685E-001,1.45014E-001,1.15523E+000,3.16095E-002,0.00000E+000,-2.24194E-002,9.40067E-001,0.00000E+000,-4.17786E-003,-6.42450E-002,1.00000E+000,28
569,1327,-2.11747E+001,-6.35907E-001,1.39648E-001,2.33270E+000,-4.81718E-001,1.36483E-001,2.38583E+000,1.67557E-002,6.73339E-001,0,3.63315E+001,-8.14747E+000,9.99067E-001,-3.87022E+000,-4.90173E+001,9.98591E-001,1.52716E-001,-6.35502E-002,3.63260E-004,1.52717E-001,-6.35509E-002,9.62386E-002,1.53431E-001,1.16456E+000,3.17599E-002,0.00000E+000,-2.48207E-002,9.40028E-001,0.00000E+000,-3.84789E-004,-6.41839E-002,1.00000E+000,28
569,1337,-2.11462E+001,-3.94144E-002,8.85805E-002,2.35326E+000,-5.18540E-001,9.65685E-002,2.41165E+000,1.00321E-002,6.41702E-001,0,3.67615E+001,-8.65784E+000,9.98334E-001,-3.43370E+000,-4.97673E+001,9.98410E-001,1.50046E-001,-6.35616E-002,7.65246E-004,1.50048E-001,-6.35643E-002,2.05258E-001,1.50631E-001,1.16146E+000,3.17223E-002,0.00000E+000,-2.40229E-002,9.40038E-001,0.00000E+000,-1.64506E-003,-6.41992E-002,1.00000E+000,28
1289,1327,3.48065E+001,1.07898E-001,-1.38642E-001,1.13412E+001,-1.47798E-001,-1.07423E-001,1.13427E+001,1.70470E-002,4.01906E-001,0,1.68962E+002,-3.70621E+000,9.96972E-001,1.41788E+002,-2.96452E+001,9.95995E-001,1.79173E-001,-6.95990E-002,3.54207E-003,1.79223E-001,-6.96494E-002,8.15570E-001,1.80699E-001,1.19622E+000,-6.93773E-003,0.00000E+000,1.20077E-002,9.34304E-001,0.00000E+000,1.26071E-003,-5.86168E-002,1.00000E+000,28
1289,1337,3.48435E+001,7.24295E-001,-1.09516E-001,1.13435E+001,-1.93298E-001,-1.38698E-001,1.13460E+001,1.59988E-002,4.18083E-001,0,1.69098E+002,-4.39536E+000,9.97971E-001,1.42427E+002,-3.01094E+001,9.97302E-001,1.80714E-001,-6.95104E-002,4.29937E-003,1.80788E-001,-6.95842E-002,9.84073E-001,1.82378E-001,1.19808E+000,-6.83942E-003,0.00000E+000,1.32008E-002,9.34367E-001,0.00000E+000,4.05096E-003,-5.84695E-002,1.00000E+000,28
569,1317,-2.12009E+001,-1.21144E+000,2.39253E-001,2.30632E+000,-4.29126E-001,1.74329E-001,2.35237E+000,1.85689E-002,6.47877E-001,0,3.58077E+001,-7.38748E+000,9.97869E-001,-4.11997E+000,-4.80773E+001,9.96265E-001,1.55374E-001,-6.35292E-002,-5.42990E-005,1.55374E-001,-6.35292E-002,-1.42122E-002,1.56232E-001,1.16766E+000,3.17588E-002,0.00000E+000,-2.56178E-002,9.40029E-001,0.00000E+000,8.74363E-004,-6.41844E-002,1.00000E+000,28
1289,1317,3.47825E+001,-5.05187E-001,-1.22418E-001,1.13402E+001,-1.07379E-001,-7.40772E-002,1.13410E+001,1.76180E-002,4.56169E-001,0,1.68820E+002,-3.10492E+000,9.98376E-001,1.41404E+002,-2.91964E+001,9.95801E-001,1.77633E-001,-6.96611E-002,2.80363E-003,1.77665E-001,-6.96929E-002,6.49463E-001,1.79034E-001,1.19438E+000,-7.00258E-003,0.00000E+000,1.08246E-002,9.34263E-001,0.00000E+000,-1.50601E-003,-5.87140E-002,1.00000E+000,28
1289,1287,3.47653E+001,-2.29912E+000,8.65090E-002,1.13521E+001,4.29190E-002,3.94326E-002,1.13522E+001,2.25234E-002,3.99398E-001,0,1.68484E+002,-8.60200E-001,9.97683E-001,1.41287E+002,-2.76029E+001,9.94763E-001,1.72965E-001,-6.97560E-002,6.38697E-004,1.72966E-001,-6.97577E-002,1.50767E-001,1.74041E-001,1.18886E+000,-7.08479E-003,0.00000E+000,7.28732E-003,9.34210E-001,0.00000E+000,-9.77809E-003,-5.88372E-002,1.00000E+000,28
1289,1297,3.47622E+001,-1.70217E+000,-7.33495E-003,1.13423E+001,-4.30410E-003,-1.16678E-002,1.13423E+001,2.52880E-002,3.25129E-001,0,1.68571E+002,-1.52604E+000,9.97815E-001,1.41162E+002,-2.81454E+001,9.95560E-001,1.74524E-001,-6.97318E-002,1.35369E-003,1.74532E-001,-6.97393E-002,3.17525E-001,1.75701E-001,1.19069E+000,-7.06600E-003,0.00000E+000,8.46063E-003,9.34222E-001,0.00000E+000,-7.03423E-003,-5.88091E-002,1.00000E+000,28
1289,1307,3.47702E+001,-1.10838E+000,-8.23521E-002,1.13440E+001,-5.95284E-002,-4.24391E-002,1.13442E+001,1.52152E-002,4.36976E-001,0,1.68742E+002,-2.37192E+000,9.99064E-001,1.41230E+002,-2.86829E+001,9.97227E-001,1.76085E-001,-6.97074E-002,2.07344E-003,1.76102E-001,-6.97249E-002,4.83286E-001,1.77369E-001,1.19253E+000,-7.04791E-003,0.00000E+000,9.64290E-003,9.34234E-001,0.00000E+000,-4.26941E-003,-5.87820E-002,1.00000E+000,28
559,1327,-2.19040E+001,-6.26913E-001,1.30782E-001,2.24011E+000,-4.68979E-001,1.25380E-001,2.29211E+000,2.88914E-002,7.90135E-001,0,3.49303E+001,-7.95245E+000,9.99353E-001,-5.00113E+000,-4.89061E+001,9.98336E-001,1.52140E-001,-6.33552E-002,9.30068E-004,1.52144E-001,-6.33592E-002,2.47280E-001,1.52851E-001,1.16379E+000,3.52371E-002,0.00000E+000,-2.65882E-002,9.40094E-001,0.00000E+000,-4.90607E-005,-6.30003E-002,1.00000E+000,28
559,1337,-2.18826E+001,-2.64405E-002,8.48606E-002,2.25398E+000,-5.00669E-001,9.21078E-002,2.31075E+000,8.52649E-003,6.53563E-001,0,3.52366E+001,-8.35361E+000,9.99397E-001,-4.65454E+000,-4.96613E+001,9.99174E-001,1.49542E-001,-6.33656E-002,1.24444E-003,1.49549E-001,-6.33729E-002,3.34876E-001,1.50128E-001,1.16078E+000,3.52023E-002,0.00000E+000,-2.59567E-002,9.40102E-001,0.00000E+000,-1.45384E-003,-6.30166E-002,1.00000E+000,28
559,1347,-2.18552E+001,5.74313E-001,5.04256E-002,2.27182E+000,-5.34784E-001,5.87934E-002,2.33466E+000,1.30121E-002,6.37058E-001,0,3.56046E+001,-8.84016E+000,9.98283E-001,-4.18514E+000,-5.03773E+001,9.97820E-001,1.46928E-001,-6.33743E-002,1.55632E-003,1.46940E-001,-6.33859E-002,4.23980E-001,1.47400E-001,1.15775E+000,3.51590E-002,0.00000E+000,-2.53236E-002,9.40111E-001,0.00000E+000,-2.86227E-003,-6.30367E-002,1.00000E+000,28
559,1357,-2.18147E+001,1.17473E+000,4.41277E-002,2.29868E+000,-5.73948E-001,2.76802E-002,2.36941E+000,1.15229E-002,6.35812E-001,0,3.61069E+001,-9.40800E+000,9.98213E-001,-3.43041E+000,-5.11519E+001,9.98204E-001,1.44295E-001,-6.33793E-002,1.86149E-003,1.44312E-001,-6.33960E-002,5.13515E-001,1.44666E-001,1.15472E+000,3.50966E-002,0.00000E+000,-2.46881E-002,9.40124E-001,0.00000E+000,-4.27585E-003,-6.30658E-002,1.00000E+000,28
559,1317,-2.19377E+001,-1.19297E+000,2.47950E-001,2.20579E+000,-4.07528E-001,1.78058E-001,2.25017E+000,2.84177E-002,6.94396E-001,0,3.42420E+001,-7.04919E+000,9.98798E-001,-5.30830E+000,-4.78921E+001,9.97850E-001,1.54729E-001,-6.33372E-002,5.99928E-004,1.54731E-001,-6.33389E-002,1.57626E-001,1.55576E-001,1.16681E+000,3.52339E-002,0.00000E+000,-2.72199E-002,9.40095E-001,0.00000E+000,1.35601E-003,-6.30018E-002,1.00000E+000,28
1299,1327,3.56040E+001,1.23667E-001,-1.29529E-001,1.14684E+001,-1.39458E-001,-1.01762E-001,1.14697E+001,2.21429E-002,4.31892E-001,0,1.70678E+002,-3.62119E+000,9.96985E-001,1.44303E+002,-2.93088E+001,9.95737E-001,1.78960E-001,-6.81712E-002,4.01637E-003,1.79025E-001,-6.82365E-002,9.30842E-001,1.80703E-001,1.19598E+000,-4.83392E-003,0.00000E+000,1.12612E-002,9.35494E-001,0.00000E+000,1.70219E-003,-5.56312E-002,1.00000E+000,28
1299,1337,3.56530E+001,7.36297E-001,-1.06025E-001,1.14810E+001,-1.90385E-001,-1.43208E-001,1.14835E+001,2.01162E-002,4.49585E-001,0,1.71013E+002,-4.36249E+000,9.96892E-001,1.45119E+002,-2.98156E+001,9.95557E-001,1.80768E-001,-6.80738E-002,4.84259E-003,1.80862E-001,-6.81680E-002,1.11444E+000,1.82680E-001,1.19817E+000,-4.71389E-003,0.00000E+000,1.25724E-002,9.35566E-001,0.00000E+000,4.61517E-003,-5.54711E-002,1.00000E+000,28
1299,1287,3.55649E+001,-2.28974E+000,9.17787E-002,1.14799E+001,4.34800E-002,3.50022E-002,1.14801E+001,1.59509E-002,4.74900E-001,0,1.70253E+002,-8.68802E-001,9.98203E-001,1.43831E+002,-2.73399E+001,9.96554E-001,1.71697E-001,-6.83290E-002,8.73498E-004,1.71701E-001,-6.83322E-002,2.08506E-001,1.72888E-001,1.18736E+000,-5.00156E-003,0.00000E+000,6.08588E-003,9.35393E-001,0.00000E+000,-9.79516E-003,-5.58548E-002,1.00000E+000,28
1299,1297,3.55700E+001,-1.69678E+000,1.35135E-002,1.14798E+001,-7.48685E-003,4.85833E-003,1.14798E+001,1.59346E-002,4.39783E-001,0,1.70395E+002,-1.65300E+000,9.99045E-001,1.43851E+002,-2.79562E+001,9.97085E-001,1.73523E-001,-6.83085E-002,1.64581E-003,1.73534E-001,-6.83197E-002,3.89909E-001,1.74836E-001,1.18951E+000,-4.98421E-003,0.00000E+000,7.37301E-003,9.35403E-001,0.00000E+000,-6.93569E-003,-5.58317E-002,1.00000E+000,28
1299,1307,3.55879E+001,-1.08990E+000,-4.42065E-002,1.14871E+001,-5.01648E-002,-2.40027E-002,1.14872E+001,3.12431E-002,4.93869E-001,0,1.70630E+002,-2.31406E+000,9.98521E-001,1.44094E+002,-2.83541E+001,9.97190E-001,1.75347E-001,-6.82744E-002,2.43023E-003,1.75372E-001,-6.82986E-002,5.71475E-001,1.76795E-001,1.19166E+000,-4.94912E-003,0.00000E+000,8.66879E-003,9.35425E-001,0.00000E+000,-4.05698E-003,-5.57849E-002,1.00000E+000,28
1299,1317,3.55969E+001,-4.85459E-001,-1.02511E-001,1.14806E+001,-9.66623E-002,-7.13388E-002,1.14813E+001,2.77628E-002,4.82209E-001,0,1.70737E+002,-2.97867E+000,9.97364E-001,1.44196E+002,-2.88232E+001,9.95364E-001,1.77160E-001,-6.82279E-002,3.22097E-003,1.77202E-001,-6.82701E-002,7.51894E-001,1.78751E-001,1.19382E+000,-4.89797E-003,0.00000E+000,9.96495E-003,9.35455E-001,0.00000E+000,-1.17746E-003,-5.57166E-002,1.00000E+000,28
559,1307,-2.19661E+001,-1.77540E+000,3.63817E-001,2.17488E+000,-3.63590E-001,2.18388E-001,2.21585E+000,1.38104E-002,6.69791E-001,0,3.36425E+001,-6.43557E+000,9.97673E-001,-5.54505E+000,-4.70882E+001,9.96834E-001,1.57309E-001,-6.33177E-002,2.66899E-004,1.57309E-001,-6.33180E-002,6.93124E-002,1.58303E-001,1.16983E+000,3.52228E-002,0.00000E+000,-2.78514E-002,9.40097E-001,0.00000E+000,2.76079E-003,-6.30070E-002,1.00000E+000,28
549,1347,-2.25857E+001,5.91141E-001,5.12183E-002,2.17809E+000,-5.13587E-001,5.83835E-002,2.23858E+000,1.17109E-002,6.75479E-001,0,3.41528E+001,-8.49649E+000,9.98037E-001,-5.29579E+000,-5.02099E+001,9.97680E-001,1.46516E-001,-6.30954E-002,2.01664E-003,1.46535E-001,-6.31148E-002,5.51167E-001,1.47004E-001,1.15717E+000,3.84344E-002,0.00000E+000,-2.71465E-002,9.40249E-001,0.00000E+000,-2.56298E-003,-6.17477E-002,1.00000E+000,28
549,1357,-2.25452E+001,1.19992E+000,4.89672E-002,2.20417E+000,-5.45202E-001,2.60343E-002,2.27074E+000,1.27152E-002,6.47257E-001,0,3.46438E+001,-8.92528E+000,9.98052E-001,-4.52634E+000,-5.08809E+001,9.97941E-001,1.43997E-001,-6.31011E-002,2.31606E-003,1.44022E-001,-6.31270E-002,6.40655E-001,1.44387E-001,1.15427E+000,3.83719E-002,0.00000E+000,-2.65249E-002,9.40262E-001,0.00000E+000,-4.01151E-003,-6.17789E-002,1.00000E+000,28
549,1327,-2.26641E+001,-6.00497E-001,1.62713E-001,2.11480E+000,-4.38181E-001,1.45093E-001,2.16458E+000,2.32338E-002,7.53937E-001,0,3.29296E+001,-7.49254E+000,9.98198E-001,-6.46706E+000,-4.86956E+001,9.96468E-001,1.51505E-001,-6.30721E-002,1.39639E-003,1.51514E-001,-6.30812E-002,3.72839E-001,1.52219E-001,1.16295E+000,3.85004E-002,0.00000E+000,-2.83840E-002,9.40235E-001,0.00000E+000,3.20883E-004,-6.17147E-002,1.00000E+000,28
549,1337,-2.26183E+001,-7.18261E-003,8.81467E-002,2.15454E+000,-4.75130E-001,9.21571E-002,2.20823E+000,9.16355E-003,6.62457E-001,0,3.36933E+001,-7.96507E+000,9.98896E-001,-5.83843E+000,-4.94755E+001,9.98921E-001,1.49024E-001,-6.30850E-002,1.70793E-003,1.49038E-001,-6.30988E-002,4.61313E-001,1.49620E-001,1.16007E+000,3.84740E-002,0.00000E+000,-2.77676E-002,9.40240E-001,0.00000E+000,-1.11560E-003,-6.17279E-002,1.00000E+000,28
1309,1317,3.63799E+001,-4.84196E-001,-1.26982E-001,1.15971E+001,-9.91984E-002,-8.39981E-002,1.15978E+001,2.25545E-002,4.49663E-001,0,1.72383E+002,-3.00550E+000,9.97015E-001,1.46451E+002,-2.86735E+001,9.95410E-001,1.77110E-001,-6.70202E-002,3.78858E-003,1.77169E-001,-6.70790E-002,8.88870E-001,1.78901E-001,1.19378E+000,-2.06094E-003,0.00000E+000,8.81195E-003,9.36444E-001,0.00000E+000,-8.78552E-004,-5.25927E-002,1.00000E+000,28
1309,1327,3.64060E+001,1.30752E-001,-1.44209E-001,1.16010E+001,-1.38146E-001,-1.14368E-001,1.16024E+001,2.62917E-002,4.16521E-001,0,1.72556E+002,-3.59561E+000,9.96418E-001,1.46865E+002,-2.90773E+001,9.94437E-001,1.79210E-001,-6.69639E-002,4.54241E-003,1.79294E-001,-6.70477E-002,1.05674E+000,1.81183E-001,1.19629E+000,-1.97549E-003,0.00000E+000,1.00217E-002,9.36485E-001,0.00000E+000,2.10085E-003,-5.24916E-002,1.00000E+000,28
1309,1337,3.64510E+001,7.49105E-001,-1.14959E-001,1.16108E+001,-1.82684E-001,-1.45198E-001,1.16132E+001,2.57996E-002,4.37977E-001,0,1.72803E+002,-4.26775E+000,9.97565E-001,1.47624E+002,-2.95047E+001,9.96646E-001,1.81314E-001,-6.68783E-002,5.32212E-003,1.81428E-001,-6.69924E-002,1.22787E+000,1.83484E-001,1.19883E+000,-1.84001E-003,0.00000E+000,1.12422E-002,9.36550E-001,0.00000E+000,5.10689E-003,-5.23313E-002,1.00000E+000,28
549,1317,-2.26797E+001,-1.17829E+000,2.62612E-001,2.09967E+000,-3.89096E-001,1.87862E-001,2.14366E+000,1.97870E-002,7.62928E-001,0,3.25722E+001,-6.79411E+000,9.98658E-001,-6.55384E+000,-4.77676E+001,9.97583E-001,1.53976E-001,-6.30543E-002,1.07487E-003,1.53981E-001,-6.30596E-002,2.83754E-001,1.54819E-001,1.16583E+000,3.85023E-002,0.00000E+000,-2.90003E-002,9.40234E-001,0.00000E+000,1.75717E-003,-6.17138E-002,1.00000E+000,28
549,1307,-2.27037E+001,-1.76042E+000,3.54006E-001,2.07411E+000,-3.44230E-001,2.09353E-001,2.11288E+000,1.39364E-002,6.95295E-001,0,3.21060E+001,-6.10404E+000,9.97976E-001,-6.79501E+000,-4.69265E+001,9.97446E-001,1.56444E-001,-6.30346E-002,7.49441E-004,1.56446E-001,-6.30372E-002,1.95642E-001,1.57426E-001,1.16871E+000,3.84957E-002,0.00000E+000,-2.96179E-002,9.40236E-001,0.00000E+000,3.19645E-003,-6.17171E-002,1.00000E+000,28
1309,1287,3.63632E+001,-2.28779E+000,8.68851E-002,1.16051E+001,3.96131E-002,1.70874E-002,1.16052E+001,1.40211E-002,4.63206E-001,0,1.72038E+002,-9.26976E-001,9.98447E-001,1.46347E+002,-2.72150E+001,9.96450E-001,1.70755E-001,-6.70923E-002,1.60004E-003,1.70766E-001,-6.71030E-002,3.85416E-001,1.72065E-001,1.18626E+000,-2.15625E-003,0.00000E+000,5.19951E-003,9.36398E-001,0.00000E+000,-9.77554E-003,-5.27055E-002,1.00000E+000,28
1309,1297,3.63651E+001,-1.69927E+000,-1.69177E-003,1.16035E+001,-1.74927E-002,-1.66359E-002,1.16035E+001,1.94489E-002,4.57443E-001,0,1.72180E+002,-1.77522E+000,9.98030E-001,1.46306E+002,-2.78624E+001,9.96017E-001,1.72885E-001,-6.70795E-002,2.32165E-003,1.72908E-001,-6.71020E-002,5.54265E-001,1.74346E-001,1.18876E+000,-2.14270E-003,0.00000E+000,6.40240E-003,9.36404E-001,0.00000E+000,-6.81299E-003,-5.26895E-002,1.00000E+000,28
1309,1307,3.63654E+001,-1.08878E+000,-8.92761E-002,1.15989E+001,-5.10160E-002,-5.46228E-002,1.15992E+001,2.13557E-002,3.94064E-001,0,1.72285E+002,-2.26198E+000,9.97955E-001,1.46242E+002,-2.81980E+001,9.97204E-001,1.74995E-001,-6.70629E-002,3.04295E-003,1.75033E-001,-6.71012E-002,7.20121E-001,1.76614E-001,1.19126E+000,-2.12387E-003,0.00000E+000,7.60165E-003,9.36413E-001,0.00000E+000,-3.85938E-003,-5.26672E-002,1.00000E+000,28
539,1347,-2.33212E+001,6.11345E-001,5.27877E-002,2.07874E+000,-4.87650E-001,5.76625E-002,2.13595E+000,1.05723E-002,6.59641E-001,0,3.26106E+001,-8.07298E+000,9.98297E-001,-6.47500E+000,-5.00207E+001,9.98357E-001,1.46177E-001,-6.26618E-002,2.18235E-003,1.46200E-001,-6.26846E-002,5.98650E-001,1.46693E-001,1.15668E+000,4.13178E-002,0.00000E+000,-2.92105E-002,9.40517E-001,0.00000E+000,-2.33421E-003,-6.03780E-002,1.00000E+000,28
539,1357,-2.32799E+001,1.22257E+000,4.51132E-002,2.10674E+000,-5.16131E-001,2.58744E-002,2.16919E+000,1.01075E-002,6.39966E-001,0,3.31298E+001,-8.45195E+000,9.98735E-001,-5.70772E+000,-5.06400E+001,9.98618E-001,1.43841E-001,-6.26686E-002,2.44160E-003,1.43870E-001,-6.26975E-002,6.77291E-001,1.44265E-001,1.15399E+000,4.12644E-002,0.00000E+000,-2.86711E-002,9.40528E-001,0.00000E+000,-3.82729E-003,-6.04076E-002,1.00000E+000,28
539,1327,-2.33891E+001,-5.78071E-001,1.43101E-001,2.02633E+000,-4.08245E-001,1.25941E-001,2.07088E+000,1.23860E-002,6.35917E-001,0,3.16055E+001,-6.94288E+000,9.96538E-001,-7.54839E+000,-4.84725E+001,9.96681E-001,1.50809E-001,-6.26400E-002,1.64729E-003,1.50821E-001,-6.26527E-002,4.42145E-001,1.51539E-001,1.16204E+000,4.13800E-002,0.00000E+000,-3.02859E-002,9.40505E-001,0.00000E+000,6.42647E-004,-6.03434E-002,1.00000E+000,28
539,1337,-2.33547E+001,1.68067E-002,8.70629E-002,2.05418E+000,-4.45683E-001,8.84156E-002,2.10383E+000,1.11004E-002,6.43794E-001,0,3.21425E+001,-7.47805E+000,9.97852E-001,-7.03804E+000,-4.92220E+001,9.98017E-001,1.48502E-001,-6.26518E-002,1.91612E-003,1.48519E-001,-6.26692E-002,5.19876E-001,1.49121E-001,1.15937E+000,4.13538E-002,0.00000E+000,-2.97494E-002,9.40510E-001,0.00000E+000,-8.42526E-004,-6.03580E-002,1.00000E+000,28
1319,1297,3.71419E+001,-1.69099E+000,-2.79576E-002,1.17134E+001,-1.13603E-002,-3.14922E-002,1.17134E+001,1.68732E-002,3.48254E-001,0,1.73731E+002,-1.64583E+000,9.98276E-001,1.48468E+002,-2.76427E+001,9.96789E-001,1.72410E-001,-6.57352E-002,3.24109E-003,1.72454E-001,-6.57793E-002,7.79586E-001,1.74063E-001,1.18821E+000,1.47192E-003,0.00000E+000,5.29306E-003,9.37488E-001,0.00000E+000,-7.11684E-003,-4.87142E-002,1.00000E+000,28
1319,1307,3.71536E+001,-1.08936E+000,-1.00781E-001,1.17169E+001,-5.65524E-002,-6.63591E-002,1.17173E+001,2.06517E-002,3.34820E-001,0,1.73943E+002,-2.32877E+000,9.97987E-001,1.48599E+002,-2.81201E+001,9.97498E-001,1.74860E-001,-6.57148E-002,3.96006E-003,1.74925E-001,-6.57800E-002,9.42797E-001,1.76708E-001,1.19110E+000,1.50840E-003,0.00000E+000,6.47562E-003,9.37502E-001,0.00000E+000,-3.77639E-003,-4.86721E-002,1.00000E+000,28
539,1307,-2.34419E+001,-1.74809E+000,3.40352E-001,1.97184E+000,-3.25907E-001,1.93268E-001,2.00792E+000,9.59210E-003,6.49881E-001,0,3.05613E+001,-5.76925E+000,9.98414E-001,-8.06194E+000,-4.68333E+001,9.98201E-001,1.55385E-001,-6.26057E-002,1.08721E-003,1.55390E-001,-6.26111E-002,2.85747E-001,1.56364E-001,1.16738E+000,4.13735E-002,0.00000E+000,-3.13560E-002,9.40506E-001,0.00000E+000,3.60471E-003,-6.03470E-002,1.00000E+000,28
539,1317,-2.34168E+001,-1.17051E+000,2.33525E-001,1.99936E+000,-3.73121E-001,1.61194E-001,2.04025E+000,1.13756E-002,6.54925E-001,0,3.10858E+001,-6.46111E+000,9.97581E-001,-7.85171E+000,-4.77443E+001,9.97118E-001,1.53102E-001,-6.26240E-002,1.36948E-003,1.53111E-001,-6.26327E-002,3.63707E-001,1.53953E-001,1.16471E+000,4.13830E-002,0.00000E+000,-3.08214E-002,9.40504E-001,0.00000E+000,2.12476E-003,-6.03418E-002,1.00000E+000,28
1319,1287,3.71486E+001,-2.29405E+000,6.30618E-002,1.17211E+001,2.85452E-002,-3.96143E-003,1.17212E+001,1.71763E-002,4.28617E-001,0,1.73710E+002,-1.05800E+000,9.98008E-001,1.48645E+002,-2.71908E+001,9.97342E-001,1.69951E-001,-6.57394E-002,2.53720E-003,1.69978E-001,-6.57667E-002,6.16694E-001,1.71421E-001,1.18532E+000,1.46696E-003,0.00000E+000,4.11430E-003,9.37486E-001,0.00000E+000,-1.04465E-002,-4.87199E-002,1.00000E+000,28
529,1327,-2.41220E+001,-5.60518E-001,1.46851E-001,1.92857E+000,-3.85373E-001,1.24660E-001,1.97064E+000,1.11596E-002,6.33586E-001,0,3.00891E+001,-6.57997E+000,9.96404E-001,-8.67768E+000,-4.83176E+001,9.96338E-001,1.50251E-001,-6.17048E-002,1.97840E-003,1.50269E-001,-6.17233E-002,5.34739E-001,1.51065E-001,1.16132E+000,4.33339E-002,0.00000E+000,-3.13259E-002,9.41271E-001,0.00000E+000,1.35677E-003,-5.88560E-002,1.00000E+000,28
529,1307,-2.41757E+001,-1.72943E+000,3.42072E-001,1.87268E+000,-3.02631E-001,1.86484E-001,1.90612E+000,1.30254E-002,6.22583E-001,0,2.90376E+001,-5.37840E+000,9.98574E-001,-9.20777E+000,-4.66657E+001,9.98198E-001,1.54196E-001,-6.16963E-002,1.79191E-003,1.54211E-001,-6.17111E-002,4.75513E-001,1.55232E-001,1.16592E+000,4.33262E-002,0.00000E+000,-3.17148E-002,9.41272E-001,0.00000E+000,4.62024E-003,-5.88614E-002,1.00000E+000,28
529,1317,-2.41509E+001,-1.15030E+000,2.31533E-001,1.90123E+000,-3.47269E-001,1.59896E-001,1.93929E+000,1.07653E-002,6.04171E-001,0,2.95641E+001,-6.02228E+000,9.98419E-001,-9.01559E+000,-4.75589E+001,9.98033E-001,1.52228E-001,-6.17010E-002,1.88895E-003,1.52245E-001,-6.17177E-002,5.05855E-001,1.53151E-001,1.16362E+000,4.33394E-002,0.00000E+000,-3.15205E-002,9.41271E-001,0.00000E+000,2.98957E-003,-5.88521E-002,1.00000E+000,28
