Coordinates.Image X [Pixel],Coordinates.Image Y [Pixel],coor.X [mm],coor.Y [mm],coor.Z [mm],disp.Horizontal Displacement U [mm],disp.Vertical Displacement V [mm],disp.Out-Of-Plane: W [mm],disp.Displacement Magnitude [mm],stats.Sigma [mm],stats.Epipolar Distance [Pixel],stats.Shape Index [-],SameCamera.Horizontal: u [Pixel],SameCamera.Vertical: v [Pixel],SameCamera.Correlation Value 2D [-],CrossCamera.Horizontal: q [Pixel],CrossCamera.Vertical: r [Pixel],CrossCamera.Correlation Value Persp [-],strain.Strain-global frame: Exx [ ],strain.Strain-global frame: Eyy [ ],strain.Strain-global frame: Exy [ ],strain.Maximum Principal Strain: EI [ ],strain.Minimum Principal Strain: EII [ ],strain.Shear Angle Gamma [deg],strain.Von Mises Equivalent Strain [ ],defgradient.F[0,0] [-],defgradient.F[0,1] [-],defgradient.F[0,2] [-],defgradient.F[1,0] [-],defgradient.F[1,1] [-],defgradient.F[1,2] [-],defgradient.F[2,0] [-],defgradient.F[2,1] [-],defgradient.F[2,2] [-],ext.Current Image [#]
929,1317,1.52710E-001,-6.92615E-001,-7.08310E-002,4.88780E-001,-7.62561E-002,1.58897E-002,4.94948E-001,5.01306E-003,5.11629E-001,0,7.47017E+000,-1.28205E+000,9.99919E-001,-3.74177E+001,-3.65707E+001,9.99248E-001,1.34921E-002,-5.77273E-003,2.87732E-004,1.34964E-002,-5.77702E-003,8.55494E-001,1.35429E-002,1.01359E+000,-4.79268E-003,0.00000E+000,5.46416E-003,9.94672E-001,0.00000E+000,-6.50092E-003,-2.98304E-002,1.00000E+000,2
919,1307,-5.19956E-001,-1.34119E+000,-5.22689E-002,4.82665E-001,-7.55562E-002,3.92484E-002,4.90117E-001,7.42049E-003,5.27903E-001,0,7.30594E+000,-1.32040E+000,9.99908E-001,-3.78695E+001,-3.67068E+001,9.97365E-001,1.38962E-002,-5.66036E-003,2.37094E-004,1.38990E-002,-5.66324E-003,6.94490E-001,1.39782E-002,1.01400E+000,-4.26480E-003,0.00000E+000,4.83076E-003,9.94800E-001,0.00000E+000,-5.94578E-003,-3.02665E-002,1.00000E+000,2
919,1317,-5.20346E-001,-7.10481E-001,-1.21322E-001,4.79463E-001,-7.98438E-002,2.11062E-002,4.86524E-001,7.23324E-003,4.87217E-001,0,7.31740E+000,-1.34647E+000,9.99913E-001,-3.79204E+001,-3.68402E+001,9.97498E-001,1.34821E-002,-5.66185E-003,1.49340E-004,1.34833E-002,-5.66302E-003,4.46920E-001,1.35407E-002,1.01358E+000,-4.26661E-003,0.00000E+000,4.64026E-003,9.94799E-001,0.00000E+000,-5.29911E-003,-3.02637E-002,1.00000E+000,2
919,1327,-5.05442E-001,-6.71727E-002,-1.26445E-001,4.77243E-001,-8.36044E-002,8.52203E-004,4.84511E-001,6.80819E-003,5.52383E-001,0,7.34946E+000,-1.37433E+000,9.99918E-001,-3.75867E+001,-3.68637E+001,9.98070E-001,1.30606E-002,-5.66725E-003,5.54159E-005,1.30608E-002,-5.66742E-003,1.69537E-001,1.30987E-002,1.01315E+000,-4.27806E-003,0.00000E+000,4.44655E-003,9.94794E-001,0.00000E+000,-4.64160E-003,-3.02462E-002,1.00000E+000,2
929,1307,1.48849E-001,-1.32610E+000,-2.06927E-002,4.92101E-001,-7.14609E-002,3.50071E-002,4.98493E-001,4.59126E-003,5.38577E-001,0,7.45711E+000,-1.24580E+000,9.99948E-001,-3.74759E+001,-3.64477E+001,9.99411E-001,1.39182E-002,-5.77106E-003,3.42906E-004,1.39242E-002,-5.77703E-003,9.97453E-001,1.39913E-002,1.01403E+000,-4.78782E-003,0.00000E+000,5.59032E-003,9.94674E-001,0.00000E+000,-7.28048E-003,-2.98390E-002,1.00000E+000,2
929,1327,1.63350E-001,-5.38246E-002,-9.25718E-002,4.85983E-001,-7.98086E-002,-3.67182E-003,4.92506E-001,4.08328E-003,4.93579E-001,0,7.49178E+000,-1.30550E+000,9.99933E-001,-3.71894E+001,-3.66694E+001,9.99560E-001,1.30629E-002,-5.77543E-003,2.30129E-004,1.30657E-002,-5.77825E-003,6.99783E-001,1.30948E-002,1.01315E+000,-4.80193E-003,0.00000E+000,5.33733E-003,9.94670E-001,0.00000E+000,-5.71727E-003,-2.98139E-002,1.00000E+000,2
939,1307,8.12716E-001,-1.31497E+000,-1.72854E-002,5.01633E-001,-6.72372E-002,2.80215E-002,5.06894E-001,5.53344E-003,5.44334E-001,0,7.61917E+000,-1.16866E+000,9.99939E-001,-3.72203E+001,-3.61930E+001,9.99354E-001,1.39797E-002,-5.66688E-003,4.98263E-004,1.39923E-002,-5.67951E-003,1.45185E+000,1.40747E-002,1.01410E+000,-5.24053E-003,0.00000E+000,6.36669E-003,9.94757E-001,0.00000E+000,-8.21066E-003,-2.93076E-002,1.00000E+000,2
939,1317,8.17388E-001,-6.81745E-001,-6.39927E-002,4.98322E-001,-7.22323E-002,8.91219E-003,5.03609E-001,5.96012E-003,4.81956E-001,0,7.63282E+000,-1.20240E+000,9.99926E-001,-3.71422E+001,-3.63435E+001,9.98903E-001,1.35714E-002,-5.66898E-003,4.36307E-004,1.35813E-002,-5.67887E-003,1.29838E+000,1.36419E-002,1.01368E+000,-5.24573E-003,0.00000E+000,6.22666E-003,9.94756E-001,0.00000E+000,-7.39100E-003,-2.92975E-002,1.00000E+000,2
939,1327,8.28621E-001,-4.00771E-002,-7.95370E-002,4.94461E-001,-7.61767E-002,-1.12503E-002,5.00421E-001,3.43938E-003,5.10334E-001,0,7.64058E+000,-1.22212E+000,9.99930E-001,-3.68917E+001,-3.63865E+001,9.99527E-001,1.31581E-002,-5.67242E-003,3.71374E-004,1.31654E-002,-5.67974E-003,1.12940E+000,1.32066E-002,1.01325E+000,-5.25576E-003,0.00000E+000,6.08519E-003,9.94752E-001,0.00000E+000,-6.56289E-003,-2.92779E-002,1.00000E+000,2
919,1337,-4.85596E-001,5.78074E-001,-1.11360E-001,4.75044E-001,-8.69504E-002,-2.22649E-002,4.83449E-001,5.02601E-003,5.15268E-001,0,7.39080E+000,-1.37002E+000,9.99872E-001,-3.71294E+001,-3.69552E+001,9.98964E-001,1.26378E-002,-5.67399E-003,-4.02904E-005,1.26379E-002,-5.67408E-003,-1.26064E-001,1.26598E-002,1.01272E+000,-4.29281E-003,0.00000E+000,4.25254E-003,9.94788E-001,0.00000E+000,-3.98304E-003,-3.02237E-002,1.00000E+000,2
929,1337,1.79694E-001,5.90537E-001,-9.06766E-002,4.82716E-001,-8.33978E-002,-2.78835E-002,4.90660E-001,4.19374E-003,4.86819E-001,0,7.52110E+000,-1.30463E+000,9.99947E-001,-3.68184E+001,-3.67300E+001,9.99593E-001,1.26297E-002,-5.77917E-003,1.69982E-004,1.26313E-002,-5.78074E-003,5.28992E-001,1.26464E-002,1.01271E+000,-4.81551E-003,0.00000E+000,5.20954E-003,9.94666E-001,0.00000E+000,-4.92763E-003,-2.97897E-002,1.00000E+000,2
939,1337,8.44119E-001,6.04173E-001,-7.76429E-002,4.91207E-001,-7.88582E-002,-3.08821E-002,4.98455E-001,3.31990E-003,5.02986E-001,0,7.65515E+000,-1.22640E+000,9.99949E-001,-3.65353E+001,-3.64480E+001,9.99659E-001,1.27433E-002,-5.67654E-003,3.05120E-004,1.27484E-002,-5.68160E-003,9.48740E-001,1.27734E-002,1.01283E+000,-5.26828E-003,0.00000E+000,5.94353E-003,9.94748E-001,0.00000E+000,-5.73364E-003,-2.92535E-002,1.00000E+000,2
949,1317,1.48277E+000,-6.66780E-001,-4.82004E-002,5.06752E-001,-6.68314E-002,5.06855E-003,5.11165E-001,6.07045E-003,5.09454E-001,0,7.76743E+000,-1.10796E+000,9.99935E-001,-3.68322E+001,-3.60438E+001,9.99013E-001,1.36449E-002,-5.62373E-003,5.39326E-004,1.36600E-002,-5.63881E-003,1.60203E+000,1.37291E-002,1.01375E+000,-5.66516E-003,0.00000E+000,6.85864E-003,9.94780E-001,0.00000E+000,-8.09572E-003,-2.87092E-002,1.00000E+000,2
949,1327,1.49337E+000,-2.66745E-002,-6.68815E-002,5.03345E-001,-7.04322E-002,-1.29199E-002,5.08413E-001,5.23574E-003,4.85752E-001,0,7.77533E+000,-1.12266E+000,9.99922E-001,-3.65995E+001,-3.61290E+001,9.99437E-001,1.32696E-002,-5.62662E-003,4.82476E-004,1.32819E-002,-5.63893E-003,1.46166E+000,1.33322E-002,1.01337E+000,-5.67368E-003,0.00000E+000,6.72991E-003,9.94777E-001,0.00000E+000,-7.18823E-003,-2.86892E-002,1.00000E+000,2
949,1337,1.50828E+000,6.16614E-001,-7.03405E-002,4.99991E-001,-7.41272E-002,-3.49408E-002,5.06662E-001,5.25090E-003,5.00232E-001,0,7.79712E+000,-1.14466E+000,9.99894E-001,-3.62662E+001,-3.61813E+001,9.99200E-001,1.28916E-002,-5.63022E-003,4.24081E-004,1.29013E-002,-5.63993E-003,1.31095E+000,1.29352E-002,1.01298E+000,-5.68485E-003,0.00000E+000,6.60062E-003,9.94773E-001,0.00000E+000,-6.27682E-003,-2.86630E-002,1.00000E+000,2
949,1307,1.47869E+000,-1.30237E+000,-4.33997E-003,5.10357E-001,-6.34029E-002,1.95526E-002,5.14652E-001,4.91831E-003,5.62758E-001,0,7.77380E+000,-1.09630E+000,9.99937E-001,-3.69073E+001,-3.59295E+001,9.99308E-001,1.40171E-002,-5.62188E-003,5.93919E-004,1.40350E-002,-5.63983E-003,1.73062E+000,1.41249E-002,1.01414E+000,-5.66060E-003,0.00000E+000,6.98658E-003,9.94781E-001,0.00000E+000,-8.99763E-003,-2.87198E-002,1.00000E+000,2
909,1317,-1.17976E+000,-7.21578E-001,-1.23947E-001,4.71762E-001,-8.31356E-002,2.07895E-002,4.79482E-001,6.99427E-003,4.44021E-001,0,7.20643E+000,-1.40334E+000,9.99914E-001,-3.80988E+001,-3.71160E+001,9.97261E-001,1.35341E-002,-5.68094E-003,-1.47137E-005,1.35341E-002,-5.68095E-003,-4.38735E-002,1.35921E-002,1.01363E+000,-3.72176E-003,0.00000E+000,3.74195E-003,9.94793E-001,0.00000E+000,-4.01395E-003,-3.05718E-002,1.00000E+000,2
909,1327,-1.16502E+000,-7.72675E-002,-1.30975E-001,4.69872E-001,-8.64379E-002,3.99403E-004,4.77756E-001,5.63114E-003,5.06352E-001,0,7.24352E+000,-1.40634E+000,9.99896E-001,-3.77704E+001,-3.71229E+001,9.98234E-001,1.31289E-002,-5.68606E-003,-1.08036E-004,1.31295E-002,-5.68668E-003,-3.28979E-001,1.31686E-002,1.01321E+000,-3.73234E-003,0.00000E+000,3.55475E-003,9.94788E-001,0.00000E+000,-3.57284E-003,-3.05605E-002,1.00000E+000,2
909,1337,-1.14510E+000,5.70858E-001,-1.15598E-001,4.67633E-001,-8.98134E-002,-2.34026E-002,4.76754E-001,5.69146E-003,5.66444E-001,0,7.28598E+000,-1.40332E+000,9.99895E-001,-3.73096E+001,-3.71236E+001,9.99020E-001,1.27213E-002,-5.69265E-003,-2.03557E-004,1.27235E-002,-5.69490E-003,-6.33273E-001,1.27468E-002,1.01280E+000,-3.74643E-003,0.00000E+000,3.36655E-003,9.94782E-001,0.00000E+000,-3.12940E-003,-3.05454E-002,1.00000E+000,2
909,1307,-1.17882E+000,-1.35219E+000,-4.88816E-002,4.74482E-001,-7.89416E-002,4.02488E-002,4.82685E-001,7.30955E-003,4.53625E-001,0,7.18367E+000,-1.37689E+000,9.99876E-001,-3.80254E+001,-3.70077E+001,9.96882E-001,1.39317E-002,-5.67982E-003,7.24114E-005,1.39319E-002,-5.68008E-003,2.11549E-001,1.40108E-002,1.01403E+000,-3.72061E-003,0.00000E+000,3.92583E-003,9.94794E-001,0.00000E+000,-4.44721E-003,-3.05731E-002,1.00000E+000,2
919,1347,-4.62766E-001,1.22783E+000,-8.42779E-002,4.72579E-001,-8.97442E-002,-4.82943E-002,4.83443E-001,7.15385E-003,5.24343E-001,0,7.43715E+000,-1.35103E+000,9.99942E-001,-3.65980E+001,-3.69843E+001,9.99516E-001,1.22119E-002,-5.68160E-003,-1.37591E-004,1.22130E-002,-5.68266E-003,-4.40538E-001,1.22228E-002,1.01228E+000,-4.30974E-003,0.00000E+000,4.05744E-003,9.94780E-001,0.00000E+000,-3.32078E-003,-3.01978E-002,1.00000E+000,2
929,1347,2.01769E-001,1.23990E+000,-6.31523E-002,4.80010E-001,-8.55848E-002,-5.02884E-002,4.90167E-001,4.04401E-003,4.72559E-001,0,7.55217E+000,-1.28482E+000,9.99947E-001,-3.62997E+001,-3.67767E+001,9.99590E-001,1.21936E-002,-5.78376E-003,1.07782E-004,1.21943E-002,-5.78440E-003,3.43496E-001,1.21996E-002,1.01226E+000,-4.83271E-003,0.00000E+000,5.08114E-003,9.94661E-001,0.00000E+000,-4.13430E-003,-2.97590E-002,1.00000E+000,2
939,1347,8.64946E-001,1.25338E+000,-5.39818E-002,4.87561E-001,-8.13055E-002,-5.48406E-002,4.97326E-001,6.83592E-003,4.88116E-001,0,7.67757E+000,-1.20380E+000,9.99941E-001,-3.60468E+001,-3.64877E+001,9.99003E-001,1.23251E-002,-5.68175E-003,2.36557E-004,1.23282E-002,-5.68486E-003,7.52526E-001,1.23406E-002,1.01240E+000,-5.28468E-003,0.00000E+000,5.80097E-003,9.94743E-001,0.00000E+000,-4.89916E-003,-2.92215E-002,1.00000E+000,2
949,1347,1.53163E+000,1.26749E+000,-3.71332E-002,4.96821E-001,-7.72851E-002,-5.76753E-002,5.06093E-001,5.78415E-003,5.20159E-001,0,7.82332E+000,-1.13941E+000,9.99819E-001,-3.57194E+001,-3.61974E+001,9.98790E-001,1.25091E-002,-5.63521E-003,3.62634E-004,1.25163E-002,-5.64245E-003,1.14451E+000,1.25365E-002,1.01259E+000,-5.70119E-003,0.00000E+000,6.47011E-003,9.94768E-001,0.00000E+000,-5.35681E-003,-2.86248E-002,1.00000E+000,2
959,1317,2.14642E+000,-6.54739E-001,-4.41303E-002,5.14900E-001,-6.18599E-002,-1.85957E-003,5.18606E-001,4.95651E-003,5.01859E-001,0,7.90834E+000,-1.01561E+000,9.99935E-001,-3.65722E+001,-3.57819E+001,9.99449E-001,1.37291E-002,-5.58487E-003,5.76174E-004,1.37463E-002,-5.60204E-003,1.70722E+000,1.38245E-002,1.01384E+000,-6.08536E-003,0.00000E+000,7.35194E-003,9.94799E-001,0.00000E+000,-8.55544E-003,-2.81164E-002,1.00000E+000,2
959,1327,2.15556E+000,-1.53390E-002,-6.91552E-002,5.11699E-001,-6.54080E-002,-1.81175E-002,5.16180E-001,8.96655E-003,4.97099E-001,0,7.91405E+000,-1.04021E+000,9.99950E-001,-3.63776E+001,-3.58533E+001,9.99391E-001,1.33700E-002,-5.58701E-003,5.30058E-004,1.33848E-002,-5.60182E-003,1.60039E+000,1.34439E-002,1.01347E+000,-6.09254E-003,0.00000E+000,7.24271E-003,9.94796E-001,0.00000E+000,-7.60747E-003,-2.80981E-002,1.00000E+000,2
959,1337,2.17344E+000,6.29852E-001,-6.65001E-002,5.08956E-001,-6.97311E-002,-4.39462E-002,5.15587E-001,6.84129E-003,5.05563E-001,0,7.95860E+000,-1.04728E+000,9.99894E-001,-3.59858E+001,-3.58908E+001,9.99257E-001,1.30066E-002,-5.59028E-003,4.81124E-004,1.30191E-002,-5.60271E-003,1.48099E+000,1.30611E-002,1.01309E+000,-6.10473E-003,0.00000E+000,7.13252E-003,9.94793E-001,0.00000E+000,-6.65127E-003,-2.80670E-002,1.00000E+000,2
959,1307,2.14197E+000,-1.29117E+000,-3.73575E-003,5.19022E-001,-5.76507E-002,1.26949E-002,5.22368E-001,3.80758E-003,5.21607E-001,0,7.92186E+000,-9.88917E-001,9.99935E-001,-3.66599E+001,-3.56917E+001,9.99545E-001,1.40863E-002,-5.58323E-003,6.21047E-004,1.41059E-002,-5.60282E-003,1.80666E+000,1.42049E-002,1.01421E+000,-6.08046E-003,0.00000E+000,7.46087E-003,9.94800E-001,0.00000E+000,-9.50069E-003,-2.81289E-002,1.00000E+000,2
959,1347,2.19491E+000,1.27788E+000,-4.10292E-002,5.05804E-001,-7.34989E-002,-6.50488E-002,5.15239E-001,4.33288E-003,5.08948E-001,0,7.98038E+000,-1.06384E+000,9.99899E-001,-3.54878E+001,-3.59407E+001,9.99496E-001,1.26413E-002,-5.59408E-003,4.30858E-004,1.26515E-002,-5.60425E-003,1.35275E+000,1.26789E-002,1.01272E+000,-6.11932E-003,0.00000E+000,7.02203E-003,9.94789E-001,0.00000E+000,-5.69242E-003,-2.80298E-002,1.00000E+000,2
909,1347,-1.11979E+000,1.22070E+000,-7.29437E-002,4.65750E-001,-9.20177E-002,-4.38560E-002,4.76774E-001,6.80210E-003,5.30735E-001,0,7.32215E+000,-1.39221E+000,9.99930E-001,-3.67015E+001,-3.72094E+001,9.99093E-001,1.23132E-002,-5.70059E-003,-3.00680E-004,1.23182E-002,-5.70561E-003,-9.56006E-001,1.23293E-002,1.01239E+000,-3.76372E-003,0.00000E+000,3.17833E-003,9.94774E-001,0.00000E+000,-2.68590E-003,-3.05269E-002,1.00000E+000,2
899,1327,-1.81686E+000,-7.88308E-002,-9.73940E-002,4.61702E-001,-8.79468E-002,3.06455E-004,4.70004E-001,3.08065E-003,5.18122E-001,0,7.12288E+000,-1.42070E+000,9.99858E-001,-3.77412E+001,-3.73036E+001,9.99585E-001,1.32298E-002,-5.68784E-003,-2.77735E-004,1.32339E-002,-5.69192E-003,-8.40931E-001,1.32769E-002,1.01332E+000,-3.23538E-003,0.00000E+000,2.69604E-003,9.94801E-001,0.00000E+000,-2.44347E-003,-3.09451E-002,1.00000E+000,2
899,1337,-1.79964E+000,5.65132E-001,-9.88767E-002,4.60652E-001,-9.10895E-002,-2.31617E-002,4.70142E-001,5.14044E-003,5.29803E-001,0,7.18222E+000,-1.41706E+000,9.99928E-001,-3.73599E+001,-3.73583E+001,9.99739E-001,1.28309E-002,-5.69195E-003,-3.50271E-004,1.28375E-002,-5.69857E-003,-1.08296E+000,1.28644E-002,1.01291E+000,-3.24674E-003,0.00000E+000,2.55838E-003,9.94797E-001,0.00000E+000,-2.25496E-003,-3.09398E-002,1.00000E+000,2
899,1347,-1.77466E+000,1.21525E+000,-5.75681E-002,4.58610E-001,-9.32015E-002,-4.51056E-002,4.70153E-001,4.33967E-003,5.09015E-001,0,7.22031E+000,-1.40314E+000,9.99951E-001,-3.67577E+001,-3.74315E+001,9.99583E-001,1.24290E-002,-5.69782E-003,-4.25929E-004,1.24390E-002,-5.70782E-003,-1.34530E+000,1.24530E-002,1.01250E+000,-3.26349E-003,0.00000E+000,2.41976E-003,9.94791E-001,0.00000E+000,-2.06515E-003,-3.09320E-002,1.00000E+000,2
899,1317,-1.82725E+000,-7.17674E-001,-7.04332E-002,4.63968E-001,-8.34947E-002,2.28198E-002,4.71973E-001,3.67773E-003,5.17670E-001,0,7.08440E+000,-1.41095E+000,9.99882E-001,-3.79566E+001,-3.72213E+001,9.99448E-001,1.36265E-002,-5.68486E-003,-2.07255E-004,1.36287E-002,-5.68708E-003,-6.14820E-001,1.36907E-002,1.01372E+000,-3.22747E-003,0.00000E+000,2.83298E-003,9.94804E-001,0.00000E+000,-2.63099E-003,-3.09488E-002,1.00000E+000,2
899,1307,-1.83177E+000,-1.35234E+000,-2.01212E-002,4.66450E-001,-7.92228E-002,4.20969E-002,4.74999E-001,4.64136E-003,4.95421E-001,0,7.05942E+000,-1.37925E+000,9.99864E-001,-3.80257E+001,-3.71366E+001,9.98793E-001,1.40205E-002,-5.68301E-003,-1.38899E-004,1.40215E-002,-5.68399E-003,-4.03878E-001,1.41050E-002,1.01412E+000,-3.22305E-003,0.00000E+000,2.96908E-003,9.94805E-001,0.00000E+000,-2.81736E-003,-3.09508E-002,1.00000E+000,2
889,1327,-2.47325E+000,-8.38359E-002,-8.49864E-002,4.53340E-001,-8.92547E-002,1.14767E-003,4.62044E-001,2.58628E-003,5.33451E-001,0,6.99635E+000,-1.44298E+000,9.99870E-001,-3.78276E+001,-3.74902E+001,9.99771E-001,1.33546E-002,-5.50297E-003,-4.49521E-004,1.33653E-002,-5.51368E-003,-1.36477E+000,1.34333E-002,1.01344E+000,-2.75298E-003,0.00000E+000,1.84686E-003,9.95003E-001,0.00000E+000,-1.30395E-003,-3.14755E-002,1.00000E+000,2
889,1337,-2.45807E+000,5.59100E-001,-8.88036E-002,4.51519E-001,-9.17986E-002,-1.94170E-002,4.61165E-001,4.59464E-003,5.34627E-001,0,7.03388E+000,-1.44130E+000,9.99905E-001,-3.74820E+001,-3.75631E+001,9.99749E-001,1.29354E-002,-5.50381E-003,-4.70370E-004,1.29474E-002,-5.51580E-003,-1.46031E+000,1.29945E-002,1.01302E+000,-2.76407E-003,0.00000E+000,1.82488E-003,9.95003E-001,0.00000E+000,-1.54304E-003,-3.14818E-002,1.00000E+000,2
889,1347,-2.43327E+000,1.20831E+000,-4.99388E-002,4.50073E-001,-9.40785E-002,-4.11520E-002,4.61638E-001,3.65177E-003,5.10151E-001,0,7.08012E+000,-1.43052E+000,9.99922E-001,-3.68861E+001,-3.76486E+001,9.99661E-001,1.25124E-002,-5.50507E-003,-4.94273E-004,1.25259E-002,-5.51862E-003,-1.57022E+000,1.25554E-002,1.01259E+000,-2.78105E-003,0.00000E+000,1.80272E-003,9.95002E-001,0.00000E+000,-1.78415E-003,-3.14913E-002,1.00000E+000,2
969,1297,2.81077E+000,-1.91040E+000,7.10279E-002,5.33149E-001,-4.70946E-002,1.73040E-002,5.35504E-001,7.55806E-003,5.01445E-001,0,8.11322E+000,-8.34602E-001,9.99913E-001,-3.62672E+001,-3.53435E+001,9.99045E-001,1.44657E-002,-5.58860E-003,6.48579E-004,1.44867E-002,-5.60956E-003,1.85043E+000,1.46090E-002,1.01461E+000,-6.43677E-003,0.00000E+000,7.88949E-003,9.94774E-001,0.00000E+000,-1.07005E-002,-2.74983E-002,1.00000E+000,2
969,1307,2.80767E+000,-1.27806E+000,1.73500E-003,5.28047E-001,-5.21908E-002,3.75612E-003,5.30634E-001,1.11943E-002,5.19632E-001,0,8.08251E+000,-8.82692E-001,9.99908E-001,-3.63611E+001,-3.54149E+001,9.98550E-001,1.41368E-002,-5.58919E-003,6.16290E-004,1.41561E-002,-5.60842E-003,1.78774E+000,1.42574E-002,1.01426E+000,-6.43764E-003,0.00000E+000,7.80156E-003,9.94774E-001,0.00000E+000,-9.73001E-003,-2.74959E-002,1.00000E+000,2
969,1317,2.81296E+000,-6.43371E-001,-4.02703E-002,5.23717E-001,-5.83625E-002,-1.68668E-002,5.27228E-001,5.11315E-003,4.80641E-001,0,8.08728E+000,-9.26994E-001,9.99926E-001,-3.62646E+001,-3.55365E+001,9.99451E-001,1.38056E-002,-5.59054E-003,5.81809E-004,1.38231E-002,-5.60798E-003,1.71659E+000,1.39048E-002,1.01392E+000,-6.44280E-003,0.00000E+000,7.71330E-003,9.94773E-001,0.00000E+000,-8.75573E-003,-2.74813E-002,1.00000E+000,2
889,1317,-2.48383E+000,-7.22590E-001,-5.94244E-002,4.54848E-001,-8.53400E-002,2.01117E-002,4.63221E-001,3.19407E-003,5.30265E-001,0,6.95828E+000,-1.43058E+000,9.99910E-001,-3.80501E+001,-3.74031E+001,9.99740E-001,1.37720E-002,-5.50234E-003,-4.30282E-004,1.37816E-002,-5.51194E-003,-1.27823E+000,1.38732E-002,1.01386E+000,-2.74504E-003,0.00000E+000,1.86875E-003,9.95004E-001,0.00000E+000,-1.06578E-003,-3.14710E-002,1.00000E+000,2
969,1327,2.82272E+000,-2.09244E-003,-6.00445E-002,5.20427E-001,-6.05430E-002,-3.05442E-002,5.24826E-001,5.60534E-003,4.89369E-001,0,8.08270E+000,-9.44635E-001,9.99930E-001,-3.60498E+001,-3.55821E+001,9.99460E-001,1.34722E-002,-5.59224E-003,5.46273E-004,1.34879E-002,-5.60788E-003,1.63996E+000,1.35515E-002,1.01357E+000,-6.44988E-003,0.00000E+000,7.62473E-003,9.94771E-001,0.00000E+000,-7.77815E-003,-2.74613E-002,1.00000E+000,2
889,1307,-2.48819E+000,-1.35648E+000,-5.65671E-003,4.56781E-001,-8.10924E-002,3.98448E-002,4.65631E-001,4.41506E-003,5.13503E-001,0,6.92377E+000,-1.40033E+000,9.99857E-001,-3.81090E+001,-3.73091E+001,9.99428E-001,1.41864E-002,-5.50198E-003,-4.12974E-004,1.41950E-002,-5.51063E-003,-1.20111E+000,1.43128E-002,1.01428E+000,-2.74079E-003,0.00000E+000,1.89050E-003,9.95004E-001,0.00000E+000,-8.29167E-004,-3.14686E-002,1.00000E+000,2
969,1337,2.83882E+000,6.40530E-001,-5.92524E-002,5.17951E-001,-6.44822E-002,-4.85445E-002,5.24202E-001,4.58163E-003,4.48392E-001,0,8.10538E+000,-9.66134E-001,9.99945E-001,-3.56914E+001,-3.56786E+001,9.99598E-001,1.31365E-002,-5.59449E-003,5.09084E-004,1.31504E-002,-5.60831E-003,1.55569E+000,1.31977E-002,1.01323E+000,-6.46006E-003,0.00000E+000,7.53584E-003,9.94768E-001,0.00000E+000,-6.79691E-003,-2.74325E-002,1.00000E+000,2
969,1347,2.85820E+000,1.29039E+000,-4.14746E-002,5.13963E-001,-6.73191E-002,-7.06917E-002,5.23151E-001,4.19201E-003,4.84002E-001,0,8.11821E+000,-9.56574E-001,9.99934E-001,-3.52445E+001,-3.56658E+001,9.99493E-001,1.27969E-002,-5.59723E-003,4.70274E-004,1.28089E-002,-5.60924E-003,1.46358E+000,1.28417E-002,1.01287E+000,-6.47294E-003,0.00000E+000,7.44618E-003,9.94765E-001,0.00000E+000,-5.80724E-003,-2.73962E-002,1.00000E+000,2
879,1327,-3.12869E+000,-8.83201E-002,-7.18583E-002,4.45393E-001,-8.98528E-002,2.02597E-003,4.54371E-001,2.72246E-003,5.43822E-001,0,6.87570E+000,-1.45659E+000,9.99947E-001,-3.78933E+001,-3.76729E+001,9.99847E-001,1.35158E-002,-5.53600E-003,-5.52293E-004,1.35318E-002,-5.55200E-003,-1.65909E+000,1.36042E-002,1.01361E+000,-2.33037E-003,0.00000E+000,1.20167E-003,9.94962E-001,0.00000E+000,-4.82050E-004,-3.11734E-002,1.00000E+000,2
879,1337,-3.11433E+000,5.53092E-001,-8.15043E-002,4.43417E-001,-9.30302E-002,-2.19210E-002,4.53601E-001,2.67703E-003,5.35470E-001,0,6.92147E+000,-1.45732E+000,9.99924E-001,-3.75731E+001,-3.77634E+001,9.99809E-001,1.30888E-002,-5.53590E-003,-5.56255E-004,1.31054E-002,-5.55250E-003,-1.70919E+000,1.31562E-002,1.01317E+000,-2.34122E-003,0.00000E+000,1.21727E-003,9.94962E-001,0.00000E+000,-8.64635E-004,-3.11830E-002,1.00000E+000,2
879,1347,-3.09075E+000,1.20322E+000,-4.62942E-002,4.42253E-001,-9.46556E-002,-4.09901E-002,4.54123E-001,3.38161E-003,5.46025E-001,0,6.96299E+000,-1.43827E+000,9.99930E-001,-3.70024E+001,-3.78110E+001,9.99765E-001,1.26571E-002,-5.53577E-003,-5.62902E-004,1.26745E-002,-5.55316E-003,-1.77052E+000,1.27068E-002,1.01274E+000,-2.35751E-003,0.00000E+000,1.23304E-003,9.94963E-001,0.00000E+000,-1.25116E-003,-3.11974E-002,1.00000E+000,2
879,1307,-3.14344E+000,-1.35863E+000,1.33784E-002,4.47330E-001,-8.11192E-002,3.94073E-002,4.56331E-001,4.03987E-003,5.23681E-001,0,6.78475E+000,-1.39684E+000,9.99864E-001,-3.81586E+001,-3.74646E+001,9.99615E-001,1.43627E-002,-5.53610E-003,-5.49469E-004,1.43779E-002,-5.55126E-003,-1.58051E+000,1.45017E-002,1.01446E+000,-2.31901E-003,0.00000E+000,1.17068E-003,9.94962E-001,0.00000E+000,2.77696E-004,-3.11633E-002,1.00000E+000,2
879,1317,-3.13921E+000,-7.27459E-001,-4.39733E-002,4.46682E-001,-8.59658E-002,2.23734E-002,4.55429E-001,3.10258E-003,4.89747E-001,0,6.83030E+000,-1.43290E+000,9.99930E-001,-3.81100E+001,-3.76202E+001,9.99731E-001,1.39416E-002,-5.53607E-003,-5.49781E-004,1.39571E-002,-5.55158E-003,-1.61553E+000,1.40540E-002,1.01404E+000,-2.32245E-003,0.00000E+000,1.18609E-003,9.94962E-001,0.00000E+000,-1.00223E-004,-3.11664E-002,1.00000E+000,2
979,1307,3.47883E+000,-1.26368E+000,2.14239E-002,5.38868E-001,-4.75047E-002,-5.11680E-003,5.40982E-001,9.34579E-003,5.23695E-001,0,8.27048E+000,-7.91514E-001,9.99947E-001,-3.59434E+001,-3.51451E+001,9.99458E-001,1.41910E-002,-5.56747E-003,6.08461E-004,1.42097E-002,-5.58619E-003,1.76219E+000,1.43175E-002,1.01431E+000,-6.73218E-003,0.00000E+000,8.05699E-003,9.94768E-001,0.00000E+000,-9.40913E-003,-2.65460E-002,1.00000E+000,2
979,1317,3.48215E+000,-6.28542E-001,-2.65645E-002,5.34081E-001,-5.28360E-002,-2.45293E-002,5.37248E-001,3.69956E-003,4.95421E-001,0,8.26446E+000,-8.24995E-001,9.99919E-001,-3.58911E+001,-3.52408E+001,9.99629E-001,1.39082E-002,-5.56836E-003,5.83162E-004,1.39256E-002,-5.58580E-003,1.71349E+000,1.40161E-002,1.01402E+000,-6.73586E-003,0.00000E+000,7.98804E-003,9.94767E-001,0.00000E+000,-8.50158E-003,-2.65347E-002,1.00000E+000,2
979,1327,3.49029E+000,1.06297E-002,-5.16732E-002,5.29974E-001,-5.63464E-002,-3.95504E-002,5.34427E-001,3.65562E-003,4.78346E-001,0,8.25284E+000,-8.54228E-001,9.99881E-001,-3.57142E+001,-3.53190E+001,9.99473E-001,1.36237E-002,-5.56955E-003,5.56830E-004,1.36398E-002,-5.58569E-003,1.66039E+000,1.37141E-002,1.01372E+000,-6.74154E-003,0.00000E+000,7.91890E-003,9.94766E-001,0.00000E+000,-7.59165E-003,-2.65173E-002,1.00000E+000,2
979,1337,3.50296E+000,6.53526E-001,-5.75512E-002,5.26239E-001,-5.91771E-002,-5.38713E-002,5.32289E-001,5.06610E-003,4.67323E-001,0,8.24389E+000,-8.75003E-001,9.99874E-001,-3.54249E+001,-3.53807E+001,9.99144E-001,1.33372E-002,-5.57104E-003,5.29416E-004,1.33520E-002,-5.58586E-003,1.60256E+000,1.34112E-002,1.01343E+000,-6.74921E-003,0.00000E+000,7.84950E-003,9.94764E-001,0.00000E+000,-6.67817E-003,-2.64937E-002,1.00000E+000,2
979,1347,3.52365E+000,1.30316E+000,-3.27639E-002,5.22043E-001,-6.19783E-002,-7.51108E-002,5.31047E-001,5.34065E-003,4.75065E-001,0,8.25077E+000,-8.74520E-001,9.99804E-001,-3.49445E+001,-3.53992E+001,9.98914E-001,1.30473E-002,-5.57317E-003,4.99794E-004,1.30607E-002,-5.58657E-003,1.53641E+000,1.31061E-002,1.01313E+000,-6.76094E-003,0.00000E+000,7.77949E-003,9.94761E-001,0.00000E+000,-5.75673E-003,-2.64576E-002,1.00000E+000,2
979,1297,3.47576E+000,-1.89824E+000,7.22565E-002,5.42315E-001,-4.21541E-002,9.96056E-003,5.44042E-001,7.51006E-003,5.27723E-001,0,8.27065E+000,-7.44621E-001,9.99906E-001,-3.59853E+001,-3.50600E+001,9.99109E-001,1.44728E-002,-5.56670E-003,6.33364E-004,1.44928E-002,-5.58669E-003,1.80847E+000,1.46190E-002,1.01461E+000,-6.72926E-003,0.00000E+000,8.12591E-003,9.94769E-001,0.00000E+000,-1.03162E-002,-2.65550E-002,1.00000E+000,2
869,1317,-3.79693E+000,-7.31905E-001,-4.12480E-002,4.37343E-001,-8.63934E-002,1.96245E-002,4.46227E-001,3.10274E-003,5.22188E-001,0,6.70009E+000,-1.43723E+000,9.99903E-001,-3.82329E+001,-3.77674E+001,9.99612E-001,1.40628E-002,-5.59502E-003,-5.94248E-004,1.40808E-002,-5.61297E-003,-1.72992E+000,1.41769E-002,1.01416E+000,-1.87504E-003,0.00000E+000,6.36771E-004,9.94895E-001,0.00000E+000,6.17265E-004,-3.08975E-002,1.00000E+000,2
869,1327,-3.78683E+000,-9.38185E-002,-7.00028E-002,4.36115E-001,-8.98949E-002,4.77537E-005,4.45283E-001,3.18683E-003,5.48125E-001,0,6.74344E+000,-1.45771E+000,9.99929E-001,-3.80237E+001,-3.78503E+001,9.99711E-001,1.36540E-002,-5.59488E-003,-5.94449E-004,1.36723E-002,-5.61322E-003,-1.76718E+000,1.37451E-002,1.01375E+000,-1.88237E-003,0.00000E+000,6.60319E-004,9.94896E-001,0.00000E+000,9.59757E-005,-3.09068E-002,1.00000E+000,2
869,1337,-3.77141E+000,5.48020E-001,-7.52344E-002,4.34728E-001,-9.34061E-002,-2.23302E-002,4.45210E-001,2.85555E-003,5.44763E-001,0,6.79288E+000,-1.46093E+000,9.99925E-001,-3.76752E+001,-3.79430E+001,9.99754E-001,1.32426E-002,-5.59468E-003,-5.96313E-004,1.32615E-002,-5.61354E-003,-1.81134E+000,1.33134E-002,1.01333E+000,-1.89309E-003,0.00000E+000,6.83993E-004,9.94896E-001,0.00000E+000,-4.28084E-004,-3.09202E-002,1.00000E+000,2
869,1347,-3.74974E+000,1.19525E+000,-5.08267E-002,4.34392E-001,-9.45937E-002,-4.01944E-002,4.46385E-001,4.48187E-003,5.22957E-001,0,6.84296E+000,-1.44252E+000,9.99935E-001,-3.71579E+001,-3.80295E+001,9.99710E-001,1.28290E-002,-5.59443E-003,-5.99768E-004,1.28485E-002,-5.61393E-003,-1.86261E+000,1.28825E-002,1.01291E+000,-1.90704E-003,0.00000E+000,7.07768E-004,9.94897E-001,0.00000E+000,-9.54365E-004,-3.09378E-002,1.00000E+000,2
869,1307,-3.80066E+000,-1.36199E+000,2.39919E-002,4.37955E-001,-8.04352E-002,4.21384E-002,4.47270E-001,3.48139E-003,5.50674E-001,0,6.63651E+000,-1.40224E+000,9.99911E-001,-3.82547E+001,-3.76128E+001,9.99585E-001,1.44679E-002,-5.59508E-003,-5.96161E-004,1.44856E-002,-5.61278E-003,-1.70051E+000,1.46074E-002,1.01457E+000,-1.87205E-003,0.00000E+000,6.13409E-004,9.94895E-001,0.00000E+000,1.13441E-003,-3.08938E-002,1.00000E+000,2
989,1307,4.14556E+000,-1.25125E+000,2.11940E-002,5.48793E-001,-4.20487E-002,-1.59551E-002,5.50632E-001,5.63931E-003,5.20255E-001,0,8.45167E+000,-6.83453E-001,9.99909E-001,-3.56345E+001,-3.48674E+001,9.99257E-001,1.41993E-002,-5.58826E-003,5.55350E-004,1.42149E-002,-5.60383E-003,1.60635E+000,1.43205E-002,1.01431E+000,-6.96039E-003,0.00000E+000,8.15004E-003,9.94722E-001,0.00000E+000,-8.77033E-003,-2.56243E-002,1.00000E+000,2
989,1317,4.14694E+000,-6.13706E-001,-2.65992E-002,5.43191E-001,-4.61197E-002,-2.96521E-002,5.45951E-001,5.50376E-003,5.43402E-001,0,8.41374E+000,-7.09141E-001,9.99928E-001,-3.56123E+001,-3.48993E+001,9.99420E-001,1.39665E-002,-5.58862E-003,5.43225E-004,1.39815E-002,-5.60370E-003,1.59000E+000,1.40730E-002,1.01407E+000,-6.96299E-003,0.00000E+000,8.10813E-003,9.94722E-001,0.00000E+000,-7.91447E-003,-2.56151E-002,1.00000E+000,2
989,1327,4.15717E+000,2.73895E-002,-4.40642E-002,5.39107E-001,-5.00086E-002,-4.56167E-002,5.43340E-001,6.78890E-003,5.41778E-001,0,8.40603E+000,-7.37143E-001,9.99891E-001,-3.53874E+001,-3.49549E+001,9.99167E-001,1.37320E-002,-5.58922E-003,5.29664E-004,1.37465E-002,-5.60373E-003,1.56912E+000,1.38244E-002,1.01383E+000,-6.96847E-003,0.00000E+000,8.06606E-003,9.94721E-001,0.00000E+000,-7.05544E-003,-2.55959E-002,1.00000E+000,2
989,1297,4.14497E+000,-1.88615E+000,7.81127E-002,5.53907E-001,-3.67699E-002,1.29946E-003,5.55128E-001,5.69869E-003,5.05748E-001,0,8.46944E+000,-6.42100E-001,9.99861E-001,-3.56246E+001,-3.48109E+001,9.98997E-001,1.44310E-002,-5.58794E-003,5.67203E-004,1.44470E-002,-5.60399E-003,1.62165E+000,1.45675E-002,1.01456E+000,-6.95829E-003,0.00000E+000,8.19186E-003,9.94723E-001,0.00000E+000,-9.62449E-003,-2.56317E-002,1.00000E+000,2
989,1337,4.17171E+000,6.69306E-001,-3.98941E-002,5.34366E-001,-5.37110E-002,-6.22193E-002,5.40651E-001,4.54201E-003,4.73460E-001,0,8.38992E+000,-7.70898E-001,9.99828E-001,-3.50491E+001,-3.50808E+001,9.99302E-001,1.34967E-002,-5.58998E-003,5.15142E-004,1.35106E-002,-5.60387E-003,1.54489E+000,1.35758E-002,1.01358E+000,-6.97589E-003,0.00000E+000,8.02399E-003,9.94720E-001,0.00000E+000,-6.19645E-003,-2.55698E-002,1.00000E+000,2
989,1347,4.19094E+000,1.31682E+000,-2.01538E-002,5.30813E-001,-5.64772E-002,-7.85160E-002,5.39552E-001,5.11919E-003,4.71167E-001,0,8.39024E+000,-7.90767E-001,9.99916E-001,-3.46044E+001,-3.51250E+001,9.99559E-001,1.32591E-002,-5.59086E-003,4.99852E-004,1.32723E-002,-5.60410E-003,1.51792E+000,1.33257E-002,1.01334E+000,-6.98468E-003,0.00000E+000,7.98166E-003,9.94718E-001,0.00000E+000,-5.33187E-003,-2.55388E-002,1.00000E+000,2
859,1327,-4.44414E+000,-9.78818E-002,-6.70441E-002,4.27040E-001,-8.92729E-002,-1.72840E-003,4.36274E-001,3.14681E-003,5.52995E-001,0,6.61320E+000,-1.43957E+000,9.99891E-001,-3.81346E+001,-3.80077E+001,9.99655E-001,1.37713E-002,-5.64996E-003,-5.98259E-004,1.37897E-002,-5.66837E-003,-1.76273E+000,1.38622E-002,1.01387E+000,-1.42817E-003,0.00000E+000,1.97113E-004,9.94832E-001,0.00000E+000,4.30235E-004,-3.06002E-002,1.00000E+000,2
859,1337,-4.42828E+000,5.43232E-001,-7.09628E-002,4.26395E-001,-9.24516E-002,-2.21364E-002,4.36864E-001,3.50547E-003,5.35418E-001,0,6.66728E+000,-1.44645E+000,9.99894E-001,-3.77747E+001,-3.81232E+001,9.99644E-001,1.33988E-002,-5.64973E-003,-5.98573E-004,1.34176E-002,-5.66852E-003,-1.79808E+000,1.34712E-002,1.01349E+000,-1.43772E-003,0.00000E+000,2.23712E-004,9.94832E-001,0.00000E+000,-1.39647E-004,-3.06146E-002,1.00000E+000,2
859,1347,-4.40636E+000,1.18915E+000,-4.64219E-002,4.25849E-001,-9.52256E-002,-4.29624E-002,4.38476E-001,5.13693E-003,5.09977E-001,0,6.72359E+000,-1.44353E+000,9.99936E-001,-3.72515E+001,-3.82338E+001,9.99732E-001,1.30235E-002,-5.64941E-003,-6.00525E-004,1.30428E-002,-5.66870E-003,-1.84011E+000,1.30799E-002,1.01311E+000,-1.45062E-003,0.00000E+000,2.50476E-004,9.94833E-001,0.00000E+000,-7.13076E-004,-3.06341E-002,1.00000E+000,2
859,1307,-4.45733E+000,-1.36217E+000,3.00066E-002,4.29110E-001,-7.81800E-002,4.23465E-002,4.38225E-001,5.55754E-003,6.16936E-001,0,6.50389E+000,-1.36811E+000,9.99885E-001,-3.83490E+001,-3.76826E+001,9.99434E-001,1.45079E-002,-5.65020E-003,-6.02482E-004,1.45259E-002,-5.66819E-003,-1.71041E+000,1.46422E-002,1.01461E+000,-1.41904E-003,0.00000E+000,1.44411E-004,9.94831E-001,0.00000E+000,1.55935E-003,-3.05865E-002,1.00000E+000,2
859,1317,-4.45394E+000,-7.33914E-001,-3.51793E-002,4.28161E-001,-8.53797E-002,1.95860E-002,4.37030E-001,3.86687E-003,5.77034E-001,0,6.56295E+000,-1.42261E+000,9.99847E-001,-3.83323E+001,-3.78731E+001,9.99529E-001,1.41410E-002,-5.65012E-003,-5.99473E-004,1.41591E-002,-5.66827E-003,-1.73337E+000,1.42526E-002,1.01424E+000,-1.42176E-003,0.00000E+000,1.70679E-004,9.94831E-001,0.00000E+000,9.96577E-004,-3.05906E-002,1.00000E+000,2
999,1337,4.83606E+000,6.79696E-001,-4.35749E-002,5.43733E-001,-4.77564E-002,-6.51536E-002,5.49701E-001,5.08503E-003,4.22910E-001,0,8.53663E+000,-6.73834E-001,9.99910E-001,-3.47841E+001,-3.48463E+001,9.99517E-001,1.36052E-002,-5.60241E-003,4.72771E-004,1.36169E-002,-5.61404E-003,1.40912E+000,1.36865E-002,1.01369E+000,-7.13915E-003,0.00000E+000,8.07558E-003,9.94683E-001,0.00000E+000,-5.47753E-003,-2.46001E-002,1.00000E+000,2
999,1347,4.85726E+000,1.32933E+000,-1.82254E-002,5.39700E-001,-5.15470E-002,-8.56230E-002,5.48876E-001,4.49589E-003,4.38209E-001,0,8.54461E+000,-6.86152E-001,9.99931E-001,-3.42989E+001,-3.48595E+001,9.99547E-001,1.34185E-002,-5.60252E-003,4.67230E-004,1.34300E-002,-5.61399E-003,1.40627E+000,1.34900E-002,1.01349E+000,-7.14673E-003,0.00000E+000,8.05413E-003,9.94682E-001,0.00000E+000,-4.70057E-003,-2.45696E-002,1.00000E+000,2
999,1307,4.81235E+000,-1.23903E+000,2.34748E-002,5.58334E-001,-3.68607E-002,-2.40586E-002,5.60067E-001,3.62894E-003,5.17820E-001,0,8.61787E+000,-5.84742E-001,9.99926E-001,-3.53160E+001,-3.45980E+001,9.99524E-001,1.41544E-002,-5.60223E-003,4.83735E-004,1.41662E-002,-5.61406E-003,1.40175E+000,1.42674E-002,1.01426E+000,-7.12774E-003,0.00000E+000,8.13908E-003,9.94684E-001,0.00000E+000,-7.77789E-003,-2.46460E-002,1.00000E+000,2
999,1317,4.81414E+000,-6.01790E-001,-2.40960E-002,5.52761E-001,-4.08659E-002,-3.90211E-002,5.55642E-001,6.78902E-003,5.44782E-001,0,8.58497E+000,-6.21305E-001,9.99812E-001,-3.52876E+001,-3.46315E+001,9.98071E-001,1.39723E-002,-5.60227E-003,4.80887E-004,1.39841E-002,-5.61408E-003,1.40645E+000,1.40743E-002,1.01407E+000,-7.12990E-003,0.00000E+000,8.11795E-003,9.94684E-001,0.00000E+000,-7.01256E-003,-2.46373E-002,1.00000E+000,2
999,1327,4.82287E+000,3.73842E-002,-4.50473E-002,5.48633E-001,-4.53681E-002,-5.16509E-002,5.52923E-001,7.28222E-003,5.21409E-001,0,8.56578E+000,-6.63948E-001,9.99868E-001,-3.50946E+001,-3.47188E+001,9.98975E-001,1.37891E-002,-5.60233E-003,4.77221E-004,1.38008E-002,-5.61407E-003,1.40891E+000,1.38806E-002,1.01388E+000,-7.13373E-003,0.00000E+000,8.09677E-003,9.94683E-001,0.00000E+000,-6.24523E-003,-2.46219E-002,1.00000E+000,2
999,1297,4.81285E+000,-1.87370E+000,8.35392E-002,5.64170E-001,-3.15679E-002,-5.56039E-003,5.65080E-001,3.78771E-003,5.11339E-001,0,8.64189E+000,-5.47164E-001,9.99858E-001,-3.52821E+001,-3.45421E+001,9.99064E-001,1.43356E-002,-5.60219E-003,4.86276E-004,1.43474E-002,-5.61404E-003,1.39632E+000,1.44600E-002,1.01445E+000,-7.12619E-003,0.00000E+000,8.16018E-003,9.94684E-001,0.00000E+000,-8.54202E-003,-2.46522E-002,1.00000E+000,2
849,1337,-5.08450E+000,5.40055E-001,-6.37974E-002,4.17454E-001,-9.23357E-002,-2.29230E-002,4.28158E-001,4.78888E-003,5.63968E-001,0,6.53547E+000,-1.43281E+000,9.99913E-001,-3.78533E+001,-3.82661E+001,9.99695E-001,1.35397E-002,-5.65668E-003,-5.85933E-004,1.35575E-002,-5.67455E-003,-1.74668E+000,1.36173E-002,1.01363E+000,-1.05246E-003,0.00000E+000,-1.31336E-004,9.94814E-001,0.00000E+000,-6.70502E-005,-3.02381E-002,1.00000E+000,2
849,1347,-5.06585E+000,1.18323E+000,-4.69039E-002,4.16454E-001,-9.46366E-002,-3.87224E-002,4.28823E-001,3.83664E-003,5.08400E-001,0,6.56865E+000,-1.43616E+000,9.99935E-001,-3.73974E+001,-3.84193E+001,9.99821E-001,1.32010E-002,-5.65673E-003,-5.91890E-004,1.32195E-002,-5.67529E-003,-1.79600E+000,1.32635E-002,1.01329E+000,-1.06272E-003,0.00000E+000,-1.15933E-004,9.94815E-001,0.00000E+000,-6.26790E-004,-3.02548E-002,1.00000E+000,2
849,1357,-5.03617E+000,1.83663E+000,1.60248E-002,4.16047E-001,-9.63106E-002,-5.91580E-002,4.31127E-001,3.65955E-003,5.11443E-001,0,6.62449E+000,-1.42159E+000,9.99947E-001,-3.66577E+001,-3.84911E+001,9.99749E-001,1.28572E-002,-5.65680E-003,-6.00504E-004,1.28766E-002,-5.67626E-003,-1.85580E+000,1.29067E-002,1.01294E+000,-1.07831E-003,0.00000E+000,-1.00317E-004,9.94815E-001,0.00000E+000,-1.19425E-003,-3.02803E-002,1.00000E+000,2
849,1327,-5.09929E+000,-9.99462E-002,-5.66056E-002,4.17895E-001,-8.84578E-002,-4.82858E-003,4.27182E-001,4.86478E-003,5.75774E-001,0,6.48559E+000,-1.41636E+000,9.99920E-001,-3.81899E+001,-3.81415E+001,9.99672E-001,1.38772E-002,-5.65664E-003,-5.81099E-004,1.38945E-002,-5.67391E-003,-1.70244E+000,1.39721E-002,1.01397E+000,-1.04445E-003,0.00000E+000,-1.46708E-004,9.94814E-001,0.00000E+000,4.91556E-004,-3.02250E-002,1.00000E+000,2
1009,1337,5.50067E+000,6.93078E-001,-5.55603E-002,5.54558E-001,-4.11646E-002,-6.87375E-002,5.60316E-001,6.17566E-003,4.85950E-001,0,8.70761E+000,-5.69147E-001,9.99925E-001,-3.45293E+001,-3.44906E+001,9.99672E-001,1.36777E-002,-5.64270E-003,4.08752E-004,1.36864E-002,-5.65135E-003,1.21145E+000,1.37554E-002,1.01376E+000,-7.25558E-003,0.00000E+000,8.04063E-003,9.94624E-001,0.00000E+000,-4.76413E-003,-2.38370E-002,1.00000E+000,2
1009,1347,5.52311E+000,1.34005E+000,-2.08264E-002,5.49538E-001,-4.72242E-002,-8.89321E-002,5.58687E-001,5.31255E-003,4.36086E-001,0,8.70066E+000,-6.14661E-001,9.99934E-001,-3.40074E+001,-3.45963E+001,9.99687E-001,1.35344E-002,-5.64244E-003,4.07782E-004,1.35431E-002,-5.65111E-003,1.21762E+000,1.36047E-002,1.01361E+000,-7.26188E-003,0.00000E+000,8.03065E-003,9.94624E-001,0.00000E+000,-4.12589E-003,-2.38099E-002,1.00000E+000,2
1009,1297,5.47852E+000,-1.86313E+000,8.45643E-002,5.73327E-001,-2.62493E-002,-9.97319E-003,5.74015E-001,4.60319E-003,4.81853E-001,0,8.78912E+000,-4.54314E-001,9.99847E-001,-3.49799E+001,-3.43109E+001,9.98852E-001,1.42399E-002,-5.64319E-003,4.04927E-004,1.42481E-002,-5.65143E-003,1.16621E+000,1.43493E-002,1.01434E+000,-7.24627E-003,0.00000E+000,8.08007E-003,9.94625E-001,0.00000E+000,-7.28609E-003,-2.38771E-002,1.00000E+000,2
1009,1307,5.47841E+000,-1.22849E+000,2.59165E-002,5.67861E-001,-3.10361E-002,-2.70062E-002,5.69349E-001,4.57238E-003,4.76207E-001,0,8.76588E+000,-4.92937E-001,9.99920E-001,-3.50049E+001,-3.43746E+001,9.99466E-001,1.41006E-002,-5.64311E-003,4.06428E-004,1.41089E-002,-5.65147E-003,1.17878E+000,1.42016E-002,1.01420E+000,-7.24747E-003,0.00000E+000,8.07025E-003,9.94625E-001,0.00000E+000,-6.65823E-003,-2.38719E-002,1.00000E+000,2
1009,1317,5.48184E+000,-5.90625E-001,-1.65803E-002,5.63586E-001,-3.45167E-002,-3.81206E-002,5.65928E-001,5.36304E-003,4.93584E-001,0,8.73959E+000,-5.30050E-001,9.99901E-001,-3.49409E+001,-3.44126E+001,9.99414E-001,1.39605E-002,-5.64301E-003,4.07667E-004,1.39689E-002,-5.65148E-003,1.19082E+000,1.40535E-002,1.01405E+000,-7.24922E-003,0.00000E+000,8.06041E-003,9.94625E-001,0.00000E+000,-6.02881E-003,-2.38644E-002,1.00000E+000,2
849,1317,-5.11072E+000,-7.34886E-001,-2.92427E-002,4.18645E-001,-8.24264E-002,1.85696E-002,4.27086E-001,5.13073E-003,6.15629E-001,0,6.42290E+000,-1.38348E+000,9.99891E-001,-3.84244E+001,-3.79708E+001,9.99573E-001,1.42130E-002,-5.65661E-003,-5.77045E-004,1.42297E-002,-5.67335E-003,-1.66210E+000,1.43267E-002,1.01431E+000,-1.03799E-003,0.00000E+000,-1.62016E-004,9.94813E-001,0.00000E+000,1.04782E-003,-3.02145E-002,1.00000E+000,2
1009,1327,5.49114E+000,5.11575E-002,-3.54972E-002,5.58252E-001,-3.83605E-002,-5.58978E-002,5.62353E-001,5.31275E-003,4.89149E-001,0,8.71979E+000,-5.50220E-001,9.99932E-001,-3.47357E+001,-3.44530E+001,9.99631E-001,1.38192E-002,-5.64285E-003,4.08138E-004,1.38278E-002,-5.65140E-003,1.20084E+000,1.39044E-002,1.01390E+000,-7.25256E-003,0.00000E+000,8.05051E-003,9.94624E-001,0.00000E+000,-5.39612E-003,-2.38500E-002,1.00000E+000,2
849,1307,-5.11542E+000,-1.36669E+000,3.31368E-002,4.18294E-001,-7.80176E-002,3.86746E-002,4.27261E-001,6.28764E-003,5.93490E-001,0,6.35356E+000,-1.35000E+000,9.99895E-001,-3.84684E+001,-3.78583E+001,9.99312E-001,1.45461E-002,-5.65660E-003,-5.74965E-004,1.45624E-002,-5.67295E-003,-1.62887E+000,1.46803E-002,1.01465E+000,-1.03553E-003,0.00000E+000,-1.77222E-004,9.94813E-001,0.00000E+000,1.60040E-003,-3.02105E-002,1.00000E+000,2
839,1337,-5.74119E+000,5.35192E-001,-5.35590E-002,4.07388E-001,-9.21641E-002,-2.21522E-002,4.18270E-001,9.79496E-003,5.60879E-001,0,6.38112E+000,-1.43644E+000,9.99924E-001,-3.79275E+001,-3.84577E+001,9.99586E-001,1.36462E-002,-5.62699E-003,-5.67614E-004,1.36630E-002,-5.64369E-003,-1.68546E+000,1.37316E-002,1.01374E+000,-7.68833E-004,0.00000E+000,-3.69561E-004,9.94830E-001,0.00000E+000,-1.87240E-004,-2.97878E-002,1.00000E+000,2
839,1347,-5.72406E+000,1.17708E+000,-4.64269E-002,4.06964E-001,-9.45126E-002,-3.82098E-002,4.19538E-001,3.59024E-003,5.16275E-001,0,6.42384E+000,-1.43989E+000,9.99919E-001,-3.75175E+001,-3.86059E+001,9.99762E-001,1.33267E-002,-5.62763E-003,-5.83806E-004,1.33446E-002,-5.64560E-003,-1.76252E+000,1.33972E-002,1.01342E+000,-7.77552E-004,0.00000E+000,-3.77163E-004,9.94830E-001,0.00000E+000,-7.20818E-004,-2.98022E-002,1.00000E+000,2
839,1357,-5.69492E+000,1.82980E+000,1.21778E-002,4.07132E-001,-9.58827E-002,-5.86516E-002,4.22362E-001,3.36299E-003,5.07116E-001,0,6.48817E+000,-1.41621E+000,9.99931E-001,-3.67941E+001,-3.86862E+001,9.99712E-001,1.30022E-002,-5.62868E-003,-6.02922E-004,1.30217E-002,-5.64817E-003,-1.85159E+000,1.30597E-002,1.01309E+000,-7.91823E-004,0.00000E+000,-3.84872E-004,9.94830E-001,0.00000E+000,-1.26195E-003,-2.98257E-002,1.00000E+000,2
1019,1337,6.17031E+000,7.08734E-001,-4.05466E-002,5.63851E-001,-3.57755E-002,-7.19211E-002,5.69544E-001,5.08123E-003,5.18391E-001,0,8.85365E+000,-4.75181E-001,9.99923E-001,-3.41362E+001,-3.41741E+001,9.99697E-001,1.36924E-002,-5.66510E-003,3.25799E-004,1.36978E-002,-5.67058E-003,9.63962E-001,1.37653E-002,1.01377E+000,-7.35376E-003,0.00000E+000,7.95175E-003,9.94589E-001,0.00000E+000,-4.01915E-003,-2.32550E-002,1.00000E+000,2
1019,1347,6.18643E+000,1.35430E+000,-2.65148E-002,5.58108E-001,-4.03962E-002,-8.76330E-002,5.66388E-001,4.91395E-003,5.01118E-001,0,8.82046E+000,-5.15189E-001,9.99922E-001,-3.37577E+001,-3.42388E+001,9.99746E-001,1.35667E-002,-5.66440E-003,3.31667E-004,1.35724E-002,-5.67012E-003,9.87754E-001,1.36335E-002,1.01364E+000,-7.35814E-003,0.00000E+000,7.95626E-003,9.94589E-001,0.00000E+000,-3.48782E-003,-2.32371E-002,1.00000E+000,2
839,1327,-5.76019E+000,-1.04457E-001,-6.15453E-002,4.07979E-001,-8.55745E-002,2.85217E-003,4.16867E-001,9.43515E-003,5.78015E-001,0,6.31190E+000,-1.38616E+000,9.99945E-001,-3.83675E+001,-3.82908E+001,9.99540E-001,1.39664E-002,-5.62627E-003,-5.50910E-004,1.39819E-002,-5.64175E-003,-1.60936E+000,1.40684E-002,1.01406E+000,-7.59124E-004,0.00000E+000,-3.61937E-004,9.94830E-001,0.00000E+000,3.47892E-004,-2.97718E-002,1.00000E+000,2
1019,1327,6.15637E+000,6.21028E-002,-4.13984E-002,5.68185E-001,-3.36727E-002,-5.87167E-002,5.72203E-001,5.55889E-003,4.88515E-001,0,8.87474E+000,-4.61776E-001,9.99890E-001,-3.44535E+001,-3.41819E+001,9.99538E-001,1.38175E-002,-5.66571E-003,3.19581E-004,1.38228E-002,-5.67095E-003,9.39478E-001,1.38968E-002,1.01390E+000,-7.35011E-003,0.00000E+000,7.94724E-003,9.94589E-001,0.00000E+000,-4.54969E-003,-2.32700E-002,1.00000E+000,2
1019,1317,6.15005E+000,-5.79382E-001,-1.08283E-002,5.72929E-001,-3.05382E-002,-4.53886E-002,5.75535E-001,6.73632E-003,4.76287E-001,0,8.90055E+000,-4.51102E-001,9.99930E-001,-3.45869E+001,-3.41717E+001,9.99230E-001,1.39418E-002,-5.66612E-003,3.12693E-004,1.39468E-002,-5.67111E-003,9.13400E-001,1.40277E-002,1.01403E+000,-7.34791E-003,0.00000E+000,7.94276E-003,9.94589E-001,0.00000E+000,-5.07768E-003,-2.32791E-002,1.00000E+000,2
839,1317,-5.76852E+000,-7.40146E-001,-2.23654E-002,4.07612E-001,-8.19195E-002,1.77741E-002,4.16142E-001,3.96637E-003,5.60587E-001,0,6.25935E+000,-1.36600E+000,9.99923E-001,-3.85260E+001,-3.81836E+001,9.99464E-001,1.42831E-002,-5.62597E-003,-5.37112E-004,1.42976E-002,-5.64045E-003,-1.54424E+000,1.44033E-002,1.01439E+000,-7.55067E-004,0.00000E+000,-3.54386E-004,9.94830E-001,0.00000E+000,8.77946E-004,-2.97652E-002,1.00000E+000,2
1019,1297,6.14273E+000,-1.85274E+000,7.82806E-002,5.81948E-001,-2.07887E-002,-1.56252E-002,5.82529E-001,5.86377E-003,4.63514E-001,0,8.93251E+000,-3.54080E-001,9.99948E-001,-3.47120E+001,-3.40617E+001,9.99113E-001,1.41885E-002,-5.66680E-003,2.98403E-004,1.41930E-002,-5.67129E-003,8.60831E-001,1.42881E-002,1.01428E+000,-7.34466E-003,0.00000E+000,7.93383E-003,9.94588E-001,0.00000E+000,-6.12927E-003,-2.32925E-002,1.00000E+000,2
1019,1307,6.14343E+000,-1.21527E+000,2.43495E-002,5.76481E-001,-2.50420E-002,-3.10322E-002,5.77859E-001,8.75719E-003,5.22265E-001,0,8.90372E+000,-3.95122E-001,9.99947E-001,-3.47150E+001,-3.40580E+001,9.98969E-001,1.40652E-002,-5.66652E-003,3.05750E-004,1.40700E-002,-5.67125E-003,8.87532E-001,1.41578E-002,1.01415E+000,-7.34588E-003,0.00000E+000,7.93830E-003,9.94589E-001,0.00000E+000,-5.60311E-003,-2.32874E-002,1.00000E+000,2
839,1307,-5.77206E+000,-1.37120E+000,3.85676E-002,4.07897E-001,-7.69339E-002,3.41106E-002,4.16488E-001,3.65288E-003,5.39576E-001,0,6.21175E+000,-1.32173E+000,9.99918E-001,-3.85558E+001,-3.80539E+001,9.99288E-001,1.45979E-002,-5.62582E-003,-5.24363E-004,1.46115E-002,-5.63940E-003,-1.48424E+000,1.47376E-002,1.01471E+000,-7.53023E-004,0.00000E+000,-3.46870E-004,9.94831E-001,0.00000E+000,1.40549E-003,-2.97618E-002,1.00000E+000,2
829,1337,-6.40103E+000,5.28822E-001,-6.05305E-002,3.96982E-001,-9.06633E-002,-2.27995E-002,4.07841E-001,6.02537E-003,5.52787E-001,0,6.22553E+000,-1.42211E+000,9.99915E-001,-3.80890E+001,-3.86379E+001,9.99577E-001,1.36868E-002,-5.60441E-003,-5.26191E-004,1.37012E-002,-5.61875E-003,-1.56126E+000,1.37748E-002,1.01378E+000,-5.07305E-004,0.00000E+000,-5.40803E-004,9.94839E-001,0.00000E+000,-2.86861E-004,-2.93336E-002,1.00000E+000,2
829,1347,-6.37972E+000,1.17298E+000,-4.06388E-002,3.98305E-001,-9.38711E-002,-3.86315E-002,4.11037E-001,3.09667E-003,5.36449E-001,0,6.29432E+000,-1.43030E+000,9.99875E-001,-3.75813E+001,-3.87661E+001,9.99649E-001,1.33752E-002,-5.60626E-003,-5.61311E-004,1.33917E-002,-5.62285E-003,-1.69236E+000,1.34489E-002,1.01347E+000,-5.16963E-004,0.00000E+000,-5.85403E-004,9.94838E-001,0.00000E+000,-8.22193E-004,-2.93500E-002,1.00000E+000,2
829,1357,-6.35188E+000,1.82418E+000,1.22979E-002,3.98830E-001,-9.56491E-002,-5.77150E-002,4.14180E-001,3.85072E-003,5.35970E-001,0,6.35979E+000,-1.41815E+000,9.99894E-001,-3.68896E+001,-3.88550E+001,9.99672E-001,1.30606E-002,-5.60879E-003,-5.98417E-004,1.30798E-002,-5.62795E-003,-1.83401E+000,1.31221E-002,1.01315E+000,-5.30126E-004,0.00000E+000,-6.30356E-004,9.94836E-001,0.00000E+000,-1.36177E-003,-2.93723E-002,1.00000E+000,2
1029,1337,6.83193E+000,7.16552E-001,-5.25619E-002,5.70559E-001,-3.24436E-002,-7.68300E-002,5.76622E-001,4.94929E-003,4.90101E-001,0,8.96754E+000,-4.10936E-001,9.99882E-001,-3.39206E+001,-3.39506E+001,9.99415E-001,1.37245E-002,-5.64321E-003,2.37415E-004,1.37274E-002,-5.64612E-003,7.02207E-001,1.37992E-002,1.01380E+000,-7.44373E-003,0.00000E+000,7.84124E-003,9.94602E-001,0.00000E+000,-3.08160E-003,-2.28455E-002,1.00000E+000,2
1029,1347,6.85024E+000,1.36586E+000,-3.39928E-002,5.65934E-001,-3.51349E-002,-9.18214E-002,5.74410E-001,4.26655E-003,5.05878E-001,0,8.94842E+000,-4.23608E-001,9.99924E-001,-3.35003E+001,-3.39491E+001,9.99497E-001,1.36268E-002,-5.64161E-003,2.53941E-004,1.36302E-002,-5.64496E-003,7.54934E-001,1.36970E-002,1.01370E+000,-7.44727E-003,0.00000E+000,7.86696E-003,9.94603E-001,0.00000E+000,-2.58447E-003,-2.28280E-002,1.00000E+000,2
1029,1327,6.82196E+000,7.24055E-002,-3.96776E-002,5.76334E-001,-2.87084E-002,-6.14660E-002,5.80313E-001,5.65491E-003,4.64330E-001,0,9.00181E+000,-3.88686E-001,9.99857E-001,-3.41462E+001,-3.39492E+001,9.99402E-001,1.38214E-002,-5.64439E-003,2.20425E-004,1.38239E-002,-5.64688E-003,6.48689E-001,1.39009E-002,1.01390E+000,-7.44131E-003,0.00000E+000,7.81565E-003,9.94601E-001,0.00000E+000,-3.57633E-003,-2.28575E-002,1.00000E+000,2
829,1327,-6.41621E+000,-1.09719E-001,-5.72995E-002,3.97385E-001,-8.57072E-002,-5.53328E-003,4.06560E-001,5.37738E-003,5.53146E-001,0,6.17814E+000,-1.37519E+000,9.99942E-001,-3.84439E+001,-3.84846E+001,9.99767E-001,1.39964E-002,-5.60296E-003,-4.92284E-004,1.40087E-002,-5.61531E-003,-1.43791E+000,1.41003E-002,1.01409E+000,-4.99744E-004,0.00000E+000,-4.96451E-004,9.94840E-001,0.00000E+000,2.45505E-004,-2.93207E-002,1.00000E+000,2
829,1307,-6.42719E+000,-1.37619E+000,4.95008E-002,3.98701E-001,-7.70396E-002,3.55503E-002,4.07629E-001,4.91519E-003,4.99935E-001,0,6.06989E+000,-1.32043E+000,9.99887E-001,-3.86025E+001,-3.82615E+001,9.99161E-001,1.46093E-002,-5.60178E-003,-4.29431E-004,1.46184E-002,-5.61090E-003,-1.21665E+000,1.47493E-002,1.01472E+000,-4.93647E-004,0.00000E+000,-4.08478E-004,9.94841E-001,0.00000E+000,1.30145E-003,-2.93104E-002,1.00000E+000,2
829,1317,-6.42425E+000,-7.44656E-001,-1.60074E-002,3.98579E-001,-8.11534E-002,1.82268E-002,4.07165E-001,4.35454E-003,5.45132E-001,0,6.12247E+000,-1.35617E+000,9.99915E-001,-3.85932E+001,-3.83638E+001,9.99696E-001,1.43038E-002,-5.60208E-003,-4.60050E-004,1.43145E-002,-5.61271E-003,-1.32323E+000,1.44251E-002,1.01441E+000,-4.95221E-004,0.00000E+000,-4.52346E-004,9.94841E-001,0.00000E+000,7.74901E-004,-2.93131E-002,1.00000E+000,2
1029,1317,6.81554E+000,-5.67634E-001,-9.72867E-003,5.81291E-001,-2.55800E-002,-4.75576E-002,5.83794E-001,6.64108E-003,4.80614E-001,0,9.02860E+000,-3.64807E-001,9.99922E-001,-3.42816E+001,-3.39027E+001,9.99270E-001,1.39175E-002,-5.64532E-003,2.03218E-004,1.39196E-002,-5.64743E-003,5.95101E-001,1.40019E-002,1.01400E+000,-7.43955E-003,0.00000E+000,7.79021E-003,9.94601E-001,0.00000E+000,-4.06791E-003,-2.28662E-002,1.00000E+000,2
1029,1307,6.81187E+000,-1.20460E+000,3.18095E-002,5.86427E-001,-2.12395E-002,-3.31887E-002,5.87749E-001,7.00525E-003,5.13294E-001,0,9.05579E+000,-3.29258E-001,9.99925E-001,-3.43501E+001,-3.38270E+001,9.98196E-001,1.40131E-002,-5.64610E-003,1.85855E-004,1.40149E-002,-5.64786E-003,5.41600E-001,1.41025E-002,1.01409E+000,-7.43819E-003,0.00000E+000,7.76484E-003,9.94600E-001,0.00000E+000,-4.55834E-003,-2.28729E-002,1.00000E+000,2
1029,1297,6.81081E+000,-1.84131E+000,8.14766E-002,5.91991E-001,-1.62147E-002,-2.03003E-002,5.92561E-001,6.28674E-003,4.91066E-001,0,9.09424E+000,-2.81855E-001,9.99929E-001,-3.43612E+001,-3.37931E+001,9.98285E-001,1.41086E-002,-5.64676E-003,1.68304E-004,1.41100E-002,-5.64819E-003,4.88079E-001,1.42032E-002,1.01419E+000,-7.43717E-003,0.00000E+000,7.73944E-003,9.94600E-001,0.00000E+000,-5.04933E-003,-2.28780E-002,1.00000E+000,2
819,1317,-7.07920E+000,-7.50096E-001,-9.04794E-003,3.89192E-001,-8.21053E-002,1.56383E-002,3.98066E-001,4.82621E-003,5.17988E-001,0,5.98981E+000,-1.35647E+000,9.99891E-001,-3.86428E+001,-3.85656E+001,9.99423E-001,1.42228E-002,-5.56040E-003,-3.89353E-004,1.42304E-002,-5.56806E-003,-1.12706E+000,1.43421E-002,1.01432E+000,-2.45467E-004,0.00000E+000,-5.50520E-004,9.94868E-001,0.00000E+000,5.81019E-004,-2.88104E-002,1.00000E+000,2
819,1327,-7.07313E+000,-1.17185E-001,-5.45567E-002,3.88321E-001,-8.66185E-002,-1.41357E-003,3.97867E-001,6.25219E-003,5.30249E-001,0,6.02945E+000,-1.39626E+000,9.99887E-001,-3.85343E+001,-3.87085E+001,9.99207E-001,1.39343E-002,-5.56120E-003,-4.28131E-004,1.39437E-002,-5.57060E-003,-1.25744E+000,1.40372E-002,1.01403E+000,-2.48677E-004,0.00000E+000,-6.11310E-004,9.94867E-001,0.00000E+000,1.22811E-004,-2.88154E-002,1.00000E+000,2
819,1337,-7.05762E+000,5.23645E-001,-6.30302E-002,3.89037E-001,-8.95500E-002,-2.05166E-002,3.99738E-001,4.10401E-003,5.52327E-001,0,6.09888E+000,-1.40369E+000,9.99879E-001,-3.81858E+001,-3.88056E+001,9.99566E-001,1.36428E-002,-5.56291E-003,-4.69008E-004,1.36543E-002,-5.57435E-003,-1.39806E+000,1.37307E-002,1.01374E+000,-2.55445E-004,0.00000E+000,-6.72657E-004,9.94866E-001,0.00000E+000,-3.39592E-004,-2.88260E-002,1.00000E+000,2
819,1307,-7.08381E+000,-1.37898E+000,4.96831E-002,3.88470E-001,-7.69404E-002,3.07573E-002,3.97209E-001,5.86402E-003,5.48876E-001,0,5.93106E+000,-1.30623E+000,9.99876E-001,-3.86950E+001,-3.83683E+001,9.99110E-001,1.45096E-002,-5.55994E-003,-3.51444E-004,1.45157E-002,-5.56609E-003,-1.00292E+000,1.46466E-002,1.01462E+000,-2.43639E-004,0.00000E+000,-4.90033E-004,9.94868E-001,0.00000E+000,1.03694E-003,-2.88075E-002,1.00000E+000,2
819,1347,-7.03602E+000,1.16840E+000,-3.93666E-002,3.90441E-001,-9.24937E-002,-3.44519E-002,4.02724E-001,4.48999E-003,5.48098E-001,0,6.16268E+000,-1.41383E+000,9.99921E-001,-3.76621E+001,-3.89283E+001,9.99564E-001,1.33495E-002,-5.56523E-003,-5.11310E-004,1.33633E-002,-5.57904E-003,-1.54734E+000,1.34238E-002,1.01344E+000,-2.64659E-004,0.00000E+000,-7.34347E-004,9.94864E-001,0.00000E+000,-8.04580E-004,-2.88404E-002,1.00000E+000,2
819,1357,-7.00811E+000,1.81833E+000,1.37666E-002,3.90703E-001,-9.55235E-002,-5.61421E-002,4.06111E-001,4.72318E-003,5.40531E-001,0,6.23210E+000,-1.41500E+000,9.99924E-001,-3.69664E+001,-3.90425E+001,9.99596E-001,1.30536E-002,-5.56842E-003,-5.55570E-004,1.30702E-002,-5.58498E-003,-1.70734E+000,1.31161E-002,1.01314E+000,-2.77250E-004,0.00000E+000,-7.96493E-004,9.94861E-001,0.00000E+000,-1.27300E-003,-2.88602E-002,1.00000E+000,2
1039,1337,7.49824E+000,7.27943E-001,-5.62965E-002,5.79883E-001,-2.78985E-002,-8.03085E-002,5.86082E-001,4.98656E-003,5.04874E-001,0,9.11561E+000,-3.32384E-001,9.99883E-001,-3.36113E+001,-3.36682E+001,9.99163E-001,1.37381E-002,-5.58993E-003,1.38024E-004,1.37391E-002,-5.59091E-003,4.09130E-001,1.38182E-002,1.01381E+000,-7.50936E-003,0.00000E+000,7.68591E-003,9.94649E-001,0.00000E+000,-2.12608E-003,-2.25358E-002,1.00000E+000,2
1039,1347,7.51618E+000,1.37420E+000,-3.85745E-002,5.75181E-001,-3.15541E-002,-9.43724E-002,5.83725E-001,4.98713E-003,4.44097E-001,0,9.09279E+000,-3.55477E-001,9.99933E-001,-3.32005E+001,-3.37484E+001,9.99535E-001,1.36733E-002,-5.58843E-003,1.54314E-004,1.36745E-002,-5.58967E-003,4.58980E-001,1.37502E-002,1.01374E+000,-7.51167E-003,0.00000E+000,7.71081E-003,9.94650E-001,0.00000E+000,-1.66963E-003,-2.25199E-002,1.00000E+000,2
1039,1317,7.48011E+000,-5.57095E-001,-1.57314E-002,5.90006E-001,-1.98164E-002,-4.95468E-002,5.92414E-001,4.11717E-003,4.78057E-001,0,9.16105E+000,-2.78411E-001,9.99947E-001,-3.40017E+001,-3.36407E+001,9.99465E-001,1.38665E-002,-5.59199E-003,1.04698E-004,1.38671E-002,-5.59255E-003,3.08272E-001,1.39533E-002,1.01394E+000,-7.50647E-003,0.00000E+000,7.63629E-003,9.94648E-001,0.00000E+000,-3.03588E-003,-2.25556E-002,1.00000E+000,2
1039,1327,7.48760E+000,8.25167E-002,-4.13108E-002,5.85305E-001,-2.37389E-002,-6.21457E-002,5.89074E-001,4.65878E-003,4.43732E-001,0,9.13412E+000,-3.13202E-001,9.99922E-001,-3.38418E+001,-3.37106E+001,9.99225E-001,1.38027E-002,-5.59106E-003,1.21386E-004,1.38034E-002,-5.59182E-003,3.58596E-001,1.38861E-002,1.01387E+000,-7.50772E-003,0.00000E+000,7.66100E-003,9.94648E-001,0.00000E+000,-2.58293E-003,-2.25470E-002,1.00000E+000,2
1039,1307,7.47602E+000,-1.19592E+000,2.18981E-002,5.95239E-001,-1.65483E-002,-3.72021E-002,5.96630E-001,4.87430E-003,4.99628E-001,0,9.19697E+000,-2.54169E-001,9.99916E-001,-3.40843E+001,-3.35928E+001,9.99261E-001,1.39301E-002,-5.59276E-003,8.78928E-005,1.39305E-002,-5.59316E-003,2.57942E-001,1.40203E-002,1.01401E+000,-7.50551E-003,0.00000E+000,7.61163E-003,9.94647E-001,0.00000E+000,-3.48809E-003,-2.25622E-002,1.00000E+000,2
1039,1297,7.47562E+000,-1.83276E+000,7.43006E-002,6.00941E-001,-1.21622E-002,-2.40479E-002,6.01545E-001,5.25339E-003,4.82656E-001,0,9.23644E+000,-2.13970E-001,9.99879E-001,-3.40790E+001,-3.35658E+001,9.98917E-001,1.39934E-002,-5.59336E-003,7.09368E-005,1.39936E-002,-5.59362E-003,2.07503E-001,1.40871E-002,1.01407E+000,-7.50489E-003,0.00000E+000,7.58698E-003,9.94647E-001,0.00000E+000,-3.93999E-003,-2.25665E-002,1.00000E+000,2
1049,1337,8.16651E+000,7.38451E-001,-5.01495E-002,5.90074E-001,-2.22067E-002,-7.68851E-002,5.95476E-001,6.89941E-003,4.63587E-001,0,9.25172E+000,-2.62026E-001,9.99957E-001,-3.32480E+001,-3.34491E+001,9.99525E-001,1.36989E-002,-5.57686E-003,3.17824E-005,1.36990E-002,-5.57691E-003,9.44705E-002,1.37775E-002,1.01377E+000,-7.56213E-003,0.00000E+000,7.50936E-003,9.94656E-001,0.00000E+000,-1.36739E-003,-2.22260E-002,1.00000E+000,2
1049,1347,8.18729E+000,1.38916E+000,-2.50712E-002,5.85732E-001,-2.53441E-002,-9.31245E-002,5.93630E-001,6.50284E-003,4.78848E-001,0,9.24201E+000,-2.75093E-001,9.99922E-001,-3.27803E+001,-3.34373E+001,9.99242E-001,1.36796E-002,-5.57530E-003,4.84011E-005,1.36797E-002,-5.57542E-003,1.44023E-001,1.37574E-002,1.01375E+000,-7.56289E-003,0.00000E+000,7.53600E-003,9.94657E-001,0.00000E+000,-1.03683E-003,-2.22134E-002,1.00000E+000,2
1049,1307,8.14517E+000,-1.18487E+000,3.22882E-002,6.04763E-001,-1.11023E-002,-3.73636E-002,6.06018E-001,6.82151E-003,4.51390E-001,0,9.33461E+000,-1.69865E-001,9.99914E-001,-3.36956E+001,-3.33820E+001,9.99305E-001,1.37555E-002,-5.57950E-003,-1.80973E-005,1.37555E-002,-5.57951E-003,-5.36280E-002,1.38370E-002,1.01382E+000,-7.56103E-003,0.00000E+000,7.43035E-003,9.94655E-001,0.00000E+000,-2.34788E-003,-2.22442E-002,1.00000E+000,2
1049,1317,8.14935E+000,-5.44994E-001,-3.65464E-003,5.99222E-001,-1.41676E-002,-4.93048E-002,6.01414E-001,6.56440E-003,4.50251E-001,0,9.29277E+000,-1.95679E-001,9.99872E-001,-3.36090E+001,-3.34058E+001,9.98499E-001,1.37368E-002,-5.57874E-003,-1.47568E-006,1.37368E-002,-5.57874E-003,-4.37732E-003,1.38173E-002,1.01381E+000,-7.56132E-003,0.00000E+000,7.45662E-003,9.94655E-001,0.00000E+000,-2.02184E-003,-2.22393E-002,1.00000E+000,2
1049,1327,8.15385E+000,9.38074E-002,-4.34104E-002,5.94585E-001,-1.85503E-002,-6.25243E-002,5.98152E-001,3.98046E-003,4.49881E-001,0,9.26979E+000,-2.32118E-001,9.99935E-001,-3.35253E+001,-3.34394E+001,9.98953E-001,1.37180E-002,-5.57801E-003,1.51605E-005,1.37180E-002,-5.57802E-003,4.50162E-002,1.37975E-002,1.01379E+000,-7.56160E-003,0.00000E+000,7.48291E-003,9.94655E-001,0.00000E+000,-1.69565E-003,-2.22347E-002,1.00000E+000,2
809,1347,-7.69442E+000,1.15959E+000,-4.75237E-002,3.80370E-001,-9.38131E-002,-3.82058E-002,3.93626E-001,3.92132E-003,5.36717E-001,0,6.02195E+000,-1.43020E+000,9.99942E-001,-3.77961E+001,-3.91469E+001,9.99713E-001,1.33013E-002,-5.54613E-003,-4.48814E-004,1.33120E-002,-5.55681E-003,-1.36335E+000,1.33724E-002,1.01339E+000,-1.83748E-005,0.00000E+000,-8.49014E-004,9.94873E-001,0.00000E+000,-9.06666E-004,-2.84910E-002,1.00000E+000,2
809,1357,-7.66646E+000,1.81090E+000,1.14873E-002,3.80197E-001,-9.63179E-002,-5.75301E-002,3.96405E-001,5.18832E-003,5.32205E-001,0,6.07685E+000,-1.42117E+000,9.99921E-001,-3.70819E+001,-3.92528E+001,9.99384E-001,1.30235E-002,-5.55044E-003,-5.05494E-004,1.30372E-002,-5.56419E-003,-1.55778E+000,1.30837E-002,1.01311E+000,-3.04349E-005,0.00000E+000,-9.37344E-004,9.94869E-001,0.00000E+000,-1.34946E-003,-2.85100E-002,1.00000E+000,2
809,1327,-7.73011E+000,-1.22698E-001,-6.25924E-002,3.78750E-001,-8.81496E-002,-7.79615E-003,3.88950E-001,5.24776E-003,5.49684E-001,0,5.90525E+000,-1.38451E+000,9.99888E-001,-3.86490E+001,-3.88579E+001,9.98879E-001,1.38485E-002,-5.54092E-003,-3.41593E-004,1.38545E-002,-5.54694E-003,-1.00899E+000,1.39459E-002,1.01394E+000,-3.74578E-006,0.00000E+000,-6.74833E-004,9.94877E-001,0.00000E+000,-3.35013E-005,-2.84679E-002,1.00000E+000,2
809,1337,-7.71336E+000,5.18160E-001,-6.15654E-002,3.80410E-001,-8.96778E-002,-1.97498E-002,3.91336E-001,3.56632E-003,5.62566E-001,0,5.96653E+000,-1.40482E+000,9.99912E-001,-3.82560E+001,-3.89812E+001,9.99646E-001,1.35757E-002,-5.54323E-003,-3.94677E-004,1.35838E-002,-5.55137E-003,-1.18210E+000,1.36591E-002,1.01367E+000,-1.02311E-005,0.00000E+000,-7.61725E-004,9.94875E-001,0.00000E+000,-4.69088E-004,-2.84781E-002,1.00000E+000,2
809,1307,-7.74181E+000,-1.38375E+000,4.59332E-002,3.77852E-001,-7.67949E-002,2.89454E-002,3.86662E-001,5.49643E-003,5.80712E-001,0,5.77676E+000,-1.30562E+000,9.99871E-001,-3.88152E+001,-3.85063E+001,9.98827E-001,1.43886E-002,-5.53929E-003,-2.40391E-004,1.43915E-002,-5.54219E-003,-6.91029E-001,1.45176E-002,1.01449E+000,9.35105E-007,0.00000E+000,-5.02560E-004,9.94879E-001,0.00000E+000,8.30097E-004,-2.84606E-002,1.00000E+000,2
809,1317,-7.73645E+000,-7.54472E-001,-1.45153E-002,3.79529E-001,-8.25105E-002,1.30433E-002,3.88613E-001,6.18211E-003,5.72725E-001,0,5.85258E+000,-1.35408E+000,9.99933E-001,-3.87557E+001,-3.86839E+001,9.99147E-001,1.41191E-002,-5.53984E-003,-2.90544E-004,1.41234E-002,-5.54414E-003,-8.46540E-001,1.42317E-002,1.01422E+000,-6.72200E-007,0.00000E+000,-5.88547E-004,9.94878E-001,0.00000E+000,3.99047E-004,-2.84631E-002,1.00000E+000,2
1049,1297,8.14119E+000,-1.82276E+000,7.53455E-002,6.09339E-001,-6.94825E-003,-2.33157E-002,6.09825E-001,5.79663E-003,4.59485E-001,0,9.35377E+000,-1.34047E-001,9.99839E-001,-3.37644E+001,-3.33408E+001,9.98602E-001,1.37741E-002,-5.58020E-003,-3.47188E-005,1.37742E-002,-5.58026E-003,-1.02780E-001,1.38566E-002,1.01384E+000,-7.56077E-003,0.00000E+000,7.40411E-003,9.94654E-001,0.00000E+000,-2.67353E-003,-2.22486E-002,1.00000E+000,2
799,1337,-8.37025E+000,5.10398E-001,-6.72086E-002,3.71139E-001,-9.08617E-002,-2.14563E-002,3.82702E-001,3.03753E-003,5.36543E-001,0,5.83199E+000,-1.40706E+000,9.99958E-001,-3.83585E+001,-3.91948E+001,9.99766E-001,1.34519E-002,-5.51943E-003,-3.07276E-004,1.34568E-002,-5.52441E-003,-9.27688E-001,1.35285E-002,1.01354E+000,2.32482E-004,0.00000E+000,-8.23376E-004,9.94887E-001,0.00000E+000,-5.68146E-004,-2.80675E-002,1.00000E+000,2
799,1347,-8.35125E+000,1.15324E+000,-5.22590E-002,3.71679E-001,-9.34646E-002,-3.72038E-002,3.85052E-001,3.72963E-003,5.35585E-001,0,5.88734E+000,-1.42146E+000,9.99911E-001,-3.78933E+001,-3.93298E+001,9.99685E-001,1.31941E-002,-5.52271E-003,-3.69277E-004,1.32014E-002,-5.52999E-003,-1.12984E+000,1.32592E-002,1.01328E+000,2.25024E-004,0.00000E+000,-9.28424E-004,9.94884E-001,0.00000E+000,-9.62644E-004,-2.80788E-002,1.00000E+000,2
799,1357,-8.32288E+000,1.80497E+000,9.24139E-003,3.71973E-001,-9.52260E-002,-5.49465E-002,3.87880E-001,4.02673E-003,5.32089E-001,0,5.94404E+000,-1.40864E+000,9.99904E-001,-3.71637E+001,-3.94358E+001,9.99485E-001,1.29332E-002,-5.52771E-003,-4.33881E-004,1.29433E-002,-5.53790E-003,-1.34562E+000,1.29882E-002,1.01302E+000,2.13687E-004,0.00000E+000,-1.03469E-003,9.94880E-001,0.00000E+000,-1.36172E-003,-2.80960E-002,1.00000E+000,2
799,1327,-8.38504E+000,-1.29387E-001,-6.00391E-002,3.70899E-001,-8.76996E-002,-3.54906E-003,3.81143E-001,8.31435E-003,5.19856E-001,0,5.77424E+000,-1.39019E+000,9.99945E-001,-3.87015E+001,-3.90728E+001,9.99028E-001,1.37085E-002,-5.51686E-003,-2.46266E-004,1.37116E-002,-5.52002E-003,-7.33767E-001,1.37981E-002,1.01380E+000,2.38359E-004,0.00000E+000,-7.18699E-004,9.94890E-001,0.00000E+000,-1.75036E-004,-2.80587E-002,1.00000E+000,2
1059,1327,8.82067E+000,1.05350E-001,-4.02887E-002,6.03144E-001,-1.35073E-002,-6.12473E-002,6.06396E-001,6.35102E-003,4.41834E-001,0,9.38835E+000,-1.52015E-001,9.99931E-001,-3.31859E+001,-3.31828E+001,9.99122E-001,1.36208E-002,-5.54927E-003,-8.04296E-005,1.36212E-002,-5.54961E-003,-2.40383E-001,1.36988E-002,1.01369E+000,-7.56078E-003,0.00000E+000,7.27618E-003,9.94681E-001,0.00000E+000,-9.47269E-004,-2.20156E-002,1.00000E+000,2
1059,1337,8.83395E+000,7.51087E-001,-4.44146E-002,5.98732E-001,-1.64830E-002,-7.46179E-002,6.03589E-001,5.37159E-003,4.67634E-001,0,9.36828E+000,-1.80650E-001,9.99935E-001,-3.28952E+001,-3.31739E+001,9.99521E-001,1.36437E-002,-5.54772E-003,-5.75198E-005,1.36439E-002,-5.54789E-003,-1.71722E-001,1.37230E-002,1.01371E+000,-7.56015E-003,0.00000E+000,7.31657E-003,9.94682E-001,0.00000E+000,-7.46122E-004,-2.20102E-002,1.00000E+000,2
1059,1347,8.85499E+000,1.40036E+000,-1.88018E-002,5.94245E-001,-2.04451E-002,-9.13485E-002,6.01573E-001,8.13188E-003,4.37606E-001,0,9.35880E+000,-1.98420E-001,9.99931E-001,-3.24246E+001,-3.32066E+001,9.99087E-001,1.36668E-002,-5.54563E-003,-3.43533E-005,1.36668E-002,-5.54569E-003,-1.02449E-001,1.37475E-002,1.01373E+000,-7.55925E-003,0.00000E+000,7.35718E-003,9.94683E-001,0.00000E+000,-5.43865E-004,-2.20024E-002,1.00000E+000,2
1059,1297,8.80540E+000,-1.81425E+000,6.80104E-002,6.17954E-001,-1.54328E-003,-2.23846E-002,6.18361E-001,4.42247E-003,4.28557E-001,0,9.47353E+000,-5.53190E-002,9.99922E-001,-3.34844E+001,-3.31253E+001,9.99132E-001,1.35522E-002,-5.55235E-003,-1.48361E-004,1.35534E-002,-5.55350E-003,-4.44908E-001,1.36268E-002,1.01362E+000,-7.56185E-003,0.00000E+000,7.15575E-003,9.94679E-001,0.00000E+000,-1.54705E-003,-2.20250E-002,1.00000E+000,2
1059,1307,8.80916E+000,-1.17724E+000,2.24454E-002,6.13108E-001,-5.89255E-003,-3.89765E-002,6.14374E-001,6.97254E-003,3.98139E-001,0,9.45976E+000,-9.17136E-002,9.99920E-001,-3.34245E+001,-3.31841E+001,9.99117E-001,1.35751E-002,-5.55142E-003,-1.25822E-004,1.35759E-002,-5.55225E-003,-3.76894E-001,1.36507E-002,1.01364E+000,-7.56154E-003,0.00000E+000,7.19575E-003,9.94679E-001,0.00000E+000,-1.34784E-003,-2.20223E-002,1.00000E+000,2
1059,1317,8.81315E+000,-5.37974E-001,-1.74443E-002,6.07816E-001,-1.03978E-002,-5.25226E-002,6.10170E-001,8.01437E-003,4.15159E-001,0,9.42834E+000,-1.30808E-001,9.99874E-001,-3.33498E+001,-3.31980E+001,9.98384E-001,1.35979E-002,-5.55045E-003,-1.03191E-004,1.35985E-002,-5.55100E-003,-3.08755E-001,1.36747E-002,1.01366E+000,-7.56121E-003,0.00000E+000,7.23590E-003,9.94680E-001,0.00000E+000,-1.14792E-003,-2.20194E-002,1.00000E+000,2
799,1307,-8.39569E+000,-1.39025E+000,5.16945E-002,3.69752E-001,-7.76598E-002,3.05098E-002,3.79050E-001,6.62496E-003,5.65697E-001,0,5.65112E+000,-1.32987E+000,9.99920E-001,-3.88442E+001,-3.87141E+001,9.99411E-001,1.42155E-002,-5.51524E-003,-1.29404E-004,1.42163E-002,-5.51608E-003,-3.75753E-001,1.43347E-002,1.01432E+000,2.42215E-004,0.00000E+000,-5.11599E-004,9.94891E-001,0.00000E+000,6.02712E-004,-2.80528E-002,1.00000E+000,2
799,1317,-8.39435E+000,-7.61526E-001,-2.47532E-002,3.70119E-001,-8.21097E-002,1.20890E-002,3.79310E-001,8.13537E-003,5.76377E-001,0,5.71375E+000,-1.35719E+000,9.99921E-001,-3.88874E+001,-3.88589E+001,9.98719E-001,1.39629E-002,-5.51537E-003,-1.86897E-004,1.39647E-002,-5.51716E-003,-5.49695E-001,1.40668E-002,1.01406E+000,2.41811E-004,0.00000E+000,-6.14814E-004,9.94891E-001,0.00000E+000,2.15095E-004,-2.80534E-002,1.00000E+000,2
789,1327,-9.04090E+000,-1.34899E-001,-6.48829E-002,3.62358E-001,-8.64155E-002,-3.15618E-003,3.72533E-001,6.36194E-003,5.54137E-001,0,5.64387E+000,-1.39358E+000,9.99922E-001,-3.87839E+001,-3.92218E+001,9.99350E-001,1.35433E-002,-5.50269E-003,-1.76771E-004,1.35450E-002,-5.50433E-003,-5.31715E-001,1.36239E-002,1.01364E+000,4.44382E-004,0.00000E+000,-7.80733E-004,9.94891E-001,0.00000E+000,-2.44796E-004,-2.76214E-002,1.00000E+000,2
789,1337,-9.02548E+000,5.04870E-001,-6.92824E-002,3.62714E-001,-8.98537E-002,-2.16273E-002,3.74303E-001,3.58802E-003,5.42228E-001,0,5.70485E+000,-1.39892E+000,9.99933E-001,-3.84224E+001,-3.93659E+001,9.99699E-001,1.33122E-002,-5.50544E-003,-2.39552E-004,1.33153E-002,-5.50848E-003,-7.29227E-001,1.33812E-002,1.01340E+000,4.38896E-004,0.00000E+000,-8.91046E-004,9.94889E-001,0.00000E+000,-5.82720E-004,-2.76293E-002,1.00000E+000,2
789,1347,-9.00642E+000,1.14864E+000,-5.12320E-002,3.63020E-001,-9.25646E-002,-3.64906E-002,3.76408E-001,3.67911E-003,5.60972E-001,0,5.75365E+000,-1.41249E+000,9.99916E-001,-3.79464E+001,-3.94854E+001,9.99638E-001,1.30798E-002,-5.50886E-003,-3.03289E-004,1.30848E-002,-5.51381E-003,-9.34494E-001,1.31386E-002,1.01317E+000,4.32064E-004,0.00000E+000,-1.00189E-003,9.94886E-001,0.00000E+000,-9.22257E-004,-2.76392E-002,1.00000E+000,2
789,1357,-8.97907E+000,1.79959E+000,6.28129E-003,3.63806E-001,-9.39010E-002,-5.16867E-002,3.79268E-001,3.63782E-003,5.55572E-001,0,5.80994E+000,-1.39793E+000,9.99879E-001,-3.72401E+001,-3.95971E+001,9.99543E-001,1.28453E-002,-5.51374E-003,-3.68942E-004,1.28527E-002,-5.52115E-003,-1.15079E+000,1.28952E-002,1.01293E+000,4.22389E-004,0.00000E+000,-1.11365E-003,9.94881E-001,0.00000E+000,-1.26463E-003,-2.76532E-002,1.00000E+000,2
1069,1327,9.48836E+000,1.15687E-001,-4.34719E-002,6.13197E-001,-9.85312E-003,-6.15849E-002,6.16361E-001,7.05824E-003,4.60408E-001,0,9.53575E+000,-9.02594E-002,9.99923E-001,-3.28425E+001,-3.29179E+001,9.98759E-001,1.35339E-002,-5.50863E-003,-1.45469E-004,1.35350E-002,-5.50974E-003,-4.37657E-001,1.36127E-002,1.01360E+000,-7.49936E-003,0.00000E+000,7.07435E-003,9.94720E-001,0.00000E+000,-3.47320E-004,-2.18865E-002,1.00000E+000,2
1069,1337,9.49944E+000,7.60724E-001,-5.08832E-002,6.07363E-001,-1.16916E-002,-7.45812E-002,6.12036E-001,4.55517E-003,4.26569E-001,0,9.49272E+000,-9.58795E-002,9.99910E-001,-3.25937E+001,-3.29410E+001,9.99238E-001,1.35813E-002,-5.50673E-003,-1.16109E-004,1.35820E-002,-5.50744E-003,-3.48503E-001,1.36626E-002,1.01365E+000,-7.49811E-003,0.00000E+000,7.12892E-003,9.94721E-001,0.00000E+000,-2.42939E-004,-2.18838E-002,1.00000E+000,2
1069,1347,9.51853E+000,1.40940E+000,-3.23745E-002,6.02573E-001,-1.61680E-002,-9.06529E-002,6.09569E-001,4.64331E-003,4.45502E-001,0,9.47695E+000,-1.34545E-001,9.99923E-001,-3.21697E+001,-3.29413E+001,9.99409E-001,1.36290E-002,-5.50423E-003,-8.62576E-005,1.36294E-002,-5.50461E-003,-2.58297E-001,1.37131E-002,1.01369E+000,-7.49636E-003,0.00000E+000,7.18396E-003,9.94723E-001,0.00000E+000,-1.37670E-004,-2.18800E-002,1.00000E+000,2
789,1307,-9.05198E+000,-1.39449E+000,4.95468E-002,3.60975E-001,-7.57348E-002,3.52202E-002,3.70512E-001,7.22517E-003,5.53458E-001,0,5.50477E+000,-1.30274E+000,9.99900E-001,-3.89263E+001,-3.88694E+001,9.98180E-001,1.39996E-002,-5.50102E-003,-5.62940E-005,1.39998E-002,-5.50118E-003,-1.65398E-001,1.41063E-002,1.01410E+000,4.47906E-004,0.00000E+000,-5.62684E-004,9.94893E-001,0.00000E+000,4.23158E-004,-2.76163E-002,1.00000E+000,2
789,1317,-9.04708E+000,-7.66316E-001,-9.68549E-003,3.62121E-001,-8.17558E-002,1.96007E-002,3.71752E-001,8.42600E-003,5.39687E-001,0,5.57091E+000,-1.36127E+000,9.99889E-001,-3.88704E+001,-3.90729E+001,9.97621E-001,1.37719E-002,-5.50165E-003,-1.16254E-004,1.37726E-002,-5.50236E-003,-3.45579E-001,1.38650E-002,1.01387E+000,4.46541E-004,0.00000E+000,-6.71558E-004,9.94892E-001,0.00000E+000,8.96433E-005,-2.76183E-002,1.00000E+000,2
1069,1297,9.46776E+000,-1.80648E+000,5.07326E-002,6.26051E-001,2.91542E-003,-2.38399E-002,6.26512E-001,4.90158E-003,4.23458E-001,0,9.59429E+000,2.01795E-002,9.99908E-001,-3.32492E+001,-3.28874E+001,9.99142E-001,1.33921E-002,-5.51283E-003,-2.32774E-004,1.33949E-002,-5.51569E-003,-7.05335E-001,1.34643E-002,1.01345E+000,-7.50184E-003,0.00000E+000,6.91095E-003,9.94717E-001,0.00000E+000,-6.59862E-004,-2.18919E-002,1.00000E+000,2
1069,1307,9.47080E+000,-1.17051E+000,1.18338E-003,6.21597E-001,-1.81577E-003,-3.94679E-002,6.22851E-001,5.27628E-003,3.90952E-001,0,9.58364E+000,-2.57609E-002,9.99936E-001,-3.32089E+001,-3.29531E+001,9.98962E-001,1.34391E-002,-5.51175E-003,-2.03974E-004,1.34413E-002,-5.51394E-003,-6.16598E-001,1.35133E-002,1.01350E+000,-7.50128E-003,0.00000E+000,6.96509E-003,9.94717E-001,0.00000E+000,-5.56306E-004,-2.18907E-002,1.00000E+000,2
1069,1317,9.47896E+000,-5.27665E-001,-2.48263E-002,6.16890E-001,-5.93727E-003,-5.37319E-002,6.19254E-001,6.96361E-003,4.46905E-001,0,9.56351E+000,-6.30665E-002,9.99911E-001,-3.30427E+001,-3.29197E+001,9.98602E-001,1.34865E-002,-5.51020E-003,-1.74731E-004,1.34881E-002,-5.51181E-003,-5.26946E-001,1.35630E-002,1.01355E+000,-7.50033E-003,0.00000E+000,7.01971E-003,9.94718E-001,0.00000E+000,-4.51835E-004,-2.18886E-002,1.00000E+000,2
779,1327,-9.69456E+000,-1.38038E-001,-6.25258E-002,3.54596E-001,-8.53783E-002,-4.27085E-004,3.64730E-001,9.71940E-003,5.91249E-001,0,5.51857E+000,-1.37785E+000,9.99932E-001,-3.88096E+001,-3.93483E+001,9.99090E-001,1.33418E-002,-5.43872E-003,-1.63898E-004,1.33432E-002,-5.44015E-003,-4.99970E-001,1.34187E-002,1.01343E+000,6.20359E-004,0.00000E+000,-9.26250E-004,9.94942E-001,0.00000E+000,-3.10610E-004,-2.71325E-002,1.00000E+000,2
779,1337,-9.68030E+000,4.99719E-001,-6.82519E-002,3.54278E-001,-8.95030E-002,-1.85673E-002,3.65880E-001,3.53459E-003,5.69840E-001,0,5.56794E+000,-1.40328E+000,9.99909E-001,-3.84682E+001,-3.95272E+001,9.99600E-001,1.31573E-002,-5.44101E-003,-2.18112E-004,1.31598E-002,-5.44357E-003,-6.71814E-001,1.32251E-002,1.01324E+000,6.16109E-004,0.00000E+000,-1.02254E-003,9.94939E-001,0.00000E+000,-5.88325E-004,-2.71389E-002,1.00000E+000,2
779,1347,-9.66110E+000,1.14321E+000,-4.74315E-002,3.54331E-001,-9.15424E-002,-3.35989E-002,3.67504E-001,3.80866E-003,5.53532E-001,0,5.61280E+000,-1.40621E+000,9.99903E-001,-3.79810E+001,-3.96761E+001,9.99567E-001,1.29717E-002,-5.44404E-003,-2.73263E-004,1.29757E-002,-5.44809E-003,-8.49938E-001,1.30312E-002,1.01306E+000,6.10530E-004,0.00000E+000,-1.11934E-003,9.94937E-001,0.00000E+000,-8.67514E-004,-2.71471E-002,1.00000E+000,2
779,1357,-9.63475E+000,1.79339E+000,3.03705E-003,3.55075E-001,-9.32334E-002,-5.20717E-002,3.70786E-001,2.94572E-003,5.59074E-001,0,5.67811E+000,-1.38976E+000,9.99888E-001,-3.73058E+001,-3.97806E+001,9.99704E-001,1.27843E-002,-5.44811E-003,-3.29838E-004,1.27902E-002,-5.45408E-003,-1.03607E+000,1.28363E-002,1.01287E+000,6.03063E-004,0.00000E+000,-1.21705E-003,9.94933E-001,0.00000E+000,-1.14930E-003,-2.71582E-002,1.00000E+000,2
779,1317,-9.70164E+000,-7.71485E-001,-7.23845E-003,3.53282E-001,-8.10936E-002,2.15792E-002,3.63111E-001,1.15249E-002,5.14866E-001,0,5.43175E+000,-1.34929E+000,9.99917E-001,-3.89100E+001,-3.92601E+001,9.98751E-001,1.35251E-002,-5.43786E-003,-1.11257E-004,1.35257E-002,-5.43852E-003,-3.36142E-001,1.36119E-002,1.01362E+000,6.22030E-004,0.00000E+000,-8.30511E-004,9.94943E-001,0.00000E+000,-3.44856E-005,-2.71301E-002,1.00000E+000,2
1079,1337,1.01671E+001,7.70996E-001,-5.85521E-002,6.16992E-001,-7.83585E-003,-7.85767E-002,6.22025E-001,4.53624E-003,4.54547E-001,0,9.64687E+000,-3.37407E-002,9.99957E-001,-3.22577E+001,-3.26610E+001,9.99583E-001,1.35258E-002,-5.48743E-003,-1.54920E-004,1.35271E-002,-5.48870E-003,-4.66803E-001,1.36070E-002,1.01359E+000,-7.39291E-003,0.00000E+000,6.94025E-003,9.94739E-001,0.00000E+000,1.64107E-004,-2.17798E-002,1.00000E+000,2
1079,1347,1.01860E+001,1.42004E+000,-3.81889E-002,6.11773E-001,-1.21315E-002,-9.31901E-002,6.18949E-001,3.33696E-003,4.60273E-001,0,9.61961E+000,-6.78483E-002,9.99952E-001,-3.18345E+001,-3.26648E+001,9.99759E-001,1.35962E-002,-5.48476E-003,-1.22768E-004,1.35970E-002,-5.48555E-003,-3.68624E-001,1.36813E-002,1.01366E+000,-7.39030E-003,0.00000E+000,7.00042E-003,9.94741E-001,0.00000E+000,1.97657E-004,-2.17785E-002,1.00000E+000,2
1079,1297,1.01356E+001,-1.79516E+000,5.29201E-002,6.35418E-001,8.32121E-003,-2.17829E-002,6.35845E-001,5.47991E-003,4.30308E-001,0,9.72074E+000,1.01988E-001,9.99903E-001,-3.28859E+001,-3.26296E+001,9.99187E-001,1.32470E-002,-5.49383E-003,-2.79847E-004,1.32511E-002,-5.49801E-003,-8.55315E-001,1.33149E-002,1.01331E+000,-7.39836E-003,0.00000E+000,6.70196E-003,9.94735E-001,0.00000E+000,3.12536E-005,-2.17823E-002,1.00000E+000,2
1079,1307,1.01363E+001,-1.16031E+000,-6.44289E-003,6.29909E-001,2.45086E-003,-4.12221E-002,6.31261E-001,5.69778E-003,4.20891E-001,0,9.70879E+000,4.50374E-002,9.99940E-001,-3.29029E+001,-3.26788E+001,9.99038E-001,1.33162E-002,-5.49281E-003,-2.49144E-004,1.33195E-002,-5.49611E-003,-7.58761E-001,1.33871E-002,1.01338E+000,-7.39767E-003,0.00000E+000,6.76114E-003,9.94735E-001,0.00000E+000,6.42506E-005,-2.17820E-002,1.00000E+000,2
1079,1327,1.01555E+001,1.25989E-001,-4.85180E-002,6.22004E-001,-5.72956E-003,-6.50442E-002,6.25422E-001,6.06224E-003,4.71090E-001,0,9.67504E+000,-2.11670E-002,9.99947E-001,-3.25071E+001,-3.26536E+001,9.99471E-001,1.34560E-002,-5.48941E-003,-1.86417E-004,1.34578E-002,-5.49124E-003,-5.63699E-001,1.35335E-002,1.01352E+000,-7.39471E-003,0.00000E+000,6.88057E-003,9.94738E-001,0.00000E+000,1.30837E-004,-2.17806E-002,1.00000E+000,2
1079,1317,1.01452E+001,-5.16767E-001,-3.21296E-002,6.26024E-001,-1.33644E-003,-5.44352E-002,6.28387E-001,5.83238E-003,4.84096E-001,0,9.69756E+000,1.06455E-002,9.99928E-001,-3.27253E+001,-3.26298E+001,9.99160E-001,1.33862E-002,-5.49118E-003,-2.17813E-004,1.33887E-002,-5.49370E-003,-6.60981E-001,1.34603E-002,1.01345E+000,-7.39627E-003,0.00000E+000,6.82087E-003,9.94736E-001,0.00000E+000,9.75526E-005,-2.17814E-002,1.00000E+000,2
779,1307,-9.70666E+000,-1.40021E+000,5.19036E-002,3.51739E-001,-7.70594E-002,3.60892E-002,3.61885E-001,6.35017E-003,5.60363E-001,0,5.36367E+000,-1.31852E+000,9.99888E-001,-3.89685E+001,-3.90472E+001,9.99077E-001,1.37069E-002,-5.43737E-003,-5.93380E-005,1.37071E-002,-5.43756E-003,-1.77587E-001,1.38042E-002,1.01380E+000,6.23038E-004,0.00000E+000,-7.35499E-004,9.94943E-001,0.00000E+000,2.39537E-004,-2.71286E-002,1.00000E+000,2
1089,1337,1.08335E+001,7.81758E-001,-6.32731E-002,6.24952E-001,-4.12117E-003,-7.93919E-002,6.29988E-001,3.57225E-003,4.85563E-001,0,9.76415E+000,2.78108E-002,9.99935E-001,-3.19318E+001,-3.23787E+001,9.99682E-001,1.35319E-002,-5.46390E-003,-1.88320E-004,1.35338E-002,-5.46576E-003,-5.67943E-001,1.36169E-002,1.01360E+000,-7.28506E-003,0.00000E+000,6.76388E-003,9.94762E-001,0.00000E+000,3.62063E-004,-2.16990E-002,1.00000E+000,2
1089,1347,1.08528E+001,1.43127E+000,-4.32416E-002,6.20042E-001,-7.11313E-003,-9.38982E-002,6.27152E-001,3.77670E-003,4.62885E-001,0,9.74104E+000,1.22948E-002,9.99940E-001,-3.15055E+001,-3.23870E+001,9.99495E-001,1.36360E-002,-5.46116E-003,-1.54702E-004,1.36373E-002,-5.46241E-003,-4.64098E-001,1.37269E-002,1.01370E+000,-7.28119E-003,0.00000E+000,6.82753E-003,9.94764E-001,0.00000E+000,3.01966E-004,-2.17012E-002,1.00000E+000,2
769,1347,-1.03157E+001,1.13800E+000,-4.85866E-002,3.46111E-001,-9.04490E-002,-3.16357E-002,3.59131E-001,3.32544E-003,5.55369E-001,0,5.48198E+000,-1.39039E+000,9.99922E-001,-3.80228E+001,-3.98482E+001,9.99481E-001,1.28248E-002,-5.45074E-003,-2.53873E-004,1.28283E-002,-5.45427E-003,-7.95713E-001,1.28761E-002,1.01291E+000,8.26873E-004,0.00000E+000,-1.29568E-003,9.94919E-001,0.00000E+000,-7.87041E-004,-2.67662E-002,1.00000E+000,2
769,1357,-1.02895E+001,1.78732E+000,-1.05987E-003,3.47280E-001,-9.25919E-002,-5.12792E-002,3.63052E-001,3.07876E-003,5.67575E-001,0,5.55715E+000,-1.38037E+000,9.99920E-001,-3.73550E+001,-3.99576E+001,9.99705E-001,1.26520E-002,-5.45375E-003,-2.97329E-004,1.26569E-002,-5.45863E-003,-9.40558E-001,1.26967E-002,1.01273E+000,8.20145E-004,0.00000E+000,-1.36878E-003,9.94917E-001,0.00000E+000,-1.04479E-003,-2.67761E-002,1.00000E+000,2
769,1327,-1.03469E+001,-1.42584E-001,-4.92463E-002,3.45469E-001,-8.49464E-002,9.68694E-004,3.55761E-001,7.32072E-003,5.70670E-001,0,5.37600E+000,-1.37956E+000,9.99943E-001,-3.87818E+001,-3.95489E+001,9.98553E-001,1.31659E-002,-5.44713E-003,-1.70533E-004,1.31674E-002,-5.44869E-003,-5.24887E-001,1.32325E-002,1.01325E+000,8.35078E-004,0.00000E+000,-1.15123E-003,9.94923E-001,0.00000E+000,-2.77762E-004,-2.67541E-002,1.00000E+000,2
769,1337,-1.03350E+001,4.94862E-001,-6.61212E-002,3.45289E-001,-8.86307E-002,-1.56563E-002,3.56826E-001,3.52045E-003,5.80908E-001,0,5.42268E+000,-1.39729E+000,9.99929E-001,-3.85055E+001,-3.96947E+001,9.99400E-001,1.29959E-002,-5.44853E-003,-2.11665E-004,1.29983E-002,-5.45096E-003,-6.57403E-001,1.30545E-002,1.01308E+000,8.31846E-004,0.00000E+000,-1.22326E-003,9.94922E-001,0.00000E+000,-5.31720E-004,-2.67588E-002,1.00000E+000,2
1089,1327,1.08206E+001,1.34421E-001,-6.12902E-002,6.30428E-001,-7.60733E-004,-6.73850E-002,6.34020E-001,5.42532E-003,4.63018E-001,0,9.80420E+000,4.54687E-002,9.99921E-001,-3.22155E+001,-3.24111E+001,9.99210E-001,1.34280E-002,-5.46608E-003,-2.21424E-004,1.34306E-002,-5.46868E-003,-6.71341E-001,1.35075E-002,1.01349E+000,-7.28800E-003,0.00000E+000,6.70035E-003,9.94760E-001,0.00000E+000,4.22043E-004,-2.16974E-002,1.00000E+000,2
1089,1317,1.08123E+001,-5.08277E-001,-3.86654E-002,6.35023E-001,2.26558E-003,-5.67538E-002,6.37558E-001,5.25494E-003,4.90208E-001,0,9.83551E+000,6.05698E-002,9.99934E-001,-3.23899E+001,-3.23944E+001,9.99454E-001,1.33247E-002,-5.46776E-003,-2.53896E-004,1.33282E-002,-5.47119E-003,-7.73906E-001,1.33991E-002,1.01339E+000,-7.29009E-003,0.00000E+000,6.63726E-003,9.94759E-001,0.00000E+000,4.81611E-004,-2.16962E-002,1.00000E+000,2
1089,1297,1.08038E+001,-1.78412E+000,5.11643E-002,6.44757E-001,1.27579E-002,-2.28524E-002,6.45288E-001,4.55647E-003,4.72029E-001,0,9.85819E+000,1.70306E-001,9.99906E-001,-3.25231E+001,-3.23503E+001,9.99586E-001,1.31189E-002,-5.47038E-003,-3.18029E-004,1.31243E-002,-5.47582E-003,-9.79845E-001,1.31841E-002,1.01318E+000,-7.29307E-003,0.00000E+000,6.51151E-003,9.94757E-001,0.00000E+000,6.00340E-004,-2.16945E-002,1.00000E+000,2
1089,1307,1.08053E+001,-1.14915E+000,-6.90960E-003,6.39742E-001,6.47059E-003,-4.23398E-002,6.41174E-001,5.09267E-003,4.74452E-001,0,9.85446E+000,1.02748E-001,9.99932E-001,-3.25244E+001,-3.23928E+001,9.99472E-001,1.32215E-002,-5.46931E-003,-2.86243E-004,1.32259E-002,-5.47370E-003,-8.77187E-001,1.32912E-002,1.01328E+000,-7.29199E-003,0.00000E+000,6.57422E-003,9.94758E-001,0.00000E+000,5.41130E-004,-2.16951E-002,1.00000E+000,2
769,1317,-1.03551E+001,-7.74365E-001,-2.88567E-003,3.45303E-001,-8.09061E-002,2.65264E-002,3.55646E-001,9.29538E-003,5.62041E-001,0,5.29720E+000,-1.34261E+000,9.99902E-001,-3.89231E+001,-3.93803E+001,9.99248E-001,1.33345E-002,-5.44621E-003,-1.30247E-004,1.33354E-002,-5.44712E-003,-3.97331E-001,1.34096E-002,1.01342E+000,8.37232E-004,0.00000E+000,-1.07977E-003,9.94924E-001,0.00000E+000,-2.58148E-005,-2.67509E-002,1.00000E+000,2
1099,1327,1.14865E+001,1.43638E-001,-7.07525E-002,6.39091E-001,3.15680E-003,-6.67650E-002,6.42576E-001,4.60766E-003,4.65554E-001,0,9.92651E+000,1.11221E-001,9.99877E-001,-3.19012E+001,-3.21584E+001,9.99186E-001,1.33970E-002,-5.46568E-003,-2.54616E-004,1.34004E-002,-5.46911E-003,-7.73214E-001,1.34756E-002,1.01346E+000,-7.18503E-003,0.00000E+000,6.53160E-003,9.94767E-001,0.00000E+000,5.04948E-004,-2.19149E-002,1.00000E+000,2
1099,1337,1.15020E+001,7.92577E-001,-6.57947E-002,6.34437E-001,9.58536E-004,-7.87694E-002,6.39309E-001,4.59516E-003,4.79969E-001,0,9.89858E+000,1.03114E-001,9.99883E-001,-3.15649E+001,-3.21186E+001,9.99356E-001,1.35349E-002,-5.46326E-003,-2.19738E-004,1.35375E-002,-5.46580E-003,-6.62579E-001,1.36208E-002,1.01360E+000,-7.18075E-003,0.00000E+000,6.59959E-003,9.94769E-001,0.00000E+000,3.32072E-004,-2.19202E-002,1.00000E+000,2
1099,1347,1.15238E+001,1.44397E+000,-3.68699E-002,6.29777E-001,-1.98879E-003,-9.27502E-002,6.36574E-001,4.36942E-003,4.68743E-001,0,9.87745E+000,8.67189E-002,9.99905E-001,-3.10853E+001,-3.21101E+001,9.99342E-001,1.36734E-002,-5.46023E-003,-1.84082E-004,1.36751E-002,-5.46200E-003,-5.51167E-001,1.37671E-002,1.01374E+000,-7.17516E-003,0.00000E+000,6.66786E-003,9.94771E-001,0.00000E+000,1.58483E-004,-2.19271E-002,1.00000E+000,2
759,1347,-1.09692E+001,1.13341E+000,-5.30954E-002,3.38593E-001,-8.90039E-002,-3.24168E-002,3.51594E-001,3.00617E-003,5.62660E-001,0,5.36996E+000,-1.36017E+000,9.99902E-001,-3.80539E+001,-4.00006E+001,9.99536E-001,1.26848E-002,-5.46141E-003,-2.41002E-004,1.26880E-002,-5.46461E-003,-7.60774E-001,1.27286E-002,1.01277E+000,1.06591E-003,0.00000E+000,-1.50848E-003,9.94899E-001,0.00000E+000,-6.59677E-004,-2.63921E-002,1.00000E+000,2
759,1357,-1.09444E+001,1.78172E+000,-4.61596E-003,3.38830E-001,-9.15778E-002,-4.95568E-002,3.54469E-001,3.43285E-003,5.67185E-001,0,5.42309E+000,-1.36053E+000,9.99916E-001,-3.74036E+001,-4.01332E+001,9.99514E-001,1.25039E-002,-5.46302E-003,-2.66416E-004,1.25078E-002,-5.46697E-003,-8.49341E-001,1.25408E-002,1.01258E+000,1.05901E-003,0.00000E+000,-1.54583E-003,9.94897E-001,0.00000E+000,-9.11350E-004,-2.64016E-002,1.00000E+000,2
1099,1297,1.14698E+001,-1.77632E+000,3.96585E-002,6.53247E-001,1.54550E-002,-2.63560E-002,6.53961E-001,4.63930E-003,5.07590E-001,0,9.99227E+000,2.12473E-001,9.99798E-001,-3.22096E+001,-3.21040E+001,9.99269E-001,1.29869E-002,-5.47007E-003,-3.55292E-004,1.29937E-002,-5.47691E-003,-1.10239E+000,1.30470E-002,1.01305E+000,-7.19171E-003,0.00000E+000,6.32959E-003,9.94763E-001,0.00000E+000,1.01859E-003,-2.19066E-002,1.00000E+000,2
1099,1307,1.14727E+001,-1.13878E+000,-1.33396E-002,6.49564E-001,1.11113E-002,-4.06580E-002,6.50930E-001,5.41031E-003,4.93403E-001,0,9.98954E+000,1.78342E-001,9.99872E-001,-3.21796E+001,-3.21239E+001,9.99408E-001,1.31232E-002,-5.46897E-003,-3.22211E-004,1.31288E-002,-5.47455E-003,-9.92562E-001,1.31890E-002,1.01318E+000,-7.19026E-003,0.00000E+000,6.39673E-003,9.94764E-001,0.00000E+000,8.47881E-004,-2.19084E-002,1.00000E+000,2
1099,1317,1.14784E+001,-4.98430E-001,-4.70639E-002,6.44834E-001,7.38037E-003,-5.17946E-002,6.46953E-001,5.14233E-003,4.88162E-001,0,9.95874E+000,1.39485E-001,9.99926E-001,-3.20684E+001,-3.21382E+001,9.99399E-001,1.32599E-002,-5.46749E-003,-2.88634E-004,1.32644E-002,-5.47194E-003,-8.82785E-001,1.33319E-002,1.01332E+000,-7.18800E-003,0.00000E+000,6.46406E-003,9.94765E-001,0.00000E+000,6.76671E-004,-2.19112E-002,1.00000E+000,2
759,1327,-1.10011E+001,-1.48115E-001,-5.00973E-002,3.36193E-001,-8.45397E-002,-4.05959E-004,3.46660E-001,4.04723E-003,5.58852E-001,0,5.23933E+000,-1.36952E+000,9.99933E-001,-3.88168E+001,-3.97300E+001,9.99632E-001,1.30424E-002,-5.45952E-003,-1.93397E-004,1.30444E-002,-5.46154E-003,-5.98815E-001,1.31018E-002,1.01313E+000,1.07421E-003,0.00000E+000,-1.43461E-003,9.94900E-001,0.00000E+000,-1.61971E-004,-2.63807E-002,1.00000E+000,2
759,1337,-1.09880E+001,4.91056E-001,-6.47041E-002,3.37075E-001,-8.67623E-002,-1.62598E-002,3.48441E-001,3.19835E-003,5.76024E-001,0,5.29943E+000,-1.36563E+000,9.99891E-001,-3.85141E+001,-3.98524E+001,9.99532E-001,1.28641E-002,-5.46030E-003,-2.16799E-004,1.28666E-002,-5.46286E-003,-6.77751E-001,1.29153E-002,1.01295E+000,1.07077E-003,0.00000E+000,-1.47146E-003,9.94900E-001,0.00000E+000,-4.10266E-004,-2.63854E-002,1.00000E+000,2
759,1317,-1.10087E+001,-7.78568E-001,-3.00196E-003,3.35663E-001,-7.95553E-002,2.10815E-002,3.45606E-001,6.59814E-003,5.80217E-001,0,5.16698E+000,-1.33216E+000,9.99921E-001,-3.89470E+001,-3.95258E+001,9.99415E-001,1.32191E-002,-5.45910E-003,-1.70907E-004,1.32206E-002,-5.46066E-003,-5.24202E-001,1.32871E-002,1.01331E+000,1.07619E-003,0.00000E+000,-1.39809E-003,9.94901E-001,0.00000E+000,8.41415E-005,-2.63779E-002,1.00000E+000,2
749,1317,-1.16588E+001,-7.80665E-001,7.63467E-003,3.27895E-001,-7.83909E-002,2.01305E-002,3.37736E-001,5.09645E-003,6.05424E-001,0,5.05230E+000,-1.31670E+000,9.99915E-001,-3.88845E+001,-3.96581E+001,9.99273E-001,1.31481E-002,-5.47257E-003,-1.96062E-004,1.31502E-002,-5.47464E-003,-6.03192E-001,1.32114E-002,1.01323E+000,1.34562E-003,0.00000E+000,-1.71906E-003,9.94873E-001,0.00000E+000,3.38541E-004,-2.58594E-002,1.00000E+000,2
749,1327,-1.16528E+001,-1.50713E-001,-4.49227E-002,3.28474E-001,-8.31114E-002,1.29578E-003,3.38828E-001,3.62166E-003,5.68796E-001,0,5.11730E+000,-1.33862E+000,9.99894E-001,-3.87923E+001,-3.98681E+001,9.99403E-001,1.29543E-002,-5.47266E-003,-2.02861E-004,1.29565E-002,-5.47489E-003,-6.30664E-001,1.30082E-002,1.01304E+000,1.34394E-003,0.00000E+000,-1.72436E-003,9.94873E-001,0.00000E+000,7.28252E-005,-2.58617E-002,1.00000E+000,2
749,1337,-1.16400E+001,4.86830E-001,-6.21041E-002,3.29370E-001,-8.59249E-002,-1.60823E-002,3.40773E-001,2.99542E-003,5.92138E-001,0,5.18189E+000,-1.35423E+000,9.99886E-001,-3.85005E+001,-4.00086E+001,9.99687E-001,1.27588E-002,-5.47287E-003,-2.10693E-004,1.27612E-002,-5.47530E-003,-6.62020E-001,1.28039E-002,1.01284E+000,1.34026E-003,0.00000E+000,-1.72970E-003,9.94873E-001,0.00000E+000,-1.95093E-004,-2.58666E-002,1.00000E+000,2
749,1347,-1.16227E+001,1.12735E+000,-5.66734E-002,3.30296E-001,-8.87957E-002,-3.47334E-002,3.43782E-001,2.94098E-003,5.66754E-001,0,5.25044E+000,-1.35370E+000,9.99920E-001,-3.80778E+001,-4.01793E+001,9.99730E-001,1.25623E-002,-5.47317E-003,-2.19241E-004,1.25649E-002,-5.47583E-003,-6.96357E-001,1.25994E-002,1.01264E+000,1.33520E-003,0.00000E+000,-1.73506E-003,9.94873E-001,0.00000E+000,-4.64156E-004,-2.58735E-002,1.00000E+000,2
1109,1297,1.21348E+001,-1.76911E+000,2.67869E-002,6.62014E-001,1.97352E-002,-2.43513E-002,6.62755E-001,4.08253E-003,4.89007E-001,0,1.01098E+001,2.75347E-001,9.99813E-001,-3.19099E+001,-3.18912E+001,9.99209E-001,1.29099E-002,-5.47185E-003,-3.63497E-004,1.29170E-002,-5.47904E-003,-1.13243E+000,1.29665E-002,1.01297E+000,-6.98999E-003,0.00000E+000,6.11008E-003,9.94766E-001,0.00000E+000,1.27159E-003,-2.20519E-002,1.00000E+000,2
1109,1307,1.21374E+001,-1.13095E+000,-2.48524E-002,6.58095E-001,1.60936E-002,-3.70923E-002,6.59336E-001,4.92732E-003,4.54341E-001,0,1.00979E+001,2.54705E-001,9.99872E-001,-3.18812E+001,-3.19129E+001,9.99353E-001,1.30634E-002,-5.47056E-003,-3.24401E-004,1.30691E-002,-5.47623E-003,-1.00244E+000,1.31261E-002,1.01313E+000,-6.98835E-003,0.00000E+000,6.19093E-003,9.94767E-001,0.00000E+000,1.00975E-003,-2.20547E-002,1.00000E+000,2
1109,1317,1.21432E+001,-4.90190E-001,-5.91468E-002,6.53508E-001,1.24392E-002,-4.80664E-002,6.55391E-001,4.39403E-003,4.59793E-001,0,1.00689E+001,2.14721E-001,9.99923E-001,-3.17711E+001,-3.19125E+001,9.99376E-001,1.32174E-002,-5.46882E-003,-2.84726E-004,1.32217E-002,-5.47316E-003,-8.72759E-001,1.32868E-002,1.01328E+000,-6.98581E-003,0.00000E+000,6.27207E-003,9.94768E-001,0.00000E+000,7.46944E-004,-2.20590E-002,1.00000E+000,2
749,1357,-1.15982E+001,1.77527E+000,-6.70293E-003,3.30760E-001,-9.09670E-002,-4.88773E-002,3.46506E-001,3.68246E-003,5.59159E-001,0,5.29791E+000,-1.35390E+000,9.99935E-001,-3.74252E+001,-4.03291E+001,9.99674E-001,1.23638E-002,-5.47361E-003,-2.29011E-004,1.23667E-002,-5.47655E-003,-7.35449E-001,1.23936E-002,1.01244E+000,1.32778E-003,0.00000E+000,-1.74048E-003,9.94873E-001,0.00000E+000,-7.35816E-004,-2.58835E-002,1.00000E+000,2
1109,1327,1.21529E+001,1.52766E-001,-7.78314E-002,6.47910E-001,8.00230E-003,-6.31858E-002,6.51033E-001,3.42995E-003,4.53672E-001,0,1.00397E+001,1.77274E-001,9.99910E-001,-3.15720E+001,-3.19196E+001,9.99408E-001,1.33719E-002,-5.46653E-003,-2.44338E-004,1.33751E-002,-5.46970E-003,-7.42970E-001,1.34488E-002,1.01344E+000,-6.98215E-003,0.00000E+000,6.35355E-003,9.94770E-001,0.00000E+000,4.83055E-004,-2.20652E-002,1.00000E+000,2
1109,1337,1.21688E+001,8.01675E-001,-7.39708E-002,6.43301E-001,5.15518E-003,-7.75455E-002,6.47979E-001,4.79387E-003,4.83747E-001,0,1.00216E+001,1.59665E-001,9.99910E-001,-3.12316E+001,-3.18683E+001,9.99375E-001,1.35273E-002,-5.46363E-003,-2.03097E-004,1.35295E-002,-5.46580E-003,-6.12650E-001,1.36124E-002,1.01360E+000,-6.97722E-003,0.00000E+000,6.43553E-003,9.94773E-001,0.00000E+000,2.17533E-004,-2.20735E-002,1.00000E+000,2
1109,1347,1.21944E+001,1.45592E+000,-3.07304E-002,6.38876E-001,2.52647E-003,-9.11224E-002,6.45346E-001,4.98210E-003,4.84366E-001,0,1.00024E+001,1.45160E-001,9.99899E-001,-3.06677E+001,-3.18396E+001,9.99269E-001,1.36837E-002,-5.45964E-003,-1.60506E-004,1.36850E-002,-5.46099E-003,-4.80349E-001,1.37777E-002,1.01375E+000,-6.97009E-003,0.00000E+000,6.51808E-003,9.94776E-001,0.00000E+000,-4.98221E-005,-2.20855E-002,1.00000E+000,2
739,1337,-1.22921E+001,4.81503E-001,-6.06830E-002,3.21251E-001,-8.54912E-002,-1.63330E-002,3.32833E-001,3.08843E-003,5.94963E-001,0,5.05913E+000,-1.35073E+000,9.99910E-001,-3.84888E+001,-4.01860E+001,9.99676E-001,1.26443E-002,-5.42877E-003,-2.36587E-004,1.26474E-002,-5.43186E-003,-7.49864E-001,1.26893E-002,1.01272E+000,1.56776E-003,0.00000E+000,-2.00703E-003,9.94903E-001,0.00000E+000,-1.10871E-004,-2.53271E-002,1.00000E+000,2
739,1347,-1.22752E+001,1.12190E+000,-5.58580E-002,3.22192E-001,-8.81558E-002,-3.40073E-002,3.35761E-001,2.86080E-003,5.69755E-001,0,5.12468E+000,-1.34725E+000,9.99950E-001,-3.80727E+001,-4.03589E+001,9.99712E-001,1.24193E-002,-5.42911E-003,-2.46575E-004,1.24227E-002,-5.43251E-003,-7.91339E-001,1.24552E-002,1.01250E+000,1.56212E-003,0.00000E+000,-2.01189E-003,9.94903E-001,0.00000E+000,-5.00667E-004,-2.53367E-002,1.00000E+000,2
739,1357,-1.22510E+001,1.76983E+000,-6.77804E-003,3.22951E-001,-8.96693E-002,-4.70824E-002,3.38459E-001,2.57378E-003,5.55414E-001,0,5.17321E+000,-1.33839E+000,9.99954E-001,-3.74245E+001,-4.05116E+001,9.99775E-001,1.21920E-002,-5.42962E-003,-2.57938E-004,1.21957E-002,-5.43339E-003,-8.38434E-001,1.22199E-002,1.01227E+000,1.55384E-003,0.00000E+000,-2.01679E-003,9.94903E-001,0.00000E+000,-8.94019E-004,-2.53509E-002,1.00000E+000,2
739,1327,-1.23053E+001,-1.55303E-001,-4.24591E-002,3.19873E-001,-8.19168E-002,1.90437E-003,3.30201E-001,4.47957E-003,5.61172E-001,0,4.98470E+000,-1.32391E+000,9.99916E-001,-3.87838E+001,-4.00399E+001,9.99512E-001,1.28683E-002,-5.42852E-003,-2.27363E-004,1.28711E-002,-5.43135E-003,-7.11832E-001,1.29233E-002,1.01295E+000,1.57192E-003,0.00000E+000,-2.00220E-003,9.94903E-001,0.00000E+000,2.77471E-004,-2.53200E-002,1.00000E+000,2
1119,1297,1.27991E+001,-1.76133E+000,1.60646E-002,6.69823E-001,2.43934E-002,-1.99161E-002,6.70563E-001,4.07315E-003,4.69144E-001,0,1.02034E+001,3.42990E-001,9.99929E-001,-3.16115E+001,-3.16750E+001,9.99589E-001,1.28161E-002,-5.41493E-003,-3.76271E-004,1.28239E-002,-5.42269E-003,-1.18186E+000,1.28746E-002,1.01288E+000,-6.78091E-003,0.00000E+000,5.88243E-003,9.94825E-001,0.00000E+000,1.17611E-003,-2.21084E-002,1.00000E+000,2
1119,1307,1.28024E+001,-1.12252E+000,-3.16564E-002,6.65051E-001,2.02852E-002,-3.43842E-002,6.66248E-001,3.13241E-003,4.61795E-001,0,1.01853E+001,3.06780E-001,9.99923E-001,-3.15668E+001,-3.16794E+001,9.99810E-001,1.29859E-002,-5.41335E-003,-3.33279E-004,1.29919E-002,-5.41938E-003,-1.03739E+000,1.30512E-002,1.01305E+000,-6.77872E-003,0.00000E+000,5.97096E-003,9.94826E-001,0.00000E+000,8.90069E-004,-2.21121E-002,1.00000E+000,2
1119,1317,1.28097E+001,-4.82031E-001,-6.52610E-002,6.61124E-001,1.61086E-002,-4.78054E-002,6.63046E-001,2.93700E-003,4.51050E-001,0,1.01757E+001,2.65389E-001,9.99928E-001,-3.14327E+001,-3.16910E+001,9.99777E-001,1.31559E-002,-5.41136E-003,-2.89779E-004,1.31604E-002,-5.41588E-003,-8.93924E-001,1.32289E-002,1.01322E+000,-6.77570E-003,0.00000E+000,6.05971E-003,9.94828E-001,0.00000E+000,6.03328E-004,-2.21171E-002,1.00000E+000,2
1119,1327,1.28208E+001,1.61970E-001,-8.12140E-002,6.56136E-001,1.22757E-002,-6.32610E-002,6.59293E-001,3.04336E-003,4.31074E-001,0,1.01571E+001,2.41165E-001,9.99924E-001,-3.12066E+001,-3.16930E+001,9.99630E-001,1.33266E-002,-5.40877E-003,-2.45479E-004,1.33298E-002,-5.41198E-003,-7.50542E-001,1.34081E-002,1.01339E+000,-6.77142E-003,0.00000E+000,6.14885E-003,9.94830E-001,0.00000E+000,3.15305E-004,-2.21242E-002,1.00000E+000,2
1119,1337,1.28377E+001,8.11208E-001,-7.57199E-002,6.51671E-001,8.82747E-003,-7.85570E-002,6.56448E-001,4.20226E-003,4.71257E-001,0,1.01451E+001,2.16159E-001,9.99927E-001,-3.08505E+001,-3.16335E+001,9.99281E-001,1.34984E-002,-5.40551E-003,-2.00215E-004,1.35005E-002,-5.40763E-003,-6.06742E-001,1.35892E-002,1.01357E+000,-6.76578E-003,0.00000E+000,6.23862E-003,9.94833E-001,0.00000E+000,2.52610E-005,-2.21336E-002,1.00000E+000,2
1119,1347,1.28626E+001,1.46521E+000,-3.38556E-002,6.46987E-001,6.62072E-003,-9.05993E-002,6.53333E-001,5.38988E-003,4.55173E-001,0,1.01165E+001,2.05716E-001,9.99946E-001,-3.03037E+001,-3.16124E+001,9.99397E-001,1.36708E-002,-5.40124E-003,-1.53730E-004,1.36720E-002,-5.40247E-003,-4.61791E-001,1.37719E-002,1.01374E+000,-6.75805E-003,0.00000E+000,6.32881E-003,9.94837E-001,0.00000E+000,-2.66137E-004,-2.21465E-002,1.00000E+000,2
739,1317,-1.23111E+001,-7.84181E-001,1.18756E-002,3.19129E-001,-7.68652E-002,2.10123E-002,3.28927E-001,4.91594E-003,5.86757E-001,0,4.91666E+000,-1.28685E+000,9.99922E-001,-3.88684E+001,-3.98210E+001,9.99496E-001,1.30900E-002,-5.42843E-003,-2.19367E-004,1.30926E-002,-5.43103E-003,-6.78593E-001,1.31558E-002,1.01318E+000,1.57372E-003,0.00000E+000,-1.99741E-003,9.94903E-001,0.00000E+000,6.62176E-004,-2.53169E-002,1.00000E+000,2
1129,1297,1.34649E+001,-1.75443E+000,5.37514E-003,6.77396E-001,2.76069E-002,-2.02557E-002,6.78261E-001,6.03553E-003,4.53301E-001,0,1.03113E+001,3.94525E-001,9.99950E-001,-3.12880E+001,-3.14704E+001,9.99162E-001,1.26832E-002,-5.35668E-003,-4.01768E-004,1.26921E-002,-5.36562E-003,-1.27520E+000,1.27425E-002,1.01274E+000,-6.56845E-003,0.00000E+000,5.63164E-003,9.94886E-001,0.00000E+000,8.40519E-004,-2.21564E-002,1.00000E+000,2
1129,1307,1.34688E+001,-1.11562E+000,-4.00886E-002,6.73048E-001,2.33548E-002,-3.31755E-002,6.74270E-001,8.65958E-003,4.51708E-001,0,1.02941E+001,3.47008E-001,9.99942E-001,-3.12294E+001,-3.14751E+001,9.98410E-001,1.28940E-002,-5.35482E-003,-3.51473E-004,1.29008E-002,-5.36158E-003,-1.10297E+000,1.29619E-002,1.01296E+000,-6.56564E-003,0.00000E+000,5.73365E-003,9.94887E-001,0.00000E+000,5.65448E-004,-2.21600E-002,1.00000E+000,2
1129,1317,1.34774E+001,-4.74638E-001,-7.23895E-002,6.69877E-001,1.92560E-002,-4.68685E-002,6.71790E-001,5.35760E-003,4.32382E-001,0,1.02973E+001,3.10981E-001,9.99931E-001,-3.10745E+001,-3.14842E+001,9.98500E-001,1.31053E-002,-5.35245E-003,-3.00497E-004,1.31102E-002,-5.35734E-003,-9.32458E-001,1.31830E-002,1.01317E+000,-6.56172E-003,0.00000E+000,5.83595E-003,9.94889E-001,0.00000E+000,2.89587E-004,-2.21651E-002,1.00000E+000,2
729,1347,-1.29257E+001,1.11806E+000,-4.90867E-002,3.14666E-001,-8.73376E-002,-3.34527E-002,3.28271E-001,3.27834E-003,5.69728E-001,0,5.00819E+000,-1.32831E+000,9.99953E-001,-3.80144E+001,-4.05284E+001,9.99706E-001,1.22792E-002,-5.35059E-003,-2.40429E-004,1.22825E-002,-5.35387E-003,-7.81186E-001,1.23161E-002,1.01235E+000,1.83815E-003,0.00000E+000,-2.27064E-003,9.94969E-001,0.00000E+000,-5.31145E-004,-2.48898E-002,1.00000E+000,2
729,1357,-1.29028E+001,1.76521E+000,-5.87797E-003,3.15461E-001,-8.86871E-002,-4.62960E-002,3.30944E-001,2.84957E-003,5.73682E-001,0,5.05635E+000,-1.32404E+000,9.99962E-001,-3.73999E+001,-4.06728E+001,9.99752E-001,1.20127E-002,-5.35091E-003,-2.49664E-004,1.20163E-002,-5.35450E-003,-8.23605E-001,1.20400E-002,1.01208E+000,1.82901E-003,0.00000E+000,-2.26784E-003,9.94969E-001,0.00000E+000,-1.04216E-003,-2.49071E-002,1.00000E+000,2
1129,1327,1.34887E+001,1.69658E-001,-9.01203E-002,6.65540E-001,1.63623E-002,-6.18907E-002,6.68612E-001,6.57602E-003,4.06888E-001,0,1.02869E+001,2.94381E-001,9.99916E-001,-3.08496E+001,-3.14788E+001,9.98814E-001,1.33172E-002,-5.34951E-003,-2.48759E-004,1.33205E-002,-5.35282E-003,-7.63365E-001,1.34057E-002,1.01339E+000,-6.55655E-003,0.00000E+000,5.93855E-003,9.94892E-001,0.00000E+000,1.29120E-005,-2.21718E-002,1.00000E+000,2
729,1337,-1.29442E+001,4.77125E-001,-5.96312E-002,3.13112E-001,-8.39186E-002,-1.52474E-002,3.24521E-001,3.05068E-003,5.71562E-001,0,4.93180E+000,-1.31842E+000,9.99926E-001,-3.84728E+001,-4.03612E+001,9.99715E-001,1.25438E-002,-5.35035E-003,-2.32270E-004,1.25468E-002,-5.35337E-003,-7.43546E-001,1.25917E-002,1.01262E+000,1.84519E-003,0.00000E+000,-2.27342E-003,9.94969E-001,0.00000E+000,-2.31175E-005,-2.48764E-002,1.00000E+000,2
729,1327,-1.29563E+001,-1.58080E-001,-3.85235E-002,3.11823E-001,-8.06924E-002,1.27442E-003,3.22097E-001,3.79483E-003,5.75477E-001,0,4.86408E+000,-1.29567E+000,9.99916E-001,-3.87443E+001,-4.01760E+001,9.99489E-001,1.28058E-002,-5.35021E-003,-2.25431E-004,1.28086E-002,-5.35301E-003,-7.11257E-001,1.28660E-002,1.01289E+000,1.84966E-003,0.00000E+000,-2.27618E-003,9.94969E-001,0.00000E+000,4.80584E-004,-2.48679E-002,1.00000E+000,2
1129,1337,1.35112E+001,8.23957E-001,-6.33544E-002,6.60617E-001,1.30328E-002,-7.94489E-002,6.65505E-001,6.00370E-003,4.92530E-001,0,1.02761E+001,2.73149E-001,9.99938E-001,-3.03695E+001,-3.13629E+001,9.99117E-001,1.35320E-002,-5.34485E-003,-1.94423E-004,1.35340E-002,-5.34685E-003,-5.90035E-001,1.36330E-002,1.01360E+000,-6.54760E-003,0.00000E+000,6.04271E-003,9.94896E-001,0.00000E+000,-2.67970E-004,-2.21833E-002,1.00000E+000,2
729,1317,-1.29641E+001,-7.88384E-001,6.85536E-003,3.10416E-001,-7.55409E-002,1.90168E-002,3.20041E-001,5.29814E-003,5.86641E-001,0,4.79013E+000,-1.25682E+000,9.99906E-001,-3.88849E+001,-3.99655E+001,9.99052E-001,1.30664E-002,-5.35013E-003,-2.19488E-004,1.30690E-002,-5.35274E-003,-6.82721E-001,1.31401E-002,1.01315E+000,1.85235E-003,0.00000E+000,-2.27893E-003,9.94969E-001,0.00000E+000,9.82180E-004,-2.48628E-002,1.00000E+000,2
1129,1347,1.35328E+001,1.47686E+000,-3.35940E-002,6.55429E-001,1.10295E-002,-9.19934E-002,6.61945E-001,6.05909E-003,4.76023E-001,0,1.02422E+001,2.69651E-001,9.99949E-001,-2.98968E+001,-3.13311E+001,9.99211E-001,1.37459E-002,-5.34027E-003,-1.40389E-004,1.37469E-002,-5.34130E-003,-4.21412E-001,1.38603E-002,1.01382E+000,-6.53884E-003,0.00000E+000,6.14644E-003,9.94900E-001,0.00000E+000,-5.47700E-004,-2.21946E-002,1.00000E+000,2
719,1347,-1.35782E+001,1.11351E+000,-5.09437E-002,3.06094E-001,-8.57496E-002,-3.38146E-002,3.19672E-001,4.12154E-003,5.84595E-001,0,4.87773E+000,-1.30831E+000,9.99944E-001,-3.80079E+001,-4.06826E+001,9.99661E-001,1.21871E-002,-5.31335E-003,-2.43811E-004,1.21905E-002,-5.31674E-003,-7.98022E-001,1.22236E-002,1.01226E+000,2.10170E-003,0.00000E+000,-2.53932E-003,9.94999E-001,0.00000E+000,-4.23164E-004,-2.46027E-002,1.00000E+000,2
719,1357,-1.35553E+001,1.76026E+000,-8.80885E-003,3.07259E-001,-8.77884E-002,-4.68948E-002,3.22977E-001,3.03972E-003,5.99924E-001,0,4.93232E+000,-1.31010E+000,9.99936E-001,-3.73936E+001,-4.08269E+001,9.99791E-001,1.18966E-002,-5.31337E-003,-2.48741E-004,1.19002E-002,-5.31697E-003,-8.27883E-001,1.19226E-002,1.01197E+000,2.09190E-003,0.00000E+000,-2.52545E-003,9.94999E-001,0.00000E+000,-1.02132E-003,-2.46227E-002,1.00000E+000,2
719,1337,-1.35953E+001,4.73846E-001,-5.85192E-002,3.05080E-001,-8.22700E-002,-1.68975E-002,3.16429E-001,3.77904E-003,5.81252E-001,0,4.81375E+000,-1.28613E+000,9.99915E-001,-3.84366E+001,-4.05031E+001,9.99532E-001,1.24748E-002,-5.31333E-003,-2.40161E-004,1.24780E-002,-5.31657E-003,-7.73375E-001,1.25234E-002,1.01255E+000,2.10893E-003,0.00000E+000,-2.55309E-003,9.94998E-001,0.00000E+000,1.70177E-004,-2.45880E-002,1.00000E+000,2
719,1327,-1.36071E+001,-1.60352E-001,-3.55299E-002,3.03566E-001,-7.85788E-002,-1.49350E-004,3.13572E-001,2.87027E-003,5.94486E-001,0,4.74206E+000,-1.25998E+000,9.99893E-001,-3.87008E+001,-4.03001E+001,9.99524E-001,1.27599E-002,-5.31332E-003,-2.37784E-004,1.27630E-002,-5.31645E-003,-7.53648E-001,1.28221E-002,1.01284E+000,2.11361E-003,0.00000E+000,-2.56675E-003,9.94998E-001,0.00000E+000,7.59060E-004,-2.45784E-002,1.00000E+000,2
719,1317,-1.36136E+001,-7.90476E-001,1.44801E-002,3.02350E-001,-7.37929E-002,1.64508E-002,3.11660E-001,4.23264E-003,5.96073E-001,0,4.67473E+000,-1.22718E+000,9.99890E-001,-3.88090E+001,-4.00995E+001,9.99255E-001,1.30434E-002,-5.31331E-003,-2.36517E-004,1.30465E-002,-5.31636E-003,-7.38064E-001,1.31207E-002,1.01313E+000,2.11603E-003,0.00000E+000,-2.58035E-003,9.94998E-001,0.00000E+000,1.34554E-003,-2.45735E-002,1.00000E+000,2
1139,1297,1.41340E+001,-1.74737E+000,2.97332E-003,6.86400E-001,3.13131E-002,-1.81471E-002,6.87354E-001,4.98216E-003,4.09701E-001,0,1.04311E+001,4.43977E-001,9.99964E-001,-3.08943E+001,-3.12945E+001,9.99102E-001,1.25946E-002,-5.32833E-003,-4.09750E-004,1.26039E-002,-5.33769E-003,-1.30897E+000,1.26530E-002,1.01265E+000,-6.35688E-003,0.00000E+000,5.41759E-003,9.94919E-001,0.00000E+000,4.34349E-004,-2.23215E-002,1.00000E+000,2
1139,1307,1.41372E+001,-1.10937E+000,-5.02719E-002,6.82498E-001,2.62000E-002,-3.41088E-002,6.83852E-001,6.25502E-003,4.12541E-001,0,1.04328E+001,3.94981E-001,9.99932E-001,-3.08606E+001,-3.12913E+001,9.98939E-001,1.28398E-002,-5.32666E-003,-3.59757E-004,1.28469E-002,-5.33378E-003,-1.13405E+000,1.29084E-002,1.01290E+000,-6.35402E-003,0.00000E+000,5.51836E-003,9.94920E-001,0.00000E+000,1.80151E-004,-2.23244E-002,1.00000E+000,2
1139,1337,1.41815E+001,8.35033E-001,-6.22431E-002,6.69702E-001,1.81800E-002,-7.63290E-002,6.74283E-001,6.98487E-003,5.00554E-001,0,1.03940E+001,3.36189E-001,9.99925E-001,-2.99554E+001,-3.11005E+001,9.98222E-001,1.35829E-002,-5.31650E-003,-2.01633E-004,1.35850E-002,-5.31866E-003,-6.11184E-001,1.36912E-002,1.01366E+000,-6.33217E-003,0.00000E+000,5.82406E-003,9.94929E-001,0.00000E+000,-5.90943E-004,-2.23468E-002,1.00000E+000,2
1139,1347,1.42083E+001,1.48911E+000,-1.99172E-002,6.65414E-001,1.41923E-002,-9.27867E-002,6.72002E-001,6.33816E-003,4.95917E-001,0,1.03890E+001,3.12133E-001,9.99932E-001,-2.93812E+001,-3.10706E+001,9.98346E-001,1.38328E-002,-5.31135E-003,-1.46195E-004,1.38339E-002,-5.31247E-003,-4.37508E-001,1.39574E-002,1.01391E+000,-6.32035E-003,0.00000E+000,5.92701E-003,9.94934E-001,0.00000E+000,-8.50626E-004,-2.23589E-002,1.00000E+000,2
1139,1327,1.41587E+001,1.80588E-001,-9.05948E-002,6.74259E-001,1.98285E-002,-6.12004E-002,6.77321E-001,7.03635E-003,4.51716E-001,0,1.04087E+001,3.44167E-001,9.99906E-001,-3.04410E+001,-3.11983E+001,9.98191E-001,1.33335E-002,-5.32110E-003,-2.56243E-004,1.33370E-002,-5.32462E-003,-7.86828E-001,1.34270E-002,1.01340E+000,-6.34258E-003,0.00000E+000,5.72139E-003,9.94925E-001,0.00000E+000,-3.31971E-004,-2.23362E-002,1.00000E+000,2
1139,1317,1.41435E+001,-4.67817E-001,-8.77978E-002,6.77996E-001,2.23546E-002,-4.85731E-002,6.80101E-001,6.84100E-003,4.28607E-001,0,1.04190E+001,3.58411E-001,9.99924E-001,-3.07524E+001,-3.12612E+001,9.98850E-001,1.30857E-002,-5.32448E-003,-3.08950E-004,1.30909E-002,-5.32966E-003,-9.61145E-001,1.31660E-002,1.01315E+000,-6.34984E-003,0.00000E+000,5.61947E-003,9.94922E-001,0.00000E+000,-7.48906E-005,-2.23287E-002,1.00000E+000,2
709,1347,-1.42305E+001,1.11054E+000,-4.97510E-002,2.97375E-001,-8.24916E-002,-3.07667E-002,3.10134E-001,3.94012E-003,5.72335E-001,0,4.73473E+000,-1.25683E+000,9.99914E-001,-3.79855E+001,-4.08330E+001,9.99652E-001,1.20819E-002,-5.21068E-003,-2.49840E-004,1.20856E-002,-5.21428E-003,-8.27565E-001,1.21234E-002,1.01215E+000,2.39743E-003,0.00000E+000,-2.84459E-003,9.95093E-001,0.00000E+000,-3.36910E-004,-2.43089E-002,1.00000E+000,2
709,1357,-1.42078E+001,1.75508E+000,-1.17718E-002,2.99147E-001,-8.51809E-002,-4.49648E-002,3.14272E-001,3.40947E-003,5.67456E-001,0,4.80191E+000,-1.26990E+000,9.99918E-001,-3.73833E+001,-4.10138E+001,9.99795E-001,1.17680E-002,-5.21000E-003,-2.42995E-004,1.17715E-002,-5.21347E-003,-8.19813E-001,1.17970E-002,1.01184E+000,2.38720E-003,0.00000E+000,-2.80692E-003,9.95094E-001,0.00000E+000,-9.46061E-004,-2.43286E-002,1.00000E+000,2
709,1337,-1.42460E+001,4.70812E-001,-5.40662E-002,2.96305E-001,-8.04077E-002,-1.85937E-002,3.07584E-001,3.76771E-003,5.87752E-001,0,4.68393E+000,-1.25615E+000,9.99885E-001,-3.83830E+001,-4.06503E+001,9.99496E-001,1.23931E-002,-5.21113E-003,-2.58178E-004,1.23968E-002,-5.21491E-003,-8.40043E-001,1.24487E-002,1.01247E+000,2.40447E-003,0.00000E+000,-2.88198E-003,9.95092E-001,0.00000E+000,2.67627E-004,-2.42954E-002,1.00000E+000,2
709,1317,-1.42617E+001,-7.91332E-001,2.85612E-002,2.94500E-001,-7.17554E-002,1.58292E-002,3.03528E-001,5.27925E-003,6.19083E-001,0,4.55675E+000,-1.19974E+000,9.99915E-001,-3.86890E+001,-4.02215E+001,9.99333E-001,1.30082E-002,-5.21150E-003,-2.78227E-004,1.30125E-002,-5.21575E-003,-8.74671E-001,1.30975E-002,1.01309E+000,2.41131E-003,0.00000E+000,-2.95607E-003,9.95091E-001,0.00000E+000,1.46572E-003,-2.42823E-002,1.00000E+000,2
709,1327,-1.42541E+001,-1.60666E-001,-1.62136E-002,2.96386E-001,-7.56066E-002,1.72190E-003,3.05883E-001,5.15609E-003,6.24828E-001,0,4.62673E+000,-1.23654E+000,9.99923E-001,-3.85492E+001,-4.04233E+001,9.99482E-001,1.27012E-002,-5.21136E-003,-2.67929E-004,1.27053E-002,-5.21536E-003,-8.56750E-001,1.27729E-002,1.01278E+000,2.40847E-003,0.00000E+000,-2.91907E-003,9.95091E-001,0.00000E+000,8.67415E-004,-2.42877E-002,1.00000E+000,2
1149,1297,1.48005E+001,-1.73852E+000,-7.27246E-003,6.94358E-001,3.54216E-002,-1.59342E-002,6.95444E-001,8.22164E-003,4.28503E-001,0,1.05344E+001,5.06856E-001,9.99937E-001,-3.05504E+001,-3.10436E+001,9.98595E-001,1.25469E-002,-5.32486E-003,-4.14510E-004,1.25565E-002,-5.33447E-003,-1.32795E+000,1.26037E-002,1.01261E+000,-6.14096E-003,0.00000E+000,5.20909E-003,9.94928E-001,0.00000E+000,-1.37252E-004,-2.24980E-002,1.00000E+000,2
1149,1307,1.48056E+001,-1.09983E+000,-5.63152E-002,6.90960E-001,3.10039E-002,-3.27048E-002,6.92428E-001,5.84903E-003,4.17799E-001,0,1.05468E+001,4.62414E-001,9.99938E-001,-3.04815E+001,-3.10434E+001,9.99026E-001,1.28227E-002,-5.32322E-003,-3.68811E-004,1.28302E-002,-5.33071E-003,-1.16388E+000,1.28912E-002,1.01289E+000,-6.13721E-003,0.00000E+000,5.29900E-003,9.94929E-001,0.00000E+000,-3.31044E-004,-2.25006E-002,1.00000E+000,2
1149,1317,1.48142E+001,-4.57048E-001,-8.50666E-002,6.86569E-001,2.66544E-002,-4.70369E-002,6.88694E-001,4.84785E-003,4.32786E-001,0,1.05345E+001,4.22233E-001,9.99934E-001,-3.03213E+001,-3.10119E+001,9.99136E-001,1.31001E-002,-5.32098E-003,-3.21911E-004,1.31058E-002,-5.32660E-003,-1.00084E+000,1.31820E-002,1.01317E+000,-6.13155E-003,0.00000E+000,5.38945E-003,9.94931E-001,0.00000E+000,-5.25997E-004,-2.25046E-002,1.00000E+000,2
1149,1327,1.48279E+001,1.88852E-001,-9.56445E-002,6.82866E-001,2.45158E-002,-6.09653E-002,6.86020E-001,5.31166E-003,3.92860E-001,0,1.05298E+001,4.14276E-001,9.99928E-001,-3.00489E+001,-3.10010E+001,9.98695E-001,1.33777E-002,-5.31816E-003,-2.74048E-004,1.33818E-002,-5.32218E-003,-8.39611E-001,1.34748E-002,1.01345E+000,-6.12402E-003,0.00000E+000,5.48000E-003,9.94933E-001,0.00000E+000,-7.21170E-004,-2.25098E-002,1.00000E+000,2
1149,1337,1.48490E+001,8.43150E-001,-7.18595E-002,6.78089E-001,2.13746E-002,-7.39562E-002,6.82445E-001,1.01165E-002,4.83679E-001,0,1.05050E+001,3.89977E-001,9.99945E-001,-2.95996E+001,-3.08731E+001,9.98323E-001,1.36591E-002,-5.31422E-003,-2.23797E-004,1.36617E-002,-5.31686E-003,-6.75701E-001,1.37731E-002,1.01373E+000,-6.11289E-003,0.00000E+000,5.57182E-003,9.94937E-001,0.00000E+000,-9.19077E-004,-2.25175E-002,1.00000E+000,2
1149,1347,1.48813E+001,1.50121E+000,-1.33920E-002,6.75160E-001,1.82306E-002,-8.93754E-002,6.81294E-001,8.59257E-003,5.06556E-001,0,1.05162E+001,3.72948E-001,9.99946E-001,-2.89153E+001,-3.08015E+001,9.98561E-001,1.39417E-002,-5.30907E-003,-1.71395E-004,1.39432E-002,-5.31060E-003,-5.10067E-001,1.40745E-002,1.01402E+000,-6.09784E-003,0.00000E+000,5.66412E-003,9.94941E-001,0.00000E+000,-1.11801E-003,-2.25280E-002,1.00000E+000,2
699,1347,-1.48787E+001,1.10889E+000,-4.25883E-002,2.90983E-001,-8.03765E-002,-2.94882E-002,3.03317E-001,4.29569E-003,6.11975E-001,0,4.63309E+000,-1.22542E+000,9.99933E-001,-3.78788E+001,-4.09500E+001,9.99667E-001,1.19780E-002,-5.09916E-003,-2.39441E-004,1.19813E-002,-5.10252E-003,-8.03144E-001,1.20251E-002,1.01205E+000,2.71949E-003,0.00000E+000,-3.14300E-003,9.95195E-001,0.00000E+000,-2.57649E-004,-2.39673E-002,1.00000E+000,2
699,1357,-1.48575E+001,1.75136E+000,-9.28587E-003,2.91709E-001,-8.46580E-002,-4.66268E-002,3.07303E-001,3.46010E-003,5.87335E-001,0,4.69254E+000,-1.24681E+000,9.99932E-001,-3.73114E+001,-4.11642E+001,9.99761E-001,1.16355E-002,-5.09753E-003,-2.15600E-004,1.16382E-002,-5.10030E-003,-7.38077E-001,1.16678E-002,1.01170E+000,2.70861E-003,0.00000E+000,-3.07142E-003,9.95197E-001,0.00000E+000,-8.59177E-004,-2.39862E-002,1.00000E+000,2
699,1337,-1.48960E+001,4.67490E-001,-4.91196E-002,2.88189E-001,-7.88041E-002,-1.85089E-002,2.99342E-001,3.70695E-003,5.95043E-001,0,4.55919E+000,-1.23244E+000,9.99911E-001,-3.83116E+001,-4.08026E+001,9.99519E-001,1.23182E-002,-5.10028E-003,-2.64706E-004,1.23223E-002,-5.10430E-003,-8.70445E-001,1.23825E-002,1.01239E+000,2.72721E-003,0.00000E+000,-3.21421E-003,9.95193E-001,0.00000E+000,3.40831E-004,-2.39539E-002,1.00000E+000,2
699,1317,-1.49100E+001,-7.89823E-001,4.66139E-002,2.85701E-001,-6.84117E-002,1.69717E-002,2.94268E-001,6.69147E-003,6.52050E-001,0,4.41853E+000,-1.14920E+000,9.99935E-001,-3.85556E+001,-4.03107E+001,9.98965E-001,1.29885E-002,-5.10097E-003,-3.19040E-004,1.29941E-002,-5.10660E-003,-1.01009E+000,1.30929E-002,1.01307E+000,2.73343E-003,0.00000E+000,-3.35478E-003,9.95192E-001,0.00000E+000,1.52215E-003,-2.39431E-002,1.00000E+000,2
699,1327,-1.49048E+001,-1.60680E-001,-1.26891E-002,2.86835E-001,-7.37867E-002,-2.53893E-003,2.96184E-001,5.79746E-003,6.97426E-001,0,4.49227E+000,-1.19425E+000,9.99928E-001,-3.84936E+001,-4.04873E+001,9.98331E-001,1.26532E-002,-5.10078E-003,-2.91390E-004,1.26579E-002,-5.10556E-003,-9.40041E-001,1.27365E-002,1.01273E+000,2.73123E-003,0.00000E+000,-3.28441E-003,9.95192E-001,0.00000E+000,9.30734E-004,-2.39469E-002,1.00000E+000,2
1159,1307,1.54729E+001,-1.09249E+000,-7.02746E-002,6.99137E-001,3.42475E-002,-3.43359E-002,7.00817E-001,4.40369E-003,4.05613E-001,0,1.06684E+001,5.21573E-001,9.99900E-001,-3.01294E+001,-3.08217E+001,9.99235E-001,1.28399E-002,-5.33522E-003,-3.52942E-004,1.28468E-002,-5.34207E-003,-1.11206E+000,1.29073E-002,1.01291E+000,-5.90437E-003,0.00000E+000,5.11411E-003,9.94922E-001,0.00000E+000,-8.74694E-004,-2.26877E-002,1.00000E+000,2
1159,1317,1.54818E+001,-4.48347E-001,-1.00578E-001,6.94942E-001,3.04262E-002,-5.03165E-002,6.97425E-001,4.31612E-003,4.39768E-001,0,1.06654E+001,4.92770E-001,9.99943E-001,-2.99676E+001,-3.07542E+001,9.99497E-001,1.31482E-002,-5.33385E-003,-3.22303E-004,1.31538E-002,-5.33946E-003,-9.98760E-001,1.32312E-002,1.01322E+000,-5.89801E-003,0.00000E+000,5.17148E-003,9.94923E-001,0.00000E+000,-1.07113E-003,-2.26917E-002,1.00000E+000,2
1159,1327,1.54985E+001,1.99436E-001,-1.00253E-001,6.91671E-001,2.74545E-002,-6.26974E-002,6.95049E-001,3.66669E-003,4.30718E-001,0,1.06618E+001,4.70674E-001,9.99953E-001,-2.96314E+001,-3.07205E+001,9.99495E-001,1.34575E-002,-5.33192E-003,-2.89985E-004,1.34620E-002,-5.33639E-003,-8.83988E-001,1.35580E-002,1.01353E+000,-5.88845E-003,0.00000E+000,5.22908E-003,9.94925E-001,0.00000E+000,-1.26834E-003,-2.26977E-002,1.00000E+000,2
1159,1297,1.54675E+001,-1.73153E+000,-2.38474E-002,7.03003E-001,3.82508E-002,-1.71612E-002,7.04252E-001,5.73522E-003,4.53297E-001,0,1.06614E+001,5.51184E-001,9.99898E-001,-3.02080E+001,-3.08052E+001,9.98381E-001,1.25338E-002,-5.33629E-003,-3.82486E-004,1.25420E-002,-5.34447E-003,-1.22559E+000,1.25876E-002,1.01260E+000,-5.90891E-003,0.00000E+000,5.05717E-003,9.94921E-001,0.00000E+000,-6.79714E-004,-2.26848E-002,1.00000E+000,2
1159,1337,1.55248E+001,8.54047E-001,-6.42493E-002,6.88404E-001,2.41371E-002,-7.73610E-002,6.93157E-001,6.48271E-003,4.77605E-001,0,1.06660E+001,4.41421E-001,9.99970E-001,-2.90825E+001,-3.06345E+001,9.99564E-001,1.37700E-002,-5.32922E-003,-2.55147E-004,1.37734E-002,-5.33263E-003,-7.65235E-001,1.38898E-002,1.01385E+000,-5.87436E-003,0.00000E+000,5.28728E-003,9.94928E-001,0.00000E+000,-1.46764E-003,-2.27065E-002,1.00000E+000,2
1159,1347,1.55531E+001,1.51058E+000,-1.61010E-002,6.84070E-001,2.23104E-002,-9.22901E-002,6.90628E-001,5.50101E-003,4.67529E-001,0,1.06543E+001,4.37094E-001,9.99957E-001,-2.84805E+001,-3.05791E+001,9.99495E-001,1.40824E-002,-5.32627E-003,-2.19586E-004,1.40849E-002,-5.32875E-003,-6.48123E-001,1.42232E-002,1.01417E+000,-5.85881E-003,0.00000E+000,5.34552E-003,9.94930E-001,0.00000E+000,-1.66703E-003,-2.27163E-002,1.00000E+000,2
689,1347,-1.55272E+001,1.10631E+000,-3.91553E-002,2.83370E-001,-7.93086E-002,-3.44395E-002,2.96268E-001,5.08393E-003,6.50938E-001,0,4.53006E+000,-1.19999E+000,9.99923E-001,-3.77843E+001,-4.10735E+001,9.99395E-001,1.18955E-002,-5.08394E-003,-2.39937E-004,1.18989E-002,-5.08733E-003,-8.09434E-001,1.19404E-002,1.01196E+000,3.04319E-003,0.00000E+000,-3.46247E-003,9.95197E-001,0.00000E+000,-2.62441E-004,-2.34671E-002,1.00000E+000,2
689,1357,-1.55080E+001,1.74767E+000,-1.36701E-002,2.84487E-001,-8.22019E-002,-4.76356E-002,2.99931E-001,3.77040E-003,6.02706E-001,0,4.58398E+000,-1.20510E+000,9.99950E-001,-3.72665E+001,-4.13011E+001,9.99727E-001,1.15505E-002,-5.08302E-003,-2.25608E-004,1.15535E-002,-5.08608E-003,-7.76940E-001,1.15810E-002,1.01161E+000,3.03344E-003,0.00000E+000,-3.41361E-003,9.95198E-001,0.00000E+000,-7.66711E-004,-2.34812E-002,1.00000E+000,2
689,1337,-1.55448E+001,4.65660E-001,-4.47036E-002,2.81144E-001,-7.55650E-002,-1.71714E-002,2.91628E-001,4.92761E-003,6.05229E-001,0,4.44705E+000,-1.18605E+000,9.99922E-001,-3.82199E+001,-4.09293E+001,9.99617E-001,1.22403E-002,-5.08470E-003,-2.55025E-004,1.22441E-002,-5.08845E-003,-8.43153E-001,1.23021E-002,1.01231E+000,3.05146E-003,0.00000E+000,-3.51136E-003,9.95196E-001,0.00000E+000,2.42153E-004,-2.34551E-002,1.00000E+000,2
1169,1327,1.61681E+001,2.08817E-001,-1.09085E-001,6.99645E-001,3.12021E-002,-6.65119E-002,7.03492E-001,4.20344E-003,4.62210E-001,0,1.07886E+001,5.20847E-001,9.99969E-001,-2.92328E+001,-3.04527E+001,9.99470E-001,1.35426E-002,-5.35201E-003,-2.70171E-004,1.35465E-002,-5.35587E-003,-8.19038E-001,1.36450E-002,1.01362E+000,-5.59580E-003,0.00000E+000,4.99359E-003,9.94909E-001,0.00000E+000,-1.82396E-003,-2.28407E-002,1.00000E+000,2
1169,1337,1.61970E+001,8.63796E-001,-6.74434E-002,6.96854E-001,2.79298E-002,-8.29687E-002,7.02331E-001,5.87511E-003,4.70736E-001,0,1.08069E+001,4.99868E-001,9.99971E-001,-2.86367E+001,-3.03907E+001,9.99475E-001,1.38671E-002,-5.35044E-003,-2.46775E-004,1.38703E-002,-5.35361E-003,-7.35582E-001,1.39900E-002,1.01395E+000,-5.58013E-003,0.00000E+000,5.02680E-003,9.94911E-001,0.00000E+000,-1.99133E-003,-2.28487E-002,1.00000E+000,2
1169,1347,1.62282E+001,1.52103E+000,-1.23008E-002,6.93359E-001,2.51509E-002,-9.83910E-002,7.00757E-001,4.13110E-003,4.51412E-001,0,1.08102E+001,4.91092E-001,9.99957E-001,-2.79789E+001,-3.03429E+001,9.99604E-001,1.41923E-002,-5.34873E-003,-2.22583E-004,1.41948E-002,-5.35127E-003,-6.52518E-001,1.43373E-002,1.01428E+000,-5.56289E-003,0.00000E+000,5.06009E-003,9.94913E-001,0.00000E+000,-2.15913E-003,-2.28574E-002,1.00000E+000,2
689,1327,-1.55573E+001,-1.66384E-001,-2.41447E-002,2.78233E-001,-7.15344E-002,-4.81071E-003,2.87322E-001,4.88023E-003,6.53321E-001,0,4.36674E+000,-1.14807E+000,9.99920E-001,-3.85044E+001,-4.06652E+001,9.99307E-001,1.25806E-002,-5.08513E-003,-2.71390E-004,1.25848E-002,-5.08930E-003,-8.79929E-001,1.26612E-002,1.01266E+000,3.05667E-003,0.00000E+000,-3.55965E-003,9.95195E-001,0.00000E+000,7.40654E-004,-2.34476E-002,1.00000E+000,2
1169,1317,1.61515E+001,-4.41784E-001,-1.04054E-001,7.02725E-001,3.37446E-002,-5.05732E-002,7.05350E-001,5.61301E-003,3.73759E-001,0,1.07758E+001,5.39877E-001,9.99967E-001,-2.95569E+001,-3.05922E+001,9.99566E-001,1.32204E-002,-5.35305E-003,-2.90570E-004,1.32249E-002,-5.35759E-003,-8.96068E-001,1.33040E-002,1.01329E+000,-5.60562E-003,0.00000E+000,4.96062E-003,9.94908E-001,0.00000E+000,-1.65781E-003,-2.28357E-002,1.00000E+000,2
1169,1307,1.61414E+001,-1.08395E+000,-7.93499E-002,7.07232E-001,3.69917E-002,-3.43304E-002,7.09030E-001,4.49207E-003,4.47416E-001,0,1.07824E+001,5.61639E-001,9.99958E-001,-2.97462E+001,-3.05648E+001,9.99546E-001,1.29017E-002,-5.35386E-003,-3.09567E-004,1.29070E-002,-5.35911E-003,-9.71215E-001,1.29687E-002,1.01297E+000,-5.61294E-003,0.00000E+000,4.92803E-003,9.94908E-001,0.00000E+000,-1.49359E-003,-2.28320E-002,1.00000E+000,2
1169,1297,1.61379E+001,-1.72289E+000,-2.68774E-002,7.12107E-001,4.21446E-002,-1.48587E-002,7.13508E-001,5.39140E-003,4.73380E-001,0,1.07810E+001,5.93882E-001,9.99928E-001,-2.97849E+001,-3.05719E+001,9.98634E-001,1.25835E-002,-5.35440E-003,-3.27046E-004,1.25894E-002,-5.36036E-003,-1.04416E+000,1.26356E-002,1.01265E+000,-5.61724E-003,0.00000E+000,4.89551E-003,9.94907E-001,0.00000E+000,-1.32968E-003,-2.28298E-002,1.00000E+000,2
689,1317,-1.55627E+001,-7.94222E-001,3.42238E-002,2.76645E-001,-6.66602E-002,1.30664E-002,2.84863E-001,5.08076E-003,6.62388E-001,0,4.29100E+000,-1.11179E+000,9.99908E-001,-3.85730E+001,-4.04379E+001,9.99222E-001,1.29190E-002,-5.08524E-003,-2.89204E-004,1.29237E-002,-5.08988E-003,-9.20031E-001,1.30204E-002,1.01300E+000,3.05879E-003,0.00000E+000,-3.60773E-003,9.95195E-001,0.00000E+000,1.23696E-003,-2.34445E-002,1.00000E+000,2
679,1347,-1.61785E+001,1.09919E+000,-4.00686E-002,2.74515E-001,-7.79995E-002,-3.38255E-002,2.87379E-001,7.90030E-003,5.84240E-001,0,4.39190E+000,-1.18163E+000,9.99925E-001,-3.77401E+001,-4.13105E+001,9.98983E-001,1.18113E-002,-5.05487E-003,-2.80297E-004,1.18159E-002,-5.05953E-003,-9.51845E-001,1.18565E-002,1.01188E+000,3.32562E-003,0.00000E+000,-3.82107E-003,9.95215E-001,0.00000E+000,-2.54886E-004,-2.30704E-002,1.00000E+000,2
679,1357,-1.61586E+001,1.74226E+000,-2.27573E-002,2.77839E-001,-8.02893E-002,-4.69968E-002,2.93001E-001,2.93645E-003,6.29591E-001,0,4.47977E+000,-1.18543E+000,9.99923E-001,-3.72339E+001,-4.14487E+001,9.99770E-001,1.14592E-002,-5.05478E-003,-2.82211E-004,1.14640E-002,-5.05961E-003,-9.78762E-001,1.14902E-002,1.01152E+000,3.31654E-003,0.00000E+000,-3.80636E-003,9.95216E-001,0.00000E+000,-7.22645E-004,-2.30823E-002,1.00000E+000,2
1179,1297,1.68028E+001,-1.71808E+000,-5.30771E-002,7.19925E-001,4.45629E-002,-1.76027E-002,7.21518E-001,1.02240E-002,4.77245E-001,0,1.09012E+001,6.35586E-001,9.99953E-001,-2.94831E+001,-3.03576E+001,9.98463E-001,1.26676E-002,-5.38822E-003,-2.71602E-004,1.26717E-002,-5.39230E-003,-8.61603E-001,1.27185E-002,1.01274E+000,-5.32019E-003,0.00000E+000,4.72677E-003,9.94880E-001,0.00000E+000,-1.89597E-003,-2.30547E-002,1.00000E+000,2
1179,1307,1.68095E+001,-1.07946E+000,-9.50508E-002,7.15626E-001,3.97703E-002,-3.64625E-002,7.17657E-001,4.11678E-003,3.80655E-001,0,1.09091E+001,6.07173E-001,9.99955E-001,-2.93781E+001,-3.04109E+001,9.99302E-001,1.29908E-002,-5.38772E-003,-2.56869E-004,1.29944E-002,-5.39131E-003,-8.00592E-001,1.30570E-002,1.01306E+000,-5.31456E-003,0.00000E+000,4.75155E-003,9.94880E-001,0.00000E+000,-2.01292E-003,-2.30567E-002,1.00000E+000,2
1179,1317,1.68176E+001,-4.37217E-001,-1.32556E-001,7.13809E-001,3.75342E-002,-4.68218E-002,7.16327E-001,1.16439E-002,3.57613E-001,0,1.09209E+001,5.86246E-001,9.99955E-001,-2.92422E+001,-3.03823E+001,9.99107E-001,1.33144E-002,-5.38726E-003,-2.42363E-004,1.33175E-002,-5.39040E-003,-7.42355E-001,1.33978E-002,1.01339E+000,-5.30943E-003,0.00000E+000,4.77638E-003,9.94880E-001,0.00000E+000,-2.13006E-003,-2.30586E-002,1.00000E+000,2
1179,1337,1.68698E+001,8.72566E-001,-6.74670E-002,7.06132E-001,3.13824E-002,-8.30168E-002,7.11687E-001,4.88476E-003,4.22386E-001,0,1.09394E+001,5.56444E-001,9.99957E-001,-2.81710E+001,-3.01900E+001,9.99113E-001,1.39742E-002,-5.38497E-003,-2.03026E-004,1.39764E-002,-5.38710E-003,-6.00789E-001,1.40981E-002,1.01406E+000,-5.27916E-003,0.00000E+000,4.82703E-003,9.94883E-001,0.00000E+000,-2.36911E-003,-2.30694E-002,1.00000E+000,2
1179,1347,1.69045E+001,1.53290E+000,-4.44778E-003,7.03363E-001,2.88414E-002,-9.99063E-002,7.11008E-001,4.34205E-003,4.45281E-001,0,1.09592E+001,5.52337E-001,9.99952E-001,-2.74500E+001,-3.00888E+001,9.99549E-001,1.43064E-002,-5.38358E-003,-1.81430E-004,1.43080E-002,-5.38525E-003,-5.27882E-001,1.44531E-002,1.01440E+000,-5.26027E-003,0.00000E+000,4.85255E-003,9.94884E-001,0.00000E+000,-2.48950E-003,-2.30761E-002,1.00000E+000,2
679,1327,-1.62068E+001,-1.70253E-001,-2.15815E-002,2.70272E-001,-6.96514E-002,-4.22407E-003,2.79134E-001,4.89534E-003,6.25865E-001,0,4.24298E+000,-1.11355E+000,9.99913E-001,-3.84248E+001,-4.08365E+001,9.99410E-001,1.25079E-002,-5.05499E-003,-2.78876E-004,1.25124E-002,-5.05941E-003,-9.09474E-001,1.25884E-002,1.01258E+000,3.33886E-003,0.00000E+000,-3.85023E-003,9.95215E-001,0.00000E+000,6.71958E-004,-2.30530E-002,1.00000E+000,2
679,1337,-1.61958E+001,4.61887E-001,-4.89933E-002,2.72546E-001,-7.35768E-002,-1.85765E-002,2.82913E-001,4.48143E-003,6.11165E-001,0,4.31868E+000,-1.14801E+000,9.99935E-001,-3.81830E+001,-4.10695E+001,9.99785E-001,1.21611E-002,-5.05495E-003,-2.78693E-004,1.21656E-002,-5.05946E-003,-9.27178E-001,1.22229E-002,1.01223E+000,3.33407E-003,0.00000E+000,-3.83571E-003,9.95215E-001,0.00000E+000,2.10321E-004,-2.30593E-002,1.00000E+000,2
1179,1327,1.68397E+001,2.16755E-001,-1.13667E-001,7.10071E-001,3.64408E-002,-6.26070E-002,7.13757E-001,7.62528E-003,4.17570E-001,0,1.09224E+001,5.76754E-001,9.99963E-001,-2.87923E+001,-3.02547E+001,9.98633E-001,1.36430E-002,-5.38626E-003,-2.23755E-004,1.36456E-002,-5.38889E-003,-6.73588E-001,1.37457E-002,1.01372E+000,-5.29635E-003,0.00000E+000,4.80160E-003,9.94881E-001,0.00000E+000,-2.24907E-003,-2.30632E-002,1.00000E+000,2
679,1317,-1.62132E+001,-7.98371E-001,3.02207E-002,2.67776E-001,-6.53450E-002,7.74825E-003,2.75743E-001,5.14896E-003,6.42695E-001,0,4.17001E+000,-1.07427E+000,9.99925E-001,-3.85270E+001,-4.05939E+001,9.99020E-001,1.28527E-002,-5.05500E-003,-2.80338E-004,1.28571E-002,-5.05939E-003,-8.96648E-001,1.29539E-002,1.01293E+000,3.34104E-003,0.00000E+000,-3.86468E-003,9.95215E-001,0.00000E+000,1.13133E-003,-2.30501E-002,1.00000E+000,2
669,1327,-1.68565E+001,-1.75558E-001,-2.09642E-002,2.62376E-001,-6.81472E-002,-1.61590E-003,2.71087E-001,5.88870E-003,5.76177E-001,0,4.11470E+000,-1.08597E+000,9.99943E-001,-3.83507E+001,-4.10368E+001,9.99198E-001,1.24177E-002,-4.99237E-003,-2.54181E-004,1.24214E-002,-4.99608E-003,-8.36259E-001,1.25004E-002,1.01249E+000,3.72130E-003,0.00000E+000,-4.17526E-003,9.95265E-001,0.00000E+000,5.91040E-004,-2.25632E-002,1.00000E+000,2
669,1337,-1.68454E+001,4.59208E-001,-4.59841E-002,2.64447E-001,-7.14107E-002,-1.58970E-002,2.74380E-001,3.53820E-003,6.25724E-001,0,4.18655E+000,-1.11410E+000,9.99942E-001,-3.80986E+001,-4.12045E+001,9.99679E-001,1.20529E-002,-4.99263E-003,-2.68818E-004,1.20572E-002,-4.99687E-003,-9.03285E-001,1.21159E-002,1.01212E+000,3.71607E-003,0.00000E+000,-4.19095E-003,9.95264E-001,0.00000E+000,1.61842E-004,-2.25693E-002,1.00000E+000,2
669,1347,-1.68308E+001,1.09530E+000,-5.28627E-002,2.67098E-001,-7.42561E-002,-2.85447E-002,2.78694E-001,3.18728E-003,6.17796E-001,0,4.26266E+000,-1.13651E+000,9.99944E-001,-3.77412E+001,-4.14220E+001,9.99604E-001,1.16875E-002,-4.99301E-003,-2.84286E-004,1.16923E-002,-4.99785E-003,-9.76116E-001,1.17333E-002,1.01175E+000,3.70918E-003,0.00000E+000,-4.20664E-003,9.95264E-001,0.00000E+000,-2.67729E-004,-2.25773E-002,1.00000E+000,2
669,1357,-1.68087E+001,1.73802E+000,-2.05040E-002,2.69742E-001,-7.69461E-002,-4.39102E-002,2.83918E-001,3.40698E-003,5.95652E-001,0,4.34569E+000,-1.14289E+000,9.99881E-001,-3.71569E+001,-4.16338E+001,9.99701E-001,1.13185E-002,-4.99368E-003,-3.01984E-004,1.13241E-002,-4.99927E-003,-1.06022E+000,1.13500E-002,1.01138E+000,3.69801E-003,0.00000E+000,-4.22248E-003,9.95264E-001,0.00000E+000,-7.01038E-004,-2.25903E-002,1.00000E+000,2
1189,1337,1.75436E+001,8.82134E-001,-6.65363E-002,7.15361E-001,3.33822E-002,-8.37953E-002,7.21025E-001,7.16465E-003,4.26055E-001,0,1.10742E+001,5.96883E-001,9.99928E-001,-2.76864E+001,-2.99530E+001,9.99169E-001,1.40451E-002,-5.43737E-003,-1.84765E-004,1.40469E-002,-5.43913E-003,-5.43309E-001,1.41655E-002,1.01413E+000,-5.02855E-003,0.00000E+000,4.62302E-003,9.94835E-001,0.00000E+000,-2.61218E-003,-2.32359E-002,1.00000E+000,2
669,1317,-1.68616E+001,-8.03228E-001,3.21062E-002,2.59884E-001,-6.38586E-002,4.80406E-003,2.67658E-001,8.67232E-003,5.75269E-001,0,4.05725E+000,-1.03686E+000,9.99946E-001,-3.84303E+001,-4.07970E+001,9.98612E-001,1.27792E-002,-4.99236E-003,-2.41458E-004,1.27825E-002,-4.99564E-003,-7.78274E-001,1.28836E-002,1.01285E+000,3.72286E-003,0.00000E+000,-4.15971E-003,9.95265E-001,0.00000E+000,1.01668E-003,-2.25614E-002,1.00000E+000,2
1189,1297,1.74787E+001,-1.70870E+000,-3.88597E-002,7.28076E-001,4.77757E-002,-1.99486E-002,7.29915E-001,8.35228E-003,4.26903E-001,0,1.10235E+001,6.86571E-001,9.99929E-001,-2.89369E+001,-3.01846E+001,9.97796E-001,1.28020E-002,-5.43598E-003,-1.86098E-004,1.28039E-002,-5.43788E-003,-5.84559E-001,1.28522E-002,1.01287E+000,-5.06607E-003,0.00000E+000,4.65799E-003,9.94836E-001,0.00000E+000,-2.38114E-003,-2.32290E-002,1.00000E+000,2
1189,1307,1.74804E+001,-1.06961E+000,-1.00983E-001,7.23224E-001,4.27881E-002,-4.09562E-002,7.25645E-001,5.17256E-003,4.26948E-001,0,1.10322E+001,6.57462E-001,9.99914E-001,-2.89451E+001,-3.01382E+001,9.98969E-001,1.31096E-002,-5.43613E-003,-1.88758E-004,1.31115E-002,-5.43805E-003,-5.83073E-001,1.31749E-002,1.01319E+000,-5.06286E-003,0.00000E+000,4.64934E-003,9.94836E-001,0.00000E+000,-2.43828E-003,-2.32296E-002,1.00000E+000,2
1189,1317,1.74983E+001,-4.17811E-001,-1.03532E-001,7.21568E-001,4.18512E-002,-5.28688E-002,7.24711E-001,5.69374E-003,4.86930E-001,0,1.10512E+001,6.61350E-001,9.99949E-001,-2.85993E+001,-2.99934E+001,9.99574E-001,1.34211E-002,-5.43648E-003,-1.88401E-004,1.34230E-002,-5.43837E-003,-5.72349E-001,1.35033E-002,1.01350E+000,-5.05342E-003,0.00000E+000,4.64057E-003,9.94836E-001,0.00000E+000,-2.49617E-003,-2.32313E-002,1.00000E+000,2
1189,1327,1.75184E+001,2.30569E-001,-9.18084E-002,7.18105E-001,3.73138E-002,-6.65992E-002,7.22151E-001,7.75200E-003,4.40073E-001,0,1.10510E+001,6.30300E-001,9.99955E-001,-2.81938E+001,-2.99894E+001,9.99400E-001,1.37326E-002,-5.43690E-003,-1.87089E-004,1.37344E-002,-5.43872E-003,-5.59119E-001,1.38331E-002,1.01382E+000,-5.04203E-003,0.00000E+000,4.63181E-003,9.94836E-001,0.00000E+000,-2.55406E-003,-2.32334E-002,1.00000E+000,2
659,1327,-1.75043E+001,-1.76486E-001,-1.38953E-002,2.54702E-001,-6.45383E-002,7.16986E-004,2.62752E-001,1.02552E-002,5.85714E-001,0,3.98992E+000,-1.03479E+000,9.99921E-001,-3.82254E+001,-4.11542E+001,9.97937E-001,1.23128E-002,-4.93301E-003,-2.56444E-004,1.23166E-002,-4.93682E-003,-8.51732E-001,1.23971E-002,1.01238E+000,4.07343E-003,0.00000E+000,-4.52311E-003,9.95312E-001,0.00000E+000,4.51548E-004,-2.21026E-002,1.00000E+000,2
659,1337,-1.74917E+001,4.56074E-001,-4.17508E-002,2.58376E-001,-6.99423E-002,-1.66054E-002,2.68190E-001,8.73044E-003,6.36010E-001,0,4.09540E+000,-1.08840E+000,9.99922E-001,-3.79574E+001,-4.13509E+001,9.99457E-001,1.19430E-002,-4.93345E-003,-2.80923E-004,1.19477E-002,-4.93812E-003,-9.53386E-001,1.20074E-002,1.01201E+000,4.06816E-003,0.00000E+000,-4.55990E-003,9.95311E-001,0.00000E+000,7.73949E-005,-2.21078E-002,1.00000E+000,2
659,1347,-1.74763E+001,1.09393E+000,-4.00515E-002,2.61726E-001,-7.07238E-002,-2.16220E-002,2.71974E-001,4.39008E-003,6.37254E-001,0,4.16071E+000,-1.10431E+000,9.99953E-001,-3.75626E+001,-4.15573E+001,9.99810E-001,1.15727E-002,-4.93410E-003,-3.06273E-004,1.15784E-002,-4.93978E-003,-1.06260E+000,1.16199E-002,1.01163E+000,4.06115E-003,0.00000E+000,-4.59671E-003,9.95311E-001,0.00000E+000,-2.96917E-004,-2.21148E-002,1.00000E+000,2
659,1357,-1.74567E+001,1.73613E+000,-1.46393E-002,2.62756E-001,-7.31288E-002,-4.07341E-002,2.75767E-001,2.70176E-003,6.07326E-001,0,4.22849E+000,-1.09561E+000,9.99939E-001,-3.70323E+001,-4.17679E+001,9.99859E-001,1.11992E-002,-4.93522E-003,-3.33721E-004,1.12061E-002,-4.94212E-003,-1.18442E+000,1.12320E-002,1.01125E+000,4.05027E-003,0.00000E+000,-4.63381E-003,9.95310E-001,0.00000E+000,-6.74198E-004,-2.21257E-002,1.00000E+000,2
1199,1307,1.81552E+001,-1.05886E+000,-9.33569E-002,7.31227E-001,4.54769E-002,-4.38081E-002,7.33948E-001,7.19909E-003,4.51933E-001,0,1.11550E+001,7.02109E-001,9.99909E-001,-2.84242E+001,-2.98912E+001,9.98831E-001,1.31771E-002,-5.45567E-003,-1.12394E-004,1.31778E-002,-5.45634E-003,-3.45594E-001,1.32426E-002,1.01326E+000,-4.77556E-003,0.00000E+000,4.52546E-003,9.94820E-001,0.00000E+000,-2.71263E-003,-2.33188E-002,1.00000E+000,2
1199,1317,1.81703E+001,-4.12283E-001,-1.09446E-001,7.29060E-001,4.22130E-002,-5.99541E-002,7.32738E-001,5.25046E-003,4.42333E-001,0,1.11840E+001,6.86093E-001,9.99863E-001,-2.81467E+001,-2.98316E+001,9.99059E-001,1.34808E-002,-5.45689E-003,-1.27427E-004,1.34817E-002,-5.45775E-003,-3.85507E-001,1.35628E-002,1.01356E+000,-4.76740E-003,0.00000E+000,4.48683E-003,9.94819E-001,0.00000E+000,-2.74274E-003,-2.33196E-002,1.00000E+000,2
1199,1327,1.81883E+001,2.35878E-001,-1.12366E-001,7.27134E-001,3.94471E-002,-7.37009E-002,7.31923E-001,5.85527E-003,4.07921E-001,0,1.12070E+001,6.74408E-001,9.99919E-001,-2.78002E+001,-2.97912E+001,9.99163E-001,1.37848E-002,-5.45829E-003,-1.41852E-004,1.37859E-002,-5.45933E-003,-4.22328E-001,1.38849E-002,1.01387E+000,-4.75795E-003,0.00000E+000,4.44814E-003,9.94817E-001,0.00000E+000,-2.77289E-003,-2.33205E-002,1.00000E+000,2
659,1317,-1.75126E+001,-8.05397E-001,2.90613E-002,2.51522E-001,-6.05540E-002,1.10259E-002,2.58943E-001,8.38738E-003,6.08134E-001,0,3.91142E+000,-9.97365E-001,9.99858E-001,-3.83821E+001,-4.08988E+001,9.96263E-001,1.26797E-002,-4.93284E-003,-2.33251E-004,1.26828E-002,-4.93592E-003,-7.58617E-001,1.27862E-002,1.01275E+000,4.07641E-003,0.00000E+000,-4.48659E-003,9.95312E-001,0.00000E+000,8.23035E-004,-2.20996E-002,1.00000E+000,2
1199,1337,1.82213E+001,8.93883E-001,-5.85375E-002,7.25279E-001,3.66738E-002,-8.77889E-002,7.31492E-001,6.69558E-003,4.45982E-001,0,1.12307E+001,6.46403E-001,9.99920E-001,-2.71271E+001,-2.96897E+001,9.98555E-001,1.40931E-002,-5.46058E-003,-1.53122E-004,1.40943E-002,-5.46178E-003,-4.48636E-001,1.42127E-002,1.01419E+000,-4.74152E-003,0.00000E+000,4.40888E-003,9.94815E-001,0.00000E+000,-2.80347E-003,-2.33221E-002,1.00000E+000,2
1199,1297,1.81522E+001,-1.69915E+000,-3.78632E-002,7.35435E-001,4.99039E-002,-2.67936E-002,7.37613E-001,5.11972E-003,4.44763E-001,0,1.11518E+001,7.34603E-001,9.99919E-001,-2.84485E+001,-2.99471E+001,9.98707E-001,1.28756E-002,-5.45504E-003,-9.51952E-005,1.28761E-002,-5.45553E-003,-2.97539E-001,1.29260E-002,1.01295E+000,-4.77903E-003,0.00000E+000,4.56381E-003,9.94820E-001,0.00000E+000,-2.68276E-003,-2.33185E-002,1.00000E+000,2
649,1347,-1.81256E+001,1.09141E+000,-4.25060E-002,2.52523E-001,-6.85430E-002,-2.83632E-002,2.63193E-001,4.52543E-003,6.34228E-001,0,4.03671E+000,-1.04361E+000,9.99961E-001,-3.74803E+001,-4.16887E+001,9.99442E-001,1.14481E-002,-4.90260E-003,-3.15266E-004,1.14541E-002,-4.90868E-003,-1.10420E+000,1.14931E-002,1.01150E+000,4.40199E-003,0.00000E+000,-4.95108E-003,9.95332E-001,0.00000E+000,-2.75954E-004,-2.17465E-002,1.00000E+000,2
649,1357,-1.81050E+001,1.73301E+000,-1.56030E-002,2.55167E-001,-7.04930E-002,-4.34582E-002,2.68269E-001,2.87701E-003,6.08485E-001,0,4.11827E+000,-1.04652E+000,9.99968E-001,-3.69289E+001,-4.19112E+001,9.99738E-001,1.10683E-002,-4.90370E-003,-3.43321E-004,1.10757E-002,-4.91108E-003,-1.23083E+000,1.10993E-002,1.01112E+000,4.39128E-003,0.00000E+000,-4.99112E-003,9.95331E-001,0.00000E+000,-5.93988E-004,-2.17554E-002,1.00000E+000,2
649,1337,-1.81412E+001,4.54650E-001,-3.63129E-002,2.48678E-001,-6.51416E-002,-1.64961E-002,2.57597E-001,5.52033E-003,6.18237E-001,0,3.94432E+000,-1.02418E+000,9.99959E-001,-3.78571E+001,-4.14882E+001,9.99372E-001,1.18261E-002,-4.90196E-003,-2.89151E-004,1.18311E-002,-4.90696E-003,-9.89986E-001,1.18883E-002,1.01189E+000,4.40897E-003,0.00000E+000,-4.91118E-003,9.95333E-001,0.00000E+000,4.08622E-005,-2.17408E-002,1.00000E+000,2
649,1327,-1.81515E+001,-1.76851E-001,-9.40882E-003,2.46810E-001,-6.10867E-002,-2.23392E-003,2.54267E-001,5.08458E-003,6.17244E-001,0,3.87603E+000,-9.80344E-001,9.99944E-001,-3.80934E+001,-4.12465E+001,9.99608E-001,1.22015E-002,-4.90156E-003,-2.64132E-004,1.22055E-002,-4.90564E-003,-8.84572E-001,1.22836E-002,1.01227E+000,4.41403E-003,0.00000E+000,-4.87155E-003,9.95334E-001,0.00000E+000,3.55630E-004,-2.17366E-002,1.00000E+000,2
1209,1307,1.88321E+001,-1.04893E+000,-8.68011E-002,7.41449E-001,4.86017E-002,-4.51199E-002,7.44409E-001,4.95551E-003,4.66339E-001,0,1.13049E+001,7.41245E-001,9.99947E-001,-2.78706E+001,-2.96599E+001,9.99075E-001,1.31970E-002,-5.45268E-003,-2.33141E-005,1.31970E-002,-5.45271E-003,-7.16258E-002,1.32632E-002,1.01328E+000,-4.42928E-003,0.00000E+000,4.36499E-003,9.94818E-001,0.00000E+000,-2.83290E-003,-2.31000E-002,1.00000E+000,2
1209,1317,1.88449E+001,-4.04042E-001,-1.08660E-001,7.38684E-001,4.44551E-002,-6.00045E-002,7.42449E-001,5.23504E-003,4.46722E-001,0,1.13209E+001,7.13202E-001,9.99933E-001,-2.76399E+001,-2.96178E+001,9.99076E-001,1.35127E-002,-5.45376E-003,-3.79601E-005,1.35128E-002,-5.45384E-003,-1.14673E-001,1.35962E-002,1.01360E+000,-4.42164E-003,0.00000E+000,4.32561E-003,9.94817E-001,0.00000E+000,-2.77339E-003,-2.30986E-002,1.00000E+000,2
1209,1327,1.88677E+001,2.46500E-001,-9.69779E-002,7.36807E-001,4.17941E-002,-7.68051E-002,7.41977E-001,5.12786E-003,4.08214E-001,0,1.13562E+001,7.03519E-001,9.99936E-001,-2.71964E+001,-2.95726E+001,9.99359E-001,1.38302E-002,-5.45538E-003,-5.04936E-005,1.38303E-002,-5.45551E-003,-1.50011E-001,1.39326E-002,1.01392E+000,-4.40948E-003,0.00000E+000,4.28599E-003,9.94816E-001,0.00000E+000,-2.71351E-003,-2.30963E-002,1.00000E+000,2
1209,1337,1.89013E+001,9.06117E-001,-4.36472E-002,7.35103E-001,3.91488E-002,-9.24084E-002,7.41922E-001,6.68739E-003,4.44530E-001,0,1.13883E+001,6.97959E-001,9.99941E-001,-2.65162E+001,-2.94446E+001,9.98324E-001,1.41517E-002,-5.45762E-003,-6.07093E-005,1.41519E-002,-5.45781E-003,-1.77382E-001,1.42747E-002,1.01425E+000,-4.39211E-003,0.00000E+000,4.24584E-003,9.94814E-001,0.00000E+000,-2.65284E-003,-2.30931E-002,1.00000E+000,2
1209,1297,1.88260E+001,-1.69069E+000,-3.94291E-002,7.44442E-001,5.32865E-002,-2.93514E-002,7.46924E-001,4.58353E-003,4.26897E-001,0,1.12880E+001,7.88758E-001,9.99919E-001,-2.79558E+001,-2.97389E+001,9.98975E-001,1.28824E-002,-5.45198E-003,-7.19384E-006,1.28824E-002,-5.45198E-003,-2.24811E-002,1.29329E-002,1.01296E+000,-4.43380E-003,0.00000E+000,4.40423E-003,9.94819E-001,0.00000E+000,-2.89220E-003,-2.31009E-002,1.00000E+000,2
649,1317,-1.81582E+001,-8.04596E-001,4.35246E-002,2.43772E-001,-5.71672E-002,1.05846E-002,2.50609E-001,3.88105E-003,6.31595E-001,0,3.79310E+000,-9.46096E-001,9.99904E-001,-3.81984E+001,-4.09963E+001,9.99624E-001,1.25747E-002,-4.90150E-003,-2.40630E-004,1.25780E-002,-4.90481E-003,-7.88709E-001,1.26791E-002,1.01264E+000,4.41625E-003,0.00000E+000,-4.83211E-003,9.95334E-001,0.00000E+000,6.68818E-004,-2.17347E-002,1.00000E+000,2
639,1347,-1.87738E+001,1.08904E+000,-4.56760E-002,2.45070E-001,-6.46773E-002,-2.97704E-002,2.55203E-001,4.56628E-003,6.29557E-001,0,3.92478E+000,-9.78231E-001,9.99943E-001,-3.73799E+001,-4.18169E+001,9.99392E-001,1.13219E-002,-4.86148E-003,-3.05839E-004,1.13277E-002,-4.86726E-003,-1.08228E+000,1.13649E-002,1.01138E+000,4.78291E-003,0.00000E+000,-5.31015E-003,9.95364E-001,0.00000E+000,-1.70796E-004,-2.14001E-002,1.00000E+000,2
639,1357,-1.87525E+001,1.73076E+000,-1.57397E-002,2.48350E-001,-6.71277E-002,-4.28914E-002,2.60813E-001,2.83920E-003,6.13272E-001,0,4.01086E+000,-9.87825E-001,9.99951E-001,-3.68076E+001,-4.20413E+001,9.99739E-001,1.09424E-002,-4.86230E-003,-3.28071E-004,1.09492E-002,-4.86911E-003,-1.18865E+000,1.09715E-002,1.01099E+000,4.77219E-003,0.00000E+000,-5.33985E-003,9.95363E-001,0.00000E+000,-4.41998E-004,-2.14077E-002,1.00000E+000,2
639,1317,-1.88042E+001,-8.02603E-001,5.88630E-002,2.35661E-001,-5.38036E-002,1.27242E-002,2.42060E-001,5.76317E-003,6.96480E-001,0,3.66206E+000,-8.99239E-001,9.99907E-001,-3.80118E+001,-4.10570E+001,9.99152E-001,1.24444E-002,-4.86084E-003,-2.49525E-004,1.24480E-002,-4.86444E-003,-8.25919E-001,1.25466E-002,1.01251E+000,4.79542E-003,0.00000E+000,-5.22218E-003,9.95365E-001,0.00000E+000,6.32368E-004,-2.13913E-002,1.00000E+000,2
639,1327,-1.87988E+001,-1.78971E-001,-3.02860E-003,2.38824E-001,-5.84524E-002,-1.29616E-003,2.45877E-001,4.34219E-003,6.18346E-001,0,3.75020E+000,-9.42307E-001,9.99934E-001,-3.79532E+001,-4.13851E+001,9.99302E-001,1.20735E-002,-4.86080E-003,-2.66770E-004,1.20777E-002,-4.86500E-003,-9.02296E-001,1.21535E-002,1.01214E+000,4.79407E-003,0.00000E+000,-5.25127E-003,9.95365E-001,0.00000E+000,3.66819E-004,-2.13922E-002,1.00000E+000,2
639,1337,-1.87893E+001,4.53447E-001,-4.10792E-002,2.41729E-001,-6.18174E-002,-1.62800E-002,2.50038E-001,4.05730E-003,6.57345E-001,0,3.83631E+000,-9.62657E-001,9.99951E-001,-3.77609E+001,-4.15716E+001,9.99492E-001,1.16983E-002,-4.86099E-003,-2.85476E-004,1.17033E-002,-4.86591E-003,-9.87365E-001,1.17585E-002,1.01176E+000,4.79011E-003,0.00000E+000,-5.28067E-003,9.95365E-001,0.00000E+000,9.83910E-005,-2.13950E-002,1.00000E+000,2
1219,1317,1.95232E+001,-3.91400E-001,-1.00049E-001,7.47849E-001,4.67791E-002,-6.59723E-002,7.52210E-001,6.27498E-003,4.99717E-001,0,1.14734E+001,7.66066E-001,9.99949E-001,-2.70594E+001,-2.93282E+001,9.98962E-001,1.35270E-002,-5.47036E-003,4.42868E-005,1.35271E-002,-5.47046E-003,1.33567E-001,1.36093E-002,1.01361E+000,-4.08219E-003,0.00000E+000,4.15396E-003,9.94795E-001,0.00000E+000,-2.71370E-003,-2.27971E-002,1.00000E+000,2
1219,1327,1.95444E+001,2.57616E-001,-9.16543E-002,7.46368E-001,4.46386E-002,-7.80835E-002,7.51768E-001,3.84115E-003,4.39317E-001,0,1.14966E+001,7.47189E-001,9.99946E-001,-2.66474E+001,-2.93092E+001,9.99430E-001,1.38472E-002,-5.47178E-003,3.22374E-005,1.38473E-002,-5.47184E-003,9.56086E-002,1.39484E-002,1.01394E+000,-4.07087E-003,0.00000E+000,4.11367E-003,9.94793E-001,0.00000E+000,-2.54145E-003,-2.27911E-002,1.00000E+000,2
1219,1337,1.95793E+001,9.17598E-001,-3.55203E-002,7.45047E-001,4.17873E-002,-9.34281E-002,7.52044E-001,4.75711E-003,4.67065E-001,0,1.15338E+001,7.41156E-001,9.99954E-001,-2.59455E+001,-2.91847E+001,9.99180E-001,1.41727E-002,-5.47397E-003,2.31834E-005,1.41728E-002,-5.47399E-003,6.76099E-002,1.42945E-002,1.01427E+000,-4.05285E-003,0.00000E+000,4.07270E-003,9.94791E-001,0.00000E+000,-2.36624E-003,-2.27815E-002,1.00000E+000,2
1219,1297,1.95017E+001,-1.68077E+000,-3.76552E-002,7.53755E-001,5.61206E-002,-3.27095E-002,7.56549E-001,5.04127E-003,4.44153E-001,0,1.14319E+001,8.40420E-001,9.99915E-001,-2.74245E+001,-2.94977E+001,9.99000E-001,1.28877E-002,-5.46852E-003,7.27498E-005,1.28880E-002,-5.46881E-003,2.27071E-001,1.29371E-002,1.01297E+000,-4.09582E-003,0.00000E+000,4.23434E-003,9.94796E-001,0.00000E+000,-3.05744E-003,-2.28044E-002,1.00000E+000,2
1219,1307,1.95111E+001,-1.03723E+000,-7.45765E-002,7.51454E-001,5.15276E-002,-4.75773E-002,7.54719E-001,5.93879E-003,4.96862E-001,0,1.14556E+001,7.86945E-001,9.99950E-001,-2.72719E+001,-2.94050E+001,9.98826E-001,1.32069E-002,-5.46933E-003,5.80690E-005,1.32070E-002,-5.46951E-003,1.78145E-001,1.32718E-002,1.01329E+000,-4.08998E-003,0.00000E+000,4.19422E-003,9.94796E-001,0.00000E+000,-2.88587E-003,-2.28013E-002,1.00000E+000,2
629,1347,-1.94220E+001,1.08549E+000,-5.14325E-002,2.37716E-001,-6.18682E-002,-3.10972E-002,2.47596E-001,3.66893E-003,6.19989E-001,0,3.81434E+000,-9.23229E-001,9.99936E-001,-3.72827E+001,-4.19603E+001,9.99547E-001,1.12073E-002,-4.93968E-003,-2.98749E-004,1.12129E-002,-4.94520E-003,-1.05959E+000,1.12388E-002,1.01126E+000,5.18507E-003,0.00000E+000,-5.69335E-003,9.95277E-001,0.00000E+000,-1.00644E-004,-2.10580E-002,1.00000E+000,2
629,1357,-1.94003E+001,1.72755E+000,-1.80480E-002,2.41219E-001,-6.40566E-002,-4.26018E-002,2.53189E-001,3.19837E-003,6.05155E-001,0,3.89927E+000,-9.32526E-001,9.99941E-001,-3.66927E+001,-4.21878E+001,9.99625E-001,1.08656E-002,-4.93896E-003,-2.86736E-004,1.08708E-002,-4.94416E-003,-1.03904E+000,1.08856E-002,1.01091E+000,5.17537E-003,0.00000E+000,-5.65620E-003,9.95278E-001,0.00000E+000,-3.59880E-004,-2.10653E-002,1.00000E+000,2
629,1327,-1.94471E+001,-1.81518E-001,-7.32311E-003,2.30810E-001,-5.52247E-002,-3.27906E-003,2.37347E-001,3.65107E-003,5.99255E-001,0,3.63158E+000,-8.76793E-001,9.99936E-001,-3.78549E+001,-4.15176E+001,9.99413E-001,1.18841E-002,-4.94023E-003,-3.27260E-004,1.18905E-002,-4.94659E-003,-1.11393E+000,1.19463E-002,1.01194E+000,5.19480E-003,0.00000E+000,-5.76697E-003,9.95276E-001,0.00000E+000,4.13198E-004,-2.10507E-002,1.00000E+000,2
629,1337,-1.94364E+001,4.50200E-001,-4.50653E-002,2.34865E-001,-5.89874E-002,-1.84189E-002,2.42859E-001,3.47046E-003,6.42281E-001,0,3.73590E+000,-9.07567E-001,9.99926E-001,-3.76437E+001,-4.17151E+001,9.99632E-001,1.15463E-002,-4.94008E-003,-3.12381E-004,1.15522E-002,-4.94599E-003,-1.08511E+000,1.15919E-002,1.01160E+000,5.19124E-003,0.00000E+000,-5.73021E-003,9.95276E-001,0.00000E+000,1.56633E-004,-2.10534E-002,1.00000E+000,2
1229,1317,2.01994E+001,-3.81810E-001,-9.80534E-002,7.57572E-001,4.99884E-002,-6.68695E-002,7.62159E-001,5.82827E-003,4.98925E-001,0,1.16142E+001,8.13070E-001,9.99936E-001,-2.65185E+001,-2.90987E+001,9.99419E-001,1.35228E-002,-5.45983E-003,1.22825E-004,1.35236E-002,-5.46063E-003,3.70707E-001,1.36068E-002,1.01361E+000,-3.77095E-003,0.00000E+000,3.99967E-003,9.94798E-001,0.00000E+000,-2.51576E-003,-2.24775E-002,1.00000E+000,2
1229,1327,2.02210E+001,2.69609E-001,-9.08702E-002,7.55869E-001,4.69620E-002,-8.15122E-002,7.61700E-001,4.59299E-003,5.26376E-001,0,1.16446E+001,7.86381E-001,9.99950E-001,-2.61049E+001,-2.89946E+001,9.99165E-001,1.38451E-002,-5.46122E-003,1.11640E-004,1.38457E-002,-5.46186E-003,3.31302E-001,1.39481E-002,1.01394E+000,-3.75931E-003,0.00000E+000,3.95752E-003,9.94797E-001,0.00000E+000,-2.19101E-003,-2.24659E-002,1.00000E+000,2
1229,1337,2.02532E+001,9.25163E-001,-4.72287E-002,7.54580E-001,4.46926E-002,-9.82121E-002,7.62256E-001,5.11120E-003,4.51109E-001,0,1.16879E+001,7.87572E-001,9.99919E-001,-2.54689E+001,-2.89612E+001,9.98902E-001,1.41687E-002,-5.46315E-003,1.02851E-004,1.41692E-002,-5.46369E-003,3.00161E-001,1.42923E-002,1.01426E+000,-3.74265E-003,0.00000E+000,3.91519E-003,9.94795E-001,0.00000E+000,-1.86481E-003,-2.24494E-002,1.00000E+000,2
629,1317,-1.94530E+001,-8.05441E-001,5.72147E-002,2.26888E-001,-5.06782E-002,1.22808E-002,2.32803E-001,4.41904E-003,6.79006E-001,0,3.52772E+000,-8.48338E-001,9.99939E-001,-3.79143E+001,-4.11972E+001,9.99338E-001,1.22185E-002,-4.94016E-003,-3.43182E-004,1.22253E-002,-4.94702E-003,-1.14534E+000,1.22992E-002,1.01228E+000,5.19591E-003,0.00000E+000,-5.80337E-003,9.95276E-001,0.00000E+000,6.67274E-004,-2.10499E-002,1.00000E+000,2
1229,1297,2.01776E+001,-1.67048E+000,-3.50432E-002,7.62732E-001,5.90192E-002,-3.50993E-002,7.65817E-001,4.97194E-003,4.80681E-001,0,1.15667E+001,8.86188E-001,9.99909E-001,-2.68865E+001,-2.92430E+001,9.98798E-001,1.28825E-002,-5.45811E-003,1.49774E-004,1.28837E-002,-5.45934E-003,4.67850E-001,1.29336E-002,1.01296E+000,-3.78439E-003,0.00000E+000,4.08330E-003,9.94800E-001,0.00000E+000,-3.16011E-003,-2.24909E-002,1.00000E+000,2
1229,1307,2.01860E+001,-1.02753E+000,-7.68960E-002,7.60727E-001,5.49089E-002,-4.96003E-002,7.64317E-001,7.28697E-003,5.00677E-001,0,1.15938E+001,8.46748E-001,9.99908E-001,-2.67584E+001,-2.91638E+001,9.98805E-001,1.32019E-002,-5.45881E-003,1.35582E-004,1.32029E-002,-5.45979E-003,4.16261E-001,1.32686E-002,1.01329E+000,-3.77921E-003,0.00000E+000,4.04159E-003,9.94800E-001,0.00000E+000,-2.83875E-003,-2.24858E-002,1.00000E+000,2
619,1327,-2.00945E+001,-1.84109E-001,-8.12410E-003,2.22982E-001,-5.22830E-002,-3.08919E-003,2.29051E-001,3.20891E-003,6.03537E-001,0,3.50991E+000,-8.31873E-001,9.99916E-001,-3.77302E+001,-4.16467E+001,9.99513E-001,1.17604E-002,-4.86077E-003,-3.66455E-004,1.17684E-002,-4.86884E-003,-1.26241E+000,1.18267E-002,1.01181E+000,5.59946E-003,0.00000E+000,-6.24506E-003,9.95342E-001,0.00000E+000,4.73061E-004,-2.05792E-002,1.00000E+000,2
619,1337,-2.00837E+001,4.48250E-001,-4.15685E-002,2.26507E-001,-5.57969E-002,-1.85372E-002,2.34013E-001,2.89993E-003,6.44774E-001,0,3.60635E+000,-8.58100E-001,9.99891E-001,-3.75029E+001,-4.18463E+001,9.99632E-001,1.14300E-002,-4.86039E-003,-3.33895E-004,1.14369E-002,-4.86723E-003,-1.17370E+000,1.14790E-002,1.01148E+000,5.59563E-003,0.00000E+000,-6.17282E-003,9.95343E-001,0.00000E+000,2.05587E-004,-2.05822E-002,1.00000E+000,2
619,1347,-2.00701E+001,1.08283E+000,-5.38751E-002,2.29930E-001,-5.81864E-002,-2.99388E-002,2.39060E-001,3.27885E-003,6.25962E-001,0,3.69008E+000,-8.69716E-001,9.99913E-001,-3.71701E+001,-4.20896E+001,9.99645E-001,1.10992E-002,-4.85972E-003,-3.02040E-004,1.11050E-002,-4.86543E-003,-1.08386E+000,1.11333E-002,1.01115E+000,5.59031E-003,0.00000E+000,-6.10053E-003,9.95344E-001,0.00000E+000,-6.20940E-005,-2.05865E-002,1.00000E+000,2
619,1357,-2.00490E+001,1.72390E+000,-2.62418E-002,2.33951E-001,-6.02148E-002,-4.14890E-002,2.45112E-001,3.29202E-003,6.04803E-001,0,3.78306E+000,-8.74644E-001,9.99952E-001,-3.66049E+001,-4.23245E+001,9.99672E-001,1.07658E-002,-4.85834E-003,-2.71673E-004,1.07705E-002,-4.86306E-003,-9.95860E-001,1.07874E-002,1.01081E+000,5.58146E-003,0.00000E+000,-6.02770E-003,9.95346E-001,0.00000E+000,-3.31758E-004,-2.05936E-002,1.00000E+000,2
619,1317,-2.00998E+001,-8.08391E-001,5.72424E-002,2.19840E-001,-4.66531E-002,1.38036E-002,2.25159E-001,4.69146E-003,6.35749E-001,0,3.41472E+000,-7.90051E-001,9.99914E-001,-3.77764E+001,-4.13555E+001,9.99506E-001,1.20880E-002,-4.86060E-003,-4.00078E-004,1.20974E-002,-4.87004E-003,-1.35149E+000,1.21737E-002,1.01215E+000,5.60061E-003,0.00000E+000,-6.31675E-003,9.95342E-001,0.00000E+000,7.38481E-004,-2.05782E-002,1.00000E+000,2
1239,1307,2.08597E+001,-1.02120E+000,-8.43492E-002,7.69169E-001,5.65197E-002,-5.38185E-002,7.73118E-001,7.61130E-003,4.67174E-001,0,1.17288E+001,8.84137E-001,9.99901E-001,-2.62679E+001,-2.89828E+001,9.99005E-001,1.31778E-002,-5.42088E-003,1.89541E-004,1.31798E-002,-5.42281E-003,5.83824E-001,1.32485E-002,1.01326E+000,-3.46552E-003,0.00000E+000,3.84083E-003,9.94832E-001,0.00000E+000,-2.85142E-003,-2.21978E-002,1.00000E+000,2
1239,1317,2.08745E+001,-3.74509E-001,-1.05520E-001,7.67655E-001,5.33893E-002,-6.97997E-002,7.72668E-001,6.91025E-003,4.55802E-001,0,1.17684E+001,8.66367E-001,9.99922E-001,-2.60073E+001,-2.89056E+001,9.99170E-001,1.34992E-002,-5.42140E-003,1.84985E-004,1.35010E-002,-5.42321E-003,5.60103E-001,1.35878E-002,1.01359E+000,-3.45737E-003,0.00000E+000,3.81238E-003,9.94831E-001,0.00000E+000,-2.38653E-003,-2.21861E-002,1.00000E+000,2
1239,1327,2.09008E+001,2.81486E-001,-7.81370E-002,7.65776E-001,5.00035E-002,-8.15687E-002,7.71730E-001,5.43655E-003,5.42358E-001,0,1.17848E+001,8.32063E-001,9.99942E-001,-2.54914E+001,-2.87433E+001,9.99208E-001,1.38247E-002,-5.42227E-003,1.83229E-004,1.38264E-002,-5.42401E-003,5.45385E-001,1.39329E-002,1.01392E+000,-3.44329E-003,0.00000E+000,3.78354E-003,9.94830E-001,0.00000E+000,-1.91526E-003,-2.21660E-002,1.00000E+000,2
1239,1337,2.09291E+001,9.34977E-001,-4.61330E-002,7.64182E-001,4.84142E-002,-9.60117E-002,7.71710E-001,4.72931E-003,4.31399E-001,0,1.18151E+001,8.41444E-001,9.99900E-001,-2.49354E+001,-2.87332E+001,9.98862E-001,1.41476E-002,-5.42318E-003,1.81952E-004,1.41493E-002,-5.42487E-003,5.32625E-001,1.42770E-002,1.01424E+000,-3.42834E-003,0.00000E+000,3.75490E-003,9.94828E-001,0.00000E+000,-1.44713E-003,-2.21445E-002,1.00000E+000,2
1239,1297,2.08528E+001,-1.66259E+000,-3.45715E-002,7.71727E-001,6.18297E-002,-3.54221E-002,7.75009E-001,4.22969E-003,4.69590E-001,0,1.16937E+001,9.23039E-001,9.99919E-001,-2.63588E+001,-2.90449E+001,9.99275E-001,1.28575E-002,-5.42055E-003,1.95766E-004,1.28596E-002,-5.42264E-003,6.13570E-001,1.29121E-002,1.01294E+000,-3.47021E-003,0.00000E+000,3.86915E-003,9.94832E-001,0.00000E+000,-3.31435E-003,-2.22045E-002,1.00000E+000,2
609,1347,-2.07159E+001,1.08192E+000,-5.17929E-002,2.23062E-001,-5.39874E-002,-2.96687E-002,2.31412E-001,4.50616E-003,6.44586E-001,0,3.58225E+000,-8.06057E-001,9.99907E-001,-3.70056E+001,-4.21954E+001,9.99475E-001,1.10012E-002,-4.73988E-003,-3.42507E-004,1.10086E-002,-4.74733E-003,-1.24590E+000,1.10432E-002,1.01104E+000,5.93201E-003,0.00000E+000,-6.52215E-003,9.95452E-001,0.00000E+000,1.08955E-004,-2.01548E-002,1.00000E+000,2
609,1357,-2.06962E+001,1.72205E+000,-2.95640E-002,2.26753E-001,-5.58493E-002,-4.12690E-002,2.37148E-001,3.77401E-003,6.24855E-001,0,3.67001E+000,-8.10615E-001,9.99919E-001,-3.64761E+001,-4.24341E+001,9.99641E-001,1.06784E-002,-4.73827E-003,-3.01574E-004,1.06843E-002,-4.74416E-003,-1.12022E+000,1.07066E-002,1.01072E+000,5.92399E-003,0.00000E+000,-6.42930E-003,9.95455E-001,0.00000E+000,-1.59096E-004,-2.01614E-002,1.00000E+000,2
609,1317,-2.07457E+001,-8.10253E-001,5.76234E-002,2.12584E-001,-4.29497E-002,1.23780E-002,2.17232E-001,6.91148E-003,6.19076E-001,0,3.30623E+000,-7.29270E-001,9.99905E-001,-3.76217E+001,-4.14845E+001,9.98816E-001,1.19601E-002,-4.74090E-003,-4.71171E-004,1.19734E-002,-4.75418E-003,-1.61473E+000,1.20577E-002,1.01201E+000,5.94188E-003,0.00000E+000,-6.79837E-003,9.95449E-001,0.00000E+000,9.06309E-004,-2.01467E-002,1.00000E+000,2
609,1327,-2.07410E+001,-1.85164E-001,-1.05207E-002,2.15716E-001,-4.88223E-002,-4.39814E-003,2.21216E-001,4.17040E-003,6.47531E-001,0,3.40068E+000,-7.79799E-001,9.99926E-001,-3.75915E+001,-4.17290E+001,9.99211E-001,1.16418E-002,-4.74121E-003,-4.27251E-004,1.16529E-002,-4.75235E-003,-1.49286E+000,1.17188E-002,1.01169E+000,5.94102E-003,0.00000E+000,-6.70663E-003,9.95450E-001,0.00000E+000,6.41499E-004,-2.01474E-002,1.00000E+000,2
609,1337,-2.07301E+001,4.46177E-001,-4.24919E-002,2.19338E-001,-5.16554E-002,-1.88452E-002,2.26125E-001,3.98248E-003,6.31440E-001,0,3.49557E+000,-7.92725E-001,9.99904E-001,-3.73581E+001,-4.19778E+001,9.99406E-001,1.13224E-002,-4.74076E-003,-3.84592E-004,1.13316E-002,-4.74997E-003,-1.37076E+000,1.13808E-002,1.01137E+000,5.93732E-003,0.00000E+000,-6.61462E-003,9.95451E-001,0.00000E+000,3.75890E-004,-2.01504E-002,1.00000E+000,2
1249,1297,2.15303E+001,-1.65235E+000,-2.84062E-002,7.80832E-001,6.49908E-002,-3.57251E-002,7.84346E-001,5.34260E-003,5.02687E-001,0,1.18217E+001,9.61449E-001,9.99914E-001,-2.57855E+001,-2.88005E+001,9.99299E-001,1.28000E-002,-5.28656E-003,2.65469E-004,1.28039E-002,-5.29046E-003,8.40728E-001,1.28681E-002,1.01288E+000,-3.08400E-003,0.00000E+000,3.62878E-003,9.94955E-001,0.00000E+000,-3.36252E-003,-2.17087E-002,1.00000E+000,2
1249,1307,2.15343E+001,-1.01271E+000,-8.62307E-002,7.77895E-001,5.95981E-002,-5.27232E-002,7.81954E-001,7.40394E-003,4.87288E-001,0,1.18463E+001,9.15866E-001,9.99905E-001,-2.57519E+001,-2.87536E+001,9.99023E-001,1.31251E-002,-5.28615E-003,2.82355E-004,1.31295E-002,-5.29048E-003,8.78411E-001,1.32116E-002,1.01321E+000,-3.08048E-003,0.00000E+000,3.64673E-003,9.94956E-001,0.00000E+000,-2.84380E-003,-2.17032E-002,1.00000E+000,2
1249,1317,2.15479E+001,-3.67596E-001,-1.10518E-001,7.76149E-001,5.55716E-002,-6.79845E-002,7.81100E-001,6.84913E-003,4.45504E-001,0,1.18804E+001,8.92084E-001,9.99861E-001,-2.55152E+001,-2.87079E+001,9.98678E-001,1.34516E-002,-5.28536E-003,3.01450E-004,1.34565E-002,-5.29020E-003,9.21484E-001,1.35586E-002,1.01354E+000,-3.07266E-003,0.00000E+000,3.66477E-003,9.94956E-001,0.00000E+000,-2.32222E-003,-2.16908E-002,1.00000E+000,2
1249,1327,2.15723E+001,2.86694E-001,-9.66040E-002,7.74947E-001,5.36131E-002,-8.30044E-002,7.81221E-001,6.06664E-003,4.65223E-001,0,1.19197E+001,8.90784E-001,9.99875E-001,-2.50520E+001,-2.85744E+001,9.98935E-001,1.37810E-002,-5.28410E-003,3.23244E-004,1.37865E-002,-5.28958E-003,9.71063E-001,1.39103E-002,1.01387E+000,-3.05966E-003,0.00000E+000,3.68299E-003,9.94957E-001,0.00000E+000,-1.79545E-003,-2.16702E-002,1.00000E+000,2
1249,1337,2.16035E+001,9.43934E-001,-5.38357E-002,7.73285E-001,5.17908E-002,-9.68552E-002,7.81046E-001,3.99043E-003,4.38096E-001,0,1.19467E+001,8.88513E-001,9.99947E-001,-2.44365E+001,-2.84860E+001,9.99533E-001,1.41112E-002,-5.28251E-003,3.46922E-004,1.41174E-002,-5.28872E-003,1.02449E+000,1.42646E-002,1.01421E+000,-3.04293E-003,0.00000E+000,3.70128E-003,9.94958E-001,0.00000E+000,-1.26679E-003,-2.16437E-002,1.00000E+000,2
1259,1327,2.22470E+001,2.93308E-001,-1.02918E-001,7.83208E-001,5.56013E-002,-8.58425E-002,7.89858E-001,5.53061E-003,4.55468E-001,0,1.20467E+001,9.10396E-001,9.99931E-001,-2.45405E+001,-2.83765E+001,9.99200E-001,1.37864E-002,-5.26825E-003,4.94722E-004,1.37993E-002,-5.28109E-003,1.48625E+000,1.39253E-002,1.01388E+000,-2.70999E-003,0.00000E+000,3.67160E-003,9.94964E-001,0.00000E+000,-1.37328E-003,-2.12779E-002,1.00000E+000,2
1259,1337,2.22793E+001,9.50688E-001,-5.98567E-002,7.81942E-001,5.31369E-002,-1.01038E-001,7.90231E-001,5.32373E-003,4.15915E-001,0,1.20854E+001,9.11893E-001,9.99961E-001,-2.39106E+001,-2.82911E+001,9.99432E-001,1.41126E-002,-5.26497E-003,5.33795E-004,1.41273E-002,-5.27967E-003,1.57674E+000,1.42767E-002,1.01421E+000,-2.69313E-003,0.00000E+000,3.71839E-003,9.94967E-001,0.00000E+000,-7.33100E-004,-2.12452E-002,1.00000E+000,2
599,1347,-2.13598E+001,1.08222E+000,-4.64781E-002,2.17137E-001,-4.85615E-002,-2.91495E-002,2.24403E-001,4.45886E-003,6.49355E-001,0,3.48811E+000,-7.24192E-001,9.99940E-001,-3.67993E+001,-4.22967E+001,9.99646E-001,1.09389E-002,-4.75654E-003,-2.89306E-004,1.09442E-002,-4.76187E-003,-1.05563E+000,1.09749E-002,1.01098E+000,6.23492E-003,0.00000E+000,-6.71854E-003,9.95428E-001,0.00000E+000,3.06117E-004,-1.98371E-002,1.00000E+000,2
599,1357,-2.13407E+001,1.72133E+000,-2.54979E-002,2.20985E-001,-5.11218E-002,-3.92035E-002,2.30184E-001,3.37252E-003,6.38130E-001,0,3.57430E+000,-7.42937E-001,9.99930E-001,-3.62791E+001,-4.25460E+001,9.99678E-001,1.06295E-002,-4.75389E-003,-2.14722E-004,1.06325E-002,-4.75688E-003,-7.99528E-001,1.06521E-002,1.01067E+000,6.22755E-003,0.00000E+000,-6.55878E-003,9.95432E-001,0.00000E+000,4.35429E-006,-1.98442E-002,1.00000E+000,2
1259,1287,2.22035E+001,-2.28510E+000,3.53569E-002,7.90824E-001,7.24297E-002,-2.48026E-002,7.94521E-001,7.12993E-003,4.27487E-001,0,1.19172E+001,1.05843E+000,9.99900E-001,-2.52455E+001,-2.87186E+001,9.97395E-001,1.24954E-002,-5.27369E-003,3.60699E-004,1.25027E-002,-5.28101E-003,1.16242E+000,1.25528E-002,1.01258E+000,-2.73563E-003,0.00000E+000,3.48716E-003,9.94961E-001,0.00000E+000,-3.89717E-003,-2.13276E-002,1.00000E+000,2
1259,1297,2.22030E+001,-1.64654E+000,-4.17028E-002,7.88965E-001,6.71097E-002,-3.98520E-002,7.92816E-001,4.97573E-003,4.74838E-001,0,1.19511E+001,1.00382E+000,9.99895E-001,-2.53122E+001,-2.86144E+001,9.98761E-001,1.28169E-002,-5.27339E-003,3.91186E-004,1.28254E-002,-5.28184E-003,1.23820E+000,1.28917E-002,1.01290E+000,-2.73495E-003,0.00000E+000,3.53298E-003,9.94961E-001,0.00000E+000,-3.27016E-003,-2.13263E-002,1.00000E+000,2
1259,1307,2.22101E+001,-1.00386E+000,-9.09818E-002,7.87800E-001,6.30753E-002,-5.29144E-002,7.92091E-001,5.20579E-003,4.76220E-001,0,1.19862E+001,9.74318E-001,9.99910E-001,-2.52174E+001,-2.85282E+001,9.98976E-001,1.31391E-002,-5.27244E-003,4.23494E-004,1.31488E-002,-5.28218E-003,1.31696E+000,1.32332E-002,1.01323E+000,-2.73082E-003,0.00000E+000,3.57897E-003,9.94961E-001,0.00000E+000,-2.64089E-003,-2.13182E-002,1.00000E+000,2
599,1327,-2.13861E+001,-1.83745E-001,-2.49194E-003,2.08020E-001,-4.33240E-002,-3.54008E-003,2.12513E-001,3.66460E-003,6.69283E-001,0,3.27829E+000,-7.01234E-001,9.99931E-001,-3.73966E+001,-4.18068E+001,9.99559E-001,1.15527E-002,-4.75865E-003,-4.40563E-004,1.15646E-002,-4.77054E-003,-1.54604E+000,1.16234E-002,1.01160E+000,6.24326E-003,0.00000E+000,-7.03587E-003,9.95424E-001,0.00000E+000,9.05492E-004,-1.98290E-002,1.00000E+000,2
599,1337,-2.13761E+001,4.45464E-001,-4.31462E-002,2.12350E-001,-4.67454E-002,-1.80409E-002,2.18182E-001,3.52428E-003,6.42632E-001,0,3.38440E+000,-7.19337E-001,9.99939E-001,-3.72014E+001,-4.20768E+001,9.99544E-001,1.12470E-002,-4.75826E-003,-3.64542E-004,1.12553E-002,-4.76656E-003,-1.30409E+000,1.12991E-002,1.01129E+000,6.24045E-003,0.00000E+000,-6.87777E-003,9.95425E-001,0.00000E+000,6.06873E-004,-1.98317E-002,1.00000E+000,2
1259,1317,2.22237E+001,-3.57874E-001,-1.13925E-001,7.85551E-001,5.89399E-002,-6.79729E-002,7.90686E-001,5.45474E-003,4.68738E-001,0,1.20123E+001,9.40285E-001,9.99934E-001,-2.49810E+001,-2.84531E+001,9.99102E-001,1.34621E-002,-5.27080E-003,4.57810E-004,1.34733E-002,-5.28198E-003,1.39913E+000,1.35776E-002,1.01355E+000,-2.72287E-003,0.00000E+000,3.62516E-003,9.94963E-001,0.00000E+000,-2.00886E-003,-2.13028E-002,1.00000E+000,2
599,1317,-2.13918E+001,-8.09418E-001,6.38167E-002,2.03761E-001,-3.90097E-002,1.03720E-002,2.07720E-001,5.32549E-003,6.44045E-001,0,3.17443E+000,-6.60443E-001,9.99912E-001,-3.74463E+001,-4.15639E+001,9.99474E-001,1.18574E-002,-4.75799E-003,-5.17416E-004,1.18735E-002,-4.77409E-003,-1.78193E+000,1.19492E-002,1.01191E+000,6.24399E-003,0.00000E+000,-7.19358E-003,9.95423E-001,0.00000E+000,1.20338E-003,-1.98283E-002,1.00000E+000,2
589,1347,-2.20057E+001,1.08093E+000,-4.65174E-002,2.09705E-001,-4.42294E-002,-2.94604E-002,2.16334E-001,3.60489E-003,6.47173E-001,0,3.37276E+000,-6.51158E-001,9.99926E-001,-3.66338E+001,-4.24144E+001,9.99650E-001,1.08988E-002,-4.78882E-003,-2.14613E-004,1.09017E-002,-4.79176E-003,-7.83634E-001,1.09283E-002,1.01094E+000,6.58316E-003,0.00000E+000,-6.91401E-003,9.95392E-001,0.00000E+000,3.76643E-004,-1.97298E-002,1.00000E+000,2
589,1357,-2.19858E+001,1.72162E+000,-2.15047E-002,2.13879E-001,-4.62169E-002,-3.88005E-002,2.22229E-001,2.92186E-003,6.45424E-001,0,3.46194E+000,-6.56225E-001,9.99939E-001,-3.60881E+001,-4.26453E+001,9.99697E-001,1.05935E-002,-4.78612E-003,-1.40000E-004,1.05948E-002,-4.78740E-003,-5.21502E-001,1.06112E-002,1.01063E+000,6.57570E-003,0.00000E+000,-6.75315E-003,9.95396E-001,0.00000E+000,2.03295E-005,-1.97384E-002,1.00000E+000,2
589,1337,-2.20209E+001,4.45217E-001,-3.80115E-002,2.04902E-001,-4.20855E-002,-1.89094E-002,2.10032E-001,3.60812E-003,6.41924E-001,0,3.27026E+000,-6.45977E-001,9.99946E-001,-3.70054E+001,-4.21870E+001,9.99582E-001,1.12022E-002,-4.79026E-003,-2.90048E-004,1.12074E-002,-4.79552E-003,-1.03870E+000,1.12462E-002,1.01124E+000,6.58810E-003,0.00000E+000,-7.07400E-003,9.95390E-001,0.00000E+000,7.31045E-004,-1.97241E-002,1.00000E+000,2
589,1327,-2.20306E+001,-1.82211E-001,2.57420E-003,2.01093E-001,-3.76919E-002,-3.13854E-003,2.04618E-001,6.07505E-003,7.02304E-001,0,3.16904E+000,-6.20141E-001,9.99940E-001,-3.71953E+001,-4.18709E+001,9.99405E-001,1.15030E-002,-4.79063E-003,-3.65926E-004,1.15112E-002,-4.79884E-003,-1.28590E+000,1.15641E-002,1.01155E+000,6.59093E-003,0.00000E+000,-7.23277E-003,9.95388E-001,0.00000E+000,1.08273E-003,-1.97208E-002,1.00000E+000,2
1269,1327,2.29240E+001,3.01792E-001,-1.05635E-001,7.92823E-001,5.73521E-002,-8.66230E-002,7.99600E-001,4.75560E-003,4.49104E-001,0,1.21857E+001,9.48517E-001,9.99953E-001,-2.39840E+001,-2.81558E+001,9.99257E-001,1.37481E-002,-5.22549E-003,6.39987E-004,1.37697E-002,-5.24706E-003,1.92969E+000,1.38989E-002,1.01384E+000,-2.37341E-003,0.00000E+000,3.62167E-003,9.94995E-001,0.00000E+000,-9.72279E-004,-2.06702E-002,1.00000E+000,2
1269,1337,2.29577E+001,9.58855E-001,-5.87696E-002,7.91840E-001,5.45159E-002,-1.01328E-001,8.00156E-001,4.47283E-003,4.06917E-001,0,1.22270E+001,9.34116E-001,9.99946E-001,-2.33296E+001,-2.80835E+001,9.99190E-001,1.40686E-002,-5.22143E-003,6.85421E-004,1.40929E-002,-5.24575E-003,2.03244E+000,1.42455E-002,1.01417E+000,-2.35630E-003,0.00000E+000,3.67935E-003,9.94998E-001,0.00000E+000,-2.32898E-004,-2.06313E-002,1.00000E+000,2
589,1317,-2.20360E+001,-8.08700E-001,7.06965E-002,1.96747E-001,-3.41888E-002,1.08568E-002,1.99990E-001,4.44521E-003,6.42536E-001,0,3.06410E+000,-5.81692E-001,9.99884E-001,-3.72361E+001,-4.16597E+001,9.99107E-001,1.18032E-002,-4.78986E-003,-4.42843E-004,1.18150E-002,-4.80167E-003,-1.52768E+000,1.18838E-002,1.01185E+000,6.59150E-003,0.00000E+000,-7.39138E-003,9.95388E-001,0.00000E+000,1.43409E-003,-1.97201E-002,1.00000E+000,2
1269,1317,2.29022E+001,-3.49257E-001,-1.11281E-001,7.94601E-001,6.09170E-002,-7.16809E-002,8.00150E-001,5.07748E-003,4.46279E-001,0,1.21538E+001,9.80376E-001,9.99942E-001,-2.43915E+001,-2.82514E+001,9.99089E-001,1.34291E-002,-5.22833E-003,5.97459E-004,1.34482E-002,-5.24744E-003,1.83226E+000,1.35559E-002,1.01352E+000,-2.38507E-003,0.00000E+000,3.56437E-003,9.94992E-001,0.00000E+000,-1.70669E-003,-2.06968E-002,1.00000E+000,2
1269,1307,2.28880E+001,-9.95235E-001,-8.81605E-002,7.96303E-001,6.48390E-002,-5.64227E-002,8.00928E-001,4.62326E-003,4.53593E-001,0,1.21186E+001,1.01816E+000,9.99936E-001,-2.46367E+001,-2.83283E+001,9.99065E-001,1.31114E-002,-5.23031E-003,5.57020E-004,1.31283E-002,-5.24721E-003,1.73788E+000,1.32161E-002,1.01320E+000,-2.39293E-003,0.00000E+000,3.50743E-003,9.94991E-001,0.00000E+000,-2.43647E-003,-2.07147E-002,1.00000E+000,2
1269,1297,2.28786E+001,-1.63906E+000,-4.55103E-002,7.97836E-001,6.89798E-002,-4.06803E-002,8.01845E-001,5.88248E-003,4.47648E-001,0,1.20782E+001,1.05067E+000,9.99879E-001,-2.47753E+001,-2.84221E+001,9.98714E-001,1.27939E-002,-5.23172E-003,5.17902E-004,1.28087E-002,-5.24659E-003,1.64438E+000,1.28783E-002,1.01288E+000,-2.39827E-003,0.00000E+000,3.45062E-003,9.94990E-001,0.00000E+000,-3.16454E-003,-2.07269E-002,1.00000E+000,2
1269,1287,2.28809E+001,-2.27663E+000,3.85953E-002,7.99235E-001,7.40396E-002,-2.69043E-002,8.03108E-001,1.01164E-002,4.25895E-001,0,1.20421E+001,1.09645E+000,9.99916E-001,-2.46707E+001,-2.85145E+001,9.97063E-001,1.24779E-002,-5.23183E-003,4.81892E-004,1.24910E-002,-5.24494E-003,1.55752E+000,1.25443E-002,1.01256E+000,-2.39784E-003,0.00000E+000,3.39421E-003,9.94990E-001,0.00000E+000,-3.88763E-003,-2.07259E-002,1.00000E+000,2
579,1347,-2.26504E+001,1.08030E+000,-4.43112E-002,2.02281E-001,-4.01044E-002,-3.17593E-002,2.08649E-001,3.02901E-003,6.60899E-001,0,3.26249E+000,-5.81387E-001,9.99925E-001,-3.64406E+001,-4.25189E+001,9.99727E-001,1.07903E-002,-4.82143E-003,-1.54159E-004,1.07918E-002,-4.82296E-003,-5.65698E-001,1.08120E-002,1.01083E+000,6.92234E-003,0.00000E+000,-7.12497E-003,9.95354E-001,0.00000E+000,2.22460E-004,-1.94836E-002,1.00000E+000,2
579,1357,-2.26295E+001,1.72094E+000,-1.71870E-002,2.07294E-001,-4.24783E-002,-4.08550E-002,2.15509E-001,3.40094E-003,6.69173E-001,0,3.36414E+000,-5.94210E-001,9.99954E-001,-3.58717E+001,-4.27521E+001,9.99772E-001,1.04716E-002,-4.81885E-003,-8.27207E-005,1.04721E-002,-4.81930E-003,-3.09955E-001,1.04831E-002,1.01050E+000,6.91450E-003,0.00000E+000,-6.96866E-003,9.95357E-001,0.00000E+000,-2.20599E-004,-1.94943E-002,1.00000E+000,2
579,1337,-2.26652E+001,4.45110E-001,-3.29493E-002,1.97827E-001,-3.76779E-002,-1.83832E-002,2.02221E-001,3.00035E-003,6.52362E-001,0,3.15834E+000,-5.76111E-001,9.99910E-001,-3.67976E+001,-4.22895E+001,9.99700E-001,1.11066E-002,-4.82274E-003,-2.26503E-004,1.11098E-002,-4.82596E-003,-8.14482E-001,1.11417E-002,1.01114E+000,6.92743E-003,0.00000E+000,-7.28034E-003,9.95351E-001,0.00000E+000,6.62843E-004,-1.94766E-002,1.00000E+000,2
579,1327,-2.26758E+001,-1.82352E-001,1.99092E-003,1.93576E-001,-3.35299E-002,-4.54958E-003,1.96511E-001,5.12291E-003,6.95778E-001,0,3.05562E+000,-5.32480E-001,9.99904E-001,-3.70197E+001,-4.19685E+001,9.99105E-001,1.14202E-002,-4.82318E-003,-2.99190E-004,1.14257E-002,-4.82869E-003,-1.05487E+000,1.14712E-002,1.01146E+000,6.93063E-003,0.00000E+000,-7.43450E-003,9.95350E-001,0.00000E+000,1.09978E-003,-1.94721E-002,1.00000E+000,2
579,1317,-2.26814E+001,-8.06025E-001,6.84821E-002,1.89301E-001,-2.87382E-002,9.43364E-003,1.91702E-001,6.03909E-003,7.04555E-001,0,2.95172E+000,-4.84477E-001,9.99900E-001,-3.70673E+001,-4.16746E+001,9.98708E-001,1.17326E-002,-4.82245E-003,-3.72904E-004,1.17410E-002,-4.83084E-003,-1.28972E+000,1.18022E-002,1.01178E+000,6.93133E-003,0.00000E+000,-7.58822E-003,9.95349E-001,0.00000E+000,1.53550E-003,-1.94712E-002,1.00000E+000,2
1279,1317,2.35772E+001,-3.42971E-001,-1.16446E-001,8.03076E-001,6.29240E-002,-7.07168E-002,8.08635E-001,4.91970E-003,4.13590E-001,0,1.22682E+001,1.00695E+000,9.99905E-001,-2.38646E+001,-2.80745E+001,9.98577E-001,1.33363E-002,-5.18140E-003,6.99281E-004,1.33627E-002,-5.20776E-003,2.15955E+000,1.34706E-002,1.01343E+000,-2.07679E-003,0.00000E+000,3.46014E-003,9.95025E-001,0.00000E+000,-1.53319E-003,-1.99716E-002,1.00000E+000,2
1279,1327,2.36024E+001,3.11339E-001,-9.93872E-002,8.02927E-001,6.01363E-002,-7.96829E-002,8.09109E-001,6.78906E-003,4.47589E-001,0,1.23003E+001,9.80536E-001,9.99941E-001,-2.33903E+001,-2.79360E+001,9.98983E-001,1.36679E-002,-5.17738E-003,7.54776E-004,1.36981E-002,-5.20756E-003,2.28987E+000,1.38286E-002,1.01376E+000,-2.06386E-003,0.00000E+000,3.54027E-003,9.95028E-001,0.00000E+000,-6.80752E-004,-1.99387E-002,1.00000E+000,2
1279,1337,2.36363E+001,9.69872E-001,-5.35522E-002,8.02029E-001,5.72151E-002,-9.49304E-002,8.09651E-001,4.28866E-003,4.35783E-001,0,1.23454E+001,9.71897E-001,9.99959E-001,-2.27368E+001,-2.78222E+001,9.99469E-001,1.40005E-002,-5.17195E-003,8.12887E-004,1.40349E-002,-5.20636E-003,2.42347E+000,1.41899E-002,1.01410E+000,-2.04610E-003,0.00000E+000,3.62083E-003,9.95032E-001,0.00000E+000,1.76357E-004,-1.98936E-002,1.00000E+000,2
1279,1307,2.35610E+001,-9.88435E-001,-9.88762E-002,8.04115E-001,6.73792E-002,-5.64956E-002,8.08908E-001,5.35165E-003,4.60319E-001,0,1.22268E+001,1.04907E+000,9.99934E-001,-2.41479E+001,-2.81135E+001,9.98444E-001,1.30072E-002,-5.18422E-003,6.46280E-004,1.30301E-002,-5.20715E-003,2.03211E+000,1.31173E-002,1.01309E+000,-2.08560E-003,0.00000E+000,3.38082E-003,9.95023E-001,0.00000E+000,-2.37715E-003,-1.99940E-002,1.00000E+000,2
1279,1297,2.35547E+001,-1.63246E+000,-4.60880E-002,8.05215E-001,7.08180E-002,-4.34807E-002,8.09492E-001,9.03572E-003,3.92829E-001,0,1.21906E+001,1.09056E+000,9.99918E-001,-2.42245E+001,-2.82643E+001,9.98838E-001,1.26780E-002,-5.18558E-003,5.95862E-004,1.26979E-002,-5.20543E-003,1.90834E+000,1.27663E-002,1.01276E+000,-2.08942E-003,0.00000E+000,3.30169E-003,9.95022E-001,0.00000E+000,-3.21894E-003,-2.00037E-002,1.00000E+000,2
1279,1287,2.35535E+001,-2.27303E+000,2.36527E-002,8.07123E-001,7.46404E-002,-2.94958E-002,8.11104E-001,8.56034E-003,3.83546E-001,0,1.21619E+001,1.11862E+000,9.99912E-001,-2.41956E+001,-2.83686E+001,9.98320E-001,1.23494E-002,-5.18630E-003,5.46745E-004,1.23665E-002,-5.20333E-003,1.78411E+000,1.24181E-002,1.01243E+000,-2.09101E-003,0.00000E+000,3.22290E-003,9.95022E-001,0.00000E+000,-4.05720E-003,-2.00077E-002,1.00000E+000,2
569,1347,-2.32942E+001,1.08106E+000,-4.11116E-002,1.95741E-001,-3.46971E-002,-3.13890E-002,2.01256E-001,2.70816E-003,6.82408E-001,0,3.15881E+000,-4.96421E-001,9.99946E-001,-3.62249E+001,-4.26007E+001,9.99732E-001,1.07398E-002,-4.83358E-003,-8.89081E-005,1.07403E-002,-4.83409E-003,-3.27087E-001,1.07581E-002,1.01077E+000,7.28347E-003,0.00000E+000,-7.35135E-003,9.95333E-001,0.00000E+000,2.51183E-004,-1.91169E-002,1.00000E+000,2
569,1357,-2.32744E+001,1.71891E+000,-2.37992E-002,2.01114E-001,-3.75033E-002,-4.26343E-002,2.08976E-001,3.16265E-003,6.76500E-001,0,3.27154E+000,-5.19646E-001,9.99950E-001,-3.57009E+001,-4.28638E+001,9.99653E-001,1.04278E-002,-4.83128E-003,-1.42809E-005,1.04278E-002,-4.83130E-003,-5.36230E-002,1.04371E-002,1.01046E+000,7.27647E-003,0.00000E+000,-7.18890E-003,9.95336E-001,0.00000E+000,-2.36351E-004,-1.91277E-002,1.00000E+000,2
569,1327,-2.33204E+001,-1.83050E-001,-2.76283E-003,1.86985E-001,-2.88614E-002,-5.92751E-003,1.89292E-001,7.28411E-003,6.98594E-001,0,2.95631E+000,-4.49133E-001,9.99935E-001,-3.68437E+001,-4.20611E+001,9.99494E-001,1.13587E-002,-4.83549E-003,-2.39861E-004,1.13623E-002,-4.83904E-003,-8.48390E-001,1.14038E-002,1.01140E+000,7.29200E-003,0.00000E+000,-7.67416E-003,9.95328E-001,0.00000E+000,1.22000E-003,-1.91037E-002,1.00000E+000,2
569,1337,-2.33084E+001,4.46747E-001,-2.77437E-002,1.91015E-001,-3.23789E-002,-1.97557E-002,1.94745E-001,2.57063E-003,6.59115E-001,0,3.05510E+000,-4.77433E-001,9.99937E-001,-3.65696E+001,-4.23675E+001,9.99782E-001,1.10501E-002,-4.83472E-003,-1.64377E-004,1.10518E-002,-4.83642E-003,-5.92813E-001,1.10805E-002,1.01109E+000,7.28810E-003,0.00000E+000,-7.51312E-003,9.95330E-001,0.00000E+000,7.36693E-004,-1.91097E-002,1.00000E+000,2
1289,1327,2.42761E+001,3.17353E-001,-1.13137E-001,8.10857E-001,6.16575E-002,-8.19173E-002,8.17314E-001,5.48208E-003,4.32729E-001,0,1.24198E+001,1.00915E+000,9.99926E-001,-2.28957E+001,-2.77343E+001,9.98921E-001,1.35857E-002,-5.08468E-003,8.57248E-004,1.36250E-002,-5.12396E-003,2.62337E+000,1.37637E-002,1.01368E+000,-1.73519E-003,0.00000E+000,3.41642E-003,9.95103E-001,0.00000E+000,-4.09331E-004,-1.90153E-002,1.00000E+000,2
1289,1337,2.43104E+001,9.76473E-001,-6.58177E-002,8.10330E-001,5.88796E-002,-9.49996E-002,8.18002E-001,5.06087E-003,4.38900E-001,0,1.24619E+001,9.93729E-001,9.99966E-001,-2.22363E+001,-2.76039E+001,9.99184E-001,1.39293E-002,-5.07851E-003,9.22552E-004,1.39740E-002,-5.12318E-003,2.77219E+000,1.41387E-002,1.01403E+000,-1.71683E-003,0.00000E+000,3.50974E-003,9.95108E-001,0.00000E+000,5.46864E-004,-1.89650E-002,1.00000E+000,2
569,1317,-2.33257E+001,-8.05257E-001,7.20256E-002,1.81480E-001,-2.29409E-002,7.10230E-003,1.83062E-001,6.32182E-003,6.89851E-001,0,2.83540E+000,-3.90986E-001,9.99938E-001,-3.68611E+001,-4.17694E+001,9.99078E-001,1.16655E-002,-4.83433E-003,-3.16926E-004,1.16716E-002,-4.84042E-003,-1.09998E+000,1.17281E-002,1.01171E+000,7.29195E-003,0.00000E+000,-7.83447E-003,9.95328E-001,0.00000E+000,1.70112E-003,-1.91038E-002,1.00000E+000,2
1289,1317,2.42541E+001,-3.32483E-001,-1.16656E-001,8.11862E-001,6.53251E-002,-6.83148E-002,8.17346E-001,7.62115E-003,4.87225E-001,0,1.23810E+001,1.03427E+000,9.99923E-001,-2.32985E+001,-2.77902E+001,9.98309E-001,1.32449E-002,-5.08884E-003,7.95607E-004,1.32793E-002,-5.12330E-003,2.48019E+000,1.33942E-002,1.01333E+000,-1.74730E-003,0.00000E+000,3.32414E-003,9.95100E-001,0.00000E+000,-1.35482E-003,-1.90485E-002,1.00000E+000,2
1289,1287,2.42280E+001,-2.26483E+000,1.27291E-002,8.14789E-001,7.72143E-002,-3.43472E-002,8.19160E-001,7.30646E-003,4.29693E-001,0,1.22863E+001,1.15887E+000,9.99932E-001,-2.36797E+001,-2.81153E+001,9.98824E-001,1.22230E-002,-5.09456E-003,6.22031E-004,1.22453E-002,-5.11687E-003,2.05448E+000,1.23003E-002,1.01231E+000,-1.76265E-003,0.00000E+000,3.04913E-003,9.95096E-001,0.00000E+000,-4.17261E-003,-1.90906E-002,1.00000E+000,2
1289,1297,2.42335E+001,-1.62520E+000,-4.11960E-002,8.13657E-001,7.26616E-002,-4.55288E-002,8.18163E-001,8.45966E-003,3.67607E-001,0,1.23155E+001,1.11365E+000,9.99939E-001,-2.36182E+001,-2.80930E+001,9.98921E-001,1.25627E-002,-5.09318E-003,6.78795E-004,1.25888E-002,-5.11923E-003,2.19846E+000,1.26617E-002,1.01265E+000,-1.75914E-003,0.00000E+000,3.14029E-003,9.95097E-001,0.00000E+000,-3.23863E-003,-1.90810E-002,1.00000E+000,2
1289,1307,2.42389E+001,-9.80303E-001,-9.91892E-002,8.12668E-001,6.85434E-002,-5.92761E-002,8.17705E-001,7.64139E-003,4.82532E-001,0,1.23571E+001,1.06955E+000,9.99955E-001,-2.35653E+001,-2.78925E+001,9.98429E-001,1.29040E-002,-5.09183E-003,7.35897E-004,1.29340E-002,-5.12187E-003,2.33778E+000,1.30270E-002,1.01299E+000,-1.75577E-003,0.00000E+000,3.23213E-003,9.95097E-001,0.00000E+000,-2.29759E-003,-1.90718E-002,1.00000E+000,2
559,1327,-2.39635E+001,-1.81593E-001,-2.67690E-003,1.80675E-001,-2.36592E-002,-8.07925E-003,1.82397E-001,1.24408E-002,8.02348E-001,0,2.86282E+000,-3.94773E-001,9.99959E-001,-3.66247E+001,-4.20806E+001,9.99477E-001,1.12914E-002,-4.86311E-003,-1.87259E-004,1.12936E-002,-4.86528E-003,-6.64039E-001,1.13296E-002,1.01133E+000,7.65126E-003,0.00000E+000,-7.92389E-003,9.95290E-001,0.00000E+000,1.28536E-003,-1.86369E-002,1.00000E+000,2
559,1337,-2.39519E+001,4.46657E-001,-3.05745E-002,1.84658E-001,-2.75713E-002,-2.33272E-002,1.88157E-001,3.40339E-003,6.73641E-001,0,2.96448E+000,-3.91800E-001,9.99947E-001,-3.63645E+001,-4.24508E+001,9.99745E-001,1.09842E-002,-4.86248E-003,-1.12485E-004,1.09850E-002,-4.86328E-003,-4.06674E-001,1.10091E-002,1.01102E+000,7.64756E-003,0.00000E+000,-7.76454E-003,9.95292E-001,0.00000E+000,7.89253E-004,-1.86428E-002,1.00000E+000,2
559,1347,-2.39377E+001,1.07960E+000,-4.12364E-002,1.89390E-001,-2.95009E-002,-3.28686E-002,1.94472E-001,3.53648E-003,6.46131E-001,0,3.06272E+000,-4.09207E-001,9.99925E-001,-3.60110E+001,-4.27379E+001,9.99705E-001,1.06757E-002,-4.86141E-003,-3.78843E-005,1.06758E-002,-4.86151E-003,-1.39704E-001,1.06900E-002,1.01070E+000,7.64297E-003,0.00000E+000,-7.60464E-003,9.95294E-001,0.00000E+000,2.91445E-004,-1.86501E-002,1.00000E+000,2
559,1357,-2.39190E+001,1.71680E+000,-2.57777E-002,1.94411E-001,-3.18871E-002,-4.22252E-002,2.01483E-001,3.20689E-003,6.43047E-001,0,3.16490E+000,-4.36437E-001,9.99929E-001,-3.55082E+001,-4.30074E+001,9.99728E-001,1.03651E-002,-4.85937E-003,3.61552E-005,1.03652E-002,-4.85946E-003,1.36066E-001,1.03719E-002,1.01039E+000,7.63639E-003,0.00000E+000,-7.44385E-003,9.95298E-001,0.00000E+000,-2.09117E-004,-1.86606E-002,1.00000E+000,2
559,1317,-2.39677E+001,-8.02654E-001,7.96322E-002,1.75706E-001,-1.72088E-002,9.74053E-003,1.76815E-001,1.06392E-002,7.60884E-001,0,2.73844E+000,-3.21981E-001,9.99949E-001,-3.66033E+001,-4.18016E+001,9.99461E-001,1.15971E-002,-4.86182E-003,-2.63704E-004,1.16013E-002,-4.86605E-003,-9.17677E-001,1.16514E-002,1.01164E+000,7.65101E-003,0.00000E+000,-8.08268E-003,9.95290E-001,0.00000E+000,1.77971E-003,-1.86373E-002,1.00000E+000,2
1299,1327,2.49551E+001,3.26458E-001,-1.11983E-001,8.19511E-001,6.33335E-002,-8.42154E-002,8.26257E-001,5.81487E-003,4.52130E-001,0,1.25496E+001,1.03466E+000,9.99935E-001,-2.22929E+001,-2.75000E+001,9.99503E-001,1.35054E-002,-4.97272E-003,9.43181E-004,1.35534E-002,-5.02074E-003,2.91446E+000,1.37043E-002,1.01360E+000,-1.39256E-003,0.00000E+000,3.24633E-003,9.95194E-001,0.00000E+000,-1.34065E-004,-1.78725E-002,1.00000E+000,2
1299,1337,2.49915E+001,9.87361E-001,-5.87140E-002,8.19569E-001,6.06797E-002,-9.58974E-002,8.27389E-001,6.28028E-003,4.87558E-001,0,1.25949E+001,1.01467E+000,9.99950E-001,-2.15954E+001,-2.73389E+001,9.99054E-001,1.38574E-002,-4.96581E-003,1.01368E-003,1.39118E-002,-5.02025E-003,3.07368E+000,1.40902E-002,1.01395E+000,-1.37297E-003,0.00000E+000,3.34734E-003,9.95200E-001,0.00000E+000,9.72494E-004,-1.78118E-002,1.00000E+000,2
1299,1287,2.49082E+001,-2.25384E+000,1.76011E-002,8.23204E-001,7.93792E-002,-3.91754E-002,8.27949E-001,6.52313E-003,5.17897E-001,0,1.24215E+001,1.18688E+000,9.99936E-001,-2.30503E+001,-2.78307E+001,9.98594E-001,1.21107E-002,-4.98303E-003,6.90499E-004,1.21386E-002,-5.01087E-003,2.30944E+000,1.21999E-002,1.01219E+000,-1.41991E-003,0.00000E+000,2.84984E-003,9.95186E-001,0.00000E+000,-4.47767E-003,-1.79571E-002,1.00000E+000,2
1299,1297,2.49121E+001,-1.61616E+000,-4.22332E-002,8.21894E-001,7.31366E-002,-5.08884E-002,8.26709E-001,6.86317E-003,4.54820E-001,0,1.24514E+001,1.12118E+000,9.99945E-001,-2.30227E+001,-2.78252E+001,9.98898E-001,1.24589E-002,-4.98182E-003,7.51300E-004,1.24912E-002,-5.01412E-003,2.46207E+000,1.25719E-002,1.01254E+000,-1.41708E-003,0.00000E+000,2.94827E-003,9.95187E-001,0.00000E+000,-3.39928E-003,-1.79484E-002,1.00000E+000,2
1299,1307,2.49231E+001,-9.69204E-001,-7.71353E-002,8.22285E-001,7.05272E-002,-5.69315E-002,8.27266E-001,1.24281E-002,5.19731E-001,0,1.24814E+001,1.07906E+000,9.99956E-001,-2.28490E+001,-2.76658E+001,9.98932E-001,1.28086E-002,-4.97962E-003,8.14000E-004,1.28458E-002,-5.01679E-003,2.61460E+000,1.29480E-002,1.01289E+000,-1.41135E-003,0.00000E+000,3.04750E-003,9.95189E-001,0.00000E+000,-2.31227E-003,-1.79307E-002,1.00000E+000,2
1299,1317,2.49371E+001,-3.21801E-001,-1.00754E-001,8.20845E-001,6.69957E-002,-6.95817E-002,8.26509E-001,9.05263E-003,4.99821E-001,0,1.25109E+001,1.05859E+000,9.99937E-001,-2.26112E+001,-2.75679E+001,9.99041E-001,1.31575E-002,-4.97653E-003,8.78060E-004,1.31999E-002,-5.01895E-003,2.76567E+000,1.33256E-002,1.01324E+000,-1.40301E-003,0.00000E+000,3.14687E-003,9.95191E-001,0.00000E+000,-1.22370E-003,-1.79048E-002,1.00000E+000,2
559,1307,-2.39722E+001,-1.42583E+000,1.60461E-001,1.68809E-001,-1.40277E-002,1.50321E-002,1.70056E-001,4.38761E-003,7.07746E-001,0,2.61608E+000,-2.73058E-001,9.99902E-001,-3.65891E+001,-4.15577E+001,9.99348E-001,1.19021E-002,-4.86012E-003,-3.40476E-004,1.19090E-002,-4.86703E-003,-1.16316E+000,1.19750E-002,1.01195E+000,7.64993E-003,0.00000E+000,-8.24130E-003,9.95291E-001,0.00000E+000,2.27355E-003,-1.86390E-002,1.00000E+000,2
549,1347,-2.45812E+001,1.08112E+000,-3.87622E-002,1.82506E-001,-2.36096E-002,-3.15970E-002,1.86720E-001,3.16346E-003,6.88688E-001,0,2.95104E+000,-3.21460E-001,9.99910E-001,-3.57867E+001,-4.27960E+001,9.99685E-001,1.06013E-002,-4.91070E-003,3.47115E-005,1.06014E-002,-4.91078E-003,1.28211E-001,1.06109E-002,1.01063E+000,8.00272E-003,0.00000E+000,-7.81739E-003,9.95236E-001,0.00000E+000,4.54804E-004,-1.82145E-002,1.00000E+000,2
549,1357,-2.45619E+001,1.71951E+000,-1.81980E-002,1.87427E-001,-2.56042E-002,-4.11309E-002,1.93588E-001,3.00905E-003,6.76227E-001,0,3.05188E+000,-3.33823E-001,9.99925E-001,-3.52568E+001,-4.30649E+001,9.99780E-001,1.02770E-002,-4.90842E-003,1.13089E-004,1.02779E-002,-4.90927E-003,4.26663E-001,1.02813E-002,1.01030E+000,7.99553E-003,0.00000E+000,-7.64777E-003,9.95239E-001,0.00000E+000,-4.82235E-005,-1.82255E-002,1.00000E+000,2
549,1327,-2.46070E+001,-1.79509E-001,1.11684E-002,1.71879E-001,-1.71929E-002,-6.45175E-003,1.72857E-001,8.36281E-003,7.48659E-001,0,2.72052E+000,-2.80899E-001,9.99909E-001,-3.63663E+001,-4.21988E+001,9.98732E-001,1.12437E-002,-4.91193E-003,-1.24115E-004,1.12447E-002,-4.91288E-003,-4.40139E-001,1.12745E-002,1.01128E+000,8.01040E-003,0.00000E+000,-8.15406E-003,9.95232E-001,0.00000E+000,1.45323E-003,-1.82027E-002,1.00000E+000,2
549,1337,-2.45949E+001,4.46986E-001,-2.41943E-002,1.77928E-001,-2.09611E-002,-2.01840E-002,1.80292E-001,3.16766E-003,6.64180E-001,0,2.85044E+000,-3.08360E-001,9.99928E-001,-3.61212E+001,-4.25596E+001,9.99761E-001,1.09241E-002,-4.91168E-003,-4.46963E-005,1.09242E-002,-4.91181E-003,-1.61715E-001,1.09427E-002,1.01095E+000,8.00731E-003,0.00000E+000,-7.98648E-003,9.95233E-001,0.00000E+000,9.56238E-004,-1.82074E-002,1.00000E+000,2
1309,1317,2.56118E+001,-3.17131E-001,-1.17823E-001,8.28997E-001,6.78668E-002,-7.48385E-002,8.35131E-001,6.05012E-003,4.64847E-001,0,1.26458E+001,1.08671E+000,9.99937E-001,-2.20979E+001,-2.73918E+001,9.99338E-001,1.30715E-002,-4.87576E-003,9.48791E-004,1.31216E-002,-4.92578E-003,3.01775E+000,1.32567E-002,1.01316E+000,-1.04916E-003,0.00000E+000,2.93961E-003,9.95271E-001,0.00000E+000,-1.25489E-003,-1.66585E-002,1.00000E+000,2
1309,1327,2.56342E+001,3.34209E-001,-1.13376E-001,8.29238E-001,6.53111E-002,-8.35346E-002,8.35990E-001,6.91371E-003,4.41721E-001,0,1.26833E+001,1.05937E+000,9.99926E-001,-2.16900E+001,-2.72960E+001,9.99258E-001,1.34252E-002,-4.87165E-003,1.01237E-003,1.34811E-002,-4.92749E-003,3.15735E+000,1.36426E-002,1.01352E+000,-1.03702E-003,0.00000E+000,3.03443E-003,9.95274E-001,0.00000E+000,-8.08603E-005,-1.66186E-002,1.00000E+000,2
1309,1337,2.56688E+001,9.93381E-001,-6.99223E-002,8.28648E-001,6.15916E-002,-1.00160E-001,8.36949E-001,6.44599E-003,4.63502E-001,0,1.27398E+001,1.03778E+000,9.99962E-001,-2.10368E+001,-2.71456E+001,9.99459E-001,1.37815E-002,-4.86526E-003,1.08007E-003,1.38439E-002,-4.92761E-003,3.30399E+000,1.40341E-002,1.01388E+000,-1.01778E-003,0.00000E+000,3.13038E-003,9.95279E-001,0.00000E+000,1.10714E-003,-1.65555E-002,1.00000E+000,2
549,1317,-2.46124E+001,-8.02556E-001,7.84559E-002,1.66923E-001,-1.33668E-002,3.70564E-003,1.67498E-001,6.72407E-003,7.59458E-001,0,2.61649E+000,-2.35417E-001,9.99939E-001,-3.64089E+001,-4.18904E+001,9.99331E-001,1.15621E-002,-4.91080E-003,-2.04683E-004,1.15646E-002,-4.91334E-003,-7.11780E-001,1.16081E-002,1.01160E+000,8.01071E-003,0.00000E+000,-8.32120E-003,9.95232E-001,0.00000E+000,1.94889E-003,-1.82022E-002,1.00000E+000,2
549,1307,-2.46162E+001,-1.42459E+000,1.58048E-001,1.61615E-001,-8.40048E-003,1.33950E-002,1.62387E-001,4.74521E-003,7.23174E-001,0,2.50772E+000,-1.77683E-001,9.99898E-001,-3.63878E+001,-4.16158E+001,9.99345E-001,1.18805E-002,-4.90917E-003,-2.85821E-004,1.18853E-002,-4.91404E-003,-9.75008E-001,1.19445E-002,1.01192E+000,8.01004E-003,0.00000E+000,-8.48853E-003,9.95232E-001,0.00000E+000,2.44512E-003,-1.82032E-002,1.00000E+000,2
1309,1287,2.55903E+001,-2.24806E+000,2.79883E-002,8.32174E-001,7.93428E-002,-4.18094E-002,8.36993E-001,6.20828E-003,4.53141E-001,0,1.25569E+001,1.19833E+000,9.99938E-001,-2.23800E+001,-2.77151E+001,9.98415E-001,1.20098E-002,-4.88074E-003,7.70537E-004,1.20449E-002,-4.91582E-003,2.60658E+000,1.21125E-002,1.01209E+000,-1.06270E-003,0.00000E+000,2.65736E-003,9.95267E-001,0.00000E+000,-4.74946E-003,-1.67029E-002,1.00000E+000,2
1309,1297,2.55917E+001,-1.60792E+000,-4.00663E-002,8.30093E-001,7.38564E-002,-5.50105E-002,8.35186E-001,7.65478E-003,4.96581E-001,0,1.25814E+001,1.13153E+000,9.99906E-001,-2.24039E+001,-2.75998E+001,9.98758E-001,1.23645E-002,-4.87991E-003,8.28562E-004,1.24042E-002,-4.91963E-003,2.74453E+000,1.24923E-002,1.01245E+000,-1.06077E-003,0.00000E+000,2.75124E-003,9.95268E-001,0.00000E+000,-3.58711E-003,-1.66966E-002,1.00000E+000,2
1309,1307,2.55956E+001,-9.66108E-001,-9.72014E-002,8.29113E-001,7.16524E-002,-6.25481E-002,8.34550E-001,6.81699E-003,4.23389E-001,0,1.25977E+001,1.12351E+000,9.99917E-001,-2.23728E+001,-2.75403E+001,9.99515E-001,1.27167E-002,-4.87884E-003,8.86795E-004,1.27612E-002,-4.92342E-003,2.87793E+000,1.28717E-002,1.01280E+000,-1.05810E-003,0.00000E+000,2.84487E-003,9.95268E-001,0.00000E+000,-2.42789E-003,-1.66878E-002,1.00000E+000,2
539,1347,-2.52248E+001,1.08113E+000,-3.74108E-002,1.75147E-001,-1.78616E-002,-3.25359E-002,1.79036E-001,3.42880E-003,6.79344E-001,0,2.83736E+000,-2.28377E-001,9.99920E-001,-3.55611E+001,-4.29007E+001,9.99595E-001,1.05936E-002,-5.00773E-003,1.14142E-004,1.05945E-002,-5.00857E-003,4.19154E-001,1.05997E-002,1.01062E+000,8.32736E-003,0.00000E+000,-7.98047E-003,9.95130E-001,0.00000E+000,5.91282E-004,-1.77855E-002,1.00000E+000,2
539,1357,-2.52062E+001,1.71901E+000,-2.21342E-002,1.80405E-001,-1.96926E-002,-4.13730E-002,1.86133E-001,2.92733E-003,6.67365E-001,0,2.94169E+000,-2.33667E-001,9.99946E-001,-3.50575E+001,-4.31676E+001,9.99758E-001,1.02822E-002,-5.00557E-003,2.00800E-004,1.02848E-002,-5.00821E-003,7.52391E-001,1.02860E-002,1.01030E+000,8.32098E-003,0.00000E+000,-7.79575E-003,9.95134E-001,0.00000E+000,1.07745E-004,-1.77953E-002,1.00000E+000,2
539,1327,-2.52502E+001,-1.81428E-001,7.95154E-003,1.65224E-001,-1.16021E-002,-9.20834E-003,1.65887E-001,3.83471E-003,6.72094E-001,0,2.62291E+000,-1.79966E-001,9.99921E-001,-3.61504E+001,-4.23532E+001,9.99194E-001,1.12120E-002,-5.00906E-003,-6.07619E-005,1.12122E-002,-5.00929E-003,-2.14618E-001,1.12334E-002,1.01124E+000,8.33487E-003,0.00000E+000,-8.34785E-003,9.95126E-001,0.00000E+000,1.55294E-003,-1.77740E-002,1.00000E+000,2
539,1337,-2.52385E+001,4.47526E-001,-2.37892E-002,1.70368E-001,-1.49637E-002,-2.24365E-002,1.72490E-001,3.26410E-003,6.66590E-001,0,2.73695E+000,-2.14082E-001,9.99918E-001,-3.59001E+001,-4.26466E+001,9.99616E-001,1.09038E-002,-5.00872E-003,2.67262E-005,1.09039E-002,-5.00876E-003,9.62317E-002,1.09159E-002,1.01093E+000,8.33168E-003,0.00000E+000,-8.16466E-003,9.95128E-001,0.00000E+000,1.07342E-003,-1.77789E-002,1.00000E+000,2
1319,1297,2.62660E+001,-1.60412E+000,-5.21891E-002,8.37473E-001,7.55091E-002,-5.57236E-002,8.42714E-001,6.22027E-003,3.93420E-001,0,1.26854E+001,1.17619E+000,9.99905E-001,-2.18840E+001,-2.74856E+001,9.99060E-001,1.22782E-002,-4.71334E-003,9.00251E-004,1.23257E-002,-4.76090E-003,3.02438E+000,1.24316E-002,1.01236E+000,-6.59598E-004,0.00000E+000,2.49958E-003,9.95410E-001,0.00000E+000,-3.91783E-003,-1.51405E-002,1.00000E+000,2
1319,1307,2.62731E+001,-9.61612E-001,-1.03535E-001,8.36411E-001,7.11993E-002,-6.91127E-002,8.42276E-001,6.44687E-003,3.77981E-001,0,1.27252E+001,1.13390E+000,9.99915E-001,-2.17952E+001,-2.73970E+001,9.99490E-001,1.26494E-002,-4.71147E-003,9.68751E-004,1.27033E-002,-4.76536E-003,3.18397E+000,1.28347E-002,1.01273E+000,-6.54901E-004,0.00000E+000,2.61129E-003,9.95411E-001,0.00000E+000,-2.60707E-003,-1.51239E-002,1.00000E+000,2
539,1307,-2.52592E+001,-1.42478E+000,1.59373E-001,1.54597E-001,-2.60162E-003,1.22893E-002,1.55107E-001,3.91980E-003,6.79159E-001,0,2.40056E+000,-8.30272E-002,9.99893E-001,-3.61552E+001,-4.17336E+001,9.99307E-001,1.18235E-002,-5.00581E-003,-2.38053E-004,1.18268E-002,-5.00917E-003,-8.10243E-001,1.18728E-002,1.01186E+000,8.33429E-003,0.00000E+000,-8.71198E-003,9.95126E-001,0.00000E+000,2.50611E-003,-1.77749E-002,1.00000E+000,2
539,1317,-2.52562E+001,-8.05032E-001,7.41146E-002,1.59946E-001,-7.64604E-003,1.78411E-003,1.60139E-001,3.62011E-003,6.77907E-001,0,2.51188E+000,-1.41512E-001,9.99909E-001,-3.62061E+001,-4.20517E+001,9.99373E-001,1.15183E-002,-5.00785E-003,-1.49178E-004,1.15197E-002,-5.00920E-003,-5.17141E-001,1.15522E-002,1.01155E+000,8.33531E-003,0.00000E+000,-8.53018E-003,9.95126E-001,0.00000E+000,2.03021E-003,-1.77733E-002,1.00000E+000,2
1319,1287,2.62673E+001,-2.24340E+000,2.12469E-002,8.39897E-001,7.91991E-002,-4.57763E-002,8.44864E-001,7.04456E-003,4.35158E-001,0,1.26795E+001,1.20617E+000,9.99951E-001,-2.18101E+001,-2.75580E+001,9.98813E-001,1.19068E-002,-4.71376E-003,8.34085E-004,1.19486E-002,-4.75552E-003,2.86572E+000,1.20312E-002,1.01199E+000,-6.60239E-004,0.00000E+000,2.38841E-003,9.95409E-001,0.00000E+000,-5.22224E-003,-1.51427E-002,1.00000E+000,2
529,1327,-2.58922E+001,-1.81100E-001,9.02401E-003,1.58393E-001,-5.95442E-003,-1.31670E-002,1.59051E-001,3.59932E-003,6.48320E-001,0,2.52520E+000,-8.06949E-002,9.99914E-001,-3.59002E+001,-4.24560E+001,9.98981E-001,1.11511E-002,-5.11565E-003,-2.35725E-005,1.11512E-002,-5.11568E-003,-8.30282E-002,1.11638E-002,1.01118E+000,8.53968E-003,0.00000E+000,-8.47752E-003,9.95012E-001,0.00000E+000,1.73325E-003,-1.73928E-002,1.00000E+000,2
529,1307,-2.59010E+001,-1.42463E+000,1.65648E-001,1.47403E-001,2.16252E-003,1.00595E-002,1.47761E-001,4.25435E-003,6.61713E-001,0,2.29341E+000,-7.63797E-003,9.99923E-001,-3.58854E+001,-4.18433E+001,9.99644E-001,1.16644E-002,-5.11218E-003,-2.00554E-004,1.16668E-002,-5.11458E-003,-6.84809E-001,1.16962E-002,1.01170E+000,8.53895E-003,0.00000E+000,-8.84079E-003,9.95013E-001,0.00000E+000,2.66242E-003,-1.73941E-002,1.00000E+000,2
529,1317,-2.58995E+001,-8.05885E-001,7.18221E-002,1.52716E-001,-2.85249E-003,1.84873E-004,1.52743E-001,4.07290E-003,6.60996E-001,0,2.40251E+000,-5.97705E-002,9.99928E-001,-3.59861E+001,-4.21605E+001,9.99351E-001,1.14084E-002,-5.11464E-003,-1.11707E-004,1.14091E-002,-5.11539E-003,-3.87336E-001,1.14294E-002,1.01144E+000,8.54039E-003,0.00000E+000,-8.65950E-003,9.95012E-001,0.00000E+000,2.19872E-003,-1.73915E-002,1.00000E+000,2
