Coordinates.Image X [Pixel],Coordinates.Image Y [Pixel],coor.X [mm],coor.Y [mm],coor.Z [mm],disp.Horizontal Displacement U [mm],disp.Vertical Displacement V [mm],disp.Out-Of-Plane: W [mm],disp.Displacement Magnitude [mm],stats.Sigma [mm],stats.Epipolar Distance [Pixel],stats.Shape Index [-],SameCamera.Horizontal: u [Pixel],SameCamera.Vertical: v [Pixel],SameCamera.Correlation Value 2D [-],CrossCamera.Horizontal: q [Pixel],CrossCamera.Vertical: r [Pixel],CrossCamera.Correlation Value Persp [-],strain.Strain-global frame: Exx [ ],strain.Strain-global frame: Eyy [ ],strain.Strain-global frame: Exy [ ],strain.Maximum Principal Strain: EI [ ],strain.Minimum Principal Strain: EII [ ],strain.Shear Angle Gamma [deg],strain.Von Mises Equivalent Strain [ ],defgradient.F[0,0] [-],defgradient.F[0,1] [-],defgradient.F[0,2] [-],defgradient.F[1,0] [-],defgradient.F[1,1] [-],defgradient.F[1,2] [-],defgradient.F[2,0] [-],defgradient.F[2,1] [-],defgradient.F[2,2] [-],ext.Current Image [#]
929,1317,5.41463E+000,-1.14185E+000,7.51059E-002,5.75070E+000,-5.25488E-001,1.61827E-001,5.77692E+000,1.24489E-002,4.72044E-001,0,8.75920E+001,-9.24719E+000,9.98811E-001,4.41251E+001,-4.31509E+001,9.97594E-001,1.58210E-001,-6.61676E-002,-1.58996E-004,1.58210E-001,-6.61677E-002,-4.06004E-002,1.58914E-001,1.17136E+000,-1.96794E-002,0.00000E+000,1.66449E-002,9.39702E-001,0.00000E+000,-1.51603E-002,-9.08509E-002,1.00000E+000,24
919,1307,4.65012E+000,-1.75280E+000,1.40433E-001,5.65274E+000,-4.87167E-001,2.31950E-001,5.67843E+000,1.50839E-002,4.94245E-001,0,8.59199E+001,-8.76671E+000,9.97571E-001,4.23412E+001,-4.28227E+001,9.95348E-001,1.61367E-001,-6.59025E-002,-6.96115E-004,1.61369E-001,-6.59046E-002,-1.75492E-001,1.62269E-001,1.17507E+000,-1.75261E-002,0.00000E+000,1.37607E-002,9.40068E-001,0.00000E+000,-1.36739E-002,-9.17312E-002,1.00000E+000,24
919,1317,4.63649E+000,-1.16527E+000,3.13651E-002,5.63630E+000,-5.34635E-001,1.73794E-001,5.66426E+000,1.78264E-002,4.62486E-001,0,8.58811E+001,-9.40810E+000,9.96399E-001,4.19930E+001,-4.35252E+001,9.94365E-001,1.59252E-001,-6.59106E-002,-9.30216E-004,1.59256E-001,-6.59144E-002,-2.36701E-001,1.60042E-001,1.17257E+000,-1.75371E-002,0.00000E+000,1.32276E-002,9.40066E-001,0.00000E+000,-1.21649E-002,-9.17245E-002,1.00000E+000,24
919,1327,4.64178E+000,-5.66951E-001,-1.64902E-002,5.62446E+000,-5.83383E-001,1.10807E-001,5.65572E+000,1.37969E-002,5.08815E-001,0,8.59164E+001,-1.00567E+001,9.98283E-001,4.20687E+001,-4.41503E+001,9.96444E-001,1.57110E-001,-6.59281E-002,-1.19001E-003,1.57116E-001,-6.59345E-002,-3.05687E-001,1.57791E-001,1.17004E+000,-1.76034E-002,0.00000E+000,1.26890E-002,9.40052E-001,0.00000E+000,-1.06402E-002,-9.16846E-002,1.00000E+000,24
929,1307,5.42381E+000,-1.72974E+000,1.71212E-001,5.76706E+000,-4.75103E-001,2.26912E-001,5.79105E+000,1.24591E-002,5.05180E-001,0,8.76070E+001,-8.57872E+000,9.98941E-001,4.43762E+001,-4.24273E+001,9.97973E-001,1.60371E-001,-6.61650E-002,-8.24292E-005,1.60371E-001,-6.61650E-002,-2.08481E-002,1.61186E-001,1.17392E+000,-1.96508E-002,0.00000E+000,1.68926E-002,9.39705E-001,0.00000E+000,-1.70367E-002,-9.08718E-002,1.00000E+000,24
929,1327,5.41235E+000,-5.41597E-001,1.19907E-002,5.73498E+000,-5.67581E-001,1.00891E-001,5.76388E+000,1.17930E-002,4.71062E-001,0,8.75636E+001,-9.81260E+000,9.98884E-001,4.40518E+001,-4.37370E+001,9.98010E-001,1.56036E-001,-6.61712E-002,-2.46362E-004,1.56037E-001,-6.61714E-002,-6.35239E-002,1.56635E-001,1.16878E+000,-1.97329E-002,0.00000E+000,1.63967E-002,9.39697E-001,0.00000E+000,-1.32792E-002,-9.08118E-002,1.00000E+000,24
939,1307,6.19011E+000,-1.71152E+000,1.54622E-001,5.87902E+000,-4.63791E-001,1.99928E-001,5.90068E+000,1.36171E-002,5.13428E-001,0,8.93373E+001,-8.36209E+000,9.99014E-001,4.62009E+001,-4.20086E+001,9.98076E-001,1.59205E-001,-6.56518E-002,3.89027E-004,1.59206E-001,-6.56524E-002,9.91277E-002,1.60019E-001,1.17255E+000,-2.21712E-002,0.00000E+000,1.99973E-002,9.40021E-001,0.00000E+000,-1.94430E-002,-8.95211E-002,1.00000E+000,24
939,1317,6.18040E+000,-1.12165E+000,6.97832E-002,5.86133E+000,-5.12142E-001,1.42688E-001,5.88540E+000,1.35317E-002,4.47183E-001,0,8.92751E+001,-9.01133E+000,9.98724E-001,4.59663E+001,-4.27404E+001,9.97165E-001,1.57239E-001,-6.56526E-002,3.44473E-004,1.57239E-001,-6.56532E-002,8.85488E-002,1.57951E-001,1.17021E+000,-2.22003E-002,0.00000E+000,1.97948E-002,9.40019E-001,0.00000E+000,-1.73460E-002,-8.94950E-002,1.00000E+000,24
939,1327,6.17976E+000,-5.15163E-001,1.21714E-002,5.84560E+000,-5.51262E-001,8.04581E-002,5.87209E+000,1.12665E-002,4.72311E-001,0,8.92500E+001,-9.50941E+000,9.98539E-001,4.59304E+001,-4.32267E+001,9.97424E-001,1.55250E-001,-6.56538E-002,2.88606E-004,1.55250E-001,-6.56542E-002,7.48555E-002,1.55865E-001,1.16784E+000,-2.22554E-002,0.00000E+000,1.95909E-002,9.40014E-001,0.00000E+000,-1.52337E-002,-8.94458E-002,1.00000E+000,24
919,1337,4.65411E+000,4.25567E-002,-3.73175E-002,5.61475E+000,-6.22468E-001,5.17778E-002,5.64939E+000,1.23201E-002,4.65830E-001,0,8.59626E+001,-1.05492E+001,9.97992E-001,4.23133E+001,-4.47062E+001,9.97277E-001,1.54961E-001,-6.59490E-002,-1.45801E-003,1.54971E-001,-6.59586E-002,-3.78129E-001,1.55542E-001,1.16752E+000,-1.76886E-002,0.00000E+000,1.21506E-002,9.40034E-001,0.00000E+000,-9.11636E-003,-9.16332E-002,1.00000E+000,24
929,1337,5.42003E+000,6.15684E-002,-2.42979E-002,5.72305E+000,-6.12366E-001,3.84952E-002,5.75585E+000,1.15271E-002,4.44273E-001,0,8.75933E+001,-1.03813E+001,9.99066E-001,4.41897E+001,-4.43485E+001,9.98528E-001,1.53843E-001,-6.61756E-002,-3.44685E-004,1.53844E-001,-6.61762E-002,-8.97601E-002,1.54343E-001,1.16620E+000,-1.98108E-002,0.00000E+000,1.61471E-002,9.39690E-001,0.00000E+000,-1.13886E-002,-9.07548E-002,1.00000E+000,24
939,1337,6.18536E+000,8.78618E-002,-2.53087E-002,5.83245E+000,-5.95169E-001,2.14520E-002,5.86278E+000,1.02829E-002,4.64906E-001,0,8.92512E+001,-1.00910E+001,9.98945E-001,4.60327E+001,-4.38268E+001,9.98510E-001,1.53253E-001,-6.56552E-002,2.26793E-004,1.53254E-001,-6.56554E-002,5.93594E-002,1.53776E-001,1.16548E+000,-2.23238E-002,0.00000E+000,1.93870E-002,9.40008E-001,0.00000E+000,-1.31216E-002,-8.93846E-002,1.00000E+000,24
949,1317,6.95208E+000,-1.09281E+000,7.17351E-002,5.97607E+000,-4.92862E-001,1.25004E-001,5.99766E+000,1.94932E-002,4.67451E-001,0,9.10101E+001,-8.68127E+000,9.96941E-001,4.79197E+001,-4.21885E+001,9.95297E-001,1.56223E-001,-6.50875E-002,7.53015E-004,1.56226E-001,-6.50901E-002,1.94947E-001,1.56948E-001,1.16900E+000,-2.44813E-002,0.00000E+000,2.25251E-002,9.40332E-001,0.00000E+000,-1.90123E-002,-8.75200E-002,1.00000E+000,24
949,1327,6.94658E+000,-4.89079E-001,4.89395E-003,5.95655E+000,-5.32836E-001,5.88555E-002,5.98063E+000,1.72519E-002,4.50620E-001,0,9.09441E+001,-9.18423E+000,9.97712E-001,4.77892E+001,-4.27175E+001,9.96449E-001,1.54572E-001,-6.50852E-002,7.44271E-004,1.54574E-001,-6.50877E-002,1.94134E-001,1.55215E-001,1.16703E+000,-2.45243E-002,0.00000E+000,2.23722E-002,9.40329E-001,0.00000E+000,-1.65472E-002,-8.74664E-002,1.00000E+000,24
949,1337,6.95169E+000,1.13297E-001,-2.51550E-002,5.94340E+000,-5.77444E-001,1.02447E-002,5.97140E+000,1.31976E-002,4.61051E-001,0,9.09108E+001,-9.80503E+000,9.98438E-001,4.78980E+001,-4.33331E+001,9.97241E-001,1.52908E-001,-6.50825E-002,7.29752E-004,1.52910E-001,-6.50850E-002,1.91803E-001,1.53473E-001,1.16505E+000,-2.45802E-002,0.00000E+000,2.22189E-002,9.40325E-001,0.00000E+000,-1.40757E-002,-8.73966E-002,1.00000E+000,24
949,1307,6.96475E+000,-1.68904E+000,1.55541E-001,5.99642E+000,-4.50082E-001,1.79434E-001,6.01597E+000,1.59765E-002,5.02373E-001,0,9.11229E+001,-8.10899E+000,9.97970E-001,4.81969E+001,-4.15700E+001,9.96859E-001,1.57860E-001,-6.50893E-002,7.53469E-004,1.57863E-001,-6.50919E-002,1.93631E-001,1.58669E-001,1.17097E+000,-2.44577E-002,0.00000E+000,2.26775E-002,9.40334E-001,0.00000E+000,-2.14685E-002,-8.75495E-002,1.00000E+000,24
909,1317,3.87645E+000,-1.18203E+000,2.59784E-002,5.52797E+000,-5.43592E-001,1.70715E-001,5.55726E+000,1.71604E-002,4.34058E-001,0,8.43013E+001,-9.54241E+000,9.94814E-001,4.02269E+001,-4.38860E+001,9.93439E-001,1.60320E-001,-6.63938E-002,-1.77295E-003,1.60334E-001,-6.64077E-002,-4.48030E-001,1.61119E-001,1.17382E+000,-1.52454E-002,0.00000E+000,9.51381E-003,9.39646E-001,0.00000E+000,-8.87372E-003,-9.16420E-002,1.00000E+000,24
909,1327,3.88682E+000,-5.77199E-001,-1.80215E-002,5.52171E+000,-5.86370E-001,1.13353E-001,5.55391E+000,1.34538E-002,4.66474E-001,0,8.43994E+001,-1.00882E+001,9.96570E-001,4.03910E+001,-4.44266E+001,9.96606E-001,1.58240E-001,-6.64089E-002,-2.01443E-003,1.58258E-001,-6.64269E-002,-5.13717E-001,1.58937E-001,1.17138E+000,-1.53073E-002,0.00000E+000,9.05103E-003,9.39634E-001,0.00000E+000,-7.91781E-003,-9.16178E-002,1.00000E+000,24
909,1337,3.89771E+000,3.60922E-002,-3.66724E-002,5.51044E+000,-6.24579E-001,5.55230E-002,5.54600E+000,1.43402E-002,5.24441E-001,0,8.44159E+001,-1.05734E+001,9.97963E-001,4.06190E+001,-4.48803E+001,9.97607E-001,1.56150E-001,-6.64273E-002,-2.26542E-003,1.56173E-001,-6.64504E-002,-5.83082E-001,1.56750E-001,1.16892E+000,-1.53896E-002,0.00000E+000,8.58694E-003,9.39618E-001,0.00000E+000,-6.95918E-003,-9.15857E-002,1.00000E+000,24
909,1307,3.88421E+000,-1.76857E+000,1.42173E-001,5.53751E+000,-4.95323E-001,2.31304E-001,5.56443E+000,1.67063E-002,4.22476E-001,0,8.42269E+001,-8.88237E+000,9.95869E-001,4.05010E+001,-4.32040E+001,9.91990E-001,1.62371E-001,-6.63880E-002,-1.55715E-003,1.62381E-001,-6.63986E-002,-3.89985E-001,1.63277E-001,1.17624E+000,-1.52385E-002,0.00000E+000,9.97133E-003,9.39647E-001,0.00000E+000,-9.81877E-003,-9.16447E-002,1.00000E+000,24
919,1347,4.67463E+000,6.61736E-001,-4.51361E-002,5.60997E+000,-6.55836E-001,-9.15253E-003,5.64818E+000,1.91747E-002,4.84362E-001,0,8.60854E+001,-1.09555E+001,9.98784E-001,4.27131E+001,-4.51118E+001,9.98287E-001,1.52797E-001,-6.59720E-002,-1.73270E-003,1.52811E-001,-6.59857E-002,-4.53757E-001,1.53284E-001,1.16498E+000,-1.77864E-002,0.00000E+000,1.16100E-002,9.40013E-001,0.00000E+000,-7.58606E-003,-9.15742E-002,1.00000E+000,24
929,1347,5.43618E+000,6.73776E-001,-3.47679E-002,5.71442E+000,-6.51711E-001,-2.19040E-002,5.75150E+000,1.09230E-002,4.32493E-001,0,8.76594E+001,-1.08780E+001,9.98937E-001,4.45140E+001,-4.48702E+001,9.98631E-001,1.51637E-001,-6.61809E-002,-4.52242E-004,1.51638E-001,-6.61819E-002,-1.18959E-001,1.52045E-001,1.16360E+000,-1.99094E-002,0.00000E+000,1.58970E-002,9.39680E-001,0.00000E+000,-9.49341E-003,-9.06827E-002,1.00000E+000,24
939,1347,6.20207E+000,6.99390E-001,-3.29551E-002,5.82468E+000,-6.35295E-001,-3.38138E-002,5.85932E+000,1.54752E-002,4.61753E-001,0,8.93144E+001,-1.06130E+001,9.98872E-001,4.63699E+001,-4.43592E+001,9.97618E-001,1.51241E-001,-6.56568E-002,1.55657E-004,1.51241E-001,-6.56570E-002,4.11185E-002,1.51678E-001,1.16311E+000,-2.24130E-002,0.00000E+000,1.91823E-002,9.40000E-001,0.00000E+000,-1.10012E-002,-8.93049E-002,1.00000E+000,24
949,1347,6.97264E+000,7.24112E-001,-1.74990E-002,5.93783E+000,-6.20659E-001,-3.80411E-002,5.97030E+000,1.24243E-002,4.77942E-001,0,9.09834E+001,-1.03869E+001,9.98206E-001,4.83305E+001,-4.38981E+001,9.97130E-001,1.51225E-001,-6.50792E-002,7.04221E-004,1.51227E-001,-6.50815E-002,1.86535E-001,1.51715E-001,1.16305E+000,-2.46616E-002,0.00000E+000,2.20646E-002,9.40318E-001,0.00000E+000,-1.15890E-002,-8.72951E-002,1.00000E+000,24
959,1317,7.71471E+000,-1.07118E+000,5.51389E-002,6.08319E+000,-4.78297E-001,9.74096E-002,6.10275E+000,1.79820E-002,4.68861E-001,0,9.26657E+001,-8.41240E+000,9.97363E-001,4.96988E+001,-4.17189E+001,9.96448E-001,1.55304E-001,-6.44669E-002,8.29614E-004,1.55307E-001,-6.44700E-002,2.16282E-001,1.56051E-001,1.16789E+000,-2.68603E-002,0.00000E+000,2.46315E-002,9.40693E-001,0.00000E+000,-1.97768E-002,-8.53651E-002,1.00000E+000,24
959,1327,7.71305E+000,-4.66931E-001,-1.09654E-002,6.06919E+000,-5.17000E-001,4.00722E-002,6.09130E+000,2.33249E-002,4.65821E-001,0,9.26553E+001,-8.92012E+000,9.98901E-001,4.96292E+001,-4.22321E+001,9.98058E-001,1.53919E-001,-6.44583E-002,8.99254E-004,1.53923E-001,-6.44620E-002,2.35932E-001,1.54598E-001,1.16622E+000,-2.68923E-002,0.00000E+000,2.46075E-002,9.40693E-001,0.00000E+000,-1.71508E-002,-8.53146E-002,1.00000E+000,24
959,1337,7.71978E+000,1.34663E-001,-2.73673E-002,6.05529E+000,-5.64919E-001,-4.81341E-003,6.08159E+000,1.89066E-002,4.59151E-001,0,9.25977E+001,-9.57849E+000,9.97823E-001,4.97898E+001,-4.28961E+001,9.97186E-001,1.52519E-001,-6.44471E-002,9.60039E-004,1.52523E-001,-6.44514E-002,2.53518E-001,1.53132E-001,1.16454E+000,-2.69459E-002,0.00000E+000,2.45832E-002,9.40692E-001,0.00000E+000,-1.45104E-002,-8.52303E-002,1.00000E+000,24
959,1307,7.72447E+000,-1.66436E+000,1.43475E-001,6.10152E+000,-4.30839E-001,1.59905E-001,6.11880E+000,1.38722E-002,4.88443E-001,0,9.27168E+001,-7.79101E+000,9.97865E-001,4.99404E+001,-4.10729E+001,9.96847E-001,1.56677E-001,-6.44742E-002,7.55744E-004,1.56680E-001,-6.44768E-002,1.95795E-001,1.57496E-001,1.16955E+000,-2.68380E-002,0.00000E+000,2.46556E-002,9.40694E-001,0.00000E+000,-2.23991E-002,-8.54002E-002,1.00000E+000,24
959,1347,7.73528E+000,7.41361E-001,-2.91693E-002,6.04617E+000,-6.10013E-001,-5.31889E-002,6.07709E+000,1.36283E-002,4.49745E-001,0,9.26201E+001,-1.01930E+001,9.97789E-001,5.01164E+001,-4.35160E+001,9.97503E-001,1.51108E-001,-6.44347E-002,1.01611E-003,1.51113E-001,-6.44395E-002,2.70095E-001,1.51657E-001,1.16287E+000,-2.70098E-002,0.00000E+000,2.45590E-002,9.40691E-001,0.00000E+000,-1.18668E-002,-8.51296E-002,1.00000E+000,24
909,1347,3.91862E+000,6.51636E-001,-3.14756E-002,5.50415E+000,-6.61086E-001,-2.38785E-003,5.54371E+000,1.66730E-002,5.17855E-001,0,8.45034E+001,-1.10486E+001,9.98801E-001,4.10540E+001,-4.53849E+001,9.97401E-001,1.54059E-001,-6.64489E-002,-2.52415E-003,1.54087E-001,-6.64778E-002,-6.55750E-001,1.54570E-001,1.16648E+000,-1.54906E-002,0.00000E+000,8.12380E-003,9.39599E-001,0.00000E+000,-6.00255E-003,-9.15462E-002,1.00000E+000,24
899,1327,3.12920E+000,-5.77587E-001,1.62125E-002,5.40776E+000,-5.86703E-001,1.13913E-001,5.44068E+000,9.93944E-003,4.84861E-001,0,8.27074E+001,-1.00756E+001,9.97605E-001,3.87557E+001,-4.45981E+001,9.97722E-001,1.59042E-001,-6.67844E-002,-2.72327E-003,1.59075E-001,-6.68173E-002,-6.90803E-001,1.59752E-001,1.17233E+000,-1.31884E-002,0.00000E+000,5.77692E-003,9.39360E-001,0.00000E+000,-5.08411E-003,-9.22339E-002,1.00000E+000,24
899,1337,3.14507E+000,3.16649E-002,-2.30441E-002,5.40536E+000,-6.24557E-001,5.26709E-002,5.44158E+000,1.49132E-002,5.10170E-001,0,8.28730E+001,-1.05589E+001,9.99009E-001,3.90167E+001,-4.50873E+001,9.98743E-001,1.57147E-001,-6.67968E-002,-2.92521E-003,1.57185E-001,-6.68350E-002,-7.48241E-001,1.57771E-001,1.17011E+000,-1.32499E-002,0.00000E+000,5.43683E-003,9.39351E-001,0.00000E+000,-4.75080E-003,-9.22247E-002,1.00000E+000,24
899,1347,3.17393E+000,6.43506E-001,-1.73440E-002,5.40719E+000,-6.64943E-001,-4.88151E-003,5.44793E+000,1.28146E-002,4.96842E-001,0,8.30836E+001,-1.10868E+001,9.98938E-001,3.95767E+001,-4.56545E+001,9.98341E-001,1.55243E-001,-6.68136E-002,-3.14025E-003,1.55287E-001,-6.68580E-002,-8.10042E-001,1.55786E-001,1.16788E+000,-1.33408E-002,0.00000E+000,5.09570E-003,9.39337E-001,0.00000E+000,-4.41648E-003,-9.22111E-002,1.00000E+000,24
899,1317,3.12460E+000,-1.17706E+000,8.10756E-002,5.41583E+000,-5.42886E-001,1.74329E-001,5.44576E+000,1.33385E-002,4.78058E-001,0,8.26241E+001,-9.50884E+000,9.97122E-001,3.87263E+001,-4.40033E+001,9.95674E-001,1.60929E-001,-6.67749E-002,-2.52991E-003,1.60957E-001,-6.68030E-002,-6.36483E-001,1.61729E-001,1.17455E+000,-1.31457E-002,0.00000E+000,6.11608E-003,9.39367E-001,0.00000E+000,-5.41650E-003,-9.22403E-002,1.00000E+000,24
899,1307,3.12446E+000,-1.76606E+000,1.75986E-001,5.42269E+000,-4.92947E-001,2.38204E-001,5.45025E+000,1.34041E-002,4.32885E-001,0,8.25033E+001,-8.82597E+000,9.97337E-001,3.88331E+001,-4.33291E+001,9.94181E-001,1.62804E-001,-6.67683E-002,-2.34528E-003,1.62828E-001,-6.67922E-002,-5.85242E-001,1.63701E-001,1.17675E+000,-1.31219E-002,0.00000E+000,6.45402E-003,9.39370E-001,0.00000E+000,-5.74770E-003,-9.22439E-002,1.00000E+000,24
889,1327,2.37034E+000,-5.84838E-001,2.44790E-002,5.29693E+000,-5.90257E-001,1.10613E-001,5.33086E+000,8.79511E-003,4.92986E-001,0,8.10790E+001,-1.01075E+001,9.98354E-001,3.70494E+001,-4.48249E+001,9.98204E-001,1.59869E-001,-6.61757E-002,-3.42442E-003,1.59921E-001,-6.62276E-002,-8.67728E-001,1.60705E-001,1.17331E+000,-1.13680E-002,0.00000E+000,2.74513E-003,9.40023E-001,0.00000E+000,-2.08574E-003,-9.30980E-002,1.00000E+000,24
889,1337,2.38067E+000,2.47916E-002,-1.69554E-002,5.29026E+000,-6.26106E-001,5.24312E-002,5.32744E+000,1.38200E-002,5.00411E-001,0,8.11681E+001,-1.05666E+001,9.98855E-001,3.72209E+001,-4.53152E+001,9.98600E-001,1.58057E-001,-6.61765E-002,-3.46451E-003,1.58110E-001,-6.62300E-002,-8.84964E-001,1.58802E-001,1.17119E+000,-1.14227E-002,0.00000E+000,2.79120E-003,9.40024E-001,0.00000E+000,-2.78815E-003,-9.31161E-002,1.00000E+000,24
889,1347,2.41060E+000,6.34833E-001,-1.15714E-002,5.29394E+000,-6.67559E-001,-2.78465E-003,5.33586E+000,1.13480E-002,4.88552E-001,0,8.13990E+001,-1.11188E+001,9.98621E-001,3.77982E+001,-4.59105E+001,9.98325E-001,1.56234E-001,-6.61776E-002,-3.51729E-003,1.56289E-001,-6.62332E-002,-9.05794E-001,1.56893E-001,1.16906E+000,-1.15069E-002,0.00000E+000,2.83747E-003,9.40026E-001,0.00000E+000,-3.49358E-003,-9.31440E-002,1.00000E+000,24
969,1297,8.51405E+000,-2.23216E+000,2.37203E-001,6.23643E+000,-3.68856E-001,1.83479E-001,6.25002E+000,1.82635E-002,4.49937E-001,0,9.45955E+001,-6.85464E+000,9.98662E-001,5.22766E+001,-3.99769E+001,9.97511E-001,1.56568E-001,-6.41313E-002,5.74857E-004,1.56570E-001,-6.41328E-002,1.49237E-001,1.57420E-001,1.16946E+000,-2.88897E-002,0.00000E+000,2.61681E-002,9.40799E-001,0.00000E+000,-2.55734E-002,-8.30610E-002,1.00000E+000,24
969,1307,8.48936E+000,-1.65026E+000,1.27013E-001,6.20974E+000,-4.24391E-001,1.29034E-001,6.22556E+000,3.01869E-002,4.42680E-001,0,9.43999E+001,-7.61256E+000,9.98202E-001,5.17588E+001,-4.07457E+001,9.96163E-001,1.55475E-001,-6.41234E-002,6.97712E-004,1.55477E-001,-6.41256E-002,1.82039E-001,1.56270E-001,1.16811E+000,-2.88939E-002,0.00000E+000,2.62110E-002,9.40799E-001,0.00000E+000,-2.27866E-002,-8.30523E-002,1.00000E+000,24
969,1317,8.48153E+000,-1.05577E+000,5.20020E-002,6.19228E+000,-4.70762E-001,7.54055E-002,6.21061E+000,1.16349E-002,4.33574E-001,0,9.43308E+001,-8.25173E+000,9.99176E-001,5.15744E+001,-4.13925E+001,9.98552E-001,1.54372E-001,-6.41121E-002,8.13902E-004,1.54375E-001,-6.41152E-002,2.13435E-001,1.55111E-001,1.16675E+000,-2.89142E-002,0.00000E+000,2.62540E-002,9.40800E-001,0.00000E+000,-1.99971E-002,-8.30103E-002,1.00000E+000,24
889,1317,2.36182E+000,-1.18179E+000,9.32682E-002,5.30050E+000,-5.44542E-001,1.72804E-001,5.33120E+000,1.21476E-002,5.21831E-001,0,8.09211E+001,-9.53111E+000,9.98372E-001,3.69681E+001,-4.41803E+001,9.97644E-001,1.61674E-001,-6.61751E-002,-3.39108E-003,1.61724E-001,-6.62256E-002,-8.52484E-001,1.62605E-001,1.17543E+000,-1.13290E-002,0.00000E+000,2.69913E-003,9.40022E-001,0.00000E+000,-1.38452E-003,-9.30851E-002,1.00000E+000,24
969,1327,8.47654E+000,-4.49347E-001,-4.47464E-003,6.17425E+000,-5.07798E-001,2.50257E-002,6.19515E+000,1.49705E-002,4.71580E-001,0,9.42344E+001,-8.77083E+000,9.98485E-001,5.14724E+001,-4.18711E+001,9.98512E-001,1.53258E-001,-6.40994E-002,9.27061E-004,1.53262E-001,-6.41033E-002,2.44369E-001,1.53943E-001,1.16540E+000,-2.89417E-002,0.00000E+000,2.62971E-002,9.40801E-001,0.00000E+000,-1.72018E-002,-8.29535E-002,1.00000E+000,24
889,1307,2.35752E+000,-1.77265E+000,1.86270E-001,5.30250E+000,-4.97260E-001,2.31772E-001,5.33080E+000,1.55076E-002,4.74890E-001,0,8.07445E+001,-8.87514E+000,9.97830E-001,3.70070E+001,-4.35302E+001,9.95000E-001,1.63468E-001,-6.61748E-002,-3.36568E-003,1.63518E-001,-6.62241E-002,-8.39494E-001,1.64499E-001,1.17755E+000,-1.13085E-002,0.00000E+000,2.65331E-003,9.40022E-001,0.00000E+000,-6.86023E-004,-9.30783E-002,1.00000E+000,24
969,1337,8.48236E+000,1.50143E-001,-3.67923E-002,6.16150E+000,-5.54870E-001,-2.60843E-002,6.18648E+000,1.53419E-002,3.97844E-001,0,9.42192E+001,-9.39700E+000,9.98360E-001,5.15859E+001,-4.25649E+001,9.98088E-001,1.52133E-001,-6.40841E-002,1.03520E-003,1.52138E-001,-6.40891E-002,2.74311E-001,1.52766E-001,1.16404E+000,-2.89809E-002,0.00000E+000,2.63403E-002,9.40802E-001,0.00000E+000,-1.44017E-002,-8.28726E-002,1.00000E+000,24
969,1347,8.49052E+000,7.71722E-001,-4.26699E-002,6.14628E+000,-5.85986E-001,-7.18871E-002,6.17457E+000,1.33061E-002,4.32003E-001,0,9.41372E+001,-9.79692E+000,9.98216E-001,5.17909E+001,-4.29231E+001,9.97536E-001,1.50991E-001,-6.40668E-002,1.13949E-003,1.50998E-001,-6.40728E-002,3.03571E-001,1.51573E-001,1.16268E+000,-2.90302E-002,0.00000E+000,2.63838E-002,9.40804E-001,0.00000E+000,-1.15825E-002,-8.27708E-002,1.00000E+000,24
879,1327,1.61630E+000,-5.86353E-001,4.22258E-002,5.19038E+000,-5.87885E-001,1.16110E-001,5.22485E+000,1.25834E-002,5.00975E-001,0,7.94818E+001,-1.00720E+001,9.98415E-001,3.54447E+001,-4.49833E+001,9.98155E-001,1.60574E-001,-6.63936E-002,-3.87617E-003,1.60640E-001,-6.64598E-002,-9.78122E-001,1.61435E-001,1.17416E+000,-9.80661E-003,0.00000E+000,4.69743E-004,9.39774E-001,0.00000E+000,-5.02930E-005,-9.25032E-002,1.00000E+000,24
879,1337,1.62602E+000,1.76618E-002,-1.06746E-002,5.18376E+000,-6.28461E-001,4.89088E-002,5.22195E+000,1.23499E-002,4.87552E-001,0,7.96027E+001,-1.05787E+001,9.97746E-001,3.55810E+001,-4.55480E+001,9.97573E-001,1.58962E-001,-6.63904E-002,-3.84487E-003,1.59027E-001,-6.64560E-002,-9.77181E-001,1.59740E-001,1.17227E+000,-9.85347E-003,0.00000E+000,6.83659E-004,9.39779E-001,0.00000E+000,-1.25857E-003,-9.25331E-002,1.00000E+000,24
879,1347,1.65148E+000,6.32511E-001,-6.55555E-003,5.18448E+000,-6.65365E-001,-1.25150E-003,5.22700E+000,1.45159E-002,5.20700E-001,0,7.97701E+001,-1.10718E+001,9.97896E-001,3.60888E+001,-4.60463E+001,9.97504E-001,1.57335E-001,-6.63857E-002,-3.82348E-003,1.57400E-001,-6.64510E-002,-9.78827E-001,1.58034E-001,1.17036E+000,-9.92427E-003,0.00000E+000,8.98982E-004,9.39787E-001,0.00000E+000,-2.47478E-003,-9.25783E-002,1.00000E+000,24
879,1307,1.59287E+000,-1.77227E+000,2.05912E-001,5.18365E+000,-4.94760E-001,2.31941E-001,5.21237E+000,1.68877E-002,4.73380E-001,0,7.89783E+001,-8.81520E+000,9.97133E-001,3.52438E+001,-4.36651E+001,9.95332E-001,1.63775E-001,-6.63975E-002,-3.95775E-003,1.63843E-001,-6.64655E-002,-9.84799E-001,1.64812E-001,1.17793E+000,-9.75837E-003,0.00000E+000,4.34151E-005,9.39768E-001,0.00000E+000,2.35775E-003,-9.24724E-002,1.00000E+000,24
879,1317,1.60380E+000,-1.18187E+000,1.16488E-001,5.18969E+000,-5.40378E-001,1.82835E-001,5.22095E+000,1.23703E-002,4.33896E-001,0,7.92443E+001,-9.44005E+000,9.98449E-001,3.53151E+001,-4.43745E+001,9.97684E-001,1.62182E-001,-6.63961E-002,-3.91298E-003,1.62249E-001,-6.64631E-002,-9.80452E-001,1.63130E-001,1.17605E+000,-9.77264E-003,0.00000E+000,2.55813E-004,9.39770E-001,0.00000E+000,1.15805E-003,-9.24815E-002,1.00000E+000,24
979,1307,9.27749E+000,-1.62914E+000,1.36174E-001,6.33753E+000,-4.12968E-001,1.09634E-001,6.35191E+000,1.77051E-002,4.31331E-001,0,9.63327E+001,-7.40113E+000,9.99360E-001,5.39941E+001,-4.03443E+001,9.99090E-001,1.54381E-001,-6.37317E-002,6.17453E-004,1.54383E-001,-6.37334E-002,1.62196E-001,1.55163E-001,1.16677E+000,-3.05132E-002,0.00000E+000,2.72846E-002,9.40926E-001,0.00000E+000,-2.20597E-002,-8.02965E-002,1.00000E+000,24
979,1317,9.25585E+000,-1.02905E+000,5.40409E-002,6.30777E+000,-4.53345E-001,5.60761E-002,6.32429E+000,1.04048E-002,4.33067E-001,0,9.60774E+001,-7.94610E+000,9.98958E-001,5.35824E+001,-4.08841E+001,9.98369E-001,1.53657E-001,-6.37169E-002,7.89447E-004,1.53660E-001,-6.37198E-002,2.08080E-001,1.54404E-001,1.16586E+000,-3.05246E-002,0.00000E+000,2.74271E-002,9.40928E-001,0.00000E+000,-1.92894E-002,-8.02615E-002,1.00000E+000,24
979,1327,9.24427E+000,-4.27213E-001,-5.23632E-003,6.28396E+000,-4.94190E-001,6.88644E-003,6.30336E+000,1.17708E-002,4.37397E-001,0,9.58925E+001,-8.51638E+000,9.97768E-001,5.33719E+001,-4.14435E+001,9.96982E-001,1.52923E-001,-6.36997E-002,9.58961E-004,1.52927E-001,-6.37039E-002,2.53634E-001,1.53636E-001,1.16496E+000,-3.05419E-002,0.00000E+000,2.75697E-002,9.40930E-001,0.00000E+000,-1.65160E-002,-8.02085E-002,1.00000E+000,24
979,1337,9.24449E+000,1.80744E-001,-4.21241E-002,6.26778E+000,-5.31959E-001,-3.84442E-002,6.29043E+000,1.60772E-002,4.23814E-001,0,9.58044E+001,-9.03491E+000,9.96462E-001,5.33897E+001,-4.19653E+001,9.96110E-001,1.52180E-001,-6.36799E-002,1.12612E-003,1.52185E-001,-6.36858E-002,2.98896E-001,1.52858E-001,1.16405E+000,-3.05652E-002,0.00000E+000,2.77128E-002,9.40934E-001,0.00000E+000,-1.37360E-002,-8.01374E-002,1.00000E+000,24
979,1347,9.25192E+000,7.99756E-001,-4.15389E-002,6.25032E+000,-5.65386E-001,-8.38858E-002,6.27640E+000,1.70007E-002,4.29984E-001,0,9.56874E+001,-9.47875E+000,9.95129E-001,5.35943E+001,-4.23899E+001,9.94500E-001,1.51424E-001,-6.36551E-002,1.28886E-003,1.51431E-001,-6.36628E-002,3.43329E-001,1.52070E-001,1.16313E+000,-3.06004E-002,0.00000E+000,2.78566E-002,9.40940E-001,0.00000E+000,-1.09401E-002,-8.00297E-002,1.00000E+000,24
979,1297,9.27964E+000,-2.21115E+000,2.24835E-001,6.34619E+000,-3.55064E-001,1.62539E-001,6.35820E+000,1.50748E-002,4.54421E-001,0,9.62620E+001,-6.60002E+000,9.98974E-001,5.41190E+001,-3.95283E+001,9.98365E-001,1.55098E-001,-6.37455E-002,4.44279E-004,1.55099E-001,-6.37464E-002,1.16317E-001,1.55916E-001,1.16767E+000,-3.05039E-002,0.00000E+000,2.71420E-002,9.40924E-001,0.00000E+000,-2.48302E-002,-8.03248E-002,1.00000E+000,24
869,1317,8.33701E-001,-1.18025E+000,1.14328E-001,5.06798E+000,-5.34743E-001,1.75201E-001,5.09912E+000,9.35897E-003,4.59723E-001,0,7.74579E+001,-9.32315E+000,9.98820E-001,3.34240E+001,-4.44332E+001,9.97749E-001,1.62342E-001,-6.67165E-002,-4.02884E-003,1.62413E-001,-6.67874E-002,-1.00734E+000,1.63264E-001,1.17626E+000,-8.03818E-003,0.00000E+000,-1.47699E-003,9.39414E-001,0.00000E+000,2.79500E-003,-9.18331E-002,1.00000E+000,24
869,1327,8.48214E-001,-5.85212E-001,4.14905E-002,5.07116E+000,-5.81288E-001,1.11541E-001,5.10558E+000,1.27420E-002,5.21579E-001,0,7.77218E+001,-9.95934E+000,9.98110E-001,3.35876E+001,-4.50566E+001,9.97534E-001,1.61044E-001,-6.67138E-002,-3.97677E-003,1.61113E-001,-6.67833E-002,-1.00001E+000,1.61896E-001,1.17473E+000,-8.06461E-003,0.00000E+000,-1.21737E-003,9.39418E-001,0.00000E+000,1.25872E-003,-9.18596E-002,1.00000E+000,24
869,1337,8.64871E-001,1.42268E-002,-5.98733E-004,5.07101E+000,-6.27199E-001,5.23055E-002,5.10992E+000,1.37608E-002,5.08068E-001,0,7.79152E+001,-1.05581E+001,9.97187E-001,3.38549E+001,-4.57164E+001,9.96901E-001,1.59738E-001,-6.67101E-002,-3.92990E-003,1.59806E-001,-6.67782E-002,-9.93943E-001,1.60523E-001,1.17319E+000,-8.10364E-003,0.00000E+000,-9.56996E-004,9.39425E-001,0.00000E+000,-2.81964E-004,-9.18988E-002,1.00000E+000,24
869,1347,8.86786E-001,6.30132E-001,-1.02774E-002,5.07092E+000,-6.59712E-001,3.54905E-004,5.11365E+000,1.75822E-002,5.05072E-001,0,7.80760E+001,-1.09815E+001,9.97922E-001,3.42791E+001,-4.61886E+001,9.97524E-001,1.58425E-001,-6.67053E-002,-3.88807E-003,1.58492E-001,-6.67724E-002,-9.89123E-001,1.59145E-001,1.17165E+000,-8.15465E-003,0.00000E+000,-6.96127E-004,9.39433E-001,0.00000E+000,-1.82560E-003,-9.19499E-002,1.00000E+000,24
869,1307,8.28590E-001,-1.76961E+000,2.15507E-001,5.06721E+000,-4.88053E-001,2.33653E-001,5.09602E+000,1.36873E-002,4.95443E-001,0,7.72419E+001,-8.71020E+000,9.97532E-001,3.34698E+001,-4.37320E+001,9.96504E-001,1.63630E-001,-6.67178E-002,-4.08740E-003,1.63703E-001,-6.67903E-002,-1.01625E+000,1.64624E-001,1.17778E+000,-8.02786E-003,0.00000E+000,-1.73537E-003,9.39412E-001,0.00000E+000,4.32387E-003,-9.18228E-002,1.00000E+000,24
989,1307,1.00323E+001,-1.59443E+000,1.20566E-001,6.43555E+000,-3.85224E-001,8.34171E-002,6.44760E+000,1.42737E-002,4.67616E-001,0,9.78338E+001,-6.94630E+000,9.98397E-001,5.56706E+001,-3.96604E+001,9.97917E-001,1.53496E-001,-6.36034E-002,4.90259E-004,1.53497E-001,-6.36045E-002,1.29386E-001,1.54246E-001,1.16567E+000,-3.13809E-002,0.00000E+000,2.75916E-002,9.40843E-001,0.00000E+000,-2.03378E-002,-7.77217E-002,1.00000E+000,24
989,1317,1.00087E+001,-9.91748E-001,3.99474E-002,6.40491E+000,-4.24162E-001,3.68944E-002,6.41905E+000,1.42250E-002,5.16876E-001,0,9.75419E+001,-7.48177E+000,9.98862E-001,5.52309E+001,-4.01379E+001,9.98046E-001,1.53085E-001,-6.35849E-002,7.22592E-004,1.53087E-001,-6.35874E-002,1.91078E-001,1.53816E-001,1.16514E+000,-3.13867E-002,0.00000E+000,2.78445E-002,9.40846E-001,0.00000E+000,-1.75850E-002,-7.76918E-002,1.00000E+000,24
989,1327,1.00088E+001,-3.93101E-001,-9.07079E-003,6.39076E+000,-4.70500E-001,-1.06233E-002,6.40806E+000,1.79772E-002,5.23576E-001,0,9.74991E+001,-8.13033E+000,9.97975E-001,5.52216E+001,-4.07643E+001,9.96554E-001,1.52665E-001,-6.35608E-002,9.52464E-004,1.52669E-001,-6.35650E-002,2.52378E-001,1.53380E-001,1.16461E+000,-3.13986E-002,0.00000E+000,2.80978E-002,9.40851E-001,0.00000E+000,-1.48289E-002,-7.76305E-002,1.00000E+000,24
989,1297,1.00509E+001,-2.18737E+000,2.21800E-001,6.45982E+000,-3.37990E-001,1.44987E-001,6.47028E+000,1.31255E-002,4.63226E-001,0,9.79704E+001,-6.32566E+000,9.98227E-001,5.60726E+001,-3.90537E+001,9.97513E-001,1.53899E-001,-6.36209E-002,2.57628E-004,1.53899E-001,-6.36212E-002,6.78603E-002,1.54667E-001,1.16621E+000,-3.13761E-002,0.00000E+000,2.73390E-002,9.40841E-001,0.00000E+000,-2.30865E-002,-7.77461E-002,1.00000E+000,24
989,1337,1.00084E+001,2.09854E-001,-3.65438E-002,6.37101E+000,-5.13163E-001,-5.88689E-002,6.39192E+000,1.43954E-002,4.42283E-001,0,9.73676E+001,-8.71694E+000,9.96229E-001,5.52457E+001,-4.14164E+001,9.96199E-001,1.52239E-001,-6.35329E-002,1.17986E-003,1.52245E-001,-6.35394E-002,3.13286E-001,1.52937E-001,1.16407E+000,-3.14145E-002,0.00000E+000,2.83506E-002,9.40859E-001,0.00000E+000,-1.20778E-002,-7.75480E-002,1.00000E+000,24
989,1347,1.00154E+001,8.27097E-001,-4.19473E-002,6.35531E+000,-5.46197E-001,-1.00310E-001,6.37953E+000,1.54965E-002,4.39921E-001,0,9.72658E+001,-9.17469E+000,9.97971E-001,5.54313E+001,-4.18579E+001,9.98120E-001,1.51802E-001,-6.35022E-002,1.40685E-003,1.51811E-001,-6.35114E-002,3.74363E-001,1.52484E-001,1.16354E+000,-3.14334E-002,0.00000E+000,2.86047E-002,9.40868E-001,0.00000E+000,-9.31209E-003,-7.74505E-002,1.00000E+000,24
859,1327,8.42809E-002,-5.82210E-001,3.92813E-002,4.95547E+000,-5.73601E-001,1.04597E-001,4.98965E+000,1.21834E-002,5.17133E-001,0,7.60204E+001,-9.80270E+000,9.97413E-001,3.17966E+001,-4.51102E+001,9.96827E-001,1.61290E-001,-6.68046E-002,-3.85527E-003,1.61355E-001,-6.68698E-002,-9.68049E-001,1.62141E-001,1.17503E+000,-6.55823E-003,0.00000E+000,-2.23883E-003,9.39245E-001,0.00000E+000,1.92712E-003,-9.08594E-002,1.00000E+000,24
859,1337,1.04642E-001,1.98957E-002,-6.29811E-004,4.95932E+000,-6.15788E-001,4.81965E-002,4.99764E+000,1.41122E-002,5.36603E-001,0,7.62634E+001,-1.03781E+001,9.97123E-001,3.21268E+001,-4.57184E+001,9.96628E-001,1.60328E-001,-6.68025E-002,-3.83017E-003,1.60393E-001,-6.68671E-002,-9.65828E-001,1.61130E-001,1.17389E+000,-6.58654E-003,0.00000E+000,-2.02424E-003,9.39250E-001,0.00000E+000,2.81903E-004,-9.09005E-002,1.00000E+000,24
859,1347,1.27623E-001,6.26789E-001,-7.66263E-003,4.95983E+000,-6.57587E-001,-4.20304E-003,5.00324E+000,1.91182E-002,4.98584E-001,0,7.64367E+001,-1.09260E+001,9.98262E-001,3.25735E+001,-4.63545E+001,9.97885E-001,1.59360E-001,-6.67998E-002,-3.80930E-003,1.59424E-001,-6.68639E-002,-9.64693E-001,1.60113E-001,1.17276E+000,-6.62500E-003,0.00000E+000,-1.80888E-003,9.39258E-001,0.00000E+000,-1.36921E-003,-9.09564E-002,1.00000E+000,24
859,1307,6.36979E-002,-1.76516E+000,2.17611E-001,4.95014E+000,-4.81166E-001,2.29951E-001,4.97879E+000,1.65448E-002,5.87741E-001,0,7.55114E+001,-8.59657E+000,9.97966E-001,3.16745E+001,-4.37205E+001,9.97671E-001,1.63192E-001,-6.68067E-002,-3.91790E-003,1.63259E-001,-6.68734E-002,-9.75624E-001,1.64145E-001,1.17728E+000,-6.53181E-003,0.00000E+000,-2.66568E-003,9.39240E-001,0.00000E+000,5.19971E-003,-9.08210E-002,1.00000E+000,24
859,1317,7.47858E-002,-1.18206E+000,1.12376E-001,4.95689E+000,-5.33526E-001,1.67141E-001,4.98832E+000,1.28904E-002,5.14208E-001,0,7.58339E+001,-9.27590E+000,9.97872E-001,3.17099E+001,-4.45297E+001,9.96270E-001,1.62244E-001,-6.68060E-002,-3.88429E-003,1.62310E-001,-6.68719E-002,-9.71264E-001,1.63146E-001,1.17615E+000,-6.53943E-003,0.00000E+000,-2.45262E-003,9.39241E-001,0.00000E+000,3.56618E-003,-9.08321E-002,1.00000E+000,24
999,1337,1.07684E+001,2.34282E-001,-4.23381E-002,6.47607E+000,-4.93171E-001,-6.39167E-002,6.49513E+000,1.18823E-002,4.04457E-001,0,9.89063E+001,-8.41812E+000,9.99133E-001,5.70247E+001,-4.09437E+001,9.98511E-001,1.52120E-001,-6.34701E-002,1.01869E-003,1.52125E-001,-6.34749E-002,2.70721E-001,1.52817E-001,1.16390E+000,-3.18030E-002,0.00000E+000,2.81868E-002,9.40719E-001,0.00000E+000,-9.94254E-003,-7.47628E-002,1.00000E+000,24
999,1347,1.07806E+001,8.54490E-001,-3.55891E-002,6.46305E+000,-5.26387E-001,-1.02987E-001,6.48527E+000,1.07678E-002,4.02855E-001,0,9.88353E+001,-8.86230E+000,9.99255E-001,5.73119E+001,-4.13635E+001,9.98763E-001,1.51973E-001,-6.34385E-002,1.24817E-003,1.51980E-001,-6.34457E-002,3.31978E-001,1.52669E-001,1.16371E+000,-3.18104E-002,0.00000E+000,2.84469E-002,9.40729E-001,0.00000E+000,-7.32165E-003,-7.46613E-002,1.00000E+000,24
999,1307,1.07951E+001,-1.56615E+000,1.13945E-001,6.54107E+000,-3.63985E-001,6.64114E-002,6.55152E+000,9.65916E-003,4.51346E-001,0,9.94163E+001,-6.58581E+000,9.98674E-001,5.74919E+001,-3.91206E+001,9.98601E-001,1.52516E-001,-6.35371E-002,3.30021E-004,1.52517E-001,-6.35376E-002,8.75188E-002,1.53222E-001,1.16447E+000,-3.17917E-002,0.00000E+000,2.74137E-002,9.40703E-001,0.00000E+000,-1.77342E-002,-7.49170E-002,1.00000E+000,24
999,1317,1.07767E+001,-9.66785E-001,3.04665E-002,6.51528E+000,-4.05861E-001,1.55414E-002,6.52792E+000,1.59222E-002,5.04399E-001,0,9.92158E+001,-7.17260E+000,9.97867E-001,5.71274E+001,-3.96387E+001,9.94895E-001,1.52391E-001,-6.35188E-002,5.60450E-004,1.52392E-001,-6.35202E-002,1.48725E-001,1.53094E-001,1.16428E+000,-3.17939E-002,0.00000E+000,2.76714E-002,9.40706E-001,0.00000E+000,-1.51372E-002,-7.48873E-002,1.00000E+000,24
999,1327,1.07741E+001,-3.72909E-001,-1.59670E-002,6.49988E+000,-4.55661E-001,-2.25706E-002,6.51587E+000,1.76122E-002,4.93979E-001,0,9.91239E+001,-7.89537E+000,9.98322E-001,5.70802E+001,-4.03517E+001,9.96651E-001,1.52259E-001,-6.34964E-002,7.90183E-004,1.52261E-001,-6.34993E-002,2.09837E-001,1.52959E-001,1.16409E+000,-3.17977E-002,0.00000E+000,2.79293E-002,9.40711E-001,0.00000E+000,-1.25382E-002,-7.48355E-002,1.00000E+000,24
999,1297,1.08160E+001,-2.16666E+000,2.15992E-001,6.56734E+000,-3.24527E-001,1.26892E-001,6.57658E+000,1.06413E-002,4.65621E-001,0,9.95878E+001,-6.08947E+000,9.97676E-001,5.79303E+001,-3.86249E+001,9.96157E-001,1.52635E-001,-6.35538E-002,9.93541E-005,1.52635E-001,-6.35539E-002,2.63315E-002,1.53345E-001,1.16466E+000,-3.17902E-002,0.00000E+000,2.71563E-002,9.40701E-001,0.00000E+000,-2.03289E-002,-7.49385E-002,1.00000E+000,24
849,1337,-6.57611E-001,2.00568E-002,4.76843E-003,4.84435E+000,-6.12333E-001,4.56429E-002,4.88311E+000,1.69212E-002,5.53204E-001,0,7.45554E+001,-1.02896E+001,9.98178E-001,3.03839E+001,-4.58236E+001,9.97497E-001,1.60639E-001,-6.66210E-002,-3.46707E-003,1.60691E-001,-6.66739E-002,-8.73832E-001,1.61465E-001,1.17426E+000,-5.27149E-003,0.00000E+000,-2.37957E-003,9.39307E-001,0.00000E+000,2.33269E-004,-8.95895E-002,1.00000E+000,24
849,1347,-6.39313E-001,6.22338E-001,-9.91547E-003,4.84300E+000,-6.55534E-001,-1.73400E-003,4.88716E+000,1.48879E-002,4.81783E-001,0,7.46854E+001,-1.08707E+001,9.98465E-001,3.07416E+001,-4.65334E+001,9.98237E-001,1.60060E-001,-6.66186E-002,-3.43802E-003,1.60113E-001,-6.66708E-002,-8.68732E-001,1.60857E-001,1.17358E+000,-5.29165E-003,0.00000E+000,-2.17638E-003,9.39313E-001,0.00000E+000,-1.31952E-003,-8.96356E-002,1.00000E+000,24
849,1357,-6.07438E-001,1.23924E+000,2.54989E-002,4.84477E+000,-6.93701E-001,-4.96838E-002,4.89444E+000,1.24417E-002,4.85998E-001,0,7.48547E+001,-1.13808E+001,9.98636E-001,3.14260E+001,-4.70915E+001,9.98594E-001,1.59474E-001,-6.66151E-002,-3.41321E-003,1.59526E-001,-6.66666E-002,-8.64717E-001,1.60241E-001,1.17290E+000,-5.32246E-003,0.00000E+000,-1.97130E-003,9.39322E-001,0.00000E+000,-2.88668E-003,-8.97061E-002,1.00000E+000,24
849,1327,-6.71183E-001,-5.77314E-001,4.55309E-002,4.84601E+000,-5.65826E-001,9.73080E-002,4.87990E+000,1.65063E-002,5.31644E-001,0,7.44112E+001,-9.64604E+000,9.98436E-001,3.01606E+001,-4.51424E+001,9.97918E-001,1.61214E-001,-6.66229E-002,-3.49807E-003,1.61268E-001,-6.66766E-002,-8.79410E-001,1.62071E-001,1.17494E+000,-5.25583E-003,0.00000E+000,-2.58276E-003,9.39302E-001,0.00000E+000,1.78596E-003,-8.95536E-002,1.00000E+000,24
1009,1337,1.15354E+001,2.70854E-001,-5.56198E-002,6.58925E+000,-4.63389E-001,-6.87970E-002,6.60589E+000,1.62259E-002,4.34126E-001,0,1.00563E+002,-7.95054E+000,9.99104E-001,5.89025E+001,-4.02321E+001,9.98948E-001,1.51957E-001,-6.33488E-002,7.21443E-004,1.51959E-001,-6.33512E-002,1.91983E-001,1.52657E-001,1.16370E+000,-3.18606E-002,0.00000E+000,2.75296E-002,9.40676E-001,0.00000E+000,-8.01630E-003,-7.22805E-002,1.00000E+000,24
1009,1347,1.15427E+001,8.69953E-001,-3.85453E-002,6.56909E+000,-5.17324E-001,-1.06651E-001,6.59029E+000,1.10294E-002,4.09064E-001,0,1.00386E+002,-8.73484E+000,9.99596E-001,5.91284E+001,-4.10119E+001,9.99277E-001,1.52032E-001,-6.33233E-002,9.04147E-004,1.52036E-001,-6.33271E-002,2.40545E-001,1.52741E-001,1.16377E+000,-3.18574E-002,0.00000E+000,2.77203E-002,9.40684E-001,0.00000E+000,-5.79527E-003,-7.21869E-002,1.00000E+000,24
1009,1297,1.15758E+001,-2.14503E+000,2.06973E-001,6.67064E+000,-3.08147E-001,1.12436E-001,6.67870E+000,1.36891E-002,4.05929E-001,0,1.01127E+002,-5.80112E+000,9.96570E-001,5.97044E+001,-3.82069E+001,9.95388E-001,1.51607E-001,-6.34116E-002,-3.33710E-006,1.51607E-001,-6.34116E-002,-8.89236E-004,1.52280E-001,1.16339E+000,-3.18654E-002,0.00000E+000,2.67718E-002,9.40664E-001,0.00000E+000,-1.68413E-002,-7.24201E-002,1.00000E+000,24
1009,1307,1.15594E+001,-1.54164E+000,1.12651E-001,6.64881E+000,-3.44189E-001,5.97285E-002,6.65798E+000,1.33779E-002,4.14106E-001,0,1.00994E+002,-6.28509E+000,9.97944E-001,5.93510E+001,-3.86606E+001,9.98168E-001,1.51701E-001,-6.33987E-002,1.77391E-004,1.51701E-001,-6.33988E-002,4.72513E-002,1.52381E-001,1.16347E+000,-3.18648E-002,0.00000E+000,2.69607E-002,9.40666E-001,0.00000E+000,-1.46407E-002,-7.24018E-002,1.00000E+000,24
1009,1317,1.15477E+001,-9.41590E-001,3.92962E-002,6.62946E+000,-3.85482E-001,1.77558E-002,6.64068E+000,1.36428E-002,4.48026E-001,0,1.00860E+002,-6.87866E+000,9.98325E-001,5.91113E+001,-3.91971E+001,9.98340E-001,1.51791E-001,-6.33844E-002,3.58400E-004,1.51792E-001,-6.33850E-002,9.54324E-002,1.52478E-001,1.16354E+000,-3.18639E-002,0.00000E+000,2.71500E-002,9.40668E-001,0.00000E+000,-1.24365E-002,-7.23755E-002,1.00000E+000,24
849,1317,-6.88669E-001,-1.17126E+000,1.17227E-001,4.84070E+000,-5.18801E-001,1.65039E-001,4.87122E+000,1.68453E-002,6.03541E-001,0,7.41045E+001,-9.06474E+000,9.98085E-001,2.99482E+001,-4.44296E+001,9.96745E-001,1.61785E-001,-6.66244E-002,-3.53033E-003,1.61839E-001,-6.66789E-002,-8.85290E-001,1.62673E-001,1.17562E+000,-5.24328E-003,0.00000E+000,-2.78536E-003,9.39298E-001,0.00000E+000,3.33422E-003,-8.95249E-002,1.00000E+000,24
1009,1327,1.15412E+001,-3.39730E-001,-1.52625E-002,6.60827E+000,-4.29248E-001,-3.56631E-002,6.62229E+000,1.28592E-002,4.27453E-001,0,1.00733E+002,-7.45894E+000,9.99080E-001,5.89871E+001,-3.97729E+001,9.98911E-001,1.51876E-001,-6.33662E-002,5.40137E-004,1.51878E-001,-6.33676E-002,1.43779E-001,1.52570E-001,1.16362E+000,-3.18622E-002,0.00000E+000,2.73399E-002,9.40672E-001,0.00000E+000,-1.02257E-002,-7.23256E-002,1.00000E+000,24
849,1307,-7.04618E-001,-1.76377E+000,2.14986E-001,4.82910E+000,-4.75103E-001,2.20523E-001,4.85742E+000,1.81609E-002,6.09236E-001,0,7.37359E+001,-8.48459E+000,9.98153E-001,2.98204E+001,-4.37825E+001,9.97227E-001,1.62351E-001,-6.66250E-002,-3.56582E-003,1.62407E-001,-6.66805E-002,-8.91971E-001,1.63270E-001,1.17629E+000,-5.23871E-003,0.00000E+000,-2.98732E-003,9.39297E-001,0.00000E+000,4.87761E-003,-8.95145E-002,1.00000E+000,24
839,1337,-1.42079E+000,1.20575E-002,3.10236E-002,4.72779E+000,-6.15299E-001,6.24305E-002,4.76806E+000,3.13123E-002,5.26866E-001,0,7.27593E+001,-1.03525E+001,9.98511E-001,2.86791E+001,-4.61220E+001,9.97604E-001,1.60682E-001,-6.67287E-002,-2.92951E-003,1.60720E-001,-6.67664E-002,-7.37922E-001,1.61485E-001,1.17431E+000,-4.15855E-003,0.00000E+000,-2.18994E-003,9.39083E-001,0.00000E+000,-4.67189E-004,-8.81476E-002,1.00000E+000,24
839,1347,-1.40320E+000,6.16365E-001,-4.51466E-003,4.72782E+000,-6.55223E-001,3.70251E-003,4.77301E+000,1.23723E-002,4.70171E-001,0,7.29471E+001,-1.08595E+001,9.98668E-001,2.89790E+001,-4.67498E+001,9.98218E-001,1.60318E-001,-6.67259E-002,-2.88507E-003,1.60355E-001,-6.67626E-002,-7.27907E-001,1.61101E-001,1.17389E+000,-4.16994E-003,0.00000E+000,-1.96303E-003,9.39089E-001,0.00000E+000,-2.08135E-003,-8.81907E-002,1.00000E+000,24
839,1357,-1.36974E+000,1.23850E+000,2.72819E-002,4.73231E+000,-6.87188E-001,-4.35476E-002,4.78214E+000,1.02575E-002,4.70675E-001,0,7.31538E+001,-1.12749E+001,9.98904E-001,2.96828E+001,-4.72228E+001,9.98666E-001,1.59948E-001,-6.67214E-002,-2.84340E-003,1.59983E-001,-6.67571E-002,-7.18582E-001,1.60712E-001,1.17346E+000,-4.18869E-003,0.00000E+000,-1.73404E-003,9.39099E-001,0.00000E+000,-3.71035E-003,-8.82617E-002,1.00000E+000,24
1019,1337,1.23097E+001,3.00674E-001,-4.25173E-002,6.70323E+000,-4.43835E-001,-7.38918E-002,6.71832E+000,1.49541E-002,4.99485E-001,0,1.02228E+002,-7.66483E+000,9.98769E-001,6.09476E+001,-3.96643E+001,9.98663E-001,1.51774E-001,-6.32524E-002,4.28677E-004,1.51775E-001,-6.32532E-002,1.14224E-001,1.52474E-001,1.16347E+000,-3.18526E-002,0.00000E+000,2.68492E-002,9.40661E-001,0.00000E+000,-6.24297E-003,-7.04626E-002,1.00000E+000,24
1019,1347,1.23082E+001,9.00413E-001,-3.67295E-002,6.67987E+000,-4.94287E-001,-9.78477E-002,6.69885E+000,1.36655E-002,4.43084E-001,0,1.01956E+002,-8.40154E+000,9.99009E-001,6.10139E+001,-4.04247E+001,9.99021E-001,1.51987E-001,-6.32336E-002,5.87377E-004,1.51989E-001,-6.32352E-002,1.56369E-001,1.52701E-001,1.16371E+000,-3.18445E-002,0.00000E+000,2.70136E-002,9.40666E-001,0.00000E+000,-4.36492E-003,-7.03996E-002,1.00000E+000,24
839,1327,-1.44883E+000,-5.75790E-001,4.74795E-002,4.71933E+000,-5.56907E-001,1.11877E-001,4.75340E+000,2.82526E-002,5.62527E-001,0,7.24678E+001,-9.53771E+000,9.98855E-001,2.81771E+001,-4.52125E+001,9.98040E-001,1.61045E-001,-6.67317E-002,-2.97358E-003,1.61084E-001,-6.67705E-002,-7.47816E-001,1.61867E-001,1.17474E+000,-4.14584E-003,0.00000E+000,-2.41731E-003,9.39076E-001,0.00000E+000,1.15027E-003,-8.80994E-002,1.00000E+000,24
1019,1327,1.23076E+001,-3.16134E-001,-2.43598E-002,6.71942E+000,-4.11909E-001,-4.16781E-002,6.73216E+000,1.41650E-002,4.45992E-001,0,1.02363E+002,-7.19186E+000,9.98687E-001,6.08687E+001,-3.92789E+001,9.98287E-001,1.51557E-001,-6.32695E-002,2.70381E-004,1.51558E-001,-6.32698E-002,7.21122E-002,1.52244E-001,1.16323E+000,-3.18594E-002,0.00000E+000,2.66848E-002,9.40656E-001,0.00000E+000,-8.12037E-003,-7.05152E-002,1.00000E+000,24
1019,1317,1.23140E+001,-9.22204E-001,3.42091E-002,6.73683E+000,-3.73361E-001,-3.51207E-004,6.74717E+000,1.47401E-002,4.31502E-001,0,1.02474E+002,-6.66388E+000,9.98722E-001,6.09976E+001,-3.87962E+001,9.98304E-001,1.51338E-001,-6.32831E-002,1.13451E-004,1.51338E-001,-6.32832E-002,3.02873E-002,1.52012E-001,1.16299E+000,-3.18635E-002,0.00000E+000,2.65209E-002,9.40653E-001,0.00000E+000,-9.99294E-003,-7.05471E-002,1.00000E+000,24
839,1317,-1.45594E+000,-1.16873E+000,1.16247E-001,4.72019E+000,-5.10500E-001,1.56386E-001,4.75029E+000,1.42419E-002,5.40155E-001,0,7.23296E+001,-8.89202E+000,9.98064E-001,2.81188E+001,-4.45216E+001,9.96159E-001,1.61403E-001,-6.67330E-002,-3.02061E-003,1.61443E-001,-6.67730E-002,-7.58442E-001,1.62244E-001,1.17517E+000,-4.14063E-003,0.00000E+000,-2.64368E-003,9.39073E-001,0.00000E+000,2.76058E-003,-8.80797E-002,1.00000E+000,24
1019,1297,1.23349E+001,-2.11865E+000,1.88818E-001,6.77408E+000,-2.86697E-001,9.49124E-002,6.78081E+000,1.39783E-002,4.26705E-001,0,1.02676E+002,-5.46036E+000,9.98817E-001,6.14544E+001,-3.76559E+001,9.98074E-001,1.50889E-001,-6.33075E-002,-1.98908E-004,1.50889E-001,-6.33077E-002,-5.32061E-002,1.51539E-001,1.16251E+000,-3.18695E-002,0.00000E+000,2.61941E-002,9.40649E-001,0.00000E+000,-1.37260E-002,-7.05943E-002,1.00000E+000,24
1019,1307,1.23181E+001,-1.51946E+000,9.76606E-002,6.75116E+000,-3.29229E-001,4.22790E-002,6.75932E+000,1.76133E-002,4.71850E-001,0,1.02530E+002,-6.03811E+000,9.98936E-001,6.11021E+001,-3.81610E+001,9.98369E-001,1.51115E-001,-6.32963E-002,-4.27809E-005,1.51115E-001,-6.32963E-002,-1.14320E-002,1.51777E-001,1.16275E+000,-3.18672E-002,0.00000E+000,2.63577E-002,9.40651E-001,0.00000E+000,-1.18570E-002,-7.05764E-002,1.00000E+000,24
839,1307,-1.46253E+000,-1.75763E+000,2.14107E-001,4.71743E+000,-4.63364E-001,2.09650E-001,4.74476E+000,1.24105E-002,5.14285E-001,0,7.21037E+001,-8.24515E+000,9.97508E-001,2.81372E+001,-4.38317E+001,9.95823E-001,1.61757E-001,-6.67337E-002,-3.06863E-003,1.61798E-001,-6.67749E-002,-7.69297E-001,1.62618E-001,1.17559E+000,-4.13809E-003,0.00000E+000,-2.86939E-003,9.39072E-001,0.00000E+000,4.36621E-003,-8.80701E-002,1.00000E+000,24
829,1337,-2.18579E+000,1.16694E-002,8.77086E-003,4.61221E+000,-6.07816E-001,4.65019E-002,4.65232E+000,2.27246E-002,5.31322E-001,0,7.10812E+001,-1.02050E+001,9.97387E-001,2.68397E+001,-4.61825E+001,9.96557E-001,1.60262E-001,-6.67429E-002,-2.38158E-003,1.60287E-001,-6.67679E-002,-6.01020E-001,1.61030E-001,1.17382E+000,-3.35795E-003,0.00000E+000,-1.72157E-003,9.38952E-001,0.00000E+000,-1.31682E-003,-8.67287E-002,1.00000E+000,24
829,1347,-2.16340E+000,6.17237E-001,2.62056E-003,4.61463E+000,-6.49617E-001,4.62784E-003,4.66013E+000,1.13738E-002,4.94187E-001,0,7.12487E+001,-1.07645E+001,9.97539E-001,2.72835E+001,-4.68463E+001,9.97319E-001,1.60051E-001,-6.67444E-002,-2.40934E-003,1.60077E-001,-6.67700E-002,-6.08583E-001,1.60808E-001,1.17358E+000,-3.36538E-003,0.00000E+000,-1.62444E-003,9.38955E-001,0.00000E+000,-3.08396E-003,-8.67826E-002,1.00000E+000,24
829,1357,-2.13367E+000,1.23616E+000,2.66287E-002,4.61704E+000,-6.83673E-001,-4.33842E-002,4.66758E+000,1.13678E-002,5.00429E-001,0,7.14272E+001,-1.12108E+001,9.98477E-001,2.79132E+001,-4.73512E+001,9.98453E-001,1.59836E-001,-6.67465E-002,-2.43849E-003,1.59862E-001,-6.67728E-002,-6.16523E-001,1.60583E-001,1.17333E+000,-3.37552E-003,0.00000E+000,-1.52685E-003,9.38959E-001,0.00000E+000,-4.85952E-003,-8.68562E-002,1.00000E+000,24
1029,1337,1.30606E+001,3.17680E-001,-4.98703E-002,6.79928E+000,-4.31316E-001,-7.41384E-002,6.81335E+000,1.30220E-002,4.63973E-001,0,1.03609E+002,-7.47849E+000,9.98196E-001,6.25948E+001,-3.93034E+001,9.97685E-001,1.51753E-001,-6.29831E-002,2.21273E-004,1.51753E-001,-6.29833E-002,5.90399E-002,1.52482E-001,1.16345E+000,-3.16667E-002,0.00000E+000,2.61826E-002,9.40838E-001,0.00000E+000,-4.28774E-003,-6.90607E-002,1.00000E+000,24
1029,1347,1.30618E+001,9.32604E-001,-4.57969E-002,6.77751E+000,-4.68389E-001,-1.03626E-001,6.79447E+000,1.24812E-002,4.75725E-001,0,1.03377E+002,-8.01543E+000,9.98593E-001,6.26992E+001,-3.97889E+001,9.98064E-001,1.52087E-001,-6.29639E-002,3.83720E-004,1.52088E-001,-6.29646E-002,1.02234E-001,1.52836E-001,1.16383E+000,-3.16532E-002,0.00000E+000,2.63579E-002,9.40844E-001,0.00000E+000,-2.54182E-003,-6.89995E-002,1.00000E+000,24
1029,1327,1.30686E+001,-2.92840E-001,-1.91911E-002,6.82301E+000,-3.93954E-001,-4.09795E-002,6.83450E+000,1.40208E-002,4.27991E-001,0,1.03850E+002,-6.94221E+000,9.98346E-001,6.26977E+001,-3.88397E+001,9.97741E-001,1.51417E-001,-6.29988E-002,6.08297E-005,1.51417E-001,-6.29988E-002,1.62548E-002,1.52126E-001,1.16306E+000,-3.16760E-002,0.00000E+000,2.60077E-002,9.40833E-001,0.00000E+000,-6.02910E-003,-6.91026E-002,1.00000E+000,24
829,1327,-2.20840E+000,-5.77002E-001,4.43086E-002,4.60520E+000,-5.52990E-001,9.60748E-002,4.63927E+000,2.27359E-002,5.80665E-001,0,7.08102E+001,-9.45682E+000,9.98057E-001,2.64648E+001,-4.53179E+001,9.97918E-001,1.60469E-001,-6.67417E-002,-2.35470E-003,1.60494E-001,-6.67661E-002,-5.93699E-001,1.61247E-001,1.17406E+000,-3.35215E-003,0.00000E+000,-1.81835E-003,9.38949E-001,0.00000E+000,4.43866E-004,-8.66866E-002,1.00000E+000,24
829,1307,-2.21168E+000,-1.76518E+000,2.34276E-001,4.61422E+000,-4.66035E-001,2.20326E-001,4.64292E+000,1.53711E-002,4.49839E-001,0,7.05337E+001,-8.28073E+000,9.97801E-001,2.66407E+001,-4.41207E+001,9.95868E-001,1.60873E-001,-6.67406E-002,-2.30420E-003,1.60896E-001,-6.67640E-002,-5.79943E-001,1.61670E-001,1.17455E+000,-3.34753E-003,0.00000E+000,-2.01111E-003,9.38948E-001,0.00000E+000,3.95069E-003,-8.66531E-002,1.00000E+000,24
829,1317,-2.21544E+000,-1.17119E+000,1.22055E-001,4.60739E+000,-5.07689E-001,1.56289E-001,4.63791E+000,1.80799E-002,4.94899E-001,0,7.06446E+001,-8.82219E+000,9.97564E-001,2.64290E+001,-4.46954E+001,9.97141E-001,1.60673E-001,-6.67409E-002,-2.32893E-003,1.60697E-001,-6.67648E-002,-5.86680E-001,1.61460E-001,1.17430E+000,-3.34870E-003,0.00000E+000,-1.91486E-003,9.38948E-001,0.00000E+000,2.19961E-003,-8.66616E-002,1.00000E+000,24
1029,1317,1.30756E+001,-9.03015E-001,2.83745E-002,6.84135E+000,-3.60961E-001,-9.45441E-003,6.85087E+000,1.49654E-002,4.38490E-001,0,1.04012E+002,-6.46202E+000,9.98879E-001,6.28151E+001,-3.83858E+001,9.97991E-001,1.51079E-001,-6.30124E-002,-9.78934E-005,1.51079E-001,-6.30125E-002,-2.61985E-002,1.51770E-001,1.16268E+000,-3.16827E-002,0.00000E+000,2.58338E-002,9.40830E-001,0.00000E+000,-7.76165E-003,-6.91330E-002,1.00000E+000,24
1029,1307,1.30867E+001,-1.50026E+000,1.09094E-001,6.86125E+000,-3.16905E-001,4.40962E-002,6.86871E+000,1.30208E-002,4.85603E-001,0,1.04110E+002,-5.87357E+000,9.98967E-001,6.30595E+001,-3.77849E+001,9.97103E-001,1.50739E-001,-6.30248E-002,-2.55862E-004,1.50739E-001,-6.30251E-002,-6.85794E-002,1.51411E-001,1.16229E+000,-3.16879E-002,0.00000E+000,2.56600E-002,9.40828E-001,0.00000E+000,-9.49151E-003,-6.91566E-002,1.00000E+000,24
1029,1297,1.31009E+001,-2.09523E+000,1.96189E-001,6.88209E+000,-2.70135E-001,9.44122E-002,6.88804E+000,1.25337E-002,4.60324E-001,0,1.04230E+002,-5.22746E+000,9.98564E-001,6.33647E+001,-3.71976E+001,9.97393E-001,1.50394E-001,-6.30361E-002,-4.13688E-004,1.50395E-001,-6.30369E-002,-1.11055E-001,1.51049E-001,1.16191E+000,-3.16918E-002,0.00000E+000,2.54860E-002,9.40826E-001,0.00000E+000,-1.12245E-002,-6.91743E-002,1.00000E+000,24
819,1317,-2.97136E+000,-1.18117E+000,1.32556E-001,4.49703E+000,-5.13184E-001,1.57242E-001,4.52894E+000,1.74071E-002,4.70901E-001,0,6.89931E+001,-8.89087E+000,9.96995E-001,2.48091E+001,-4.49843E+001,9.96147E-001,1.59564E-001,-6.65553E-002,-1.80869E-003,1.59578E-001,-6.65697E-002,-4.58260E-001,1.60306E-001,1.17300E+000,-3.09423E-003,0.00000E+000,-1.07048E-003,9.38990E-001,0.00000E+000,1.46677E-003,-8.50289E-002,1.00000E+000,24
819,1327,-2.96699E+000,-5.88898E-001,5.15418E-002,4.49445E+000,-5.58331E-001,1.04685E-001,4.53021E+000,1.70243E-002,4.95246E-001,0,6.91289E+001,-9.51310E+000,9.97812E-001,2.47957E+001,-4.56624E+001,9.97080E-001,1.59461E-001,-6.65573E-002,-1.89381E-003,1.59477E-001,-6.65732E-002,-4.80036E-001,1.60200E-001,1.17288E+000,-3.09554E-003,0.00000E+000,-1.09879E-003,9.38990E-001,0.00000E+000,-1.85945E-004,-8.50467E-002,1.00000E+000,24
819,1337,-2.94865E+000,1.24965E-002,9.71066E-003,4.49800E+000,-6.00698E-001,5.22243E-002,4.53824E+000,1.41335E-002,5.25814E-001,0,6.93513E+001,-1.00856E+001,9.97453E-001,2.50925E+001,-4.62796E+001,9.97123E-001,1.59355E-001,-6.65613E-002,-1.98008E-003,1.59373E-001,-6.65787E-002,-5.02126E-001,1.60090E-001,1.17276E+000,-3.09833E-003,0.00000E+000,-1.12726E-003,9.38989E-001,0.00000E+000,-1.84811E-003,-8.50846E-002,1.00000E+000,24
819,1307,-2.97675E+000,-1.77160E+000,2.16065E-001,4.49553E+000,-4.69568E-001,1.97139E-001,4.52428E+000,1.64282E-002,4.98495E-001,0,6.88332E+001,-8.27100E+000,9.97649E-001,2.48129E+001,-4.42569E+001,9.96526E-001,1.59663E-001,-6.65541E-002,-1.72414E-003,1.59676E-001,-6.65672E-002,-4.36652E-001,1.60410E-001,1.17312E+000,-3.09349E-003,0.00000E+000,-1.04228E-003,9.38991E-001,0.00000E+000,3.11345E-003,-8.50188E-002,1.00000E+000,24
819,1347,-2.92219E+000,6.22987E-001,8.63662E-004,4.50427E+000,-6.37911E-001,5.77835E-003,4.54923E+000,1.28883E-002,4.99891E-001,0,6.95903E+001,-1.05649E+001,9.98520E-001,2.55949E+001,-4.68574E+001,9.98488E-001,1.59246E-001,-6.65668E-002,-2.06714E-003,1.59265E-001,-6.65857E-002,-5.24439E-001,1.59976E-001,1.17263E+000,-3.10212E-003,0.00000E+000,-1.15582E-003,9.38989E-001,0.00000E+000,-3.51568E-003,-8.51361E-002,1.00000E+000,24
819,1357,-2.89557E+000,1.22715E+000,2.97968E-002,4.50324E+000,-6.86704E-001,-4.01119E-002,4.55547E+000,1.60416E-002,5.12847E-001,0,6.97126E+001,-1.12509E+001,9.98058E-001,2.61878E+001,-4.75995E+001,9.97910E-001,1.59134E-001,-6.65742E-002,-2.15528E-003,1.59155E-001,-6.65948E-002,-5.47050E-001,1.59859E-001,1.17251E+000,-3.10731E-003,0.00000E+000,-1.18450E-003,9.38987E-001,0.00000E+000,-5.19022E-003,-8.52067E-002,1.00000E+000,24
1039,1337,1.38247E+001,3.41900E-001,-5.38493E-002,6.90636E+000,-4.13941E-001,-7.78612E-002,6.91919E+000,1.15218E-002,4.79216E-001,0,1.05164E+002,-7.21594E+000,9.98677E-001,6.44570E+001,-3.88114E+001,9.97636E-001,1.51776E-001,-6.26102E-002,-1.82987E-004,1.51776E-001,-6.26103E-002,-4.89043E-002,1.52549E-001,1.16347E+000,-3.15633E-002,0.00000E+000,2.52244E-002,9.41154E-001,0.00000E+000,-2.45622E-003,-6.81633E-002,1.00000E+000,24
1039,1347,1.38247E+001,9.43514E-001,-5.25168E-002,6.88367E+000,-4.62245E-001,-1.08315E-001,6.90002E+000,1.13064E-002,4.20529E-001,0,1.04927E+002,-7.92067E+000,9.99270E-001,6.45342E+001,-3.95305E+001,9.98666E-001,1.52204E-001,-6.25989E-002,-7.89859E-005,1.52204E-001,-6.25990E-002,-2.10684E-002,1.53001E-001,1.16397E+000,-3.15461E-002,0.00000E+000,2.52958E-002,9.41156E-001,0.00000E+000,-8.75910E-004,-6.81086E-002,1.00000E+000,24
1039,1317,1.38343E+001,-8.72555E-001,2.56808E-002,6.94419E+000,-3.35276E-001,-8.13455E-003,6.95228E+000,1.19639E-002,4.20146E-001,0,1.05480E+002,-6.08066E+000,9.98682E-001,6.45988E+001,-3.78207E+001,9.97827E-001,1.50912E-001,-6.26280E-002,-3.85812E-004,1.50913E-001,-6.26287E-002,-1.03518E-001,1.51638E-001,1.16247E+000,-3.15849E-002,0.00000E+000,2.50818E-002,9.41151E-001,0.00000E+000,-5.61421E-003,-6.82315E-002,1.00000E+000,24
1039,1327,1.38300E+001,-2.70775E-001,-2.28137E-002,6.92770E+000,-3.77031E-001,-4.36485E-002,6.93809E+000,1.08364E-002,4.04455E-001,0,1.05364E+002,-6.69000E+000,9.98750E-001,6.45192E+001,-3.84032E+001,9.98016E-001,1.51344E-001,-6.26196E-002,-2.85317E-004,1.51344E-001,-6.26200E-002,-7.64030E-002,1.52093E-001,1.16297E+000,-3.15756E-002,0.00000E+000,2.51528E-002,9.41152E-001,0.00000E+000,-4.04109E-003,-6.82021E-002,1.00000E+000,24
1039,1307,1.38478E+001,-1.47794E+000,9.05973E-002,6.96705E+000,-2.98567E-001,3.14971E-002,6.97352E+000,1.23963E-002,4.42702E-001,0,1.05676E+002,-5.56798E+000,9.98602E-001,6.48512E+001,-3.73258E+001,9.97648E-001,1.50478E-001,-6.26355E-002,-4.85425E-004,1.50479E-001,-6.26366E-002,-1.30506E-001,1.51181E-001,1.16198E+000,-3.15920E-002,0.00000E+000,2.50108E-002,9.41150E-001,0.00000E+000,-7.18613E-003,-6.82541E-002,1.00000E+000,24
1039,1297,1.38637E+001,-2.07840E+000,1.77034E-001,6.98904E+000,-2.57793E-001,7.86859E-002,6.99423E+000,1.28659E-002,4.19842E-001,0,1.05826E+002,-5.00290E+000,9.97728E-001,6.51801E+001,-3.68227E+001,9.97339E-001,1.50041E-001,-6.26421E-002,-5.84122E-004,1.50043E-001,-6.26437E-002,-1.57358E-001,1.50722E-001,1.16148E+000,-3.15967E-002,0.00000E+000,2.49397E-002,9.41149E-001,0.00000E+000,-8.75854E-003,-6.82690E-002,1.00000E+000,24
1049,1337,1.45962E+001,3.65672E-001,-5.82746E-002,7.01973E+000,-3.94986E-001,-8.50102E-002,7.03135E+000,1.64080E-002,4.27931E-001,0,1.06823E+002,-6.92785E+000,9.99354E-001,6.64377E+001,-3.83577E+001,9.98477E-001,1.51759E-001,-6.25396E-002,-7.37183E-004,1.51761E-001,-6.25421E-002,-1.97093E-001,1.52541E-001,1.16346E+000,-3.13719E-002,0.00000E+000,2.39372E-002,9.41166E-001,0.00000E+000,-1.08819E-003,-6.67985E-002,1.00000E+000,24
1049,1347,1.46033E+001,9.72115E-001,-4.31870E-002,7.00170E+000,-4.42391E-001,-1.11240E-001,7.01655E+000,1.35015E-002,4.40185E-001,0,1.06638E+002,-7.62908E+000,9.99111E-001,6.66488E+001,-3.89947E+001,9.97952E-001,1.52292E-001,-6.25359E-002,-6.91638E-004,1.52294E-001,-6.25381E-002,-1.84461E-001,1.53103E-001,1.16408E+000,-3.13482E-002,0.00000E+000,2.39167E-002,9.41165E-001,0.00000E+000,9.81279E-005,-6.67533E-002,1.00000E+000,24
1049,1307,1.46162E+001,-1.45304E+000,9.57724E-002,7.07576E+000,-2.79267E-001,2.61206E-002,7.08131E+000,1.59351E-002,3.87912E-001,0,1.07253E+002,-5.26883E+000,9.98728E-001,6.68026E+001,-3.68823E+001,9.97935E-001,1.50160E-001,-6.25473E-002,-8.57831E-004,1.50163E-001,-6.25507E-002,-2.31064E-001,1.50859E-001,1.16160E+000,-3.14061E-002,0.00000E+000,2.39984E-002,9.41167E-001,0.00000E+000,-4.62038E-003,-6.68635E-002,1.00000E+000,24
1049,1317,1.46012E+001,-8.48424E-001,3.44683E-002,7.05106E+000,-3.17597E-001,-1.11818E-002,7.05822E+000,1.38607E-002,4.08454E-001,0,1.07022E+002,-5.82673E+000,9.98056E-001,6.65338E+001,-3.73743E+001,9.96883E-001,1.50694E-001,-6.25449E-002,-8.18519E-004,1.50697E-001,-6.25480E-002,-2.19926E-001,1.51420E-001,1.16222E+000,-3.13969E-002,0.00000E+000,2.39780E-002,9.41167E-001,0.00000E+000,-3.44507E-003,-6.68459E-002,1.00000E+000,24
1049,1327,1.45944E+001,-2.51447E-001,-2.31680E-002,7.03517E+000,-3.63804E-001,-4.22818E-002,7.04470E+000,9.11247E-003,3.90785E-001,0,1.06904E+002,-6.49301E+000,9.98801E-001,6.63986E+001,-3.80110E+001,9.97429E-001,1.51226E-001,-6.25426E-002,-7.79491E-004,1.51229E-001,-6.25454E-002,-2.08921E-001,1.51980E-001,1.16284E+000,-3.13882E-002,0.00000E+000,2.39577E-002,9.41166E-001,0.00000E+000,-2.26897E-003,-6.68294E-002,1.00000E+000,24
809,1347,-3.69301E+000,6.09727E-001,-1.70105E-003,4.38178E+000,-6.43674E-001,7.61681E-003,4.42881E+000,1.10306E-002,4.94320E-001,0,6.77461E+001,-1.06519E+001,9.99103E-001,2.37204E+001,-4.71672E+001,9.98926E-001,1.58342E-001,-6.63232E-002,-1.74251E-003,1.58356E-001,-6.63367E-002,-4.44353E-001,1.59048E-001,1.17157E+000,-3.15251E-003,0.00000E+000,-4.76600E-004,9.39080E-001,0.00000E+000,-3.89394E-003,-8.33910E-002,1.00000E+000,24
809,1357,-3.66614E+000,1.21936E+000,3.43738E-002,4.38052E+000,-6.87851E-001,-3.46436E-002,4.43433E+000,1.32589E-002,5.05459E-001,0,6.78508E+001,-1.12640E+001,9.98651E-001,2.43378E+001,-4.78434E+001,9.98129E-001,1.58364E-001,-6.63394E-002,-1.92515E-003,1.58381E-001,-6.63559E-002,-4.90833E-001,1.59073E-001,1.17161E+000,-3.15099E-003,0.00000E+000,-6.92838E-004,9.39070E-001,0.00000E+000,-5.55785E-003,-8.34625E-002,1.00000E+000,24
809,1327,-3.72961E+000,-6.01192E-001,4.21442E-002,4.37925E+000,-5.66644E-001,9.69404E-002,4.41682E+000,1.12716E-002,5.48371E-001,0,6.74295E+001,-9.60866E+000,9.98861E-001,2.30289E+001,-4.59087E+001,9.97516E-001,1.58290E-001,-6.63031E-002,-1.38055E-003,1.58298E-001,-6.63115E-002,-3.52174E-001,1.58991E-001,1.17150E+000,-3.15436E-003,0.00000E+000,-4.81965E-005,9.39091E-001,0.00000E+000,-5.97440E-004,-8.33042E-002,1.00000E+000,24
809,1337,-3.71027E+000,8.49153E-004,1.41226E-002,4.38349E+000,-6.06989E-001,5.59381E-002,4.42567E+000,9.68853E-003,5.15641E-001,0,6.76242E+001,-1.01659E+001,9.98842E-001,2.33753E+001,-4.65791E+001,9.98755E-001,1.58317E-001,-6.63121E-002,-1.56127E-003,1.58328E-001,-6.63229E-002,-3.98205E-001,1.59021E-001,1.17154E+000,-3.15354E-003,0.00000E+000,-2.62087E-004,9.39086E-001,0.00000E+000,-2.24329E-003,-8.33427E-002,1.00000E+000,24
809,1307,-3.74033E+000,-1.77341E+000,2.21811E-001,4.37933E+000,-4.66456E-001,2.04823E-001,4.40886E+000,1.93999E-002,5.73832E-001,0,6.70680E+001,-8.25508E+000,9.95071E-001,2.30704E+001,-4.43592E+001,9.93816E-001,1.58227E-001,-6.62957E-002,-1.02044E-003,1.58232E-001,-6.63004E-002,-2.60397E-001,1.58922E-001,1.17143E+000,-3.15495E-003,0.00000E+000,3.77649E-004,9.39094E-001,0.00000E+000,2.67937E-003,-8.32766E-002,1.00000E+000,24
809,1317,-3.73194E+000,-1.18636E+000,1.25883E-001,4.38403E+000,-5.14396E-001,1.53442E-001,4.41677E+000,1.74207E-002,5.53305E-001,0,6.73142E+001,-8.90060E+000,9.98253E-001,2.30817E+001,-4.51103E+001,9.97120E-001,1.58260E-001,-6.62985E-002,-1.20034E-003,1.58266E-001,-6.63049E-002,-3.06255E-001,1.58958E-001,1.17147E+000,-3.15475E-003,0.00000E+000,1.64936E-004,9.39093E-001,0.00000E+000,1.04258E-003,-8.32861E-002,1.00000E+000,24
1049,1297,1.46240E+001,-2.06172E+000,1.73063E-001,7.09214E+000,-2.45907E-001,7.44020E-002,7.09679E+000,1.33160E-002,3.78150E-001,0,1.07318E+002,-4.81250E+000,9.97953E-001,6.69886E+001,-3.64836E+001,9.96467E-001,1.49625E-001,-6.25495E-002,-8.96710E-004,1.49629E-001,-6.25533E-002,-2.42143E-001,1.50297E-001,1.16098E+000,-3.14143E-002,0.00000E+000,2.40187E-002,9.41167E-001,0.00000E+000,-5.79475E-003,-6.68790E-002,1.00000E+000,24
799,1337,-4.47320E+000,-7.53407E-003,1.01388E-002,4.26819E+000,-6.08794E-001,5.58912E-002,4.31175E+000,9.97714E-003,4.97910E-001,0,6.58935E+001,-1.01731E+001,9.99059E-001,2.16235E+001,-4.68141E+001,9.98795E-001,1.56886E-001,-6.60217E-002,-1.09904E-003,1.56892E-001,-6.60271E-002,-2.82487E-001,1.57546E-001,1.16986E+000,-3.28400E-003,0.00000E+000,7.43741E-004,9.39213E-001,0.00000E+000,-2.62253E-003,-8.14641E-002,1.00000E+000,24
799,1347,-4.45416E+000,5.98465E-001,-4.26123E-003,4.26877E+000,-6.48240E-001,1.07940E-002,4.31772E+000,1.18216E-002,5.09073E-001,0,6.60408E+001,-1.07197E+001,9.98646E-001,2.19998E+001,-4.74350E+001,9.98219E-001,1.56983E-001,-6.60380E-002,-1.36688E-003,1.56992E-001,-6.60464E-002,-3.51143E-001,1.57648E-001,1.16998E+000,-3.28059E-003,0.00000E+000,3.50568E-004,9.39202E-001,0.00000E+000,-4.13922E-003,-8.15074E-002,1.00000E+000,24
799,1357,-4.42307E+000,1.21554E+000,3.42717E-002,4.27178E+000,-6.84651E-001,-2.99162E-002,4.32640E+000,1.21303E-002,5.00424E-001,0,6.62033E+001,-1.12085E+001,9.98249E-001,2.26922E+001,-4.80130E+001,9.97671E-001,1.57078E-001,-6.60623E-002,-1.63613E-003,1.57090E-001,-6.60743E-002,-4.20079E-001,1.57749E-001,1.17010E+000,-3.27540E-003,0.00000E+000,-4.55860E-005,9.39185E-001,0.00000E+000,-5.66741E-003,-8.15731E-002,1.00000E+000,24
799,1327,-4.48512E+000,-6.12683E-001,5.77081E-002,4.27082E+000,-5.70995E-001,1.14198E-001,4.31033E+000,1.77126E-002,5.18766E-001,0,6.57512E+001,-9.70613E+000,9.99149E-001,2.14373E+001,-4.62369E+001,9.97743E-001,1.56787E-001,-6.60084E-002,-8.31478E-004,1.56790E-001,-6.60115E-002,-2.13825E-001,1.57441E-001,1.16974E+000,-3.28669E-003,0.00000E+000,1.13618E-003,9.39222E-001,0.00000E+000,-1.10866E-003,-8.14300E-002,1.00000E+000,24
1059,1327,1.53609E+001,-2.35377E-001,-2.11913E-002,7.14334E+000,-3.54235E-001,-4.21499E-002,7.15224E+000,1.41595E-002,4.08069E-001,0,1.08457E+002,-6.36735E+000,9.99037E-001,6.83167E+001,-3.76589E+001,9.97777E-001,1.51291E-001,-6.27560E-002,-1.08901E-003,1.51296E-001,-6.27616E-002,-2.91494E-001,1.52026E-001,1.16293E+000,-3.06882E-002,0.00000E+000,2.27056E-002,9.40925E-001,0.00000E+000,-7.22600E-004,-6.57036E-002,1.00000E+000,24
1059,1337,1.53646E+001,3.85820E-001,-5.05435E-002,7.12941E+000,-3.81751E-001,-8.07468E-002,7.14008E+000,1.12362E-002,4.20749E-001,0,1.08382E+002,-6.74441E+000,9.99466E-001,6.83971E+001,-3.79654E+001,9.98804E-001,1.51892E-001,-6.27572E-002,-1.08400E-003,1.51897E-001,-6.27626E-002,-2.89341E-001,1.52658E-001,1.16363E+000,-3.06693E-002,0.00000E+000,2.26369E-002,9.40923E-001,0.00000E+000,5.70822E-005,-6.56826E-002,1.00000E+000,24
1059,1347,1.53740E+001,9.94277E-001,-3.38478E-002,7.11327E+000,-4.26530E-001,-1.06395E-001,7.12684E+000,1.57955E-002,3.95918E-001,0,1.08223E+002,-7.40434E+000,9.99307E-001,6.86449E+001,-3.85916E+001,9.97972E-001,1.52494E-001,-6.27585E-002,-1.07553E-003,1.52499E-001,-6.27639E-002,-2.86275E-001,1.53292E-001,1.16434E+000,-3.06421E-002,0.00000E+000,2.25680E-002,9.40920E-001,0.00000E+000,8.39334E-004,-6.56523E-002,1.00000E+000,24
1059,1297,1.53845E+001,-2.04097E+000,1.63558E-001,7.19709E+000,-2.28266E-001,7.31625E-002,7.20108E+000,1.26398E-002,3.33469E-001,0,1.08824E+002,-4.54654E+000,9.98399E-001,6.87962E+001,-3.60710E+001,9.96246E-001,1.49488E-001,-6.27535E-002,-1.09391E-003,1.49494E-001,-6.27591E-002,-2.95295E-001,1.50134E-001,1.16084E+000,-3.07205E-002,0.00000E+000,2.29108E-002,9.40928E-001,0.00000E+000,-3.05255E-003,-6.57395E-002,1.00000E+000,24
1059,1307,1.53781E+001,-1.43579E+000,9.42788E-002,7.18200E+000,-2.64444E-001,3.28568E-002,7.18694E+000,1.43175E-002,3.19675E-001,0,1.08751E+002,-5.06637E+000,9.98904E-001,6.86453E+001,-3.65511E+001,9.98053E-001,1.50088E-001,-6.27543E-002,-1.09287E-003,1.50094E-001,-6.27599E-002,-2.94183E-001,1.50763E-001,1.16153E+000,-3.07112E-002,0.00000E+000,2.28426E-002,9.40927E-001,0.00000E+000,-2.27840E-003,-6.57292E-002,1.00000E+000,24
1059,1317,1.53633E+001,-8.35785E-001,2.09447E-002,7.15795E+000,-3.08209E-001,-1.41335E-002,7.16460E+000,1.52225E-002,3.91520E-001,0,1.08570E+002,-5.69869E+000,9.98494E-001,6.83572E+001,-3.70610E+001,9.96822E-001,1.50689E-001,-6.27551E-002,-1.09157E-003,1.50695E-001,-6.27607E-002,-2.93006E-001,1.51394E-001,1.16223E+000,-3.07013E-002,0.00000E+000,2.27742E-002,9.40926E-001,0.00000E+000,-1.50157E-003,-6.57181E-002,1.00000E+000,24
799,1307,-4.49263E+000,-1.78132E+000,2.33704E-001,4.27281E+000,-4.68724E-001,2.12519E-001,4.30369E+000,2.52963E-002,5.66897E-001,0,6.54503E+001,-8.30759E+000,9.96516E-001,2.15209E+001,-4.46084E+001,9.96156E-001,1.56583E-001,-6.59979E-002,-2.98490E-004,1.56583E-001,-6.59983E-002,-7.68359E-002,1.57226E-001,1.16951E+000,-3.28845E-003,0.00000E+000,1.91585E-003,9.39227E-001,0.00000E+000,1.89897E-003,-8.14076E-002,1.00000E+000,24
799,1317,-4.49232E+000,-1.19680E+000,1.23525E-001,4.27214E+000,-5.17383E-001,1.60367E-001,4.30635E+000,2.10082E-002,5.70358E-001,0,6.56174E+001,-8.96904E+000,9.97885E-001,2.13720E+001,-4.53593E+001,9.96596E-001,1.56686E-001,-6.60001E-002,-5.64845E-004,1.56688E-001,-6.60015E-002,-1.45330E-001,1.57334E-001,1.16962E+000,-3.28827E-003,0.00000E+000,1.52664E-003,9.39227E-001,0.00000E+000,3.97575E-004,-8.14100E-002,1.00000E+000,24
789,1327,-5.24128E+000,-6.19591E-001,5.23851E-002,4.16198E+000,-5.71107E-001,1.14112E-001,4.20253E+000,1.58914E-002,5.26333E-001,0,6.41185E+001,-9.70530E+000,9.98867E-001,1.97907E+001,-4.64312E+001,9.97791E-001,1.55317E-001,-6.56928E-002,-5.05285E-004,1.55318E-001,-6.56939E-002,-1.30992E-001,1.55932E-001,1.16802E+000,-3.62493E-003,0.00000E+000,2.05814E-003,9.39391E-001,0.00000E+000,-1.54773E-003,-7.97649E-002,1.00000E+000,24
789,1337,-5.22745E+000,-1.00010E-002,1.26495E-002,4.16075E+000,-6.04725E-001,6.03046E-002,4.20489E+000,1.23713E-002,5.00165E-001,0,6.42652E+001,-1.01141E+001,9.98407E-001,2.00269E+001,-4.69611E+001,9.98163E-001,1.55522E-001,-6.57105E-002,-8.43267E-004,1.55525E-001,-6.57137E-002,-2.18389E-001,1.56146E-001,1.16827E+000,-3.61926E-003,0.00000E+000,1.51241E-003,9.39378E-001,0.00000E+000,-2.85744E-003,-7.97955E-002,1.00000E+000,24
789,1347,-5.20530E+000,5.96529E-001,1.69512E-003,4.16413E+000,-6.44671E-001,1.64365E-002,4.21377E+000,1.34583E-002,5.40356E-001,0,6.44509E+001,-1.06716E+001,9.97841E-001,2.04606E+001,-4.75683E+001,9.97353E-001,1.55725E-001,-6.57319E-002,-1.18182E-003,1.55732E-001,-6.57382E-002,-3.05750E-001,1.56360E-001,1.16851E+000,-3.61221E-003,0.00000E+000,9.64916E-004,9.39362E-001,0.00000E+000,-4.17139E-003,-7.98336E-002,1.00000E+000,24
789,1357,-5.18045E+000,1.20881E+000,3.19633E-002,4.16243E+000,-6.84680E-001,-2.60047E-002,4.21845E+000,1.20883E-002,5.29174E-001,0,6.45478E+001,-1.12103E+001,9.97562E-001,2.10384E+001,-4.82059E+001,9.97168E-001,1.55928E-001,-6.57614E-002,-1.52096E-003,1.55938E-001,-6.57718E-002,-3.93069E-001,1.56573E-001,1.16875E+000,-3.60223E-003,0.00000E+000,4.14620E-004,9.39340E-001,0.00000E+000,-5.49205E-003,-7.98874E-002,1.00000E+000,24
1069,1327,1.61272E+001,-2.20404E-001,-3.17150E-002,7.25201E+000,-3.45944E-001,-4.98281E-002,7.26043E+000,1.47602E-002,4.44725E-001,0,1.10047E+002,-6.24128E+000,9.98963E-001,7.02149E+001,-3.72869E+001,9.97211E-001,1.51387E-001,-6.27475E-002,-1.37887E-003,1.51396E-001,-6.27564E-002,-3.68921E-001,1.52132E-001,1.16306E+000,-3.00554E-002,0.00000E+000,2.15861E-002,9.40899E-001,0.00000E+000,2.65142E-004,-6.47215E-002,1.00000E+000,24
1069,1337,1.61244E+001,3.97057E-001,-5.38619E-002,7.23235E+000,-3.75359E-001,-7.75598E-002,7.24250E+000,9.57057E-003,4.10634E-001,0,1.09846E+002,-6.67147E+000,9.99192E-001,7.02055E+001,-3.76896E+001,9.98231E-001,1.51970E-001,-6.27512E-002,-1.40071E-003,1.51979E-001,-6.27603E-002,-3.73741E-001,1.52745E-001,1.16374E+000,-3.00379E-002,0.00000E+000,2.14966E-002,9.40896E-001,0.00000E+000,5.91568E-004,-6.47131E-002,1.00000E+000,24
1069,1347,1.61311E+001,1.00870E+000,-5.05430E-002,7.21516E+000,-4.16868E-001,-1.08821E-001,7.22801E+000,1.00280E-002,4.31716E-001,0,1.09694E+002,-7.27889E+000,9.99282E-001,7.03861E+001,-3.82125E+001,9.98489E-001,1.52555E-001,-6.27557E-002,-1.41971E-003,1.52565E-001,-6.27650E-002,-3.77772E-001,1.53361E-001,1.16443E+000,-3.00131E-002,0.00000E+000,2.14065E-002,9.40893E-001,0.00000E+000,9.20144E-004,-6.47012E-002,1.00000E+000,24
789,1307,-5.24265E+000,-1.79005E+000,2.33511E-001,4.17031E+000,-4.71289E-001,2.19184E-001,4.20257E+000,1.72140E-002,5.32041E-001,0,6.38975E+001,-8.33326E+000,9.97779E-001,1.99823E+001,-4.48585E+001,9.95087E-001,1.54905E-001,-6.56784E-002,1.68808E-004,1.54905E-001,-6.56785E-002,4.38472E-002,1.55500E-001,1.16754E+000,-3.62860E-003,0.00000E+000,3.14151E-003,9.39399E-001,0.00000E+000,1.05226E-003,-7.97451E-002,1.00000E+000,24
789,1317,-5.24313E+000,-1.20896E+000,1.42291E-001,4.16607E+000,-5.24402E-001,1.71577E-001,4.20245E+000,1.83296E-002,5.38578E-001,0,6.39933E+001,-9.08728E+000,9.97772E-001,1.98660E+001,-4.57032E+001,9.94668E-001,1.55112E-001,-6.56845E-002,-1.68098E-004,1.55112E-001,-6.56846E-002,-4.36207E-002,1.55716E-001,1.16778E+000,-3.62717E-003,0.00000E+000,2.60032E-003,9.39396E-001,0.00000E+000,-2.46543E-004,-7.97528E-002,1.00000E+000,24
1069,1297,1.61346E+001,-2.02332E+000,1.42898E-001,7.29293E+000,-2.13927E-001,6.83256E-002,7.29639E+000,1.68080E-002,3.61775E-001,0,1.10206E+002,-4.34003E+000,9.97209E-001,7.04260E+001,-3.56477E+001,9.94401E-001,1.49638E-001,-6.27383E-002,-1.30588E-003,1.49646E-001,-6.27464E-002,-3.52289E-001,1.50294E-001,1.16103E+000,-3.00902E-002,0.00000E+000,2.18546E-002,9.40903E-001,0.00000E+000,-7.13836E-004,-6.47383E-002,1.00000E+000,24
1069,1307,1.61307E+001,-1.42162E+000,6.56816E-002,7.28146E+000,-2.52923E-001,2.50303E-002,7.28590E+000,1.16430E-002,3.22094E-001,0,1.10203E+002,-4.88742E+000,9.98945E-001,7.03001E+001,-3.61753E+001,9.97363E-001,1.50219E-001,-6.27410E-002,-1.33165E-003,1.50227E-001,-6.27493E-002,-3.58257E-001,1.50904E-001,1.16170E+000,-3.00824E-002,0.00000E+000,2.17656E-002,9.40902E-001,0.00000E+000,-3.89140E-004,-6.47345E-002,1.00000E+000,24
1069,1317,1.61305E+001,-8.14929E-001,1.65032E-002,7.26845E+000,-2.93202E-001,-1.24025E-002,7.27437E+000,1.25885E-002,4.24537E-001,0,1.10148E+002,-5.48977E+000,9.99247E-001,7.02819E+001,-3.66145E+001,9.97306E-001,1.50803E-001,-6.27442E-002,-1.35529E-003,1.50812E-001,-6.27528E-002,-3.63613E-001,1.51518E-001,1.16238E+000,-3.00690E-002,0.00000E+000,2.16759E-002,9.40900E-001,0.00000E+000,-6.20579E-005,-6.47281E-002,1.00000E+000,24
779,1327,-5.99048E+000,-6.19981E-001,6.25400E-002,4.05868E+000,-5.67321E-001,1.24639E-001,4.10003E+000,2.30227E-002,5.85530E-001,0,6.25336E+001,-9.66421E+000,9.98575E-001,1.82950E+001,-4.65318E+001,9.97375E-001,1.53773E-001,-6.51867E-002,-4.58157E-004,1.53774E-001,-6.51877E-002,-1.19886E-001,1.54366E-001,1.16622E+000,-4.21772E-003,0.00000E+000,2.64930E-003,9.39771E-001,0.00000E+000,-1.86485E-003,-7.84928E-002,1.00000E+000,24
779,1337,-5.97615E+000,-2.32721E-002,1.81679E-002,4.05842E+000,-6.12494E-001,6.78525E-002,4.10494E+000,1.20841E-002,5.34418E-001,0,6.27075E+001,-1.02473E+001,9.97865E-001,1.85257E+001,-4.72645E+001,9.97702E-001,1.54164E-001,-6.52086E-002,-8.78134E-004,1.54168E-001,-6.52122E-002,-2.29346E-001,1.54776E-001,1.16668E+000,-4.20730E-003,0.00000E+000,1.92243E-003,9.39755E-001,0.00000E+000,-2.90257E-003,-7.85163E-002,1.00000E+000,24
779,1347,-5.95933E+000,5.88075E-001,5.74490E-003,4.05611E+000,-6.46680E-001,1.95776E-002,4.10738E+000,1.48207E-002,5.15337E-001,0,6.28161E+001,-1.06921E+001,9.97010E-001,1.88766E+001,-4.78266E+001,9.96613E-001,1.54556E-001,-6.52363E-002,-1.29822E-003,1.54563E-001,-6.52440E-002,-3.38406E-001,1.55187E-001,1.16714E+000,-4.19364E-003,0.00000E+000,1.19308E-003,9.39733E-001,0.00000E+000,-3.94383E-003,-7.85472E-002,1.00000E+000,24
779,1357,-5.93746E+000,1.20279E+000,3.24308E-002,4.05236E+000,-6.83835E-001,-2.26779E-002,4.10972E+000,1.17613E-002,5.18279E-001,0,6.28800E+001,-1.11879E+001,9.97425E-001,1.94024E+001,-4.84141E+001,9.97371E-001,1.54948E-001,-6.52722E-002,-1.71923E-003,1.54961E-001,-6.52856E-002,-4.47263E-001,1.55600E-001,1.16761E+000,-4.17536E-003,0.00000E+000,4.58891E-004,9.39704E-001,0.00000E+000,-4.99200E-003,-7.85884E-002,1.00000E+000,24
779,1317,-5.98856E+000,-1.20429E+000,1.44579E-001,4.06636E+000,-5.13899E-001,1.73397E-001,4.10237E+000,2.32019E-002,5.11266E-001,0,6.24902E+001,-8.91046E+000,9.98831E-001,1.84111E+001,-4.57496E+001,9.97433E-001,1.53381E-001,-6.51761E-002,-3.63763E-005,1.53381E-001,-6.51761E-002,-9.53622E-003,1.53956E-001,1.16576E+000,-4.22185E-003,0.00000E+000,3.37469E-003,9.39778E-001,0.00000E+000,-8.29246E-004,-7.84835E-002,1.00000E+000,24
1079,1337,1.68902E+001,4.14500E-001,-6.76827E-002,7.34012E+000,-3.64332E-001,-8.77073E-002,7.34968E+000,1.39312E-002,4.17467E-001,0,1.11428E+002,-6.48948E+000,9.98620E-001,7.20938E+001,-3.72854E+001,9.98663E-001,1.52275E-001,-6.29324E-002,-1.69007E-003,1.52289E-001,-6.29456E-002,-4.49919E-001,1.53049E-001,1.16412E+000,-2.93675E-002,0.00000E+000,2.03832E-002,9.40726E-001,0.00000E+000,8.56034E-004,-6.42962E-002,1.00000E+000,24
1079,1347,1.69005E+001,1.02721E+000,-5.86646E-002,7.32628E+000,-4.04957E-001,-1.13666E-001,7.33834E+000,7.92000E-003,4.42329E-001,0,1.11307E+002,-7.09948E+000,9.99487E-001,7.23386E+001,-3.78003E+001,9.99337E-001,1.52830E-001,-6.29415E-002,-1.74901E-003,1.52844E-001,-6.29557E-002,-4.64388E-001,1.53633E-001,1.16476E+000,-2.93439E-002,0.00000E+000,2.02442E-002,9.40721E-001,0.00000E+000,7.74621E-004,-6.42992E-002,1.00000E+000,24
1079,1297,1.69031E+001,-2.00022E+000,1.50293E-001,7.40285E+000,-1.96743E-001,7.55904E-002,7.40585E+000,1.58885E-002,4.07688E-001,0,1.11748E+002,-4.12068E+000,9.98024E-001,7.23944E+001,-3.51887E+001,9.96210E-001,1.50067E-001,-6.29064E-002,-1.43686E-003,1.50077E-001,-6.29161E-002,-3.86531E-001,1.50728E-001,1.16155E+000,-2.94166E-002,0.00000E+000,2.09356E-002,9.40737E-001,0.00000E+000,1.17945E-003,-6.42900E-002,1.00000E+000,24
1079,1307,1.68928E+001,-1.40594E+000,5.98755E-002,7.38639E+000,-2.43172E-001,2.50963E-002,7.39043E+000,1.33611E-002,3.56110E-001,0,1.11702E+002,-4.75140E+000,9.99054E-001,7.21465E+001,-3.58082E+001,9.97502E-001,1.50617E-001,-6.29114E-002,-1.50246E-003,1.50628E-001,-6.29220E-002,-4.03126E-001,1.51306E-001,1.16219E+000,-2.94105E-002,0.00000E+000,2.07982E-002,9.40735E-001,0.00000E+000,1.09898E-003,-6.42908E-002,1.00000E+000,24
1079,1327,1.68918E+001,-2.03059E-001,-3.80894E-002,7.35827E+000,-3.34777E-001,-5.46156E-002,7.36609E+000,1.58057E-002,4.29154E-001,0,1.11584E+002,-6.06196E+000,9.98901E-001,7.20996E+001,-3.69138E+001,9.98347E-001,1.51724E-001,-6.29249E-002,-1.62842E-003,1.51736E-001,-6.29373E-002,-4.34638E-001,1.52469E-001,1.16347E+000,-2.93838E-002,0.00000E+000,2.05214E-002,9.40730E-001,0.00000E+000,9.36935E-004,-6.42942E-002,1.00000E+000,24
1079,1317,1.68900E+001,-7.96374E-001,7.50849E-003,7.37082E+000,-2.80944E-001,-1.47971E-002,7.37619E+000,1.28567E-002,4.13243E-001,0,1.11618E+002,-5.28369E+000,9.98889E-001,7.20824E+001,-3.62172E+001,9.98111E-001,1.51171E-001,-6.29180E-002,-1.56580E-003,1.51182E-001,-6.29295E-002,-4.19018E-001,1.51888E-001,1.16283E+000,-2.93979E-002,0.00000E+000,2.06597E-002,9.40733E-001,0.00000E+000,1.01792E-003,-6.42924E-002,1.00000E+000,24
779,1307,-5.99794E+000,-1.80438E+000,2.39673E-001,4.06046E+000,-4.81235E-001,2.23858E-001,4.09501E+000,1.58677E-002,5.47215E-001,0,6.22368E+001,-8.48486E+000,9.98581E-001,1.83820E+001,-4.51843E+001,9.96502E-001,1.52990E-001,-6.51683E-002,3.83276E-004,1.52991E-001,-6.51689E-002,1.00661E-001,1.53549E-001,1.16531E+000,-4.22436E-003,0.00000E+000,4.09524E-003,9.39782E-001,0.00000E+000,1.99458E-004,-7.84778E-002,1.00000E+000,24
1089,1337,1.76541E+001,4.36070E-001,-7.32787E-002,7.44556E+000,-3.49809E-001,-8.93975E-002,7.45431E+000,1.25810E-002,4.68195E-001,0,1.12940E+002,-6.28411E+000,9.98329E-001,7.39713E+001,-3.68140E+001,9.98039E-001,1.52992E-001,-6.31387E-002,-1.83584E-003,1.53007E-001,-6.31543E-002,-4.86631E-001,1.53782E-001,1.16498E+000,-2.84371E-002,0.00000E+000,1.93236E-002,9.40524E-001,0.00000E+000,1.11738E-003,-6.37752E-002,1.00000E+000,24
1089,1347,1.76632E+001,1.04755E+000,-6.77565E-002,7.43048E+000,-3.90837E-001,-1.18413E-001,7.44170E+000,9.11807E-003,4.33217E-001,0,1.12812E+002,-6.87937E+000,9.99206E-001,7.41898E+001,-3.73685E+001,9.98484E-001,1.53622E-001,-6.31520E-002,-1.92887E-003,1.53639E-001,-6.31692E-002,-5.09768E-001,1.54445E-001,1.16571E+000,-2.84102E-002,0.00000E+000,1.91340E-002,9.40517E-001,0.00000E+000,7.34696E-004,-6.37892E-002,1.00000E+000,24
769,1347,-6.71282E+000,5.78717E-001,1.02204E-002,3.94896E+000,-6.49730E-001,2.71713E-002,4.00214E+000,1.18829E-002,5.06968E-001,0,6.11797E+001,-1.07364E+001,9.97389E-001,1.73066E+001,-4.80915E+001,9.97313E-001,1.52981E-001,-6.47208E-002,-1.28306E-003,1.52989E-001,-6.47284E-002,-3.37666E-001,1.53591E-001,1.16530E+000,-4.57006E-003,0.00000E+000,1.49815E-003,9.40128E-001,0.00000E+000,-3.56220E-003,-7.73260E-002,1.00000E+000,24
769,1357,-6.68871E+000,1.19624E+000,3.29643E-002,3.94802E+000,-6.83674E-001,-1.72550E-002,4.00682E+000,1.17078E-002,5.20903E-001,0,6.12923E+001,-1.11816E+001,9.97962E-001,1.78598E+001,-4.86231E+001,9.97972E-001,1.53293E-001,-6.47551E-002,-1.69173E-003,1.53306E-001,-6.47682E-002,-4.44496E-001,1.53919E-001,1.16567E+000,-4.55586E-003,0.00000E+000,7.82069E-004,9.40101E-001,0.00000E+000,-4.51152E-003,-7.73625E-002,1.00000E+000,24
769,1327,-6.74081E+000,-6.27993E-001,7.56163E-002,3.95152E+000,-5.70355E-001,1.25831E-001,3.99445E+000,1.68939E-002,5.65674E-001,0,6.09168E+001,-9.70849E+000,9.98283E-001,1.67938E+001,-4.67959E+001,9.96574E-001,1.52358E-001,-6.46764E-002,-4.67874E-004,1.52359E-001,-6.46774E-002,-1.23515E-001,1.52937E-001,1.16457E+000,-4.58740E-003,0.00000E+000,2.91866E-003,9.40162E-001,0.00000E+000,-1.67900E-003,-7.72814E-002,1.00000E+000,24
769,1337,-6.73091E+000,-3.61229E-002,2.29254E-002,3.94939E+000,-6.19616E-001,7.33902E-002,3.99837E+000,1.09232E-002,5.25460E-001,0,6.10501E+001,-1.03499E+001,9.97950E-001,1.69350E+001,-4.75824E+001,9.97651E-001,1.52670E-001,-6.46946E-002,-8.75686E-004,1.52673E-001,-6.46981E-002,-2.30820E-001,1.53264E-001,1.16494E+000,-4.58057E-003,0.00000E+000,2.20936E-003,9.40149E-001,0.00000E+000,-2.61934E-003,-7.72990E-002,1.00000E+000,24
1089,1327,1.76524E+001,-1.77032E-001,-5.83028E-002,7.46215E+000,-3.12214E-001,-6.43976E-002,7.46896E+000,1.42745E-002,4.02676E-001,0,1.13101E+002,-5.71333E+000,9.98324E-001,7.39026E+001,-3.63819E+001,9.97389E-001,1.52361E-001,-6.31273E-002,-1.74009E-003,1.52376E-001,-6.31414E-002,-4.62629E-001,1.53118E-001,1.16424E+000,-2.84575E-002,0.00000E+000,1.95131E-002,9.40529E-001,0.00000E+000,1.49994E-003,-6.37646E-002,1.00000E+000,24
1089,1317,1.76570E+001,-7.84746E-001,-4.14126E-003,7.47978E+000,-2.74203E-001,-2.22296E-002,7.48484E+000,1.31458E-002,4.34651E-001,0,1.13206E+002,-5.19615E+000,9.98830E-001,7.39996E+001,-3.59044E+001,9.98427E-001,1.51734E-001,-6.31178E-002,-1.64239E-003,1.51746E-001,-6.31303E-002,-4.37952E-001,1.52458E-001,1.16351E+000,-2.84720E-002,0.00000E+000,1.97016E-002,9.40533E-001,0.00000E+000,1.88040E-003,-6.37570E-002,1.00000E+000,24
1089,1297,1.76713E+001,-1.97794E+000,1.50592E-001,7.51222E+000,-1.81063E-001,7.65750E-002,7.51480E+000,1.16887E-002,4.47116E-001,0,1.13302E+002,-3.89592E+000,9.98978E-001,7.43506E+001,-3.47307E+001,9.98461E-001,1.50480E-001,-6.31012E-002,-1.44385E-003,1.50490E-001,-6.31109E-002,-3.87308E-001,1.51140E-001,1.16205E+000,-2.84924E-002,0.00000E+000,2.00778E-002,9.40538E-001,0.00000E+000,2.63953E-003,-6.37464E-002,1.00000E+000,24
1089,1307,1.76609E+001,-1.38621E+000,5.70357E-002,7.49533E+000,-2.30586E-001,2.16055E-002,7.49891E+000,1.13872E-002,4.07127E-001,0,1.13269E+002,-4.56912E+000,9.99248E-001,7.40969E+001,-3.53755E+001,9.98788E-001,1.51106E-001,-6.31086E-002,-1.54414E-003,1.51117E-001,-6.31197E-002,-4.12982E-001,1.51798E-001,1.16278E+000,-2.84851E-002,0.00000E+000,1.98901E-002,9.40536E-001,0.00000E+000,2.26069E-003,-6.37502E-002,1.00000E+000,24
769,1317,-6.74840E+000,-1.21303E+000,1.48046E-001,3.95196E+000,-5.19570E-001,1.77458E-001,3.98992E+000,1.97034E-002,5.21306E-001,0,6.07567E+001,-8.96235E+000,9.98941E-001,1.67397E+001,-4.59888E+001,9.98166E-001,1.52047E-001,-6.46630E-002,-6.16841E-005,1.52047E-001,-6.46630E-002,-1.63086E-002,1.52612E-001,1.16421E+000,-4.59197E-003,0.00000E+000,3.62352E-003,9.40171E-001,0.00000E+000,-7.44566E-004,-7.72697E-002,1.00000E+000,24
1099,1327,1.84135E+001,-1.59364E-001,-6.52183E-002,7.56605E+000,-2.99845E-001,-6.12307E-002,7.57223E+000,1.58331E-002,4.30881E-001,0,1.14569E+002,-5.54994E+000,9.96643E-001,7.57406E+001,-3.59815E+001,9.94659E-001,1.53107E-001,-6.32902E-002,-1.87417E-003,1.53123E-001,-6.33064E-002,-4.96178E-001,1.53886E-001,1.16513E+000,-2.76808E-002,0.00000E+000,1.85913E-002,9.40398E-001,0.00000E+000,1.88849E-003,-6.38282E-002,1.00000E+000,24
1099,1337,1.84215E+001,4.57230E-001,-7.55873E-002,7.55393E+000,-3.34389E-001,-8.85620E-002,7.56185E+000,1.49621E-002,4.42121E-001,0,1.14482E+002,-6.05521E+000,9.97191E-001,7.59140E+001,-3.63941E+001,9.96702E-001,1.53873E-001,-6.33019E-002,-1.96484E-003,1.53890E-001,-6.33197E-002,-5.18316E-001,1.54693E-001,1.16602E+000,-2.76535E-002,0.00000E+000,1.84094E-002,9.40393E-001,0.00000E+000,1.40211E-003,-6.38431E-002,1.00000E+000,24
1099,1347,1.84335E+001,1.07337E+000,-6.33699E-002,7.53952E+000,-3.72586E-001,-1.19250E-001,7.54966E+000,1.20076E-002,4.41240E-001,0,1.14367E+002,-6.61514E+000,9.98221E-001,7.61869E+001,-3.68725E+001,9.97605E-001,1.54640E-001,-6.33157E-002,-2.05220E-003,1.54659E-001,-6.33350E-002,-5.39414E-001,1.55501E-001,1.16692E+000,-2.76178E-002,0.00000E+000,1.82271E-002,9.40385E-001,0.00000E+000,9.14533E-004,-6.38625E-002,1.00000E+000,24
759,1347,-7.46056E+000,5.75163E-001,1.12297E-002,3.84725E+000,-6.47250E-001,3.19083E-002,3.90144E+000,1.06417E-002,5.18617E-001,0,5.96323E+001,-1.06936E+001,9.97517E-001,1.58224E+001,-4.82488E+001,9.97247E-001,1.51438E-001,-6.42915E-002,-1.20502E-003,1.51445E-001,-6.42982E-002,-3.20030E-001,1.52018E-001,1.16350E+000,-4.76205E-003,0.00000E+000,1.78233E-003,9.40458E-001,0.00000E+000,-3.26588E-003,-7.62993E-002,1.00000E+000,24
759,1357,-7.44054E+000,1.18773E+000,3.34112E-002,3.84274E+000,-6.85568E-001,-1.15297E-002,3.90343E+000,1.16717E-002,5.34834E-001,0,5.96876E+001,-1.12117E+001,9.97742E-001,1.63126E+001,-4.88567E+001,9.97461E-001,1.51555E-001,-6.43167E-002,-1.51187E-003,1.51566E-001,-6.43273E-002,-4.01248E-001,1.52142E-001,1.16364E+000,-4.75673E-003,0.00000E+000,1.26794E-003,9.40438E-001,0.00000E+000,-4.25020E-003,-7.63364E-002,1.00000E+000,24
1099,1297,1.84321E+001,-1.96581E+000,1.31007E-001,7.61561E+000,-1.74036E-001,6.49930E-002,7.61787E+000,1.09464E-002,4.70344E-001,0,1.14818E+002,-3.77673E+000,9.98474E-001,7.61630E+001,-3.43970E+001,9.97317E-001,1.50818E-001,-6.32649E-002,-1.58749E-003,1.50830E-001,-6.32767E-002,-4.24834E-001,1.51480E-001,1.16247E+000,-2.77230E-002,0.00000E+000,1.91331E-002,9.40407E-001,0.00000E+000,3.33738E-003,-6.38052E-002,1.00000E+000,24
1099,1307,1.84267E+001,-1.36634E+000,4.90371E-002,7.60361E+000,-2.16446E-001,2.17187E-002,7.60672E+000,1.26939E-002,4.49165E-001,0,1.14812E+002,-4.36928E+000,9.98825E-001,7.60069E+001,-3.49347E+001,9.98127E-001,1.51581E-001,-6.32721E-002,-1.68498E-003,1.51594E-001,-6.32853E-002,-4.49305E-001,1.52281E-001,1.16336E+000,-2.77139E-002,0.00000E+000,1.89528E-002,9.40405E-001,0.00000E+000,2.85536E-003,-6.38102E-002,1.00000E+000,24
1099,1317,1.84194E+001,-7.64170E-001,-1.59742E-002,7.58586E+000,-2.58360E-001,-2.07049E-002,7.59029E+000,1.64050E-002,4.54783E-001,0,1.14712E+002,-4.96968E+000,9.97883E-001,7.58503E+001,-3.54538E+001,9.96798E-001,1.52343E-001,-6.32806E-002,-1.78043E-003,1.52358E-001,-6.32953E-002,-4.73054E-001,1.53083E-001,1.16424E+000,-2.76996E-002,0.00000E+000,1.87722E-002,9.40402E-001,0.00000E+000,2.37243E-003,-6.38180E-002,1.00000E+000,24
759,1327,-7.49588E+000,-6.39103E-001,7.37313E-002,3.84141E+000,-5.75528E-001,1.23423E-001,3.88625E+000,1.29289E-002,5.49054E-001,0,5.92652E+001,-9.76939E+000,9.98172E-001,1.51868E+001,-4.70748E+001,9.98443E-001,1.51202E-001,-6.42592E-002,-5.94132E-004,1.51203E-001,-6.42609E-002,-1.57991E-001,1.51769E-001,1.16322E+000,-4.76845E-003,0.00000E+000,2.80363E-003,9.40481E-001,0.00000E+000,-1.31156E-003,-7.62547E-002,1.00000E+000,24
759,1337,-7.47904E+000,-3.17661E-002,3.03499E-002,3.84604E+000,-6.09585E-001,7.87943E-002,3.89484E+000,1.07775E-002,5.41700E-001,0,5.94731E+001,-1.02041E+001,9.97609E-001,1.54613E+001,-4.76277E+001,9.97443E-001,1.51320E-001,-6.42730E-002,-8.99427E-004,1.51324E-001,-6.42768E-002,-2.39025E-001,1.51894E-001,1.16336E+000,-4.76580E-003,0.00000E+000,2.29360E-003,9.40471E-001,0.00000E+000,-2.28755E-003,-7.62732E-002,1.00000E+000,24
759,1317,-7.50001E+000,-1.22956E+000,1.48863E-001,3.84431E+000,-5.30543E-001,1.72946E-001,3.88460E+000,1.75764E-002,5.67321E-001,0,5.91517E+001,-9.14942E+000,9.98381E-001,1.51912E+001,-4.63233E+001,9.98150E-001,1.51083E-001,-6.42502E-002,-2.90418E-004,1.51083E-001,-6.42506E-002,-7.72742E-002,1.51645E-001,1.16308E+000,-4.76999E-003,0.00000E+000,3.31026E-003,9.40486E-001,0.00000E+000,-3.42094E-004,-7.62440E-002,1.00000E+000,24
749,1317,-8.24146E+000,-1.23322E+000,1.64739E-001,3.74520E+000,-5.30949E-001,1.77235E-001,3.78680E+000,1.29724E-002,5.79995E-001,0,5.76455E+001,-9.15365E+000,9.98409E-001,1.38450E+001,-4.65072E+001,9.97718E-001,1.50140E-001,-6.39182E-002,-4.59946E-004,1.50141E-001,-6.39192E-002,-1.23110E-001,1.50692E-001,1.16199E+000,-4.60466E-003,0.00000E+000,2.84311E-003,9.40726E-001,0.00000E+000,-8.18643E-005,-7.51884E-002,1.00000E+000,24
749,1327,-8.23810E+000,-6.40540E-001,7.61839E-002,3.74314E+000,-5.72939E-001,1.22402E-001,3.78871E+000,1.03233E-002,5.49399E-001,0,5.77871E+001,-9.69947E+000,9.97956E-001,1.37948E+001,-4.72040E+001,9.97833E-001,1.50085E-001,-6.39236E-002,-6.85485E-004,1.50088E-001,-6.39258E-002,-1.83520E-001,1.50636E-001,1.16193E+000,-4.60520E-003,0.00000E+000,2.47844E-003,9.40722E-001,0.00000E+000,-9.50338E-004,-7.51958E-002,1.00000E+000,24
749,1337,-8.22801E+000,-3.56381E-002,3.13287E-002,3.74135E+000,-6.08393E-001,7.73506E-002,3.79128E+000,1.03333E-002,5.65983E-001,0,5.78967E+001,-1.01764E+001,9.97910E-001,1.39619E+001,-4.77821E+001,9.97898E-001,1.50030E-001,-6.39335E-002,-9.12571E-004,1.50034E-001,-6.39374E-002,-2.44365E-001,1.50578E-001,1.16186E+000,-4.60636E-003,0.00000E+000,2.11172E-003,9.40716E-001,0.00000E+000,-1.82369E-003,-7.52119E-002,1.00000E+000,24
749,1347,-8.21295E+000,5.68295E-001,6.51729E-003,3.74001E+000,-6.47848E-001,2.84574E-002,3.79581E+000,1.11141E-002,5.16773E-001,0,5.80229E+001,-1.06824E+001,9.98129E-001,1.42568E+001,-4.84522E+001,9.98076E-001,1.49973E-001,-6.39465E-002,-1.14042E-003,1.49979E-001,-6.39526E-002,-3.05436E-001,1.50520E-001,1.16180E+000,-4.60797E-003,0.00000E+000,1.74412E-003,9.40706E-001,0.00000E+000,-2.69914E-003,-7.52342E-002,1.00000E+000,24
1109,1297,1.91967E+001,-1.94977E+000,1.22377E-001,7.72400E+000,-1.60926E-001,7.12386E-002,7.72600E+000,1.15521E-002,4.61399E-001,0,1.16336E+002,-3.60549E+000,9.97799E-001,7.80571E+001,-3.40416E+001,9.95942E-001,1.51310E-001,-6.36550E-002,-1.65641E-003,1.51323E-001,-6.36677E-002,-4.41456E-001,1.51955E-001,1.16308E+000,-2.64712E-002,0.00000E+000,1.79365E-002,9.40072E-001,0.00000E+000,3.99571E-003,-6.39473E-002,1.00000E+000,24
1109,1307,1.91894E+001,-1.34917E+000,3.91247E-002,7.71007E+000,-2.02125E-001,2.68848E-002,7.71277E+000,1.27742E-002,4.10456E-001,0,1.16306E+002,-4.16683E+000,9.98267E-001,7.78696E+001,-3.45724E+001,9.97646E-001,1.52136E-001,-6.36598E-002,-1.71961E-003,1.52150E-001,-6.36735E-002,-4.56534E-001,1.52822E-001,1.16403E+000,-2.64614E-002,0.00000E+000,1.78318E-002,9.40071E-001,0.00000E+000,3.31715E-003,-6.39543E-002,1.00000E+000,24
1109,1317,1.91828E+001,-7.45967E-001,-2.46298E-002,7.69304E+000,-2.43338E-001,-1.35494E-002,7.69690E+000,1.51309E-002,4.21262E-001,0,1.16210E+002,-4.76057E+000,9.97301E-001,7.77248E+001,-3.50737E+001,9.96468E-001,1.52963E-001,-6.36655E-002,-1.78065E-003,1.52978E-001,-6.36801E-002,-4.70920E-001,1.53691E-001,1.16499E+000,-2.64460E-002,0.00000E+000,1.77268E-002,9.40069E-001,0.00000E+000,2.63677E-003,-6.39652E-002,1.00000E+000,24
749,1357,-8.18919E+000,1.17956E+000,3.18238E-002,3.73975E+000,-6.86676E-001,-1.03506E-002,3.80228E+000,1.36922E-002,5.27166E-001,0,5.81294E+001,-1.12216E+001,9.98033E-001,1.48141E+001,-4.90912E+001,9.97862E-001,1.49915E-001,-6.39648E-002,-1.37011E-003,1.49924E-001,-6.39736E-002,-3.67016E-001,1.50460E-001,1.16173E+000,-4.61033E-003,0.00000E+000,1.37410E-003,9.40693E-001,0.00000E+000,-3.58034E-003,-7.52667E-002,1.00000E+000,24
1109,1327,1.91788E+001,-1.41754E-001,-7.00823E-002,7.67386E+000,-2.86518E-001,-5.54368E-002,7.67940E+000,1.37568E-002,4.26801E-001,0,1.16083E+002,-5.37698E+000,9.96359E-001,7.76517E+001,-3.56022E+001,9.95336E-001,1.53791E-001,-6.36723E-002,-1.83892E-003,1.53806E-001,-6.36879E-002,-4.84460E-001,1.54561E-001,1.16596E+000,-2.64237E-002,0.00000E+000,1.76215E-002,9.40067E-001,0.00000E+000,1.95447E-003,-6.39810E-002,1.00000E+000,24
1109,1337,1.91829E+001,4.74568E-001,-8.62286E-002,7.65735E+000,-3.21952E-001,-8.98033E-002,7.66464E+000,1.42221E-002,4.66443E-001,0,1.15958E+002,-5.89121E+000,9.97933E-001,7.77528E+001,-3.59909E+001,9.97589E-001,1.54621E-001,-6.36804E-002,-1.89423E-003,1.54638E-001,-6.36968E-002,-4.97113E-001,1.55436E-001,1.16693E+000,-2.63935E-002,0.00000E+000,1.75157E-002,9.40063E-001,0.00000E+000,1.26890E-003,-6.40024E-002,1.00000E+000,24
1109,1347,1.92003E+001,1.09042E+000,-6.20840E-002,7.64477E+000,-3.62977E-001,-1.22476E-001,7.65436E+000,1.38397E-002,4.57517E-001,0,1.15876E+002,-6.48283E+000,9.98198E-001,7.81276E+001,-3.65019E+001,9.97222E-001,1.55454E-001,-6.36906E-002,-1.94406E-003,1.55471E-001,-6.37079E-002,-5.08226E-001,1.56313E-001,1.16790E+000,-2.63496E-002,0.00000E+000,1.74094E-002,9.40059E-001,0.00000E+000,5.80304E-004,-6.40335E-002,1.00000E+000,24
739,1337,-8.97450E+000,-4.82455E-002,3.18327E-002,3.63889E+000,-6.15240E-001,7.61827E-002,3.69132E+000,1.17280E-002,5.55583E-001,0,5.63543E+001,-1.02669E+001,9.97794E-001,1.25027E+001,-4.80871E+001,9.97609E-001,1.48679E-001,-6.33643E-002,-1.01462E-003,1.48684E-001,-6.33692E-002,-2.74150E-001,1.49223E-001,1.16029E+000,-4.51445E-003,0.00000E+000,1.82514E-003,9.41202E-001,0.00000E+000,-1.46701E-003,-7.44987E-002,1.00000E+000,24
739,1347,-8.96369E+000,5.59435E-001,1.18933E-002,3.63375E+000,-6.50625E-001,3.37441E-002,3.69169E+000,8.87608E-003,5.23788E-001,0,5.64002E+001,-1.07299E+001,9.98952E-001,1.27465E+001,-4.87039E+001,9.98770E-001,1.48416E-001,-6.33774E-002,-1.25473E-003,1.48424E-001,-6.33849E-002,-3.39420E-001,1.48949E-001,1.15999E+000,-4.52191E-003,0.00000E+000,1.44422E-003,9.41193E-001,0.00000E+000,-2.41570E-003,-7.45222E-002,1.00000E+000,24
739,1357,-8.94036E+000,1.17377E+000,3.63341E-002,3.63365E+000,-6.85734E-001,-3.97022E-003,3.69779E+000,9.68354E-003,5.19013E-001,0,5.65045E+001,-1.12079E+001,9.98533E-001,1.32981E+001,-4.93033E+001,9.98564E-001,1.48151E-001,-6.33959E-002,-1.49781E-003,1.48162E-001,-6.34065E-002,-4.05643E-001,1.48674E-001,1.15969E+000,-4.53285E-003,0.00000E+000,1.06099E-003,9.41179E-001,0.00000E+000,-3.37017E-003,-7.45565E-002,1.00000E+000,24
739,1327,-8.98644E+000,-6.48404E-001,7.61632E-002,3.63869E+000,-5.75017E-001,1.20527E-001,3.68581E+000,1.10526E-002,5.11919E-001,0,5.62155E+001,-9.70457E+000,9.98922E-001,1.23065E+001,-4.74467E+001,9.98618E-001,1.48940E-001,-6.33542E-002,-7.75857E-004,1.48942E-001,-6.33570E-002,-2.09392E-001,1.49494E-001,1.16059E+000,-4.50896E-003,0.00000E+000,2.20530E-003,9.41209E-001,0.00000E+000,-5.20205E-004,-7.44815E-002,1.00000E+000,24
1119,1297,1.99584E+001,-1.93483E+000,1.10767E-001,7.82910E+000,-1.49110E-001,7.47861E-002,7.83087E+000,1.24072E-002,4.14662E-001,0,1.17814E+002,-3.42614E+000,9.98803E-001,7.99055E+001,-3.37163E+001,9.97884E-001,1.52003E-001,-6.35455E-002,-1.84359E-003,1.52019E-001,-6.35613E-002,-4.90003E-001,1.52697E-001,1.16391E+000,-2.53393E-002,0.00000E+000,1.66649E-002,9.40226E-001,0.00000E+000,3.85935E-003,-6.43933E-002,1.00000E+000,24
1119,1307,1.99525E+001,-1.33485E+000,3.34714E-002,7.81514E+000,-1.92047E-001,3.07436E-002,7.81756E+000,1.08990E-002,4.16920E-001,0,1.17783E+002,-4.04007E+000,9.98730E-001,7.97496E+001,-3.42410E+001,9.98570E-001,1.52786E-001,-6.35468E-002,-1.85099E-003,1.52802E-001,-6.35627E-002,-4.90187E-001,1.53519E-001,1.16482E+000,-2.53280E-002,0.00000E+000,1.66705E-002,9.40226E-001,0.00000E+000,3.11402E-003,-6.44026E-002,1.00000E+000,24
1119,1317,1.99513E+001,-7.30232E-001,-2.71902E-002,7.80266E+000,-2.32093E-001,-9.73462E-003,7.80612E+000,1.20211E-002,4.16734E-001,0,1.17755E+002,-4.61805E+000,9.97913E-001,7.96939E+001,-3.47301E+001,9.98060E-001,1.53569E-001,-6.35483E-002,-1.85657E-003,1.53585E-001,-6.35642E-002,-4.89888E-001,1.54343E-001,1.16573E+000,-2.53123E-002,0.00000E+000,1.66761E-002,9.40226E-001,0.00000E+000,2.36753E-003,-6.44155E-002,1.00000E+000,24
1119,1327,1.99494E+001,-1.23597E-001,-6.77009E-002,7.78469E+000,-2.73291E-001,-4.97480E-002,7.78964E+000,1.14844E-002,4.05497E-001,0,1.17638E+002,-5.20406E+000,9.97692E-001,7.96608E+001,-3.52383E+001,9.97643E-001,1.54353E-001,-6.35501E-002,-1.85940E-003,1.54369E-001,-6.35660E-002,-4.88865E-001,1.55168E-001,1.16664E+000,-2.52899E-002,0.00000E+000,1.66817E-002,9.40227E-001,0.00000E+000,1.61865E-003,-6.44338E-002,1.00000E+000,24
1119,1337,1.99532E+001,4.86968E-001,-8.51216E-002,7.76713E+000,-3.15413E-001,-8.79587E-002,7.77403E+000,1.05529E-002,4.53798E-001,0,1.17514E+002,-5.81241E+000,9.98725E-001,7.97537E+001,-3.57077E+001,9.98187E-001,1.55140E-001,-6.35523E-002,-1.85926E-003,1.55156E-001,-6.35681E-002,-4.87065E-001,1.55997E-001,1.16756E+000,-2.52603E-002,0.00000E+000,1.66874E-002,9.40227E-001,0.00000E+000,8.65567E-004,-6.44581E-002,1.00000E+000,24
1119,1347,1.99675E+001,1.10273E+000,-6.36695E-002,7.75196E+000,-3.55852E-001,-1.20413E-001,7.76106E+000,1.49769E-002,4.33439E-001,0,1.17394E+002,-6.39726E+000,9.98715E-001,8.00735E+001,-3.62186E+001,9.97966E-001,1.55928E-001,-6.35549E-002,-1.85449E-003,1.55944E-001,-6.35705E-002,-4.84066E-001,1.56828E-001,1.16848E+000,-2.52195E-002,0.00000E+000,1.66930E-002,9.40227E-001,0.00000E+000,1.10574E-004,-6.44916E-002,1.00000E+000,24
739,1317,-8.98576E+000,-1.23832E+000,1.60510E-001,3.64444E+000,-5.31009E-001,1.69647E-001,3.68682E+000,1.38367E-002,5.51856E-001,0,5.61486E+001,-9.11541E+000,9.98682E-001,1.24090E+001,-4.66914E+001,9.98078E-001,1.49198E-001,-6.33489E-002,-5.40012E-004,1.49199E-001,-6.33502E-002,-1.45569E-001,1.49763E-001,1.16089E+000,-4.50657E-003,0.00000E+000,2.58293E-003,9.41212E-001,0.00000E+000,4.20313E-004,-7.44740E-002,1.00000E+000,24
1129,1297,2.07188E+001,-1.91201E+000,1.07061E-001,7.93134E+000,-1.29973E-001,8.14299E-002,7.93282E+000,1.30199E-002,4.20223E-001,0,1.19229E+002,-3.16853E+000,9.99169E-001,8.17519E+001,-3.32598E+001,9.98259E-001,1.52489E-001,-6.35937E-002,-2.09952E-003,1.52510E-001,-6.36141E-002,-5.56631E-001,1.53207E-001,1.16449E+000,-2.42972E-002,0.00000E+000,1.53767E-002,9.40229E-001,0.00000E+000,3.09138E-003,-6.47850E-002,1.00000E+000,24
1129,1307,2.07140E+001,-1.32134E+000,2.56584E-002,7.91819E+000,-1.82364E-001,3.25715E-002,7.92035E+000,1.83290E-002,4.00209E-001,0,1.19234E+002,-3.90989E+000,9.98971E-001,8.16053E+001,-3.39294E+001,9.96479E-001,1.53330E-001,-6.35908E-002,-2.04194E-003,1.53349E-001,-6.36101E-002,-5.39279E-001,1.54089E-001,1.16547E+000,-2.42847E-002,0.00000E+000,1.55039E-002,9.40230E-001,0.00000E+000,2.34967E-003,-6.47946E-002,1.00000E+000,24
1129,1317,2.07162E+001,-7.19481E-001,-3.54961E-002,7.90868E+000,-2.25586E-001,-9.97503E-003,7.91191E+000,1.06854E-002,3.83301E-001,0,1.19260E+002,-4.52524E+000,9.98992E-001,8.16023E+001,-3.44664E+001,9.97184E-001,1.54170E-001,-6.35875E-002,-1.98215E-003,1.54188E-001,-6.36056E-002,-5.21479E-001,1.54973E-001,1.16645E+000,-2.42671E-002,0.00000E+000,1.56313E-002,9.40233E-001,0.00000E+000,1.60650E-003,-6.48079E-002,1.00000E+000,24
729,1347,-9.70053E+000,5.45992E-001,2.23244E-002,3.53981E+000,-6.59405E-001,3.79584E-002,3.60091E+000,7.68781E-003,5.66488E-001,0,5.49703E+001,-1.08805E+001,9.99410E-001,1.14666E+001,-4.90176E+001,9.99247E-001,1.46845E-001,-6.28772E-002,-1.09410E-003,1.46851E-001,-6.28829E-002,-2.98894E-001,1.47355E-001,1.15817E+000,-3.84773E-003,0.00000E+000,1.20678E-003,9.41587E-001,0.00000E+000,-2.40422E-003,-7.34151E-002,1.00000E+000,24
729,1357,-9.68376E+000,1.16618E+000,3.79341E-002,3.53449E+000,-6.87713E-001,-2.48390E-003,3.60078E+000,9.32247E-003,5.53723E-001,0,5.50002E+001,-1.12386E+001,9.98823E-001,1.18980E+001,-4.95143E+001,9.98916E-001,1.46319E-001,-6.28908E-002,-1.29010E-003,1.46327E-001,-6.28987E-002,-3.53299E-001,1.46806E-001,1.15757E+000,-3.86827E-003,0.00000E+000,9.35553E-004,9.41578E-001,0.00000E+000,-3.58441E-003,-7.34551E-002,1.00000E+000,24
1129,1327,2.07189E+001,-1.08303E-001,-6.83406E-002,7.89570E+000,-2.61599E-001,-4.01110E-002,7.90014E+000,1.25418E-002,3.89209E-001,0,1.19179E+002,-5.07128E+000,9.98782E-001,8.16519E+001,-3.49101E+001,9.98261E-001,1.55011E-001,-6.35837E-002,-1.91986E-003,1.55028E-001,-6.36005E-002,-5.03161E-001,1.55858E-001,1.16743E+000,-2.42437E-002,0.00000E+000,1.57590E-002,9.40236E-001,0.00000E+000,8.61928E-004,-6.48257E-002,1.00000E+000,24
729,1337,-9.71945E+000,-5.48381E-002,3.90734E-002,3.53788E+000,-6.15882E-001,8.34573E-002,3.59206E+000,1.04423E-002,5.49466E-001,0,5.48050E+001,-1.02813E+001,9.98525E-001,1.10908E+001,-4.83119E+001,9.98132E-001,1.47368E-001,-6.28665E-002,-9.00899E-004,1.47372E-001,-6.28704E-002,-2.45518E-001,1.47900E-001,1.15878E+000,-3.83192E-003,0.00000E+000,1.47697E-003,9.41594E-001,0.00000E+000,-1.22850E-003,-7.33843E-002,1.00000E+000,24
729,1327,-9.73007E+000,-6.53676E-001,8.21332E-002,3.53800E+000,-5.76289E-001,1.21931E-001,3.58670E+000,1.12136E-002,5.22250E-001,0,5.46894E+001,-9.70760E+000,9.98439E-001,1.09113E+001,-4.76381E+001,9.97826E-001,1.47886E-001,-6.28593E-002,-7.11353E-004,1.47888E-001,-6.28617E-002,-1.93394E-001,1.48441E-001,1.15937E+000,-3.82190E-003,0.00000E+000,1.74554E-003,9.41598E-001,0.00000E+000,-5.98283E-005,-7.33647E-002,1.00000E+000,24
1129,1337,2.07334E+001,5.04638E-001,-6.83679E-002,7.88284E+000,-3.06286E-001,-8.44623E-002,7.88925E+000,1.38170E-002,4.64207E-001,0,1.19145E+002,-5.70024E+000,9.98442E-001,8.19380E+001,-3.53649E+001,9.98393E-001,1.55861E-001,-6.35782E-002,-1.84966E-003,1.55876E-001,-6.35938E-002,-4.82904E-001,1.56754E-001,1.16842E+000,-2.42030E-002,0.00000E+000,1.58882E-002,9.40241E-001,0.00000E+000,1.08329E-004,-6.48566E-002,1.00000E+000,24
729,1317,-9.73358E+000,-1.24601E+000,1.56365E-001,3.54094E+000,-5.33163E-001,1.68527E-001,3.58482E+000,1.28189E-002,5.52676E-001,0,5.45889E+001,-9.13208E+000,9.98383E-001,1.09231E+001,-4.69017E+001,9.97487E-001,1.48401E-001,-6.28546E-002,-5.23992E-004,1.48402E-001,-6.28559E-002,-1.42114E-001,1.48979E-001,1.15997E+000,-3.81587E-003,0.00000E+000,2.01347E-003,9.41601E-001,0.00000E+000,1.10602E-003,-7.33530E-002,1.00000E+000,24
1129,1347,2.07408E+001,1.12319E+000,-6.27239E-002,7.86340E+000,-3.42643E-001,-1.21123E-001,7.87179E+000,1.66147E-002,4.61846E-001,0,1.18980E+002,-6.21976E+000,9.98201E-001,8.21224E+001,-3.57880E+001,9.97474E-001,1.56706E-001,-6.35729E-002,-1.78013E-003,1.56720E-001,-6.35873E-002,-4.62982E-001,1.57646E-001,1.16941E+000,-2.41631E-002,0.00000E+000,1.60169E-002,9.40246E-001,0.00000E+000,-6.42269E-004,-6.48869E-002,1.00000E+000,24
719,1347,-1.04493E+001,5.45656E-001,2.06768E-002,3.43505E+000,-6.53602E-001,3.78060E-002,3.49688E+000,1.22221E-002,5.63838E-001,0,5.33804E+001,-1.07752E+001,9.98687E-001,9.98132E+000,-4.91277E+001,9.98609E-001,1.45627E-001,-6.26023E-002,-9.99244E-004,1.45632E-001,-6.26071E-002,-2.74941E-001,1.46108E-001,1.15676E+000,-2.99078E-003,0.00000E+000,6.76637E-004,9.41750E-001,0.00000E+000,-2.15122E-003,-7.20132E-002,1.00000E+000,24
719,1357,-1.04345E+001,1.15670E+000,3.61339E-002,3.42806E+000,-6.91342E-001,-1.95200E-003,3.49708E+000,1.02573E-002,5.58458E-001,0,5.33847E+001,-1.12752E+001,9.98797E-001,1.03815E+001,-4.97631E+001,9.98827E-001,1.44858E-001,-6.26105E-002,-1.12863E-003,1.44864E-001,-6.26166E-002,-3.11677E-001,1.45307E-001,1.15588E+000,-3.02030E-003,0.00000E+000,5.48281E-004,9.41746E-001,0.00000E+000,-3.49166E-003,-7.20579E-002,1.00000E+000,24
719,1337,-1.04655E+001,-5.73096E-002,3.68278E-002,3.43480E+000,-6.13425E-001,7.84495E-002,3.49003E+000,1.37445E-002,5.64074E-001,0,5.32568E+001,-1.02207E+001,9.97568E-001,9.64258E+000,-4.84427E+001,9.96977E-001,1.46389E-001,-6.25961E-002,-8.73945E-004,1.46393E-001,-6.25998E-002,-2.39597E-001,1.46903E-001,1.15764E+000,-2.96900E-003,0.00000E+000,8.04247E-004,9.41754E-001,0.00000E+000,-8.18573E-004,-7.19802E-002,1.00000E+000,24
719,1327,-1.04730E+001,-6.55055E-001,8.85490E-002,3.43767E+000,-5.73282E-001,1.23930E-001,3.48735E+000,9.97128E-003,5.56546E-001,0,5.31634E+001,-9.66326E+000,9.97563E-001,9.53396E+000,-4.77585E+001,9.97001E-001,1.47145E-001,-6.25920E-002,-7.52626E-004,1.47148E-001,-6.25947E-002,-2.05598E-001,1.47693E-001,1.15852E+000,-2.95495E-003,0.00000E+000,9.31188E-004,9.41756E-001,0.00000E+000,5.07090E-004,-7.19589E-002,1.00000E+000,24
719,1317,-1.04777E+001,-1.24872E+000,1.68122E-001,3.43825E+000,-5.32034E-001,1.70093E-001,3.48333E+000,1.33540E-002,5.53154E-001,0,5.30288E+001,-9.10640E+000,9.97319E-001,9.54118E+000,-4.70692E+001,9.96561E-001,1.47897E-001,-6.25897E-002,-6.34479E-004,1.47899E-001,-6.25916E-002,-1.72707E-001,1.48479E-001,1.15939E+000,-2.94767E-003,0.00000E+000,1.05787E-003,9.41757E-001,0.00000E+000,1.83004E-003,-7.19479E-002,1.00000E+000,24
1139,1297,2.14972E+001,-1.90201E+000,1.09622E-001,8.04966E+000,-1.23334E-001,8.85012E-002,8.05110E+000,8.78364E-003,3.53079E-001,0,1.20884E+002,-3.08809E+000,9.99555E-001,8.38913E+001,-3.30499E+001,9.98643E-001,1.52924E-001,-6.37543E-002,-2.26295E-003,1.52948E-001,-6.37780E-002,-5.98298E-001,1.53649E-001,1.16502E+000,-2.32026E-002,0.00000E+000,1.42427E-002,9.40127E-001,0.00000E+000,1.98325E-003,-6.52673E-002,1.00000E+000,24
1139,1307,2.14889E+001,-1.31277E+000,1.65053E-002,8.03417E+000,-1.77198E-001,3.26684E-002,8.03619E+000,1.15784E-002,3.39280E-001,0,1.20884E+002,-3.83296E+000,9.99274E-001,8.36731E+001,-3.37122E+001,9.98249E-001,1.53876E-001,-6.37500E-002,-2.17611E-003,1.53898E-001,-6.37718E-002,-5.72844E-001,1.54648E-001,1.16612E+000,-2.31903E-002,0.00000E+000,1.44205E-002,9.40129E-001,0.00000E+000,1.30343E-003,-6.52749E-002,1.00000E+000,24
1139,1337,2.15018E+001,5.27205E-001,-7.17919E-002,7.99005E+000,-2.89647E-001,-8.58778E-002,7.99576E+000,1.43352E-002,5.09027E-001,0,1.20666E+002,-5.48430E+000,9.97955E-001,8.39102E+001,-3.48860E+001,9.97212E-001,1.56745E-001,-6.37292E-002,-1.88895E-003,1.56761E-001,-6.37454E-002,-4.90845E-001,1.57669E-001,1.16947E+000,-2.30938E-002,0.00000E+000,1.49582E-002,9.40145E-001,0.00000E+000,-7.52328E-004,-6.53341E-002,1.00000E+000,24
1139,1347,2.15217E+001,1.14113E+000,-4.59482E-002,7.97878E+000,-3.33790E-001,-1.18818E-001,7.98664E+000,1.49987E-002,5.02943E-001,0,1.20608E+002,-6.12376E+000,9.97731E-001,8.43182E+001,-3.54246E+001,9.96423E-001,1.57705E-001,-6.37195E-002,-1.78425E-003,1.57719E-001,-6.37339E-002,-4.61654E-001,1.58683E-001,1.17060E+000,-2.30414E-002,0.00000E+000,1.51387E-002,9.40153E-001,0.00000E+000,-1.44247E-003,-6.53663E-002,1.00000E+000,24
1139,1327,2.14921E+001,-9.33478E-002,-7.76673E-002,8.00770E+000,-2.54107E-001,-4.82729E-002,8.01187E+000,1.39981E-002,4.44865E-001,0,1.20801E+002,-4.96129E+000,9.98435E-001,8.36916E+001,-3.45319E+001,9.96846E-001,1.55785E-001,-6.37380E-002,-1.99093E-003,1.55803E-001,-6.37561E-002,-5.19578E-001,1.56657E-001,1.16835E+000,-2.31399E-002,0.00000E+000,1.47780E-002,9.40137E-001,0.00000E+000,-6.34012E-005,-6.53058E-002,1.00000E+000,24
1139,1317,2.14809E+001,-7.08984E-001,-5.09892E-002,8.01544E+000,-2.18812E-001,-1.17646E-002,8.01844E+000,1.29740E-002,3.92788E-001,0,1.20782E+002,-4.44239E+000,9.99332E-001,8.35003E+001,-3.41699E+001,9.97617E-001,1.54828E-001,-6.37450E-002,-2.08663E-003,1.54848E-001,-6.37649E-002,-5.46914E-001,1.55649E-001,1.16723E+000,-2.31720E-002,0.00000E+000,1.45988E-002,9.40132E-001,0.00000E+000,6.21995E-004,-6.52861E-002,1.00000E+000,24
709,1347,-1.12017E+001,5.45945E-001,1.88009E-002,3.32620E+000,-6.47089E-001,3.77852E-002,3.38877E+000,1.23811E-002,5.39538E-001,0,5.17245E+001,-1.06482E+001,9.98267E-001,8.44337E+000,-4.92392E+001,9.98117E-001,1.44458E-001,-6.16550E-002,-1.10144E-003,1.44464E-001,-6.16608E-002,-3.06167E-001,1.44979E-001,1.15541E+000,-2.12907E-003,0.00000E+000,-2.37199E-004,9.42580E-001,0.00000E+000,-1.80781E-003,-7.10725E-002,1.00000E+000,24
709,1357,-1.11843E+001,1.15592E+000,3.16374E-002,3.32264E+000,-6.84347E-001,-1.55556E-003,3.39238E+000,1.11546E-002,5.25323E-001,0,5.17802E+001,-1.11512E+001,9.98756E-001,8.87904E+000,-4.98913E+001,9.98729E-001,1.43558E-001,-6.16658E-002,-1.28030E-003,1.43566E-001,-6.16738E-002,-3.57424E-001,1.44040E-001,1.15438E+000,-2.16243E-003,0.00000E+000,-4.64207E-004,9.42573E-001,0.00000E+000,-3.04996E-003,-7.11125E-002,1.00000E+000,24
709,1337,-1.12077E+001,-6.35360E-002,4.55403E-002,3.33460E+000,-6.14755E-001,8.10127E-002,3.39176E+000,1.09337E-002,5.54779E-001,0,5.17295E+001,-1.02318E+001,9.98094E-001,8.28748E+000,-4.86666E+001,9.97853E-001,1.45352E-001,-6.16473E-002,-9.27957E-004,1.45356E-001,-6.16515E-002,-2.56844E-001,1.45913E-001,1.15645E+000,-2.10612E-003,0.00000E+000,-1.13269E-005,9.42585E-001,0.00000E+000,-5.71883E-004,-7.10450E-002,1.00000E+000,24
709,1317,-1.12172E+001,-1.24892E+000,1.89604E-001,3.33904E+000,-5.29348E-001,1.76872E-001,3.38536E+000,1.39334E-002,5.66925E-001,0,5.15041E+001,-9.07054E+000,9.98234E-001,8.26295E+000,-4.72116E+001,9.98145E-001,1.47122E-001,-6.16395E-002,-5.93316E-004,1.47124E-001,-6.16412E-002,-1.62837E-001,1.47766E-001,1.15850E+000,-2.08389E-003,0.00000E+000,4.37653E-004,9.42590E-001,0.00000E+000,1.88485E-003,-7.10184E-002,1.00000E+000,24
709,1327,-1.12107E+001,-6.56269E-001,1.11125E-001,3.33977E+000,-5.71209E-001,1.29061E-001,3.39072E+000,1.48477E-002,5.98905E-001,0,5.16626E+001,-9.65695E+000,9.98420E-001,8.28460E+000,-4.79067E+001,9.98046E-001,1.46239E-001,-6.16429E-002,-7.59680E-004,1.46242E-001,-6.16456E-002,-2.09377E-001,1.46841E-001,1.15747E+000,-2.09311E-003,0.00000E+000,2.13331E-004,9.42588E-001,0.00000E+000,6.57406E-004,-7.10294E-002,1.00000E+000,24
1149,1297,2.22646E+001,-1.89302E+000,9.31799E-002,8.15839E+000,-1.19081E-001,8.45182E-002,8.15970E+000,2.10646E-002,3.88234E-001,0,1.22439E+002,-3.03211E+000,9.98707E-001,8.58324E+001,-3.27655E+001,9.95871E-001,1.53300E-001,-6.38784E-002,-2.40737E-003,1.53326E-001,-6.39051E-002,-6.35008E-001,1.54033E-001,1.16547E+000,-2.21576E-002,0.00000E+000,1.32081E-002,9.40070E-001,0.00000E+000,5.43822E-004,-6.59616E-002,1.00000E+000,24
1149,1307,2.22677E+001,-1.28844E+000,1.79398E-002,8.15306E+000,-1.57603E-001,4.15503E-002,8.15469E+000,1.33778E-002,3.72915E-001,0,1.22534E+002,-3.58431E+000,9.99060E-001,8.58222E+001,-3.32256E+001,9.97459E-001,1.54365E-001,-6.38748E-002,-2.33339E-003,1.54390E-001,-6.38998E-002,-6.12506E-001,1.55151E-001,1.16671E+000,-2.21412E-002,0.00000E+000,1.33507E-002,9.40072E-001,0.00000E+000,-2.33776E-005,-6.59690E-002,1.00000E+000,24
1149,1317,2.22632E+001,-6.86139E-001,-4.55791E-002,8.13559E+000,-2.02436E-001,-7.54944E-003,8.13811E+000,1.21389E-002,4.16016E-001,0,1.22469E+002,-4.22475E+000,9.98969E-001,8.57104E+001,-3.37183E+001,9.97278E-001,1.55433E-001,-6.38705E-002,-2.25555E-003,1.55457E-001,-6.38937E-002,-5.89208E-001,1.56275E-001,1.16796E+000,-2.21165E-002,0.00000E+000,1.34940E-002,9.40075E-001,0.00000E+000,-5.93291E-004,-6.59804E-002,1.00000E+000,24
1149,1327,2.22632E+001,-7.34855E-002,-8.48843E-002,8.11816E+000,-2.37822E-001,-5.02051E-002,8.12180E+000,1.27306E-002,3.97941E-001,0,1.22370E+002,-4.72999E+000,9.98596E-001,8.57061E+001,-3.41338E+001,9.96890E-001,1.56500E-001,-6.38654E-002,-2.17430E-003,1.56522E-001,-6.38868E-002,-5.65252E-001,1.57399E-001,1.16921E+000,-2.20834E-002,0.00000E+000,1.36372E-002,9.40079E-001,0.00000E+000,-1.16317E-003,-6.59955E-002,1.00000E+000,24
1149,1337,2.22755E+001,5.36399E-001,-8.95215E-002,8.10456E+000,-2.85377E-001,-9.16182E-002,8.11010E+000,1.93999E-002,5.00315E-001,0,1.22319E+002,-5.41685E+000,9.98474E-001,8.59463E+001,-3.46090E+001,9.97757E-001,1.57578E-001,-6.38587E-002,-2.08559E-003,1.57598E-001,-6.38784E-002,-5.39574E-001,1.58536E-001,1.17047E+000,-2.20344E-002,0.00000E+000,1.37822E-002,9.40085E-001,0.00000E+000,-1.73977E-003,-6.60179E-002,1.00000E+000,24
1149,1347,2.23014E+001,1.15418E+000,-4.86053E-002,8.09533E+000,-3.28795E-001,-1.24589E-001,8.10296E+000,1.86175E-002,4.96227E-001,0,1.22287E+002,-6.03617E+000,9.98515E-001,8.64698E+001,-3.51179E+001,9.97423E-001,1.58657E-001,-6.38505E-002,-1.98948E-003,1.58675E-001,-6.38682E-002,-5.12238E-001,1.59677E-001,1.17173E+000,-2.19680E-002,0.00000E+000,1.39275E-002,9.40092E-001,0.00000E+000,-2.31796E-003,-6.60482E-002,1.00000E+000,24
699,1347,-1.19356E+001,5.40588E-001,2.59677E-002,3.23406E+000,-6.48681E-001,3.90678E-002,3.29871E+000,1.23270E-002,5.76672E-001,0,5.03230E+001,-1.06637E+001,9.98777E-001,7.21736E+000,-4.94243E+001,9.98655E-001,1.43185E-001,-6.07439E-002,-9.76828E-004,1.43190E-001,-6.07486E-002,-2.74441E-001,1.43736E-001,1.15395E+000,-7.94263E-004,0.00000E+000,-1.10168E-003,9.43356E-001,0.00000E+000,-1.57806E-003,-6.98214E-002,1.00000E+000,24
699,1357,-1.19199E+001,1.14488E+000,3.80863E-002,3.22927E+000,-6.91139E-001,7.45407E-004,3.30241E+000,1.19615E-002,5.79070E-001,0,5.03577E+001,-1.12584E+001,9.98716E-001,7.62506E+000,-5.01560E+001,9.98542E-001,1.42197E-001,-6.07516E-002,-1.11497E-003,1.42203E-001,-6.07577E-002,-3.14763E-001,1.42703E-001,1.15281E+000,-8.29925E-004,0.00000E+000,-1.26485E-003,9.43350E-001,0.00000E+000,-2.62682E-003,-6.98543E-002,1.00000E+000,24
699,1337,-1.19519E+001,-7.24646E-002,4.91246E-002,3.23231E+000,-6.18759E-001,7.97354E-002,3.29196E+000,9.39531E-003,5.53848E-001,0,5.01795E+001,-1.02780E+001,9.98695E-001,6.89357E+000,-4.89173E+001,9.98601E-001,1.44169E-001,-6.07385E-002,-8.43556E-004,1.44172E-001,-6.07419E-002,-2.35868E-001,1.44766E-001,1.15508E+000,-7.68978E-004,0.00000E+000,-9.38969E-004,9.43359E-001,0.00000E+000,-5.32173E-004,-6.97981E-002,1.00000E+000,24
699,1317,-1.19634E+001,-1.25025E+000,2.00275E-001,3.23227E+000,-5.28837E-001,1.70632E-001,3.27968E+000,1.35993E-002,6.01359E-001,0,4.98987E+001,-9.03818E+000,9.98792E-001,6.85763E+000,-4.73390E+001,9.98324E-001,1.46111E-001,-6.07341E-002,-5.92529E-004,1.46112E-001,-6.07358E-002,-1.64128E-001,1.46803E-001,1.15733E+000,-7.48728E-004,0.00000E+000,-6.16689E-004,9.43362E-001,0.00000E+000,1.53934E-003,-6.97794E-002,1.00000E+000,24
699,1327,-1.19575E+001,-6.58783E-001,1.10564E-001,3.23415E+000,-5.71890E-001,1.20714E-001,3.28654E+000,1.10561E-002,6.81752E-001,0,5.00816E+001,-9.63948E+000,9.98723E-001,6.83994E+000,-4.80064E+001,9.97504E-001,1.45139E-001,-6.07356E-002,-7.16994E-004,1.45141E-001,-6.07381E-002,-1.99539E-001,1.45783E-001,1.15620E+000,-7.55886E-004,0.00000E+000,-7.78147E-004,9.43361E-001,0.00000E+000,5.01540E-004,-6.97860E-002,1.00000E+000,24
1159,1307,2.30317E+001,-1.28046E+000,6.20741E-005,8.25791E+000,-1.53717E-001,3.60007E-002,8.25942E+000,1.52766E-002,3.72289E-001,0,1.24036E+002,-3.52683E+000,9.97219E-001,8.77139E+001,-3.29704E+001,9.95757E-001,1.54976E-001,-6.42051E-002,-2.38288E-003,1.55002E-001,-6.42310E-002,-6.22806E-001,1.55757E-001,1.16744E+000,-2.11778E-002,0.00000E+000,1.25481E-002,9.39807E-001,0.00000E+000,-1.29659E-003,-6.64974E-002,1.00000E+000,24
1159,1317,2.30350E+001,-6.69198E-001,-5.74358E-002,8.24811E+000,-1.90425E-001,-7.17459E-003,8.25031E+000,1.53926E-002,4.27827E-001,0,1.24060E+002,-4.05372E+000,9.97722E-001,8.77335E+001,-3.33280E+001,9.97449E-001,1.56120E-001,-6.42059E-002,-2.37449E-003,1.56146E-001,-6.42315E-002,-6.17390E-001,1.56962E-001,1.16878E+000,-2.11510E-002,0.00000E+000,1.25580E-002,9.39807E-001,0.00000E+000,-1.86466E-003,-6.65088E-002,1.00000E+000,24
1159,1327,2.30444E+001,-6.01274E-002,-8.21512E-002,8.23755E+000,-2.32109E-001,-4.45952E-002,8.24094E+000,1.04957E-002,4.14727E-001,0,1.24043E+002,-4.65346E+000,9.98823E-001,8.78966E+001,-3.38257E+001,9.98280E-001,1.57266E-001,-6.42070E-002,-2.36040E-003,1.57291E-001,-6.42322E-002,-6.10553E-001,1.58169E-001,1.17012E+000,-2.11104E-002,0.00000E+000,1.25679E-002,9.39807E-001,0.00000E+000,-2.43394E-003,-6.65260E-002,1.00000E+000,24
1159,1297,2.30305E+001,-1.88088E+000,7.20006E-002,8.26605E+000,-1.11091E-001,7.86868E-002,8.26717E+000,1.53582E-002,4.23450E-001,0,1.23982E+002,-2.91797E+000,9.97835E-001,8.77503E+001,-3.24225E+001,9.94110E-001,1.53837E-001,-6.42044E-002,-2.38806E-003,1.53863E-001,-6.42305E-002,-6.27421E-001,1.54561E-001,1.16611E+000,-2.11970E-002,0.00000E+000,1.25382E-002,9.39807E-001,0.00000E+000,-7.32162E-004,-6.64893E-002,1.00000E+000,24
1159,1337,2.30658E+001,5.50048E-001,-7.33706E-002,8.22944E+000,-2.79862E-001,-8.64823E-002,8.23465E+000,1.45510E-002,4.45192E-001,0,1.24073E+002,-5.33547E+000,9.99369E-001,8.82980E+001,-3.43593E+001,9.99224E-001,1.58418E-001,-6.42085E-002,-2.33825E-003,1.58443E-001,-6.42331E-002,-6.01689E-001,1.59385E-001,1.17147E+000,-2.10506E-002,0.00000E+000,1.25779E-002,9.39808E-001,0.00000E+000,-3.00779E-003,-6.65514E-002,1.00000E+000,24
1159,1347,2.30835E+001,1.16880E+000,-4.94703E-002,8.21452E+000,-3.19468E-001,-1.25659E-001,8.22169E+000,1.59709E-002,4.42195E-001,0,1.23983E+002,-5.90609E+000,9.98707E-001,8.86649E+001,-3.48143E+001,9.98234E-001,1.59568E-001,-6.42101E-002,-2.31357E-003,1.59592E-001,-6.42340E-002,-5.92279E-001,1.60601E-001,1.17283E+000,-2.09845E-002,0.00000E+000,1.25879E-002,9.39808E-001,0.00000E+000,-3.58146E-003,-6.65795E-002,1.00000E+000,24
689,1347,-1.26758E+001,5.30068E-001,2.74443E-002,3.13484E+000,-6.55549E-001,3.21601E-002,3.20281E+000,1.05629E-002,5.91107E-001,0,4.88345E+001,-1.07348E+001,9.99193E-001,5.88452E+000,-4.96886E+001,9.98580E-001,1.41833E-001,-6.00470E-002,-9.63254E-004,1.41837E-001,-6.00516E-002,-2.73374E-001,1.42391E-001,1.15239E+000,4.38061E-004,0.00000E+000,-2.08135E-003,9.43958E-001,0.00000E+000,-1.57896E-003,-6.90027E-002,1.00000E+000,24
689,1357,-1.26627E+001,1.13344E+000,3.26635E-002,3.12980E+000,-6.96433E-001,-1.30193E-003,3.20635E+000,1.13791E-002,5.70988E-001,0,4.88516E+001,-1.13128E+001,9.98871E-001,6.23591E+000,-5.04328E+001,9.98884E-001,1.40653E-001,-6.00546E-002,-1.12005E-003,1.40659E-001,-6.00608E-002,-3.19727E-001,1.41158E-001,1.15103E+000,4.00248E-004,0.00000E+000,-2.29223E-003,9.43952E-001,0.00000E+000,-2.43933E-003,-6.90267E-002,1.00000E+000,24
689,1337,-1.26876E+001,-6.78901E-002,5.29349E-002,3.13831E+000,-6.09115E-001,8.04671E-002,3.19789E+000,1.18359E-002,5.71388E-001,0,4.87467E+001,-1.01243E+001,9.98949E-001,5.63658E+000,-4.89505E+001,9.99117E-001,1.43012E-001,-6.00406E-002,-8.08788E-004,1.43016E-001,-6.00439E-002,-2.28212E-001,1.43627E-001,1.15374E+000,4.70062E-004,0.00000E+000,-1.87010E-003,9.43963E-001,0.00000E+000,-7.17061E-004,-6.89824E-002,1.00000E+000,24
1169,1327,2.38145E+001,-4.83836E-002,-9.07273E-002,8.34597E+000,-2.25999E-001,-4.81545E-002,8.34917E+000,9.94187E-003,4.22610E-001,0,1.25587E+002,-4.57145E+000,9.99213E-001,8.99011E+001,-3.35238E+001,9.98824E-001,1.57809E-001,-6.44753E-002,-2.30633E-003,1.57833E-001,-6.44992E-002,-5.94392E-001,1.58709E-001,1.17078E+000,-2.00106E-002,0.00000E+000,1.18603E-002,9.39574E-001,0.00000E+000,-3.74138E-003,-6.66624E-002,1.00000E+000,24
1169,1337,2.38397E+001,5.69825E-001,-7.10845E-002,8.33957E+000,-2.66041E-001,-8.66099E-002,8.34427E+000,1.32028E-002,4.32884E-001,0,1.25624E+002,-5.14869E+000,9.99353E-001,9.03764E+001,-3.39648E+001,9.98916E-001,1.58957E-001,-6.44807E-002,-2.31418E-003,1.58981E-001,-6.45047E-002,-5.93335E-001,1.59920E-001,1.17213E+000,-1.99467E-002,0.00000E+000,1.18051E-002,9.39571E-001,0.00000E+000,-4.21219E-003,-6.66847E-002,1.00000E+000,24
1169,1347,2.38665E+001,1.18526E+000,-3.88028E-002,8.33165E+000,-3.10619E-001,-1.24893E-001,8.33838E+000,1.27249E-002,4.14640E-001,0,1.25636E+002,-5.78689E+000,9.98727E-001,9.08954E+001,-3.44950E+001,9.98486E-001,1.60106E-001,-6.44865E-002,-2.31950E-003,1.60130E-001,-6.45105E-002,-5.91645E-001,1.61134E-001,1.17348E+000,-1.98765E-002,0.00000E+000,1.17499E-002,9.39568E-001,0.00000E+000,-4.68382E-003,-6.67092E-002,1.00000E+000,24
689,1327,-1.27072E+001,-6.67376E-001,9.58208E-002,3.12834E+000,-5.72526E-001,1.15155E-001,3.18238E+000,1.30187E-002,6.24551E-001,0,4.84888E+001,-9.61426E+000,9.98265E-001,5.31612E+000,-4.82397E+001,9.97813E-001,1.44178E-001,-6.00367E-002,-6.60863E-004,1.44180E-001,-6.00389E-002,-1.85413E-001,1.44850E-001,1.15509E+000,4.90236E-004,0.00000E+000,-1.66094E-003,9.43966E-001,0.00000E+000,1.36304E-004,-6.89696E-002,1.00000E+000,24
1169,1317,2.38061E+001,-6.59931E-001,-5.82118E-002,8.35728E+000,-1.84402E-001,-4.73130E-003,8.35932E+000,1.81903E-002,3.49074E-001,0,1.25589E+002,-3.97990E+000,9.98540E-001,8.97666E+001,-3.31263E+001,9.98405E-001,1.56664E-001,-6.44714E-002,-2.28860E-003,1.56688E-001,-6.44951E-002,-5.92886E-001,1.57502E-001,1.16944E+000,-2.00506E-002,0.00000E+000,1.19152E-002,9.39575E-001,0.00000E+000,-3.27256E-003,-6.66484E-002,1.00000E+000,24
1169,1307,2.38004E+001,-1.26879E+000,-1.05498E-002,8.36624E+000,-1.47849E-001,3.44697E-002,8.36762E+000,1.55172E-002,4.09194E-001,0,1.25569E+002,-3.44769E+000,9.98450E-001,8.96959E+001,-3.26544E+001,9.97603E-001,1.55530E-001,-6.44682E-002,-2.26699E-003,1.55553E-001,-6.44915E-002,-5.90326E-001,1.56308E-001,1.16811E+000,-2.00804E-002,0.00000E+000,1.19696E-002,9.39577E-001,0.00000E+000,-2.80860E-003,-6.66380E-002,1.00000E+000,24
1169,1297,2.38031E+001,-1.86919E+000,7.03805E-002,8.37739E+000,-1.04151E-001,8.23992E-002,8.37844E+000,1.30897E-002,4.58363E-001,0,1.25537E+002,-2.85326E+000,9.98677E-001,8.98053E+001,-3.21277E+001,9.95824E-001,1.54394E-001,-6.44657E-002,-2.24019E-003,1.54417E-001,-6.44887E-002,-5.86382E-001,1.55113E-001,1.16678E+000,-2.00978E-002,0.00000E+000,1.20239E-002,9.39577E-001,0.00000E+000,-2.34470E-003,-6.66319E-002,1.00000E+000,24
689,1317,-1.27128E+001,-1.25811E+000,1.84397E-001,3.12659E+000,-5.30545E-001,1.63239E-001,3.17549E+000,1.44211E-002,6.01868E-001,0,4.83148E+001,-9.03237E+000,9.98331E-001,5.33649E+000,-4.75282E+001,9.96653E-001,1.45339E-001,-6.00353E-002,-5.18447E-004,1.45341E-001,-6.00366E-002,-1.44636E-001,1.46071E-001,1.15643E+000,4.98343E-004,0.00000E+000,-1.45222E-003,9.43967E-001,0.00000E+000,9.87886E-004,-6.89644E-002,1.00000E+000,24
679,1347,-1.34240E+001,5.23933E-001,2.45053E-002,3.02895E+000,-6.53253E-001,3.07484E-002,3.09874E+000,1.70200E-002,6.16877E-001,0,4.72224E+001,-1.07324E+001,9.98353E-001,4.42093E+000,-4.98717E+001,9.98214E-001,1.40422E-001,-5.94362E-002,-1.01104E-003,1.40427E-001,-5.94413E-002,-2.89839E-001,1.40977E-001,1.15076E+000,1.76302E-003,0.00000E+000,-3.24888E-003,9.44488E-001,0.00000E+000,-1.70497E-003,-6.83271E-002,1.00000E+000,24
679,1357,-1.33975E+001,1.12813E+000,2.92915E-002,3.03893E+000,-6.94414E-001,5.05202E-003,3.11726E+000,8.54116E-003,5.84446E-001,0,4.74511E+001,-1.12884E+001,9.98978E-001,4.97854E+000,-5.06080E+001,9.98882E-001,1.38965E-001,-5.94475E-002,-1.27331E-003,1.38973E-001,-5.94556E-002,-3.67674E-001,1.39455E-001,1.14909E+000,1.72052E-003,0.00000E+000,-3.66098E-003,9.44477E-001,0.00000E+000,-2.52169E-003,-6.83479E-002,1.00000E+000,24
1179,1297,2.45674E+001,-1.86279E+000,4.51500E-002,8.48452E+000,-1.00147E-001,8.06243E-002,8.48550E+000,2.11901E-002,5.09967E-001,0,1.27054E+002,-2.82711E+000,9.99212E-001,9.16993E+001,-3.18576E+001,9.96741E-001,1.54834E-001,-6.46117E-002,-2.20242E-003,1.54856E-001,-6.46338E-002,-5.74960E-001,1.55559E-001,1.16731E+000,-1.92646E-002,0.00000E+000,1.15222E-002,9.39470E-001,0.00000E+000,-3.98978E-003,-6.69845E-002,1.00000E+000,24
1179,1307,2.45726E+001,-1.26125E+000,-2.51883E-002,8.47878E+000,-1.42025E-001,3.33999E-002,8.48003E+000,9.70903E-003,3.58033E-001,0,1.27162E+002,-3.38083E+000,9.99362E-001,9.17301E+001,-3.24377E+001,9.98141E-001,1.55894E-001,-6.46115E-002,-2.18305E-003,1.55915E-001,-6.46331E-002,-5.67167E-001,1.56673E-001,1.16855E+000,-1.92435E-002,0.00000E+000,1.15424E-002,9.39470E-001,0.00000E+000,-4.26295E-003,-6.69892E-002,1.00000E+000,24
1179,1317,2.45755E+001,-6.51351E-001,-1.03338E-001,8.47170E+000,-1.76600E-001,-1.76043E-002,8.47356E+000,2.15265E-002,3.08223E-001,0,1.27263E+002,-3.83981E+000,9.99361E-001,9.17133E+001,-3.28203E+001,9.98647E-001,1.56955E-001,-6.46113E-002,-2.16449E-003,1.56976E-001,-6.46324E-002,-5.59654E-001,1.57789E-001,1.16980E+000,-1.92243E-002,0.00000E+000,1.15627E-002,9.39470E-001,0.00000E+000,-4.53665E-003,-6.69934E-002,1.00000E+000,24
1179,1337,2.46168E+001,5.78118E-001,-8.41178E-002,8.45306E+000,-2.63066E-001,-9.96677E-002,8.45774E+000,1.10751E-002,4.15135E-001,0,1.27279E+002,-5.10249E+000,9.99215E-001,9.24856E+001,-3.37170E+001,9.97993E-001,1.59103E-001,-6.46106E-002,-2.09561E-003,1.59123E-001,-6.46302E-002,-5.36646E-001,1.60054E-001,1.17232E+000,-1.91111E-002,0.00000E+000,1.16038E-002,9.39472E-001,0.00000E+000,-5.09229E-003,-6.70184E-002,1.00000E+000,24
1179,1347,2.46543E+001,1.19996E+000,-4.06437E-002,8.45316E+000,-3.04095E-001,-1.36102E-001,8.45972E+000,1.08574E-002,4.11434E-001,0,1.27399E+002,-5.68004E+000,9.99241E-001,9.31853E+001,-3.41625E+001,9.98673E-001,1.60182E-001,-6.46102E-002,-2.05531E-003,1.60200E-001,-6.46289E-002,-5.23806E-001,1.61193E-001,1.17358E+000,-1.90404E-002,0.00000E+000,1.16245E-002,9.39473E-001,0.00000E+000,-5.37159E-003,-6.70339E-002,1.00000E+000,24
679,1327,-1.34485E+001,-6.73228E-001,1.04806E-001,3.02853E+000,-5.72626E-001,1.22163E-001,3.08461E+000,1.52138E-002,6.00061E-001,0,4.69492E+001,-9.61664E+000,9.97930E-001,3.99097E+000,-4.84645E+001,9.97145E-001,1.43306E-001,-5.94201E-002,-5.00488E-004,1.43307E-001,-5.94213E-002,-1.41450E-001,1.44002E-001,1.15408E+000,1.82491E-003,0.00000E+000,-2.43090E-003,9.44503E-001,0.00000E+000,-8.38376E-005,-6.82969E-002,1.00000E+000,24
679,1337,-1.34354E+001,-7.41032E-002,5.12524E-002,3.03294E+000,-6.09567E-001,8.16692E-002,3.09467E+000,1.71059E-002,5.81178E-001,0,4.71374E+001,-1.01215E+001,9.98437E-001,4.18291E+000,-4.91436E+001,9.98259E-001,1.41869E-001,-5.94257E-002,-7.51419E-004,1.41872E-001,-5.94285E-002,-2.13877E-001,1.42493E-001,1.15243E+000,1.80252E-003,0.00000E+000,-2.83885E-003,9.44498E-001,0.00000E+000,-8.92346E-004,-6.83078E-002,1.00000E+000,24
1179,1327,2.45890E+001,-4.35549E-002,-1.02880E-001,8.45935E+000,-2.23869E-001,-5.18198E-002,8.46247E+000,1.50570E-002,3.83123E-001,0,1.27205E+002,-4.56519E+000,9.99262E-001,9.19743E+001,-3.33447E+001,9.97438E-001,1.58026E-001,-6.46110E-002,-2.13329E-003,1.58047E-001,-6.46314E-002,-5.48935E-001,1.58918E-001,1.17105E+000,-1.91754E-002,0.00000E+000,1.15832E-002,9.39471E-001,0.00000E+000,-4.81357E-003,-6.70042E-002,1.00000E+000,24
679,1317,-1.34544E+001,-1.26412E+000,1.92073E-001,3.02651E+000,-5.31096E-001,1.69601E-001,3.07744E+000,1.24169E-002,6.31213E-001,0,4.67741E+001,-9.06520E+000,9.98664E-001,4.00289E+000,-4.77238E+001,9.97041E-001,1.44736E-001,-5.94181E-002,-2.55618E-004,1.44736E-001,-5.94184E-002,-7.17391E-002,1.45507E-001,1.15573E+000,1.83504E-003,0.00000E+000,-2.02417E-003,9.44506E-001,0.00000E+000,7.22254E-004,-6.82920E-002,1.00000E+000,24
669,1327,-1.41851E+001,-6.87029E-001,1.06369E-001,2.93370E+000,-5.79619E-001,1.25717E-001,2.99306E+000,1.09114E-002,5.67534E-001,0,4.54975E+001,-9.72374E+000,9.99303E-001,2.72051E+000,-4.87990E+001,9.98815E-001,1.42318E-001,-5.88746E-002,-2.62377E-004,1.42318E-001,-5.88750E-002,-7.47199E-002,1.43023E-001,1.15294E+000,3.85606E-003,0.00000E+000,-3.62462E-003,9.44951E-001,0.00000E+000,-3.10648E-004,-6.73102E-002,1.00000E+000,24
669,1337,-1.41755E+001,-8.11707E-002,5.34497E-002,2.93425E+000,-6.11789E-001,8.35368E-002,2.99852E+000,1.02590E-002,6.00693E-001,0,4.56279E+001,-1.01470E+001,9.98792E-001,2.86206E+000,-4.93524E+001,9.98833E-001,1.40559E-001,-5.88809E-002,-5.75652E-004,1.40561E-001,-5.88826E-002,-1.65373E-001,1.41176E-001,1.15091E+000,3.82764E-003,0.00000E+000,-4.15415E-003,9.44944E-001,0.00000E+000,-1.05804E-003,-6.73207E-002,1.00000E+000,24
669,1347,-1.41608E+001,5.17349E-001,2.18922E-002,2.93711E+000,-6.52209E-001,4.62102E-002,3.00901E+000,9.38402E-003,5.77500E-001,0,4.57810E+001,-1.07064E+001,9.98600E-001,3.14066E+000,-5.00934E+001,9.98530E-001,1.38797E-001,-5.88898E-002,-8.92854E-004,1.38801E-001,-5.88939E-002,-2.58769E-001,1.39330E-001,1.14889E+000,3.79020E-003,0.00000E+000,-4.68353E-003,9.44934E-001,0.00000E+000,-1.80521E-003,-6.73345E-002,1.00000E+000,24
669,1357,-1.41358E+001,1.12931E+000,3.17212E-002,2.94261E+000,-6.85658E-001,8.31506E-003,3.02145E+000,9.50848E-003,5.72214E-001,0,4.59703E+001,-1.11626E+001,9.98647E-001,3.69068E+000,-5.07101E+001,9.98651E-001,1.37021E-001,-5.89056E-002,-1.22204E-003,1.37029E-001,-5.89133E-002,-3.57348E-001,1.37477E-001,1.14685E+000,3.72942E-003,0.00000E+000,-5.21597E-003,9.44918E-001,0.00000E+000,-2.55669E-003,-6.73570E-002,1.00000E+000,24
1189,1337,2.53998E+001,5.89804E-001,-9.35684E-002,8.57153E+000,-2.58947E-001,-1.10827E-001,8.57616E+000,1.40314E-002,4.18530E-001,0,1.28997E+002,-5.02387E+000,9.99357E-001,9.46979E+001,-3.34133E+001,9.98403E-001,1.58841E-001,-6.48720E-002,-1.89801E-003,1.58857E-001,-6.48881E-002,-4.86058E-001,1.59742E-001,1.17202E+000,-1.83715E-002,0.00000E+000,1.14320E-002,9.39225E-001,0.00000E+000,-5.79438E-003,-6.69610E-002,1.00000E+000,24
669,1317,-1.41883E+001,-1.27277E+000,2.03364E-001,2.93320E+000,-5.33398E-001,1.76062E-001,2.98650E+000,1.32700E-002,5.83829E-001,0,4.53367E+001,-9.10935E+000,9.99259E-001,2.80329E+000,-4.80048E+001,9.98763E-001,1.44062E-001,-5.88742E-002,4.04545E-005,1.44062E-001,-5.88742E-002,1.14217E-002,1.44861E-001,1.15495E+000,3.86447E-003,0.00000E+000,-3.09814E-003,9.44954E-001,0.00000E+000,4.32427E-004,-6.73071E-002,1.00000E+000,24
1189,1297,2.53504E+001,-1.85292E+000,5.52370E-002,8.59981E+000,-9.64438E-002,7.41481E-002,8.60067E+000,1.50254E-002,4.76213E-001,0,1.28698E+002,-2.78317E+000,9.99046E-001,9.39429E+001,-3.16495E+001,9.96491E-001,1.55239E-001,-6.48647E-002,-1.89159E-003,1.55255E-001,-6.48809E-002,-4.92357E-001,1.55952E-001,1.16781E+000,-1.84959E-002,0.00000E+000,1.15854E-002,9.39229E-001,0.00000E+000,-5.59994E-003,-6.69553E-002,1.00000E+000,24
1189,1307,2.53437E+001,-1.25385E+000,-3.79194E-002,8.58656E+000,-1.41455E-001,2.21077E-002,8.58775E+000,1.11100E-002,4.07069E-001,0,1.28721E+002,-3.36955E+000,9.98659E-001,9.37539E+001,-3.21775E+001,9.97996E-001,1.56134E-001,-6.48657E-002,-1.90168E-003,1.56151E-001,-6.48821E-002,-4.92975E-001,1.56892E-001,1.16885E+000,-1.84852E-002,0.00000E+000,1.15474E-002,9.39229E-001,0.00000E+000,-5.64819E-003,-6.69558E-002,1.00000E+000,24
1189,1317,2.53608E+001,-6.32331E-001,-8.03901E-002,8.58411E+000,-1.72669E-001,-2.97272E-002,8.58589E+000,1.25487E-002,4.22235E-001,0,1.28884E+002,-3.76540E+000,9.99323E-001,9.40100E+001,-3.24214E+001,9.99177E-001,1.57037E-001,-6.48676E-002,-1.90321E-003,1.57054E-001,-6.48839E-002,-4.91359E-001,1.57842E-001,1.16991E+000,-1.84539E-002,0.00000E+000,1.15089E-002,9.39228E-001,0.00000E+000,-5.69691E-003,-6.69572E-002,1.00000E+000,24
1189,1327,2.53780E+001,-2.63587E-002,-9.43582E-002,8.57769E+000,-2.19614E-001,-6.91490E-002,8.58078E+000,1.60339E-002,4.27025E-001,0,1.28938E+002,-4.45804E+000,9.99366E-001,9.43069E+001,-3.29758E+001,9.98974E-001,1.57938E-001,-6.48697E-002,-1.90203E-003,1.57954E-001,-6.48859E-002,-4.89065E-001,1.58790E-001,1.17097E+000,-1.84162E-002,0.00000E+000,1.14705E-002,9.39226E-001,0.00000E+000,-5.74558E-003,-6.69590E-002,1.00000E+000,24
659,1327,-1.49201E+001,-6.75960E-001,1.11194E-001,2.83891E+000,-5.64012E-001,1.25806E-001,2.89713E+000,1.63034E-002,5.50302E-001,0,4.40472E+001,-9.45707E+000,9.99129E-001,1.49512E+000,-4.87504E+001,9.97795E-001,1.41084E-001,-5.85114E-002,-2.28488E-004,1.41084E-001,-5.85117E-002,-6.55898E-002,1.41766E-001,1.15151E+000,5.93908E-003,0.00000E+000,-5.24825E-003,9.45261E-001,0.00000E+000,-6.23397E-004,-6.68996E-002,1.00000E+000,24
659,1337,-1.48926E+001,-9.40684E-002,7.60985E-002,2.85745E+000,-6.20085E-001,1.01244E-001,2.92571E+000,2.44089E-002,6.34102E-001,0,4.44135E+001,-1.03199E+001,9.98645E-001,1.95462E+000,-4.96849E+001,9.98560E-001,1.39173E-001,-5.85168E-002,-5.52577E-004,1.39174E-001,-5.85184E-002,-1.60150E-001,1.39760E-001,1.14931E+000,5.90845E-003,0.00000E+000,-5.80293E-003,9.45253E-001,0.00000E+000,-1.33416E-003,-6.69095E-002,1.00000E+000,24
659,1347,-1.48840E+001,5.14257E-001,4.28768E-002,2.85403E+000,-6.50400E-001,6.13063E-002,2.92785E+000,1.35239E-002,6.21084E-001,0,4.44726E+001,-1.07234E+001,9.99226E-001,2.13622E+000,-5.02697E+001,9.99161E-001,1.37259E-001,-5.85249E-002,-8.80924E-004,1.37263E-001,-5.85289E-002,-2.57794E-001,1.37757E-001,1.14711E+000,5.86770E-003,0.00000E+000,-6.35717E-003,9.45243E-001,0.00000E+000,-2.04436E-003,-6.69227E-002,1.00000E+000,24
659,1357,-1.48669E+001,1.13004E+000,4.13073E-002,2.85254E+000,-6.79211E-001,1.52125E-002,2.93232E+000,9.35184E-003,5.85164E-001,0,4.45747E+001,-1.10738E+001,9.98934E-001,2.53905E+000,-5.08212E+001,9.99063E-001,1.35330E-001,-5.85395E-002,-1.22089E-003,1.35338E-001,-5.85471E-002,-3.60799E-001,1.35747E-001,1.14491E+000,5.80434E-003,0.00000E+000,-6.91435E-003,9.45227E-001,0.00000E+000,-2.75831E-003,-6.69432E-002,1.00000E+000,24
1199,1307,2.61205E+001,-1.24221E+000,-3.64870E-002,8.69654E+000,-1.37873E-001,1.30618E-002,8.69764E+000,1.50670E-002,4.37965E-001,0,1.30297E+002,-3.31571E+000,9.98721E-001,9.58923E+001,-3.18906E+001,9.97504E-001,1.56201E-001,-6.48294E-002,-1.52364E-003,1.56212E-001,-6.48399E-002,-3.94934E-001,1.56961E-001,1.16895E+000,-1.74802E-002,0.00000E+000,1.15119E-002,9.39249E-001,0.00000E+000,-6.53802E-003,-6.67443E-002,1.00000E+000,24
1199,1317,2.61312E+001,-6.32267E-001,-8.62325E-002,8.68994E+000,-1.77771E-001,-3.67401E-002,8.69183E+000,1.32571E-002,4.19687E-001,0,1.30397E+002,-3.86010E+000,9.98161E-001,9.60358E+001,-3.23143E+001,9.96616E-001,1.57003E-001,-6.48319E-002,-1.53838E-003,1.57014E-001,-6.48425E-002,-3.97308E-001,1.57805E-001,1.16989E+000,-1.74555E-002,0.00000E+000,1.14415E-002,9.39247E-001,0.00000E+000,-6.35624E-003,-6.67395E-002,1.00000E+000,24
1199,1327,2.61481E+001,-1.81079E-002,-1.19315E-001,8.68684E+000,-2.14539E-001,-8.06500E-002,8.68987E+000,1.41924E-002,4.11196E-001,0,1.30520E+002,-4.38316E+000,9.98589E-001,9.63007E+001,-3.27046E+001,9.97518E-001,1.57806E-001,-6.48346E-002,-1.55151E-003,1.57817E-001,-6.48454E-002,-3.99251E-001,1.58650E-001,1.17083E+000,-1.74270E-002,0.00000E+000,1.13711E-002,9.39245E-001,0.00000E+000,-6.17432E-003,-6.67340E-002,1.00000E+000,24
659,1317,-1.49334E+001,-1.27317E+000,1.86873E-001,2.83070E+000,-5.28328E-001,1.68837E-001,2.88452E+000,1.34937E-002,6.02627E-001,0,4.37925E+001,-8.99594E+000,9.98234E-001,1.36177E+000,-4.80689E+001,9.95632E-001,1.42980E-001,-5.85097E-002,8.80185E-005,1.42980E-001,-5.85098E-002,2.50290E-002,1.43763E-001,1.15369E+000,5.95639E-003,0.00000E+000,-4.69666E-003,9.45265E-001,0.00000E+000,8.34034E-005,-6.68940E-002,1.00000E+000,24
1199,1337,2.61812E+001,6.03042E-001,-8.78141E-002,8.68524E+000,-2.54166E-001,-1.17065E-001,8.68974E+000,1.13365E-002,4.30536E-001,0,1.30618E+002,-4.95914E+000,9.99235E-001,9.69104E+001,-3.31156E+001,9.97935E-001,1.58616E-001,-6.48386E-002,-1.55608E-003,1.58627E-001,-6.48495E-002,-3.98968E-001,1.59503E-001,1.17178E+000,-1.73775E-002,0.00000E+000,1.12999E-002,9.39242E-001,0.00000E+000,-5.99043E-003,-6.67244E-002,1.00000E+000,24
1199,1297,2.61259E+001,-1.83616E+000,4.84783E-002,8.70916E+000,-8.71035E-002,5.95480E-002,8.70980E+000,1.18038E-002,4.34263E-001,0,1.30284E+002,-2.59325E+000,9.98437E-001,9.60489E+001,-3.13036E+001,9.96835E-001,1.55402E-001,-6.48279E-002,-1.50307E-003,1.55412E-001,-6.48381E-002,-3.91019E-001,1.56121E-001,1.16802E+000,-1.74907E-002,0.00000E+000,1.15819E-002,9.39250E-001,0.00000E+000,-6.71891E-003,-6.67463E-002,1.00000E+000,24
649,1347,-1.56250E+001,5.18385E-001,3.48603E-002,2.75310E+000,-6.41568E-001,4.90030E-002,2.82729E+000,1.32434E-002,6.46004E-001,0,4.29601E+001,-1.05501E+001,9.98826E-001,7.87327E-001,-5.02839E+001,9.97977E-001,1.35564E-001,-5.80357E-002,-8.08631E-004,1.35567E-001,-5.80391E-002,-2.39309E-001,1.36033E-001,1.14516E+000,8.18204E-003,0.00000E+000,-8.11327E-003,9.45660E-001,0.00000E+000,-2.38942E-003,-6.64191E-002,1.00000E+000,24
649,1357,-1.56037E+001,1.12774E+000,4.67722E-002,2.75639E+000,-6.75758E-001,1.89169E-002,2.83808E+000,9.18783E-003,5.83426E-001,0,4.30930E+001,-1.10151E+001,9.99110E-001,1.29154E+000,-5.09783E+001,9.98746E-001,1.33385E-001,-5.80483E-002,-1.14623E-003,1.33392E-001,-5.80552E-002,-3.43049E-001,1.33765E-001,1.14267E+000,8.11300E-003,0.00000E+000,-8.66533E-003,9.45644E-001,0.00000E+000,-3.13064E-003,-6.64396E-002,1.00000E+000,24
649,1337,-1.56452E+001,-8.39332E-002,6.82293E-002,2.74465E+000,-6.03725E-001,8.80460E-002,2.81164E+000,1.41639E-002,6.03226E-001,0,4.27173E+001,-1.00269E+001,9.99070E-001,4.29704E-001,-4.96348E+001,9.98379E-001,1.37733E-001,-5.80292E-002,-4.82080E-004,1.37735E-001,-5.80304E-002,-1.41094E-001,1.38302E-001,1.14764E+000,8.22699E-003,0.00000E+000,-7.56192E-003,9.45670E-001,0.00000E+000,-1.64918E-003,-6.64057E-002,1.00000E+000,24
649,1327,-1.56642E+001,-6.68913E-001,1.12800E-001,2.73414E+000,-5.53149E-001,1.19975E-001,2.79211E+000,1.11825E-002,5.93068E-001,0,4.24570E+001,-9.27562E+000,9.99414E-001,1.25444E-001,-4.87284E+001,9.99149E-001,1.39886E-001,-5.80256E-002,-1.62608E-004,1.39887E-001,-5.80257E-002,-4.70752E-002,1.40562E-001,1.15011E+000,8.25958E-003,0.00000E+000,-7.01345E-003,9.45677E-001,0.00000E+000,-9.12778E-004,-6.63960E-002,1.00000E+000,24
1209,1307,2.68986E+001,-1.22663E+000,-3.90434E-002,8.80789E+000,-1.29092E-001,2.63786E-003,8.80883E+000,1.18562E-002,4.45099E-001,0,1.31894E+002,-3.18182E+000,9.98864E-001,9.80480E+001,-3.15457E+001,9.97503E-001,1.55928E-001,-6.44515E-002,-1.09624E-003,1.55933E-001,-6.44569E-002,-2.85000E-001,1.56711E-001,1.16865E+000,-1.63901E-002,0.00000E+000,1.14673E-002,9.39579E-001,0.00000E+000,-6.76222E-003,-6.63483E-002,1.00000E+000,24
1209,1317,2.69069E+001,-6.23661E-001,-9.23390E-002,8.80072E+000,-1.75164E-001,-4.36834E-002,8.80257E+000,1.35260E-002,4.33052E-001,0,1.31977E+002,-3.83223E+000,9.98825E-001,9.81500E+001,-3.20657E+001,9.96467E-001,1.56768E-001,-6.44527E-002,-1.09736E-003,1.56774E-001,-6.44581E-002,-2.84204E-001,1.57597E-001,1.16963E+000,-1.63668E-002,0.00000E+000,1.14116E-002,9.39578E-001,0.00000E+000,-6.37879E-003,-6.63392E-002,1.00000E+000,24
1209,1327,2.69347E+001,-2.98041E-003,-1.09718E-001,8.80383E+000,-2.07686E-001,-8.95449E-002,8.80674E+000,1.31388E-002,3.93806E-001,0,1.32194E+002,-4.28020E+000,9.98973E-001,9.86070E+001,-3.24016E+001,9.97753E-001,1.57611E-001,-6.44544E-002,-1.09276E-003,1.57616E-001,-6.44597E-002,-2.81936E-001,1.58485E-001,1.17061E+000,-1.63298E-002,0.00000E+000,1.13556E-002,9.39576E-001,0.00000E+000,-5.99397E-003,-6.63248E-002,1.00000E+000,24
1209,1337,2.69669E+001,6.15654E-001,-7.81135E-002,8.80065E+000,-2.51313E-001,-1.26875E-001,8.80516E+000,1.28861E-002,4.40797E-001,0,1.32275E+002,-4.91286E+000,9.98957E-001,9.91975E+001,-3.28368E+001,9.97099E-001,1.58462E-001,-6.44566E-002,-1.08164E-003,1.58467E-001,-6.44618E-002,-2.78001E-001,1.59382E-001,1.17161E+000,-1.62771E-002,0.00000E+000,1.12990E-002,9.39573E-001,0.00000E+000,-5.60501E-003,-6.63042E-002,1.00000E+000,24
1209,1297,2.69025E+001,-1.82300E+000,3.89432E-002,8.82100E+000,-7.90286E-002,4.90210E-002,8.82149E+000,1.12086E-002,4.08641E-001,0,1.31891E+002,-2.46137E+000,9.98778E-001,9.81731E+001,-3.09997E+001,9.96838E-001,1.55088E-001,-6.44506E-002,-1.09116E-003,1.55093E-001,-6.44560E-002,-2.84765E-001,1.55828E-001,1.16767E+000,-1.64039E-002,0.00000E+000,1.15230E-002,9.39580E-001,0.00000E+000,-7.14487E-003,-6.63537E-002,1.00000E+000,24
649,1317,-1.56694E+001,-1.26789E+000,1.94493E-001,2.73259E+000,-5.20459E-001,1.61553E-001,2.78640E+000,9.78367E-003,5.99980E-001,0,4.23113E+001,-8.83681E+000,9.98958E-001,1.31919E-001,-4.81063E+001,9.98750E-001,1.42027E-001,-5.80264E-002,1.47904E-004,1.42027E-001,-5.80266E-002,4.23600E-002,1.42817E-001,1.15258E+000,8.27386E-003,0.00000E+000,-6.46666E-003,9.45680E-001,0.00000E+000,-1.78651E-004,-6.63917E-002,1.00000E+000,24
639,1347,-1.63635E+001,5.23346E-001,2.91346E-002,2.65537E+000,-6.30374E-001,4.50403E-002,2.72954E+000,1.40091E-002,6.05648E-001,0,4.14718E+001,-1.03362E+001,9.98293E-001,-5.11207E-001,-5.03228E+001,9.97631E-001,1.34005E-001,-5.73794E-002,-7.41982E-004,1.34008E-001,-5.73823E-002,-2.22127E-001,1.34468E-001,1.14335E+000,1.07801E-002,0.00000E+000,-1.01284E-002,9.46208E-001,0.00000E+000,-2.66480E-003,-6.55757E-002,1.00000E+000,24
639,1357,-1.63396E+001,1.13511E+000,4.33501E-002,2.66129E+000,-6.62777E-001,1.61984E-002,2.74263E+000,9.20187E-003,5.88152E-001,0,4.16412E+001,-1.07884E+001,9.98900E-001,4.21227E-002,-5.09642E+001,9.98709E-001,1.31663E-001,-5.73904E-002,-1.07428E-003,1.31669E-001,-5.73965E-002,-3.25564E-001,1.32029E-001,1.14068E+000,1.07060E-002,0.00000E+000,-1.06686E-002,9.46193E-001,0.00000E+000,-3.47822E-003,-6.55983E-002,1.00000E+000,24
639,1317,-1.64005E+001,-1.27477E+000,2.19206E-001,2.63933E+000,-5.25973E-001,1.73067E-001,2.69679E+000,1.28415E-002,6.63551E-001,0,4.08550E+001,-8.94024E+000,9.98933E-001,-9.72374E-001,-4.83334E+001,9.98072E-001,1.40934E-001,-5.73772E-002,1.87363E-004,1.40934E-001,-5.73774E-002,5.41327E-002,1.41742E-001,1.15130E+000,1.08665E-002,0.00000E+000,-8.52143E-003,9.46226E-001,0.00000E+000,-2.45232E-004,-6.55494E-002,1.00000E+000,24
639,1327,-1.63931E+001,-6.83718E-001,1.31025E-001,2.64452E+000,-5.63200E-001,1.32757E-001,2.70708E+000,9.65268E-003,6.00520E-001,0,4.10549E+001,-9.45723E+000,9.99144E-001,-9.65477E-001,-4.90935E+001,9.98467E-001,1.38645E-001,-5.73736E-002,-1.12052E-004,1.38645E-001,-5.73737E-002,-3.27524E-002,1.39330E-001,1.14867E+000,1.08572E-002,0.00000E+000,-9.05375E-003,9.46224E-001,0.00000E+000,-1.04674E-003,-6.55522E-002,1.00000E+000,24
639,1337,-1.63828E+001,-7.98148E-002,6.01151E-002,2.64825E+000,-5.95079E-001,8.49142E-002,2.71562E+000,1.15804E-002,6.43930E-001,0,4.12491E+001,-9.86583E+000,9.98809E-001,-8.62643E-001,-4.96392E+001,9.98181E-001,1.36329E-001,-5.73740E-002,-4.21980E-004,1.36330E-001,-5.73749E-002,-1.24818E-001,1.36898E-001,1.14601E+000,1.08299E-002,0.00000E+000,-9.59090E-003,9.46218E-001,0.00000E+000,-1.85552E-003,-6.55606E-002,1.00000E+000,24
1219,1317,2.76917E+001,-6.10226E-001,-8.45908E-002,8.91640E+000,-1.72047E-001,-5.05138E-002,8.91820E+000,1.64748E-002,4.82537E-001,0,1.33623E+002,-3.77972E+000,9.98759E-001,1.00429E+002,-3.17533E+001,9.96603E-001,1.56334E-001,-6.44026E-002,-5.99708E-004,1.56335E-001,-6.44042E-002,-1.55663E-001,1.57141E-001,1.16913E+000,-1.51145E-002,0.00000E+000,1.13339E-002,9.39581E-001,0.00000E+000,-6.06793E-003,-6.56398E-002,1.00000E+000,24
1219,1327,2.77157E+001,9.17138E-003,-1.06343E-001,8.91766E+000,-2.03806E-001,-9.27726E-002,8.92047E+000,8.49625E-003,4.05078E-001,0,1.33801E+002,-4.22292E+000,9.99428E-001,1.00819E+002,-3.21176E+001,9.98577E-001,1.57136E-001,-6.44028E-002,-5.83930E-004,1.57137E-001,-6.44044E-002,-1.51018E-001,1.57986E-001,1.17007E+000,-1.50820E-002,0.00000E+000,1.12914E-002,9.39580E-001,0.00000E+000,-5.47393E-003,-6.56191E-002,1.00000E+000,24
1219,1337,2.77503E+001,6.31152E-001,-7.98106E-002,8.91601E+000,-2.44659E-001,-1.37718E-001,8.92043E+000,1.19137E-002,4.72609E-001,0,1.33934E+002,-4.80802E+000,9.99021E-001,1.01438E+002,-3.24777E+001,9.97761E-001,1.57948E-001,-6.44032E-002,-5.60072E-004,1.57949E-001,-6.44047E-002,-1.44319E-001,1.58843E-001,1.17102E+000,-1.50304E-002,0.00000E+000,1.12483E-002,9.39578E-001,0.00000E+000,-4.87169E-003,-6.55864E-002,1.00000E+000,24
1219,1297,2.76840E+001,-1.81028E+000,3.46097E-002,8.93606E+000,-7.33925E-002,3.95553E-002,8.93645E+000,1.22240E-002,3.86943E-001,0,1.33538E+002,-2.35002E+000,9.98722E-001,1.00384E+002,-3.07112E+001,9.96946E-001,1.54726E-001,-6.44022E-002,-6.20439E-004,1.54728E-001,-6.44039E-002,-1.62226E-001,1.55450E-001,1.16726E+000,-1.51537E-002,0.00000E+000,1.14189E-002,9.39583E-001,0.00000E+000,-7.25599E-003,-6.56647E-002,1.00000E+000,24
1219,1307,2.76856E+001,-1.21161E+000,-2.87223E-002,8.92597E+000,-1.22854E-001,-1.72313E-003,8.92681E+000,1.55298E-002,4.24797E-001,0,1.33563E+002,-3.07210E+000,9.98763E-001,1.00367E+002,-3.12502E+001,9.96332E-001,1.55529E-001,-6.44024E-002,-6.11244E-004,1.55531E-001,-6.44041E-002,-1.59237E-001,1.56294E-001,1.16820E+000,-1.51369E-002,0.00000E+000,1.13764E-002,9.39582E-001,0.00000E+000,-6.66272E-003,-6.56540E-002,1.00000E+000,24
629,1347,-1.70971E+001,5.19015E-001,2.84819E-002,2.56266E+000,-6.28338E-001,4.88171E-002,2.63902E+000,1.26225E-002,5.99994E-001,0,4.00409E+001,-1.02977E+001,9.98025E-001,-1.71707E+000,-5.04976E+001,9.97449E-001,1.32688E-001,-5.77067E-002,-7.22727E-004,1.32691E-001,-5.77095E-002,-2.17487E-001,1.33065E-001,1.14182E+000,1.35176E-002,0.00000E+000,-1.23582E-002,9.45827E-001,0.00000E+000,-2.70154E-003,-6.48564E-002,1.00000E+000,24
629,1357,-1.70683E+001,1.13069E+000,4.25929E-002,2.57328E+000,-6.60919E-001,1.80391E-002,2.65687E+000,1.07289E-002,5.84029E-001,0,4.02884E+001,-1.07489E+001,9.98286E-001,-1.08832E+000,-5.11406E+001,9.97885E-001,1.30446E-001,-5.77108E-002,-8.73298E-004,1.30450E-001,-5.77149E-002,-2.65921E-001,1.30738E-001,1.13927E+000,1.34466E-002,0.00000E+000,-1.25672E-002,9.45821E-001,0.00000E+000,-3.40389E-003,-6.48759E-002,1.00000E+000,24
629,1327,-1.71267E+001,-6.83272E-001,1.26428E-001,2.55121E+000,-5.56979E-001,1.30472E-001,2.61456E+000,1.02437E-002,5.78250E-001,0,3.96317E+001,-9.33397E+000,9.98609E-001,-2.18254E+000,-4.91910E+001,9.98018E-001,1.37132E-001,-5.77058E-002,-4.53984E-004,1.37133E-001,-5.77069E-002,-1.33502E-001,1.37705E-001,1.14690E+000,1.35888E-002,0.00000E+000,-1.19425E-002,9.45833E-001,0.00000E+000,-1.30437E-003,-6.48368E-002,1.00000E+000,24
629,1337,-1.71120E+001,-8.38824E-002,6.26250E-002,2.55923E+000,-5.93069E-001,8.92714E-002,2.62857E+000,1.18898E-002,6.32773E-001,0,3.98746E+001,-9.83170E+000,9.98345E-001,-1.99530E+000,-4.98170E+001,9.98033E-001,1.34914E-001,-5.77053E-002,-5.84114E-004,1.34916E-001,-5.77071E-002,-1.73746E-001,1.35385E-001,1.14436E+000,1.35628E-002,0.00000E+000,-1.21503E-002,9.45831E-001,0.00000E+000,-2.00268E-003,-6.48439E-002,1.00000E+000,24
1229,1317,2.84770E+001,-5.88371E-001,-8.92281E-002,9.03515E+000,-1.56573E-001,-5.80443E-002,9.03669E+000,1.64044E-002,4.66266E-001,0,1.35313E+002,-3.53976E+000,9.98648E-001,1.02703E+002,-3.13160E+001,9.97895E-001,1.56054E-001,-6.40531E-002,-2.59078E-005,1.56054E-001,-6.40531E-002,-6.74401E-003,1.56886E-001,1.16882E+000,-1.38158E-002,0.00000E+000,1.13451E-002,9.39858E-001,0.00000E+000,-5.45594E-003,-6.48065E-002,1.00000E+000,24
1229,1327,2.84945E+001,1.91619E-002,-1.08043E-001,9.02930E+000,-2.03485E-001,-9.86854E-002,9.03213E+000,1.09558E-002,4.62177E-001,0,1.35385E+002,-4.21017E+000,9.98973E-001,1.02993E+002,-3.18338E+001,9.97965E-001,1.56786E-001,-6.40517E-002,5.41751E-006,1.56786E-001,-6.40517E-002,1.40556E-003,1.57658E-001,1.16967E+000,-1.37855E-002,0.00000E+000,1.13310E-002,9.39857E-001,0.00000E+000,-4.78093E-003,-6.47825E-002,1.00000E+000,24
1229,1337,2.85303E+001,6.44493E-001,-8.96764E-002,9.03175E+000,-2.35978E-001,-1.40660E-001,9.03593E+000,1.15116E-002,4.26360E-001,0,1.35567E+002,-4.67975E+000,9.98590E-001,1.03620E+002,-3.21736E+001,9.97503E-001,1.57517E-001,-6.40500E-002,4.22454E-005,1.57517E-001,-6.40500E-002,1.09244E-002,1.58430E-001,1.17053E+000,-1.37422E-002,0.00000E+000,1.13168E-002,9.39857E-001,0.00000E+000,-4.10456E-003,-6.47482E-002,1.00000E+000,24
629,1317,-1.71394E+001,-1.27294E+000,2.17999E-001,2.54051E+000,-5.18176E-001,1.73065E-001,2.59858E+000,1.13605E-002,6.30375E-001,0,3.93400E+001,-8.80007E+000,9.98829E-001,-2.25961E+000,-4.84212E+001,9.98063E-001,1.39327E-001,-5.77082E-002,-3.32551E-004,1.39328E-001,-5.77088E-002,-9.67020E-002,1.40010E-001,1.14942E+000,1.35968E-002,0.00000E+000,-1.17363E-002,9.45834E-001,0.00000E+000,-6.11566E-004,-6.48346E-002,1.00000E+000,24
1229,1297,2.84656E+001,-1.79491E+000,3.35841E-002,9.05074E+000,-6.54079E-002,3.35280E-002,9.05104E+000,1.33564E-002,4.33873E-001,0,1.35161E+002,-2.23916E+000,9.98220E-001,1.02605E+002,-3.03545E+001,9.95629E-001,1.54597E-001,-6.40549E-002,-7.76399E-005,1.54597E-001,-6.40550E-002,-2.03449E-002,1.55351E-001,1.16713E+000,-1.38509E-002,0.00000E+000,1.13732E-002,9.39859E-001,0.00000E+000,-6.79854E-003,-6.48343E-002,1.00000E+000,24
1229,1307,2.84757E+001,-1.19032E+000,-3.18364E-002,9.05045E+000,-1.07887E-001,-4.54065E-003,9.05109E+000,1.92283E-002,4.51305E-001,0,1.35319E+002,-2.86164E+000,9.97886E-001,1.02718E+002,-3.08048E+001,9.96439E-001,1.55325E-001,-6.40542E-002,-5.34896E-005,1.55325E-001,-6.40542E-002,-1.39700E-002,1.56117E-001,1.16797E+000,-1.38373E-002,0.00000E+000,1.13592E-002,9.39858E-001,0.00000E+000,-6.12844E-003,-6.48235E-002,1.00000E+000,24
619,1327,-1.78619E+001,-6.83655E-001,1.25509E-001,2.45556E+000,-5.51828E-001,1.30543E-001,2.52019E+000,8.29305E-003,5.71159E-001,0,3.81637E+001,-9.23942E+000,9.98644E-001,-3.41052E+000,-4.93020E+001,9.98543E-001,1.35959E-001,-5.72434E-002,-7.03207E-004,1.35961E-001,-5.72460E-002,-2.08538E-001,1.36525E-001,1.14552E+000,1.63800E-002,0.00000E+000,-1.47245E-002,9.46203E-001,0.00000E+000,-1.42034E-003,-6.43672E-002,1.00000E+000,24
619,1337,-1.78443E+001,-8.33001E-002,6.60197E-002,2.46585E+000,-5.87347E-001,8.90510E-002,2.53640E+000,1.00147E-002,6.22824E-001,0,3.84413E+001,-9.72695E+000,9.97563E-001,-3.16537E+000,-4.99255E+001,9.97710E-001,1.33645E-001,-5.72431E-002,-7.43922E-004,1.33648E-001,-5.72460E-002,-2.23286E-001,1.34105E-001,1.14288E+000,1.63502E-002,0.00000E+000,-1.47699E-002,9.46202E-001,0.00000E+000,-2.05483E-003,-6.43743E-002,1.00000E+000,24
619,1347,-1.78248E+001,5.22185E-001,2.82500E-002,2.47518E+000,-6.18830E-001,5.21863E-002,2.55190E+000,1.18373E-002,6.09408E-001,0,3.86888E+001,-1.01513E+001,9.97595E-001,-2.82688E+000,-5.05500E+001,9.97467E-001,1.31326E-001,-5.72432E-002,-7.89653E-004,1.31330E-001,-5.72465E-002,-2.39926E-001,1.31689E-001,1.14023E+000,1.63089E-002,0.00000E+000,-1.48152E-002,9.46201E-001,0.00000E+000,-2.68906E-003,-6.43842E-002,1.00000E+000,24
619,1357,-1.77966E+001,1.13313E+000,3.34660E-002,2.48632E+000,-6.50988E-001,1.82188E-002,2.57020E+000,1.07592E-002,5.98913E-001,0,3.89532E+001,-1.05927E+001,9.98539E-001,-2.23169E+000,-5.11839E+001,9.98369E-001,1.28991E-001,-5.72442E-002,-8.47574E-004,1.28995E-001,-5.72480E-002,-2.60752E-001,1.29266E-001,1.13757E+000,1.62400E-002,0.00000E+000,-1.48608E-002,9.46200E-001,0.00000E+000,-3.32626E-003,-6.44008E-002,1.00000E+000,24
619,1317,-1.78716E+001,-1.26863E+000,2.21385E-001,2.44798E+000,-5.06891E-001,1.77946E-001,2.50624E+000,1.38486E-002,6.08538E-001,0,3.79069E+001,-8.63792E+000,9.98243E-001,-3.42702E+000,-4.84742E+001,9.97816E-001,1.38254E-001,-5.72445E-002,-6.71739E-004,1.38256E-001,-5.72468E-002,-1.96867E-001,1.38935E-001,1.14815E+000,1.63887E-002,0.00000E+000,-1.46794E-002,9.46203E-001,0.00000E+000,-7.89405E-004,-6.43651E-002,1.00000E+000,24
1239,1307,2.92458E+001,-1.18152E+000,-5.25472E-002,9.15525E+000,-1.03798E-001,-2.20165E-002,9.15586E+000,2.00533E-002,4.18552E-001,0,1.36845E+002,-2.77308E+000,9.97747E-001,1.04737E+002,-3.05474E+001,9.96168E-001,1.54845E-001,-6.34957E-002,2.19370E-004,1.54846E-001,-6.34959E-002,5.75658E-002,1.55679E-001,1.16742E+000,-1.28064E-002,0.00000E+000,1.10522E-002,9.40344E-001,0.00000E+000,-6.05716E-003,-6.41097E-002,1.00000E+000,24
1239,1317,2.92595E+001,-5.67239E-001,-9.92886E-002,9.15262E+000,-1.39341E-001,-6.35681E-002,9.15391E+000,1.89168E-002,4.16083E-001,0,1.36974E+002,-3.28265E+000,9.98008E-001,1.04931E+002,-3.08956E+001,9.97339E-001,1.55623E-001,-6.34892E-002,3.21932E-004,1.55624E-001,-6.34897E-002,8.41819E-002,1.56500E-001,1.16833E+000,-1.27838E-002,0.00000E+000,1.11593E-002,9.40347E-001,0.00000E+000,-5.04503E-003,-6.40843E-002,1.00000E+000,24
1239,1327,2.92798E+001,4.01264E-002,-9.58651E-002,9.14481E+000,-1.91356E-001,-9.92968E-002,9.14735E+000,1.45461E-002,4.95583E-001,0,1.36994E+002,-4.04944E+000,9.98431E-001,1.05292E+002,-3.14212E+001,9.97536E-001,1.56407E-001,-6.34795E-002,4.32357E-004,1.56408E-001,-6.34804E-002,1.12658E-001,1.57329E-001,1.16924E+000,-1.27449E-002,0.00000E+000,1.12676E-002,9.40351E-001,0.00000E+000,-4.02186E-003,-6.40407E-002,1.00000E+000,24
1239,1337,2.93044E+001,6.63267E-001,-8.47458E-002,9.13944E+000,-2.23296E-001,-1.34624E-001,9.14316E+000,1.25707E-002,4.12699E-001,0,1.37037E+002,-4.51634E+000,9.97962E-001,1.05731E+002,-3.18027E+001,9.96064E-001,1.57184E-001,-6.34693E-002,5.43036E-004,1.57186E-001,-6.34707E-002,1.41006E-001,1.58153E-001,1.17015E+000,-1.27036E-002,0.00000E+000,1.13751E-002,9.40356E-001,0.00000E+000,-3.00602E-003,-6.39943E-002,1.00000E+000,24
1239,1297,2.92438E+001,-1.78304E+000,2.94999E-002,9.16263E+000,-5.86248E-002,2.86494E-002,9.16286E+000,1.25490E-002,4.49319E-001,0,1.36737E+002,-2.15995E+000,9.98257E-001,1.04772E+002,-3.00622E+001,9.96467E-001,1.54068E-001,-6.35002E-002,1.21046E-004,1.54068E-001,-6.35003E-002,3.18769E-002,1.54859E-001,1.16652E+000,-1.28195E-002,0.00000E+000,1.09454E-002,9.40342E-001,0.00000E+000,-7.06672E-003,-6.41243E-002,1.00000E+000,24
609,1347,-1.85517E+001,5.21828E-001,3.08071E-002,2.38720E+000,-6.14082E-001,5.29314E-002,2.46549E+000,1.50934E-002,6.37924E-001,0,3.73352E+001,-1.00764E+001,9.97292E-001,-3.91178E+000,-5.06532E+001,9.97224E-001,1.30043E-001,-5.60999E-002,-1.03845E-003,1.30049E-001,-5.61057E-002,-3.19628E-001,1.30456E-001,1.13873E+000,1.89068E-002,0.00000E+000,-1.74949E-002,9.47181E-001,0.00000E+000,-2.40422E-003,-6.34368E-002,1.00000E+000,24
609,1357,-1.85260E+001,1.13856E+000,3.13400E-002,2.39699E+000,-6.39344E-001,1.96350E-002,2.48086E+000,1.21565E-002,6.19702E-001,0,3.75747E+001,-1.04088E+001,9.98315E-001,-3.36435E+000,-5.11941E+001,9.98023E-001,1.27658E-001,-5.61001E-002,-1.06013E-003,1.27664E-001,-5.61062E-002,-3.30533E-001,1.27976E-001,1.13602E+000,1.88410E-002,0.00000E+000,-1.74708E-002,9.47182E-001,0.00000E+000,-3.20208E-003,-6.34561E-002,1.00000E+000,24
609,1317,-1.86086E+001,-1.27003E+000,2.18207E-001,2.34969E+000,-5.02725E-001,1.72962E-001,2.40909E+000,1.42404E-002,6.39600E-001,0,3.64102E+001,-8.57733E+000,9.98493E-001,-4.68290E+000,-4.85755E+001,9.97548E-001,1.37125E-001,-5.61005E-002,-1.02420E-003,1.37130E-001,-5.61060E-002,-3.03689E-001,1.37883E-001,1.14682E+000,1.89872E-002,0.00000E+000,-1.75668E-002,9.47181E-001,0.00000E+000,-2.18986E-005,-6.34131E-002,1.00000E+000,24
609,1327,-1.85945E+001,-6.86706E-001,1.24387E-001,2.36222E+000,-5.50364E-001,1.30510E-001,2.42899E+000,1.01004E-002,6.39935E-001,0,3.67308E+001,-9.22538E+000,9.98710E-001,-4.59399E+000,-4.94155E+001,9.98092E-001,1.34775E-001,-5.61001E-002,-1.02034E-003,1.34780E-001,-5.61056E-002,-3.06269E-001,1.35408E-001,1.14412E+000,1.89804E-002,0.00000E+000,-1.75429E-002,9.47181E-001,0.00000E+000,-8.14642E-004,-6.34151E-002,1.00000E+000,24
609,1337,-1.85736E+001,-8.22179E-002,6.53248E-002,2.37585E+000,-5.80051E-001,8.89715E-002,2.44725E+000,1.22771E-002,6.11771E-001,0,3.70585E+001,-9.60533E+000,9.97638E-001,-4.29548E+000,-5.00176E+001,9.97400E-001,1.32416E-001,-5.61000E-002,-1.02653E-003,1.32422E-001,-5.61056E-002,-3.11982E-001,1.32935E-001,1.14143E+000,1.89502E-002,0.00000E+000,-1.75189E-002,9.47181E-001,0.00000E+000,-1.60796E-003,-6.34240E-002,1.00000E+000,24
1249,1297,3.00256E+001,-1.76521E+000,3.15414E-002,9.27618E+000,-4.78666E-002,2.42225E-002,9.27634E+000,1.45976E-002,4.67347E-001,0,1.38330E+002,-2.00445E+000,9.98455E-001,1.07009E+002,-2.96886E+001,9.96853E-001,1.53163E-001,-6.28508E-002,3.16947E-004,1.53163E-001,-6.28512E-002,8.40674E-002,1.53982E-001,1.16549E+000,-1.13748E-002,0.00000E+000,1.01988E-002,9.40926E-001,0.00000E+000,-7.59336E-003,-6.35323E-002,1.00000E+000,24
1249,1307,3.00232E+001,-1.16780E+000,-5.60599E-002,9.26685E+000,-9.54952E-002,-2.25524E-002,9.26737E+000,1.83289E-002,4.24796E-001,0,1.38398E+002,-2.66661E+000,9.98404E-001,1.06899E+002,-3.02308E+001,9.96353E-001,1.54119E-001,-6.28396E-002,5.93605E-004,1.54120E-001,-6.28412E-002,1.56762E-001,1.54992E-001,1.16659E+000,-1.13629E-002,0.00000E+000,1.06155E-002,9.40931E-001,0.00000E+000,-6.10492E-003,-6.35163E-002,1.00000E+000,24
1249,1317,3.00315E+001,-5.60212E-001,-1.02046E-001,9.25969E+000,-1.37045E-001,-5.95123E-002,9.26090E+000,1.71172E-002,4.05158E-001,0,1.38444E+002,-3.27501E+000,9.97172E-001,1.07007E+002,-3.06923E+001,9.95939E-001,1.55075E-001,-6.28212E-002,8.77189E-004,1.55078E-001,-6.28248E-002,2.30652E-001,1.56006E-001,1.16770E+000,-1.13366E-002,0.00000E+000,1.10337E-002,9.40941E-001,0.00000E+000,-4.61130E-003,-6.34809E-002,1.00000E+000,24
1249,1327,3.00482E+001,6.02166E-002,-1.17184E-001,9.25087E+000,-1.72864E-001,-1.03585E-001,9.25306E+000,1.57721E-002,4.42601E-001,0,1.38481E+002,-3.78482E+000,9.97357E-001,1.07288E+002,-3.09938E+001,9.96830E-001,1.56035E-001,-6.27944E-002,1.16996E-003,1.56041E-001,-6.28007E-002,3.06319E-001,1.57027E-001,1.16882E+000,-1.12931E-002,0.00000E+000,1.14550E-002,9.40957E-001,0.00000E+000,-3.10642E-003,-6.34223E-002,1.00000E+000,24
1249,1337,3.00766E+001,6.83647E-001,-9.47290E-002,9.24637E+000,-2.08496E-001,-1.37748E-001,9.24974E+000,1.23250E-002,4.25292E-001,0,1.38531E+002,-4.30883E+000,9.98633E-001,1.07798E+002,-3.13609E+001,9.98152E-001,1.56993E-001,-6.27614E-002,1.46828E-003,1.57002E-001,-6.27713E-002,3.82796E-001,1.58050E-001,1.16994E+000,-1.12372E-002,0.00000E+000,1.18772E-002,9.40978E-001,0.00000E+000,-1.59878E-003,-6.33468E-002,1.00000E+000,24
1259,1327,3.08246E+001,7.25124E-002,-1.22650E-001,9.36080E+000,-1.65194E-001,-1.05574E-001,9.36285E+000,1.22281E-002,4.10949E-001,0,1.40014E+002,-3.68578E+000,9.98860E-001,1.09432E+002,-3.07111E+001,9.98448E-001,1.55852E-001,-6.24487E-002,1.81429E-003,1.55867E-001,-6.24638E-002,4.76140E-001,1.56887E-001,1.16861E+000,-1.03799E-002,0.00000E+000,1.18569E-002,9.41237E-001,0.00000E+000,-1.58349E-003,-6.27272E-002,1.00000E+000,24
1259,1337,3.08532E+001,6.93322E-001,-1.04983E-001,9.35585E+000,-2.04229E-001,-1.46164E-001,9.35922E+000,1.13345E-002,3.91248E-001,0,1.40086E+002,-4.24237E+000,9.99227E-001,1.09937E+002,-3.11078E+001,9.99078E-001,1.56851E-001,-6.24012E-002,2.22774E-003,1.56874E-001,-6.24239E-002,5.82081E-001,1.57960E-001,1.16978E+000,-1.03201E-002,0.00000E+000,1.24669E-002,9.41269E-001,0.00000E+000,4.18249E-004,-6.26250E-002,1.00000E+000,24
599,1347,-1.92723E+001,5.32911E-001,3.94610E-002,2.30471E+000,-5.97870E-001,5.67896E-002,2.38167E+000,1.45527E-002,6.34553E-001,0,3.60539E+001,-9.82072E+000,9.98386E-001,-4.87379E+000,-5.06093E+001,9.98516E-001,1.29387E-001,-5.61678E-002,-7.75416E-004,1.29391E-001,-5.61711E-002,-2.39428E-001,1.29764E-001,1.13794E+000,2.10435E-002,0.00000E+000,-1.87930E-002,9.47023E-001,0.00000E+000,-2.16396E-003,-6.22803E-002,1.00000E+000,24
599,1357,-1.92433E+001,1.13921E+000,3.64747E-002,2.31831E+000,-6.33240E-001,2.27690E-002,2.40335E+000,1.01750E-002,6.33109E-001,0,3.63574E+001,-1.03142E+001,9.98633E-001,-4.28917E+000,-5.12958E+001,9.98454E-001,1.27148E-001,-5.61658E-002,-5.47318E-004,1.27150E-001,-5.61675E-002,-1.71065E-001,1.27437E-001,1.13540E+000,2.09844E-002,0.00000E+000,-1.82962E-002,9.47035E-001,0.00000E+000,-3.06606E-003,-6.23013E-002,1.00000E+000,24
1259,1287,3.08046E+001,-2.35211E+000,1.15905E-001,9.39193E+000,5.41991E-003,5.57454E-002,9.39209E+000,1.51417E-002,4.21735E-001,0,1.39790E+002,-1.23064E+000,9.97962E-001,1.09271E+002,-2.89303E+001,9.94074E-001,1.51841E-001,-6.25390E-002,2.35044E-004,1.51841E-001,-6.25393E-002,6.28185E-002,1.52625E-001,1.16397E+000,-1.04712E-002,0.00000E+000,9.44023E-003,9.41190E-001,0.00000E+000,-9.51386E-003,-6.28833E-002,1.00000E+000,24
1259,1297,3.07989E+001,-1.75522E+000,8.53790E-003,9.38482E+000,-4.15749E-002,1.03887E-002,9.38492E+000,1.32495E-002,4.38953E-001,0,1.39893E+002,-1.89263E+000,9.98073E-001,1.09084E+002,-2.94078E+001,9.95637E-001,1.52848E-001,-6.25302E-002,6.20122E-004,1.52850E-001,-6.25320E-002,1.64966E-001,1.53689E-001,1.16513E+000,-1.04686E-002,0.00000E+000,1.00422E-002,9.41191E-001,0.00000E+000,-7.53832E-003,-6.28790E-002,1.00000E+000,24
1259,1307,3.07998E+001,-1.15212E+000,-6.75671E-002,9.37747E+000,-8.51805E-002,-2.94997E-002,9.37791E+000,1.31484E-002,4.34442E-001,0,1.39960E+002,-2.51502E+000,9.98365E-001,1.09040E+002,-2.98648E+001,9.96919E-001,1.53852E-001,-6.25130E-002,1.01104E-003,1.53856E-001,-6.25178E-002,2.67728E-001,1.54754E-001,1.16629E+000,-1.04539E-002,0.00000E+000,1.06454E-002,9.41199E-001,0.00000E+000,-5.55895E-003,-6.28537E-002,1.00000E+000,24
599,1327,-1.93233E+001,-6.70428E-001,1.32214E-001,2.27082E+000,-5.30007E-001,1.31166E-001,2.33554E+000,1.11234E-002,6.38651E-001,0,3.53191E+001,-8.89304E+000,9.98723E-001,-5.68435E+000,-4.92859E+001,9.98041E-001,1.33828E-001,-5.61620E-002,-1.25174E-003,1.33836E-001,-5.61703E-002,-3.77468E-001,1.34411E-001,1.14300E+000,2.11101E-002,0.00000E+000,-1.97826E-002,9.47010E-001,0.00000E+000,-3.67420E-004,-6.22567E-002,1.00000E+000,24
599,1337,-1.93017E+001,-7.35542E-002,6.89273E-002,2.28674E+000,-5.65763E-001,9.40326E-002,2.35756E+000,1.01057E-002,6.20121E-001,0,3.56722E+001,-9.38454E+000,9.98545E-001,-5.38864E+000,-4.99930E+001,9.98481E-001,1.31616E-001,-5.61670E-002,-1.00949E-003,1.31622E-001,-5.61724E-002,-3.08000E-001,1.32091E-001,1.14048E+000,2.10878E-002,0.00000E+000,-1.92890E-002,9.47014E-001,0.00000E+000,-1.26349E-003,-6.22646E-002,1.00000E+000,24
1259,1317,3.08088E+001,-5.42289E-001,-1.07467E-001,9.37062E+000,-1.25475E-001,-6.15142E-002,9.37166E+000,1.30829E-002,4.50325E-001,0,1.39989E+002,-3.12382E+000,9.98761E-001,1.09167E+002,-3.02852E+001,9.97700E-001,1.54853E-001,-6.24868E-002,1.40848E-003,1.54862E-001,-6.24959E-002,3.71287E-001,1.55819E-001,1.16745E+000,-1.04256E-002,0.00000E+000,1.12502E-002,9.41214E-001,0.00000E+000,-3.57450E-003,-6.28054E-002,1.00000E+000,24
599,1317,-1.93444E+001,-1.26491E+000,2.22105E-001,2.25119E+000,-4.94506E-001,1.68660E-001,2.31102E+000,1.39987E-002,6.27698E-001,0,3.49047E+001,-8.40843E+000,9.98571E-001,-5.89175E+000,-4.86133E+001,9.98194E-001,1.36032E-001,-5.61540E-002,-1.50092E-003,1.36044E-001,-5.61657E-002,-4.47427E-001,1.36731E-001,1.14553E+000,2.11156E-002,0.00000E+000,-2.02758E-002,9.47009E-001,0.00000E+000,5.28013E-004,-6.22548E-002,1.00000E+000,24
589,1347,-2.00010E+001,5.43874E-001,4.33455E-002,2.21435E+000,-5.81287E-001,6.04025E-002,2.29017E+000,1.04892E-002,6.40089E-001,0,3.46491E+001,-9.55963E+000,9.98609E-001,-5.97003E+000,-5.05538E+001,9.98672E-001,1.28811E-001,-5.59376E-002,-1.53773E-004,1.28812E-001,-5.59378E-002,-4.76892E-002,1.29182E-001,1.13723E+000,2.39070E-002,0.00000E+000,-2.00085E-002,9.47161E-001,0.00000E+000,-2.08690E-003,-6.13384E-002,1.00000E+000,24
589,1357,-1.99682E+001,1.14995E+000,4.40710E-002,2.23146E+000,-6.17886E-001,2.67751E-002,2.31558E+000,8.57421E-003,6.44361E-001,0,3.50061E+001,-1.00651E+001,9.98685E-001,-5.31352E+000,-5.12505E+001,9.99013E-001,1.26546E-001,-5.59364E-002,7.37935E-005,1.26546E-001,-5.59364E-002,2.31697E-002,1.26829E-001,1.13466E+000,2.38457E-002,0.00000E+000,-1.95198E-002,9.47172E-001,0.00000E+000,-2.95123E-003,-6.13590E-002,1.00000E+000,24
589,1337,-2.00266E+001,-6.68016E-002,7.28886E-002,2.19914E+000,-5.54104E-001,9.19907E-002,2.26974E+000,7.47216E-003,6.15913E-001,0,3.43270E+001,-9.18852E+000,9.99269E-001,-6.42798E+000,-5.00047E+001,9.99215E-001,1.31063E-001,-5.59351E-002,-3.89487E-004,1.31064E-001,-5.59359E-002,-1.19337E-001,1.31532E-001,1.13979E+000,2.39474E-002,0.00000E+000,-2.04957E-002,9.47153E-001,0.00000E+000,-1.22541E-003,-6.13248E-002,1.00000E+000,24
589,1327,-2.00432E+001,-6.50374E-001,1.47334E-001,2.18848E+000,-5.05855E-001,1.41621E-001,2.25064E+000,1.44420E-002,6.65169E-001,0,3.40205E+001,-8.53296E+000,9.99177E-001,-6.60970E+000,-4.90991E+001,9.98371E-001,1.33295E-001,-5.59295E-002,-6.31154E-004,1.33297E-001,-5.59316E-002,-1.91106E-001,1.33871E-001,1.14234E+000,2.39704E-002,0.00000E+000,-2.09799E-002,9.47149E-001,0.00000E+000,-3.69016E-004,-6.13170E-002,1.00000E+000,24
1269,1327,3.16071E+001,8.81094E-002,-1.20940E-001,9.47591E+000,-1.56330E-001,-1.01928E-001,9.47775E+000,1.07926E-002,4.23903E-001,0,1.41595E+002,-3.57510E+000,9.99099E-001,1.11685E+002,-3.03701E+001,9.98422E-001,1.55738E-001,-6.18814E-002,2.36637E-003,1.55764E-001,-6.19071E-002,6.22930E-001,1.56852E-001,1.16849E+000,-9.40164E-003,0.00000E+000,1.20738E-002,9.41651E-001,0.00000E+000,-7.19647E-004,-6.06547E-002,1.00000E+000,24
1269,1337,3.16423E+001,7.03400E-001,-9.60718E-002,9.47642E+000,-2.00940E-001,-1.38630E-001,9.47956E+000,1.11017E-002,4.03058E-001,0,1.41734E+002,-4.23645E+000,9.98989E-001,1.12299E+002,-3.08670E+001,9.97586E-001,1.56826E-001,-6.18207E-002,2.87914E-003,1.56864E-001,-6.18586E-002,7.54299E-001,1.58027E-001,1.16976E+000,-9.33431E-003,0.00000E+000,1.28628E-002,9.41692E-001,0.00000E+000,1.41964E-003,-6.05419E-002,1.00000E+000,24
589,1317,-2.00683E+001,-1.24817E+000,2.37244E-001,2.16444E+000,-4.73658E-001,1.77404E-001,2.22275E+000,1.17340E-002,5.80235E-001,0,3.35433E+001,-8.06528E+000,9.98040E-001,-6.87918E+000,-4.85125E+001,9.96987E-001,1.35524E-001,-5.59203E-002,-8.80985E-004,1.35528E-001,-5.59244E-002,-2.63656E-001,1.36216E-001,1.14489E+000,2.39748E-002,0.00000E+000,-2.14646E-002,9.47148E-001,0.00000E+000,4.88232E-004,-6.13156E-002,1.00000E+000,24
1269,1317,3.15939E+001,-5.25996E-001,-1.06134E-001,9.48629E+000,-1.15822E-001,-6.65345E-002,9.48723E+000,1.12868E-002,4.12632E-001,0,1.41612E+002,-2.97289E+000,9.98899E-001,1.11462E+002,-2.99590E+001,9.98106E-001,1.54649E-001,-6.19256E-002,1.86419E-003,1.54665E-001,-6.19417E-002,4.93130E-001,1.55683E-001,1.16722E+000,-9.44757E-003,0.00000E+000,1.12881E-002,9.41622E-001,0.00000E+000,-2.84992E-003,-6.07317E-002,1.00000E+000,24
1269,1307,3.15838E+001,-1.13675E+000,-6.14520E-002,9.49211E+000,-7.66799E-002,-2.97142E-002,9.49247E+000,1.21083E-002,4.35150E-001,0,1.41547E+002,-2.40282E+000,9.98291E-001,1.11323E+002,-2.95458E+001,9.97381E-001,1.53559E-001,-6.19582E-002,1.37016E-003,1.53567E-001,-6.19669E-002,3.64240E-001,1.54518E-001,1.16595E+000,-9.47859E-003,0.00000E+000,1.05060E-002,9.41603E-001,0.00000E+000,-4.97053E-003,-6.07837E-002,1.00000E+000,24
1269,1297,3.15753E+001,-1.74479E+000,1.73403E-003,9.49450E+000,-3.67470E-002,6.56399E-003,9.49457E+000,1.30674E-002,4.35275E-001,0,1.41426E+002,-1.82090E+000,9.98161E-001,1.11233E+002,-2.91422E+001,9.96924E-001,1.52463E-001,-6.19829E-002,8.80636E-004,1.52467E-001,-6.19865E-002,2.35283E-001,1.53352E-001,1.16469E+000,-9.49969E-003,0.00000E+000,9.72475E-003,9.41590E-001,0.00000E+000,-7.08867E-003,-6.08190E-002,1.00000E+000,24
1269,1287,3.15833E+001,-2.34363E+000,1.14789E-001,9.50162E+000,7.04600E-003,4.92893E-002,9.50175E+000,1.76259E-002,4.16383E-001,0,1.41332E+002,-1.19601E+000,9.98531E-001,1.11461E+002,-2.87094E+001,9.95919E-001,1.51367E-001,-6.19900E-002,4.02597E-004,1.51367E-001,-6.19907E-002,1.08115E-001,1.52191E-001,1.16343E+000,-9.49814E-003,0.00000E+000,8.94675E-003,9.41591E-001,0.00000E+000,-9.19810E-003,-6.08164E-002,1.00000E+000,24
579,1347,-2.07246E+001,5.51499E-001,4.80793E-002,2.12809E+000,-5.68910E-001,6.06312E-002,2.20366E+000,8.75229E-003,6.58431E-001,0,3.33164E+001,-9.36001E+000,9.98763E-001,-6.98030E+000,-5.05445E+001,9.98912E-001,1.27744E-001,-5.55310E-002,5.10354E-004,1.27746E-001,-5.55324E-002,1.59546E-001,1.28108E-001,1.13596E+000,2.68004E-002,0.00000E+000,-2.11538E-002,9.47481E-001,0.00000E+000,-2.56698E-003,-6.06571E-002,1.00000E+000,24
579,1357,-2.06854E+001,1.16561E+000,5.43970E-002,2.15138E+000,-5.97807E-001,3.07289E-002,2.23310E+000,8.93436E-003,6.65543E-001,0,3.37578E+001,-9.75137E+000,9.99149E-001,-6.20738E+000,-5.11299E+001,9.99400E-001,1.25329E-001,-5.55304E-002,7.80841E-004,1.25332E-001,-5.55338E-002,2.47362E-001,1.25603E-001,1.13322E+000,2.67347E-002,0.00000E+000,-2.05789E-002,9.47495E-001,0.00000E+000,-3.60967E-003,-6.06822E-002,1.00000E+000,24
579,1337,-2.07551E+001,-5.59564E-002,8.33946E-002,2.10787E+000,-5.38745E-001,9.79607E-002,2.17783E+000,8.79036E-003,6.27946E-001,0,3.29005E+001,-8.95092E+000,9.98582E-001,-7.49561E+000,-4.99602E+001,9.98742E-001,1.30143E-001,-5.55268E-002,2.31016E-004,1.30143E-001,-5.55271E-002,7.12890E-002,1.30609E-001,1.13868E+000,2.68428E-002,0.00000E+000,-2.17264E-002,9.47472E-001,0.00000E+000,-1.52830E-003,-6.06410E-002,1.00000E+000,24
579,1327,-2.07804E+001,-6.43012E-001,1.42610E-001,2.08900E+000,-4.94190E-001,1.36070E-001,2.15097E+000,9.76346E-003,6.68917E-001,0,3.24981E+001,-8.31407E+000,9.99211E-001,-7.85599E+000,-4.90788E+001,9.98369E-001,1.32519E-001,-5.55194E-002,-5.31620E-005,1.32519E-001,-5.55195E-002,-1.61986E-002,1.33098E-001,1.14139E+000,2.68694E-002,0.00000E+000,-2.22955E-002,9.47467E-001,0.00000E+000,-4.96182E-004,-6.06308E-002,1.00000E+000,24
579,1317,-2.07983E+001,-1.23299E+000,2.36060E-001,2.07237E+000,-4.55704E-001,1.77012E-001,2.12925E+000,1.47957E-002,6.49493E-001,0,3.21225E+001,-7.76943E+000,9.98006E-001,-8.00291E+000,-4.83442E+001,9.96578E-001,1.34886E-001,-5.55078E-002,-3.46064E-004,1.34887E-001,-5.55084E-002,-1.04141E-001,1.35589E-001,1.14409E+000,2.68748E-002,0.00000E+000,-2.28641E-002,9.47466E-001,0.00000E+000,5.35186E-004,-6.06288E-002,1.00000E+000,24
1279,1317,3.23695E+001,-5.18327E-001,-1.09116E-001,9.59531E+000,-1.12431E-001,-6.33862E-002,9.59618E+000,9.98499E-003,3.87253E-001,0,1.43106E+002,-2.94930E+000,9.98748E-001,1.13605E+002,-2.97526E+001,9.97304E-001,1.54230E-001,-6.10819E-002,2.25423E-003,1.54254E-001,-6.11054E-002,5.99775E-001,1.55359E-001,1.16674E+000,-8.35139E-003,0.00000E+000,1.11140E-002,9.42295E-001,0.00000E+000,-2.14542E-003,-5.84924E-002,1.00000E+000,24
1279,1327,3.23954E+001,1.02980E-001,-1.14883E-001,9.59595E+000,-1.48222E-001,-9.51789E-002,9.59756E+000,1.59604E-002,4.34115E-001,0,1.43233E+002,-3.48484E+000,9.98254E-001,1.14036E+002,-3.00508E+001,9.97839E-001,1.55446E-001,-6.10267E-002,2.85571E-003,1.55483E-001,-6.10643E-002,7.55673E-001,1.56671E-001,1.16816E+000,-8.29661E-003,0.00000E+000,1.20753E-002,9.42332E-001,0.00000E+000,1.84867E-004,-5.84026E-002,1.00000E+000,24
1279,1337,3.24299E+001,7.18464E-001,-8.92510E-002,9.59570E+000,-1.94193E-001,-1.30629E-001,9.59855E+000,1.24767E-002,4.37035E-001,0,1.43356E+002,-4.16084E+000,9.98724E-001,1.14639E+002,-3.05334E+001,9.98257E-001,1.56657E-001,-6.09544E-002,3.46716E-003,1.56713E-001,-6.10096E-002,9.12571E-001,1.57988E-001,1.16958E+000,-8.22135E-003,0.00000E+000,1.30399E-002,9.42383E-001,0.00000E+000,2.52294E-003,-5.82792E-002,1.00000E+000,24
1279,1307,3.23515E+001,-1.12816E+000,-7.48526E-002,9.59459E+000,-7.23488E-002,-3.24719E-002,9.59492E+000,1.16218E-002,4.46374E-001,0,1.42969E+002,-2.35564E+000,9.98636E-001,1.13332E+002,-2.92868E+001,9.96490E-001,1.53017E-001,-6.11223E-002,1.66438E-003,1.53030E-001,-6.11353E-002,4.45292E-001,1.54057E-001,1.16533E+000,-8.38876E-003,0.00000E+000,1.01605E-002,9.42270E-001,0.00000E+000,-4.45663E-003,-5.85537E-002,1.00000E+000,24
1279,1297,3.23522E+001,-1.72895E+000,1.05392E-002,9.60276E+000,-2.56679E-002,1.31465E-002,9.60281E+000,2.08451E-002,3.66219E-001,0,1.42885E+002,-1.66784E+000,9.98066E-001,1.13413E+002,-2.88588E+001,9.96917E-001,1.51797E-001,-6.11451E-002,1.08338E-003,1.51802E-001,-6.11506E-002,2.91494E-001,1.52755E-001,1.16392E+000,-8.40498E-003,0.00000E+000,9.20738E-003,9.42259E-001,0.00000E+000,-6.76712E-003,-5.85803E-002,1.00000E+000,24
1279,1287,3.23552E+001,-2.34479E+000,1.03070E-001,9.60887E+000,2.88423E-003,4.99215E-002,9.60900E+000,1.91395E-002,3.10854E-001,0,1.42812E+002,-1.23684E+000,9.98347E-001,1.13537E+002,-2.86671E+001,9.96019E-001,1.50573E-001,-6.11597E-002,5.08035E-004,1.50574E-001,-6.11609E-002,1.37475E-001,1.51455E-001,1.16251E+000,-8.41179E-003,0.00000E+000,8.25728E-003,9.42254E-001,0.00000E+000,-9.07020E-003,-5.85915E-002,1.00000E+000,24
569,1347,-2.14465E+001,5.67730E-001,5.49033E-002,2.04342E+000,-5.48023E-001,6.46259E-002,2.11662E+000,9.51908E-003,6.51702E-001,0,3.19953E+001,-9.01762E+000,9.98585E-001,-7.95075E+000,-5.04202E+001,9.98391E-001,1.27060E-001,-5.50094E-002,1.06107E-003,1.27066E-001,-5.50156E-002,3.33894E-001,1.27446E-001,1.13511E+000,2.98048E-002,0.00000E+000,-2.26248E-002,9.47902E-001,0.00000E+000,-2.74273E-003,-5.99421E-002,1.00000E+000,24
569,1357,-2.14100E+001,1.17382E+000,5.12772E-002,2.06547E+000,-5.82587E-001,3.24421E-002,2.14630E+000,9.05832E-003,6.46198E-001,0,3.24249E+001,-9.50182E+000,9.98947E-001,-7.24883E+000,-5.11155E+001,9.98743E-001,1.24540E-001,-5.50119E-002,1.42997E-003,1.24551E-001,-5.50233E-002,4.56270E-001,1.24832E-001,1.13226E+000,2.97426E-002,0.00000E+000,-2.18594E-002,9.47918E-001,0.00000E+000,-4.05691E-003,-5.99708E-002,1.00000E+000,24
569,1327,-2.15040E+001,-6.39663E-001,1.38795E-001,2.00339E+000,-4.85474E-001,1.35630E-001,2.06583E+000,1.49961E-002,6.86703E-001,0,3.11783E+001,-8.16907E+000,9.99304E-001,-8.88923E+000,-4.91134E+001,9.98811E-001,1.32054E-001,-5.49915E-002,3.05826E-004,1.32054E-001,-5.49920E-002,9.36803E-002,1.32668E-001,1.14078E+000,2.98802E-002,0.00000E+000,-2.41493E-002,9.47881E-001,0.00000E+000,-1.25217E-004,-5.99073E-002,1.00000E+000,24
569,1337,-2.14772E+001,-3.83870E-002,8.83852E-002,2.02224E+000,-5.17512E-001,9.63732E-002,2.08964E+000,8.73424E-003,6.44351E-001,0,3.15790E+001,-8.59844E+000,9.98701E-001,-8.47533E+000,-4.97979E+001,9.98758E-001,1.29566E-001,-5.50014E-002,6.84010E-004,1.29568E-001,-5.50039E-002,2.12335E-001,1.30060E-001,1.13795E+000,2.98458E-002,0.00000E+000,-2.33886E-002,9.47891E-001,0.00000E+000,-1.43141E-003,-5.99232E-002,1.00000E+000,24
1289,1327,3.31661E+001,1.09142E-001,-1.25274E-001,9.70087E+000,-1.46554E-001,-9.40551E-002,9.70244E+000,1.45976E-002,4.20503E-001,0,1.44675E+002,-3.47772E+000,9.97858E-001,1.16097E+002,-2.98450E+001,9.96790E-001,1.55123E-001,-5.98724E-002,3.31844E-003,1.55174E-001,-5.99236E-002,8.84076E-001,1.56509E-001,1.16779E+000,-6.92429E-003,0.00000E+000,1.18269E-002,9.43293E-001,0.00000E+000,9.19065E-004,-5.59104E-002,1.00000E+000,24
1289,1337,3.32025E+001,7.31477E-001,-9.83460E-002,9.70240E+000,-1.86116E-001,-1.27528E-001,9.70502E+000,1.40047E-002,4.31902E-001,0,1.44813E+002,-4.06053E+000,9.98528E-001,1.16727E+002,-3.02178E+001,9.97705E-001,1.56536E-001,-5.97927E-002,4.00208E-003,1.56610E-001,-5.98668E-002,1.05949E+000,1.58050E-001,1.16946E+000,-6.83644E-003,0.00000E+000,1.29155E-002,9.43350E-001,0.00000E+000,3.44678E-003,-5.57769E-002,1.00000E+000,24
569,1317,-2.15284E+001,-1.22202E+000,2.33854E-001,1.97880E+000,-4.39699E-001,1.68930E-001,2.03409E+000,1.67978E-002,6.64518E-001,0,3.06963E+001,-7.50953E+000,9.98343E-001,-9.12652E+000,-4.82656E+001,9.96738E-001,1.34530E-001,-5.49724E-002,-8.68271E-005,1.34530E-001,-5.49725E-002,-2.62521E-002,1.35276E-001,1.14361E+000,2.98793E-002,0.00000E+000,-2.49091E-002,9.47882E-001,0.00000E+000,1.17937E-003,-5.99078E-002,1.00000E+000,24
1289,1317,3.31426E+001,-5.09704E-001,-1.08943E-001,9.70032E+000,-1.11896E-001,-6.06017E-002,9.70116E+000,1.56321E-002,4.75807E-001,0,1.44538E+002,-2.97374E+000,9.98876E-001,1.15717E+002,-2.94820E+001,9.96220E-001,1.53713E-001,-5.99283E-002,2.65225E-003,1.53746E-001,-5.99612E-002,7.11153E-001,1.54981E-001,1.16614E+000,-6.98225E-003,0.00000E+000,1.07478E-002,9.43255E-001,0.00000E+000,-1.58682E-003,-5.59984E-002,1.00000E+000,24
1289,1287,3.31254E+001,-2.32385E+000,8.80398E-002,9.71220E+000,1.81913E-002,4.09634E-002,9.71230E+000,1.98820E-002,4.05336E-001,0,1.44262E+002,-1.03140E+000,9.98371E-001,1.15586E+002,-2.81743E+001,9.95598E-001,1.49444E-001,-6.00140E-002,7.00680E-004,1.49446E-001,-6.00164E-002,1.91663E-001,1.50408E-001,1.16121E+000,-7.05573E-003,0.00000E+000,7.52193E-003,9.43207E-001,0.00000E+000,-9.07724E-003,-5.61100E-002,1.00000E+000,24
1289,1297,3.31284E+001,-1.71951E+000,1.82845E-002,9.70852E+000,-2.16471E-002,1.39516E-002,9.70856E+000,2.07375E-002,3.02796E-001,0,1.44331E+002,-1.61339E+000,9.98454E-001,1.15583E+002,-2.86702E+001,9.96971E-001,1.50869E-001,-5.99921E-002,1.34507E-003,1.50877E-001,-6.00007E-002,3.65467E-001,1.51927E-001,1.16285E+000,-7.03893E-003,0.00000E+000,8.59188E-003,9.43218E-001,0.00000E+000,-6.59279E-003,-5.60845E-002,1.00000E+000,24
1289,1307,3.31306E+001,-1.11853E+000,-7.24721E-002,9.70437E+000,-6.96809E-002,-3.25590E-002,9.70468E+000,1.38772E-002,4.53483E-001,0,1.44481E+002,-2.32605E+000,9.99361E-001,1.15541E+002,-2.90466E+001,9.97321E-001,1.52296E-001,-5.99700E-002,1.99378E-003,1.52314E-001,-5.99887E-002,5.38108E-001,1.53454E-001,1.16450E+000,-7.02277E-003,0.00000E+000,9.67000E-003,9.43228E-001,0.00000E+000,-4.08937E-003,-5.60599E-002,1.00000E+000,24
559,1327,-2.22177E+001,-6.30153E-001,1.36750E-001,1.92644E+000,-4.72219E-001,1.31348E-001,1.98781E+000,2.69974E-002,8.15678E-001,0,3.00007E+001,-7.98943E+000,9.99392E-001,-9.75933E+000,-4.90006E+001,9.98621E-001,1.31526E-001,-5.48486E-002,8.49418E-004,1.31530E-001,-5.48525E-002,2.61122E-001,1.32132E-001,1.14009E+000,3.30544E-002,0.00000E+000,-2.57752E-002,9.47904E-001,0.00000E+000,9.36416E-005,-5.86378E-002,1.00000E+000,24
559,1337,-2.21990E+001,-2.58737E-002,8.60008E-002,1.93754E+000,-5.00102E-001,9.32481E-002,2.00321E+000,7.92495E-003,6.56155E-001,0,3.02755E+001,-8.30649E+000,9.99407E-001,-9.46810E+000,-4.96997E+001,9.99319E-001,1.29098E-001,-5.48580E-002,1.15213E-003,1.29105E-001,-5.48652E-002,3.58827E-001,1.29589E-001,1.13733E+000,3.30224E-002,0.00000E+000,-2.51627E-002,9.47911E-001,0.00000E+000,-1.28474E-003,-5.86538E-002,1.00000E+000,24
559,1347,-2.21726E+001,5.79408E-001,5.29497E-002,1.95443E+000,-5.29688E-001,6.13175E-002,2.02586E+000,1.13534E-002,6.17455E-001,0,3.06245E+001,-8.71202E+000,9.98703E-001,-9.00745E+000,-5.03613E+001,9.98234E-001,1.26655E-001,-5.48658E-002,1.45252E-003,1.26667E-001,-5.48774E-002,4.58438E-001,1.27043E-001,1.13456E+000,3.29827E-002,0.00000E+000,-2.45486E-002,9.47920E-001,0.00000E+000,-2.66681E-003,-5.86736E-002,1.00000E+000,24
559,1357,-2.21334E+001,1.18558E+000,5.00467E-002,1.98000E+000,-5.63103E-001,3.35992E-002,2.05878E+000,1.00458E-002,6.13243E-001,0,3.10974E+001,-9.19425E+000,9.98639E-001,-8.26012E+000,-5.10579E+001,9.98608E-001,1.24195E-001,-5.48698E-002,1.74667E-003,1.24212E-001,-5.48868E-002,5.58816E-001,1.24491E-001,1.13178E+000,3.29254E-002,0.00000E+000,-2.39321E-002,9.47932E-001,0.00000E+000,-4.05419E-003,-5.87022E-002,1.00000E+000,24
559,1317,-2.22507E+001,-1.20411E+000,2.40823E-001,1.89279E+000,-4.18666E-001,1.70931E-001,1.94606E+000,2.53973E-002,7.00154E-001,0,2.93592E+001,-7.17261E+000,9.99132E-001,-1.00969E+001,-4.80889E+001,9.98151E-001,1.33945E-001,-5.48320E-002,5.31996E-004,1.33947E-001,-5.48335E-002,1.61464E-001,1.34678E-001,1.14285E+000,3.30516E-002,0.00000E+000,-2.63876E-002,9.47904E-001,0.00000E+000,1.47181E-003,-5.86392E-002,1.00000E+000,24
1299,1327,3.39456E+001,1.23697E-001,-1.23815E-001,9.80992E+000,-1.39428E-001,-9.60480E-002,9.81138E+000,1.89146E-002,4.31135E-001,0,1.46180E+002,-3.38187E+000,9.98019E-001,1.18312E+002,-2.95218E+001,9.96746E-001,1.54878E-001,-5.85913E-002,3.74471E-003,1.54944E-001,-5.86570E-002,1.00468E+000,1.56459E-001,1.16752E+000,-5.06826E-003,0.00000E+000,1.11366E-002,9.44374E-001,0.00000E+000,1.36588E-003,-5.31875E-002,1.00000E+000,24
1299,1337,3.39912E+001,7.43690E-001,-9.37469E-002,9.81927E+000,-1.82992E-001,-1.30930E-001,9.82184E+000,1.73503E-002,4.48619E-001,0,1.46441E+002,-4.01595E+000,9.97805E-001,1.19089E+002,-2.99326E+001,9.96545E-001,1.56525E-001,-5.85041E-002,4.48601E-003,1.56619E-001,-5.85977E-002,1.19463E+000,1.58264E-001,1.16946E+000,-4.96164E-003,0.00000E+000,1.23226E-002,9.44439E-001,0.00000E+000,4.01963E-003,-5.30417E-002,1.00000E+000,24
1299,1287,3.39069E+001,-2.31295E+000,9.73072E-002,9.82185E+000,2.02644E-002,4.05307E-002,9.82195E+000,1.42173E-002,4.79038E-001,0,1.45767E+002,-1.02149E+000,9.98655E-001,1.17842E+002,-2.78987E+001,9.96955E-001,1.48274E-001,-5.87336E-002,9.28709E-004,1.48278E-001,-5.87378E-002,2.57042E-001,1.49341E-001,1.15987E+000,-5.21718E-003,0.00000E+000,6.45752E-003,9.44283E-001,0.00000E+000,-9.10411E-003,-5.33912E-002,1.00000E+000,24
1299,1297,3.39100E+001,-1.71420E+000,2.01087E-002,9.81976E+000,-2.49035E-002,1.14535E-002,9.81980E+000,1.47028E-002,4.54487E-001,0,1.45873E+002,-1.71561E+000,9.99209E-001,1.17832E+002,-2.84253E+001,9.97372E-001,1.49932E-001,-5.87149E-002,1.62037E-003,1.49945E-001,-5.87275E-002,4.44927E-001,1.51113E-001,1.16177E+000,-5.20176E-003,0.00000E+000,7.62110E-003,9.44292E-001,0.00000E+000,-6.50049E-003,-5.33701E-002,1.00000E+000,24
1299,1307,3.39269E+001,-1.10048E+000,-3.50512E-002,9.82608E+000,-6.07476E-002,-1.48474E-002,9.82628E+000,2.77296E-002,4.93613E-001,0,1.46081E+002,-2.26153E+000,9.98942E-001,1.18063E+002,-2.87332E+001,9.97521E-001,1.51591E-001,-5.86840E-002,2.32310E-003,1.51616E-001,-5.87097E-002,6.32896E-001,1.52896E-001,1.16369E+000,-5.17059E-003,0.00000E+000,8.79262E-003,9.44311E-001,0.00000E+000,-3.87910E-003,-5.33275E-002,1.00000E+000,24
1299,1317,3.39355E+001,-4.90451E-001,-8.98993E-002,9.81921E+000,-1.01655E-001,-5.87267E-002,9.81991E+000,2.39281E-002,4.90304E-001,0,1.46165E+002,-2.84345E+000,9.98136E-001,1.18164E+002,-2.91222E+001,9.96513E-001,1.53240E-001,-5.86421E-002,3.03171E-003,1.53283E-001,-5.86855E-002,8.19594E-001,1.54679E-001,1.16560E+000,-5.12515E-003,0.00000E+000,9.96456E-003,9.44339E-001,0.00000E+000,-1.25676E-003,-5.32653E-002,1.00000E+000,24
559,1307,-2.22772E+001,-1.79212E+000,3.55342E-001,1.86380E+000,-3.80314E-001,2.09913E-001,1.91376E+000,1.23293E-002,6.69596E-001,0,2.87950E+001,-6.64262E+000,9.98185E-001,-1.03092E+001,-4.73699E+001,9.97356E-001,1.36356E-001,-5.48138E-002,2.11850E-004,1.36356E-001,-5.48140E-002,6.34940E-002,1.37226E-001,1.14561E+000,3.30415E-002,0.00000E+000,-2.69998E-002,9.47907E-001,0.00000E+000,2.84959E-003,-5.86443E-002,1.00000E+000,24
549,1347,-2.28888E+001,5.95773E-001,5.39349E-002,1.87498E+000,-5.08955E-001,6.11001E-002,1.94379E+000,1.01292E-002,6.59904E-001,0,2.93928E+001,-8.38004E+000,9.98545E-001,-9.89807E+000,-5.01976E+001,9.98184E-001,1.26293E-001,-5.46128E-002,1.88166E-003,1.26313E-001,-5.46324E-002,5.95864E-001,1.26696E-001,1.13406E+000,3.59837E-002,0.00000E+000,-2.62572E-002,9.48039E-001,0.00000E+000,-2.61361E-003,-5.72793E-002,1.00000E+000,24
549,1357,-2.28501E+001,1.20835E+000,5.53170E-002,1.89929E+000,-5.36771E-001,3.23841E-002,1.97395E+000,1.08642E-002,6.46750E-001,0,2.98468E+001,-8.76366E+000,9.98583E-001,-9.14309E+000,-5.08119E+001,9.98437E-001,1.23918E-001,-5.46173E-002,2.15549E-003,1.23944E-001,-5.46433E-002,6.91608E-001,1.24232E-001,1.13138E+000,3.59258E-002,0.00000E+000,-2.56778E-002,9.48051E-001,0.00000E+000,-4.12110E-003,-5.73119E-002,1.00000E+000,24
549,1327,-2.29625E+001,-6.05937E-001,1.58784E-001,1.81638E+000,-4.43621E-001,1.41164E-001,1.87509E+000,2.02973E-002,7.58305E-001,0,2.82621E+001,-7.53319E+000,9.98606E-001,-1.10208E+001,-4.88111E+001,9.97191E-001,1.30996E-001,-5.45930E-002,1.31372E-003,1.31005E-001,-5.46023E-002,4.05552E-001,1.31608E-001,1.13940E+000,3.60448E-002,0.00000E+000,-2.74104E-002,9.48026E-001,0.00000E+000,3.86758E-004,-5.72450E-002,1.00000E+000,24
549,1337,-2.29205E+001,-7.38683E-003,9.03471E-002,1.85231E+000,-4.75334E-001,9.43575E-002,1.91465E+000,7.90620E-003,6.48133E-001,0,2.89492E+001,-7.92561E+000,9.99162E-001,-1.04304E+001,-4.95346E+001,9.99202E-001,1.28658E-001,-5.46041E-002,1.59906E-003,1.28671E-001,-5.46181E-002,4.99887E-001,1.29160E-001,1.13674E+000,3.60203E-002,0.00000E+000,-2.68360E-002,9.48031E-001,0.00000E+000,-1.10766E-003,-5.72587E-002,1.00000E+000,24
1309,1317,3.47016E+001,-4.88701E-001,-1.20070E-001,9.91881E+000,-1.03704E-001,-7.70854E-002,9.91965E+000,1.96385E-002,4.53151E-001,0,1.47608E+002,-2.84549E+000,9.97855E-001,1.20139E+002,-2.89561E+001,9.96359E-001,1.53130E-001,-5.75753E-002,3.51598E-003,1.53189E-001,-5.76339E-002,9.55723E-001,1.54746E-001,1.16549E+000,-2.68277E-003,0.00000E+000,8.91052E-003,9.45229E-001,0.00000E+000,-1.10162E-003,-5.05735E-002,1.00000E+000,24
1309,1327,3.47266E+001,1.31220E-001,-1.36975E-001,9.92163E+000,-1.37679E-001,-1.07134E-001,9.92317E+000,2.30719E-002,4.19828E-001,0,1.47765E+002,-3.35125E+000,9.97504E-001,1.20539E+002,-2.92868E+001,9.95559E-001,1.55010E-001,-5.75247E-002,4.18893E-003,1.55093E-001,-5.76072E-002,1.12868E+000,1.56792E-001,1.16769E+000,-2.60816E-003,0.00000E+000,1.00018E-002,9.45266E-001,0.00000E+000,1.54158E-003,-5.04838E-002,1.00000E+000,24
1309,1337,3.47699E+001,7.56517E-001,-1.02267E-001,9.92975E+000,-1.75272E-001,-1.32505E-001,9.93218E+000,2.20648E-002,4.50465E-001,0,1.47966E+002,-3.92483E+000,9.98280E-001,1.21282E+002,-2.96174E+001,9.97379E-001,1.56895E-001,-5.74481E-002,4.88534E-003,1.57006E-001,-5.75594E-002,1.30499E+000,1.58858E-001,1.16991E+000,-2.48988E-003,0.00000E+000,1.11031E-002,9.45325E-001,0.00000E+000,4.20899E-003,-5.03417E-002,1.00000E+000,24
549,1317,-2.29768E+001,-1.18919E+000,2.55203E-001,1.80251E+000,-3.99999E-001,1.80453E-001,1.85516E+000,1.72471E-002,7.50930E-001,0,2.79350E+001,-6.90616E+000,9.98936E-001,-1.10999E+001,-4.79669E+001,9.97965E-001,1.33324E-001,-5.45774E-002,1.01899E-003,1.33330E-001,-5.45829E-002,3.10703E-001,1.34058E-001,1.14205E+000,3.60467E-002,0.00000E+000,-2.79845E-002,9.48025E-001,0.00000E+000,1.88062E-003,-5.72439E-002,1.00000E+000,24
549,1307,-2.30000E+001,-1.77728E+000,3.47346E-001,1.77783E+000,-3.61090E-001,2.02693E-001,1.82542E+000,1.23916E-002,6.99154E-001,0,2.74820E+001,-6.32116E+000,9.98414E-001,-1.13268E+001,-4.72101E+001,9.97809E-001,1.35650E-001,-5.45601E-002,7.20578E-004,1.35652E-001,-5.45629E-002,2.17051E-001,1.36514E-001,1.14472E+000,3.60406E-002,0.00000E+000,-2.85598E-002,9.48026E-001,0.00000E+000,3.37745E-003,-5.72473E-002,1.00000E+000,24
1309,1287,3.46863E+001,-2.31066E+000,9.38765E-002,9.92819E+000,1.67467E-002,2.40788E-002,9.92824E+000,1.28468E-002,4.78517E-001,0,1.47291E+002,-1.07989E+000,9.98747E-001,1.20056E+002,-2.77676E+001,9.96765E-001,1.47451E-001,-5.76412E-002,1.56342E-003,1.47463E-001,-5.76532E-002,4.36732E-001,1.48627E-001,1.15892E+000,-2.76601E-003,0.00000E+000,5.65247E-003,9.45188E-001,0.00000E+000,-8.99280E-003,-5.06735E-002,1.00000E+000,24
1309,1297,3.46876E+001,-1.71388E+000,4.56535E-003,9.92596E+000,-3.20995E-002,-1.03788E-002,9.92602E+000,1.74073E-002,4.78541E-001,0,1.47423E+002,-1.79455E+000,9.98559E-001,1.20003E+002,-2.82853E+001,9.96545E-001,1.49353E-001,-5.76292E-002,2.20708E-003,1.49377E-001,-5.76527E-002,6.10859E-001,1.50666E-001,1.16111E+000,-2.75417E-003,0.00000E+000,6.73726E-003,9.45194E-001,0.00000E+000,-6.36538E-003,-5.06593E-002,1.00000E+000,24
1309,1307,3.46879E+001,-1.09915E+000,-8.05168E-002,9.92140E+000,-6.13888E-002,-4.58635E-002,9.92170E+000,1.87134E-002,3.93862E-001,0,1.47514E+002,-2.20247E+000,9.98489E-001,1.19942E+002,-2.85745E+001,9.97815E-001,1.51239E-001,-5.76138E-002,2.85054E-003,1.51277E-001,-5.76527E-002,7.81812E-001,1.52696E-001,1.16329E+000,-2.73772E-003,0.00000E+000,7.81880E-003,9.45202E-001,0.00000E+000,-3.74583E-003,-5.06395E-002,1.00000E+000,24
539,1347,-2.36101E+001,6.14798E-001,5.51540E-002,1.78984E+000,-4.84198E-001,6.00288E-002,1.85515E+000,9.06004E-003,6.54592E-001,0,2.80716E+001,-7.98170E+000,9.98748E-001,-1.08603E+001,-5.00183E+001,9.98738E-001,1.26009E-001,-5.42503E-002,2.08590E-003,1.26033E-001,-5.42744E-002,6.62891E-001,1.26437E-001,1.13365E+000,3.86506E-002,0.00000E+000,-2.81255E-002,9.48253E-001,0.00000E+000,-2.44194E-003,-5.58299E-002,1.00000E+000,24
539,1357,-2.35707E+001,1.22988E+000,5.12721E-002,1.81593E+000,-5.08820E-001,3.20333E-002,1.88614E+000,8.53674E-003,6.48907E-001,0,2.85510E+001,-8.31430E+000,9.99109E-001,-1.01092E+001,-5.05810E+001,9.98949E-001,1.23794E-001,-5.42560E-002,2.32903E-003,1.23824E-001,-5.42864E-002,7.49302E-001,1.24137E-001,1.13115E+000,3.86009E-002,0.00000E+000,-2.76119E-002,9.48263E-001,0.00000E+000,-3.97718E-003,-5.58604E-002,1.00000E+000,24
539,1327,-2.36744E+001,-5.85263E-001,1.40991E-001,1.74096E+000,-4.15437E-001,1.23831E-001,1.79412E+000,1.04934E-002,6.46686E-001,0,2.71350E+001,-7.02011E+000,9.97524E-001,-1.18968E+001,-4.86137E+001,9.97616E-001,1.30401E-001,-5.42312E-002,1.58395E-003,1.30415E-001,-5.42448E-002,4.91489E-001,1.31028E-001,1.13863E+000,3.87086E-002,0.00000E+000,-2.91492E-002,9.48241E-001,0.00000E+000,6.18250E-004,-5.57943E-002,1.00000E+000,24
539,1337,-2.36421E+001,1.47764E-002,8.69679E-002,1.76680E+000,-4.47713E-001,8.83206E-002,1.82478E+000,9.28037E-003,6.39786E-001,0,2.76344E+001,-7.46938E+000,9.98532E-001,-1.14095E+001,-4.92969E+001,9.98554E-001,1.28214E-001,-5.42416E-002,1.83617E-003,1.28232E-001,-5.42601E-002,5.76528E-001,1.28736E-001,1.13615E+000,3.86841E-002,0.00000E+000,-2.86385E-002,9.48246E-001,0.00000E+000,-9.08416E-004,-5.58093E-002,1.00000E+000,24
1319,1297,3.54482E+001,-1.70722E+000,-2.48290E-002,1.00196E+001,-2.75852E-002,-2.83636E-002,1.00197E+001,1.51697E-002,3.55833E-001,0,1.48770E+002,-1.67376E+000,9.98678E-001,1.21899E+002,-2.80922E+001,9.97171E-001,1.48787E-001,-5.64673E-002,2.95810E-003,1.48830E-001,-5.65099E-002,8.25510E-001,1.50259E-001,1.16046E+000,3.17221E-004,0.00000E+000,5.67835E-003,9.46153E-001,0.00000E+000,-6.82686E-003,-4.74142E-002,1.00000E+000,24
1319,1307,3.54582E+001,-1.09962E+000,-9.47604E-002,1.00215E+001,-6.68081E-002,-6.03385E-002,1.00219E+001,1.79199E-002,3.40195E-001,0,1.48943E+002,-2.26143E+000,9.98449E-001,1.22006E+002,-2.84876E+001,9.98060E-001,1.50954E-001,-5.64483E-002,3.59598E-003,1.51016E-001,-5.65106E-002,9.93006E-001,1.52601E-001,1.16297E+000,3.48748E-004,0.00000E+000,6.73954E-003,9.46167E-001,0.00000E+000,-3.94721E-003,-4.73779E-002,1.00000E+000,24
539,1307,-2.37238E+001,-1.76561E+000,3.36397E-001,1.68998E+000,-3.43427E-001,1.89313E-001,1.73488E+000,8.73663E-003,6.67754E-001,0,2.61533E+001,-6.01168E+000,9.98778E-001,-1.23648E+001,-4.71237E+001,9.98311E-001,1.34739E-001,-5.42003E-002,1.05827E-003,1.34745E-001,-5.42063E-002,3.20906E-001,1.35600E-001,1.14359E+000,3.87027E-002,0.00000E+000,-3.01674E-002,9.48242E-001,0.00000E+000,3.66208E-003,-5.57979E-002,1.00000E+000,24
539,1317,-2.37003E+001,-1.18154E+000,2.31413E-001,1.71580E+000,-3.84157E-001,1.59082E-001,1.76546E+000,1.01199E-002,6.79062E-001,0,2.66446E+001,-6.60721E+000,9.98112E-001,-1.21735E+001,-4.79369E+001,9.97627E-001,1.32576E-001,-5.42169E-002,1.32323E-003,1.32585E-001,-5.42262E-002,4.05853E-001,1.33315E-001,1.14111E+000,3.87114E-002,0.00000E+000,-2.96587E-002,9.48240E-001,0.00000E+000,2.14138E-003,-5.57926E-002,1.00000E+000,24
1319,1287,3.54554E+001,-2.31459E+000,7.38720E-002,1.00279E+001,8.01324E-003,6.84877E-003,1.00279E+001,1.56481E-002,4.24393E-001,0,1.48726E+002,-1.17117E+000,9.98532E-001,1.22093E+002,-2.77263E+001,9.97614E-001,1.46614E-001,-5.64720E-002,2.33372E-003,1.46641E-001,-5.64988E-002,6.58285E-001,1.47922E-001,1.15797E+000,3.12907E-004,0.00000E+000,4.62071E-003,9.46152E-001,0.00000E+000,-9.69691E-003,-4.74192E-002,1.00000E+000,24
529,1327,-2.43929E+001,-5.68848E-001,1.43184E-001,1.65771E+000,-3.93703E-001,1.20993E-001,1.70811E+000,9.46326E-003,6.53971E-001,0,2.58475E+001,-6.67837E+000,9.97374E-001,-1.28087E+001,-4.84663E+001,9.97338E-001,1.29922E-001,-5.35083E-002,1.90634E-003,1.29942E-001,-5.35281E-002,5.95372E-001,1.30612E-001,1.13802E+000,4.05974E-002,0.00000E+000,-3.01776E-002,9.48825E-001,0.00000E+000,1.28233E-003,-5.44012E-002,1.00000E+000,24
529,1307,-2.44431E+001,-1.74794E+000,3.37978E-001,1.60525E+000,-3.21146E-001,1.82390E-001,1.64718E+000,1.18862E-002,6.24711E-001,0,2.48536E+001,-5.62985E+000,9.98881E-001,-1.32900E+001,-4.69770E+001,9.98358E-001,1.33725E-001,-5.34959E-002,1.66705E-003,1.33740E-001,-5.35108E-002,5.10119E-001,1.34627E-001,1.14236E+000,4.05903E-002,0.00000E+000,-3.06644E-002,9.48825E-001,0.00000E+000,4.48742E-003,-5.44064E-002,1.00000E+000,24
529,1317,-2.44207E+001,-1.16370E+000,2.29260E-001,1.63153E+000,-3.60671E-001,1.57623E-001,1.67833E+000,9.68666E-003,6.22141E-001,0,2.53383E+001,-6.20383E+000,9.98787E-001,-1.31260E+001,-4.77886E+001,9.98316E-001,1.31829E-001,-5.35028E-002,1.79032E-003,1.31846E-001,-5.35201E-002,5.53415E-001,1.32622E-001,1.14019E+000,4.06028E-002,0.00000E+000,-3.04212E-002,9.48824E-001,0.00000E+000,2.88612E-003,-5.43973E-002,1.00000E+000,24
