Coordinates.Image X [Pixel],Coordinates.Image Y [Pixel],coor.X [mm],coor.Y [mm],coor.Z [mm],disp.Horizontal Displacement U [mm],disp.Vertical Displacement V [mm],disp.Out-Of-Plane: W [mm],disp.Displacement Magnitude [mm],stats.Sigma [mm],stats.Epipolar Distance [Pixel],stats.Shape Index [-],SameCamera.Horizontal: u [Pixel],SameCamera.Vertical: v [Pixel],SameCamera.Correlation Value 2D [-],CrossCamera.Horizontal: q [Pixel],CrossCamera.Vertical: r [Pixel],CrossCamera.Correlation Value Persp [-],strain.Strain-global frame: Exx [ ],strain.Strain-global frame: Eyy [ ],strain.Strain-global frame: Exy [ ],strain.Maximum Principal Strain: EI [ ],strain.Minimum Principal Strain: EII [ ],strain.Shear Angle Gamma [deg],strain.Von Mises Equivalent Strain [ ],defgradient.F[0,0] [-],defgradient.F[0,1] [-],defgradient.F[0,2] [-],defgradient.F[1,0] [-],defgradient.F[1,1] [-],defgradient.F[1,2] [-],defgradient.F[2,0] [-],defgradient.F[2,1] [-],defgradient.F[2,2] [-],ext.Current Image [#]
929,1317,4.93526E+000,-1.12659E+000,7.43224E-002,5.27133E+000,-5.10226E-001,1.61043E-001,5.29841E+000,1.18721E-002,4.89066E-001,0,8.02781E+001,-8.95452E+000,9.98921E-001,3.67107E+001,-4.29671E+001,9.97739E-001,1.45673E-001,-6.06961E-002,-4.55862E-005,1.45673E-001,-6.06961E-002,-1.26564E-002,1.46346E-001,1.15677E+000,-1.89101E-002,0.00000E+000,1.64724E-002,9.44687E-001,0.00000E+000,-1.48223E-002,-8.87853E-002,1.00000E+000,22
919,1307,4.18009E+000,-1.74139E+000,1.38041E-001,5.18272E+000,-4.75754E-001,2.29559E-001,5.20957E+000,1.42938E-002,4.98022E-001,0,7.87497E+001,-8.52723E+000,9.97923E-001,3.50703E+001,-4.26995E+001,9.95588E-001,1.48646E-001,-6.04161E-002,-5.55501E-004,1.48647E-001,-6.04175E-002,-1.52240E-001,1.49512E-001,1.16022E+000,-1.68671E-002,0.00000E+000,1.36972E-002,9.45059E-001,0.00000E+000,-1.33231E-002,-8.95897E-002,1.00000E+000,22
919,1317,4.16695E+000,-1.15044E+000,2.77384E-002,5.16676E+000,-5.19806E-001,1.70167E-001,5.19563E+000,1.66265E-002,4.78843E-001,0,7.87206E+001,-9.11702E+000,9.96962E-001,3.47268E+001,-4.33412E+001,9.94764E-001,1.46604E-001,-6.04240E-002,-7.89890E-004,1.46607E-001,-6.04270E-002,-2.18601E-001,1.47359E-001,1.15784E+000,-1.68776E-002,0.00000E+000,1.31644E-002,9.45057E-001,0.00000E+000,-1.18405E-002,-8.95832E-002,1.00000E+000,22
919,1327,4.17281E+000,-5.48393E-001,-1.99003E-002,5.15549E+000,-5.64825E-001,1.07397E-001,5.18745E+000,1.31872E-002,5.24537E-001,0,7.87629E+001,-9.70565E+000,9.98445E-001,3.48127E+001,-4.39105E+001,9.96708E-001,1.44534E-001,-6.04416E-002,-1.04928E-003,1.44539E-001,-6.04470E-002,-2.93289E-001,1.45183E-001,1.15542E+000,-1.69409E-002,0.00000E+000,1.26259E-002,9.45043E-001,0.00000E+000,-1.03421E-002,-8.95439E-002,1.00000E+000,22
929,1307,4.94420E+000,-1.71855E+000,1.66893E-001,5.28745E+000,-4.63912E-001,2.22592E-001,5.31243E+000,1.15832E-002,5.03185E-001,0,8.03036E+001,-8.33442E+000,9.99133E-001,3.69505E+001,-4.23073E+001,9.98100E-001,1.47759E-001,-6.06932E-002,3.56199E-005,1.47759E-001,-6.06932E-002,9.79059E-003,1.48541E-001,1.15921E+000,-1.88827E-002,0.00000E+000,1.67306E-002,9.44690E-001,0.00000E+000,-1.67148E-002,-8.88064E-002,1.00000E+000,22
929,1327,4.93405E+000,-5.22917E-001,1.07321E-002,5.25669E+000,-5.48901E-001,9.96322E-002,5.28621E+000,1.10419E-002,4.61220E-001,0,8.02668E+001,-9.45028E+000,9.98955E-001,3.66540E+001,-4.35137E+001,9.98307E-001,1.43574E-001,-6.07000E-002,-1.37270E-004,1.43574E-001,-6.07001E-002,-3.85020E-002,1.44144E-001,1.15431E+000,-1.89611E-002,0.00000E+000,1.62136E-002,9.44682E-001,0.00000E+000,-1.29249E-002,-8.87458E-002,1.00000E+000,22
939,1307,5.70051E+000,-1.70001E+000,1.50776E-001,5.38943E+000,-4.52278E-001,1.96083E-001,5.41193E+000,1.26394E-002,5.16238E-001,0,8.18857E+001,-8.11480E+000,9.99158E-001,3.86188E+001,-4.18834E+001,9.98287E-001,1.46705E-001,-6.02502E-002,4.92697E-004,1.46706E-001,-6.02513E-002,1.36403E-001,1.47484E-001,1.15800E+000,-2.12437E-002,0.00000E+000,1.97176E-002,9.44942E-001,0.00000E+000,-1.91977E-002,-8.73886E-002,1.00000E+000,22
939,1317,5.69170E+000,-1.10655E+000,6.85042E-002,5.37263E+000,-4.97034E-001,1.41409E-001,5.39743E+000,1.30008E-002,4.57809E-001,0,8.18266E+001,-8.71553E+000,9.98738E-001,3.84035E+001,-4.25621E+001,9.97427E-001,1.44810E-001,-6.02513E-002,4.45312E-004,1.44811E-001,-6.02523E-002,1.24423E-001,1.45490E-001,1.15576E+000,-2.12715E-002,0.00000E+000,1.95047E-002,9.44939E-001,0.00000E+000,-1.70383E-002,-8.73617E-002,1.00000E+000,22
939,1327,5.69160E+000,-4.97667E-001,8.38413E-003,5.35744E+000,-5.33767E-001,7.66709E-002,5.38451E+000,1.06505E-002,4.70368E-001,0,8.18178E+001,-9.16238E+000,9.98539E-001,3.83715E+001,-4.30135E+001,9.97787E-001,1.42894E-001,-6.02528E-002,3.86952E-004,1.42894E-001,-6.02536E-002,1.09136E-001,1.43478E-001,1.15351E+000,-2.13240E-002,0.00000E+000,1.92903E-002,9.44934E-001,0.00000E+000,-1.48628E-002,-8.73109E-002,1.00000E+000,22
919,1337,4.18619E+000,6.45202E-002,-3.95620E-002,5.14683E+000,-6.00504E-001,4.95333E-002,5.18198E+000,1.16387E-002,4.89843E-001,0,7.88208E+001,-1.01500E+001,9.98195E-001,3.50772E+001,-4.44131E+001,9.97510E-001,1.42459E-001,-6.04624E-002,-1.31661E-003,1.42467E-001,-6.04710E-002,-3.71731E-001,1.43008E-001,1.15301E+000,-1.70223E-002,0.00000E+000,1.20876E-002,9.45024E-001,0.00000E+000,-8.84449E-003,-8.94933E-002,1.00000E+000,22
929,1337,4.94275E+000,8.39494E-002,-2.20494E-002,5.24577E+000,-5.89985E-001,4.07437E-002,5.27900E+000,1.07814E-002,4.77162E-001,0,8.02990E+001,-9.98853E+000,9.99141E-001,3.68157E+001,-4.40554E+001,9.98724E-001,1.41457E-001,-6.07051E-002,-2.39601E-004,1.41457E-001,-6.07053E-002,-6.79065E-002,1.41930E-001,1.15185E+000,-1.90356E-002,0.00000E+000,1.59534E-002,9.44674E-001,0.00000E+000,-1.10178E-002,-8.86882E-002,1.00000E+000,22
939,1337,5.69799E+000,1.09093E-001,-2.45828E-002,5.34508E+000,-5.73938E-001,2.21779E-002,5.37585E+000,9.64207E-003,4.95972E-001,0,8.18146E+001,-9.71024E+000,9.99017E-001,3.84963E+001,-4.35503E+001,9.98686E-001,1.40969E-001,-6.02546E-002,3.22835E-004,1.40969E-001,-6.02551E-002,9.19227E-002,1.41463E-001,1.15126E+000,-2.13892E-002,0.00000E+000,1.90759E-002,9.44928E-001,0.00000E+000,-1.26876E-002,-8.72479E-002,1.00000E+000,22
949,1317,6.45334E+000,-1.07901E+000,6.78133E-002,5.47732E+000,-4.79067E-001,1.21082E-001,5.49956E+000,1.82826E-002,4.91872E-001,0,8.34244E+001,-8.40545E+000,9.97365E-001,4.01928E+001,-4.20191E+001,9.95754E-001,1.43894E-001,-5.97326E-002,8.29973E-004,1.43897E-001,-5.97359E-002,2.33530E-001,1.44586E-001,1.15469E+000,-2.34208E-002,0.00000E+000,2.21213E-002,9.45221E-001,0.00000E+000,-1.88010E-002,-8.54132E-002,1.00000E+000,22
949,1327,6.44934E+000,-4.72507E-001,3.66119E-003,5.45931E+000,-5.16264E-001,5.76228E-002,5.48397E+000,1.63874E-002,4.67034E-001,0,8.33709E+001,-8.86489E+000,9.97847E-001,4.00917E+001,-4.25159E+001,9.96889E-001,1.42287E-001,-5.97306E-002,8.18552E-004,1.42290E-001,-5.97339E-002,2.32151E-001,1.42899E-001,1.15279E+000,-2.34622E-002,0.00000E+000,2.19605E-002,9.45217E-001,0.00000E+000,-1.62854E-002,-8.53584E-002,1.00000E+000,22
949,1337,6.45445E+000,1.33639E-001,-2.83046E-002,5.44616E+000,-5.57102E-001,7.09509E-003,5.47459E+000,1.24204E-002,4.86930E-001,0,8.33438E+001,-9.42540E+000,9.98529E-001,4.01977E+001,-4.30656E+001,9.97630E-001,1.40667E-001,-5.97284E-002,8.01479E-004,1.40671E-001,-5.97316E-002,2.29149E-001,1.41202E-001,1.15088E+000,-2.35161E-002,0.00000E+000,2.17993E-002,9.45213E-001,0.00000E+000,-1.37629E-002,-8.52871E-002,1.00000E+000,22
949,1307,6.46544E+000,-1.67800E+000,1.52832E-001,5.49711E+000,-4.39039E-001,1.76725E-001,5.51745E+000,1.46051E-002,5.31941E-001,0,8.35257E+001,-7.88351E+000,9.98330E-001,4.04636E+001,-4.14421E+001,9.97248E-001,1.45486E-001,-5.97341E-002,8.33294E-004,1.45489E-001,-5.97375E-002,2.32644E-001,1.46262E-001,1.15659E+000,-2.33981E-002,0.00000E+000,2.22815E-002,9.45223E-001,0.00000E+000,-2.13074E-002,-8.54433E-002,1.00000E+000,22
909,1317,3.41580E+000,-1.16643E+000,2.27659E-002,5.06733E+000,-5.27983E-001,1.67502E-001,5.09751E+000,1.59991E-002,4.39709E-001,0,7.72692E+001,-9.23594E+000,9.95841E-001,3.31019E+001,-4.36952E+001,9.93861E-001,1.47568E-001,-6.09084E-002,-1.58020E-003,1.47580E-001,-6.09203E-002,-4.34254E-001,1.48327E-001,1.15895E+000,-1.46603E-002,0.00000E+000,9.57704E-003,9.44642E-001,0.00000E+000,-8.54555E-003,-8.96245E-002,1.00000E+000,22
909,1327,3.42665E+000,-5.58778E-001,-2.27058E-002,5.06154E+000,-5.67948E-001,1.08669E-001,5.09446E+000,1.26015E-002,4.87418E-001,0,7.73790E+001,-9.74032E+000,9.97050E-001,3.32709E+001,-4.41825E+001,9.96871E-001,1.45570E-001,-6.09235E-002,-1.82213E-003,1.45586E-001,-6.09396E-002,-5.05535E-001,1.46228E-001,1.15663E+000,-1.47191E-002,0.00000E+000,9.11292E-003,9.44630E-001,0.00000E+000,-7.62842E-003,-8.96013E-002,1.00000E+000,22
909,1337,3.43831E+000,5.77274E-002,-3.84744E-002,5.05104E+000,-6.02944E-001,5.37210E-002,5.08718E+000,1.35998E-002,5.43072E-001,0,7.73973E+001,-1.01787E+001,9.98147E-001,3.35184E+001,-4.45950E+001,9.97760E-001,1.43561E-001,-6.09420E-002,-2.07325E-003,1.43582E-001,-6.09631E-002,-5.80784E-001,1.44126E-001,1.15430E+000,-1.47974E-002,0.00000E+000,8.64744E-003,9.44614E-001,0.00000E+000,-6.70861E-003,-8.95703E-002,1.00000E+000,22
909,1307,3.42365E+000,-1.75709E+000,1.37593E-001,5.07695E+000,-4.83840E-001,2.26724E-001,5.10499E+000,1.59841E-002,4.22670E-001,0,7.72029E+001,-8.63658E+000,9.96367E-001,3.33745E+001,-4.30757E+001,9.92356E-001,1.49539E-001,-6.09026E-002,-1.36314E-003,1.49548E-001,-6.09114E-002,-3.71114E-001,1.50402E-001,1.16125E+000,-1.46538E-002,0.00000E+000,1.00358E-002,9.44643E-001,0.00000E+000,-9.45207E-003,-8.96271E-002,1.00000E+000,22
919,1347,4.20638E+000,6.86955E-001,-4.59506E-002,5.14172E+000,-6.30616E-001,-9.96699E-003,5.18026E+000,1.80537E-002,5.09309E-001,0,7.89337E+001,-1.05071E+001,9.99001E-001,3.54765E+001,-4.47723E+001,9.98343E-001,1.40368E-001,-6.04854E-002,-1.59046E-003,1.40381E-001,-6.04980E-002,-4.53658E-001,1.40826E-001,1.15059E+000,-1.71156E-002,0.00000E+000,1.15471E-002,9.45004E-001,0.00000E+000,-7.34044E-003,-8.94353E-002,1.00000E+000,22
929,1347,4.95936E+000,6.99634E-001,-3.00337E-002,5.23760E+000,-6.25853E-001,-1.71698E-002,5.27489E+000,1.01888E-002,4.74259E-001,0,8.03634E+001,-1.04392E+001,9.99085E-001,3.71538E+001,-4.45257E+001,9.98782E-001,1.39326E-001,-6.07109E-002,-3.50894E-004,1.39327E-001,-6.07116E-002,-1.00505E-001,1.39709E-001,1.14937E+000,-1.91297E-002,0.00000E+000,1.56925E-002,9.44664E-001,0.00000E+000,-9.10583E-003,-8.86155E-002,1.00000E+000,22
939,1347,5.71519E+000,7.25007E-001,-2.68445E-002,5.33780E+000,-6.09679E-001,-2.77033E-002,5.37258E+000,1.44581E-002,4.90998E-001,0,8.18662E+001,-1.01732E+001,9.98898E-001,3.88540E+001,-4.40289E+001,9.98010E-001,1.39028E-001,-6.02568E-002,2.49674E-004,1.39028E-001,-6.02571E-002,7.17828E-002,1.39439E-001,1.14900E+000,-2.14744E-002,0.00000E+000,1.88606E-002,9.44920E-001,0.00000E+000,-1.05035E-002,-8.71656E-002,1.00000E+000,22
949,1347,6.47541E+000,7.48702E-001,-1.57678E-002,5.44060E+000,-5.96069E-001,-3.63099E-002,5.47328E+000,1.19504E-002,5.05746E-001,0,8.33994E+001,-9.95096E+000,9.98208E-001,4.06424E+001,-4.35759E+001,9.97405E-001,1.39029E-001,-5.97256E-002,7.73633E-004,1.39032E-001,-5.97286E-002,2.23014E-001,1.39490E-001,1.14897E+000,-2.35944E-002,0.00000E+000,2.16371E-002,9.45206E-001,0.00000E+000,-1.12246E-002,-8.51835E-002,1.00000E+000,22
959,1317,7.20709E+000,-1.05842E+000,5.01089E-002,5.57557E+000,-4.65544E-001,9.23797E-002,5.59574E+000,1.66184E-002,4.71175E-001,0,8.49553E+001,-8.13792E+000,9.97774E-001,4.18291E+001,-4.15753E+001,9.96951E-001,1.43072E-001,-5.91581E-002,8.92628E-004,1.43076E-001,-5.91620E-002,2.52893E-001,1.43788E-001,1.15371E+000,-2.56815E-002,0.00000E+000,2.41426E-002,9.45542E-001,0.00000E+000,-1.96799E-002,-8.31858E-002,1.00000E+000,22
959,1327,7.20607E+000,-4.51375E-001,-1.24209E-002,5.56221E+000,-5.01444E-001,3.86168E-002,5.58490E+000,2.28566E-002,4.65247E-001,0,8.49411E+001,-8.60605E+000,9.98977E-001,4.17772E+001,-4.20554E+001,9.98157E-001,1.41714E-001,-5.91503E-002,9.56123E-004,1.41719E-001,-5.91548E-002,2.72722E-001,1.42362E-001,1.15209E+000,-2.57126E-002,0.00000E+000,2.41033E-002,9.45541E-001,0.00000E+000,-1.69687E-002,-8.31337E-002,1.00000E+000,22
959,1337,7.21393E+000,1.54846E-001,-2.81972E-002,5.54944E+000,-5.44737E-001,-5.64331E-003,5.57611E+000,1.80764E-002,4.75745E-001,0,8.48977E+001,-9.20046E+000,9.98135E-001,4.19579E+001,-4.26417E+001,9.97400E-001,1.40341E-001,-5.91400E-002,1.01088E-003,1.40346E-001,-5.91452E-002,2.90339E-001,1.40922E-001,1.15047E+000,-2.57646E-002,0.00000E+000,2.40637E-002,9.45540E-001,0.00000E+000,-1.42425E-002,-8.30466E-002,1.00000E+000,22
959,1307,7.21628E+000,-1.65437E+000,1.40288E-001,5.59333E+000,-4.20853E-001,1.56719E-001,5.61133E+000,1.26523E-002,4.94047E-001,0,8.49925E+001,-7.56751E+000,9.98192E-001,4.20654E+001,-4.09734E+001,9.97393E-001,1.44418E-001,-5.91648E-002,8.24960E-004,1.44421E-001,-5.91682E-002,2.32169E-001,1.45204E-001,1.15532E+000,-2.56599E-002,0.00000E+000,2.41819E-002,9.45543E-001,0.00000E+000,-2.23870E-002,-8.32220E-002,1.00000E+000,22
959,1347,7.22941E+000,7.65636E-001,-2.82606E-002,5.54030E+000,-5.85738E-001,-5.22803E-002,5.57142E+000,1.28365E-002,4.78123E-001,0,8.49135E+001,-9.75899E+000,9.98174E-001,4.22895E+001,-4.31975E+001,9.97580E-001,1.38956E-001,-5.91286E-002,1.06097E-003,1.38961E-001,-5.91343E-002,3.06873E-001,1.39474E-001,1.14884E+000,-2.58267E-002,0.00000E+000,2.40240E-002,9.45539E-001,0.00000E+000,-1.15127E-002,-8.29425E-002,1.00000E+000,22
909,1347,3.45944E+000,6.76441E-001,-3.29097E-002,5.04498E+000,-6.36282E-001,-3.82197E-003,5.08495E+000,1.56323E-002,5.30489E-001,0,7.74871E+001,-1.06003E+001,9.98997E-001,3.39593E+001,-4.50556E+001,9.97529E-001,1.41552E-001,-6.09637E-002,-2.33181E-003,1.41578E-001,-6.09906E-002,-6.59602E-001,1.42030E-001,1.15198E+000,-1.48933E-002,0.00000E+000,8.18290E-003,9.44595E-001,0.00000E+000,-5.79063E-003,-8.95324E-002,1.00000E+000,22
899,1327,2.67874E+000,-5.59240E-001,1.49653E-002,4.95730E+000,-5.68356E-001,1.12666E-001,4.99105E+000,9.22194E-003,5.00662E-001,0,7.58189E+001,-9.73521E+000,9.98002E-001,3.17965E+001,-4.43641E+001,9.97891E-001,1.46291E-001,-6.12938E-002,-2.49488E-003,1.46321E-001,-6.13238E-002,-6.88483E-001,1.46957E-001,1.15748E+000,-1.26667E-002,0.00000E+000,5.93651E-003,9.44341E-001,0.00000E+000,-4.88972E-003,-9.00229E-002,1.00000E+000,22
899,1337,2.69479E+000,5.27852E-002,-2.35808E-002,4.95507E+000,-6.03436E-001,5.21342E-002,4.99196E+000,1.40886E-002,5.21573E-001,0,7.59844E+001,-1.01727E+001,9.99133E-001,3.20626E+001,-4.48154E+001,9.98799E-001,1.44487E-001,-6.13064E-002,-2.69945E-003,1.44522E-001,-6.13418E-002,-7.51394E-001,1.45071E-001,1.15539E+000,-1.27246E-002,0.00000E+000,5.59046E-003,9.44331E-001,0.00000E+000,-4.59999E-003,-9.00148E-002,1.00000E+000,22
899,1347,2.72329E+000,6.68129E-001,-1.82074E-002,4.95656E+000,-6.40319E-001,-5.74482E-003,4.99775E+000,1.20340E-002,5.14656E-001,0,7.61908E+001,-1.06465E+001,9.99067E-001,3.26181E+001,-4.53258E+001,9.98444E-001,1.42674E-001,-6.13236E-002,-2.91658E-003,1.42715E-001,-6.13653E-002,-8.18942E-001,1.43181E-001,1.15330E+000,-1.28100E-002,0.00000E+000,5.24331E-003,9.44317E-001,0.00000E+000,-4.30934E-003,-9.00030E-002,1.00000E+000,22
899,1317,2.67457E+000,-1.16153E+000,8.10755E-002,4.96580E+000,-5.27352E-001,1.74329E-001,4.99676E+000,1.23224E-002,4.97870E-001,0,7.57386E+001,-9.21911E+000,9.97631E-001,3.17759E+001,-4.38122E+001,9.96160E-001,1.48086E-001,-6.12841E-002,-2.29852E-003,1.48111E-001,-6.13093E-002,-6.28906E-001,1.48841E-001,1.15956E+000,-1.26265E-002,0.00000E+000,6.28158E-003,9.44347E-001,0.00000E+000,-5.17863E-003,-9.00285E-002,1.00000E+000,22
899,1307,2.67460E+000,-1.75454E+000,1.73547E-001,4.97283E+000,-4.81424E-001,2.35765E-001,5.00164E+000,1.23920E-002,4.35549E-001,0,7.56305E+001,-8.58683E+000,9.97704E-001,3.18799E+001,-4.32024E+001,9.95048E-001,1.49872E-001,-6.12773E-002,-2.11054E-003,1.49893E-001,-6.12984E-002,-5.72622E-001,1.50719E-001,1.16163E+000,-1.26041E-002,0.00000E+000,6.62537E-003,9.44351E-001,0.00000E+000,-5.46648E-003,-9.00316E-002,1.00000E+000,22
889,1327,1.92977E+000,-5.66269E-001,2.56766E-002,4.85636E+000,-5.71688E-001,1.11811E-001,4.89117E+000,8.09161E-003,5.09474E-001,0,7.43282E+001,-9.77068E+000,9.98605E-001,3.02513E+001,-4.45913E+001,9.98424E-001,1.47049E-001,-6.06464E-002,-3.17910E-003,1.47097E-001,-6.06950E-002,-8.76728E-001,1.47844E-001,1.15837E+000,-1.09036E-002,0.00000E+000,2.96895E-003,9.45010E-001,0.00000E+000,-2.04340E-003,-9.05045E-002,1.00000E+000,22
889,1337,1.94086E+000,4.65381E-002,-1.43995E-002,4.85045E+000,-6.04360E-001,5.49871E-002,4.88826E+000,1.26624E-002,5.23361E-001,0,7.44237E+001,-1.01847E+001,9.99117E-001,3.04384E+001,-4.50334E+001,9.98689E-001,1.45332E-001,-6.06477E-002,-3.22657E-003,1.45383E-001,-6.06982E-002,-8.97217E-001,1.46041E-001,1.15638E+000,-1.09548E-002,0.00000E+000,3.00484E-003,9.45010E-001,0.00000E+000,-2.85075E-003,-9.05253E-002,1.00000E+000,22
889,1347,1.97015E+000,6.59734E-001,-1.12777E-002,4.85350E+000,-6.42657E-001,-2.49090E-003,4.89586E+000,1.05438E-002,5.04420E-001,0,7.46528E+001,-1.06773E+001,9.98889E-001,3.10025E+001,-4.55797E+001,9.98415E-001,1.43604E-001,-6.06496E-002,-3.28614E-003,1.43657E-001,-6.07025E-002,-9.21485E-001,1.44230E-001,1.15439E+000,-1.10336E-002,0.00000E+000,3.04088E-003,9.45012E-001,0.00000E+000,-3.66173E-003,-9.05573E-002,1.00000E+000,22
969,1297,7.99558E+000,-2.22365E+000,2.37772E-001,5.71797E+000,-3.60344E-001,1.84048E-001,5.73226E+000,1.73561E-002,4.86316E-001,0,8.67091E+001,-6.67854E+000,9.98918E-001,4.42471E+001,-3.98928E+001,9.97545E-001,1.44408E-001,-5.88481E-002,6.57588E-004,1.44411E-001,-5.88502E-002,1.85364E-001,1.45232E-001,1.15535E+000,-2.76156E-002,0.00000E+000,2.56688E-002,9.45623E-001,0.00000E+000,-2.56892E-002,-8.07878E-002,1.00000E+000,22
969,1307,7.97209E+000,-1.63824E+000,1.30447E-001,5.69247E+000,-4.12370E-001,1.32468E-001,5.70892E+000,2.79597E-002,4.64658E-001,0,8.65194E+001,-7.37873E+000,9.98413E-001,4.37535E+001,-4.06216E+001,9.96580E-001,1.43329E-001,-5.88409E-002,7.72388E-004,1.43332E-001,-5.88439E-002,2.18893E-001,1.44095E-001,1.15403E+000,-2.76198E-002,0.00000E+000,2.56935E-002,9.45623E-001,0.00000E+000,-2.28020E-002,-8.07788E-002,1.00000E+000,22
969,1317,7.96497E+000,-1.04198E+000,4.88097E-002,5.67572E+000,-4.56971E-001,7.22132E-002,5.69455E+000,1.07942E-002,4.58631E-001,0,8.64838E+001,-7.97523E+000,9.99252E-001,4.35669E+001,-4.12265E+001,9.98768E-001,1.42239E-001,-5.88306E-002,8.80583E-004,1.42243E-001,-5.88344E-002,2.50920E-001,1.42949E-001,1.15271E+000,-2.76396E-002,0.00000E+000,2.57183E-002,9.45624E-001,0.00000E+000,-1.99117E-002,-8.07353E-002,1.00000E+000,22
889,1317,1.92165E+000,-1.16695E+000,9.16768E-002,4.86033E+000,-5.29696E-001,1.71213E-001,4.89210E+000,1.12303E-002,5.26909E-001,0,7.41870E+001,-9.24252E+000,9.98552E-001,3.01694E+001,-4.40028E+001,9.97966E-001,1.48759E-001,-6.06453E-002,-3.13804E-003,1.48806E-001,-6.06924E-002,-8.58354E-001,1.49646E-001,1.16035E+000,-1.08671E-002,0.00000E+000,2.93313E-003,9.45009E-001,0.00000E+000,-1.23747E-003,-9.04896E-002,1.00000E+000,22
969,1327,7.96044E+000,-4.33224E-001,-6.75521E-003,5.65815E+000,-4.91675E-001,2.27451E-002,5.67952E+000,1.38397E-002,4.93691E-001,0,8.63906E+001,-8.45615E+000,9.98696E-001,4.34745E+001,-4.16735E+001,9.98729E-001,1.41138E-001,-5.88188E-002,9.85748E-004,1.41142E-001,-5.88236E-002,2.82448E-001,1.41793E-001,1.15138E+000,-2.76666E-002,0.00000E+000,2.57430E-002,9.45624E-001,0.00000E+000,-1.70151E-002,-8.06764E-002,1.00000E+000,22
889,1307,1.91757E+000,-1.76096E+000,1.85117E-001,4.86254E+000,-4.85577E-001,2.30619E-001,4.89217E+000,1.42334E-002,4.74318E-001,0,7.40135E+001,-8.63601E+000,9.98149E-001,3.02125E+001,-4.34041E+001,9.95800E-001,1.50459E-001,-6.06447E-002,-3.10456E-003,1.50504E-001,-6.06903E-002,-8.42368E-001,1.51441E-001,1.16233E+000,-1.08479E-002,0.00000E+000,2.89746E-003,9.45009E-001,0.00000E+000,-4.34783E-004,-9.04818E-002,1.00000E+000,22
969,1337,7.96686E+000,1.70970E-001,-3.49157E-002,5.64600E+000,-5.34042E-001,-2.42077E-002,5.67125E+000,1.46733E-002,4.25984E-001,0,8.63688E+001,-9.01931E+000,9.98496E-001,4.36069E+001,-4.23017E+001,9.98207E-001,1.40024E-001,-5.88047E-002,1.08591E-003,1.40030E-001,-5.88107E-002,3.12910E-001,1.40627E-001,1.15005E+000,-2.77050E-002,0.00000E+000,2.57678E-002,9.45625E-001,0.00000E+000,-1.41134E-002,-8.05925E-002,1.00000E+000,22
969,1347,7.97630E+000,7.96470E-001,-3.68636E-002,5.63206E+000,-5.61237E-001,-6.60807E-002,5.66034E+000,1.24918E-002,4.70625E-001,0,8.62920E+001,-9.37028E+000,9.98414E-001,4.38412E+001,-4.26040E+001,9.97830E-001,1.38894E-001,-5.87886E-002,1.18219E-003,1.38901E-001,-5.87957E-002,3.42626E-001,1.39445E-001,1.14872E+000,-2.77533E-002,0.00000E+000,2.57928E-002,9.45626E-001,0.00000E+000,-1.11917E-002,-8.04870E-002,1.00000E+000,22
879,1327,1.18513E+000,-5.68418E-001,4.33344E-002,4.75921E+000,-5.69950E-001,1.17219E-001,4.79465E+000,1.16749E-002,5.18257E-001,0,7.28704E+001,-9.74650E+000,9.98617E-001,2.87944E+001,-4.47578E+001,9.98371E-001,1.47708E-001,-6.08522E-002,-3.59634E-003,1.47770E-001,-6.09142E-002,-9.87595E-001,1.48527E-001,1.15915E+000,-9.41019E-003,0.00000E+000,7.90466E-004,9.44767E-001,0.00000E+000,5.79480E-006,-8.98535E-002,1.00000E+000,22
879,1337,1.19529E+000,3.92706E-002,-8.21028E-003,4.75303E+000,-6.06852E-001,5.13731E-002,4.79189E+000,1.12447E-002,5.02158E-001,0,7.29927E+001,-1.01959E+001,9.98162E-001,2.89414E+001,-4.52711E+001,9.97882E-001,1.46168E-001,-6.08500E-002,-3.58163E-003,1.46230E-001,-6.09119E-002,-9.90883E-001,1.46907E-001,1.15737E+000,-9.45441E-003,0.00000E+000,9.78515E-004,9.44772E-001,0.00000E+000,-1.32301E-003,-8.98864E-002,1.00000E+000,22
879,1347,1.22017E+000,6.56263E-001,-9.92152E-003,4.75317E+000,-6.41612E-001,-4.61747E-003,4.79628E+000,1.33514E-002,5.17584E-001,0,7.31712E+001,-1.06316E+001,9.98176E-001,2.94287E+001,-4.57336E+001,9.97844E-001,1.44613E-001,-6.08468E-002,-3.57651E-003,1.44676E-001,-6.09091E-002,-9.96962E-001,1.45276E-001,1.15557E+000,-9.52121E-003,0.00000E+000,1.16783E-003,9.44779E-001,0.00000E+000,-2.66077E-003,-8.99361E-002,1.00000E+000,22
879,1307,1.16258E+000,-1.76154E+000,2.01511E-001,4.75335E+000,-4.84026E-001,2.27540E-001,4.78335E+000,1.57989E-002,4.87816E-001,0,7.24013E+001,-8.59252E+000,9.97446E-001,2.85940E+001,-4.35384E+001,9.95832E-001,1.50765E-001,-6.08548E-002,-3.64404E-003,1.50828E-001,-6.09175E-002,-9.86228E-001,1.51754E-001,1.16271E+000,-9.36463E-003,0.00000E+000,4.15754E-004,9.44762E-001,0.00000E+000,2.65361E-003,-8.98195E-002,1.00000E+000,22
879,1317,1.17287E+000,-1.16798E+000,1.12057E-001,4.75875E+000,-5.26486E-001,1.78403E-001,4.79111E+000,1.15388E-002,4.54173E-001,0,7.26563E+001,-9.16892E+000,9.98617E-001,2.86554E+001,-4.41970E+001,9.97930E-001,1.49244E-001,-6.08539E-002,-3.61632E-003,1.49306E-001,-6.09161E-002,-9.85817E-001,1.50147E-001,1.16093E+000,-9.37812E-003,0.00000E+000,6.02424E-004,9.44764E-001,0.00000E+000,1.33455E-003,-8.98296E-002,1.00000E+000,22
979,1307,8.75056E+000,-1.61798E+000,1.41925E-001,5.81060E+000,-4.01805E-001,1.15384E-001,5.82562E+000,1.73689E-002,4.51088E-001,0,8.83042E+001,-7.18302E+000,9.99347E-001,4.58406E+001,-4.02406E+001,9.99140E-001,1.42354E-001,-5.84717E-002,7.18454E-004,1.42356E-001,-5.84742E-002,2.04972E-001,1.43110E-001,1.15284E+000,-2.91590E-002,0.00000E+000,2.67619E-002,9.45739E-001,0.00000E+000,-2.19481E-002,-7.80662E-002,1.00000E+000,22
979,1317,8.72953E+000,-1.01541E+000,5.23634E-002,5.78146E+000,-4.39703E-001,5.43986E-002,5.79841E+000,9.78230E-003,4.72972E-001,0,8.80834E+001,-7.68119E+000,9.99002E-001,4.54236E+001,-4.07172E+001,9.98601E-001,1.41610E-001,-5.84589E-002,8.67940E-004,1.41614E-001,-5.84627E-002,2.48555E-001,1.42329E-001,1.15193E+000,-2.91706E-002,0.00000E+000,2.68677E-002,9.45740E-001,0.00000E+000,-1.91755E-002,-7.80311E-002,1.00000E+000,22
979,1327,8.71869E+000,-4.10103E-001,-7.63190E-003,5.75838E+000,-4.77079E-001,4.49086E-003,5.77811E+000,1.11870E-002,4.76994E-001,0,8.79112E+001,-8.19353E+000,9.97915E-001,4.52240E+001,-4.12227E+001,9.97261E-001,1.40857E-001,-5.84440E-002,1.01487E-003,1.40862E-001,-5.84492E-002,2.91748E-001,1.41540E-001,1.15101E+000,-2.91882E-002,0.00000E+000,2.69737E-002,9.45742E-001,0.00000E+000,-1.63996E-002,-7.79781E-002,1.00000E+000,22
979,1337,8.71925E+000,2.01012E-001,-4.15533E-002,5.74253E+000,-5.11691E-001,-3.78734E-002,5.76541E+000,1.54322E-002,4.54137E-001,0,8.78170E+001,-8.66245E+000,9.96601E-001,4.52538E+001,-4.17081E+001,9.96429E-001,1.40094E-001,-5.84269E-002,1.15934E-003,1.40101E-001,-5.84337E-002,3.34585E-001,1.40741E-001,1.15009E+000,-2.92117E-002,0.00000E+000,2.70799E-002,9.45745E-001,0.00000E+000,-1.36168E-002,-7.79069E-002,1.00000E+000,22
979,1347,8.72826E+000,8.23649E-001,-3.63178E-002,5.72665E+000,-5.41493E-001,-7.86647E-002,5.75273E+000,1.59988E-002,4.66909E-001,0,8.77074E+001,-9.06172E+000,9.95544E-001,4.54938E+001,-4.20846E+001,9.95167E-001,1.39318E-001,-5.84054E-002,1.29916E-003,1.39327E-001,-5.84139E-002,3.76444E-001,1.39931E-001,1.14916E+000,-2.92473E-002,0.00000E+000,2.71867E-002,9.45749E-001,0.00000E+000,-1.08179E-002,-7.77991E-002,1.00000E+000,22
979,1297,8.75263E+000,-2.20418E+000,2.23782E-001,5.81918E+000,-3.48087E-001,1.61486E-001,5.83182E+000,1.46696E-002,4.73695E-001,0,8.82583E+001,-6.43447E+000,9.99025E-001,4.59504E+001,-3.94740E+001,9.98407E-001,1.43090E-001,-5.84835E-002,5.67770E-004,1.43091E-001,-5.84851E-002,1.61383E-001,1.43884E-001,1.15376E+000,-2.91497E-002,0.00000E+000,2.66561E-002,9.45738E-001,0.00000E+000,-2.47207E-002,-7.80945E-002,1.00000E+000,22
869,1317,4.13634E-001,-1.16771E+000,1.07030E-001,4.64791E+000,-5.22203E-001,1.67902E-001,4.68017E+000,9.04223E-003,4.76198E-001,0,7.10411E+001,-9.06626E+000,9.98889E-001,2.69280E+001,-4.42711E+001,9.97868E-001,1.49401E-001,-6.11456E-002,-3.72746E-003,1.49467E-001,-6.12116E-002,-1.01393E+000,1.50280E-001,1.16113E+000,-7.72382E-003,0.00000E+000,-1.07831E-003,9.44433E-001,0.00000E+000,2.94848E-003,-8.91598E-002,1.00000E+000,22
869,1327,4.27540E-001,-5.68023E-001,4.22871E-002,4.65048E+000,-5.64099E-001,1.12338E-001,4.68592E+000,1.18593E-002,5.37233E-001,0,7.12674E+001,-9.64532E+000,9.98380E-001,2.71012E+001,-4.48416E+001,9.97757E-001,1.48161E-001,-6.11436E-002,-3.69182E-003,1.48226E-001,-6.12087E-002,-1.01020E+000,1.48973E-001,1.15969E+000,-7.74879E-003,0.00000E+000,-8.46481E-004,9.44437E-001,0.00000E+000,1.32276E-003,-8.91879E-002,1.00000E+000,22
869,1337,4.43766E-001,3.52475E-002,-9.29226E-004,4.64991E+000,-6.06178E-001,5.19750E-002,4.68954E+000,1.30663E-002,5.13648E-001,0,7.14572E+001,-1.01750E+001,9.97418E-001,2.73604E+001,-4.54459E+001,9.97142E-001,1.46912E-001,-6.11408E-002,-3.66120E-003,1.46977E-001,-6.12052E-002,-1.00784E+000,1.47659E-001,1.15824E+000,-7.78564E-003,0.00000E+000,-6.13964E-004,9.44443E-001,0.00000E+000,-3.07793E-004,-8.92293E-002,1.00000E+000,22
869,1347,4.65484E-001,6.53205E-001,-1.48137E-002,4.64962E+000,-6.36639E-001,-4.18143E-003,4.69300E+000,1.68234E-002,4.96020E-001,0,7.16293E+001,-1.05477E+001,9.98036E-001,2.77733E+001,-4.58856E+001,9.97649E-001,1.45657E-001,-6.11373E-002,-3.63545E-003,1.45721E-001,-6.12012E-002,-1.00685E+000,1.46342E-001,1.15679E+000,-7.83381E-003,0.00000E+000,-3.80977E-004,9.44450E-001,0.00000E+000,-1.94165E-003,-8.92835E-002,1.00000E+000,22
869,1307,4.08883E-001,-1.75985E+000,2.09980E-001,4.64750E+000,-4.78298E-001,2.28126E-001,4.67762E+000,1.30598E-002,4.99543E-001,0,7.08261E+001,-8.49645E+000,9.97721E-001,2.69834E+001,-4.36219E+001,9.96768E-001,1.50631E-001,-6.11466E-002,-3.76937E-003,1.50698E-001,-6.12136E-002,-1.01936E+000,1.51580E-001,1.16257E+000,-7.71406E-003,0.00000E+000,-1.30898E-003,9.44431E-001,0.00000E+000,4.56613E-003,-8.91488E-002,1.00000E+000,22
989,1307,9.49672E+000,-1.58465E+000,1.20584E-001,5.89995E+000,-3.75451E-001,8.34350E-002,5.91247E+000,1.36751E-002,4.84772E-001,0,8.97009E+001,-6.73481E+000,9.98480E-001,4.73678E+001,-3.95682E+001,9.98076E-001,1.41533E-001,-5.83635E-002,5.92972E-004,1.41535E-001,-5.83652E-002,1.69960E-001,1.42257E-001,1.15184E+000,-3.00345E-002,0.00000E+000,2.70926E-002,9.45646E-001,0.00000E+000,-2.02542E-002,-7.55495E-002,1.00000E+000,22
989,1317,9.47313E+000,-9.78746E-001,3.88202E-002,5.86938E+000,-4.11160E-001,3.57672E-002,5.88387E+000,1.38077E-002,5.44204E-001,0,8.94125E+001,-7.22019E+000,9.98867E-001,4.69270E+001,-3.99895E+001,9.98169E-001,1.41082E-001,-5.83476E-002,7.94738E-004,1.41085E-001,-5.83508E-002,2.28322E-001,1.41786E-001,1.15127E+000,-3.00407E-002,0.00000E+000,2.72986E-002,9.45648E-001,0.00000E+000,-1.75524E-002,-7.55201E-002,1.00000E+000,22
989,1327,9.47503E+000,-3.75888E-001,-7.48963E-003,5.85696E+000,-4.53286E-001,-9.04212E-003,5.87449E+000,1.75005E-002,5.45967E-001,0,8.93852E+001,-7.80466E+000,9.98032E-001,4.69511E+001,-4.05601E+001,9.96756E-001,1.40623E-001,-5.83269E-002,9.93831E-004,1.40628E-001,-5.83318E-002,2.86205E-001,1.41307E-001,1.15069E+000,-3.00534E-002,0.00000E+000,2.75048E-002,9.45653E-001,0.00000E+000,-1.48471E-002,-7.54600E-002,1.00000E+000,22
989,1297,9.51513E+000,-2.18100E+000,2.18979E-001,5.92407E+000,-3.31624E-001,1.42166E-001,5.93504E+000,1.27943E-002,4.63866E-001,0,8.98472E+001,-6.15524E+000,9.98299E-001,4.77619E+001,-3.90153E+001,9.97579E-001,1.41975E-001,-5.83784E-002,3.90837E-004,1.41976E-001,-5.83792E-002,1.11768E-001,1.42721E-001,1.15241E+000,-3.00294E-002,0.00000E+000,2.68870E-002,9.45644E-001,0.00000E+000,-2.29518E-002,-7.55735E-002,1.00000E+000,22
989,1337,9.47518E+000,2.29979E-001,-3.68786E-002,5.83784E+000,-4.93038E-001,-5.92038E-002,5.85892E+000,1.38232E-002,4.64458E-001,0,8.92697E+001,-8.33947E+000,9.96456E-001,4.69822E+001,-4.11642E+001,9.96532E-001,1.40158E-001,-5.83028E-002,1.19039E-003,1.40165E-001,-5.83100E-002,3.43650E-001,1.40823E-001,1.15012E+000,-3.00705E-002,0.00000E+000,2.77106E-002,9.45659E-001,0.00000E+000,-1.21466E-002,-7.53791E-002,1.00000E+000,22
989,1347,9.48224E+000,8.50459E-001,-3.49455E-002,5.82211E+000,-5.22835E-001,-9.33078E-002,5.84629E+000,1.46590E-002,4.64503E-001,0,8.91412E+001,-8.76215E+000,9.98196E-001,4.71834E+001,-4.15721E+001,9.98306E-001,1.39682E-001,-5.82763E-002,1.38631E-003,1.39692E-001,-5.82861E-002,4.01218E-001,1.40328E-001,1.14955E+000,-3.00908E-002,0.00000E+000,2.79176E-002,9.45666E-001,0.00000E+000,-9.43150E-003,-7.52834E-002,1.00000E+000,22
859,1327,-3.26205E-001,-5.66108E-001,3.52478E-002,4.54498E+000,-5.57499E-001,1.00563E-001,4.58015E+000,1.13744E-002,5.35516E-001,0,6.97335E+001,-9.49767E+000,9.97745E-001,2.54588E+001,-4.48990E+001,9.97222E-001,1.48406E-001,-6.12333E-002,-3.59963E-003,1.48468E-001,-6.12951E-002,-9.83415E-001,1.49218E-001,1.15998E+000,-6.31809E-003,0.00000E+000,-1.87905E-003,9.44276E-001,0.00000E+000,1.94650E-003,-8.82930E-002,1.00000E+000,22
859,1337,-3.06189E-001,3.97526E-002,-2.62644E-003,4.54849E+000,-5.95931E-001,4.61999E-002,4.58759E+000,1.32877E-002,5.38730E-001,0,6.99638E+001,-1.00090E+001,9.97426E-001,2.57894E+001,-4.54627E+001,9.96963E-001,1.47480E-001,-6.12320E-002,-3.58811E-003,1.47542E-001,-6.12937E-002,-9.84623E-001,1.48244E-001,1.15891E+000,-6.34502E-003,0.00000E+000,-1.68435E-003,9.44280E-001,0.00000E+000,1.82091E-004,-8.83371E-002,1.00000E+000,22
859,1347,-2.84011E-001,6.50286E-001,-8.53207E-003,4.54820E+000,-6.34090E-001,-5.07248E-003,4.59219E+000,1.83280E-002,5.07266E-001,0,7.01209E+001,-1.05041E+001,9.98429E-001,2.62277E+001,-4.60431E+001,9.97905E-001,1.46547E-001,-6.12303E-002,-3.58074E-003,1.46609E-001,-6.12920E-002,-9.87020E-001,1.47263E-001,1.15783E+000,-6.38159E-003,0.00000E+000,-1.48893E-003,9.44287E-001,0.00000E+000,-1.58886E-003,-8.83970E-002,1.00000E+000,22
859,1307,-3.46038E-001,-1.75598E+000,2.13269E-001,4.54041E+000,-4.71987E-001,2.25609E-001,4.57044E+000,1.56794E-002,5.85836E-001,0,6.92397E+001,-8.39257E+000,9.98193E-001,2.53471E+001,-4.36237E+001,9.97823E-001,1.50236E-001,-6.12346E-002,-3.63479E-003,1.50298E-001,-6.12971E-002,-9.84423E-001,1.51147E-001,1.16212E+000,-6.29294E-003,0.00000E+000,-2.26627E-003,9.44271E-001,0.00000E+000,5.45557E-003,-8.82517E-002,1.00000E+000,22
859,1317,-3.35752E-001,-1.16980E+000,1.05921E-001,4.54635E+000,-5.21264E-001,1.60686E-001,4.57896E+000,1.21667E-002,5.19083E-001,0,6.95554E+001,-9.02059E+000,9.98119E-001,2.53653E+001,-4.43784E+001,9.96606E-001,1.49324E-001,-6.12342E-002,-3.61498E-003,1.49386E-001,-6.12963E-002,-9.83297E-001,1.50185E-001,1.16106E+000,-6.30020E-003,0.00000E+000,-2.07300E-003,9.44272E-001,0.00000E+000,3.70412E-003,-8.82637E-002,1.00000E+000,22
999,1337,1.02272E+001,2.54549E-001,-3.90866E-002,5.93483E+000,-4.72904E-001,-6.06652E-002,5.95395E+000,1.11844E-002,4.38040E-001,0,9.06796E+001,-8.05072E+000,9.99239E-001,4.86398E+001,-4.06924E+001,9.98634E-001,1.40065E-001,-5.82639E-002,1.03625E-003,1.40071E-001,-5.82693E-002,2.99354E-001,1.40728E-001,1.14998E+000,-3.05043E-002,0.00000E+000,2.76109E-002,9.45500E-001,0.00000E+000,-1.01236E-002,-7.26020E-002,1.00000E+000,22
999,1347,1.02393E+001,8.76675E-001,-3.19715E-002,5.92171E+000,-5.04202E-001,-9.93691E-002,5.94397E+000,9.70664E-003,4.09772E-001,0,9.06066E+001,-8.45022E+000,9.99420E-001,4.89281E+001,-4.10981E+001,9.98928E-001,1.39864E-001,-5.82365E-002,1.23558E-003,1.39872E-001,-5.82442E-002,3.57343E-001,1.40522E-001,1.14973E+000,-3.05140E-002,0.00000E+000,2.78301E-002,9.45509E-001,0.00000E+000,-7.60768E-003,-7.25046E-002,1.00000E+000,22
999,1307,1.02502E+001,-1.55656E+000,1.12494E-001,5.99614E+000,-3.54389E-001,6.49607E-002,6.00695E+000,9.29466E-003,4.70149E-001,0,9.11538E+001,-6.37333E+000,9.98824E-001,4.90383E+001,-3.90282E+001,9.98614E-001,1.40626E-001,-5.83217E-002,4.36066E-004,1.40627E-001,-5.83227E-002,1.25584E-001,1.41307E-001,1.15073E+000,-3.04895E-002,0.00000E+000,2.69593E-002,9.45487E-001,0.00000E+000,-1.76020E-002,-7.27500E-002,1.00000E+000,22
999,1317,1.02327E+001,-9.53466E-001,3.36337E-002,5.97128E+000,-3.92542E-001,1.87086E-002,5.98419E+000,1.53670E-002,5.11147E-001,0,9.09490E+001,-6.90389E+000,9.98060E-001,4.86975E+001,-3.95059E+001,9.95035E-001,1.40445E-001,-5.83060E-002,6.37180E-004,1.40447E-001,-5.83080E-002,1.83683E-001,1.41120E-001,1.15048E+000,-3.04923E-002,0.00000E+000,2.71765E-002,9.45490E-001,0.00000E+000,-1.51096E-002,-7.27215E-002,1.00000E+000,22
999,1327,1.02307E+001,-3.56065E-001,-1.37118E-002,5.95647E+000,-4.38817E-001,-2.03154E-002,5.97265E+000,1.68605E-002,5.12888E-001,0,9.08685E+001,-7.57366E+000,9.98449E-001,4.86586E+001,-4.01575E+001,9.96875E-001,1.40258E-001,-5.82866E-002,8.37394E-004,1.40262E-001,-5.82902E-002,2.41648E-001,1.40927E-001,1.15023E+000,-3.04973E-002,0.00000E+000,2.73938E-002,9.45494E-001,0.00000E+000,-1.26151E-002,-7.26718E-002,1.00000E+000,22
999,1297,1.02709E+001,-2.16019E+000,2.13712E-001,6.02219E+000,-3.18057E-001,1.24612E-001,6.03187E+000,9.97810E-003,4.82070E-001,0,9.13268E+001,-5.92517E+000,9.97990E-001,4.94718E+001,-3.85792E+001,9.96459E-001,1.40800E-001,-5.83362E-002,2.34633E-004,1.40800E-001,-5.83364E-002,6.75087E-002,1.41488E-001,1.15098E+000,-3.04874E-002,0.00000E+000,2.67424E-002,9.45485E-001,0.00000E+000,-2.00921E-002,-7.27706E-002,1.00000E+000,22
849,1337,-1.05867E+000,3.97727E-002,3.55476E-003,4.44329E+000,-5.92618E-001,4.44292E-002,4.48286E+000,1.56144E-002,5.59644E-001,0,6.83986E+001,-9.92791E+000,9.98425E-001,2.42017E+001,-4.55686E+001,9.97920E-001,1.47761E-001,-6.10783E-002,-3.27823E-003,1.47813E-001,-6.11298E-002,-8.99097E-001,1.48547E-001,1.15924E+000,-5.10111E-003,0.00000E+000,-2.08821E-003,9.44323E-001,0.00000E+000,-8.10997E-006,-8.71305E-002,1.00000E+000,22
849,1347,-1.04121E+000,6.46061E-001,-7.79083E-003,4.44110E+000,-6.31810E-001,3.90634E-004,4.48582E+000,1.38475E-002,5.01611E-001,0,6.85042E+001,-1.04590E+001,9.98688E-001,2.45555E+001,-4.62183E+001,9.98402E-001,1.47190E-001,-6.10770E-002,-3.26519E-003,1.47242E-001,-6.11281E-002,-8.97981E-001,1.47947E-001,1.15858E+000,-5.12074E-003,0.00000E+000,-1.90608E-003,9.44329E-001,0.00000E+000,-1.70878E-003,-8.71810E-002,1.00000E+000,22
849,1357,-1.00948E+000,1.26578E+000,2.65416E-002,4.44273E+000,-6.67166E-001,-4.86412E-002,4.49281E+000,1.15901E-002,4.99588E-001,0,6.86756E+001,-1.09181E+001,9.98790E-001,2.52370E+001,-4.67349E+001,9.98761E-001,1.46611E-001,-6.10749E-002,-3.25650E-003,1.46662E-001,-6.11260E-002,-8.98101E-001,1.47338E-001,1.15791E+000,-5.15073E-003,0.00000E+000,-1.72222E-003,9.44337E-001,0.00000E+000,-3.42555E-003,-8.72582E-002,1.00000E+000,22
849,1327,-1.07196E+000,-5.61877E-001,3.99863E-002,4.44523E+000,-5.50389E-001,9.17633E-002,4.48011E+000,1.52298E-002,5.51408E-001,0,6.82737E+001,-9.35004E+000,9.98590E-001,2.39715E+001,-4.49364E+001,9.98316E-001,1.48329E-001,-6.10794E-002,-3.29322E-003,1.48381E-001,-6.11312E-002,-9.00755E-001,1.49145E-001,1.15990E+000,-5.08586E-003,0.00000E+000,-2.27032E-003,9.44319E-001,0.00000E+000,1.69231E-003,-8.70913E-002,1.00000E+000,22
1009,1337,1.09847E+001,2.90038E-001,-4.58273E-002,6.03858E+000,-4.44205E-001,-5.90045E-002,6.05518E+000,1.56827E-002,4.46158E-001,0,9.21765E+001,-7.60201E+000,9.99174E-001,5.03802E+001,-4.00238E+001,9.99016E-001,1.39912E-001,-5.81791E-002,7.46643E-004,1.39914E-001,-5.81819E-002,2.15955E-001,1.40574E-001,1.14979E+000,-3.06463E-002,0.00000E+000,2.70412E-002,9.45438E-001,0.00000E+000,-8.24903E-003,-7.03111E-002,1.00000E+000,22
1009,1347,1.09928E+001,8.93484E-001,-3.26395E-002,6.01919E+000,-4.93794E-001,-1.00745E-001,6.04025E+000,9.96424E-003,4.08674E-001,0,9.20252E+001,-8.30202E+000,9.99661E-001,5.06130E+001,-4.07353E+001,9.99395E-001,1.39926E-001,-5.81570E-002,9.05023E-004,1.39930E-001,-5.81612E-002,2.61772E-001,1.40592E-001,1.14979E+000,-3.06461E-002,0.00000E+000,2.72001E-002,9.45445E-001,0.00000E+000,-6.11469E-003,-7.02212E-002,1.00000E+000,22
1009,1297,1.10212E+001,-2.13808E+000,2.07269E-001,6.11603E+000,-3.01192E-001,1.12731E-001,6.12448E+000,1.26295E-002,4.19045E-001,0,9.27194E+001,-5.63175E+000,9.97194E-001,5.11010E+001,-3.81618E+001,9.95864E-001,1.39811E-001,-5.82332E-002,1.15758E-004,1.39811E-001,-5.82333E-002,3.34896E-002,1.40459E-001,1.14977E+000,-3.06465E-002,0.00000E+000,2.64101E-002,9.45428E-001,0.00000E+000,-1.67276E-002,-7.04452E-002,1.00000E+000,22
1009,1307,1.10054E+001,-1.53207E+000,1.10102E-001,6.09481E+000,-3.34625E-001,5.71794E-002,6.10425E+000,1.25110E-002,4.36940E-001,0,9.26051E+001,-6.07135E+000,9.98394E-001,5.07513E+001,-3.85654E+001,9.98189E-001,1.39843E-001,-5.82221E-002,2.73259E-004,1.39843E-001,-5.82225E-002,7.90476E-002,1.40494E-001,1.14978E+000,-3.06465E-002,0.00000E+000,2.65674E-002,9.45429E-001,0.00000E+000,-1.46136E-002,-7.04276E-002,1.00000E+000,22
1009,1317,1.09946E+001,-9.29236E-001,3.74701E-002,6.07634E+000,-3.73127E-001,1.59298E-002,6.08780E+000,1.23643E-002,4.65358E-001,0,9.24803E+001,-6.61785E+000,9.98733E-001,5.05272E+001,-3.90641E+001,9.98509E-001,1.39870E-001,-5.82099E-002,4.30915E-004,1.39871E-001,-5.82108E-002,1.24644E-001,1.40525E-001,1.14978E+000,-3.06464E-002,0.00000E+000,2.67251E-002,9.45431E-001,0.00000E+000,-1.24959E-002,-7.04023E-002,1.00000E+000,22
849,1317,-1.08912E+000,-1.15901E+000,1.13129E-001,4.44025E+000,-5.06545E-001,1.60941E-001,4.47195E+000,1.56807E-002,6.21665E-001,0,6.79682E+001,-8.82263E+000,9.98306E-001,2.37671E+001,-4.42756E+001,9.97276E-001,1.48892E-001,-6.10803E-002,-3.30951E-003,1.48944E-001,-6.11324E-002,-9.02777E-001,1.49738E-001,1.16056E+000,-5.07363E-003,0.00000E+000,-2.45189E-003,9.44316E-001,0.00000E+000,3.38777E-003,-8.70598E-002,1.00000E+000,22
1009,1327,1.09887E+001,-3.24851E-001,-1.48481E-002,6.05580E+000,-4.14369E-001,-3.52487E-002,6.07006E+000,1.18079E-002,4.48652E-001,0,9.23547E+001,-7.16328E+000,9.99221E-001,5.04178E+001,-3.96050E+001,9.99082E-001,1.39893E-001,-5.81941E-002,5.88945E-004,1.39895E-001,-5.81959E-002,1.70347E-001,1.40551E-001,1.14978E+000,-3.06464E-002,0.00000E+000,2.68832E-002,9.45435E-001,0.00000E+000,-1.03718E-002,-7.03544E-002,1.00000E+000,22
849,1307,-1.10448E+000,-1.75461E+000,2.10167E-001,4.42924E+000,-4.65943E-001,2.15705E-001,4.45890E+000,1.76929E-002,5.98570E-001,0,6.76123E+001,-8.27670E+000,9.98132E-001,2.36468E+001,-4.36882E+001,9.97485E-001,1.49450E-001,-6.10806E-002,-3.32903E-003,1.49502E-001,-6.11333E-002,-9.05693E-001,1.50327E-001,1.16121E+000,-5.06917E-003,0.00000E+000,-2.63287E-003,9.44314E-001,0.00000E+000,5.07765E-003,-8.70483E-002,1.00000E+000,22
839,1337,-1.81200E+000,3.11104E-002,2.55116E-002,4.33657E+000,-5.96246E-001,5.69185E-002,4.37774E+000,2.92442E-002,5.70725E-001,0,6.67632E+001,-1.00119E+001,9.98631E-001,2.26411E+001,-4.58480E+001,9.97969E-001,1.47799E-001,-6.11770E-002,-2.79936E-003,1.47837E-001,-6.12145E-002,-7.67327E-001,1.48563E-001,1.15928E+000,-4.07196E-003,0.00000E+000,-1.96310E-003,9.44097E-001,0.00000E+000,-6.20777E-004,-8.55272E-002,1.00000E+000,22
839,1347,-1.79483E+000,6.39502E-001,-4.40503E-003,4.33619E+000,-6.32086E-001,3.81214E-003,4.38202E+000,1.17582E-002,5.01185E-001,0,6.69257E+001,-1.04595E+001,9.98737E-001,2.29489E+001,-4.64325E+001,9.98395E-001,1.47431E-001,-6.11754E-002,-2.77625E-003,1.47468E-001,-6.12124E-002,-7.62345E-001,1.48175E-001,1.15886E+000,-4.08332E-003,0.00000E+000,-1.76832E-003,9.44102E-001,0.00000E+000,-2.37199E-003,-8.55740E-002,1.00000E+000,22
839,1357,-1.76204E+000,1.26422E+000,2.77445E-002,4.34001E+000,-6.61465E-001,-4.30850E-002,4.39034E+000,9.60155E-003,4.87259E-001,0,6.71218E+001,-1.08263E+001,9.99063E-001,2.36451E+001,-4.68748E+001,9.98767E-001,1.47056E-001,-6.11729E-002,-2.75615E-003,1.47092E-001,-6.12094E-002,-7.58201E-001,1.47780E-001,1.15843E+000,-4.10200E-003,0.00000E+000,-1.57171E-003,9.44111E-001,0.00000E+000,-4.13971E-003,-8.56511E-002,1.00000E+000,22
1019,1337,1.17480E+001,3.18584E-001,-3.97275E-002,6.14150E+000,-4.25926E-001,-7.11020E-002,6.15666E+000,1.36721E-002,5.19543E-001,0,9.37066E+001,-7.32278E+000,9.98931E-001,5.22371E+001,-3.94576E+001,9.98876E-001,1.39738E-001,-5.81154E-002,4.56804E-004,1.39739E-001,-5.81164E-002,1.32284E-001,1.40397E-001,1.14958E+000,-3.07044E-002,0.00000E+000,2.64195E-002,9.45401E-001,0.00000E+000,-6.47345E-003,-6.86252E-002,1.00000E+000,22
1019,1347,1.17476E+001,9.22490E-001,-3.68241E-002,6.11931E+000,-4.72210E-001,-9.79423E-002,6.13828E+000,1.17744E-002,4.59996E-001,0,9.34634E+001,-7.98463E+000,9.99248E-001,5.23181E+001,-4.01500E+001,9.99249E-001,1.39887E-001,-5.80992E-002,5.93633E-004,1.39889E-001,-5.81010E-002,1.71791E-001,1.40556E-001,1.14974E+000,-3.06989E-002,0.00000E+000,2.65532E-002,9.45406E-001,0.00000E+000,-4.64917E-003,-6.85641E-002,1.00000E+000,22
839,1327,-1.84043E+000,-5.61483E-001,4.02269E-002,4.32774E+000,-5.42600E-001,1.04624E-001,4.36287E+000,2.56969E-002,5.83884E-001,0,6.64722E+001,-9.25754E+000,9.99109E-001,2.21277E+001,-4.50184E+001,9.98261E-001,1.48165E-001,-6.11787E-002,-2.82206E-003,1.48203E-001,-6.12168E-002,-7.72188E-001,1.48948E-001,1.15971E+000,-4.05931E-003,0.00000E+000,-2.15828E-003,9.44091E-001,0.00000E+000,1.13408E-003,-8.54750E-002,1.00000E+000,22
1019,1327,1.17455E+001,-3.01075E-001,-2.23662E-002,6.15729E+000,-3.96851E-001,-3.96846E-002,6.17019E+000,1.31350E-002,4.68564E-001,0,9.38394E+001,-6.89608E+000,9.98948E-001,5.21492E+001,-3.91120E+001,9.98412E-001,1.39586E-001,-5.81300E-002,3.20226E-004,1.39586E-001,-5.81306E-002,9.27975E-002,1.40234E-001,1.14941E+000,-3.07090E-002,0.00000E+000,2.62857E-002,9.45398E-001,0.00000E+000,-8.29700E-003,-6.86763E-002,1.00000E+000,22
1019,1317,1.17518E+001,-9.10024E-001,3.06825E-002,6.17469E+000,-3.61180E-001,-3.87777E-003,6.18524E+000,1.37572E-002,4.62174E-001,0,9.39711E+001,-6.40739E+000,9.99043E-001,5.22667E+001,-3.86566E+001,9.98329E-001,1.39430E-001,-5.81417E-002,1.84643E-004,1.39430E-001,-5.81419E-002,5.35465E-002,1.40069E-001,1.14925E+000,-3.07118E-002,0.00000E+000,2.61524E-002,9.45395E-001,0.00000E+000,-1.01157E-002,-6.87072E-002,1.00000E+000,22
839,1317,-1.84624E+000,-1.15684E+000,1.13240E-001,4.32989E+000,-4.98613E-001,1.53379E-001,4.36120E+000,1.30603E-002,5.54656E-001,0,6.63409E+001,-8.65758E+000,9.98506E-001,2.20991E+001,-4.43763E+001,9.96510E-001,1.48526E-001,-6.11795E-002,-2.84785E-003,1.48565E-001,-6.12182E-002,-7.77899E-001,1.49329E-001,1.16013E+000,-4.05411E-003,0.00000E+000,-2.35255E-003,9.44089E-001,0.00000E+000,2.88077E-003,-8.54536E-002,1.00000E+000,22
1019,1297,1.17715E+001,-2.11331E+000,1.87509E-001,6.21073E+000,-2.81361E-001,9.36031E-002,6.21780E+000,1.30814E-002,4.39441E-001,0,9.41497E+001,-5.31107E+000,9.98980E-001,5.27084E+001,-3.76336E+001,9.98222E-001,1.39110E-001,-5.81626E-002,-8.53845E-005,1.39110E-001,-5.81626E-002,-2.47990E-002,1.39731E-001,1.14892E+000,-3.07159E-002,0.00000E+000,2.58866E-002,9.45392E-001,0.00000E+000,-1.37412E-002,-6.87531E-002,1.00000E+000,22
1019,1307,1.17554E+001,-1.51058E+000,9.43481E-002,6.18849E+000,-3.20348E-001,3.89665E-002,6.19690E+000,1.64117E-002,4.86006E-001,0,9.40197E+001,-5.82761E+000,9.99195E-001,5.23632E+001,-3.80801E+001,9.98431E-001,1.39272E-001,-5.81530E-002,4.96357E-005,1.39272E-001,-5.81530E-002,1.44050E-002,1.39902E-001,1.14908E+000,-3.07144E-002,0.00000E+000,2.60196E-002,9.45393E-001,0.00000E+000,-1.19261E-002,-6.87357E-002,1.00000E+000,22
839,1307,-1.85299E+000,-1.74853E+000,2.10895E-001,4.32697E+000,-4.54262E-001,2.06438E-001,4.35564E+000,1.16342E-002,5.19547E-001,0,6.61144E+001,-8.05082E+000,9.97854E-001,2.21145E+001,-4.37327E+001,9.96205E-001,1.48883E-001,-6.11799E-002,-2.87471E-003,1.48922E-001,-6.12192E-002,-7.83897E-001,1.49705E-001,1.16055E+000,-4.05157E-003,0.00000E+000,-2.54625E-003,9.44088E-001,0.00000E+000,4.62223E-003,-8.54431E-002,1.00000E+000,22
829,1337,-2.56660E+000,3.16653E-002,1.33924E-002,4.23141E+000,-5.87820E-001,5.11234E-002,4.27235E+000,2.13122E-002,5.52416E-001,0,6.52072E+001,-9.86217E+000,9.97650E-001,2.09883E+001,-4.59261E+001,9.96999E-001,1.47430E-001,-6.11736E-002,-2.30083E-003,1.47455E-001,-6.11989E-002,-6.31852E-001,1.48163E-001,1.15885E+000,-3.33607E-003,0.00000E+000,-1.55558E-003,9.43979E-001,0.00000E+000,-1.34637E-003,-8.40268E-002,1.00000E+000,22
829,1347,-2.54534E+000,6.40310E-001,3.43131E-003,4.23269E+000,-6.26544E-001,5.43859E-003,4.27881E+000,1.07810E-002,5.21570E-001,0,6.53694E+001,-1.03666E+001,9.97733E-001,2.14069E+001,-4.65322E+001,9.97564E-001,1.47205E-001,-6.11760E-002,-2.34335E-003,1.47232E-001,-6.12024E-002,-6.44211E-001,1.47928E-001,1.15860E+000,-3.34385E-003,0.00000E+000,-1.48114E-003,9.43981E-001,0.00000E+000,-3.22411E-003,-8.40841E-002,1.00000E+000,22
829,1357,-2.51636E+000,1.26181E+000,2.81925E-002,4.23436E+000,-6.58023E-001,-4.18204E-002,4.28538E+000,1.07932E-002,5.21954E-001,0,6.55347E+001,-1.07697E+001,9.98643E-001,2.20288E+001,-4.70032E+001,9.98575E-001,1.46976E-001,-6.11794E-002,-2.38744E-003,1.47004E-001,-6.12067E-002,-6.57039E-001,1.47688E-001,1.15834E+000,-3.35449E-003,0.00000E+000,-1.40632E-003,9.43985E-001,0.00000E+000,-5.11109E-003,-8.41623E-002,1.00000E+000,22
1029,1337,1.24913E+001,3.35614E-001,-4.64056E-002,6.22990E+000,-4.13382E-001,-7.06738E-002,6.24400E+000,1.19984E-002,4.69978E-001,0,9.49764E+001,-7.12927E+000,9.98400E-001,5.37635E+001,-3.91057E+001,9.98087E-001,1.39715E-001,-5.78885E-002,2.42506E-004,1.39716E-001,-5.78888E-002,7.03152E-002,1.40398E-001,1.14954E+000,-3.05825E-002,0.00000E+000,2.57955E-002,9.45545E-001,0.00000E+000,-4.61555E-003,-6.73054E-002,1.00000E+000,22
1029,1347,1.24929E+001,9.53431E-001,-4.49049E-002,6.20856E+000,-4.47562E-001,-1.02734E-001,6.22552E+000,1.13797E-002,4.83053E-001,0,9.47605E+001,-7.61383E+000,9.98804E-001,5.38716E+001,-3.95415E+001,9.98331E-001,1.39977E-001,-5.78723E-002,3.80729E-004,1.39978E-001,-5.78730E-002,1.10256E-001,1.40675E-001,1.14984E+000,-3.05721E-002,0.00000E+000,2.59384E-002,9.45550E-001,0.00000E+000,-2.96207E-003,-6.72475E-002,1.00000E+000,22
1029,1327,1.24989E+001,-2.78244E-001,-1.77658E-002,6.25326E+000,-3.79358E-001,-3.95542E-002,6.26488E+000,1.30727E-002,4.43817E-001,0,9.52197E+001,-6.64771E+000,9.98628E-001,5.38555E+001,-3.86828E+001,9.97936E-001,1.39452E-001,-5.79018E-002,1.05877E-004,1.39452E-001,-5.79018E-002,3.07382E-002,1.40118E-001,1.14925E+000,-3.05897E-002,0.00000E+000,2.56530E-002,9.45542E-001,0.00000E+000,-6.26457E-003,-6.73451E-002,1.00000E+000,22
829,1327,-2.58936E+000,-5.62572E-001,3.93426E-002,4.22424E+000,-5.38560E-001,9.11088E-002,4.25941E+000,2.05020E-002,5.57622E-001,0,6.49661E+001,-9.15883E+000,9.98509E-001,2.05874E+001,-4.51477E+001,9.98169E-001,1.47650E-001,-6.11716E-002,-2.25929E-003,1.47674E-001,-6.11961E-002,-6.19799E-001,1.48394E-001,1.15911E+000,-3.32998E-003,0.00000E+000,-1.62975E-003,9.43977E-001,0.00000E+000,5.24336E-004,-8.39820E-002,1.00000E+000,22
829,1307,-2.59261E+000,-1.75587E+000,2.30603E-001,4.23329E+000,-4.56725E-001,2.16652E-001,4.26336E+000,1.42855E-002,4.56932E-001,0,6.46879E+001,-8.08432E+000,9.98204E-001,2.07663E+001,-4.40155E+001,9.96207E-001,1.48077E-001,-6.11700E-002,-2.17980E-003,1.48100E-001,-6.11927E-002,-5.96785E-001,1.48842E-001,1.15961E+000,-3.32513E-003,0.00000E+000,-1.77745E-003,9.43976E-001,0.00000E+000,4.24956E-003,-8.39464E-002,1.00000E+000,22
829,1317,-2.59571E+000,-1.16014E+000,1.14556E-001,4.22712E+000,-4.96639E-001,1.48790E-001,4.25880E+000,1.64990E-002,5.03728E-001,0,6.48202E+001,-8.58935E+000,9.98076E-001,2.05556E+001,-4.45551E+001,9.97514E-001,1.47866E-001,-6.11704E-002,-2.21897E-003,1.47889E-001,-6.11940E-002,-6.08118E-001,1.48620E-001,1.15936E+000,-3.32636E-003,0.00000E+000,-1.70370E-003,9.43976E-001,0.00000E+000,2.38955E-003,-8.39554E-002,1.00000E+000,22
1029,1317,1.25052E+001,-8.91682E-001,2.52825E-002,6.27098E+000,-3.49627E-001,-1.25465E-002,6.28073E+000,1.40662E-002,4.58959E-001,0,9.53902E+001,-6.21322E+000,9.99107E-001,5.39541E+001,-3.82662E+001,9.98065E-001,1.39186E-001,-5.79133E-002,-2.93547E-005,1.39186E-001,-5.79133E-002,-8.53326E-003,1.39838E-001,1.14895E+000,-3.05949E-002,0.00000E+000,2.55112E-002,9.45539E-001,0.00000E+000,-7.90516E-003,-6.73739E-002,1.00000E+000,22
1029,1307,1.25153E+001,-1.49198E+000,1.02829E-001,6.28981E+000,-3.08619E-001,3.78313E-002,6.29749E+000,1.22441E-002,4.98100E-001,0,9.54845E+001,-5.66386E+000,9.99146E-001,5.41758E+001,-3.77085E+001,9.97252E-001,1.38919E-001,-5.79237E-002,-1.63984E-004,1.38919E-001,-5.79238E-002,-4.77314E-002,1.39556E-001,1.14866E+000,-3.05989E-002,0.00000E+000,2.53697E-002,9.45537E-001,0.00000E+000,-9.54316E-003,-6.73961E-002,1.00000E+000,22
1029,1297,1.25288E+001,-2.09015E+000,1.90741E-001,6.30993E+000,-2.65054E-001,8.89640E-002,6.31612E+000,1.16893E-002,4.77014E-001,0,9.55925E+001,-5.07394E+000,9.98827E-001,5.44712E+001,-3.71695E+001,9.97534E-001,1.38648E-001,-5.79332E-002,-2.98526E-004,1.38648E-001,-5.79337E-002,-8.70086E-002,1.39271E-001,1.14836E+000,-3.06019E-002,0.00000E+000,2.52279E-002,9.45536E-001,0.00000E+000,-1.11841E-002,-6.74130E-002,1.00000E+000,22
819,1317,-3.34267E+000,-1.16952E+000,1.25284E-001,4.12572E+000,-5.01530E-001,1.49970E-001,4.15880E+000,1.59346E-002,4.95518E-001,0,6.33011E+001,-8.65825E+000,9.97616E-001,1.90766E+001,-4.48262E+001,9.96644E-001,1.46838E-001,-6.09658E-002,-1.73197E-003,1.46853E-001,-6.09802E-002,-4.77495E-001,1.47554E-001,1.15817E+000,-3.03470E-003,0.00000E+000,-9.42820E-004,9.44035E-001,0.00000E+000,1.52008E-003,-8.22474E-002,1.00000E+000,22
819,1327,-3.33854E+000,-5.73701E-001,4.86233E-002,4.12290E+000,-5.43135E-001,1.01766E-001,4.15977E+000,1.59872E-002,5.15166E-001,0,6.34180E+001,-9.23069E+000,9.98263E-001,1.90704E+001,-4.54622E+001,9.97214E-001,1.46717E-001,-6.09679E-002,-1.82164E-003,1.46733E-001,-6.09839E-002,-5.02499E-001,1.47428E-001,1.15803E+000,-3.03623E-003,0.00000E+000,-9.79955E-004,9.44035E-001,0.00000E+000,-1.81734E-004,-8.22658E-002,1.00000E+000,22
819,1337,-3.32025E+000,3.16765E-002,1.09999E-002,4.12640E+000,-5.81518E-001,5.35135E-002,4.16752E+000,1.32632E-002,5.41719E-001,0,6.36254E+001,-9.74667E+000,9.97742E-001,1.93775E+001,-4.60301E+001,9.97438E-001,1.46593E-001,-6.09722E-002,-1.91262E-003,1.46610E-001,-6.09898E-002,-5.27896E-001,1.47298E-001,1.15788E+000,-3.03947E-003,0.00000E+000,-1.01731E-003,9.44034E-001,0.00000E+000,-1.89356E-003,-8.23048E-002,1.00000E+000,22
819,1307,-3.34820E+000,-1.76278E+000,2.10628E-001,4.12407E+000,-4.60748E-001,1.91702E-001,4.15416E+000,1.52654E-002,5.06439E-001,0,6.31341E+001,-8.08002E+000,9.98067E-001,1.90823E+001,-4.41539E+001,9.96807E-001,1.46956E-001,-6.09645E-002,-1.64294E-003,1.46969E-001,-6.09775E-002,-4.52700E-001,1.47677E-001,1.15831E+000,-3.03383E-003,0.00000E+000,-9.05823E-004,9.44035E-001,0.00000E+000,3.21555E-003,-8.22371E-002,1.00000E+000,22
819,1347,-3.29482E+000,6.45693E-001,5.07281E-003,4.13164E+000,-6.15205E-001,9.98750E-003,4.17720E+000,1.21916E-002,5.34159E-001,0,6.38389E+001,-1.01851E+001,9.98585E-001,1.98721E+001,-4.65519E+001,9.98685E-001,1.46465E-001,-6.09780E-002,-2.00450E-003,1.46484E-001,-6.09973E-002,-5.53575E-001,1.47165E-001,1.15774E+000,-3.04389E-003,0.00000E+000,-1.05479E-003,9.44033E-001,0.00000E+000,-3.61115E-003,-8.23579E-002,1.00000E+000,22
819,1357,-3.26824E+000,1.25470E+000,3.99027E-002,4.13057E+000,-6.59150E-001,-3.00059E-002,4.18294E+000,1.46754E-002,5.43644E-001,0,6.39417E+001,-1.08056E+001,9.98308E-001,2.04807E+001,-4.72353E+001,9.98269E-001,1.46333E-001,-6.09857E-002,-2.09760E-003,1.46354E-001,-6.10070E-002,-5.79626E-001,1.47027E-001,1.15760E+000,-3.04993E-003,0.00000E+000,-1.09243E-003,9.44031E-001,0.00000E+000,-5.33619E-003,-8.24306E-002,1.00000E+000,22
1039,1337,1.32459E+001,3.59211E-001,-5.51842E-002,6.32752E+000,-3.96630E-001,-7.91961E-002,6.34044E+000,1.07605E-002,4.79436E-001,0,9.64135E+001,-6.86133E+000,9.98840E-001,5.54666E+001,-3.86167E+001,9.97887E-001,1.39759E-001,-5.75442E-002,-1.61843E-004,1.39759E-001,-5.75443E-002,-4.69985E-002,1.40483E-001,1.14959E+000,-3.05095E-002,0.00000E+000,2.48612E-002,9.45836E-001,0.00000E+000,-2.83243E-003,-6.64066E-002,1.00000E+000,22
1039,1347,1.32468E+001,9.65328E-001,-4.74347E-002,6.30580E+000,-4.40431E-001,-1.03233E-001,6.32201E+000,1.08051E-002,4.23951E-001,0,9.61669E+001,-7.50979E+000,9.99283E-001,5.55726E+001,-3.92800E+001,9.98819E-001,1.40126E-001,-5.75349E-002,-7.45990E-005,1.40126E-001,-5.75349E-002,-2.16240E-002,1.40870E-001,1.15001E+000,-3.04949E-002,0.00000E+000,2.49125E-002,9.45838E-001,0.00000E+000,-1.33715E-003,-6.63550E-002,1.00000E+000,22
1039,1317,1.32557E+001,-8.62088E-001,2.33059E-002,6.36561E+000,-3.24809E-001,-1.05095E-002,6.37390E+000,1.11231E-002,4.29643E-001,0,9.67390E+001,-5.83997E+000,9.98893E-001,5.56084E+001,-3.77224E+001,9.98016E-001,1.39018E-001,-5.75589E-002,-3.31880E-004,1.39018E-001,-5.75594E-002,-9.67320E-002,1.39701E-001,1.14875E+000,-3.05277E-002,0.00000E+000,2.47587E-002,9.45834E-001,0.00000E+000,-5.82018E-003,-6.64712E-002,1.00000E+000,22
1039,1327,1.32516E+001,-2.55904E-001,-2.02873E-002,6.34932E+000,-3.62160E-001,-4.11221E-002,6.35978E+000,1.01391E-002,4.16200E-001,0,9.66065E+001,-6.39024E+000,9.98964E-001,5.55420E+001,-3.82475E+001,9.98134E-001,1.39388E-001,-5.75520E-002,-2.47643E-004,1.39388E-001,-5.75523E-002,-7.20466E-002,1.40092E-001,1.14917E+000,-3.05198E-002,0.00000E+000,2.48098E-002,9.45835E-001,0.00000E+000,-4.33189E-003,-6.64433E-002,1.00000E+000,22
1039,1307,1.32670E+001,-1.47025E+000,8.50153E-002,6.38626E+000,-2.90870E-001,2.59150E-002,6.39294E+000,1.14889E-002,4.51293E-001,0,9.69146E+001,-5.36538E+000,9.98842E-001,5.58202E+001,-3.72630E+001,9.97862E-001,1.38646E-001,-5.75651E-002,-4.15360E-004,1.38646E-001,-5.75660E-002,-1.21289E-001,1.39309E-001,1.14833E+000,-3.05338E-002,0.00000E+000,2.47077E-002,9.45833E-001,0.00000E+000,-7.30728E-003,-6.64926E-002,1.00000E+000,22
1039,1297,1.32821E+001,-2.07257E+000,1.73593E-001,6.40744E+000,-2.51963E-001,7.52448E-002,6.41283E+000,1.18065E-002,4.39139E-001,0,9.70450E+001,-4.84201E+000,9.98133E-001,5.61404E+001,-3.67870E+001,9.97628E-001,1.38271E-001,-5.75705E-002,-4.98049E-004,1.38272E-001,-5.75718E-002,-1.45709E-001,1.38915E-001,1.14791E+000,-3.05377E-002,0.00000E+000,2.46567E-002,9.45833E-001,0.00000E+000,-8.79480E-003,-6.65066E-002,1.00000E+000,22
1049,1337,1.40078E+001,3.81368E-001,-6.06405E-002,6.43140E+000,-3.79290E-001,-8.73761E-002,6.44316E+000,1.51102E-002,4.58118E-001,0,9.79406E+001,-6.60921E+000,9.99498E-001,5.72943E+001,-3.81718E+001,9.98599E-001,1.39757E-001,-5.74720E-002,-7.05671E-004,1.39760E-001,-5.74745E-002,-2.04996E-001,1.40492E-001,1.14959E+000,-3.03719E-002,0.00000E+000,2.36295E-002,9.45855E-001,0.00000E+000,-1.42678E-003,-6.51219E-002,1.00000E+000,22
1049,1347,1.40156E+001,9.92525E-001,-4.47694E-002,6.41404E+000,-4.21982E-001,-1.12823E-001,6.42890E+000,1.26651E-002,4.66952E-001,0,9.77631E+001,-7.23506E+000,9.99265E-001,5.75195E+001,-3.87405E+001,9.98112E-001,1.40237E-001,-5.74704E-002,-6.78254E-004,1.40239E-001,-5.74727E-002,-1.96556E-001,1.40997E-001,1.15015E+000,-3.03509E-002,0.00000E+000,2.35873E-002,9.45853E-001,0.00000E+000,-3.63570E-004,-6.50814E-002,1.00000E+000,22
1049,1307,1.40269E+001,-1.44481E+000,9.63861E-002,6.48649E+000,-2.71045E-001,2.67344E-002,6.49220E+000,1.48080E-002,4.01409E-001,0,9.83474E+001,-5.07252E+000,9.98988E-001,5.76480E+001,-3.68231E+001,9.98113E-001,1.38321E-001,-5.74752E-002,-7.73764E-004,1.38324E-001,-5.74783E-002,-2.26422E-001,1.38980E-001,1.14795E+000,-3.04023E-002,0.00000E+000,2.37554E-002,9.45857E-001,0.00000E+000,-4.59198E-003,-6.51802E-002,1.00000E+000,22
1049,1317,1.40134E+001,-8.37482E-001,3.40033E-002,6.46323E+000,-3.06655E-001,-1.16469E-002,6.47051E+000,1.30864E-002,4.22868E-001,0,9.81412E+001,-5.58382E+000,9.98497E-001,5.74002E+001,-3.72713E+001,9.96829E-001,1.38800E-001,-5.74742E-002,-7.51865E-004,1.38803E-001,-5.74771E-002,-2.19478E-001,1.39484E-001,1.14849E+000,-3.03941E-002,0.00000E+000,2.37135E-002,9.45856E-001,0.00000E+000,-3.53881E-003,-6.51644E-002,1.00000E+000,22
1049,1327,1.40065E+001,-2.36722E-001,-2.40761E-002,6.44725E+000,-3.49080E-001,-4.31899E-002,6.45684E+000,8.52216E-003,4.00599E-001,0,9.80227E+001,-6.18554E+000,9.99101E-001,5.72635E+001,-3.78521E+001,9.97479E-001,1.39278E-001,-5.74732E-002,-7.30223E-004,1.39281E-001,-5.74759E-002,-2.12643E-001,1.39988E-001,1.14904E+000,-3.03864E-002,0.00000E+000,2.36716E-002,9.45856E-001,0.00000E+000,-2.48494E-003,-6.51496E-002,1.00000E+000,22
809,1347,-4.05456E+000,6.32231E-001,-3.87776E-004,4.02024E+000,-6.21169E-001,8.93009E-003,4.06795E+000,1.05055E-002,5.15258E-001,0,6.21704E+001,-1.02635E+001,9.99158E-001,1.81639E+001,-4.68638E+001,9.99020E-001,1.45629E-001,-6.07549E-002,-1.70543E-003,1.45643E-001,-6.07689E-002,-4.73414E-001,1.46307E-001,1.15677E+000,-3.06545E-003,0.00000E+000,-4.49726E-004,9.44117E-001,0.00000E+000,-3.92585E-003,-8.07064E-002,1.00000E+000,22
809,1357,-4.02770E+000,1.24632E+000,3.86046E-002,4.01895E+000,-6.60892E-001,-3.04128E-002,4.07304E+000,1.20919E-002,5.24647E-001,0,6.22655E+001,-1.08105E+001,9.98932E-001,1.87902E+001,-4.74797E+001,9.98357E-001,1.45627E-001,-6.07701E-002,-1.87775E-003,1.45645E-001,-6.07872E-002,-5.21203E-001,1.46306E-001,1.15678E+000,-3.06515E-003,0.00000E+000,-6.54465E-004,9.44108E-001,0.00000E+000,-5.53446E-003,-8.07755E-002,1.00000E+000,22
809,1327,-4.09180E+000,-5.86687E-001,3.80551E-002,4.01707E+000,-5.52139E-001,9.28514E-002,4.05590E+000,1.06098E-002,5.59406E-001,0,6.18622E+001,-9.33112E+000,9.99000E-001,1.74471E+001,-4.57200E+001,9.97708E-001,1.45625E-001,-6.07359E-002,-1.36438E-003,1.45634E-001,-6.07450E-002,-3.78795E-001,1.46300E-001,1.15676E+000,-3.06580E-003,0.00000E+000,-4.41953E-005,9.44127E-001,0.00000E+000,-7.39662E-004,-8.06226E-002,1.00000E+000,22
809,1337,-4.07197E+000,1.97184E-002,1.36382E-002,4.02180E+000,-5.88120E-001,5.54537E-002,4.06495E+000,8.87523E-003,5.34791E-001,0,6.20522E+001,-9.83092E+000,9.98989E-001,1.78109E+001,-4.63276E+001,9.98961E-001,1.45629E-001,-6.07444E-002,-1.53462E-003,1.45640E-001,-6.07558E-002,-4.26028E-001,1.46305E-001,1.15677E+000,-3.06565E-003,0.00000E+000,-2.46658E-004,9.44123E-001,0.00000E+000,-2.33038E-003,-8.06597E-002,1.00000E+000,22
809,1307,-4.10210E+000,-1.76449E+000,2.18004E-001,4.01756E+000,-4.57538E-001,2.01017E-001,4.04852E+000,1.83597E-002,5.95888E-001,0,6.15083E+001,-8.07444E+000,9.95554E-001,1.74950E+001,-4.42500E+001,9.94459E-001,1.45611E-001,-6.07291E-002,-1.02554E-003,1.45616E-001,-6.07342E-002,-2.84760E-001,1.46282E-001,1.15675E+000,-3.06592E-003,0.00000E+000,3.58814E-004,9.44131E-001,0.00000E+000,2.42672E-003,-8.05958E-002,1.00000E+000,22
809,1317,-4.09441E+000,-1.17491E+000,1.21213E-001,4.02157E+000,-5.02944E-001,1.48771E-001,4.05563E+000,1.59651E-002,5.62377E-001,0,6.17456E+001,-8.67022E+000,9.98557E-001,1.74939E+001,-4.49676E+001,9.97423E-001,1.45619E-001,-6.07316E-002,-1.19478E-003,1.45626E-001,-6.07386E-002,-3.31731E-001,1.46292E-001,1.15675E+000,-3.06588E-003,0.00000E+000,1.57516E-004,9.44129E-001,0.00000E+000,8.45151E-004,-8.06050E-002,1.00000E+000,22
1049,1297,1.40339E+001,-2.05586E+000,1.71851E-001,6.50209E+000,-2.40040E-001,7.31897E-002,6.50693E+000,1.23938E-002,3.87666E-001,0,9.84084E+001,-4.64969E+000,9.98304E-001,5.78184E+001,-3.64577E+001,9.96733E-001,1.37841E-001,-5.74762E-002,-7.95276E-004,1.37844E-001,-5.74794E-002,-2.33287E-001,1.38476E-001,1.14740E+000,-3.04095E-002,0.00000E+000,2.37972E-002,9.45857E-001,0.00000E+000,-5.64429E-003,-6.51940E-002,1.00000E+000,22
799,1337,-4.82531E+000,1.16212E-002,9.64933E-003,3.91608E+000,-5.89639E-001,5.54017E-002,3.96061E+000,9.17788E-003,5.06324E-001,0,6.04649E+001,-9.82951E+000,9.99161E-001,1.62091E+001,-4.65624E+001,9.98983E-001,1.44322E-001,-6.04812E-002,-1.11463E-003,1.44328E-001,-6.04872E-002,-3.11817E-001,1.44956E-001,1.15526E+000,-3.16940E-003,0.00000E+000,6.63152E-004,9.44242E-001,0.00000E+000,-2.72431E-003,-7.89471E-002,1.00000E+000,22
799,1347,-4.80670E+000,6.21164E-001,-4.72468E-003,3.91623E+000,-6.25541E-001,1.03305E-002,3.96589E+000,1.09110E-002,5.12445E-001,0,6.06052E+001,-1.03167E+001,9.98754E-001,1.65802E+001,-4.71323E+001,9.98523E-001,1.44392E-001,-6.04961E-002,-1.35960E-003,1.44401E-001,-6.05051E-002,-3.80182E-001,1.45031E-001,1.15534E+000,-3.16692E-003,0.00000E+000,2.98463E-004,9.44231E-001,0.00000E+000,-4.09853E-003,-7.89862E-002,1.00000E+000,22
799,1357,-4.77546E+000,1.24158E+000,3.59398E-002,3.91939E+000,-6.58614E-001,-2.82481E-002,3.97445E+000,1.13605E-002,5.07373E-001,0,6.07637E+001,-1.07586E+001,9.98426E-001,1.72818E+001,-4.76628E+001,9.97946E-001,1.44461E-001,-6.05182E-002,-1.60604E-003,1.44474E-001,-6.05308E-002,-4.48884E-001,1.45105E-001,1.15543E+000,-3.16316E-003,0.00000E+000,-6.90632E-005,9.44215E-001,0.00000E+000,-5.48344E-003,-7.90457E-002,1.00000E+000,22
799,1327,-4.83766E+000,-5.97559E-001,5.32069E-002,3.91828E+000,-5.55871E-001,1.09697E-001,3.95903E+000,1.69342E-002,5.25785E-001,0,6.03294E+001,-9.41745E+000,9.99238E-001,1.60055E+001,-4.60385E+001,9.97826E-001,1.44249E-001,-6.04691E-002,-8.69968E-004,1.44253E-001,-6.04728E-002,-2.43477E-001,1.44879E-001,1.15517E+000,-3.17136E-003,0.00000E+000,1.02713E-003,9.44250E-001,0.00000E+000,-1.35275E-003,-7.89162E-002,1.00000E+000,22
1059,1327,1.47624E+001,-2.19813E-001,-2.24304E-002,6.54489E+000,-3.38671E-001,-4.33891E-002,6.55379E+000,1.31418E-002,4.14506E-001,0,9.94252E+001,-6.04295E+000,9.99290E-001,5.90141E+001,-3.74891E+001,9.97842E-001,1.39324E-001,-5.76918E-002,-1.02825E-003,1.39329E-001,-5.76972E-002,-2.99023E-001,1.40013E-001,1.14911E+000,-2.97477E-002,0.00000E+000,2.24795E-002,9.45610E-001,0.00000E+000,-9.04388E-004,-6.40670E-002,1.00000E+000,22
1059,1337,1.47670E+001,4.02658E-001,-4.97901E-002,6.53182E+000,-3.64912E-001,-7.99933E-002,6.54249E+000,1.06755E-002,4.40873E-001,0,9.93558E+001,-6.40853E+000,9.99537E-001,5.91125E+001,-3.77747E+001,9.98870E-001,1.39867E-001,-5.76942E-002,-1.03678E-003,1.39872E-001,-5.76996E-002,-3.00671E-001,1.40584E-001,1.14974E+000,-2.97308E-002,0.00000E+000,2.23989E-002,9.45608E-001,0.00000E+000,-2.85993E-004,-6.40504E-002,1.00000E+000,22
1059,1347,1.47769E+001,1.01425E+000,-3.41792E-002,6.51615E+000,-4.06555E-001,-1.06726E-001,6.52969E+000,1.45950E-002,4.23553E-001,0,9.92085E+001,-7.01865E+000,9.99475E-001,5.93677E+001,-3.83475E+001,9.98184E-001,1.40411E-001,-5.76971E-002,-1.04220E-003,1.40417E-001,-5.77025E-002,-3.01408E-001,1.41157E-001,1.15037E+000,-2.97065E-002,0.00000E+000,2.23179E-002,9.45605E-001,0.00000E+000,3.34491E-004,-6.40264E-002,1.00000E+000,22
1059,1297,1.47861E+001,-2.03551E+000,1.63595E-001,6.59865E+000,-2.22800E-001,7.32003E-002,6.60282E+000,1.21042E-002,3.41823E-001,0,9.97905E+001,-4.39072E+000,9.98560E-001,5.94945E+001,-3.60554E+001,9.96400E-001,1.37696E-001,-5.76864E-002,-9.93601E-004,1.37701E-001,-5.76914E-002,-2.91363E-001,1.38303E-001,1.14724E+000,-2.97765E-002,0.00000E+000,2.27206E-002,9.45614E-001,0.00000E+000,-2.75220E-003,-6.40955E-002,1.00000E+000,22
1059,1307,1.47798E+001,-1.42798E+000,9.19338E-002,6.58371E+000,-2.56636E-001,3.05118E-002,6.58878E+000,1.38441E-002,3.42459E-001,0,9.97276E+001,-4.87336E+000,9.99114E-001,5.93418E+001,-3.64882E+001,9.98011E-001,1.38238E-001,-5.76881E-002,-1.00565E-003,1.38243E-001,-5.76932E-002,-2.94079E-001,1.38871E-001,1.14786E+000,-2.97682E-002,0.00000E+000,2.26405E-002,9.45613E-001,0.00000E+000,-2.13826E-003,-6.40873E-002,1.00000E+000,22
1059,1317,1.47656E+001,-8.24480E-001,2.02901E-002,6.56031E+000,-2.96904E-001,-1.47882E-002,6.56705E+000,1.42836E-002,4.21201E-001,0,9.95487E+001,-5.45593E+000,9.98875E-001,5.90673E+001,-3.69454E+001,9.96784E-001,1.38780E-001,-5.76899E-002,-1.01751E-003,1.38786E-001,-5.76951E-002,-2.96722E-001,1.39441E-001,1.14849E+000,-2.97593E-002,0.00000E+000,2.25602E-002,9.45612E-001,0.00000E+000,-1.52218E-003,-6.40785E-002,1.00000E+000,22
799,1307,-4.84456E+000,-1.77277E+000,2.29707E-001,3.92088E+000,-4.60174E-001,2.08523E-001,3.95330E+000,2.36649E-002,5.68984E-001,0,6.00388E+001,-8.12355E+000,9.96835E-001,1.60990E+001,-4.45133E+001,9.96675E-001,1.44100E-001,-6.04597E-002,-3.82975E-004,1.44101E-001,-6.04604E-002,-1.07268E-001,1.44721E-001,1.15500E+000,-3.17265E-003,0.00000E+000,1.75012E-003,9.44255E-001,0.00000E+000,1.37160E-003,-7.88959E-002,1.00000E+000,22
799,1317,-4.84486E+000,-1.18455E+000,1.21270E-001,3.91960E+000,-5.05133E-001,1.58112E-001,3.95518E+000,1.92730E-002,5.76542E-001,0,6.01894E+001,-8.73131E+000,9.98266E-001,1.59451E+001,-4.52097E+001,9.96932E-001,1.44175E-001,-6.04616E-002,-6.26272E-004,1.44177E-001,-6.04635E-002,-1.75346E-001,1.44801E-001,1.15508E+000,-3.17251E-003,0.00000E+000,1.38924E-003,9.44255E-001,0.00000E+000,1.17171E-005,-7.88980E-002,1.00000E+000,22
789,1327,-5.58400E+000,-6.02938E-001,5.33343E-002,3.81926E+000,-5.54455E-001,1.15061E-001,3.86101E+000,1.49986E-002,5.56899E-001,0,5.88263E+001,-9.41796E+000,9.99003E-001,1.45256E+001,-4.62080E+001,9.97934E-001,1.42898E-001,-6.01701E-002,-5.46314E-004,1.42900E-001,-6.01716E-002,-1.54141E-001,1.43492E-001,1.15361E+000,-3.42089E-003,0.00000E+000,1.87772E-003,9.44417E-001,0.00000E+000,-1.78616E-003,-7.73721E-002,1.00000E+000,22
789,1337,-5.57051E+000,9.35961E-003,1.22173E-002,3.81769E+000,-5.85364E-001,5.98724E-002,3.86277E+000,1.12170E-002,5.17465E-001,0,5.89718E+001,-9.77317E+000,9.98672E-001,1.47542E+001,-4.67008E+001,9.98491E-001,1.43061E-001,-6.01863E-002,-8.58107E-004,1.43065E-001,-6.01899E-002,-2.41896E-001,1.43663E-001,1.15380E+000,-3.41643E-003,0.00000E+000,1.36438E-003,9.44405E-001,0.00000E+000,-2.91412E-003,-7.73985E-002,1.00000E+000,22
789,1347,-5.54866E+000,6.19051E-001,2.16799E-003,3.82077E+000,-6.22149E-001,1.69094E-002,3.87113E+000,1.23070E-002,5.49727E-001,0,5.91499E+001,-1.02778E+001,9.98181E-001,1.51867E+001,-4.72663E+001,9.97757E-001,1.43223E-001,-6.02059E-002,-1.17051E-003,1.43230E-001,-6.02127E-002,-3.29660E-001,1.43834E-001,1.15399E+000,-3.41088E-003,0.00000E+000,8.49351E-004,9.44390E-001,0.00000E+000,-4.04582E-003,-7.74312E-002,1.00000E+000,22
789,1357,-5.52354E+000,1.23461E+000,3.27038E-002,3.81934E+000,-6.58884E-001,-2.52642E-002,3.87584E+000,1.12041E-002,5.44335E-001,0,5.92503E+001,-1.07676E+001,9.97909E-001,1.57710E+001,-4.78520E+001,9.97460E-001,1.43384E-001,-6.02330E-002,-1.48366E-003,1.43395E-001,-6.02438E-002,-4.17456E-001,1.44004E-001,1.15418E+000,-3.40302E-003,0.00000E+000,3.31603E-004,9.44369E-001,0.00000E+000,-5.18347E-003,-7.74776E-002,1.00000E+000,22
1069,1327,1.55198E+001,-2.05038E-001,-3.06828E-002,6.64459E+000,-3.30578E-001,-4.87959E-002,6.65298E+000,1.41520E-002,4.38419E-001,0,1.00878E+002,-5.91712E+000,9.99150E-001,6.07734E+001,-3.71325E+001,9.97270E-001,1.39401E-001,-5.76923E-002,-1.30140E-003,1.39409E-001,-5.77009E-002,-3.78301E-001,1.40097E-001,1.14922E+000,-2.91484E-002,0.00000E+000,2.14047E-002,9.45583E-001,0.00000E+000,1.61783E-004,-6.32197E-002,1.00000E+000,22
1069,1337,1.55183E+001,4.15353E-001,-5.12583E-002,6.62619E+000,-3.57063E-001,-7.49562E-002,6.63622E+000,9.27458E-003,4.04772E-001,0,1.00691E+002,-6.30296E+000,9.99255E-001,6.07878E+001,-3.74942E+001,9.98266E-001,1.39931E-001,-5.76963E-002,-1.32797E-003,1.39939E-001,-5.77052E-002,-3.84981E-001,1.40654E-001,1.14983E+000,-2.91326E-002,0.00000E+000,2.13177E-002,9.45581E-001,0.00000E+000,3.42758E-004,-6.32150E-002,1.00000E+000,22
1069,1347,1.55253E+001,1.03046E+000,-4.82210E-002,6.60934E+000,-3.95108E-001,-1.06499E-001,6.62200E+000,9.17736E-003,4.30062E-001,0,1.00544E+002,-6.85562E+000,9.99435E-001,6.09750E+001,-3.79622E+001,9.98670E-001,1.40463E-001,-5.77011E-002,-1.35199E-003,1.40473E-001,-5.77103E-002,-3.90879E-001,1.41215E-001,1.15044E+000,-2.91104E-002,0.00000E+000,2.12302E-002,9.45578E-001,0.00000E+000,5.24937E-004,-6.32084E-002,1.00000E+000,22
789,1307,-5.58602E+000,-1.78128E+000,2.26892E-001,3.82694E+000,-4.62521E-001,2.12565E-001,3.86064E+000,1.60838E-002,5.34955E-001,0,5.86220E+001,-8.14161E+000,9.98058E-001,1.46878E+001,-4.47531E+001,9.95504E-001,1.42571E-001,-6.01571E-002,7.50170E-005,1.42571E-001,-6.01571E-002,2.12016E-002,1.43149E-001,1.15323E+000,-3.42378E-003,0.00000E+000,2.89656E-003,9.44425E-001,0.00000E+000,4.52571E-004,-7.73551E-002,1.00000E+000,22
789,1317,-5.58663E+000,-1.19638E+000,1.38284E-001,3.82257E+000,-5.11823E-001,1.67570E-001,3.86032E+000,1.73080E-002,5.47093E-001,0,5.87061E+001,-8.84300E+000,9.98069E-001,1.45763E+001,-4.55425E+001,9.94848E-001,1.42735E-001,-6.01626E-002,-2.35491E-004,1.42735E-001,-6.01629E-002,-6.64995E-002,1.43321E-001,1.15342E+000,-3.42265E-003,0.00000E+000,2.38762E-003,9.44422E-001,0.00000E+000,-6.65741E-004,-7.73617E-002,1.00000E+000,22
1069,1297,1.55283E+001,-2.01739E+000,1.44376E-001,6.68664E+000,-2.08000E-001,6.98030E-002,6.69023E+000,1.59353E-002,3.70097E-001,0,1.01056E+002,-4.17892E+000,9.97636E-001,6.10009E+001,-3.56289E+001,9.94780E-001,1.37810E-001,-5.76824E-002,-1.21489E-003,1.37817E-001,-5.76899E-002,-3.56048E-001,1.38425E-001,1.14739E+000,-2.91796E-002,0.00000E+000,2.16655E-002,9.45588E-001,0.00000E+000,-3.80946E-004,-6.32290E-002,1.00000E+000,22
1069,1307,1.55237E+001,-1.41262E+000,6.58393E-002,6.67449E+000,-2.43921E-001,2.51880E-002,6.67899E+000,1.16511E-002,3.29294E-001,0,1.01046E+002,-4.67233E+000,9.98940E-001,6.08624E+001,-3.61080E+001,9.97358E-001,1.38338E-001,-5.76852E-002,-1.24501E-003,1.38346E-001,-5.76931E-002,-3.63887E-001,1.38979E-001,1.14800E+000,-2.91726E-002,0.00000E+000,2.15790E-002,9.45587E-001,0.00000E+000,-2.00946E-004,-6.32269E-002,1.00000E+000,22
1069,1317,1.55230E+001,-8.02947E-001,1.68384E-002,6.66097E+000,-2.81220E-001,-1.20673E-002,6.66691E+000,1.22577E-002,4.42355E-001,0,1.00982E+002,-5.23123E+000,9.99249E-001,6.08374E+001,-3.64976E+001,9.97508E-001,1.38869E-001,-5.76887E-002,-1.27324E-003,1.38878E-001,-5.76970E-002,-3.71123E-001,1.39538E-001,1.14861E+000,-2.91606E-002,0.00000E+000,2.14919E-002,9.45585E-001,0.00000E+000,-1.96145E-005,-6.32233E-002,1.00000E+000,22
779,1327,-6.32370E+000,-6.03309E-001,6.43476E-002,3.72546E+000,-5.50650E-001,1.26446E-001,3.76806E+000,2.16334E-002,6.06920E-001,0,5.73817E+001,-9.37514E+000,9.98801E-001,1.31806E+001,-4.63136E+001,9.97551E-001,1.41464E-001,-5.97037E-002,-4.82337E-004,1.41466E-001,-5.97049E-002,-1.37376E-001,1.42038E-001,1.15195E+000,-3.93034E-003,0.00000E+000,2.43032E-003,9.44761E-001,0.00000E+000,-1.96463E-003,-7.60466E-002,1.00000E+000,22
779,1337,-6.31013E+000,-3.27864E-003,1.79316E-002,3.72444E+000,-5.92500E-001,6.76162E-002,3.77188E+000,1.07177E-002,5.35672E-001,0,5.75495E+001,-9.89004E+000,9.98300E-001,1.33955E+001,-4.70018E+001,9.98196E-001,1.41799E-001,-5.97240E-002,-8.74085E-004,1.41803E-001,-5.97278E-002,-2.48508E-001,1.42388E-001,1.15234E+000,-3.92154E-003,0.00000E+000,1.74280E-003,9.44745E-001,0.00000E+000,-2.85807E-003,-7.60669E-002,1.00000E+000,22
779,1347,-6.29310E+000,6.11018E-001,6.97414E-003,3.72233E+000,-6.23737E-001,2.08068E-002,3.77429E+000,1.34223E-002,5.30977E-001,0,5.76565E+001,-1.02979E+001,9.97559E-001,1.37543E+001,-4.75154E+001,9.97171E-001,1.42133E-001,-5.97496E-002,-1.26607E-003,1.42141E-001,-5.97575E-002,-3.59300E-001,1.42740E-001,1.15273E+000,-3.91000E-003,0.00000E+000,1.05287E-003,9.44725E-001,0.00000E+000,-3.75466E-003,-7.60935E-002,1.00000E+000,22
779,1357,-6.27090E+000,1.22857E+000,3.45525E-002,3.71893E+000,-6.58054E-001,-2.05562E-002,3.77675E+000,1.07316E-002,5.46161E-001,0,5.77232E+001,-1.07563E+001,9.97805E-001,1.42889E+001,-4.80560E+001,9.97775E-001,1.42469E-001,-5.97829E-002,-1.65911E-003,1.42482E-001,-5.97965E-002,-4.69967E-001,1.43094E-001,1.15312E+000,-3.89457E-003,0.00000E+000,3.58262E-004,9.44698E-001,0.00000E+000,-4.65731E-003,-7.61290E-002,1.00000E+000,22
779,1317,-6.32212E+000,-1.19212E+000,1.43691E-001,3.73280E+000,-5.01732E-001,1.72509E-001,3.77032E+000,2.16107E-002,5.36867E-001,0,5.73429E+001,-8.68927E+000,9.99068E-001,1.32839E+001,-4.55922E+001,9.97581E-001,1.41130E-001,-5.96941E-002,-8.91857E-005,1.41130E-001,-5.96941E-002,-2.54450E-002,1.41687E-001,1.15157E+000,-3.93382E-003,0.00000E+000,3.11631E-003,9.44767E-001,0.00000E+000,-1.07316E-003,-7.60386E-002,1.00000E+000,22
1079,1337,1.62740E+001,4.32483E-001,-6.87312E-002,6.72390E+000,-3.46349E-001,-8.87558E-002,6.73340E+000,1.29806E-002,4.22068E-001,0,1.02143E+002,-6.12135E+000,9.98878E-001,6.25096E+001,-3.70827E+001,9.98729E-001,1.40239E-001,-5.78429E-002,-1.59363E-003,1.40251E-001,-5.78557E-002,-4.60924E-001,1.40965E-001,1.15020E+000,-2.85130E-002,0.00000E+000,2.02647E-002,9.45441E-001,0.00000E+000,8.73715E-004,-6.28009E-002,1.00000E+000,22
1079,1347,1.62847E+001,1.04888E+000,-5.72836E-002,6.71043E+000,-3.83285E-001,-1.12285E-001,6.72230E+000,7.42665E-003,4.53091E-001,0,1.02017E+002,-6.67996E+000,9.99531E-001,6.27663E+001,-3.75442E+001,9.99432E-001,1.40761E-001,-5.78511E-002,-1.64596E-003,1.40775E-001,-5.78647E-002,-4.74783E-001,1.41516E-001,1.15080E+000,-2.84910E-002,0.00000E+000,2.01454E-002,9.45437E-001,0.00000E+000,6.93191E-004,-6.28075E-002,1.00000E+000,22
1079,1297,1.62868E+001,-1.99459E+000,1.49806E-001,6.78659E+000,-1.91109E-001,7.51027E-002,6.78969E+000,1.52092E-002,4.17044E-001,0,1.02462E+002,-3.95894E+000,9.98259E-001,6.28077E+001,-3.51709E+001,9.96435E-001,1.38158E-001,-5.78198E-002,-1.36778E-003,1.38167E-001,-5.78293E-002,-3.99856E-001,1.38777E-001,1.14781E+000,-2.85587E-002,0.00000E+000,2.07383E-002,9.45450E-001,0.00000E+000,1.59076E-003,-6.27872E-002,1.00000E+000,22
1079,1307,1.62769E+001,-1.39698E+000,5.84536E-002,6.77050E+000,-2.34212E-001,2.36744E-002,6.77459E+000,1.31076E-002,3.38875E-001,0,1.02424E+002,-4.52013E+000,9.98995E-001,6.25643E+001,-3.57512E+001,9.97659E-001,1.38676E-001,-5.78243E-002,-1.42642E-003,1.38686E-001,-5.78346E-002,-4.15889E-001,1.39322E-001,1.14840E+000,-2.85530E-002,0.00000E+000,2.06204E-002,9.45449E-001,0.00000E+000,1.41237E-003,-6.27889E-002,1.00000E+000,22
1079,1327,1.62745E+001,-1.88475E-001,-4.13014E-002,6.74100E+000,-3.20193E-001,-5.78276E-002,6.74884E+000,1.50351E-002,4.32145E-001,0,1.02291E+002,-5.74365E+000,9.99117E-001,6.24939E+001,-3.67586E+001,9.98342E-001,1.39719E-001,-5.78363E-002,-1.53872E-003,1.39731E-001,-5.78483E-002,-4.46231E-001,1.40418E-001,1.14960E+000,-2.85282E-002,0.00000E+000,2.03831E-002,9.45444E-001,0.00000E+000,1.05309E-003,-6.27964E-002,1.00000E+000,22
1079,1317,1.62728E+001,-7.84500E-001,4.19013E-004,6.75360E+000,-2.69069E-001,-2.18866E-002,6.75900E+000,1.25597E-002,4.36160E-001,0,1.02341E+002,-5.01175E+000,9.99021E-001,6.24700E+001,-3.60844E+001,9.98021E-001,1.39198E-001,-5.78301E-002,-1.48291E-003,1.39209E-001,-5.78413E-002,-4.31197E-001,1.39870E-001,1.14900E+000,-2.85413E-002,0.00000E+000,2.05017E-002,9.45447E-001,0.00000E+000,1.23264E-003,-6.27924E-002,1.00000E+000,22
779,1307,-6.33234E+000,-1.79517E+000,2.33179E-001,3.72606E+000,-4.72016E-001,2.17364E-001,3.76212E+000,1.48197E-002,5.40185E-001,0,5.70950E+001,-8.28254E+000,9.98788E-001,1.32278E+001,-4.50761E+001,9.96892E-001,1.40796E-001,-5.96870E-002,3.01910E-004,1.40796E-001,-5.96874E-002,8.62822E-002,1.41338E-001,1.15118E+000,-3.93594E-003,0.00000E+000,3.79770E-003,9.44771E-001,0.00000E+000,-1.87675E-004,-7.60337E-002,1.00000E+000,22
1089,1337,1.70289E+001,4.53551E-001,-7.35365E-002,6.82042E+000,-3.32329E-001,-8.96554E-002,6.82910E+000,1.15703E-002,4.84028E-001,0,1.03524E+002,-5.92956E+000,9.98614E-001,6.42459E+001,-3.66161E+001,9.98250E-001,1.40933E-001,-5.80314E-002,-1.73280E-003,1.40948E-001,-5.80465E-002,-4.98944E-001,1.41677E-001,1.15102E+000,-2.76598E-002,0.00000E+000,1.92526E-002,9.45260E-001,0.00000E+000,1.39334E-003,-6.23936E-002,1.00000E+000,22
1089,1347,1.70386E+001,1.06856E+000,-6.56308E-002,6.80593E+000,-3.69823E-001,-1.16287E-001,6.81696E+000,8.90036E-003,4.55241E-001,0,1.03396E+002,-6.47577E+000,9.99222E-001,6.44796E+001,-3.71195E+001,9.98549E-001,1.41552E-001,-5.80430E-002,-1.81271E-003,1.41568E-001,-5.80595E-002,-5.20299E-001,1.42329E-001,1.15174E+000,-2.76337E-002,0.00000E+000,1.90896E-002,9.45254E-001,0.00000E+000,9.76121E-004,-6.24089E-002,1.00000E+000,22
769,1347,-7.03754E+000,6.02032E-001,1.01745E-002,3.62423E+000,-6.26415E-001,2.71255E-002,3.67807E+000,1.07612E-002,5.31556E-001,0,5.61599E+001,-1.03393E+001,9.97817E-001,1.23225E+001,-4.77662E+001,9.97771E-001,1.40690E-001,-5.93163E-002,-1.23910E-003,1.40697E-001,-5.93239E-002,-3.54947E-001,1.41272E-001,1.15107E+000,-4.21417E-003,0.00000E+000,1.32418E-003,9.45057E-001,0.00000E+000,-3.32910E-003,-7.50062E-002,1.00000E+000,22
769,1357,-7.01304E+000,1.22222E+000,3.56771E-002,3.62369E+000,-6.57691E-001,-1.45422E-002,3.68292E+000,1.04396E-002,5.55721E-001,0,5.62703E+001,-1.07531E+001,9.98335E-001,1.28900E+001,-4.82586E+001,9.98383E-001,1.40952E-001,-5.93474E-002,-1.61343E-003,1.40965E-001,-5.93604E-002,-4.61481E-001,1.41549E-001,1.15137E+000,-4.20237E-003,0.00000E+000,6.58255E-004,9.45031E-001,0.00000E+000,-4.10712E-003,-7.50361E-002,1.00000E+000,22
769,1327,-7.06495E+000,-6.11842E-001,7.18892E-002,3.62738E+000,-5.54204E-001,1.22104E-001,3.67150E+000,1.58820E-002,5.90378E-001,0,5.59185E+001,-9.41814E+000,9.98534E-001,1.18071E+001,-4.65712E+001,9.96821E-001,1.40166E-001,-5.92761E-002,-4.92886E-004,1.40167E-001,-5.92773E-002,-1.41596E-001,1.40721E-001,1.15046E+000,-4.22857E-003,0.00000E+000,2.64494E-003,9.45088E-001,0.00000E+000,-1.78604E-003,-7.49697E-002,1.00000E+000,22
769,1337,-7.05505E+000,-1.59540E-002,2.02515E-002,3.62525E+000,-5.99447E-001,7.07163E-002,3.67516E+000,9.85684E-003,5.43473E-001,0,5.60477E+001,-9.99424E+000,9.98344E-001,1.19521E+001,-4.73021E+001,9.98031E-001,1.40428E-001,-5.92925E-002,-8.66113E-004,1.40432E-001,-5.92963E-002,-2.48464E-001,1.40996E-001,1.15076E+000,-4.22289E-003,0.00000E+000,1.98549E-003,9.45076E-001,0.00000E+000,-2.55649E-003,-7.49841E-002,1.00000E+000,22
1089,1327,1.70270E+001,-1.62375E-001,-5.96207E-002,6.83683E+000,-2.97557E-001,-6.57155E-002,6.84362E+000,1.31004E-002,4.28229E-001,0,1.03687E+002,-5.40780E+000,9.98653E-001,6.41712E+001,-3.62193E+001,9.97621E-001,1.40315E-001,-5.80214E-002,-1.65023E-003,1.40328E-001,-5.80352E-002,-4.76677E-001,1.41026E-001,1.15031E+000,-2.76797E-002,0.00000E+000,1.94155E-002,9.45265E-001,0.00000E+000,1.81039E-003,-6.23820E-002,1.00000E+000,22
1089,1317,1.70317E+001,-7.73027E-001,-5.74673E-003,6.85446E+000,-2.62484E-001,-2.38351E-002,6.85952E+000,1.20252E-002,4.50379E-001,0,1.03794E+002,-4.93368E+000,9.99054E-001,6.42669E+001,-3.57902E+001,9.98592E-001,1.39699E-001,-5.80131E-002,-1.56567E-003,1.39711E-001,-5.80255E-002,-4.53685E-001,1.40377E-001,1.14960E+000,-2.76937E-002,0.00000E+000,1.95775E-002,9.45268E-001,0.00000E+000,2.22514E-003,-6.23738E-002,1.00000E+000,22
1089,1297,1.70449E+001,-1.97257E+000,1.47417E-001,6.88590E+000,-1.75697E-001,7.34008E-002,6.88854E+000,1.08702E-002,4.62434E-001,0,1.03884E+002,-3.73410E+000,9.99213E-001,6.45994E+001,-3.47093E+001,9.98539E-001,1.38468E-001,-5.79987E-002,-1.39344E-003,1.38477E-001,-5.80086E-002,-4.06344E-001,1.39083E-001,1.14819E+000,-2.77135E-002,0.00000E+000,1.99008E-002,9.45272E-001,0.00000E+000,3.05265E-003,-6.23621E-002,1.00000E+000,22
1089,1307,1.70366E+001,-1.37757E+000,5.70923E-002,6.87103E+000,-2.21947E-001,2.16621E-002,6.87465E+000,1.08565E-002,4.10634E-001,0,1.03867E+002,-4.35494E+000,9.99308E-001,6.43826E+001,-3.53173E+001,9.98835E-001,1.39082E-001,-5.80051E-002,-1.48058E-003,1.39093E-001,-5.80163E-002,-4.30390E-001,1.39729E-001,1.14890E+000,-2.77064E-002,0.00000E+000,1.97395E-002,9.45271E-001,0.00000E+000,2.63969E-003,-6.23663E-002,1.00000E+000,22
769,1317,-7.07191E+000,-1.20077E+000,1.41851E-001,3.62845E+000,-5.07311E-001,1.71263E-001,3.66774E+000,1.83535E-002,5.53309E-001,0,5.57769E+001,-8.73268E+000,9.99139E-001,1.17558E+001,-4.58142E+001,9.98309E-001,1.39904E-001,-5.92641E-002,-1.21241E-004,1.39904E-001,-5.92641E-002,-3.48781E-002,1.40448E-001,1.15016E+000,-4.23237E-003,0.00000E+000,3.30020E-003,9.45096E-001,0.00000E+000,-1.02048E-003,-7.49601E-002,1.00000E+000,22
1099,1327,1.77796E+001,-1.44832E-001,-6.60266E-002,6.93213E+000,-2.85313E-001,-6.20391E-002,6.93827E+000,1.45574E-002,4.60398E-001,0,1.05032E+002,-5.24807E+000,9.97210E-001,6.58726E+001,-3.58208E+001,9.95316E-001,1.40978E-001,-5.81829E-002,-1.78827E-003,1.40994E-001,-5.81990E-002,-5.14402E-001,1.41708E-001,1.15110E+000,-2.69256E-002,0.00000E+000,1.84987E-002,9.45137E-001,0.00000E+000,2.13748E-003,-6.24873E-002,1.00000E+000,22
1099,1337,1.77880E+001,4.75038E-001,-7.47611E-002,6.92039E+000,-3.16581E-001,-8.77359E-002,6.92818E+000,1.40078E-002,4.69946E-001,0,1.04944E+002,-5.70252E+000,9.97448E-001,6.60563E+001,-3.61885E+001,9.97102E-001,1.41735E-001,-5.81928E-002,-1.86260E-003,1.41752E-001,-5.82102E-002,-5.33727E-001,1.42505E-001,1.15197E+000,-2.68990E-002,0.00000E+000,1.83490E-002,9.45132E-001,0.00000E+000,1.62300E-003,-6.25030E-002,1.00000E+000,22
1099,1347,1.78003E+001,1.09422E+000,-6.16631E-002,6.90629E+000,-3.51730E-001,-1.17544E-001,6.91624E+000,1.15661E-002,4.57254E-001,0,1.04831E+002,-6.20859E+000,9.98238E-001,6.63377E+001,-3.66288E+001,9.97831E-001,1.42493E-001,-5.82045E-002,-1.93362E-003,1.42511E-001,-5.82231E-002,-5.51949E-001,1.43304E-001,1.15284E+000,-2.68641E-002,0.00000E+000,1.81989E-002,9.45126E-001,0.00000E+000,1.10723E-003,-6.25236E-002,1.00000E+000,22
759,1347,-7.77670E+000,5.97582E-001,1.11216E-002,3.53111E+000,-6.24831E-001,3.18003E-002,3.58611E+000,9.90426E-003,5.36268E-001,0,5.47420E+001,-1.03080E+001,9.97862E-001,1.09721E+001,-4.79396E+001,9.97557E-001,1.39284E-001,-5.89408E-002,-1.14647E-003,1.39291E-001,-5.89474E-002,-3.31365E-001,1.39837E-001,1.14945E+000,-4.35591E-003,0.00000E+000,1.58820E-003,9.45347E-001,0.00000E+000,-2.88810E-003,-7.40887E-002,1.00000E+000,22
759,1357,-7.75605E+000,1.21383E+000,3.44146E-002,3.52723E+000,-6.59467E-001,-1.05263E-002,3.58836E+000,1.05584E-002,5.66412E-001,0,5.48034E+001,-1.07769E+001,9.98146E-001,1.14762E+001,-4.84871E+001,9.97872E-001,1.39362E-001,-5.89627E-002,-1.41472E-003,1.39372E-001,-5.89728E-002,-4.08684E-001,1.39920E-001,1.14954E+000,-4.35242E-003,0.00000E+000,1.12812E-003,9.45330E-001,0.00000E+000,-3.63637E-003,-7.41169E-002,1.00000E+000,22
1099,1297,1.77987E+001,-1.95955E+000,1.32507E-001,6.98220E+000,-1.67772E-001,6.64926E-002,6.98453E+000,1.00752E-002,4.94209E-001,0,1.05282E+002,-3.61420E+000,9.98718E-001,6.63057E+001,-3.43680E+001,9.97646E-001,1.38719E-001,-5.81616E-002,-1.55048E-003,1.38731E-001,-5.81738E-002,-4.51180E-001,1.39332E-001,1.14850E+000,-2.69667E-002,0.00000E+000,1.89447E-002,9.45144E-001,0.00000E+000,3.66995E-003,-6.24629E-002,1.00000E+000,22
1099,1307,1.77932E+001,-1.35716E+000,5.00553E-002,6.97006E+000,-2.07269E-001,2.27369E-002,6.97318E+000,1.17308E-002,4.64435E-001,0,1.05275E+002,-4.15326E+000,9.99063E-001,6.61466E+001,-3.48652E+001,9.98294E-001,1.39471E-001,-5.81677E-002,-1.63168E-003,1.39485E-001,-5.81812E-002,-4.72981E-001,1.40122E-001,1.14936E+000,-2.69579E-002,0.00000E+000,1.87964E-002,9.45142E-001,0.00000E+000,3.16014E-003,-6.24682E-002,1.00000E+000,22
1099,1317,1.77850E+001,-7.52643E-001,-1.68183E-002,6.95138E+000,-2.46833E-001,-2.15490E-002,6.95580E+000,1.51368E-002,4.76840E-001,0,1.05167E+002,-4.71345E+000,9.98283E-001,6.59728E+001,-3.53420E+001,9.97152E-001,1.40225E-001,-5.81748E-002,-1.71083E-003,1.40239E-001,-5.81896E-002,-4.94021E-001,1.40914E-001,1.15023E+000,-2.69440E-002,0.00000E+000,1.86477E-002,9.45140E-001,0.00000E+000,2.64935E-003,-6.24764E-002,1.00000E+000,22
759,1327,-7.81099E+000,-6.22131E-001,6.99570E-002,3.52630E+000,-5.58556E-001,1.19648E-001,3.57227E+000,1.17228E-002,5.53346E-001,0,5.44025E+001,-9.45694E+000,9.98612E-001,1.03411E+001,-4.68464E+001,9.98590E-001,1.39128E-001,-5.89130E-002,-6.12861E-004,1.39130E-001,-5.89149E-002,-1.77307E-001,1.39672E-001,1.14926E+000,-4.36011E-003,0.00000E+000,2.50150E-003,9.45368E-001,0.00000E+000,-1.40273E-003,-7.40548E-002,1.00000E+000,22
759,1337,-7.79472E+000,-1.31641E-002,2.62666E-002,3.53035E+000,-5.90983E-001,7.47110E-002,3.58026E+000,9.96223E-003,5.55200E-001,0,5.46023E+001,-9.86864E+000,9.97977E-001,1.06066E+001,-4.73697E+001,9.97721E-001,1.39206E-001,-5.89249E-002,-8.79474E-004,1.39210E-001,-5.89288E-002,-2.54321E-001,1.39755E-001,1.14936E+000,-4.35837E-003,0.00000E+000,2.04542E-003,9.45359E-001,0.00000E+000,-2.14449E-003,-7.40688E-002,1.00000E+000,22
759,1317,-7.81495E+000,-1.21672E+000,1.45342E-001,3.52937E+000,-5.17704E-001,1.69426E-001,3.57116E+000,1.59918E-002,5.70813E-001,0,5.42922E+001,-8.90329E+000,9.98715E-001,1.03481E+001,-4.61587E+001,9.98412E-001,1.39049E-001,-5.89053E-002,-3.47752E-004,1.39050E-001,-5.89059E-002,-1.00652E-001,1.39589E-001,1.14917E+000,-4.36111E-003,0.00000E+000,2.95448E-003,9.45373E-001,0.00000E+000,-6.66005E-004,-7.40466E-002,1.00000E+000,22
749,1317,-8.54875E+000,-1.21961E+000,1.64153E-001,3.43791E+000,-5.17337E-001,1.76649E-001,3.48111E+000,1.19324E-002,5.95168E-001,0,5.28918E+001,-8.90875E+000,9.98847E-001,9.12913E+000,-4.63302E+001,9.97859E-001,1.38195E-001,-5.85975E-002,-4.97249E-004,1.38196E-001,-5.85988E-002,-1.44772E-001,1.38727E-001,1.14819E+000,-4.14081E-003,0.00000E+000,2.47189E-003,9.45606E-001,0.00000E+000,-3.46073E-004,-7.31842E-002,1.00000E+000,22
749,1327,-8.54440E+000,-6.25084E-001,7.44828E-002,3.43684E+000,-5.57482E-001,1.20701E-001,3.48385E+000,9.37252E-003,5.41359E-001,0,5.30514E+001,-9.41021E+000,9.98371E-001,9.09156E+000,-4.70084E+001,9.98117E-001,1.38112E-001,-5.86019E-002,-6.85658E-004,1.38114E-001,-5.86043E-002,-1.99704E-001,1.38641E-001,1.14810E+000,-4.14161E-003,0.00000E+000,2.15737E-003,9.45603E-001,0.00000E+000,-9.59251E-004,-7.31894E-002,1.00000E+000,22
749,1337,-8.53428E+000,-1.69040E-002,2.98938E-002,3.43508E+000,-5.89659E-001,7.59156E-002,3.48615E+000,9.41049E-003,5.78416E-001,0,5.31598E+001,-9.84545E+000,9.98290E-001,9.26051E+000,-4.75272E+001,9.98161E-001,1.38028E-001,-5.86100E-002,-8.75563E-004,1.38032E-001,-5.86139E-002,-2.55112E-001,1.38554E-001,1.14800E+000,-4.14337E-003,0.00000E+000,1.84105E-003,9.45597E-001,0.00000E+000,-1.57595E-003,-7.32008E-002,1.00000E+000,22
749,1347,-8.51930E+000,5.91080E-001,7.93399E-003,3.43366E+000,-6.25063E-001,2.98740E-002,3.49022E+000,1.02989E-002,5.27770E-001,0,5.32756E+001,-1.02925E+001,9.98448E-001,9.56278E+000,-4.81428E+001,9.98206E-001,1.37944E-001,-5.86207E-002,-1.06624E-003,1.37950E-001,-5.86265E-002,-3.10782E-001,1.38466E-001,1.14791E+000,-4.14579E-003,0.00000E+000,1.52394E-003,9.45589E-001,0.00000E+000,-2.19418E-003,-7.32165E-002,1.00000E+000,22
1109,1297,1.85530E+001,-1.94480E+000,1.21774E-001,7.08022E+000,-1.55952E-001,7.06358E-002,7.08229E+000,1.05895E-002,4.83454E-001,0,1.06661E+002,-3.45590E+000,9.98147E-001,6.80310E+001,-3.40301E+001,9.96506E-001,1.39148E-001,-5.85315E-002,-1.63765E-003,1.39162E-001,-5.85451E-002,-4.74614E-001,1.39744E-001,1.14903E+000,-2.57942E-002,0.00000E+000,1.77660E-002,9.44837E-001,0.00000E+000,4.25671E-003,-6.28054E-002,1.00000E+000,22
1109,1307,1.85460E+001,-1.34081E+000,3.88767E-002,7.06665E+000,-1.93764E-001,2.66369E-002,7.06935E+000,1.21946E-002,4.34556E-001,0,1.06634E+002,-3.96354E+000,9.98522E-001,6.78497E+001,-3.45095E+001,9.97727E-001,1.39962E-001,-5.85351E-002,-1.68274E-003,1.39976E-001,-5.85494E-002,-4.85672E-001,1.40598E-001,1.14996E+000,-2.57847E-002,0.00000E+000,1.76945E-002,9.44837E-001,0.00000E+000,3.58932E-003,-6.28123E-002,1.00000E+000,22
1109,1317,1.85390E+001,-7.35175E-001,-2.48791E-002,7.04929E+000,-2.32546E-001,-1.37987E-002,7.05314E+000,1.37630E-002,4.45529E-001,0,1.06532E+002,-4.51659E+000,9.97933E-001,6.77003E+001,-3.49744E+001,9.96849E-001,1.40777E-001,-5.85394E-002,-1.72565E-003,1.40792E-001,-5.85543E-002,-4.96008E-001,1.41454E-001,1.15089E+000,-2.57697E-002,0.00000E+000,1.76228E-002,9.44835E-001,0.00000E+000,2.92014E-003,-6.28230E-002,1.00000E+000,22
749,1357,-8.49530E+000,1.20588E+000,3.36584E-002,3.43364E+000,-6.60351E-001,-8.51600E-003,3.49657E+000,1.25015E-002,5.48479E-001,0,5.33845E+001,-1.07814E+001,9.98359E-001,1.01265E+001,-4.87240E+001,9.98143E-001,1.37858E-001,-5.86359E-002,-1.25870E-003,1.37866E-001,-5.86439E-002,-3.67004E-001,1.38377E-001,1.14781E+000,-4.14934E-003,0.00000E+000,1.20470E-003,9.45577E-001,0.00000E+000,-2.81656E-003,-7.32395E-002,1.00000E+000,22
1109,1327,1.85360E+001,-1.27994E-001,-7.10079E-002,7.03106E+000,-2.72758E-001,-5.63624E-002,7.03657E+000,1.24383E-002,4.44309E-001,0,1.06421E+002,-5.07934E+000,9.97164E-001,6.76418E+001,-3.54601E+001,9.95972E-001,1.41592E-001,-5.85445E-002,-1.76578E-003,1.41608E-001,-5.85601E-002,-5.05459E-001,1.42312E-001,1.15183E+000,-2.57479E-002,0.00000E+000,1.75510E-002,9.44834E-001,0.00000E+000,2.24904E-003,-6.28386E-002,1.00000E+000,22
1109,1337,1.85409E+001,4.91952E-001,-8.49073E-002,7.01536E+000,-3.04567E-001,-8.84819E-002,7.02253E+000,1.34939E-002,4.68080E-001,0,1.06299E+002,-5.53173E+000,9.98121E-001,6.77608E+001,-3.58069E+001,9.97790E-001,1.42411E-001,-5.85506E-002,-1.80291E-003,1.42427E-001,-5.85668E-002,-5.13969E-001,1.43174E-001,1.15277E+000,-2.57185E-002,0.00000E+000,1.74788E-002,9.44831E-001,0.00000E+000,1.57470E-003,-6.28597E-002,1.00000E+000,22
1109,1347,1.85586E+001,1.11177E+000,-5.71960E-002,7.00302E+000,-3.41623E-001,-1.17588E-001,7.01233E+000,1.31298E-002,4.62375E-001,0,1.06208E+002,-6.06873E+000,9.98442E-001,6.81477E+001,-3.62641E+001,9.97357E-001,1.43232E-001,-5.85583E-002,-1.83456E-003,1.43248E-001,-5.85750E-002,-5.20843E-001,1.44039E-001,1.15372E+000,-2.56758E-002,0.00000E+000,1.74062E-002,9.44828E-001,0.00000E+000,8.97342E-004,-6.28903E-002,1.00000E+000,22
739,1337,-9.27216E+000,-2.81677E-002,3.09679E-002,3.34123E+000,-5.95162E-001,7.53179E-002,3.39466E+000,1.07266E-002,5.70650E-001,0,5.17449E+001,-9.91878E+000,9.98190E-001,7.93716E+000,-4.78104E+001,9.97903E-001,1.36782E-001,-5.81254E-002,-9.72559E-004,1.36787E-001,-5.81303E-002,-2.85888E-001,1.37299E-001,1.14657E+000,-3.97641E-003,0.00000E+000,1.50985E-003,9.46044E-001,0.00000E+000,-1.35669E-003,-7.30181E-002,1.00000E+000,22
739,1347,-9.26110E+000,5.82679E-001,1.10483E-002,3.33634E+000,-6.27381E-001,3.28991E-002,3.39498E+000,8.05246E-003,5.36332E-001,0,5.17944E+001,-1.03298E+001,9.99096E-001,8.18616E+000,-4.83806E+001,9.98989E-001,1.36499E-001,-5.81363E-002,-1.17572E-003,1.36506E-001,-5.81434E-002,-3.46085E-001,1.37004E-001,1.14625E+000,-3.98438E-003,0.00000E+000,1.18140E-003,9.46035E-001,0.00000E+000,-2.08184E-003,-7.30360E-002,1.00000E+000,22
739,1357,-9.23779E+000,1.19950E+000,3.47754E-002,3.33621E+000,-6.60000E-001,-5.52898E-003,3.40087E+000,9.06828E-003,5.32076E-001,0,5.19007E+001,-1.07662E+001,9.98703E-001,8.73680E+000,-4.89407E+001,9.98707E-001,1.36213E-001,-5.81517E-002,-1.38176E-003,1.36223E-001,-5.81616E-002,-4.07292E-001,1.36707E-001,1.14593E+000,-3.99608E-003,0.00000E+000,8.50917E-004,9.46024E-001,0.00000E+000,-2.81147E-003,-7.30623E-002,1.00000E+000,22
739,1327,-9.28365E+000,-6.31798E-001,7.46399E-002,3.34148E+000,-5.58412E-001,1.19003E-001,3.38990E+000,1.03314E-002,5.10871E-001,0,5.16160E+001,-9.40252E+000,9.99025E-001,7.74544E+000,-4.72292E+001,9.98800E-001,1.37064E-001,-5.81170E-002,-7.70743E-004,1.37067E-001,-5.81201E-002,-2.26249E-001,1.37593E-001,1.14689E+000,-3.97054E-003,0.00000E+000,1.83763E-003,9.46050E-001,0.00000E+000,-6.33031E-004,-7.30050E-002,1.00000E+000,22
1119,1297,1.93058E+001,-1.92895E+000,1.14331E-001,7.17651E+000,-1.43226E-001,7.83504E-002,7.17837E+000,1.14307E-002,4.37919E-001,0,1.07998E+002,-3.27067E+000,9.98931E-001,6.97455E+001,-3.36999E+001,9.98202E-001,1.39757E-001,-5.84384E-002,-1.82907E-003,1.39774E-001,-5.84553E-002,-5.28699E-001,1.40396E-001,1.14975E+000,-2.47240E-002,0.00000E+000,1.65251E-002,9.44986E-001,0.00000E+000,4.03288E-003,-6.34340E-002,1.00000E+000,22
1119,1307,1.93003E+001,-1.32670E+000,3.44951E-002,7.16291E+000,-1.83889E-001,3.17673E-002,7.16534E+000,1.03431E-002,4.23009E-001,0,1.07981E+002,-3.83237E+000,9.98858E-001,6.95912E+001,-3.41938E+001,9.98668E-001,1.40538E-001,-5.84386E-002,-1.81970E-003,1.40554E-001,-5.84553E-002,-5.23929E-001,1.41216E-001,1.15064E+000,-2.47129E-002,0.00000E+000,1.65593E-002,9.44987E-001,0.00000E+000,3.33720E-003,-6.34427E-002,1.00000E+000,22
1119,1317,1.92986E+001,-7.19477E-001,-2.65827E-002,7.15002E+000,-2.21337E-001,-9.12710E-003,7.15345E+000,1.09836E-002,4.16454E-001,0,1.07948E+002,-4.36289E+000,9.98359E-001,6.95289E+001,-3.46464E+001,9.98267E-001,1.41318E-001,-5.84389E-002,-1.80848E-003,1.41334E-001,-5.84552E-002,-5.18665E-001,1.42036E-001,1.15154E+000,-2.46974E-002,0.00000E+000,1.65935E-002,9.44987E-001,0.00000E+000,2.64042E-003,-6.34548E-002,1.00000E+000,22
1119,1327,1.92974E+001,-1.09558E-001,-6.63534E-002,7.13270E+000,-2.59253E-001,-4.84005E-002,7.13757E+000,1.02422E-002,4.08706E-001,0,1.07837E+002,-4.89846E+000,9.98204E-001,6.95082E+001,-3.51051E+001,9.98056E-001,1.42100E-001,-5.84391E-002,-1.79446E-003,1.42116E-001,-5.84552E-002,-5.12639E-001,1.42859E-001,1.15244E+000,-2.46754E-002,0.00000E+000,1.66278E-002,9.44988E-001,0.00000E+000,1.94140E-003,-6.34719E-002,1.00000E+000,22
1119,1337,1.93018E+001,5.04448E-001,-8.48199E-002,7.11576E+000,-2.97933E-001,-8.76570E-002,7.12253E+000,9.52356E-003,4.60231E-001,0,1.07726E+002,-5.45003E+000,9.98981E-001,6.96105E+001,-3.55185E+001,9.98425E-001,1.42885E-001,-5.84395E-002,-1.77738E-003,1.42900E-001,-5.84552E-002,-5.05781E-001,1.43686E-001,1.15334E+000,-2.46462E-002,0.00000E+000,1.66624E-002,9.44989E-001,0.00000E+000,1.23843E-003,-6.34946E-002,1.00000E+000,22
1119,1347,1.93163E+001,1.12401E+000,-5.96599E-002,7.10078E+000,-3.34574E-001,-1.16403E-001,7.10961E+000,1.39801E-002,4.32261E-001,0,1.07596E+002,-5.97781E+000,9.98918E-001,6.99417E+001,-3.59840E+001,9.98106E-001,1.43670E-001,-5.84399E-002,-1.75563E-003,1.43686E-001,-5.84551E-002,-4.97649E-001,1.44515E-001,1.15425E+000,-2.46060E-002,0.00000E+000,1.66970E-002,9.44991E-001,0.00000E+000,5.33642E-004,-6.35259E-002,1.00000E+000,22
739,1317,-9.28369E+000,-1.22408E+000,1.61152E-001,3.34650E+000,-5.16765E-001,1.70289E-001,3.39045E+000,1.29513E-002,5.61294E-001,0,5.15322E+001,-8.86164E+000,9.98867E-001,7.84194E+000,-4.65090E+001,9.98252E-001,1.37343E-001,-5.81127E-002,-5.71720E-004,1.37345E-001,-5.81144E-002,-1.67592E-001,1.37885E-001,1.14721E+000,-3.96799E-003,0.00000E+000,2.16320E-003,9.46052E-001,0.00000E+000,8.57570E-005,-7.29992E-002,1.00000E+000,22
1129,1297,2.00578E+001,-1.90703E+000,1.09831E-001,7.27031E+000,-1.24995E-001,8.42002E-002,7.27187E+000,1.23548E-002,4.13187E-001,0,1.09298E+002,-3.00892E+000,9.99325E-001,7.14556E+001,-3.32717E+001,9.98322E-001,1.40147E-001,-5.84641E-002,-2.05971E-003,1.40169E-001,-5.84855E-002,-5.94104E-001,1.40807E-001,1.15022E+000,-2.36872E-002,0.00000E+000,1.52741E-002,9.45003E-001,0.00000E+000,3.27850E-003,-6.37247E-002,1.00000E+000,22
1129,1307,2.00517E+001,-1.31327E+000,2.28261E-002,7.25592E+000,-1.74294E-001,2.97392E-002,7.25807E+000,1.71294E-002,3.78737E-001,0,1.09305E+002,-3.68007E+000,9.99085E-001,7.12808E+001,-3.38901E+001,9.96857E-001,1.40997E-001,-5.84608E-002,-1.99389E-003,1.41017E-001,-5.84807E-002,-5.72682E-001,1.41699E-001,1.15119E+000,-2.36747E-002,0.00000E+000,1.54151E-002,9.45005E-001,0.00000E+000,2.56289E-003,-6.37339E-002,1.00000E+000,22
1129,1317,2.00548E+001,-7.07803E-001,-3.42388E-002,7.24726E+000,-2.13909E-001,-8.71780E-003,7.25043E+000,1.01257E-002,3.83957E-001,0,1.09327E+002,-4.25639E+000,9.99103E-001,7.12980E+001,-3.43703E+001,9.97397E-001,1.41847E-001,-5.84569E-002,-1.92580E-003,1.41866E-001,-5.84754E-002,-5.50797E-001,1.42593E-001,1.15217E+000,-2.36571E-002,0.00000E+000,1.55564E-002,9.45007E-001,0.00000E+000,1.84587E-003,-6.37468E-002,1.00000E+000,22
729,1347,-9.99013E+000,5.69624E-001,2.05460E-002,3.25021E+000,-6.35774E-001,3.61800E-002,3.31201E+000,7.11049E-003,5.50366E-001,0,5.04849E+001,-1.04588E+001,9.99490E-001,7.02584E+000,-4.86996E+001,9.99347E-001,1.35010E-001,-5.76984E-002,-1.02522E-003,1.35016E-001,-5.77038E-002,-3.04804E-001,1.35489E-001,1.14455E+000,-3.30142E-003,0.00000E+000,9.14115E-004,9.46387E-001,0.00000E+000,-2.14862E-003,-7.21170E-002,1.00000E+000,22
729,1357,-9.97311E+000,1.19264E+000,3.74837E-002,3.24515E+000,-6.61261E-001,-2.93431E-003,3.31183E+000,8.57767E-003,5.49472E-001,0,5.05149E+001,-1.07805E+001,9.98998E-001,7.46593E+000,-4.91507E+001,9.99058E-001,1.34457E-001,-5.77095E-002,-1.19023E-003,1.34465E-001,-5.77169E-002,-3.54857E-001,1.34913E-001,1.14392E+000,-3.32277E-003,0.00000E+000,6.86593E-004,9.46379E-001,0.00000E+000,-3.13102E-003,-7.21503E-002,1.00000E+000,22
1129,1327,2.00581E+001,-9.43704E-002,-6.78825E-002,7.23493E+000,-2.47666E-001,-3.96529E-002,7.23927E+000,1.16224E-002,4.00002E-001,0,1.09258E+002,-4.76776E+000,9.98949E-001,7.13573E+001,-3.47736E+001,9.98504E-001,1.42698E-001,-5.84523E-002,-1.85517E-003,1.42715E-001,-5.84694E-002,-5.28369E-001,1.43489E-001,1.15315E+000,-2.36337E-002,0.00000E+000,1.56979E-002,9.45010E-001,0.00000E+000,1.12746E-003,-6.37640E-002,1.00000E+000,22
729,1337,-1.00089E+001,-3.44120E-002,3.75489E-002,3.24839E+000,-5.95455E-001,8.19327E-002,3.30353E+000,9.86189E-003,5.55468E-001,0,5.03208E+001,-9.92270E+000,9.98739E-001,6.65098E+000,-4.80319E+001,9.98217E-001,1.35559E-001,-5.76896E-002,-8.62986E-004,1.35563E-001,-5.76934E-002,-2.55857E-001,1.36063E-001,1.14517E+000,-3.28498E-003,0.00000E+000,1.14076E-003,9.46393E-001,0.00000E+000,-1.17001E-003,-7.20913E-002,1.00000E+000,22
729,1327,-1.00193E+001,-6.36082E-001,8.24225E-002,3.24882E+000,-5.58695E-001,1.22220E-001,3.29878E+000,1.05508E-002,5.37394E-001,0,5.02051E+001,-9.40326E+000,9.98610E-001,6.48021E+000,-4.74002E+001,9.98025E-001,1.36104E-001,-5.76838E-002,-7.04351E-004,1.36107E-001,-5.76863E-002,-2.08246E-001,1.36632E-001,1.14580E+000,-3.27457E-003,0.00000E+000,1.36603E-003,9.46397E-001,0.00000E+000,-1.97347E-004,-7.20750E-002,1.00000E+000,22
1129,1337,2.00721E+001,5.22160E-001,-6.90483E-002,7.22148E+000,-2.88764E-001,-8.51427E-002,7.22776E+000,1.24368E-002,4.71733E-001,0,1.09220E+002,-5.33402E+000,9.98803E-001,7.16344E+001,-3.51734E+001,9.98601E-001,1.43557E-001,-5.84459E-002,-1.77643E-003,1.43573E-001,-5.84615E-002,-5.03813E-001,1.44395E-001,1.15414E+000,-2.35930E-002,0.00000E+000,1.58411E-002,9.45016E-001,0.00000E+000,4.00292E-004,-6.37938E-002,1.00000E+000,22
729,1317,-1.00230E+001,-1.23190E+000,1.56850E-001,3.25150E+000,-5.19056E-001,1.69012E-001,3.29700E+000,1.19349E-002,5.57741E-001,0,5.01010E+001,-8.87885E+000,9.98563E-001,6.48785E+000,-4.67223E+001,9.97810E-001,1.36646E-001,-5.76800E-002,-5.47915E-004,1.36648E-001,-5.76815E-002,-1.61547E-001,1.37199E-001,1.14642E+000,-3.26829E-003,0.00000E+000,1.59074E-003,9.46399E-001,0.00000E+000,7.72922E-004,-7.20652E-002,1.00000E+000,22
1129,1347,2.00793E+001,1.14446E+000,-6.00028E-002,7.20192E+000,-3.21366E-001,-1.18402E-001,7.21006E+000,1.54835E-002,4.71220E-001,0,1.09040E+002,-5.80091E+000,9.98457E-001,7.18245E+001,-3.55464E+001,9.97726E-001,1.44412E-001,-5.84396E-002,-1.69839E-003,1.44426E-001,-5.84538E-002,-4.79670E-001,1.45297E-001,1.15512E+000,-2.35532E-002,0.00000E+000,1.59838E-002,9.45022E-001,0.00000E+000,-3.23977E-004,-6.38231E-002,1.00000E+000,22
719,1347,-1.07292E+001,5.69432E-001,2.01679E-002,3.15514E+000,-6.29827E-001,3.72971E-002,3.21761E+000,1.14996E-002,5.63880E-001,0,4.90382E+001,-1.03635E+001,9.98894E-001,5.69444E+000,-4.88010E+001,9.98697E-001,1.33895E-001,-5.74520E-002,-9.36209E-004,1.33900E-001,-5.74566E-002,-2.80323E-001,1.34348E-001,1.14327E+000,-2.44365E-003,0.00000E+000,3.63607E-004,9.46525E-001,0.00000E+000,-1.94082E-003,-7.07014E-002,1.00000E+000,22
719,1357,-1.07137E+001,1.18359E+000,3.39848E-002,3.14890E+000,-6.64458E-001,-4.10120E-003,3.21825E+000,9.92443E-003,5.55398E-001,0,4.90589E+001,-1.08086E+001,9.98843E-001,6.10322E+000,-4.93872E+001,9.98906E-001,1.33107E-001,-5.74585E-002,-1.04280E-003,1.33113E-001,-5.74642E-002,-3.13517E-001,1.33526E-001,1.14238E+000,-2.47357E-003,0.00000E+000,2.65785E-004,9.46522E-001,0.00000E+000,-3.11563E-003,-7.07406E-002,1.00000E+000,22
719,1337,-1.07462E+001,-3.66872E-002,3.83408E-002,3.15416E+000,-5.92803E-001,7.99625E-002,3.21038E+000,1.29828E-002,5.78890E-001,0,4.88975E+001,-9.87144E+000,9.97998E-001,5.34848E+000,-4.81608E+001,9.96981E-001,1.34676E-001,-5.74472E-002,-8.33646E-004,1.34680E-001,-5.74508E-002,-2.48607E-001,1.35163E-001,1.14416E+000,-2.42157E-003,0.00000E+000,4.60854E-004,9.46527E-001,0.00000E+000,-7.72929E-004,-7.06725E-002,1.00000E+000,22
719,1327,-1.07540E+001,-6.38204E-001,8.64062E-002,3.15668E+000,-5.56430E-001,1.21787E-001,3.20766E+000,9.44112E-003,5.80705E-001,0,4.88104E+001,-9.37078E+000,9.97933E-001,5.22388E+000,-4.75214E+001,9.97095E-001,1.35451E-001,-5.74440E-002,-7.35027E-004,1.35454E-001,-5.74468E-002,-2.18321E-001,1.35973E-001,1.14505E+000,-2.40732E-003,0.00000E+000,5.57585E-004,9.46529E-001,0.00000E+000,3.88770E-004,-7.06538E-002,1.00000E+000,22
719,1317,-1.07592E+001,-1.23521E+000,1.64728E-001,3.15681E+000,-5.18531E-001,1.66698E-001,3.20345E+000,1.21436E-002,5.56245E-001,0,4.86735E+001,-8.85421E+000,9.97910E-001,5.22041E+000,-4.68908E+001,9.96971E-001,1.36223E-001,-5.74421E-002,-6.39609E-004,1.36225E-001,-5.74443E-002,-1.89225E-001,1.36781E-001,1.14594E+000,-2.39994E-003,0.00000E+000,6.54112E-004,9.46530E-001,0.00000E+000,1.54802E-003,-7.06442E-002,1.00000E+000,22
1139,1297,2.08252E+001,-1.89764E+000,1.11514E-001,7.37767E+000,-1.18960E-001,9.03933E-002,7.37919E+000,8.69584E-003,3.57752E-001,0,1.10801E+002,-2.94004E+000,9.99618E-001,7.34191E+001,-3.30646E+001,9.98552E-001,1.40512E-001,-5.85955E-002,-2.21218E-003,1.40536E-001,-5.86201E-002,-6.36479E-001,1.41179E-001,1.15065E+000,-2.26105E-002,0.00000E+000,1.41624E-002,9.44923E-001,0.00000E+000,2.12979E-003,-6.41439E-002,1.00000E+000,22
1139,1307,2.08173E+001,-1.30461E+000,1.60621E-002,7.36255E+000,-1.69035E-001,3.22252E-002,7.36456E+000,1.08843E-002,3.39733E-001,0,1.10814E+002,-3.61625E+000,9.99369E-001,7.32027E+001,-3.36666E+001,9.98385E-001,1.41469E-001,-5.85909E-002,-2.11956E-003,1.41492E-001,-5.86134E-002,-6.06936E-001,1.42183E-001,1.15175E+000,-2.25982E-002,0.00000E+000,1.43496E-002,9.44925E-001,0.00000E+000,1.47697E-003,-6.41512E-002,1.00000E+000,22
1139,1337,2.08315E+001,5.44472E-001,-6.95824E-002,7.31969E+000,-2.72381E-001,-8.36683E-002,7.32523E+000,1.33424E-002,4.99478E-001,0,1.10604E+002,-5.11841E+000,9.98381E-001,7.34674E+001,-3.47143E+001,9.97392E-001,1.44355E-001,-5.85686E-002,-1.81466E-003,1.44371E-001,-5.85848E-002,-5.12318E-001,1.45223E-001,1.15508E+000,-2.25023E-002,0.00000E+000,1.49160E-002,9.44942E-001,0.00000E+000,-4.97292E-004,-6.42081E-002,1.00000E+000,22
1139,1347,2.08509E+001,1.16243E+000,-4.32123E-002,7.30796E+000,-3.12490E-001,-1.16082E-001,7.31556E+000,1.40653E-002,4.99339E-001,0,1.10537E+002,-5.69666E+000,9.98201E-001,7.38717E+001,-3.51902E+001,9.96589E-001,1.45321E-001,-5.85582E-002,-1.70393E-003,1.45335E-001,-5.85724E-002,-4.78808E-001,1.46243E-001,1.15620E+000,-2.24502E-002,0.00000E+000,1.51061E-002,9.44950E-001,0.00000E+000,-1.16013E-003,-6.42390E-002,1.00000E+000,22
1139,1327,2.08216E+001,-7.94869E-002,-7.64656E-002,7.33719E+000,-2.40247E-001,-4.70712E-002,7.34128E+000,1.32665E-002,4.44438E-001,0,1.10740E+002,-4.65337E+000,9.98582E-001,7.32429E+001,-3.44047E+001,9.97095E-001,1.43389E-001,-5.85780E-002,-1.92263E-003,1.43408E-001,-5.85963E-002,-5.45362E-001,1.44204E-001,1.15396E+000,-2.25481E-002,0.00000E+000,1.47262E-002,9.44934E-001,0.00000E+000,1.64361E-004,-6.41809E-002,1.00000E+000,22
1139,1317,2.08103E+001,-6.97548E-001,-4.99587E-002,7.34487E+000,-2.07377E-001,-1.07341E-002,7.34781E+000,1.25694E-002,3.88312E-001,0,1.10720E+002,-4.17279E+000,9.99311E-001,7.30492E+001,-3.40805E+001,9.97819E-001,1.42427E-001,-5.85855E-002,-2.02425E-003,1.42448E-001,-5.86059E-002,-5.76905E-001,1.43191E-001,1.15285E+000,-2.25800E-002,0.00000E+000,1.45374E-002,9.44928E-001,0.00000E+000,8.22586E-004,-6.41620E-002,1.00000E+000,22
709,1347,-1.14727E+001,5.68974E-001,1.94618E-002,3.05526E+000,-6.24060E-001,3.84461E-002,3.11858E+000,1.08550E-002,5.65916E-001,0,4.75147E+001,-1.02654E+001,9.98645E-001,4.29849E+000,-4.89122E+001,9.98537E-001,1.32834E-001,-5.65893E-002,-1.03111E-003,1.32840E-001,-5.65949E-002,-3.11870E-001,1.33324E-001,1.14206E+000,-1.59340E-003,0.00000E+000,-5.35688E-004,9.47272E-001,0.00000E+000,-1.66757E-003,-6.96514E-002,1.00000E+000,22
709,1357,-1.14546E+001,1.18238E+000,3.14683E-002,3.05233E+000,-6.57886E-001,-1.72472E-003,3.12242E+000,1.03824E-002,5.62857E-001,0,4.75825E+001,-1.07175E+001,9.98829E-001,4.74305E+000,-4.95049E+001,9.98915E-001,1.31913E-001,-5.65981E-002,-1.18096E-003,1.31920E-001,-5.66055E-002,-3.58922E-001,1.32361E-001,1.14101E+000,-1.62717E-003,0.00000E+000,-7.14373E-004,9.47267E-001,0.00000E+000,-2.83871E-003,-6.96891E-002,1.00000E+000,22
709,1337,-1.14794E+001,-4.32227E-002,4.12038E-002,3.06297E+000,-5.94442E-001,7.66763E-002,3.12106E+000,1.00036E-002,5.61822E-001,0,4.75240E+001,-9.87163E+000,9.98505E-001,4.11790E+000,-4.83795E+001,9.97999E-001,1.33749E-001,-5.65832E-002,-8.86595E-004,1.33753E-001,-5.65873E-002,-2.66884E-001,1.34280E-001,1.14311E+000,-1.57016E-003,0.00000E+000,-3.57911E-004,9.47276E-001,0.00000E+000,-5.02388E-004,-6.96255E-002,1.00000E+000,22
709,1317,-1.14896E+001,-1.23534E+000,1.81978E-001,3.06661E+000,-5.15763E-001,1.69246E-001,3.11428E+000,1.28073E-002,5.75434E-001,0,4.72978E+001,-8.81163E+000,9.98672E-001,4.07099E+000,-4.70191E+001,9.98172E-001,1.35561E-001,-5.65770E-002,-6.09792E-004,1.35563E-001,-5.65789E-002,-1.81838E-001,1.36179E-001,1.14518E+000,-1.54765E-003,0.00000E+000,-4.56552E-006,9.47280E-001,0.00000E+000,1.81351E-003,-6.96003E-002,1.00000E+000,22
709,1327,-1.14833E+001,-6.40172E-001,1.05313E-001,3.06720E+000,-5.55113E-001,1.23248E-001,3.11946E+000,1.40273E-002,6.00410E-001,0,4.74481E+001,-9.35782E+000,9.98702E-001,4.09580E+000,-4.76835E+001,9.98045E-001,1.34657E-001,-5.65796E-002,-7.47239E-004,1.34660E-001,-5.65825E-002,-2.23873E-001,1.35231E-001,1.14414E+000,-1.55698E-003,0.00000E+000,-1.81103E-004,9.47279E-001,0.00000E+000,6.56446E-004,-6.96108E-002,1.00000E+000,22
1149,1297,2.15826E+001,-1.88889E+000,9.30487E-002,7.47638E+000,-1.14955E-001,8.43870E-002,7.47774E+000,1.99826E-002,3.97242E-001,0,1.12223E+002,-2.88435E+000,9.98863E-001,7.51969E+001,-3.27786E+001,9.96142E-001,1.40837E-001,-5.87020E-002,-2.33226E-003,1.40865E-001,-5.87293E-002,-6.69564E-001,1.41511E-001,1.15104E+000,-2.15833E-002,0.00000E+000,1.31712E-002,9.44877E-001,0.00000E+000,7.16823E-004,-6.47668E-002,1.00000E+000,22
1149,1307,2.15861E+001,-1.28088E+000,2.18290E-002,7.47143E+000,-1.50041E-001,4.54395E-002,7.47308E+000,1.27527E-002,3.91655E-001,0,1.12306E+002,-3.39361E+000,9.99115E-001,7.51989E+001,-3.31906E+001,9.97652E-001,1.41902E-001,-5.86980E-002,-2.25020E-003,1.41927E-001,-5.87233E-002,-6.42598E-001,1.42629E-001,1.15227E+000,-2.15672E-002,0.00000E+000,1.33270E-002,9.44879E-001,0.00000E+000,1.87996E-004,-6.47737E-002,1.00000E+000,22
1149,1317,2.15823E+001,-6.75460E-001,-4.21513E-002,7.45469E+000,-1.91758E-001,-4.12160E-003,7.45715E+000,1.15800E-002,4.22632E-001,0,1.12252E+002,-3.97582E+000,9.99060E-001,7.50982E+001,-3.36413E+001,9.97425E-001,1.42971E-001,-5.86931E-002,-2.16424E-003,1.42994E-001,-5.87163E-002,-6.14799E-001,1.43753E-001,1.15350E+000,-2.15427E-002,0.00000E+000,1.34836E-002,9.44882E-001,0.00000E+000,-3.43379E-004,-6.47843E-002,1.00000E+000,22
1149,1327,2.15839E+001,-5.91025E-002,-7.81413E-002,7.43888E+000,-2.23439E-001,-4.34621E-002,7.44237E+000,1.19538E-002,3.99911E-001,0,1.12164E+002,-4.42578E+000,9.98789E-001,7.51256E+001,-3.40104E+001,9.97066E-001,1.44037E-001,-5.86873E-002,-2.07484E-003,1.44059E-001,-5.87086E-002,-5.86328E-001,1.44877E-001,1.15473E+000,-2.15101E-002,0.00000E+000,1.36401E-002,9.44886E-001,0.00000E+000,-8.74744E-004,-6.47984E-002,1.00000E+000,22
1149,1337,2.15954E+001,5.54966E-001,-8.08691E-002,7.42444E+000,-2.66809E-001,-8.29657E-002,7.42970E+000,1.82010E-002,4.85292E-001,0,1.12092E+002,-5.04085E+000,9.98789E-001,7.53575E+001,-3.44351E+001,9.97813E-001,1.45115E-001,-5.86798E-002,-1.97788E-003,1.45134E-001,-5.86990E-002,-5.56000E-001,1.46015E-001,1.15598E+000,-2.14616E-002,0.00000E+000,1.37986E-002,9.44892E-001,0.00000E+000,-1.41240E-003,-6.48193E-002,1.00000E+000,22
1149,1347,2.16213E+001,1.17591E+000,-4.33079E-002,7.41518E+000,-3.07075E-001,-1.19291E-001,7.42250E+000,1.74479E-002,4.93198E-001,0,1.12075E+002,-5.60706E+000,9.98854E-001,7.58781E+001,-3.48832E+001,9.97574E-001,1.46194E-001,-5.86704E-002,-1.87347E-003,1.46211E-001,-5.86875E-002,-5.23906E-001,1.47156E-001,1.15723E+000,-2.13960E-002,0.00000E+000,1.39574E-002,9.44900E-001,0.00000E+000,-1.95157E-003,-6.48476E-002,1.00000E+000,22
699,1347,-1.21990E+001,5.63216E-001,2.47328E-002,2.97072E+000,-6.26053E-001,3.78328E-002,3.03621E+000,1.07780E-002,5.96702E-001,0,4.62339E+001,-1.02806E+001,9.99071E-001,3.18569E+000,-4.91015E+001,9.98979E-001,1.31643E-001,-5.57635E-002,-9.17141E-004,1.31648E-001,-5.57680E-002,-2.80388E-001,1.32159E-001,1.14070E+000,-3.02701E-004,0.00000E+000,-1.40006E-003,9.47973E-001,0.00000E+000,-1.46429E-003,-6.84111E-002,1.00000E+000,22
699,1357,-1.21828E+001,1.17158E+000,3.81364E-002,2.96640E+000,-6.64437E-001,7.95508E-004,3.03990E+000,1.09918E-002,5.66801E-001,0,4.62718E+001,-1.07972E+001,9.98864E-001,3.60576E+000,-4.97903E+001,9.98781E-001,1.30627E-001,-5.57689E-002,-1.02091E-003,1.30632E-001,-5.57745E-002,-3.13803E-001,1.31096E-001,1.13955E+000,-3.38983E-004,0.00000E+000,-1.49999E-003,9.47970E-001,0.00000E+000,-2.50233E-003,-6.84436E-002,1.00000E+000,22
699,1337,-1.22151E+001,-5.14420E-002,4.63306E-002,2.96903E+000,-5.97736E-001,7.69414E-002,3.02958E+000,8.43022E-003,5.71519E-001,0,4.60959E+001,-9.91650E+000,9.98939E-001,2.85797E+000,-4.86163E+001,9.98849E-001,1.32655E-001,-5.57596E-002,-8.18286E-004,1.32659E-001,-5.57632E-002,-2.48830E-001,1.33218E-001,1.14186E+000,-2.76977E-004,0.00000E+000,-1.30042E-003,9.47975E-001,0.00000E+000,-4.29176E-004,-6.83880E-002,1.00000E+000,22
699,1317,-1.22269E+001,-1.23547E+000,1.98125E-001,2.96880E+000,-5.14054E-001,1.68482E-001,3.01768E+000,1.27667E-002,6.14792E-001,0,4.58121E+001,-8.77609E+000,9.99039E-001,2.81963E+000,-4.71363E+001,9.98365E-001,1.34652E-001,-5.57566E-002,-6.35813E-004,1.34654E-001,-5.57587E-002,-1.91319E-001,1.35315E-001,1.14414E+000,-2.56373E-004,0.00000E+000,-1.10308E-003,9.47977E-001,0.00000E+000,1.62079E-003,-6.83695E-002,1.00000E+000,22
699,1327,-1.22216E+001,-6.41113E-001,1.09956E-001,2.96997E+000,-5.54219E-001,1.20107E-001,3.02363E+000,1.02899E-002,6.95548E-001,0,4.59785E+001,-9.33445E+000,9.98934E-001,2.79571E+000,-4.77631E+001,9.97716E-001,1.33653E-001,-5.57577E-002,-7.25895E-004,1.33656E-001,-5.57604E-002,-2.19576E-001,1.34265E-001,1.14300E+000,-2.63657E-004,0.00000E+000,-1.20194E-003,9.47976E-001,0.00000E+000,5.93805E-004,-6.83760E-002,1.00000E+000,22
1159,1307,2.23402E+001,-1.27290E+000,-4.24189E-004,7.56638E+000,-1.46154E-001,3.55145E-002,7.56787E+000,1.42090E-002,3.89372E-001,0,1.13685E+002,-3.32441E+000,9.97617E-001,7.69254E+001,-3.29277E+001,9.96070E-001,1.42449E-001,-5.90073E-002,-2.27798E-003,1.42475E-001,-5.90331E-002,-6.47767E-001,1.43170E-001,1.15292E+000,-2.05968E-002,0.00000E+000,1.25561E-002,9.44629E-001,0.00000E+000,-1.24724E-003,-6.52837E-002,1.00000E+000,22
1159,1317,2.23440E+001,-6.58766E-001,-5.71281E-002,7.55708E+000,-1.79993E-001,-6.86681E-003,7.55923E+000,1.42505E-002,4.40000E-001,0,1.13713E+002,-3.80295E+000,9.97993E-001,7.69547E+001,-3.32463E+001,9.97788E-001,1.43584E-001,-5.90075E-002,-2.26021E-003,1.43609E-001,-5.90327E-002,-6.39116E-001,1.44364E-001,1.15423E+000,-2.05705E-002,0.00000E+000,1.25815E-002,9.44630E-001,0.00000E+000,-1.77620E-003,-6.52943E-002,1.00000E+000,22
1159,1327,2.23537E+001,-4.59399E-002,-7.87156E-002,7.54686E+000,-2.17922E-001,-4.11596E-002,7.55012E+000,9.64430E-003,4.15827E-001,0,1.13689E+002,-4.34287E+000,9.99034E-001,7.71293E+001,-3.36996E+001,9.98494E-001,1.44719E-001,-5.90077E-002,-2.23676E-003,1.44744E-001,-5.90322E-002,-6.28961E-001,1.45561E-001,1.15554E+000,-2.05308E-002,0.00000E+000,1.26069E-002,9.44631E-001,0.00000E+000,-2.30633E-003,-6.53104E-002,1.00000E+000,22
1159,1297,2.23398E+001,-1.87551E+000,7.53647E-002,7.57528E+000,-1.05728E-001,8.20509E-002,7.57646E+000,1.44630E-002,4.37453E-001,0,1.13628E+002,-2.75972E+000,9.98192E-001,7.69794E+001,-3.24221E+001,9.94414E-001,1.41320E-001,-5.90072E-002,-2.29251E-003,1.41346E-001,-5.90334E-002,-6.55571E-001,1.41983E-001,1.15161E+000,-2.06156E-002,0.00000E+000,1.25308E-002,9.44629E-001,0.00000E+000,-7.21681E-004,-6.52761E-002,1.00000E+000,22
1159,1337,2.23755E+001,5.69023E-001,-6.36661E-002,7.53917E+000,-2.60887E-001,-7.67778E-002,7.54407E+000,1.31954E-002,4.33936E-001,0,1.13700E+002,-4.95568E+000,9.99524E-001,7.75491E+001,-3.41806E+001,9.99291E-001,1.45862E-001,-5.90080E-002,-2.20521E-003,1.45886E-001,-5.90317E-002,-6.16633E-001,1.46768E-001,1.15686E+000,-2.04721E-002,0.00000E+000,1.26326E-002,9.44632E-001,0.00000E+000,-2.84074E-003,-6.53340E-002,1.00000E+000,22
1159,1347,2.23935E+001,1.19002E+000,-4.57002E-002,7.52448E+000,-2.98249E-001,-1.21889E-001,7.53138E+000,1.45960E-002,4.44560E-001,0,1.13638E+002,-5.48218E+000,9.99019E-001,7.79128E+001,-3.45824E+001,9.98382E-001,1.47003E-001,-5.90083E-002,-2.17117E-003,1.47026E-001,-5.90311E-002,-6.03755E-001,1.47974E-001,1.15819E+000,-2.04074E-002,0.00000E+000,1.26582E-002,9.44633E-001,0.00000E+000,-3.37499E-003,-6.53602E-002,1.00000E+000,22
689,1347,-1.29307E+001,5.53539E-001,2.53512E-002,2.87991E+000,-6.32078E-001,3.00670E-002,2.94861E+000,9.80572E-003,6.07421E-001,0,4.48754E+001,-1.03359E+001,9.99337E-001,1.98144E+000,-4.93519E+001,9.98733E-001,1.30393E-001,-5.51458E-002,-8.90458E-004,1.30397E-001,-5.51501E-002,-2.74971E-001,1.30913E-001,1.13928E+000,9.37763E-004,0.00000E+000,-2.37949E-003,9.48507E-001,0.00000E+000,-1.45238E-003,-6.76311E-002,1.00000E+000,22
689,1357,-1.29172E+001,1.16100E+000,3.19877E-002,2.87530E+000,-6.68870E-001,-1.97781E-003,2.95208E+000,1.04332E-002,5.90868E-001,0,4.48945E+001,-1.08539E+001,9.98966E-001,2.34463E+000,-5.00351E+001,9.99125E-001,1.29201E-001,-5.51516E-002,-1.01626E-003,1.29207E-001,-5.51572E-002,-3.15837E-001,1.29666E-001,1.13792E+000,8.99956E-004,0.00000E+000,-2.52702E-003,9.48502E-001,0.00000E+000,-2.41236E-003,-6.76579E-002,1.00000E+000,22
689,1337,-1.29433E+001,-4.79798E-002,5.01220E-002,2.88265E+000,-5.89205E-001,7.76543E-002,2.94327E+000,1.06420E-002,5.72141E-001,0,4.47788E+001,-9.77261E+000,9.99170E-001,1.71913E+000,-4.86741E+001,9.99247E-001,1.31585E-001,-5.51409E-002,-7.67071E-004,1.31588E-001,-5.51441E-002,-2.35366E-001,1.32161E-001,1.14064E+000,9.69758E-004,0.00000E+000,-2.23171E-003,9.48510E-001,0.00000E+000,-4.90726E-004,-6.76084E-002,1.00000E+000,22
1169,1327,2.31139E+001,-3.40807E-002,-9.20869E-002,7.64540E+000,-2.11696E-001,-4.95140E-002,7.64849E+000,9.00513E-003,4.25092E-001,0,1.15112E+002,-4.24768E+000,9.99358E-001,7.89685E+001,-3.33857E+001,9.99000E-001,1.45213E-001,-5.92655E-002,-2.18089E-003,1.45237E-001,-5.92888E-002,-6.11003E-001,1.46050E-001,1.15613E+000,-1.94471E-002,0.00000E+000,1.19077E-002,9.44412E-001,0.00000E+000,-3.72801E-003,-6.55516E-002,1.00000E+000,22
1169,1337,2.31396E+001,5.87323E-001,-6.73902E-002,7.63948E+000,-2.48543E-001,-8.29155E-002,7.64397E+000,1.20123E-002,4.30464E-001,0,1.15137E+002,-4.78114E+000,9.99493E-001,7.94611E+001,-3.37922E+001,9.99050E-001,1.46345E-001,-5.92702E-002,-2.18379E-003,1.46369E-001,-5.92934E-002,-6.08432E-001,1.47245E-001,1.15744E+000,-1.93848E-002,0.00000E+000,1.18609E-002,9.44410E-001,0.00000E+000,-4.17322E-003,-6.55727E-002,1.00000E+000,22
1169,1347,2.31662E+001,1.20574E+000,-3.75200E-002,7.63134E+000,-2.90140E-001,-1.23610E-001,7.63786E+000,1.15365E-002,4.18172E-001,0,1.15156E+002,-5.36767E+000,9.98998E-001,7.99758E+001,-3.42695E+001,9.98681E-001,1.47478E-001,-5.92753E-002,-2.18419E-003,1.47501E-001,-5.92984E-002,-6.05197E-001,1.48442E-001,1.15876E+000,-1.93164E-002,0.00000E+000,1.18140E-002,9.44407E-001,0.00000E+000,-4.61922E-003,-6.55959E-002,1.00000E+000,22
689,1327,-1.29621E+001,-6.49427E-001,9.45554E-002,2.87350E+000,-5.54577E-001,1.13889E-001,2.92874E+000,1.16885E-002,6.35531E-001,0,4.45295E+001,-9.30322E+000,9.98601E-001,1.41480E+000,-4.79909E+001,9.98221E-001,1.32762E-001,-5.51379E-002,-6.49982E-004,1.32765E-001,-5.51402E-002,-1.98193E-001,1.33398E-001,1.14198E+000,9.89926E-004,0.00000E+000,-2.08540E-003,9.48512E-001,0.00000E+000,4.61341E-004,-6.75941E-002,1.00000E+000,22
1169,1317,2.31056E+001,-6.49866E-001,-6.21464E-002,7.65683E+000,-1.74337E-001,-8.66590E-003,7.65882E+000,1.68773E-002,3.59009E-001,0,1.15127E+002,-3.72299E+000,9.98744E-001,7.88307E+001,-3.30432E+001,9.98589E-001,1.44084E-001,-5.92621E-002,-2.16821E-003,1.44107E-001,-5.92852E-002,-6.10833E-001,1.44860E-001,1.15482E+000,-1.94860E-002,0.00000E+000,1.19542E-002,9.44413E-001,0.00000E+000,-3.28471E-003,-6.55384E-002,1.00000E+000,22
1169,1307,2.30998E+001,-1.26210E+000,-1.32535E-002,7.66555E+000,-1.41162E-001,3.17660E-002,7.66691E+000,1.43436E-002,4.22157E-001,0,1.15100E+002,-3.25057E+000,9.98749E-001,7.87573E+001,-3.26235E+001,9.97787E-001,1.42965E-001,-5.92593E-002,-2.15166E-003,1.42988E-001,-5.92822E-002,-6.09530E-001,1.43682E-001,1.15353E+000,-1.95150E-002,0.00000E+000,1.20004E-002,9.44414E-001,0.00000E+000,-2.84602E-003,-6.55285E-002,1.00000E+000,22
1169,1297,2.31026E+001,-1.86404E+000,7.17563E-002,7.67686E+000,-9.90096E-002,8.37749E-002,7.67796E+000,1.20187E-002,4.76213E-001,0,1.15054E+002,-2.69461E+000,9.98927E-001,7.88756E+001,-3.21256E+001,9.96292E-001,1.41845E-001,-5.92572E-002,-2.12997E-003,1.41868E-001,-5.92798E-002,-6.06757E-001,1.42505E-001,1.15224E+000,-1.95319E-002,0.00000E+000,1.20465E-002,9.44415E-001,0.00000E+000,-2.40741E-003,-6.55228E-002,1.00000E+000,22
689,1317,-1.29678E+001,-1.24289E+000,1.83319E-001,2.87154E+000,-5.15328E-001,1.62162E-001,2.92191E+000,1.32326E-002,5.99994E-001,0,4.43525E+001,-8.75909E+000,9.98691E-001,1.43203E+000,-4.73277E+001,9.97025E-001,1.33935E-001,-5.51369E-002,-5.38404E-004,1.33937E-001,-5.51385E-002,-1.63155E-001,1.34631E-001,1.14332E+000,9.98028E-004,0.00000E+000,-1.93941E-003,9.48513E-001,0.00000E+000,1.41135E-003,-6.75884E-002,1.00000E+000,22
679,1347,-1.36700E+001,5.47820E-001,1.85979E-002,2.78302E+000,-6.29366E-001,2.48410E-002,2.85341E+000,1.62176E-002,6.31450E-001,0,4.34111E+001,-1.03187E+001,9.98573E-001,6.46996E-001,-4.95199E+001,9.98278E-001,1.29117E-001,-5.45818E-002,-9.22306E-004,1.29122E-001,-5.45864E-002,-2.87658E-001,1.29634E-001,1.13782E+000,2.25765E-003,0.00000E+000,-3.53201E-003,9.48990E-001,0.00000E+000,-1.56777E-003,-6.68776E-002,1.00000E+000,22
679,1357,-1.36439E+001,1.15612E+000,2.63972E-002,2.79260E+000,-6.66424E-001,2.15772E-003,2.87102E+000,8.05439E-003,6.03429E-001,0,4.36245E+001,-1.08184E+001,9.99016E-001,1.20811E+000,-5.01983E+001,9.99050E-001,1.27669E-001,-5.45916E-002,-1.15379E-003,1.27676E-001,-5.45989E-002,-3.62689E-001,1.28121E-001,1.13618E+000,2.21584E-003,0.00000E+000,-3.87770E-003,9.48981E-001,0.00000E+000,-2.56200E-003,-6.69028E-002,1.00000E+000,22
1179,1297,2.38573E+001,-1.85689E+000,4.47515E-002,7.77445E+000,-9.42520E-002,8.02259E-002,7.77544E+000,1.98501E-002,5.23118E-001,0,1.16444E+002,-2.64944E+000,9.99368E-001,8.06138E+001,-3.18432E+001,9.96982E-001,1.42262E-001,-5.93926E-002,-2.04647E-003,1.42283E-001,-5.94133E-002,-5.81379E-001,1.42926E-001,1.15274E+000,-1.86546E-002,0.00000E+000,1.15802E-002,9.44322E-001,0.00000E+000,-3.99761E-003,-6.59782E-002,1.00000E+000,22
1179,1307,2.38628E+001,-1.25315E+000,-2.26923E-002,7.76895E+000,-1.33924E-001,3.58960E-002,7.77019E+000,9.13490E-003,3.55167E-001,0,1.16543E+002,-3.16379E+000,9.99489E-001,8.06529E+001,-3.24049E+001,9.98202E-001,1.43308E-001,-5.93927E-002,-2.03265E-003,1.43329E-001,-5.94131E-002,-5.74475E-001,1.44025E-001,1.15395E+000,-1.86341E-002,0.00000E+000,1.15930E-002,9.44322E-001,0.00000E+000,-4.31089E-003,-6.59835E-002,1.00000E+000,22
1179,1317,2.38650E+001,-6.40433E-001,-9.47794E-002,7.76115E+000,-1.65681E-001,-9.04551E-003,7.76292E+000,2.13808E-002,3.58992E-001,0,1.16608E+002,-3.61523E+000,9.99392E-001,8.06334E+001,-3.27318E+001,9.98671E-001,1.44355E-001,-5.93929E-002,-2.01963E-003,1.44375E-001,-5.94129E-002,-5.67865E-001,1.45126E-001,1.15516E+000,-1.86154E-002,0.00000E+000,1.16058E-002,9.44322E-001,0.00000E+000,-4.62478E-003,-6.59883E-002,1.00000E+000,22
1179,1337,2.39057E+001,5.96852E-001,-8.05842E-002,7.74201E+000,-2.44331E-001,-9.61341E-002,7.74646E+000,1.05548E-002,4.16626E-001,0,1.16637E+002,-4.71573E+000,9.99276E-001,8.13952E+001,-3.35240E+001,9.98129E-001,1.46475E-001,-5.93934E-002,-1.96240E-003,1.46494E-001,-5.94121E-002,-5.46093E-001,1.47362E-001,1.15761E+000,-1.85051E-002,0.00000E+000,1.16318E-002,9.44323E-001,0.00000E+000,-5.26209E-003,-6.60170E-002,1.00000E+000,22
1179,1347,2.39428E+001,1.22115E+000,-3.93800E-002,7.74170E+000,-2.82909E-001,-1.34839E-001,7.74804E+000,1.01279E-002,4.18903E-001,0,1.16762E+002,-5.25005E+000,9.99353E-001,8.20879E+001,-3.39251E+001,9.98799E-001,1.47539E-001,-5.93938E-002,-1.92802E-003,1.47557E-001,-5.94117E-002,-5.33771E-001,1.48487E-001,1.15885E+000,-1.84362E-002,0.00000E+000,1.16449E-002,9.44324E-001,0.00000E+000,-5.58246E-003,-6.60348E-002,1.00000E+000,22
679,1327,-1.36949E+001,-6.55412E-001,1.01296E-001,2.78213E+000,-5.54810E-001,1.18654E-001,2.83939E+000,1.42331E-002,5.91448E-001,0,4.31248E+001,-9.29387E+000,9.98200E-001,2.14696E-001,-4.82215E+001,9.97400E-001,1.31982E-001,-5.45681E-002,-4.72809E-004,1.31983E-001,-5.45693E-002,-1.45214E-001,1.32641E-001,1.14109E+000,2.31853E-003,0.00000E+000,-2.84589E-003,9.49003E-001,0.00000E+000,4.05594E-004,-6.68407E-002,1.00000E+000,22
679,1337,-1.36819E+001,-5.43083E-002,4.50541E-002,2.78643E+000,-5.89772E-001,7.54709E-002,2.84916E+000,1.56748E-002,5.88468E-001,0,4.33185E+001,-9.76857E+000,9.98646E-001,3.97965E-001,-4.88572E+001,9.98536E-001,1.30555E-001,-5.45728E-002,-6.93296E-004,1.30557E-001,-5.45754E-002,-2.14567E-001,1.31141E-001,1.13946E+000,2.29651E-003,0.00000E+000,-3.18806E-003,9.48998E-001,0.00000E+000,-5.78542E-004,-6.68540E-002,1.00000E+000,22
1179,1327,2.38796E+001,-2.73443E-002,-9.70503E-002,7.74995E+000,-2.07658E-001,-4.59899E-002,7.75287E+000,1.46988E-002,4.11124E-001,0,1.16577E+002,-4.23906E+000,9.99317E-001,8.09107E+001,-3.31808E+001,9.97528E-001,1.45412E-001,-5.93931E-002,-1.99420E-003,1.45432E-001,-5.94125E-002,-5.57821E-001,1.46241E-001,1.15638E+000,-1.85677E-002,0.00000E+000,1.16187E-002,9.44323E-001,0.00000E+000,-4.94239E-003,-6.60007E-002,1.00000E+000,22
679,1317,-1.37015E+001,-1.24905E+000,1.88270E-001,2.77942E+000,-5.16028E-001,1.65798E-001,2.83178E+000,1.17903E-002,6.17330E-001,0,4.29406E+001,-8.78323E+000,9.98804E-001,2.14744E-001,-4.75247E+001,9.97239E-001,1.33402E-001,-5.45665E-002,-2.58276E-004,1.33402E-001,-5.45668E-002,-7.87263E-002,1.34136E-001,1.14271E+000,2.32849E-003,0.00000E+000,-2.50476E-003,9.49005E-001,0.00000E+000,1.38673E-003,-6.68347E-002,1.00000E+000,22
669,1327,-1.44232E+001,-6.67863E-001,1.08394E-001,2.69567E+000,-5.60453E-001,1.27743E-001,2.75627E+000,1.07669E-002,5.66636E-001,0,4.17842E+001,-9.39704E+000,9.99353E-001,-9.10837E-001,-4.85423E+001,9.98761E-001,1.31088E-001,-5.40759E-002,-2.36826E-004,1.31088E-001,-5.40762E-002,-7.32816E-002,1.31756E-001,1.14006E+000,4.28027E-003,0.00000E+000,-4.00626E-003,9.49408E-001,0.00000E+000,9.47658E-005,-6.59186E-002,1.00000E+000,22
669,1337,-1.44127E+001,-5.96267E-002,5.12273E-002,2.69714E+000,-5.90245E-001,8.13144E-002,2.76217E+000,9.68676E-003,6.01624E-001,0,4.19406E+001,-9.77357E+000,9.98920E-001,-7.66175E-001,-4.90497E+001,9.98926E-001,1.29353E-001,-5.40815E-002,-5.21644E-004,1.29354E-001,-5.40830E-002,-1.62934E-001,1.29932E-001,1.13808E+000,4.25251E-003,0.00000E+000,-4.47536E-003,9.49401E-001,0.00000E+000,-8.13498E-004,-6.59314E-002,1.00000E+000,22
669,1347,-1.43978E+001,5.42075E-001,2.08909E-002,2.70007E+000,-6.27483E-001,4.52089E-002,2.77239E+000,8.66623E-003,5.85807E-001,0,4.20908E+001,-1.02886E+001,9.98840E-001,-4.82201E-001,-4.97414E+001,9.98664E-001,1.27614E-001,-5.40894E-002,-8.10351E-004,1.27618E-001,-5.40930E-002,-2.55518E-001,1.28110E-001,1.13611E+000,4.21594E-003,0.00000E+000,-4.94434E-003,9.49393E-001,0.00000E+000,-1.72153E-003,-6.59482E-002,1.00000E+000,22
669,1357,-1.43734E+001,1.15663E+000,2.98138E-002,2.70503E+000,-6.58336E-001,6.40767E-003,2.78399E+000,8.99324E-003,5.85508E-001,0,4.22742E+001,-1.07036E+001,9.98740E-001,5.82209E-002,-5.03145E+001,9.98792E-001,1.25861E-001,-5.41035E-002,-1.11079E-003,1.25868E-001,-5.41104E-002,-3.53625E-001,1.26280E-001,1.13412E+000,4.15656E-003,0.00000E+000,-5.41606E-003,9.49378E-001,0.00000E+000,-2.63488E-003,-6.59755E-002,1.00000E+000,22
1189,1337,2.46779E+001,6.07291E-001,-9.41388E-002,7.84963E+000,-2.41461E-001,-1.11398E-001,7.85413E+000,1.36440E-002,4.16700E-001,0,1.18220E+002,-4.64371E+000,9.99371E-001,8.34281E+001,-3.32335E+001,9.98498E-001,1.46255E-001,-5.96519E-002,-1.75984E-003,1.46270E-001,-5.96670E-002,-4.89648E-001,1.47094E-001,1.15737E+000,-1.77353E-002,0.00000E+000,1.14375E-002,9.44087E-001,0.00000E+000,-6.00113E-003,-6.61114E-002,1.00000E+000,22
669,1317,-1.44270E+001,-1.25629E+000,2.05899E-001,2.69452E+000,-5.16916E-001,1.78597E-001,2.74946E+000,1.32560E-002,5.78619E-001,0,4.16129E+001,-8.82453E+000,9.99273E-001,-8.36936E-001,-4.77921E+001,9.98686E-001,1.32809E-001,-5.40758E-002,3.77969E-005,1.32809E-001,-5.40758E-002,1.15879E-002,1.33570E-001,1.14202E+000,4.28849E-003,0.00000E+000,-3.53990E-003,9.49410E-001,0.00000E+000,9.97716E-004,-6.59149E-002,1.00000E+000,22
1189,1297,2.46304E+001,-1.84667E+000,5.66662E-002,7.87976E+000,-9.01991E-002,7.55773E-002,7.88064E+000,1.40429E-002,4.64097E-001,0,1.17941E+002,-2.59003E+000,9.99205E-001,8.27012E+001,-3.16472E+001,9.96759E-001,1.42625E-001,-5.96425E-002,-1.72934E-003,1.42640E-001,-5.96573E-002,-4.89818E-001,1.43274E-001,1.15317E+000,-1.78591E-002,0.00000E+000,1.16239E-002,9.44093E-001,0.00000E+000,-5.58764E-003,-6.60992E-002,1.00000E+000,22
1189,1307,2.46238E+001,-1.24515E+000,-3.71124E-002,7.86661E+000,-1.32755E-001,2.29147E-002,7.86777E+000,1.06580E-002,4.18320E-001,0,1.17967E+002,-3.14523E+000,9.98755E-001,8.25122E+001,-3.21256E+001,9.98104E-001,1.43528E-001,-5.96438E-002,-1.74548E-003,1.43543E-001,-5.96588E-002,-4.92190E-001,1.44222E-001,1.15422E+000,-1.78484E-002,0.00000E+000,1.15776E-002,9.44092E-001,0.00000E+000,-5.69025E-003,-6.61002E-002,1.00000E+000,22
1189,1317,2.46420E+001,-6.20362E-001,-7.09541E-002,7.86533E+000,-1.60700E-001,-2.02912E-002,7.86700E+000,1.22244E-002,4.68121E-001,0,1.18111E+002,-3.52300E+000,9.99334E-001,8.27997E+001,-3.23215E+001,9.99219E-001,1.44437E-001,-5.96462E-002,-1.75304E-003,1.44452E-001,-5.96612E-002,-4.92112E-001,1.45179E-001,1.15527E+000,-1.78173E-002,0.00000E+000,1.15309E-002,9.44091E-001,0.00000E+000,-5.79385E-003,-6.61033E-002,1.00000E+000,22
1189,1327,2.46583E+001,-1.08308E-002,-9.14468E-002,7.85799E+000,-2.04086E-001,-6.62375E-002,7.86092E+000,1.47937E-002,4.64598E-001,0,1.18178E+002,-4.13902E+000,9.99488E-001,8.30744E+001,-3.28125E+001,9.99060E-001,1.45345E-001,-5.96489E-002,-1.75787E-003,1.45360E-001,-5.96640E-002,-4.91275E-001,1.46135E-001,1.15632E+000,-1.77797E-002,0.00000E+000,1.14843E-002,9.44089E-001,0.00000E+000,-5.89735E-003,-6.61070E-002,1.00000E+000,22
659,1327,-1.51501E+001,-6.57696E-001,1.10216E-001,2.60889E+000,-5.45748E-001,1.24828E-001,2.66829E+000,1.63193E-002,5.66496E-001,0,4.04649E+001,-9.14744E+000,9.99109E-001,-2.02046E+000,-4.84917E+001,9.97776E-001,1.29946E-001,-5.37461E-002,-1.97339E-004,1.29947E-001,-5.37463E-002,-6.15521E-002,1.30592E-001,1.13875E+000,6.30143E-003,0.00000E+000,-5.59331E-003,9.49685E-001,0.00000E+000,-2.52371E-004,-6.54629E-002,1.00000E+000,22
659,1337,-1.51223E+001,-7.05532E-002,7.70325E-002,2.62773E+000,-5.96570E-001,1.02178E-001,2.69654E+000,2.29414E-002,6.48081E-001,0,4.08294E+001,-9.93026E+000,9.98792E-001,-1.54973E+000,-4.93513E+001,9.98695E-001,1.28077E-001,-5.37507E-002,-4.88713E-004,1.28078E-001,-5.37520E-002,-1.53997E-001,1.28628E-001,1.13662E+000,6.27176E-003,0.00000E+000,-6.08398E-003,9.49678E-001,0.00000E+000,-1.05429E-003,-6.54741E-002,1.00000E+000,22
659,1347,-1.51131E+001,5.39790E-001,4.16489E-002,2.62499E+000,-6.24867E-001,6.00784E-002,2.69901E+000,1.23928E-002,6.13078E-001,0,4.09050E+001,-1.02852E+001,9.99342E-001,-1.36284E+000,-4.99119E+001,9.99291E-001,1.26204E-001,-5.37578E-002,-7.84282E-004,1.26208E-001,-5.37613E-002,-2.49691E-001,1.26668E-001,1.13450E+000,6.23229E-003,0.00000E+000,-6.57429E-003,9.49669E-001,0.00000E+000,-1.85560E-003,-6.54890E-002,1.00000E+000,22
659,1357,-1.50962E+001,1.15648E+000,4.00280E-002,2.62324E+000,-6.52773E-001,1.39332E-002,2.70328E+000,8.39349E-003,5.83444E-001,0,4.10036E+001,-1.06235E+001,9.99163E-001,-9.63359E-001,-5.04470E+001,9.99205E-001,1.24317E-001,-5.37707E-002,-1.09111E-003,1.24324E-001,-5.37774E-002,-3.51023E-001,1.24700E-001,1.13236E+000,6.17089E-003,0.00000E+000,-7.06723E-003,9.49654E-001,0.00000E+000,-2.66122E-003,-6.55122E-002,1.00000E+000,22
1199,1307,2.53906E+001,-1.23325E+000,-3.59664E-002,7.96655E+000,-1.28916E-001,1.35824E-002,7.96761E+000,1.42495E-002,4.37837E-001,0,1.19403E+002,-3.07966E+000,9.98789E-001,8.44899E+001,-3.18407E+001,9.97809E-001,1.43603E-001,-5.96276E-002,-1.37669E-003,1.43613E-001,-5.96369E-002,-3.88098E-001,1.44298E-001,1.15432E+000,-1.68753E-002,0.00000E+000,1.15347E-002,9.44095E-001,0.00000E+000,-6.52345E-003,-6.58978E-002,1.00000E+000,22
1199,1317,2.54013E+001,-6.20227E-001,-8.40693E-002,7.96004E+000,-1.65731E-001,-3.45768E-002,7.96184E+000,1.25448E-002,4.25671E-001,0,1.19497E+002,-3.57948E+000,9.98271E-001,8.46377E+001,-3.22186E+001,9.97003E-001,1.44411E-001,-5.96311E-002,-1.40484E-003,1.44420E-001,-5.96407E-002,-3.94460E-001,1.45148E-001,1.15525E+000,-1.68508E-002,0.00000E+000,1.14443E-002,9.44092E-001,0.00000E+000,-6.43058E-003,-6.58954E-002,1.00000E+000,22
1199,1327,2.54184E+001,-2.72753E-003,-1.14071E-001,7.95724E+000,-1.99158E-001,-7.54055E-002,7.96009E+000,1.30851E-002,4.10327E-001,0,1.19612E+002,-4.05096E+000,9.98838E-001,8.49127E+001,-3.25688E+001,9.97809E-001,1.45218E-001,-5.96349E-002,-1.43138E-003,1.45228E-001,-5.96449E-002,-4.00319E-001,1.45998E-001,1.15619E+000,-1.68225E-002,0.00000E+000,1.13538E-002,9.44090E-001,0.00000E+000,-6.33763E-003,-6.58926E-002,1.00000E+000,22
659,1317,-1.51633E+001,-1.25790E+000,1.84786E-001,2.60078E+000,-5.13058E-001,1.66751E-001,2.65615E+000,1.29997E-002,6.12342E-001,0,4.02158E+001,-8.72857E+000,9.98338E-001,-2.15587E+000,-4.78565E+001,9.95728E-001,1.31801E-001,-5.37447E-002,8.67484E-005,1.31801E-001,-5.37448E-002,2.67875E-002,1.32546E-001,1.14086E+000,6.31820E-003,0.00000E+000,-5.10539E-003,9.49688E-001,0.00000E+000,5.45039E-004,-6.54566E-002,1.00000E+000,22
1199,1337,2.54515E+001,6.20801E-001,-8.68734E-002,7.95547E+000,-2.36408E-001,-1.16125E-001,7.95982E+000,1.07812E-002,4.30294E-001,0,1.19727E+002,-4.57768E+000,9.99312E-001,8.55163E+001,-3.29347E+001,9.98094E-001,1.46034E-001,-5.96408E-002,-1.44943E-003,1.46044E-001,-5.96510E-002,-4.03750E-001,1.46858E-001,1.15713E+000,-1.67732E-002,0.00000E+000,1.12623E-002,9.44085E-001,0.00000E+000,-6.24368E-003,-6.58877E-002,1.00000E+000,22
1199,1297,2.53957E+001,-1.83066E+000,4.91203E-002,7.97900E+000,-8.16018E-002,6.01900E-002,7.97964E+000,1.10160E-002,4.51384E-001,0,1.19389E+002,-2.42278E+000,9.98649E-001,8.46438E+001,-3.12975E+001,9.97200E-001,1.42799E-001,-5.96254E-002,-1.34273E-003,1.42808E-001,-5.96343E-002,-3.80034E-001,1.43453E-001,1.15339E+000,-1.68858E-002,0.00000E+000,1.16246E-002,9.44096E-001,0.00000E+000,-6.61586E-003,-6.58989E-002,1.00000E+000,22
649,1347,-1.58469E+001,5.43848E-001,3.47002E-002,2.53126E+000,-6.16105E-001,4.88430E-002,2.60562E+000,1.25088E-002,6.59715E-001,0,3.94991E+001,-1.01274E+001,9.99070E-001,-2.59718E+000,-4.99178E+001,9.98030E-001,1.24665E-001,-5.32972E-002,-7.03639E-004,1.24668E-001,-5.33000E-002,-2.26535E-001,1.25104E-001,1.13274E+000,8.48700E-003,0.00000E+000,-8.29673E-003,9.50058E-001,0.00000E+000,-2.16520E-003,-6.49310E-002,1.00000E+000,22
649,1357,-1.58251E+001,1.15537E+000,4.69540E-002,2.53501E+000,-6.48133E-001,1.90988E-002,2.61662E+000,8.42438E-003,5.93177E-001,0,3.96382E+001,-1.05564E+001,9.99307E-001,-2.08405E+000,-5.05824E+001,9.98861E-001,1.22553E-001,-5.33084E-002,-1.01085E-003,1.22559E-001,-5.33142E-002,-3.29320E-001,1.22903E-001,1.13036E+000,8.42068E-003,0.00000E+000,-8.79467E-003,9.50044E-001,0.00000E+000,-2.92611E-003,-6.49521E-002,1.00000E+000,22
649,1337,-1.58667E+001,-6.19026E-002,6.76768E-002,2.52317E+000,-5.81694E-001,8.74935E-002,2.59083E+000,1.35766E-002,6.07328E-001,0,3.92636E+001,-9.65304E+000,9.99154E-001,-2.95143E+000,-4.93248E+001,9.98479E-001,1.26769E-001,-5.32914E-002,-4.07149E-004,1.26770E-001,-5.32923E-002,-1.29555E-001,1.27305E-001,1.13513E+000,8.53016E-003,0.00000E+000,-7.79948E-003,9.50067E-001,0.00000E+000,-1.40534E-003,-6.49172E-002,1.00000E+000,22
649,1327,-1.58857E+001,-6.51055E-001,1.09852E-001,2.51264E+000,-5.35291E-001,1.17027E-001,2.57169E+000,1.08787E-002,5.96237E-001,0,3.90106E+001,-8.96236E+000,9.99440E-001,-3.26382E+000,-4.84771E+001,9.99174E-001,1.28857E-001,-5.32883E-002,-1.17426E-004,1.28857E-001,-5.32883E-002,-3.69375E-002,1.29498E-001,1.13750E+000,8.56146E-003,0.00000E+000,-7.30484E-003,9.50073E-001,0.00000E+000,-6.49463E-004,-6.49072E-002,1.00000E+000,22
1209,1307,2.61592E+001,-1.21787E+000,-3.89225E-002,8.06856E+000,-1.20332E-001,2.75877E-003,8.06945E+000,1.10124E-002,4.42329E-001,0,1.20873E+002,-2.94514E+000,9.98987E-001,8.64952E+001,-3.15002E+001,9.97896E-001,1.43374E-001,-5.92947E-002,-9.76046E-004,1.43378E-001,-5.92994E-002,-2.75927E-001,1.44090E-001,1.15407E+000,-1.58338E-002,0.00000E+000,1.14699E-002,9.44386E-001,0.00000E+000,-6.82468E-003,-6.55178E-002,1.00000E+000,22
1209,1317,2.61680E+001,-6.11085E-001,-8.98167E-002,8.06180E+000,-1.62588E-001,-4.11610E-002,8.06355E+000,1.25583E-002,4.27797E-001,0,1.20951E+002,-3.53725E+000,9.98978E-001,8.66078E+001,-3.19689E+001,9.96974E-001,1.44197E-001,-5.92974E-002,-9.97008E-004,1.44202E-001,-5.93022E-002,-2.80708E-001,1.44957E-001,1.15502E+000,-1.58112E-002,0.00000E+000,1.13842E-002,9.44384E-001,0.00000E+000,-6.55253E-003,-6.55113E-002,1.00000E+000,22
1209,1327,2.61944E+001,1.27170E-002,-1.04934E-001,8.06356E+000,-1.91989E-001,-8.47612E-002,8.06629E+000,1.20631E-002,3.88782E-001,0,1.21139E+002,-3.93838E+000,9.99158E-001,8.70481E+001,-3.22629E+001,9.98034E-001,1.45022E-001,-5.93010E-002,-1.01243E-003,1.45027E-001,-5.93060E-002,-2.83894E-001,1.45827E-001,1.15598E+000,-1.57755E-002,0.00000E+000,1.12982E-002,9.44380E-001,0.00000E+000,-6.27938E-003,-6.55011E-002,1.00000E+000,22
1209,1337,2.62266E+001,6.34174E-001,-7.61209E-002,8.06040E+000,-2.32794E-001,-1.24882E-001,8.06473E+000,1.22340E-002,4.42866E-001,0,1.21233E+002,-4.52145E+000,9.99085E-001,8.76377E+001,-3.26464E+001,9.97251E-001,1.45856E-001,-5.93058E-002,-1.02168E-003,1.45861E-001,-5.93109E-002,-2.85316E-001,1.46706E-001,1.15694E+000,-1.57245E-002,0.00000E+000,1.12113E-002,9.44376E-001,0.00000E+000,-6.00328E-003,-6.54864E-002,1.00000E+000,22
1209,1297,2.61629E+001,-1.81794E+000,3.92189E-002,8.08136E+000,-7.39681E-002,4.92967E-002,8.08185E+000,1.03131E-002,4.15386E-001,0,1.20866E+002,-2.29026E+000,9.98978E-001,8.66155E+001,-3.10058E+001,9.97256E-001,1.42551E-001,-5.92928E-002,-9.51228E-004,1.42556E-001,-5.92973E-002,-2.70009E-001,1.43225E-001,1.15313E+000,-1.58471E-002,0.00000E+000,1.15555E-002,9.44387E-001,0.00000E+000,-7.09626E-003,-6.55216E-002,1.00000E+000,22
649,1317,-1.58913E+001,-1.25236E+000,1.90706E-001,2.51070E+000,-5.04928E-001,1.57766E-001,2.56582E+000,9.07839E-003,6.20617E-001,0,3.88617E+001,-8.56812E+000,9.99079E-001,-3.26630E+000,-4.78798E+001,9.98920E-001,1.30933E-001,-5.32892E-002,1.63651E-004,1.30933E-001,-5.32894E-002,5.08977E-002,1.31686E-001,1.13986E+000,8.57517E-003,0.00000E+000,-6.81175E-003,9.50076E-001,0.00000E+000,1.04033E-004,-6.49029E-002,1.00000E+000,22
639,1347,-1.65774E+001,5.47556E-001,2.86026E-002,2.44152E+000,-6.06164E-001,4.45083E-002,2.51604E+000,1.28026E-002,6.12239E-001,0,3.81343E+001,-9.92960E+000,9.98613E-001,-3.77342E+000,-4.99776E+001,9.97887E-001,1.23227E-001,-5.27175E-002,-6.41613E-004,1.23229E-001,-5.27199E-002,-2.08936E-001,1.23657E-001,1.13109E+000,1.09759E-002,0.00000E+000,-1.02617E-002,9.50536E-001,0.00000E+000,-2.44281E-003,-6.40676E-002,1.00000E+000,22
639,1357,-1.65527E+001,1.16228E+000,4.42358E-002,2.44819E+000,-6.35603E-001,1.70840E-002,2.52941E+000,8.32347E-003,5.91044E-001,0,3.83112E+001,-1.03360E+001,9.99108E-001,-3.20349E+000,-5.05791E+001,9.98911E-001,1.20946E-001,-5.27276E-002,-9.50896E-004,1.20952E-001,-5.27329E-002,-3.13692E-001,1.21282E-001,1.12852E+000,1.09044E-002,0.00000E+000,-1.07626E-002,9.50522E-001,0.00000E+000,-3.25907E-003,-6.40902E-002,1.00000E+000,22
639,1317,-1.66146E+001,-1.25782E+000,2.11107E-001,2.42527E+000,-5.09025E-001,1.64968E-001,2.48360E+000,1.25525E-002,7.04257E-001,0,3.75367E+001,-8.65103E+000,9.99000E-001,-4.26120E+000,-4.80651E+001,9.98108E-001,1.29973E-001,-5.27158E-002,2.20678E-004,1.29973E-001,-5.27161E-002,6.92100E-002,1.30743E-001,1.13874E+000,1.10593E-002,0.00000E+000,-8.77191E-003,9.50552E-001,0.00000E+000,-1.51949E-005,-6.40411E-002,1.00000E+000,22
639,1327,-1.66070E+001,-6.65144E-001,1.25524E-001,2.43061E+000,-5.44626E-001,1.27256E-001,2.49413E+000,9.31677E-003,6.18423E-001,0,3.77312E+001,-9.13558E+000,9.99235E-001,-4.24440E+000,-4.88175E+001,9.98464E-001,1.27744E-001,-5.27123E-002,-5.67247E-005,1.27744E-001,-5.27124E-002,-1.80104E-002,1.28393E-001,1.13621E+000,1.10502E-002,0.00000E+000,-9.26538E-003,9.50551E-001,0.00000E+000,-8.19319E-004,-6.40440E-002,1.00000E+000,22
639,1337,-1.65969E+001,-5.85916E-002,5.81532E-002,2.43416E+000,-5.73856E-001,8.29523E-002,2.50227E+000,1.06031E-002,6.48059E-001,0,3.79121E+001,-9.50247E+000,9.99008E-001,-4.13364E+000,-4.93374E+001,9.98387E-001,1.25489E-001,-5.27126E-002,-3.44256E-004,1.25490E-001,-5.27132E-002,-1.10685E-001,1.26024E-001,1.13365E+000,1.10239E-002,0.00000E+000,-9.76336E-003,9.50545E-001,0.00000E+000,-1.63079E-003,-6.40523E-002,1.00000E+000,22
1219,1317,2.69433E+001,-5.96661E-001,-8.13707E-002,8.16801E+000,-1.58482E-001,-4.72938E-002,8.16969E+000,1.51120E-002,4.81694E-001,0,1.22463E+002,-3.47171E+000,9.99051E-001,8.87360E+001,-3.16414E+001,9.96917E-001,1.43824E-001,-5.92498E-002,-5.29994E-004,1.43825E-001,-5.92512E-002,-1.49533E-001,1.44567E-001,1.15461E+000,-1.46057E-002,0.00000E+000,1.12738E-002,9.44385E-001,0.00000E+000,-6.28585E-003,-6.47885E-002,1.00000E+000,22
1219,1327,2.69658E+001,2.45802E-002,-1.04333E-001,8.16776E+000,-1.88397E-001,-9.07624E-002,8.17043E+000,7.89609E-003,4.04804E-001,0,1.22623E+002,-3.88024E+000,9.99587E-001,8.91023E+001,-3.19759E+001,9.98582E-001,1.44604E-001,-5.92516E-002,-5.31248E-004,1.44605E-001,-5.92530E-002,-1.49312E-001,1.45388E-001,1.15550E+000,-1.45745E-002,0.00000E+000,1.12074E-002,9.44382E-001,0.00000E+000,-5.80635E-003,-6.47718E-002,1.00000E+000,22
1219,1337,2.70006E+001,6.49953E-001,-7.39907E-002,8.16634E+000,-2.25858E-001,-1.31899E-001,8.17053E+000,1.11371E-002,4.63045E-001,0,1.22746E+002,-4.41343E+000,9.99218E-001,8.97329E+001,-3.22981E+001,9.97821E-001,1.45393E-001,-5.92542E-002,-5.24865E-004,1.45394E-001,-5.92556E-002,-1.46947E-001,1.46220E-001,1.15641E+000,-1.45250E-002,0.00000E+000,1.11401E-002,9.44379E-001,0.00000E+000,-5.32016E-003,-6.47454E-002,1.00000E+000,22
1219,1297,2.69344E+001,-1.80525E+000,3.53740E-002,8.18647E+000,-6.83584E-002,4.03197E-002,8.18686E+000,1.12648E-002,3.90896E-001,0,1.22373E+002,-2.17747E+000,9.99014E-001,8.86682E+001,-3.07211E+001,9.97185E-001,1.42262E-001,-5.92472E-002,-5.16938E-004,1.42263E-001,-5.92486E-002,-1.46981E-001,1.42924E-001,1.15281E+000,-1.46433E-002,0.00000E+000,1.14067E-002,9.44387E-001,0.00000E+000,-7.24487E-003,-6.48086E-002,1.00000E+000,22
1219,1307,2.69365E+001,-1.20243E+000,-2.65824E-002,8.17680E+000,-1.13674E-001,4.16819E-004,8.17759E+000,1.44544E-002,4.22603E-001,0,1.22397E+002,-2.83204E+000,9.99004E-001,8.86597E+001,-3.12033E+001,9.96601E-001,1.43042E-001,-5.92484E-002,-5.24586E-004,1.43044E-001,-5.92498E-002,-1.48580E-001,1.43744E-001,1.15371E+000,-1.46271E-002,0.00000E+000,1.13403E-002,9.44386E-001,0.00000E+000,-6.76598E-003,-6.48000E-002,1.00000E+000,22
629,1347,-1.73018E+001,5.43650E-001,2.58306E-002,2.35795E+000,-6.03704E-001,4.61658E-002,2.43444E+000,1.17992E-002,6.03705E-001,0,3.68492E+001,-9.87938E+000,9.98264E-001,-4.84427E+000,-5.01415E+001,9.97711E-001,1.22026E-001,-5.30739E-002,-6.35682E-004,1.22029E-001,-5.30762E-002,-2.08002E-001,1.22373E-001,1.12971E+000,1.35545E-002,0.00000E+000,-1.24190E-002,9.50132E-001,0.00000E+000,-2.45321E-003,-6.34196E-002,1.00000E+000,22
629,1357,-1.72738E+001,1.15793E+000,4.06857E-002,2.36774E+000,-6.33676E-001,1.61320E-002,2.45112E+000,9.82597E-003,5.87374E-001,0,3.70817E+001,-1.02902E+001,9.98489E-001,-4.22500E+000,-5.07470E+001,9.98246E-001,1.19851E-001,-5.30777E-002,-7.75480E-004,1.19854E-001,-5.30812E-002,-2.56930E-001,1.20115E-001,1.12726E+000,1.34861E-002,0.00000E+000,-1.26048E-002,9.50127E-001,0.00000E+000,-3.24833E-003,-6.34418E-002,1.00000E+000,22
629,1327,-1.73325E+001,-6.64108E-001,1.19727E-001,2.34538E+000,-5.37815E-001,1.23771E-001,2.40943E+000,1.00049E-002,5.79591E-001,0,3.64347E+001,-8.99293E+000,9.98645E-001,-5.33990E+000,-4.89106E+001,9.98091E-001,1.26338E-001,-5.30731E-002,-3.87547E-004,1.26338E-001,-5.30740E-002,-1.23765E-001,1.26875E-001,1.13459E+000,1.36229E-002,0.00000E+000,-1.20493E-002,9.50137E-001,0.00000E+000,-8.71674E-004,-6.33974E-002,1.00000E+000,22
629,1337,-1.73176E+001,-6.22156E-002,5.70731E-002,2.35369E+000,-5.71403E-001,8.37195E-002,2.42351E+000,1.09653E-002,6.32273E-001,0,3.66784E+001,-9.45202E+000,9.98569E-001,-5.14431E+000,-4.95020E+001,9.98252E-001,1.24186E-001,-5.30726E-002,-5.07490E-004,1.24187E-001,-5.30741E-002,-1.64036E-001,1.24623E-001,1.13215E+000,1.35979E-002,0.00000E+000,-1.22341E-002,9.50135E-001,0.00000E+000,-1.66210E-003,-6.34055E-002,1.00000E+000,22
1229,1317,2.77186E+001,-5.75759E-001,-8.76571E-002,8.27681E+000,-1.43961E-001,-5.64732E-002,8.27826E+000,1.47921E-002,4.72174E-001,0,1.24021E+002,-3.24455E+000,9.98974E-001,9.08484E+001,-3.12129E+001,9.98145E-001,1.43594E-001,-5.89686E-002,6.56347E-006,1.43594E-001,-5.89686E-002,1.85650E-003,1.44357E-001,1.15435E+000,-1.33672E-002,0.00000E+000,1.12442E-002,9.44607E-001,0.00000E+000,-5.60400E-003,-6.40784E-002,1.00000E+000,22
1229,1327,2.77354E+001,3.44963E-002,-1.07820E-001,8.27024E+000,-1.88150E-001,-9.84625E-002,8.27296E+000,9.99156E-003,4.85343E-001,0,1.24089E+002,-3.87475E+000,9.99241E-001,9.11263E+001,-3.16785E+001,9.98111E-001,1.44314E-001,-5.89683E-002,2.66889E-005,1.44314E-001,-5.89683E-002,7.52235E-003,1.45116E-001,1.15518E+000,-1.33378E-002,0.00000E+000,1.12141E-002,9.44606E-001,0.00000E+000,-5.00027E-003,-6.40569E-002,1.00000E+000,22
1229,1337,2.77712E+001,6.62436E-001,-8.82832E-002,8.27265E+000,-2.18035E-001,-1.39267E-001,8.27669E+000,1.05756E-002,4.24839E-001,0,1.24267E+002,-4.29087E+000,9.98913E-001,9.17569E+001,-3.19943E+001,9.97701E-001,1.45035E-001,-5.89678E-002,5.22213E-005,1.45035E-001,-5.89679E-002,1.46668E-002,1.45876E-001,1.15601E+000,-1.32957E-002,0.00000E+000,1.11840E-002,9.44604E-001,0.00000E+000,-4.39530E-003,-6.40263E-002,1.00000E+000,22
629,1317,-1.73449E+001,-1.25569E+000,2.11324E-001,2.33496E+000,-5.00931E-001,1.66391E-001,2.39388E+000,1.09848E-002,6.64417E-001,0,3.61478E+001,-8.50696E+000,9.98910E-001,-5.41314E+000,-4.81535E+001,9.98118E-001,1.28467E-001,-5.30753E-002,-2.76017E-004,1.28467E-001,-5.30758E-002,-8.71121E-002,1.29112E-001,1.13700E+000,1.36307E-002,0.00000E+000,-1.18661E-002,9.50138E-001,0.00000E+000,-8.75247E-005,-6.33949E-002,1.00000E+000,22
1229,1297,2.77063E+001,-1.79022E+000,3.11373E-002,8.29146E+000,-6.07268E-002,3.10811E-002,8.29174E+000,1.25864E-002,4.40656E-001,0,1.23875E+002,-2.06506E+000,9.98524E-001,9.07295E+001,-3.03626E+001,9.95885E-001,1.42160E-001,-5.89690E-002,-2.30340E-005,1.42160E-001,-5.89690E-002,-6.56170E-003,1.42846E-001,1.15270E+000,-1.34013E-002,0.00000E+000,1.13041E-002,9.44608E-001,0.00000E+000,-6.80477E-003,-6.41033E-002,1.00000E+000,22
1229,1307,2.77166E+001,-1.18137E+000,-3.07493E-002,8.29130E+000,-9.89367E-002,-3.45352E-003,8.29189E+000,1.80163E-002,4.43040E-001,0,1.24019E+002,-2.61828E+000,9.98250E-001,9.08496E+001,-3.07631E+001,9.96649E-001,1.42876E-001,-5.89688E-002,-9.90853E-006,1.42876E-001,-5.89688E-002,-2.81263E-003,1.43600E-001,1.15353E+000,-1.33882E-002,0.00000E+000,1.12743E-002,9.44607E-001,0.00000E+000,-6.20546E-003,-6.40937E-002,1.00000E+000,22
619,1327,-1.80601E+001,-6.64218E-001,1.19451E-001,2.25742E+000,-5.32392E-001,1.24486E-001,2.32269E+000,7.92371E-003,5.76040E-001,0,3.50825E+001,-8.89821E+000,9.98811E-001,-6.44736E+000,-4.90160E+001,9.98590E-001,1.25250E-001,-5.26288E-002,-6.33013E-004,1.25252E-001,-5.26310E-002,-2.03894E-001,1.25783E-001,1.13332E+000,1.62679E-002,0.00000E+000,-1.47382E-002,9.50492E-001,0.00000E+000,-9.94055E-004,-6.29089E-002,1.00000E+000,22
619,1337,-1.80418E+001,-6.10424E-002,6.22068E-002,2.26841E+000,-5.65090E-001,8.52381E-002,2.33929E+000,9.30207E-003,6.32724E-001,0,3.53644E+001,-9.34822E+000,9.98008E-001,-6.18424E+000,-4.95989E+001,9.97864E-001,1.23026E-001,-5.26285E-002,-6.63983E-004,1.23029E-001,-5.26310E-002,-2.16576E-001,1.23456E-001,1.13080E+000,1.62395E-002,0.00000E+000,-1.47616E-002,9.50492E-001,0.00000E+000,-1.69946E-003,-6.29169E-002,1.00000E+000,22
619,1347,-1.80226E+001,5.46346E-001,2.43740E-002,2.27736E+000,-5.94669E-001,4.83103E-002,2.35421E+000,1.11372E-002,6.13136E-001,0,3.56058E+001,-9.73847E+000,9.97921E-001,-5.85116E+000,-5.01977E+001,9.97679E-001,1.20798E-001,-5.26286E-002,-6.99788E-004,1.20801E-001,-5.26314E-002,-2.31187E-001,1.21133E-001,1.12829E+000,1.62001E-002,0.00000E+000,-1.47850E-002,9.50492E-001,0.00000E+000,-2.40461E-003,-6.29279E-002,1.00000E+000,22
619,1357,-1.79951E+001,1.16020E+000,3.11207E-002,2.28788E+000,-6.23918E-001,1.58735E-002,2.37148E+000,9.97277E-003,5.96353E-001,0,3.58562E+001,-1.01337E+001,9.98716E-001,-5.25990E+000,-5.07941E+001,9.98584E-001,1.18553E-001,-5.26293E-002,-7.47303E-004,1.18556E-001,-5.26326E-002,-2.50121E-001,1.18804E-001,1.12576E+000,1.61345E-002,0.00000E+000,-1.48085E-002,9.50491E-001,0.00000E+000,-3.11312E-003,-6.29463E-002,1.00000E+000,22
619,1317,-1.80701E+001,-1.25288E+000,2.11251E-001,2.24946E+000,-4.91145E-001,1.67812E-001,2.30856E+000,1.30371E-002,6.11147E-001,0,3.48319E+001,-8.34552E+000,9.98506E-001,-6.48200E+000,-4.82370E+001,9.97997E-001,1.27456E-001,-5.26296E-002,-6.10912E-004,1.27458E-001,-5.26316E-002,-1.94364E-001,1.28100E-001,1.13582E+000,1.62762E-002,0.00000E+000,-1.47149E-002,9.50492E-001,0.00000E+000,-2.92647E-004,-6.29066E-002,1.00000E+000,22
1239,1307,2.84781E+001,-1.17232E+000,-4.91429E-002,8.38761E+000,-9.46023E-002,-1.86122E-002,8.38816E+000,1.85907E-002,4.24763E-001,0,1.25419E+002,-2.53667E+000,9.98069E-001,9.27347E+001,-3.05005E+001,9.96720E-001,1.42451E-001,-5.84621E-002,2.34038E-004,1.42451E-001,-5.84624E-002,6.67421E-002,1.43212E-001,1.15305E+000,-1.24107E-002,0.00000E+000,1.09373E-002,9.45055E-001,0.00000E+000,-6.04328E-003,-6.35191E-002,1.00000E+000,22
1239,1317,2.84908E+001,-5.55519E-001,-9.65186E-002,8.38395E+000,-1.27620E-001,-6.07982E-002,8.38515E+000,1.70725E-002,4.25264E-001,0,1.25534E+002,-3.00346E+000,9.98439E-001,9.29122E+001,-3.08083E+001,9.97737E-001,1.43221E-001,-5.84565E-002,3.24561E-004,1.43221E-001,-5.84571E-002,9.22062E-002,1.44024E-001,1.15393E+000,-1.23886E-002,0.00000E+000,1.10261E-002,9.45058E-001,0.00000E+000,-5.08617E-003,-6.34951E-002,1.00000E+000,22
1239,1327,2.85113E+001,5.53849E-002,-9.47733E-002,8.37629E+000,-1.76097E-001,-9.82050E-002,8.37872E+000,1.35218E-002,5.05705E-001,0,1.25564E+002,-3.70910E+000,9.98659E-001,9.32755E+001,-3.12764E+001,9.97821E-001,1.43997E-001,-5.84482E-002,4.22768E-004,1.43998E-001,-5.84491E-002,1.19650E-001,1.44846E-001,1.15482E+000,-1.23506E-002,0.00000E+000,1.11159E-002,9.45062E-001,0.00000E+000,-4.11860E-003,-6.34538E-002,1.00000E+000,22
1239,1337,2.85361E+001,6.80975E-001,-8.51307E-002,8.37118E+000,-2.05588E-001,-1.35009E-001,8.37479E+000,1.15555E-002,4.12423E-001,0,1.25618E+002,-4.12621E+000,9.98254E-001,9.37186E+001,-3.16233E+001,9.96616E-001,1.44766E-001,-5.84394E-002,5.21316E-004,1.44768E-001,-5.84407E-002,1.46989E-001,1.45660E-001,1.15571E+000,-1.23101E-002,0.00000E+000,1.12050E-002,9.45066E-001,0.00000E+000,-3.15795E-003,-6.34100E-002,1.00000E+000,22
1239,1297,2.84751E+001,-1.77783E+000,2.85577E-002,8.39399E+000,-5.34104E-002,2.77072E-002,8.39420E+000,1.16062E-002,4.52351E-001,0,1.25316E+002,-1.97761E+000,9.98595E-001,9.27483E+001,-3.00678E+001,9.96808E-001,1.41682E-001,-5.84660E-002,1.47693E-004,1.41682E-001,-5.84661E-002,4.22798E-002,1.42401E-001,1.15217E+000,-1.24235E-002,0.00000E+000,1.08487E-002,9.45054E-001,0.00000E+000,-6.99792E-003,-6.35329E-002,1.00000E+000,22
609,1347,-1.87427E+001,5.46946E-001,2.87023E-002,2.19625E+000,-5.88965E-001,5.08265E-002,2.27442E+000,1.40674E-002,6.33393E-001,0,3.43522E+001,-9.64919E+000,9.97760E-001,-6.82458E+000,-5.02933E+001,9.97444E-001,1.19652E-001,-5.15563E-002,-9.24524E-004,1.19657E-001,-5.15613E-002,-3.09385E-001,1.20037E-001,1.12696E+000,1.86618E-002,0.00000E+000,-1.73391E-002,9.51413E-001,0.00000E+000,-2.05120E-003,-6.19882E-002,1.00000E+000,22
609,1357,-1.87171E+001,1.16544E+000,2.85228E-002,2.20589E+000,-6.12457E-001,1.68178E-002,2.28940E+000,1.12356E-002,6.11276E-001,0,3.45916E+001,-9.94939E+000,9.98643E-001,-6.28049E+000,-5.08081E+001,9.98197E-001,1.17380E-001,-5.15563E-002,-9.33941E-004,1.17386E-001,-5.15615E-002,-3.16738E-001,1.17674E-001,1.12440E+000,1.85997E-002,0.00000E+000,-1.72929E-002,9.51414E-001,0.00000E+000,-2.85658E-003,-6.20078E-002,1.00000E+000,22
609,1317,-1.87994E+001,-1.25462E+000,2.07525E-001,2.15887E+000,-4.87315E-001,1.62280E-001,2.21913E+000,1.31029E-002,6.23106E-001,0,3.34547E+001,-8.28004E+000,9.98833E-001,-7.62077E+000,-4.83510E+001,9.97771E-001,1.26397E-001,-5.15564E-002,-9.44593E-004,1.26402E-001,-5.15614E-002,-3.04120E-001,1.27114E-001,1.13458E+000,1.87377E-002,0.00000E+000,-1.74773E-002,9.51412E-001,0.00000E+000,3.53292E-004,-6.19643E-002,1.00000E+000,22
609,1327,-1.87850E+001,-6.66959E-001,1.18655E-001,2.17173E+000,-5.30616E-001,1.24778E-001,2.23909E+000,9.46974E-003,6.28537E-001,0,3.37659E+001,-8.87271E+000,9.98945E-001,-7.51162E+000,-4.91326E+001,9.98155E-001,1.24158E-001,-5.15563E-002,-9.29696E-004,1.24163E-001,-5.15612E-002,-3.03137E-001,1.24756E-001,1.13204E+000,1.87313E-002,0.00000E+000,-1.74313E-002,9.51412E-001,0.00000E+000,-4.46775E-004,-6.19663E-002,1.00000E+000,22
609,1337,-1.87640E+001,-5.94772E-002,6.42867E-002,2.18544E+000,-5.57310E-001,8.79334E-002,2.25710E+000,1.14607E-002,6.18661E-001,0,3.40816E+001,-9.22454E+000,9.98067E-001,-7.19767E+000,-4.96902E+001,9.97550E-001,1.21912E-001,-5.15563E-002,-9.24397E-004,1.21917E-001,-5.15612E-002,-3.05312E-001,1.22399E-001,1.12950E+000,1.87028E-002,0.00000E+000,-1.73853E-002,9.51413E-001,0.00000E+000,-1.24749E-003,-6.19753E-002,1.00000E+000,22
1249,1297,2.92471E+001,-1.76008E+000,3.46984E-002,8.49771E+000,-4.27387E-002,2.73795E-002,8.49786E+000,1.34957E-002,4.71738E-001,0,1.26756E+002,-1.83122E+000,9.98730E-001,9.48333E+001,-2.97047E+001,9.97213E-001,1.40845E-001,-5.78467E-002,3.18076E-004,1.40845E-001,-5.78473E-002,9.17218E-002,1.41592E-001,1.15122E+000,-1.10502E-002,0.00000E+000,1.00870E-002,9.45621E-001,0.00000E+000,-7.43027E-003,-6.30801E-002,1.00000E+000,22
1249,1307,2.92440E+001,-1.15948E+000,-5.55792E-002,8.48759E+000,-8.71766E-002,-2.20717E-002,8.48807E+000,1.69968E-002,4.35222E-001,0,1.26822E+002,-2.43763E+000,9.98666E-001,9.47065E+001,-3.01902E+001,9.96787E-001,1.41785E-001,-5.78365E-002,5.72676E-004,1.41787E-001,-5.78382E-002,1.64369E-001,1.42586E-001,1.15229E+000,-1.10386E-002,0.00000E+000,1.04710E-002,9.45625E-001,0.00000E+000,-6.05362E-003,-6.30653E-002,1.00000E+000,22
1249,1317,2.92525E+001,-5.48936E-001,-1.03392E-001,8.48073E+000,-1.25769E-001,-6.08582E-002,8.48188E+000,1.58441E-002,4.07204E-001,0,1.26879E+002,-2.98866E+000,9.97691E-001,9.48181E+001,-3.06074E+001,9.96385E-001,1.42726E-001,-5.78198E-002,8.34056E-004,1.42729E-001,-5.78233E-002,2.38284E-001,1.43583E-001,1.15337E+000,-1.10131E-002,0.00000E+000,1.08564E-002,9.45634E-001,0.00000E+000,-4.67215E-003,-6.30325E-002,1.00000E+000,22
1249,1327,2.92713E+001,7.44803E-002,-1.16882E-001,8.47399E+000,-1.58600E-001,-1.03282E-001,8.47610E+000,1.47432E-002,4.53721E-001,0,1.26940E+002,-3.45696E+000,9.97730E-001,9.51349E+001,-3.08630E+001,9.97167E-001,1.43670E-001,-5.77953E-002,1.10438E-003,1.43676E-001,-5.78014E-002,3.14068E-001,1.44588E-001,1.15446E+000,-1.09708E-002,0.00000E+000,1.12446E-002,9.45650E-001,0.00000E+000,-3.28024E-003,-6.29783E-002,1.00000E+000,22
1249,1337,2.92991E+001,7.00875E-001,-9.51106E-002,8.46888E+000,-1.91268E-001,-1.38130E-001,8.47217E+000,1.12225E-002,4.26184E-001,0,1.26986E+002,-3.92501E+000,9.98817E-001,9.56378E+001,-3.11893E+001,9.98477E-001,1.44614E-001,-5.77652E-002,1.38017E-003,1.44623E-001,-5.77746E-002,3.90717E-001,1.45594E-001,1.15554E+000,-1.09164E-002,0.00000E+000,1.16336E-002,9.45669E-001,0.00000E+000,-1.88574E-003,-6.29086E-002,1.00000E+000,22
1259,1327,3.00386E+001,8.74733E-002,-1.20278E-001,8.57476E+000,-1.50233E-001,-1.03202E-001,8.57670E+000,1.18847E-002,4.29872E-001,0,1.28339E+002,-3.35406E+000,9.98933E-001,9.71344E+001,-3.05709E+001,9.98467E-001,1.43504E-001,-5.74858E-002,1.74086E-003,1.43519E-001,-5.75008E-002,4.96214E-001,1.44460E-001,1.15427E+000,-1.00575E-002,0.00000E+000,1.16194E-002,9.45901E-001,0.00000E+000,-1.70037E-003,-6.23443E-002,1.00000E+000,22
1259,1337,3.00666E+001,7.10782E-001,-1.02684E-001,8.56923E+000,-1.86769E-001,-1.43865E-001,8.57247E+000,1.08670E-002,4.09620E-001,0,1.28404E+002,-3.86789E+000,9.99294E-001,9.76332E+001,-3.09307E+001,9.99129E-001,1.44478E-001,-5.74416E-002,2.12826E-003,1.44501E-001,-5.74640E-002,6.03816E-001,1.45506E-001,1.15540E+000,-9.99998E-003,0.00000E+000,1.21913E-002,9.45930E-001,0.00000E+000,1.80441E-004,-6.22483E-002,1.00000E+000,22
599,1347,-1.94559E+001,5.58013E-001,3.71152E-002,2.12112E+000,-5.72767E-001,5.44438E-002,2.19777E+000,1.33171E-002,6.40634E-001,0,3.31847E+001,-9.39955E+000,9.98784E-001,-7.67365E+000,-5.02429E+001,9.98580E-001,1.19082E-001,-5.16573E-002,-6.75832E-004,1.19085E-001,-5.16599E-002,-2.26787E-001,1.19432E-001,1.12628E+000,2.06761E-002,0.00000E+000,-1.85935E-002,9.51227E-001,0.00000E+000,-1.64310E-003,-6.08491E-002,1.00000E+000,22
599,1357,-1.94273E+001,1.16694E+000,3.49944E-002,2.13439E+000,-6.05512E-001,2.12888E-002,2.21872E+000,9.14345E-003,6.20143E-001,0,3.34806E+001,-9.84335E+000,9.99003E-001,-7.09045E+000,-5.09011E+001,9.98634E-001,1.16961E-001,-5.16552E-002,-4.49729E-004,1.16962E-001,-5.16564E-002,-1.52817E-001,1.17227E-001,1.12389E+000,2.06204E-002,0.00000E+000,-1.81037E-002,9.51238E-001,0.00000E+000,-2.47978E-003,-6.08686E-002,1.00000E+000,22
1259,1287,3.00158E+001,-2.35030E+000,1.17451E-001,8.60312E+000,7.22362E-003,5.72920E-002,8.60331E+000,1.41357E-002,4.20011E-001,0,1.28082E+002,-1.10443E+000,9.98235E-001,9.69278E+001,-2.89970E+001,9.94690E-001,1.39596E-001,-5.75695E-002,2.63753E-004,1.39596E-001,-5.75698E-002,7.66461E-002,1.40308E-001,1.14981E+000,-1.01454E-002,0.00000E+000,9.35409E-003,9.45857E-001,0.00000E+000,-9.15131E-003,-6.24910E-002,1.00000E+000,22
1259,1297,3.00105E+001,-1.74964E+000,1.23351E-002,8.59646E+000,-3.59899E-002,1.41858E-002,8.59655E+000,1.24819E-002,4.39745E-001,0,1.28179E+002,-1.71044E+000,9.98347E-001,9.67497E+001,-2.94209E+001,9.95992E-001,1.40576E-001,-5.75613E-002,6.23552E-004,1.40578E-001,-5.75633E-002,1.80311E-001,1.41344E-001,1.15092E+000,-1.01430E-002,0.00000E+000,9.91840E-003,9.45858E-001,0.00000E+000,-7.29525E-003,-6.24869E-002,1.00000E+000,22
1259,1307,3.00116E+001,-1.14354E+000,-6.37424E-002,8.58931E+000,-7.66094E-002,-2.56750E-002,8.58969E+000,1.23099E-002,4.46126E-001,0,1.28247E+002,-2.28843E+000,9.98625E-001,9.67086E+001,-2.98277E+001,9.97167E-001,1.41554E-001,-5.75455E-002,9.89040E-004,1.41559E-001,-5.75504E-002,2.84611E-001,1.42381E-001,1.15203E+000,-1.01287E-002,0.00000E+000,1.04838E-002,9.45865E-001,0.00000E+000,-5.43556E-003,-6.24632E-002,1.00000E+000,22
599,1327,-1.95060E+001,-6.50837E-001,1.30910E-001,2.08817E+000,-5.10416E-001,1.29861E-001,2.15356E+000,1.01780E-002,6.41414E-001,0,3.24627E+001,-8.56073E+000,9.98920E-001,-8.46853E+000,-4.90069E+001,9.98310E-001,1.23290E-001,-5.16518E-002,-1.14707E-003,1.23298E-001,-5.16593E-002,-3.75660E-001,1.23836E-001,1.13102E+000,2.07387E-002,0.00000E+000,-1.95688E-002,9.51214E-001,0.00000E+000,2.30024E-005,-6.08271E-002,1.00000E+000,22
599,1337,-1.94846E+001,-5.13303E-002,6.42643E-002,2.10383E+000,-5.43540E-001,8.93696E-002,2.17475E+000,9.49286E-003,6.28936E-001,0,3.28203E+001,-9.00556E+000,9.98700E-001,-8.18582E+000,-4.96639E+001,9.98647E-001,1.21194E-001,-5.16565E-002,-9.07592E-004,1.21199E-001,-5.16613E-002,-3.00834E-001,1.21637E-001,1.12866E+000,2.07177E-002,0.00000E+000,-1.90824E-002,9.51218E-001,0.00000E+000,-8.07983E-004,-6.08345E-002,1.00000E+000,22
1259,1317,3.00210E+001,-5.31135E-001,-1.05471E-001,8.58289E+000,-1.14321E-001,-5.95186E-002,8.58386E+000,1.24199E-002,4.55213E-001,0,1.28291E+002,-2.84644E+000,9.98923E-001,9.68409E+001,-3.02090E+001,9.97837E-001,1.42530E-001,-5.75211E-002,1.36087E-003,1.42539E-001,-5.75303E-002,3.89737E-001,1.43419E-001,1.15315E+000,-1.01015E-002,0.00000E+000,1.10507E-002,9.45879E-001,0.00000E+000,-3.57106E-003,-6.24178E-002,1.00000E+000,22
599,1317,-1.95268E+001,-1.24826E+000,2.19222E-001,2.06873E+000,-4.77853E-001,1.65778E-001,2.12966E+000,1.27847E-002,6.21885E-001,0,3.20564E+001,-8.11532E+000,9.98867E-001,-8.67808E+000,-4.83797E+001,9.98385E-001,1.25379E-001,-5.16439E-002,-1.39313E-003,1.25390E-001,-5.16548E-002,-4.50869E-001,1.26036E-001,1.13339E+000,2.07439E-002,0.00000E+000,-2.00549E-002,9.51213E-001,0.00000E+000,8.53346E-004,-6.08253E-002,1.00000E+000,22
589,1347,-2.01774E+001,5.68072E-001,3.81440E-002,2.03795E+000,-5.57089E-001,5.52010E-002,2.11344E+000,9.88594E-003,6.48699E-001,0,3.18982E+001,-9.14833E+000,9.98817E-001,-8.66770E+000,-5.01928E+001,9.98722E-001,1.18561E-001,-5.14492E-002,-9.11971E-005,1.18561E-001,-5.14493E-002,-3.07348E-002,1.18905E-001,1.12564E+000,2.33722E-002,0.00000E+000,-1.97712E-002,9.51336E-001,0.00000E+000,-1.51606E-003,-5.97192E-002,1.00000E+000,22
589,1357,-2.01446E+001,1.17653E+000,3.90074E-002,2.05508E+000,-5.91304E-001,2.17116E-002,2.13857E+000,7.65584E-003,6.24159E-001,0,3.22552E+001,-9.60124E+000,9.98935E-001,-8.00925E+000,-5.08681E+001,9.99198E-001,1.16421E-001,-5.14478E-002,1.36278E-004,1.16421E-001,-5.14479E-002,4.65133E-002,1.16683E-001,1.12323E+000,2.33147E-002,0.00000E+000,-1.92909E-002,9.51348E-001,0.00000E+000,-2.22187E-003,-5.97361E-002,1.00000E+000,22
589,1337,-2.02022E+001,-4.45144E-002,6.97633E-002,2.02353E+000,-5.31817E-001,8.88653E-002,2.09413E+000,7.29163E-003,6.26106E-001,0,3.15829E+001,-8.81364E+000,9.99282E-001,-9.10828E+000,-4.96762E+001,9.99253E-001,1.20687E-001,-5.14469E-002,-3.26337E-004,1.20688E-001,-5.14475E-002,-1.08622E-001,1.21124E-001,1.12803E+000,2.34101E-002,0.00000E+000,-2.02500E-002,9.51329E-001,0.00000E+000,-8.12613E-004,-5.97081E-002,1.00000E+000,22
589,1327,-2.02189E+001,-6.32299E-001,1.38137E-001,2.01275E+000,-4.87779E-001,1.32424E-001,2.07524E+000,1.33089E-002,6.71735E-001,0,3.12918E+001,-8.20963E+000,9.99369E-001,-9.31054E+000,-4.88237E+001,9.98500E-001,1.22796E-001,-5.14414E-002,-5.67040E-004,1.22798E-001,-5.14432E-002,-1.86461E-001,1.23335E-001,1.13041E+000,2.34317E-002,0.00000E+000,-2.07259E-002,9.51324E-001,0.00000E+000,-1.13383E-004,-5.97018E-002,1.00000E+000,22
1269,1327,3.08101E+001,1.02369E-001,-1.18724E-001,8.67885E+000,-1.42071E-001,-9.97120E-002,8.68059E+000,1.06059E-002,4.34157E-001,0,1.29768E+002,-3.24771E+000,9.99162E-001,9.92109E+001,-3.02458E+001,9.98379E-001,1.43397E-001,-5.69526E-002,2.27587E-003,1.43423E-001,-5.69785E-002,6.50737E-001,1.44429E-001,1.15416E+000,-9.08897E-003,0.00000E+000,1.18006E-002,9.46288E-001,0.00000E+000,-8.24491E-004,-6.03243E-002,1.00000E+000,22
1269,1337,3.08443E+001,7.20522E-001,-9.53596E-002,8.67840E+000,-1.83817E-001,-1.37918E-001,8.68144E+000,1.08319E-002,4.07281E-001,0,1.29900E+002,-3.85477E+000,9.99036E-001,9.98107E+001,-3.06997E+001,9.97651E-001,1.44442E-001,-5.68966E-002,2.75227E-003,1.44480E-001,-5.69342E-002,7.83030E-001,1.45557E-001,1.15537E+000,-9.02509E-003,0.00000E+000,1.25353E-002,9.46327E-001,0.00000E+000,1.15640E-003,-6.02198E-002,1.00000E+000,22
589,1317,-2.02431E+001,-1.23204E+000,2.34140E-001,1.98962E+000,-4.57527E-001,1.74300E-001,2.04897E+000,1.09404E-002,6.04508E-001,0,3.08132E+001,-7.79603E+000,9.98433E-001,-9.54866E+000,-4.82705E+001,9.97176E-001,1.24901E-001,-5.14324E-002,-8.15486E-004,1.24905E-001,-5.14362E-002,-2.64967E-001,1.25551E-001,1.13280E+000,2.34357E-002,0.00000E+000,-2.12022E-002,9.51323E-001,0.00000E+000,5.86496E-004,-5.97006E-002,1.00000E+000,22
1269,1317,3.07967E+001,-5.14600E-001,-1.01413E-001,8.68912E+000,-1.04425E-001,-6.18133E-002,8.68996E+000,1.07299E-002,4.23991E-001,0,1.29773E+002,-2.69926E+000,9.99093E-001,9.89873E+001,-2.98826E+001,9.98139E-001,1.42352E-001,-5.69934E-002,1.80964E-003,1.42368E-001,-5.70098E-002,5.20070E-001,1.43306E-001,1.15295E+000,-9.13254E-003,0.00000E+000,1.10690E-002,9.46262E-001,0.00000E+000,-2.79698E-003,-6.03956E-002,1.00000E+000,22
1269,1307,3.07855E+001,-1.12847E+000,-5.74182E-002,8.69390E+000,-6.83944E-002,-2.56804E-002,8.69421E+000,1.12543E-002,4.46316E-001,0,1.29695E+002,-2.17919E+000,9.98596E-001,9.88310E+001,-2.95148E+001,9.97593E-001,1.41305E-001,-5.70234E-002,1.35122E-003,1.41314E-001,-5.70326E-002,3.90335E-001,1.42187E-001,1.15175E+000,-9.16196E-003,0.00000E+000,1.03408E-002,9.46244E-001,0.00000E+000,-4.76049E-003,-6.04437E-002,1.00000E+000,22
1269,1297,3.07774E+001,-1.73887E+000,4.76962E-003,8.69657E+000,-3.08252E-002,9.59957E-003,8.69663E+000,1.23804E-002,4.44133E-001,0,1.29583E+002,-1.63445E+000,9.98415E-001,9.87442E+001,-2.91452E+001,9.97093E-001,1.40255E-001,-5.70461E-002,8.97155E-004,1.40259E-001,-5.70502E-002,2.60525E-001,1.41069E-001,1.15055E+000,-9.18198E-003,0.00000E+000,9.61336E-003,9.46232E-001,0.00000E+000,-6.72169E-003,-6.04765E-002,1.00000E+000,22
1269,1287,3.07855E+001,-2.34154E+000,1.15087E-001,8.70391E+000,9.13678E-003,4.95869E-002,8.70405E+000,1.70818E-002,4.22787E-001,0,1.29507E+002,-1.06549E+000,9.98761E-001,9.89731E+001,-2.87657E+001,9.95798E-001,1.39203E-001,-5.70526E-002,4.54083E-004,1.39204E-001,-5.70536E-002,1.32566E-001,1.39956E-001,1.14936E+000,-9.18050E-003,0.00000E+000,8.88898E-003,9.46233E-001,0.00000E+000,-8.67478E-003,-6.04740E-002,1.00000E+000,22
579,1347,-2.08931E+001,5.75743E-001,4.40174E-002,1.95959E+000,-5.44666E-001,5.65693E-002,2.03466E+000,8.07366E-003,6.42569E-001,0,3.06842E+001,-8.93906E+000,9.98927E-001,-9.55292E+000,-5.01965E+001,9.99080E-001,1.17543E-001,-5.10852E-002,5.29512E-004,1.17545E-001,-5.10868E-002,1.79913E-001,1.17879E-001,1.12443E+000,2.60885E-002,0.00000E+000,-2.08797E-002,9.51621E-001,0.00000E+000,-1.98842E-003,-5.90544E-002,1.00000E+000,22
579,1357,-2.08550E+001,1.19183E+000,5.01765E-002,1.98186E+000,-5.71582E-001,2.65085E-002,2.06281E+000,8.04020E-003,6.52009E-001,0,3.11103E+001,-9.29927E+000,9.99273E-001,-8.79502E+000,-5.07507E+001,9.99540E-001,1.15263E-001,-5.10844E-002,7.96449E-004,1.15267E-001,-5.10882E-002,2.74316E-001,1.15514E-001,1.12188E+000,2.60270E-002,0.00000E+000,-2.03226E-002,9.51635E-001,0.00000E+000,-2.80817E-003,-5.90741E-002,1.00000E+000,22
579,1337,-2.09235E+001,-3.36178E-002,8.02846E-002,1.93952E+000,-5.16406E-001,9.48507E-002,2.00933E+000,8.34203E-003,6.45447E-001,0,3.02683E+001,-8.57988E+000,9.98664E-001,-1.00639E+001,-4.96264E+001,9.98887E-001,1.19808E-001,-5.10813E-002,2.54255E-004,1.19808E-001,-5.10817E-002,8.52463E-002,1.20241E-001,1.12698E+000,2.61282E-002,0.00000E+000,-2.14346E-002,9.51613E-001,0.00000E+000,-1.17190E-003,-5.90417E-002,1.00000E+000,22
579,1327,-2.09483E+001,-6.24742E-001,1.38795E-001,1.92106E+000,-4.75920E-001,1.32254E-001,1.98355E+000,9.51640E-003,6.78760E-001,0,2.98751E+001,-8.00221E+000,9.99248E-001,-1.04211E+001,-4.88093E+001,9.98395E-001,1.22052E-001,-5.10743E-002,-2.55145E-005,1.22052E-001,-5.10743E-002,-8.44395E-003,1.22592E-001,1.12951E+000,2.61531E-002,0.00000E+000,-2.19859E-002,9.51607E-001,0.00000E+000,-3.60587E-004,-5.90337E-002,1.00000E+000,22
579,1317,-2.09655E+001,-1.21811E+000,2.31527E-001,1.90513E+000,-4.40823E-001,1.72479E-001,1.96306E+000,1.37940E-002,6.61164E-001,0,2.95133E+001,-7.51104E+000,9.98334E-001,-1.05602E+001,-4.81237E+001,9.96918E-001,1.24289E-001,-5.10630E-002,-3.13535E-004,1.24289E-001,-5.10635E-002,-1.02446E-001,1.24946E-001,1.13204E+000,2.61583E-002,0.00000E+000,-2.25368E-002,9.51606E-001,0.00000E+000,4.50069E-004,-5.90320E-002,1.00000E+000,22
1279,1317,3.15627E+001,-5.06992E-001,-1.06967E-001,8.78853E+000,-1.01097E-001,-6.12380E-002,8.78933E+000,9.63379E-003,3.82236E-001,0,1.31145E+002,-2.66152E+000,9.98873E-001,1.00974E+002,-2.96806E+001,9.97342E-001,1.41959E-001,-5.62161E-002,2.17143E-003,1.41982E-001,-5.62399E-002,6.27699E-001,1.43001E-001,1.15251E+000,-8.09368E-003,0.00000E+000,1.08732E-002,9.46884E-001,0.00000E+000,-2.06387E-003,-5.83019E-002,1.00000E+000,22
1279,1327,3.15877E+001,1.16378E-001,-1.14588E-001,8.78825E+000,-1.34825E-001,-9.48840E-002,8.78979E+000,1.55109E-002,4.30989E-001,0,1.31268E+002,-3.15809E+000,9.98457E-001,1.01390E+002,-2.99434E+001,9.97809E-001,1.43129E-001,-5.61654E-002,2.72841E-003,1.43166E-001,-5.62027E-002,7.84205E-001,1.44263E-001,1.15386E+000,-8.04158E-003,0.00000E+000,1.17648E-002,9.46918E-001,0.00000E+000,9.82476E-005,-5.82186E-002,1.00000E+000,22
1279,1337,3.16210E+001,7.34909E-001,-9.09102E-002,8.78675E+000,-1.77748E-001,-1.32288E-001,8.78954E+000,1.20944E-002,4.25024E-001,0,1.31382E+002,-3.77455E+000,9.98854E-001,1.01973E+002,-3.03805E+001,9.98232E-001,1.44296E-001,-5.60989E-002,3.29499E-003,1.44350E-001,-5.61530E-002,9.41747E-001,1.45531E-001,1.15521E+000,-7.97000E-003,0.00000E+000,1.26594E-002,9.46965E-001,0.00000E+000,2.26763E-003,-5.81040E-002,1.00000E+000,22
1279,1307,3.15453E+001,-1.11966E+000,-7.14555E-002,8.78843E+000,-6.38463E-002,-2.90748E-002,8.78871E+000,1.10498E-002,4.45516E-001,0,1.31012E+002,-2.12021E+000,9.98844E-001,1.00710E+002,-2.92577E+001,9.96640E-001,1.40792E-001,-5.62533E-002,1.62555E-003,1.40805E-001,-5.62667E-002,4.72627E-001,1.41748E-001,1.15117E+000,-8.12922E-003,0.00000E+000,9.98891E-003,9.46860E-001,0.00000E+000,-4.20826E-003,-5.83588E-002,1.00000E+000,22
1279,1297,3.15456E+001,-1.72416E+000,1.07701E-002,8.79613E+000,-2.08799E-002,1.33775E-002,8.79617E+000,1.96081E-002,3.70972E-001,0,1.30938E+002,-1.48934E+000,9.98472E-001,1.00780E+002,-2.88763E+001,9.97013E-001,1.39618E-001,-5.62742E-002,1.08822E-003,1.39624E-001,-5.62803E-002,3.18277E-001,1.40496E-001,1.14983E+000,-8.14464E-003,0.00000E+000,9.10492E-003,9.46850E-001,0.00000E+000,-6.35194E-003,-5.83835E-002,1.00000E+000,22
1279,1287,3.15482E+001,-2.34254E+000,1.01278E-001,8.80188E+000,5.13659E-003,4.81299E-002,8.80202E+000,1.81277E-002,3.24501E-001,0,1.30869E+002,-1.10156E+000,9.98684E-001,1.00897E+002,-2.87137E+001,9.95986E-001,1.38442E-001,-5.62876E-002,5.56300E-004,1.38444E-001,-5.62892E-002,1.63680E-001,1.39247E-001,1.14849E+000,-8.15111E-003,0.00000E+000,8.22378E-003,9.46846E-001,0.00000E+000,-8.48871E-003,-5.83938E-002,1.00000E+000,22
569,1347,-2.16077E+001,5.91342E-001,5.22096E-002,1.88225E+000,-5.24410E-001,6.19321E-002,1.95492E+000,8.45348E-003,6.62633E-001,0,2.94726E+001,-8.62422E+000,9.98869E-001,-1.04068E+001,-5.00706E+001,9.98743E-001,1.16918E-001,-5.06098E-002,1.03203E-003,1.16925E-001,-5.06161E-002,3.52943E-001,1.17275E-001,1.12366E+000,2.89058E-002,0.00000E+000,-2.23114E-002,9.52010E-001,0.00000E+000,-2.22204E-003,-5.84864E-002,1.00000E+000,22
569,1357,-2.15720E+001,1.20006E+000,4.90551E-002,1.90346E+000,-5.56350E-001,3.02200E-002,1.98333E+000,8.05724E-003,6.49949E-001,0,2.98878E+001,-9.06383E+000,9.99194E-001,-9.71514E+000,-5.07309E+001,9.98954E-001,1.14549E-001,-5.06117E-002,1.38508E-003,1.14561E-001,-5.06233E-002,4.80452E-001,1.14818E-001,1.12101E+000,2.88477E-002,0.00000E+000,-2.15873E-002,9.52026E-001,0.00000E+000,-3.28435E-003,-5.85096E-002,1.00000E+000,22
569,1327,-2.16650E+001,-6.21573E-001,1.30829E-001,1.84241E+000,-4.67384E-001,1.27665E-001,1.90505E+000,1.37382E-002,6.96400E-001,0,2.86732E+001,-7.85151E+000,9.99454E-001,-1.13598E+001,-4.88369E+001,9.98943E-001,1.21616E-001,-5.05934E-002,3.09536E-004,1.21616E-001,-5.05939E-002,1.02985E-001,1.22187E-001,1.12895E+000,2.89762E-002,0.00000E+000,-2.37535E-002,9.51991E-001,0.00000E+000,-1.06388E-004,-5.84582E-002,1.00000E+000,22
569,1337,-2.16381E+001,-1.73488E-002,8.38567E-002,1.86134E+000,-4.96474E-001,9.18447E-002,1.92860E+000,8.03179E-003,6.46787E-001,0,2.90656E+001,-8.23781E+000,9.98929E-001,-1.09336E+001,-4.94875E+001,9.98906E-001,1.19275E-001,-5.06025E-002,6.71311E-004,1.19278E-001,-5.06051E-002,2.26413E-001,1.19733E-001,1.12631E+000,2.89441E-002,0.00000E+000,-2.30339E-002,9.52000E-001,0.00000E+000,-1.16213E-003,-5.84711E-002,1.00000E+000,22
1289,1327,3.23501E+001,1.23192E-001,-1.23315E-001,8.88488E+000,-1.32504E-001,-9.20958E-002,8.88635E+000,1.39218E-002,4.29328E-001,0,1.32590E+002,-3.14908E+000,9.98022E-001,1.03318E+002,-2.97258E+001,9.97028E-001,1.42801E-001,-5.50954E-002,3.16853E-003,1.42852E-001,-5.51461E-002,9.17054E-001,1.44083E-001,1.15349E+000,-6.74533E-003,0.00000E+000,1.15143E-002,9.47811E-001,0.00000E+000,9.03244E-004,-5.58758E-002,1.00000E+000,22
1289,1337,3.23860E+001,7.48943E-001,-9.64371E-002,8.88588E+000,-1.68650E-001,-1.25619E-001,8.88837E+000,1.32974E-002,4.48055E-001,0,1.32722E+002,-3.67893E+000,9.98687E-001,1.03943E+002,-3.00436E+001,9.97813E-001,1.44148E-001,-5.50213E-002,3.80774E-003,1.44220E-001,-5.50940E-002,1.09486E+000,1.45553E-001,1.15506E+000,-6.66261E-003,0.00000E+000,1.25336E-002,9.47865E-001,0.00000E+000,3.27794E-003,-5.57503E-002,1.00000E+000,22
569,1317,-2.16885E+001,-1.20660E+000,2.31346E-001,1.81869E+000,-4.24279E-001,1.66423E-001,1.87493E+000,1.55883E-002,6.60198E-001,0,2.81914E+001,-7.23982E+000,9.98588E-001,-1.15680E+001,-4.80482E+001,9.97181E-001,1.23946E-001,-5.05755E-002,-6.58592E-005,1.23946E-001,-5.05755E-002,-2.16218E-002,1.24642E-001,1.13158E+000,2.89754E-002,0.00000E+000,-2.44721E-002,9.51991E-001,0.00000E+000,9.47911E-004,-5.84586E-002,1.00000E+000,22
1289,1317,3.23271E+001,-4.97998E-001,-1.08076E-001,8.88482E+000,-1.00190E-001,-5.97348E-002,8.88558E+000,1.51216E-002,4.73601E-001,0,1.32465E+002,-2.67753E+000,9.98927E-001,1.02943E+002,-2.94007E+001,9.96479E-001,1.41457E-001,-5.51473E-002,2.54595E-003,1.41490E-001,-5.51803E-002,7.41790E-001,1.42627E-001,1.15194E+000,-6.79991E-003,0.00000E+000,1.05039E-002,9.47776E-001,0.00000E+000,-1.45090E-003,-5.59585E-002,1.00000E+000,22
1289,1287,3.23095E+001,-2.32241E+000,8.84995E-002,8.89623E+000,1.96361E-002,4.14231E-002,8.89634E+000,1.87413E-002,4.05587E-001,0,1.32188E+002,-9.05204E-001,9.98738E-001,1.02804E+002,-2.82457E+001,9.95748E-001,1.37394E-001,-5.52269E-002,7.23154E-004,1.37396E-001,-5.52296E-002,2.15101E-001,1.38274E-001,1.14730E+000,-6.86907E-003,0.00000E+000,7.48355E-003,9.47731E-001,0.00000E+000,-8.48760E-003,-5.60634E-002,1.00000E+000,22
1289,1297,3.23135E+001,-1.71514E+000,1.82385E-002,8.89360E+000,-1.72756E-002,1.39056E-002,8.89363E+000,1.93453E-002,3.16088E-001,0,1.32273E+002,-1.44352E+000,9.98799E-001,1.02816E+002,-2.86900E+001,9.97196E-001,1.38749E-001,-5.52066E-002,1.32493E-003,1.38759E-001,-5.52156E-002,3.91369E-001,1.39719E-001,1.14884E+000,-6.85327E-003,0.00000E+000,8.48534E-003,9.47741E-001,0.00000E+000,-6.15365E-003,-5.60394E-002,1.00000E+000,22
1289,1307,3.23156E+001,-1.11027E+000,-7.06917E-002,8.88931E+000,-6.14199E-002,-3.07786E-002,8.88958E+000,1.29326E-002,4.59728E-001,0,1.32411E+002,-2.09295E+000,9.99443E-001,1.02775E+002,-2.90149E+001,9.97590E-001,1.40108E-001,-5.51861E-002,1.93076E-003,1.40127E-001,-5.52051E-002,5.66378E-001,1.41173E-001,1.15039E+000,-6.83805E-003,0.00000E+000,9.49477E-003,9.47751E-001,0.00000E+000,-3.80189E-003,-5.60163E-002,1.00000E+000,22
559,1327,-2.23722E+001,-6.11076E-001,1.23962E-001,1.77198E+000,-4.53142E-001,1.18560E-001,1.83284E+000,2.37130E-002,8.05446E-001,0,2.76082E+001,-7.63616E+000,9.99591E-001,-1.21437E+001,-4.87078E+001,9.98800E-001,1.21127E-001,-5.04547E-002,8.09401E-004,1.21131E-001,-5.04586E-002,2.70272E-001,1.21692E-001,1.12832E+000,3.19270E-002,0.00000E+000,-2.53081E-002,9.52027E-001,0.00000E+000,9.77254E-005,-5.74250E-002,1.00000E+000,22
559,1337,-2.23526E+001,-5.12164E-003,7.82790E-002,1.78396E+000,-4.79350E-001,8.55263E-002,1.84922E+000,7.32762E-003,6.58107E-001,0,2.78835E+001,-7.94369E+000,9.99490E-001,-1.18235E+001,-4.93862E+001,9.99412E-001,1.18855E-001,-5.04635E-002,1.10261E-003,1.18862E-001,-5.04707E-002,3.73090E-001,1.19312E-001,1.12576E+000,3.18974E-002,0.00000E+000,-2.47201E-002,9.52034E-001,0.00000E+000,-1.07595E-003,-5.74386E-002,1.00000E+000,22
559,1347,-2.23266E+001,6.02673E-001,5.03524E-002,1.80048E+000,-5.06424E-001,5.87202E-002,1.87127E+000,1.05745E-002,6.35888E-001,0,2.82130E+001,-8.32904E+000,9.98905E-001,-1.13523E+001,-5.00126E+001,9.98405E-001,1.16570E-001,-5.04706E-002,1.39365E-003,1.16582E-001,-5.04823E-002,4.77986E-001,1.16930E-001,1.12319E+000,3.18605E-002,0.00000E+000,-2.41306E-002,9.52042E-001,0.00000E+000,-2.25280E-003,-5.74555E-002,1.00000E+000,22
559,1357,-2.22886E+001,1.21136E+000,4.71074E-002,1.82474E+000,-5.37320E-001,3.06599E-002,1.90245E+000,9.11726E-003,6.26949E-001,0,2.86662E+001,-8.76762E+000,9.98899E-001,-1.06249E+001,-5.06728E+001,9.98805E-001,1.14269E-001,-5.04742E-002,1.67888E-003,1.14286E-001,-5.04913E-002,5.83817E-001,1.14544E-001,1.12062E+000,3.18073E-002,0.00000E+000,-2.35387E-002,9.52054E-001,0.00000E+000,-3.43423E-003,-5.74799E-002,1.00000E+000,22
559,1317,-2.24027E+001,-1.18893E+000,2.37124E-001,1.74073E+000,-4.03483E-001,1.67233E-001,1.79469E+000,2.43455E-002,6.95454E-001,0,2.69818E+001,-6.90475E+000,9.99265E-001,-1.24183E+001,-4.78718E+001,9.98293E-001,1.23391E-001,-5.04389E-002,5.02410E-004,1.23393E-001,-5.04404E-002,1.65596E-001,1.24076E-001,1.13088E+000,3.19245E-002,0.00000E+000,-2.58959E-002,9.52027E-001,0.00000E+000,1.27107E-003,-5.74262E-002,1.00000E+000,22
1299,1327,3.31196E+001,1.36800E-001,-1.23479E-001,8.98398E+000,-1.26325E-001,-9.57119E-002,8.98538E+000,1.77342E-002,4.22519E-001,0,1.33967E+002,-3.05390E+000,9.98176E-001,1.05372E+002,-2.94234E+001,9.97205E-001,1.42553E-001,-5.38738E-002,3.57773E-003,1.42618E-001,-5.39389E-002,1.04313E+000,1.44022E-001,1.15322E+000,-5.02302E-003,0.00000E+000,1.08646E-002,9.48842E-001,0.00000E+000,1.59947E-003,-5.31954E-002,1.00000E+000,22
1299,1337,3.31662E+001,7.61822E-001,-8.99644E-002,8.99426E+000,-1.64859E-001,-1.27148E-001,8.99667E+000,1.66269E-002,4.67669E-001,0,1.34227E+002,-3.62824E+000,9.97882E-001,1.06170E+002,-2.97514E+001,9.96856E-001,1.44111E-001,-5.37913E-002,4.27962E-003,1.44204E-001,-5.38838E-002,1.23824E+000,1.45730E-001,1.15503E+000,-4.92323E-003,0.00000E+000,1.19884E-002,9.48904E-001,0.00000E+000,4.16498E-003,-5.30542E-002,1.00000E+000,22
1299,1287,3.30814E+001,-2.31106E+000,9.91117E-002,8.99637E+000,2.21573E-002,4.23352E-002,8.99650E+000,1.36438E-002,4.73683E-001,0,1.33557E+002,-8.87088E-001,9.98960E-001,1.04909E+002,-2.79697E+001,9.96810E-001,1.36307E-001,-5.40081E-002,9.11996E-004,1.36311E-001,-5.40125E-002,2.74555E-001,1.37286E-001,1.14606E+000,-5.16232E-003,0.00000E+000,6.43082E-003,9.48756E-001,0.00000E+000,-8.52212E-003,-5.33924E-002,1.00000E+000,22
1299,1297,3.30850E+001,-1.70834E+000,2.07521E-002,8.99479E+000,-1.90513E-002,1.20970E-002,8.99482E+000,1.41246E-002,4.86885E-001,0,1.33674E+002,-1.53247E+000,9.99328E-001,1.04905E+002,-2.84149E+001,9.97478E-001,1.37874E-001,-5.39904E-002,1.56669E-003,1.37887E-001,-5.40032E-002,4.67812E-001,1.38962E-001,1.14784E+000,-5.14791E-003,0.00000E+000,7.53338E-003,9.48765E-001,0.00000E+000,-6.00515E-003,-5.33720E-002,1.00000E+000,22
1299,1307,3.31011E+001,-1.09277E+000,-3.47878E-002,9.00030E+000,-5.30346E-002,-1.45840E-002,9.00047E+000,2.65397E-002,5.18159E-001,0,1.33871E+002,-2.04081E+000,9.98957E-001,1.05123E+002,-2.86987E+001,9.97777E-001,1.39443E-001,-5.39613E-002,2.23190E-003,1.39469E-001,-5.39870E-002,6.61080E-001,1.40649E-001,1.14963E+000,-5.11876E-003,0.00000E+000,8.64346E-003,9.48783E-001,0.00000E+000,-3.47101E-003,-5.33308E-002,1.00000E+000,22
1299,1317,3.31087E+001,-4.80423E-001,-9.12894E-002,8.99244E+000,-9.16261E-002,-6.01168E-002,8.99311E+000,2.22308E-002,4.91358E-001,0,1.33948E+002,-2.56776E+000,9.98434E-001,1.05207E+002,-2.90614E+001,9.96912E-001,1.41003E-001,-5.39217E-002,2.90272E-003,1.41046E-001,-5.39649E-002,8.52969E-001,1.42336E-001,1.15143E+000,-5.07625E-003,0.00000E+000,9.75396E-003,9.48809E-001,0.00000E+000,-9.35915E-004,-5.32706E-002,1.00000E+000,22
559,1307,-2.24276E+001,-1.78042E+000,3.46299E-001,1.71333E+000,-3.68612E-001,2.00870E-001,1.76401E+000,1.17338E-002,6.81038E-001,0,2.64574E+001,-6.42700E+000,9.98410E-001,-1.26232E+001,-4.71864E+001,9.97483E-001,1.25648E-001,-5.04216E-002,1.92837E-004,1.25648E-001,-5.04218E-002,6.27521E-002,1.26462E-001,1.13343E+000,3.19151E-002,0.00000E+000,-2.64835E-002,9.52030E-001,0.00000E+000,2.44406E-003,-5.74305E-002,1.00000E+000,22
549,1347,-2.30361E+001,6.18391E-001,5.02039E-002,1.72760E+000,-4.86337E-001,5.73692E-002,1.79567E+000,9.55155E-003,6.71067E-001,0,2.70859E+001,-8.00174E+000,9.98753E-001,-1.21455E+001,-4.98590E+001,9.98284E-001,1.16203E-001,-5.02474E-002,1.79017E-003,1.16222E-001,-5.02667E-002,6.16120E-001,1.16575E-001,1.12270E+000,3.46477E-002,0.00000E+000,-2.57562E-002,9.52152E-001,0.00000E+000,-2.11832E-003,-5.63148E-002,1.00000E+000,22
549,1357,-2.29981E+001,1.23329E+000,5.01532E-002,1.75124E+000,-5.11832E-001,2.72203E-002,1.82471E+000,1.01113E-002,6.59946E-001,0,2.75329E+001,-8.34578E+000,9.98747E-001,-1.14041E+001,-5.04342E+001,9.98627E-001,1.13989E-001,-5.02515E-002,2.06621E-003,1.14015E-001,-5.02775E-002,7.20649E-001,1.14280E-001,1.12023E+000,3.45942E-002,0.00000E+000,-2.51802E-002,9.52164E-001,0.00000E+000,-3.40367E-003,-5.63426E-002,1.00000E+000,22
549,1327,-2.31073E+001,-5.87618E-001,1.50211E-001,1.67158E+000,-4.25302E-001,1.32591E-001,1.72993E+000,1.94081E-002,7.71162E-001,0,2.60086E+001,-7.21421E+000,9.98802E-001,-1.32448E+001,-4.85262E+001,9.97240E-001,1.20587E-001,-5.02282E-002,1.21936E-003,1.20596E-001,-5.02369E-002,4.08975E-001,1.21154E-001,1.12763E+000,3.47042E-002,0.00000E+000,-2.69026E-002,9.52139E-001,0.00000E+000,4.39672E-004,-5.62855E-002,1.00000E+000,22
549,1337,-2.30669E+001,1.30537E-002,8.37847E-002,1.70595E+000,-4.54893E-001,8.77951E-002,1.76774E+000,7.71520E-003,6.56948E-001,0,2.66657E+001,-7.57473E+000,9.99220E-001,-1.26715E+001,-4.92239E+001,9.99194E-001,1.18407E-001,-5.02390E-002,1.50597E-003,1.18420E-001,-5.02525E-002,5.11585E-001,1.18871E-001,1.12517E+000,3.46816E-002,0.00000E+000,-2.63316E-002,9.52144E-001,0.00000E+000,-8.34382E-004,-5.62973E-002,1.00000E+000,22
1309,1317,3.38668E+001,-4.77720E-001,-1.16298E-001,9.08397E+000,-9.27226E-002,-7.33135E-002,9.08474E+000,1.82584E-002,4.52093E-001,0,1.35259E+002,-2.56400E+000,9.98170E-001,1.07058E+002,-2.88935E+001,9.96765E-001,1.40916E-001,-5.28966E-002,3.34663E-003,1.40974E-001,-5.29544E-002,9.88951E-001,1.42420E-001,1.15134E+000,-2.80191E-003,0.00000E+000,8.73025E-003,9.49663E-001,0.00000E+000,-7.68137E-004,-5.05766E-002,1.00000E+000,22
1309,1327,3.38921E+001,1.45100E-001,-1.32753E-001,9.08716E+000,-1.23798E-001,-1.02912E-001,9.08859E+000,2.14706E-002,4.13342E-001,0,1.35420E+002,-3.01951E+000,9.97800E-001,1.07466E+002,-2.91845E+001,9.96126E-001,1.42688E-001,-5.28484E-002,3.98723E-003,1.42770E-001,-5.29297E-002,1.16768E+000,1.44351E-001,1.15339E+000,-2.73235E-003,0.00000E+000,9.76849E-003,9.49698E-001,0.00000E+000,1.83764E-003,-5.04881E-002,1.00000E+000,22
1309,1337,3.39348E+001,7.73387E-001,-1.01121E-001,9.09462E+000,-1.58402E-001,-1.31359E-001,9.09694E+000,2.06419E-002,4.52961E-001,0,1.35626E+002,-3.54073E+000,9.98457E-001,1.08198E+002,-2.94591E+001,9.97684E-001,1.44466E-001,-5.27755E-002,4.65009E-003,1.44575E-001,-5.28850E-002,1.34979E+000,1.46301E-001,1.15545E+000,-2.62205E-003,0.00000E+000,1.08162E-002,9.49754E-001,0.00000E+000,4.46729E-003,-5.03478E-002,1.00000E+000,22
549,1317,-2.31213E+001,-1.17481E+000,2.48306E-001,1.65803E+000,-3.85619E-001,1.73556E-001,1.71111E+000,1.64026E-002,7.62406E-001,0,2.56832E+001,-6.65290E+000,9.99043E-001,-1.33149E+001,-4.77464E+001,9.98114E-001,1.22760E-001,-5.02128E-002,9.23963E-004,1.22764E-001,-5.02178E-002,3.06044E-001,1.23440E-001,1.13008E+000,3.47060E-002,0.00000E+000,-2.74733E-002,9.52138E-001,0.00000E+000,1.71315E-003,-5.62846E-002,1.00000E+000,22
549,1307,-2.31429E+001,-1.76575E+000,3.40423E-001,1.63485E+000,-3.49560E-001,1.95770E-001,1.68323E+000,1.19107E-002,7.03740E-001,0,2.52547E+001,-6.11011E+000,9.98496E-001,-1.35196E+001,-4.70362E+001,9.97951E-001,1.24929E-001,-5.01957E-002,6.25061E-004,1.24932E-001,-5.01979E-002,2.04498E-001,1.25732E-001,1.13254E+000,3.47004E-002,0.00000E+000,-2.80452E-002,9.52140E-001,0.00000E+000,2.98912E-003,-5.62875E-002,1.00000E+000,22
1309,1287,3.38519E+001,-2.30839E+000,9.66552E-002,9.09375E+000,1.90174E-002,2.68575E-002,9.09381E+000,1.23940E-002,4.67815E-001,0,1.34956E+002,-9.37859E-001,9.99021E-001,1.06980E+002,-2.78381E+001,9.96594E-001,1.35563E-001,-5.29595E-002,1.48764E-003,1.35575E-001,-5.29713E-002,4.52086E-001,1.36650E-001,1.14522E+000,-2.87947E-003,0.00000E+000,5.63067E-003,9.49623E-001,0.00000E+000,-8.54751E-003,-5.06752E-002,1.00000E+000,22
1309,1297,3.38535E+001,-1.70819E+000,8.55120E-003,9.09189E+000,-2.64110E-002,-6.39298E-003,9.09193E+000,1.65406E-002,4.84431E-001,0,1.35086E+002,-1.60670E+000,9.98757E-001,1.06934E+002,-2.82986E+001,9.96668E-001,1.37356E-001,-5.29480E-002,2.10048E-003,1.37379E-001,-5.29712E-002,6.32299E-001,1.38573E-001,1.14726E+000,-2.86846E-003,0.00000E+000,6.66269E-003,9.49629E-001,0.00000E+000,-5.95732E-003,-5.06612E-002,1.00000E+000,22
1309,1307,3.38532E+001,-1.09139E+000,-7.71589E-002,9.08673E+000,-5.36343E-002,-4.25056E-002,9.08699E+000,1.76445E-002,3.94600E-001,0,1.35170E+002,-1.97459E+000,9.98675E-001,1.06861E+002,-2.85586E+001,9.97998E-001,1.39133E-001,-5.29333E-002,2.71313E-003,1.39171E-001,-5.29716E-002,8.09146E-001,1.40488E-001,1.14929E+000,-2.85314E-003,0.00000E+000,7.69163E-003,9.49637E-001,0.00000E+000,-3.37489E-003,-5.06417E-002,1.00000E+000,22
539,1347,-2.37503E+001,6.36542E-001,5.04363E-002,1.64966E+000,-4.62454E-001,5.53111E-002,1.71414E+000,8.51547E-003,6.71411E-001,0,2.58786E+001,-7.61858E+000,9.98939E-001,-1.30007E+001,-4.96873E+001,9.98807E-001,1.15916E-001,-4.99597E-002,1.97654E-003,1.15939E-001,-4.99832E-002,6.82596E-001,1.16306E-001,1.12230E+000,3.70980E-002,0.00000E+000,-2.75089E-002,9.52315E-001,0.00000E+000,-1.82111E-003,-5.51242E-002,1.00000E+000,22
539,1357,-2.37116E+001,1.25313E+000,4.35748E-002,1.67504E+000,-4.85571E-001,2.43359E-002,1.74417E+000,7.83278E-003,6.66714E-001,0,2.63545E+001,-7.92048E+000,9.99283E-001,-1.22686E+001,-5.02203E+001,9.99056E-001,1.13860E-001,-4.99652E-002,2.23171E-003,1.13891E-001,-4.99956E-002,7.80317E-001,1.14173E-001,1.12000E+000,3.70522E-002,0.00000E+000,-2.69771E-002,9.52326E-001,0.00000E+000,-3.16540E-003,-5.51510E-002,1.00000E+000,22
539,1327,-2.38130E+001,-5.68728E-001,1.35715E-001,1.60244E+000,-3.98902E-001,1.18555E-001,1.65560E+000,9.82894E-003,6.56455E-001,0,2.49704E+001,-6.73563E+000,9.97823E-001,-1.40150E+001,-4.83639E+001,9.97845E-001,1.19994E-001,-4.99404E-002,1.45177E-003,1.20006E-001,-4.99528E-002,4.89437E-001,1.20566E-001,1.12688E+000,3.71514E-002,0.00000E+000,-2.85688E-002,9.52303E-001,0.00000E+000,8.58258E-004,-5.50929E-002,1.00000E+000,22
539,1337,-2.37817E+001,3.37502E-002,8.28651E-002,1.62713E+000,-4.28739E-001,8.42179E-002,1.68477E+000,8.84992E-003,6.49929E-001,0,2.54483E+001,-7.14854E+000,9.98599E-001,-1.35410E+001,-4.90125E+001,9.98699E-001,1.17963E-001,-4.99509E-002,1.71526E-003,1.17980E-001,-4.99685E-002,5.85202E-001,1.18439E-001,1.12460E+000,3.71288E-002,0.00000E+000,-2.80400E-002,9.52308E-001,0.00000E+000,-4.78407E-004,-5.51062E-002,1.00000E+000,22
1319,1297,3.46050E+001,-1.70116E+000,-1.65357E-002,9.17644E+000,-2.15321E-002,-2.00703E-002,9.17648E+000,1.40716E-002,3.66007E-001,0,1.36290E+002,-1.49002E+000,9.98911E-001,1.08686E+002,-2.81077E+001,9.97393E-001,1.36888E-001,-5.18245E-002,2.79465E-003,1.36929E-001,-5.18659E-002,8.48247E-001,1.38264E-001,1.14673E+000,-1.91596E-005,0.00000E+000,5.64056E-003,9.50556E-001,0.00000E+000,-6.35974E-003,-4.74237E-002,1.00000E+000,22
1319,1307,3.46152E+001,-1.09097E+000,-8.70670E-002,9.17846E+000,-5.81598E-002,-5.26452E-002,9.17880E+000,1.68906E-002,3.32325E-001,0,1.36466E+002,-2.02361E+000,9.98645E-001,1.08795E+002,-2.84721E+001,9.98166E-001,1.38924E-001,-5.18062E-002,3.40464E-003,1.38985E-001,-5.18670E-002,1.02233E+000,1.40467E-001,1.14906E+000,1.01282E-005,0.00000E+000,6.65437E-003,9.50569E-001,0.00000E+000,-3.51394E-003,-4.73878E-002,1.00000E+000,22
539,1307,-2.38592E+001,-1.75440E+000,3.29723E-001,1.55452E+000,-3.32217E-001,1.82639E-001,1.60008E+000,8.39482E-003,6.74272E-001,0,2.40417E+001,-5.80804E+000,9.98783E-001,-1.44417E+001,-4.69533E+001,9.98506E-001,1.24024E-001,-4.99086E-002,9.05165E-004,1.24029E-001,-4.99133E-002,2.98163E-001,1.24813E-001,1.13144E+000,3.71461E-002,0.00000E+000,-2.96230E-002,9.52304E-001,0.00000E+000,3.52303E-003,-5.50961E-002,1.00000E+000,22
539,1317,-2.38372E+001,-1.16747E+000,2.25123E-001,1.57888E+000,-3.70086E-001,1.52793E-001,1.62885E+000,9.59250E-003,6.95022E-001,0,2.45083E+001,-6.36333E+000,9.98285E-001,-1.42710E+001,-4.77192E+001,9.97841E-001,1.22014E-001,-4.99256E-002,1.18043E-003,1.22022E-001,-4.99337E-002,3.93333E-001,1.22690E-001,1.12916E+000,3.71541E-002,0.00000E+000,-2.90964E-002,9.52302E-001,0.00000E+000,2.19173E-003,-5.50914E-002,1.00000E+000,22
1319,1287,3.46121E+001,-2.31181E+000,7.78408E-002,9.18462E+000,1.07864E-002,1.08176E-002,9.18463E+000,1.48469E-002,4.47402E-001,0,1.36265E+002,-1.03920E+000,9.98730E-001,1.08874E+002,-2.77754E+001,9.97706E-001,1.34846E-001,-5.18292E-002,2.19742E-003,1.34872E-001,-5.18551E-002,6.74325E-001,1.36066E-001,1.14441E+000,-2.31347E-005,0.00000E+000,4.63015E-003,9.50554E-001,0.00000E+000,-9.19603E-003,-4.74285E-002,1.00000E+000,22
529,1327,-2.45240E+001,-5.52730E-001,1.38063E-001,1.52655E+000,-3.77584E-001,1.15872E-001,1.57682E+000,8.90152E-003,6.69295E-001,0,2.37966E+001,-6.40446E+000,9.97600E-001,-1.48138E+001,-4.82195E+001,9.97672E-001,1.19541E-001,-4.92996E-002,1.72083E-003,1.19559E-001,-4.93172E-002,5.83880E-001,1.20168E-001,1.12631E+000,3.88180E-002,0.00000E+000,-2.95402E-002,9.52813E-001,0.00000E+000,1.76097E-003,-5.36765E-002,1.00000E+000,22
529,1307,-2.45717E+001,-1.73718E+000,3.33910E-001,1.47665E+000,-3.10380E-001,1.78322E-001,1.51942E+000,1.14197E-002,6.40410E-001,0,2.28418E+001,-5.44437E+000,9.98983E-001,-1.52540E+001,-4.68133E+001,9.98441E-001,1.23032E-001,-4.92847E-002,1.44642E-003,1.23044E-001,-4.92969E-002,4.80894E-001,1.23851E-001,1.13026E+000,3.88116E-002,0.00000E+000,-3.01021E-002,9.52814E-001,0.00000E+000,4.83094E-003,-5.36815E-002,1.00000E+000,22
529,1317,-2.45504E+001,-1.15007E+000,2.22170E-001,1.50178E+000,-3.47041E-001,1.50533E-001,1.54869E+000,9.06355E-003,6.42339E-001,0,2.33151E+001,-5.96802E+000,9.98939E-001,-1.51163E+001,-4.75729E+001,9.98486E-001,1.21291E-001,-4.92931E-002,1.58695E-003,1.21306E-001,-4.93078E-002,5.32963E-001,1.22011E-001,1.12829E+000,3.88229E-002,0.00000E+000,-2.98214E-002,9.52812E-001,0.00000E+000,3.29719E-003,-5.36727E-002,1.00000E+000,22
