Coordinates.Image X [Pixel],Coordinates.Image Y [Pixel],coor.X [mm],coor.Y [mm],coor.Z [mm],disp.Horizontal Displacement U [mm],disp.Vertical Displacement V [mm],disp.Out-Of-Plane: W [mm],disp.Displacement Magnitude [mm],stats.Sigma [mm],stats.Epipolar Distance [Pixel],stats.Shape Index [-],SameCamera.Horizontal: u [Pixel],SameCamera.Vertical: v [Pixel],SameCamera.Correlation Value 2D [-],CrossCamera.Horizontal: q [Pixel],CrossCamera.Vertical: r [Pixel],CrossCamera.Correlation Value Persp [-],strain.Strain-global frame: Exx [ ],strain.Strain-global frame: Eyy [ ],strain.Strain-global frame: Exy [ ],strain.Maximum Principal Strain: EI [ ],strain.Minimum Principal Strain: EII [ ],strain.Shear Angle Gamma [deg],strain.Von Mises Equivalent Strain [ ],defgradient.F[0,0] [-],defgradient.F[0,1] [-],defgradient.F[0,2] [-],defgradient.F[1,0] [-],defgradient.F[1,1] [-],defgradient.F[1,2] [-],defgradient.F[2,0] [-],defgradient.F[2,1] [-],defgradient.F[2,2] [-],ext.Current Image [#]
929,1317,8.05304E+000,-1.15869E+000,6.96606E-002,8.38911E+000,-5.42334E-001,1.56381E-001,8.40808E+000,1.73312E-002,4.60225E-001,0,1.27792E+002,-9.83811E+000,9.97596E-001,8.49560E+001,-4.30646E+001,9.96073E-001,2.24963E-001,-9.45794E-002,-5.87372E-004,2.24964E-001,-9.45805E-002,-1.05319E-001,2.25912E-001,1.25221E+000,-2.27405E-002,0.00000E+000,1.68429E-002,9.14084E-001,0.00000E+000,-1.65792E-002,-9.91271E-002,1.00000E+000,35
919,1307,7.23804E+000,-1.75070E+000,1.44296E-001,8.24066E+000,-4.85061E-001,2.35813E-001,8.25829E+000,2.01010E-002,4.86122E-001,0,1.25344E+002,-9.06564E+000,9.95017E-001,8.23962E+001,-4.24731E+001,9.93357E-001,2.29040E-001,-9.43661E-002,-1.30834E-003,2.29045E-001,-9.43714E-002,-2.31785E-001,2.30224E-001,1.25735E+000,-2.01115E-002,0.00000E+000,1.34294E-002,9.14400E-001,0.00000E+000,-1.51293E-002,-9.98966E-002,1.00000E+000,35
919,1317,7.22077E+000,-1.18160E+000,2.95458E-002,8.22058E+000,-5.50963E-001,1.71974E-001,8.24081E+000,2.57959E-002,4.53610E-001,0,1.25280E+002,-9.99243E+000,9.91882E-001,8.19806E+001,-4.34435E+001,9.90345E-001,2.26575E-001,-9.43728E-002,-1.50090E-003,2.26582E-001,-9.43798E-002,-2.67935E-001,2.27632E-001,1.25422E+000,-2.01251E-002,0.00000E+000,1.29621E-002,9.14398E-001,0.00000E+000,-1.33985E-002,-9.98890E-002,1.00000E+000,35
919,1327,7.22414E+000,-6.02695E-001,-2.64149E-002,8.20682E+000,-6.19126E-001,1.00883E-001,8.23076E+000,1.87825E-002,4.92687E-001,0,1.25320E+002,-1.09328E+001,9.96257E-001,8.20056E+001,-4.43491E+001,9.94718E-001,2.24078E-001,-9.43870E-002,-1.72213E-003,2.24087E-001,-9.43963E-002,-3.09820E-001,2.25012E-001,1.25107E+000,-2.02073E-002,0.00000E+000,1.24904E-002,9.14386E-001,0.00000E+000,-1.16510E-002,-9.98435E-002,1.00000E+000,35
929,1307,8.06540E+000,-1.72714E+000,1.69928E-001,8.40866E+000,-4.72503E-001,2.25627E-001,8.42494E+000,1.69492E-002,5.05028E-001,0,1.27831E+002,-8.87078E+000,9.97995E-001,8.52651E+001,-4.20490E+001,9.96846E-001,2.27483E-001,-9.45812E-002,-5.83803E-004,2.27485E-001,-9.45823E-002,-1.03859E-001,2.28558E-001,1.25541E+000,-2.27050E-002,0.00000E+000,1.69748E-002,9.14086E-001,0.00000E+000,-1.87160E-002,-9.91508E-002,1.00000E+000,35
929,1327,8.04651E+000,-5.74685E-001,3.60724E-004,8.36914E+000,-6.00669E-001,8.92608E-002,8.39115E+000,1.61111E-002,4.54318E-001,0,1.27726E+002,-1.06515E+001,9.97704E-001,8.48015E+001,-4.38853E+001,9.97015E-001,2.22427E-001,-9.45769E-002,-6.03186E-004,2.22428E-001,-9.45781E-002,-1.09020E-001,2.23256E-001,1.24900E+000,-2.28069E-002,0.00000E+000,1.67106E-002,9.14082E-001,0.00000E+000,-1.44377E-002,-9.90828E-002,1.00000E+000,35
939,1307,8.88490E+000,-1.70950E+000,1.53488E-001,8.57382E+000,-4.61771E-001,1.98795E-001,8.58855E+000,1.86084E-002,5.03875E-001,0,1.30337E+002,-8.66660E+000,9.98154E-001,8.79318E+001,-4.16382E+001,9.97023E-001,2.25659E-001,-9.38403E-002,-8.91541E-005,2.25659E-001,-9.38403E-002,-1.59880E-002,2.26722E-001,1.25311E+000,-2.59134E-002,0.00000E+000,2.04510E-002,9.14538E-001,0.00000E+000,-2.12579E-002,-9.73089E-002,1.00000E+000,35
939,1317,8.87051E+000,-1.13826E+000,6.05904E-002,8.55145E+000,-5.28749E-001,1.33495E-001,8.56882E+000,1.83009E-002,4.38075E-001,0,1.30241E+002,-9.59968E+000,9.97376E-001,8.76073E+001,-4.26350E+001,9.95748E-001,2.23386E-001,-9.38345E-002,-3.96122E-005,2.23386E-001,-9.38345E-002,-7.15468E-003,2.24336E-001,1.25021E+000,-2.59493E-002,0.00000E+000,2.03959E-002,9.14537E-001,0.00000E+000,-1.88273E-002,-9.72788E-002,1.00000E+000,35
939,1327,8.86792E+000,-5.46404E-001,-1.36415E-003,8.53376E+000,-5.82504E-001,6.69226E-002,8.55388E+000,1.58027E-002,4.52735E-001,0,1.30206E+002,-1.03226E+001,9.96845E-001,8.75294E+001,-4.33374E+001,9.96055E-001,2.21086E-001,-9.38268E-002,-2.30605E-006,2.21086E-001,-9.38268E-002,-4.19566E-004,2.21927E-001,1.24729E+000,-2.60170E-002,0.00000E+000,2.03405E-002,9.14536E-001,0.00000E+000,-1.63799E-002,-9.72220E-002,1.00000E+000,35
919,1337,7.23508E+000,-9.03098E-003,-5.01925E-002,8.19572E+000,-6.74055E-001,3.89027E-002,8.22348E+000,1.77217E-002,4.48564E-001,0,1.25356E+002,-1.16760E+001,9.95817E-001,8.22161E+001,-4.51379E+001,9.95391E-001,2.21574E-001,-9.44038E-002,-1.95287E-003,2.21586E-001,-9.44159E-002,-3.54092E-001,2.22392E-001,1.24792E+000,-2.03131E-002,0.00000E+000,1.20190E-002,9.14370E-001,0.00000E+000,-9.90509E-003,-9.97849E-002,1.00000E+000,35
929,1337,8.05356E+000,9.93247E-003,-3.59711E-002,8.35658E+000,-6.64002E-001,2.68220E-002,8.38296E+000,1.62885E-002,4.39085E-001,0,1.27749E+002,-1.15255E+001,9.98048E-001,8.49239E+001,-4.47714E+001,9.97586E-001,2.19868E-001,-9.45739E-002,-6.31242E-004,2.19869E-001,-9.45751E-002,-1.15021E-001,2.20583E-001,1.24577E+000,-2.29037E-002,0.00000E+000,1.65778E-002,9.14078E-001,0.00000E+000,-1.22862E-002,-9.90183E-002,1.00000E+000,35
939,1337,8.87137E+000,3.75897E-002,-4.20758E-002,8.51846E+000,-6.45441E-001,4.68493E-003,8.54288E+000,1.41853E-002,4.54595E-001,0,1.30190E+002,-1.12088E+001,9.98017E-001,8.75864E+001,-4.42139E+001,9.97639E-001,2.18776E-001,-9.38181E-002,2.81333E-005,2.18776E-001,-9.38181E-002,5.15658E-003,2.19513E-001,1.24437E+000,-2.61012E-002,0.00000E+000,2.02850E-002,9.14535E-001,0.00000E+000,-1.39332E-002,-9.71516E-002,1.00000E+000,35
949,1317,9.69537E+000,-1.10781E+000,6.31027E-002,8.71936E+000,-5.07858E-001,1.16372E-001,8.73491E+000,2.77518E-002,4.58727E-001,0,1.32747E+002,-9.25431E+000,9.93229E-001,9.04025E+001,-4.20530E+001,9.91055E-001,2.21767E-001,-9.30334E-002,4.02689E-004,2.21767E-001,-9.30339E-002,7.32920E-002,2.22723E-001,1.24815E+000,-2.88166E-002,0.00000E+000,2.34570E-002,9.15004E-001,0.00000E+000,-2.05126E-002,-9.49721E-002,1.00000E+000,35
949,1327,9.68493E+000,-5.19214E-001,-1.54422E-002,8.69490E+000,-5.62972E-001,3.85194E-002,8.71319E+000,2.40991E-002,4.65756E-001,0,1.32653E+002,-9.99082E+000,9.94622E-001,9.01699E+001,-4.27730E+001,9.93425E-001,2.19910E-001,-9.30206E-002,5.00669E-004,2.19911E-001,-9.30214E-002,9.16691E-002,2.20779E-001,1.24578E+000,-2.88681E-002,0.00000E+000,2.34667E-002,9.15004E-001,0.00000E+000,-1.76538E-002,-9.49102E-002,1.00000E+000,35
949,1337,9.68984E+000,6.51532E-002,-4.26564E-002,8.68155E+000,-6.25588E-001,-7.25667E-003,8.70407E+000,1.76295E-002,4.68425E-001,0,1.32610E+002,-1.09055E+001,9.96832E-001,9.02752E+001,-4.36707E+001,9.95838E-001,2.18038E-001,-9.30060E-002,5.92428E-004,2.18039E-001,-9.30072E-002,1.09128E-001,2.18822E-001,1.24340E+000,-2.89351E-002,0.00000E+000,2.34765E-002,9.15004E-001,0.00000E+000,-1.47881E-002,-9.48296E-002,1.00000E+000,35
949,1307,9.71165E+000,-1.68836E+000,1.49137E-001,8.74332E+000,-4.49393E-001,1.73030E-001,8.75657E+000,2.28164E-002,4.83780E-001,0,1.32899E+002,-8.42603E+000,9.95951E-001,9.07411E+001,-4.12075E+001,9.94322E-001,2.23605E-001,-9.30433E-002,2.95813E-004,2.23606E-001,-9.30436E-002,5.35257E-002,2.24652E-001,1.25052E+000,-2.87884E-002,0.00000E+000,2.34473E-002,9.15004E-001,0.00000E+000,-2.33619E-002,-9.50061E-002,1.00000E+000,35
909,1317,6.40795E+000,-1.19683E+000,2.93291E-002,8.05947E+000,-5.58389E-001,1.74066E-001,8.08067E+000,2.32685E-002,4.22585E-001,0,1.22910E+002,-1.01052E+001,9.89593E-001,7.93932E+001,-4.37990E+001,9.89015E-001,2.28182E-001,-9.51334E-002,-2.49339E-003,2.28202E-001,-9.51527E-002,-4.41826E-001,2.29248E-001,1.25625E+000,-1.73541E-002,0.00000E+000,8.77516E-003,9.13755E-001,0.00000E+000,-9.84639E-003,-9.99552E-002,1.00000E+000,35
909,1327,6.41822E+000,-6.10824E-001,-2.93082E-002,8.05312E+000,-6.19995E-001,1.02066E-001,8.07759E+000,1.93281E-002,4.63731E-001,0,1.23062E+002,-1.09276E+001,9.92859E-001,7.95209E+001,-4.45889E+001,9.93625E-001,2.25768E-001,-9.51451E-002,-2.69155E-003,2.25790E-001,-9.51676E-002,-4.80505E-001,2.26716E-001,1.25320E+000,-1.74308E-002,0.00000E+000,8.38953E-003,9.13746E-001,0.00000E+000,-8.68074E-003,-9.99258E-002,1.00000E+000,35
909,1337,6.42611E+000,-1.35970E-002,-4.90144E-002,8.03884E+000,-6.74268E-001,4.31810E-002,8.06719E+000,2.06157E-002,5.06883E-001,0,1.23037E+002,-1.16639E+001,9.96061E-001,7.96936E+001,-4.52900E+001,9.95826E-001,2.23340E-001,-9.51593E-002,-2.90041E-003,2.23366E-001,-9.51857E-002,-5.21706E-001,2.24177E-001,1.25015E+000,-1.75328E-002,0.00000E+000,8.00293E-003,9.13733E-001,0.00000E+000,-7.51215E-003,-9.98867E-002,1.00000E+000,35
909,1307,6.41863E+000,-1.76579E+000,1.43478E-001,8.07193E+000,-4.92548E-001,2.32609E-001,8.09029E+000,2.22204E-002,4.16108E-001,0,1.22877E+002,-9.15874E+000,9.91718E-001,7.97070E+001,-4.28438E+001,9.88086E-001,2.30565E-001,-9.51289E-002,-2.32368E-003,2.30582E-001,-9.51455E-002,-4.08752E-001,2.31752E-001,1.25926E+000,-1.73457E-002,0.00000E+000,9.15675E-003,9.13756E-001,0.00000E+000,-1.09998E-002,-9.99584E-002,1.00000E+000,35
919,1347,7.25518E+000,5.95002E-001,-5.89217E-002,8.19053E+000,-7.22570E-001,-2.29381E-002,8.22237E+000,2.64678E-002,4.73142E-001,0,1.25475E+002,-1.23303E+001,9.97740E-001,8.26004E+001,-4.57660E+001,9.97013E-001,2.19051E-001,-9.44224E-002,-2.19104E-003,2.19066E-001,-9.44377E-002,-4.00447E-001,2.19758E-001,1.24476E+000,-2.04344E-002,0.00000E+000,1.15458E-002,9.14352E-001,0.00000E+000,-8.15208E-003,-9.97176E-002,1.00000E+000,35
929,1347,8.07006E+000,6.05546E-001,-4.49550E-002,8.34830E+000,-7.19941E-001,-3.20911E-002,8.37935E+000,1.52475E-002,4.44575E-001,0,1.27815E+002,-1.23038E+001,9.98070E-001,8.52492E+001,-4.55377E+001,9.97589E-001,2.17292E-001,-9.45703E-002,-6.69794E-004,2.17294E-001,-9.45717E-002,-1.23055E-001,2.17901E-001,1.24254E+000,-2.30259E-002,0.00000E+000,1.64446E-002,9.14073E-001,0.00000E+000,-1.01300E-002,-9.89367E-002,1.00000E+000,35
939,1347,8.88932E+000,6.33861E-001,-3.82581E-002,8.51194E+000,-7.00825E-001,-3.91168E-002,8.54083E+000,1.93198E-002,4.71538E-001,0,1.30230E+002,-1.20154E+001,9.98040E-001,8.79579E+001,-4.49905E+001,9.96840E-001,2.16446E-001,-9.38078E-002,4.82279E-005,2.16446E-001,-9.38078E-002,8.90644E-003,2.17085E-001,1.24143E+000,-2.62110E-002,0.00000E+000,2.02294E-002,9.14532E-001,0.00000E+000,-1.14776E-002,-9.70596E-002,1.00000E+000,35
949,1347,9.71182E+000,6.57670E-001,-3.19504E-002,8.67701E+000,-6.87101E-001,-5.24925E-002,8.70433E+000,1.70900E-002,4.75072E-001,0,1.32686E+002,-1.17851E+001,9.96627E-001,9.07203E+001,-4.45235E+001,9.95212E-001,2.16143E-001,-9.29877E-002,6.72465E-004,2.16145E-001,-9.29892E-002,1.24637E-001,2.16845E-001,1.24100E+000,-2.90325E-002,0.00000E+000,2.34863E-002,9.15005E-001,0.00000E+000,-1.19060E-002,-9.47125E-002,1.00000E+000,35
959,1317,1.05100E+001,-1.08562E+000,4.03810E-002,8.87851E+000,-4.92743E-001,8.26518E-002,8.89256E+000,2.55687E-002,4.46382E-001,0,1.35181E+002,-8.96486E+000,9.94271E-001,9.29947E+001,-4.15627E+001,9.93150E-001,2.20286E-001,-9.21337E-002,4.11028E-004,2.20287E-001,-9.21342E-002,7.53797E-002,2.21266E-001,1.24624E+000,-3.19063E-002,0.00000E+000,2.57982E-002,9.15575E-001,0.00000E+000,-2.12237E-002,-9.26872E-002,1.00000E+000,35
959,1327,1.05079E+001,-4.95474E-001,-2.23851E-002,8.86406E+000,-5.45543E-001,2.86525E-002,8.88088E+000,3.46208E-002,4.58308E-001,0,1.35157E+002,-9.71915E+000,9.97276E-001,9.29222E+001,-4.22871E+001,9.96517E-001,2.18777E-001,-9.21132E-002,6.00756E-004,2.18778E-001,-9.21144E-002,1.10716E-001,2.19685E-001,1.24430E+000,-3.19436E-002,0.00000E+000,2.59609E-002,9.15578E-001,0.00000E+000,-1.82594E-002,-9.26304E-002,1.00000E+000,35
959,1337,1.05130E+001,8.65546E-002,-4.09331E-002,8.84852E+000,-6.13028E-001,-1.83791E-002,8.86975E+000,2.55856E-002,4.58503E-001,0,1.35084E+002,-1.06919E+001,9.96200E-001,9.30457E+001,-4.32393E+001,9.95140E-001,2.17249E-001,-9.20868E-002,7.81407E-004,2.17251E-001,-9.20888E-002,1.44733E-001,2.18088E-001,1.24234E+000,-3.20058E-002,0.00000E+000,2.61244E-002,9.15583E-001,0.00000E+000,-1.52802E-002,-9.25356E-002,1.00000E+000,35
959,1307,1.05219E+001,-1.66146E+000,1.34471E-001,8.89892E+000,-4.27936E-001,1.50902E-001,8.91048E+000,1.94604E-002,4.72681E-001,0,1.35235E+002,-8.07744E+000,9.95616E-001,9.32803E+001,-4.06635E+001,9.94300E-001,2.21783E-001,-9.21513E-002,2.16831E-004,2.21783E-001,-9.21515E-002,3.95736E-002,2.22836E-001,1.24819E+000,-3.18805E-002,0.00000E+000,2.56357E-002,9.15573E-001,0.00000E+000,-2.41842E-002,-9.27266E-002,1.00000E+000,35
959,1347,1.05262E+001,6.73156E-001,-5.03615E-002,8.83707E+000,-6.78218E-001,-7.43811E-002,8.86336E+000,1.90082E-002,4.53103E-001,0,1.35099E+002,-1.16149E+001,9.95935E-001,9.33126E+001,-4.41447E+001,9.95076E-001,2.15708E-001,-9.20575E-002,9.56998E-004,2.15711E-001,-9.20605E-002,1.78159E-001,2.16481E-001,1.24039E+000,-3.20801E-002,0.00000E+000,2.62881E-002,9.15590E-001,0.00000E+000,-1.22979E-002,-9.24225E-002,1.00000E+000,35
909,1347,6.44628E+000,5.84850E-001,-4.78754E-002,8.03181E+000,-7.27873E-001,-1.87877E-002,8.06475E+000,2.24641E-002,4.82741E-001,0,1.23127E+002,-1.23980E+001,9.97774E-001,8.01002E+001,-4.60524E+001,9.96151E-001,2.20910E-001,-9.51760E-002,-3.11835E-003,2.20941E-001,-9.52068E-002,-5.65179E-001,2.21643E-001,1.24711E+000,-1.76579E-002,0.00000E+000,7.61725E-003,9.13717E-001,0.00000E+000,-6.34635E-003,-9.98387E-002,1.00000E+000,35
899,1327,5.60442E+000,-6.09519E-001,7.55378E-003,7.88298E+000,-6.18635E-001,1.05254E-001,7.90792E+000,1.45409E-002,4.83699E-001,0,1.20531E+002,-1.08872E+001,9.95313E-001,7.70034E+001,-4.47456E+001,9.95237E-001,2.26954E-001,-9.57837E-002,-3.49928E-003,2.26992E-001,-9.58216E-002,-6.21131E-001,2.27907E-001,1.25471E+000,-1.48867E-002,0.00000E+000,4.77856E-003,9.13233E-001,0.00000E+000,-5.75066E-003,-1.00407E-001,1.00000E+000,35
899,1337,5.62168E+000,-1.64953E-002,-3.67866E-002,7.88197E+000,-6.72717E-001,3.89284E-002,7.91072E+000,2.20358E-002,5.01235E-001,0,1.20738E+002,-1.16192E+001,9.97852E-001,7.72704E+001,-4.54721E+001,9.97504E-001,2.24793E-001,-9.57936E-002,-3.67059E-003,2.24835E-001,-9.58356E-002,-6.55899E-001,2.25649E-001,1.25200E+000,-1.49615E-002,0.00000E+000,4.49565E-003,9.13226E-001,0.00000E+000,-5.25668E-003,-1.00393E-001,1.00000E+000,35
899,1347,5.65550E+000,5.77302E-001,-3.31965E-002,7.88876E+000,-7.31146E-001,-2.07340E-002,7.92260E+000,1.84478E-002,4.87620E-001,0,1.21031E+002,-1.24343E+001,9.97750E-001,7.78942E+001,-4.63066E+001,9.97118E-001,2.22623E-001,-9.58070E-002,-3.85647E-003,2.22669E-001,-9.58537E-002,-6.93769E-001,2.23386E-001,1.24928E+000,-1.50721E-002,0.00000E+000,4.21203E-003,9.13214E-001,0.00000E+000,-4.76146E-003,-1.00373E-001,1.00000E+000,35
899,1317,5.60249E+000,-1.19089E+000,8.18901E-002,7.89371E+000,-5.56710E-001,1.75143E-001,7.91526E+000,1.82404E-002,4.72282E-001,0,1.20450E+002,-1.00463E+001,9.94540E-001,7.70380E+001,-4.38991E+001,9.92408E-001,2.29104E-001,-9.57760E-002,-3.33746E-003,2.29139E-001,-9.58103E-002,-5.88510E-001,2.30160E-001,1.25741E+000,-1.48348E-002,0.00000E+000,5.06079E-003,9.13239E-001,0.00000E+000,-6.24345E-003,-1.00416E-001,1.00000E+000,35
899,1307,5.60303E+000,-1.76058E+000,1.78172E-001,7.90125E+000,-4.87461E-001,2.40390E-001,7.91992E+000,1.80606E-002,4.21581E-001,0,1.20326E+002,-9.05210E+000,9.94642E-001,7.71589E+001,-4.29378E+001,9.91079E-001,2.31243E-001,-9.57707E-002,-3.18526E-003,2.31274E-001,-9.58017E-002,-5.58015E-001,2.32406E-001,1.26011E+000,-1.48059E-002,0.00000E+000,5.34210E-003,9.13242E-001,0.00000E+000,-6.73464E-003,-1.00422E-001,1.00000E+000,35
889,1327,4.79283E+000,-6.16445E-001,1.89392E-002,7.71942E+000,-6.21863E-001,1.05073E-001,7.74514E+000,1.28191E-002,4.98727E-001,0,1.18117E+002,-1.09166E+001,9.96866E-001,7.44720E+001,-4.49768E+001,9.96400E-001,2.28152E-001,-9.50880E-002,-4.36105E-003,2.28211E-001,-9.51469E-002,-7.72828E-001,2.29259E-001,1.25623E+000,-1.29105E-002,0.00000E+000,1.45816E-003,9.13956E-001,0.00000E+000,-2.51948E-003,-1.01175E-001,1.00000E+000,35
889,1337,4.80301E+000,-2.29054E-002,-2.85361E-002,7.71260E+000,-6.73804E-001,4.08505E-002,7.74209E+000,1.99638E-002,5.05189E-001,0,1.18227E+002,-1.16232E+001,9.97794E-001,7.46238E+001,-4.56972E+001,9.97270E-001,2.26063E-001,-9.50858E-002,-4.35928E-003,2.26122E-001,-9.51450E-002,-7.77544E-001,2.27066E-001,1.25361E+000,-1.29778E-002,0.00000E+000,1.59360E-003,9.13959E-001,0.00000E+000,-3.20015E-003,-1.01193E-001,1.00000E+000,35
889,1347,4.83761E+000,5.68241E-001,-2.83217E-002,7.72096E+000,-7.34150E-001,-1.95349E-002,7.75581E+000,1.62338E-002,4.80367E-001,0,1.18547E+002,-1.24624E+001,9.97298E-001,7.52539E+001,-4.65726E+001,9.96883E-001,2.23961E-001,-9.50826E-002,-4.37183E-003,2.24021E-001,-9.51425E-002,-7.84923E-001,2.24866E-001,1.25098E+000,-1.30816E-002,0.00000E+000,1.72955E-003,9.13965E-001,0.00000E+000,-3.88339E-003,-1.01220E-001,1.00000E+000,35
969,1297,1.13695E+001,-2.20824E+000,2.36531E-001,9.09190E+000,-3.44928E-001,1.82807E-001,9.10027E+000,2.44595E-002,4.83126E-001,0,1.37917E+002,-6.85280E+000,9.97820E-001,9.65502E+001,-3.92350E+001,9.96063E-001,2.21166E-001,-9.16205E-002,-8.74031E-005,2.21166E-001,-9.16205E-002,-1.60104E-002,2.22248E-001,1.24744E+000,-3.44746E-002,0.00000E+000,2.72101E-002,9.15796E-001,0.00000E+000,-2.75135E-002,-8.99940E-002,1.00000E+000,35
969,1307,1.13299E+001,-1.65139E+000,9.95517E-002,9.05024E+000,-4.25520E-001,1.01573E-001,9.06081E+000,4.77257E-002,4.53042E-001,0,1.37606E+002,-7.94137E+000,9.96595E-001,9.57499E+001,-4.03416E+001,9.94426E-001,2.20016E-001,-9.16049E-002,1.45418E-004,2.20016E-001,-9.16050E-002,2.67371E-002,2.21039E-001,1.24592E+000,-3.44794E-002,0.00000E+000,2.74209E-002,9.15797E-001,0.00000E+000,-2.44362E-002,-8.99844E-002,1.00000E+000,35
969,1317,1.13279E+001,-1.07208E+000,4.24544E-002,9.03867E+000,-4.87072E-001,6.58578E-002,9.05202E+000,1.54556E-002,4.16699E-001,0,1.37567E+002,-8.85484E+000,9.98378E-001,9.56894E+001,-4.12679E+001,9.97923E-001,2.18853E-001,-9.15832E-002,3.71269E-004,2.18854E-001,-9.15836E-002,6.85231E-002,2.19822E-001,1.24439E+000,-3.45022E-002,0.00000E+000,2.76319E-002,9.15800E-001,0.00000E+000,-2.13570E-002,-8.99382E-002,1.00000E+000,35
889,1317,4.78434E+000,-1.19576E+000,9.16006E-002,7.72302E+000,-5.58515E-001,1.71137E-001,7.74508E+000,1.72658E-002,5.23715E-001,0,1.17940E+002,-1.00614E+001,9.96806E-001,7.44020E+001,-4.40758E+001,9.95761E-001,2.30234E-001,-9.50897E-002,-4.37045E-003,2.30293E-001,-9.51484E-002,-7.69534E-001,2.31448E-001,1.25885E+000,-1.28625E-002,0.00000E+000,1.32291E-003,9.13954E-001,0.00000E+000,-1.83975E-003,-1.01163E-001,1.00000E+000,35
969,1327,1.13186E+001,-4.83908E-001,-2.51100E-002,9.01632E+000,-5.42358E-001,4.39032E-003,9.03262E+000,2.24015E-002,4.44828E-001,0,1.37452E+002,-9.64046E+000,9.97238E-001,9.54956E+001,-4.20035E+001,9.96230E-001,2.17678E-001,-9.15586E-002,5.94092E-004,2.17679E-001,-9.15597E-002,1.10074E-001,2.18592E-001,1.24286E+000,-3.45332E-002,0.00000E+000,2.78432E-002,9.15804E-001,0.00000E+000,-1.82718E-002,-8.98758E-002,1.00000E+000,35
889,1307,4.77848E+000,-1.76761E+000,1.88381E-001,7.72346E+000,-4.92229E-001,2.33882E-001,7.74266E+000,2.01338E-002,4.80319E-001,0,1.17719E+002,-9.10850E+000,9.95801E-001,7.44256E+001,-4.31440E+001,9.93041E-001,2.32304E-001,-9.50908E-002,-4.38871E-003,2.32363E-001,-9.51497E-002,-7.67863E-001,2.33629E-001,1.26146E+000,-1.28374E-002,0.00000E+000,1.18814E-003,9.13952E-001,0.00000E+000,-1.16243E-003,-1.01156E-001,1.00000E+000,35
969,1337,1.13222E+001,9.89340E-002,-5.85935E-002,9.00138E+000,-6.06078E-001,-4.78856E-002,9.02188E+000,2.13261E-002,3.85811E-001,0,1.37410E+002,-1.05420E+001,9.96936E-001,9.55672E+001,-4.29384E+001,9.96623E-001,2.16491E-001,-9.15295E-002,8.11718E-004,2.16493E-001,-9.15316E-002,1.50989E-001,2.17351E-001,1.24133E+000,-3.45773E-002,0.00000E+000,2.80549E-002,9.15810E-001,0.00000E+000,-1.51821E-002,-8.97868E-002,1.00000E+000,35
969,1347,1.13292E+001,7.08197E-001,-6.47081E-002,8.98495E+000,-6.49511E-001,-9.39253E-002,9.00889E+000,1.78730E-002,4.28103E-001,0,1.37309E+002,-1.11494E+001,9.96775E-001,9.57451E+001,-4.34755E+001,9.96004E-001,2.15284E-001,-9.14964E-002,1.02590E-003,2.15288E-001,-9.14999E-002,1.91600E-001,2.16093E-001,1.23979E+000,-3.46328E-002,0.00000E+000,2.82680E-002,9.15818E-001,0.00000E+000,-1.20721E-002,-8.96749E-002,1.00000E+000,35
879,1327,3.98759E+000,-6.17097E-001,3.85997E-002,7.56167E+000,-6.18630E-001,1.12484E-001,7.58777E+000,1.84505E-002,5.15113E-001,0,1.15758E+002,-1.08687E+001,9.96800E-001,7.20635E+001,-4.51278E+001,9.96456E-001,2.29040E-001,-9.53647E-002,-4.88551E-003,2.29113E-001,-9.54383E-002,-8.62610E-001,2.30174E-001,1.25737E+000,-1.11131E-002,0.00000E+000,-1.01312E-003,9.13648E-001,0.00000E+000,-3.48110E-004,-1.00502E-001,1.00000E+000,35
879,1337,3.99690E+000,-2.92510E-002,-1.74863E-002,7.55464E+000,-6.75374E-001,4.20971E-002,7.58489E+000,1.79975E-002,4.95508E-001,0,1.15888E+002,-1.16277E+001,9.95651E-001,7.21830E+001,-4.59326E+001,9.95210E-001,2.27202E-001,-9.53584E-002,-4.80573E-003,2.27274E-001,-9.54300E-002,-8.53380E-001,2.28244E-001,1.25506E+000,-1.11701E-002,0.00000E+000,-6.89886E-004,9.13655E-001,0.00000E+000,-1.64668E-003,-1.00534E-001,1.00000E+000,35
879,1347,4.02499E+000,5.68110E-001,-1.80658E-002,7.55799E+000,-7.29766E-001,-1.27618E-002,7.59315E+000,2.04710E-002,5.03611E-001,0,1.16111E+002,-1.23806E+001,9.95901E-001,7.27133E+001,-4.66968E+001,9.95437E-001,2.25348E-001,-9.53494E-002,-4.73687E-003,2.25418E-001,-9.54193E-002,-8.46043E-001,2.26300E-001,1.25273E+000,-1.12564E-002,0.00000E+000,-3.64688E-004,9.13668E-001,0.00000E+000,-2.95316E-003,-1.00582E-001,1.00000E+000,35
879,1307,3.95622E+000,-1.76610E+000,2.09161E-001,7.54699E+000,-4.88590E-001,2.35190E-001,7.56645E+000,2.37734E-002,4.83164E-001,0,1.15097E+002,-9.02766E+000,9.94324E-001,7.17580E+001,-4.32683E+001,9.92042E-001,2.32689E-001,-9.53722E-002,-5.06624E-003,2.32767E-001,-9.54504E-002,-8.84537E-001,2.34019E-001,1.26197E+000,-1.10545E-002,0.00000E+000,-1.65761E-003,9.13639E-001,0.00000E+000,2.24110E-003,-1.00469E-001,1.00000E+000,35
879,1317,3.97125E+000,-1.19339E+000,1.16954E-001,7.55714E+000,-5.51896E-001,1.83300E-001,7.57948E+000,1.78705E-002,4.37014E-001,0,1.15442E+002,-9.92980E+000,9.96934E-001,7.18859E+001,-4.42424E+001,9.95798E-001,2.30873E-001,-9.53696E-002,-4.97153E-003,2.30949E-001,-9.54453E-002,-8.72847E-001,2.32104E-001,1.25968E+000,-1.10718E-002,0.00000E+000,-1.33645E-003,9.13642E-001,0.00000E+000,9.50883E-004,-1.00479E-001,1.00000E+000,35
979,1307,1.21828E+001,-1.63038E+000,1.30220E-001,9.24288E+000,-4.14206E-001,1.03679E-001,9.25274E+000,2.66668E-002,4.06375E-001,0,1.40405E+002,-7.76960E+000,9.98334E-001,9.90490E+001,-3.99979E+001,9.98236E-001,2.18436E-001,-9.09905E-002,1.00798E-004,2.18436E-001,-9.09905E-002,1.86644E-002,2.19448E-001,1.24387E+000,-3.64142E-002,0.00000E+000,2.86750E-002,9.16064E-001,0.00000E+000,-2.35402E-002,-8.67911E-002,1.00000E+000,35
979,1317,1.21541E+001,-1.04522E+000,3.96183E-002,9.20601E+000,-4.69516E-001,4.16535E-002,9.21807E+000,1.57257E-002,4.20042E-001,0,1.40081E+002,-8.54662E+000,9.97603E-001,9.85098E+001,-4.07389E+001,9.96800E-001,2.17740E-001,-9.09656E-002,3.78321E-004,2.17741E-001,-9.09660E-002,7.02161E-002,2.18720E-001,1.24293E+000,-3.64261E-002,0.00000E+000,2.89790E-002,9.16067E-001,0.00000E+000,-2.05458E-002,-8.67533E-002,1.00000E+000,35
979,1327,1.21363E+001,-4.60213E-001,-2.74399E-002,9.17597E+000,-5.27189E-001,-1.53172E-002,9.19112E+000,1.68153E-002,4.21529E-001,0,1.39836E+002,-9.37192E+000,9.95662E-001,9.81848E+001,-4.15372E+001,9.94231E-001,2.17034E-001,-9.09367E-002,6.53481E-004,2.17035E-001,-9.09381E-002,1.21575E-001,2.17983E-001,1.24199E+000,-3.64440E-002,0.00000E+000,2.92833E-002,9.16073E-001,0.00000E+000,-1.75486E-002,-8.66962E-002,1.00000E+000,35
979,1337,1.21331E+001,1.33058E-001,-6.20634E-002,9.15635E+000,-5.79644E-001,-5.83835E-002,9.17486E+000,2.26095E-002,4.23870E-001,0,1.39690E+002,-1.01438E+001,9.93104E-001,9.81480E+001,-4.22768E+001,9.93045E-001,2.16317E-001,-9.09038E-002,9.26522E-004,2.16320E-001,-9.09066E-002,1.72792E-001,2.17235E-001,1.24105E+000,-3.64679E-002,0.00000E+000,2.95882E-002,9.16081E-001,0.00000E+000,-1.45447E-002,-8.66198E-002,1.00000E+000,35
979,1347,1.21392E+001,7.38891E-001,-5.78640E-002,9.13756E+000,-6.26251E-001,-1.00211E-001,9.15954E+000,2.32479E-002,4.30703E-001,0,1.39537E+002,-1.08135E+001,9.90728E-001,9.83302E+001,-4.29059E+001,9.90596E-001,2.15586E-001,-9.08629E-002,1.19575E-003,2.15591E-001,-9.08676E-002,2.23561E-001,2.16475E-001,1.24010E+000,-3.65043E-002,0.00000E+000,2.98948E-002,9.16093E-001,0.00000E+000,-1.15247E-002,-8.65038E-002,1.00000E+000,35
979,1297,1.21848E+001,-2.19058E+000,2.19285E-001,9.25133E+000,-3.34488E-001,1.56989E-001,9.25870E+000,2.08778E-002,4.79904E-001,0,1.40320E+002,-6.64323E+000,9.97801E-001,9.91717E+001,-3.88264E+001,9.97540E-001,2.19123E-001,-9.10138E-002,-1.77928E-004,2.19123E-001,-9.10139E-002,-3.28710E-002,2.20167E-001,1.24481E+000,-3.64047E-002,0.00000E+000,2.83710E-002,9.16060E-001,0.00000E+000,-2.65351E-002,-8.68215E-002,1.00000E+000,35
869,1317,3.14430E+000,-1.18982E+000,1.09410E-001,7.37858E+000,-5.44304E-001,1.70283E-001,7.40059E+000,1.31610E-002,4.53667E-001,0,1.12833E+002,-9.75846E+000,9.97537E-001,6.90903E+001,-4.42705E+001,9.96278E-001,2.31078E-001,-9.58244E-002,-5.05595E-003,2.31156E-001,-9.59025E-002,-8.85867E-001,2.32270E-001,1.25996E+000,-9.06138E-003,0.00000E+000,-3.10673E-003,9.13161E-001,0.00000E+000,2.84477E-003,-9.97818E-002,1.00000E+000,35
869,1327,3.16318E+000,-6.13043E-001,3.86687E-002,7.38612E+000,-6.09119E-001,1.08719E-001,7.41199E+000,1.86816E-002,5.34299E-001,0,1.13163E+002,-1.07040E+001,9.96139E-001,6.93233E+001,-4.51651E+001,9.95231E-001,2.29636E-001,-9.58203E-002,-4.97034E-003,2.29712E-001,-9.58962E-002,-8.74744E-001,2.30753E-001,1.25814E+000,-9.09271E-003,0.00000E+000,-2.76030E-003,9.13167E-001,0.00000E+000,1.12908E-003,-9.98113E-002,1.00000E+000,35
869,1337,3.18057E+000,-3.16337E-002,-6.39675E-003,7.38671E+000,-6.73060E-001,4.65075E-002,7.41746E+000,1.96664E-002,5.02938E-001,0,1.13381E+002,-1.15783E+001,9.94646E-001,6.95909E+001,-4.61001E+001,9.94116E-001,2.28185E-001,-9.58145E-002,-4.89039E-003,2.28259E-001,-9.58883E-002,-8.64549E-001,2.29229E-001,1.25631E+000,-9.13904E-003,0.00000E+000,-2.41298E-003,9.13175E-001,0.00000E+000,-5.90986E-004,-9.98549E-002,1.00000E+000,35
869,1347,3.20488E+000,5.69570E-001,-1.89056E-002,7.38901E+000,-7.20274E-001,-8.27332E-003,7.42404E+000,2.39847E-002,4.85914E-001,0,1.13587E+002,-1.22281E+001,9.96025E-001,7.00392E+001,-4.67938E+001,9.95654E-001,2.26727E-001,-9.58072E-002,-4.81598E-003,2.26799E-001,-9.58791E-002,-8.55268E-001,2.27700E-001,1.25448E+000,-9.19963E-003,0.00000E+000,-2.06509E-003,9.13187E-001,0.00000E+000,-2.31383E-003,-9.99120E-002,1.00000E+000,35
869,1307,3.13760E+000,-1.75995E+000,2.23944E-001,7.37622E+000,-4.78394E-001,2.42090E-001,7.39568E+000,1.92913E-002,4.77493E-001,0,1.12539E+002,-8.85844E+000,9.95498E-001,6.91410E+001,-4.33124E+001,9.93563E-001,2.32509E-001,-9.58263E-002,-5.14858E-003,2.32590E-001,-9.59070E-002,-8.98153E-001,2.33778E-001,1.26177E+000,-9.04920E-003,0.00000E+000,-3.45164E-003,9.13158E-001,0.00000E+000,4.55288E-003,-9.97704E-002,1.00000E+000,35
989,1307,1.29826E+001,-1.59083E+000,1.06864E-001,9.38585E+000,-3.81624E-001,6.97149E-002,9.39387E+000,2.04739E-002,4.57669E-001,0,1.42578E+002,-7.23843E+000,9.96742E-001,1.01428E+002,-3.92099E+001,9.96178E-001,2.17148E-001,-9.07321E-002,5.36070E-005,2.17148E-001,-9.07321E-002,9.97616E-003,2.18123E-001,1.24220E+000,-3.72221E-002,0.00000E+000,2.90196E-002,9.16044E-001,0.00000E+000,-2.16819E-002,-8.36915E-002,1.00000E+000,35
989,1317,1.29506E+001,-1.00296E+000,2.69062E-002,9.34690E+000,-4.35375E-001,2.38532E-002,9.35706E+000,2.14805E-002,5.19155E-001,0,1.42166E+002,-8.02378E+000,9.97183E-001,1.00859E+002,-3.99062E+001,9.96291E-001,2.16833E-001,-9.07036E-002,3.90395E-004,2.16834E-001,-9.07041E-002,7.27326E-002,2.17796E-001,1.24174E+000,-3.72271E-002,0.00000E+000,2.94300E-002,9.16048E-001,0.00000E+000,-1.87236E-002,-8.36595E-002,1.00000E+000,35
989,1327,1.29509E+001,-4.22515E-001,-3.06360E-002,9.33287E+000,-4.99913E-001,-3.21885E-002,9.34631E+000,2.45532E-002,5.08881E-001,0,1.42161E+002,-8.94068E+000,9.96000E-001,1.00832E+002,-4.07976E+001,9.94011E-001,2.16510E-001,-9.06670E-002,7.25213E-004,2.16512E-001,-9.06687E-002,1.35268E-001,2.17462E-001,1.24129E+000,-3.72372E-002,0.00000E+000,2.98407E-002,9.16057E-001,0.00000E+000,-1.57629E-002,-8.35939E-002,1.00000E+000,35
989,1297,1.30077E+001,-2.16670E+000,2.14485E-001,9.41662E+000,-3.17320E-001,1.37672E-001,9.42297E+000,1.84546E-002,4.57166E-001,0,1.42779E+002,-6.35572E+000,9.96554E-001,1.01942E+002,-3.83566E+001,9.95700E-001,2.17452E-001,-9.07590E-002,-2.83290E-004,2.17453E-001,-9.07592E-002,-5.26628E-002,2.18440E-001,1.24265E+000,-3.72181E-002,0.00000E+000,2.86098E-002,9.16040E-001,0.00000E+000,-2.46357E-002,-8.37177E-002,1.00000E+000,35
989,1337,1.29473E+001,1.64230E-001,-5.58783E-002,9.30992E+000,-5.58787E-001,-7.82035E-002,9.32700E+000,2.01966E-002,4.29733E-001,0,1.41975E+002,-9.79744E+000,9.92541E-001,1.00804E+002,-4.16977E+001,9.93040E-001,2.16178E-001,-9.06250E-002,1.05758E-003,2.16182E-001,-9.06286E-002,1.97501E-001,2.17120E-001,1.24083E+000,-3.72508E-002,0.00000E+000,3.02507E-002,9.16070E-001,0.00000E+000,-1.28080E-002,-8.35056E-002,1.00000E+000,35
989,1347,1.29524E+001,7.67662E-001,-5.92098E-002,9.29232E+000,-6.05632E-001,-1.17572E-001,9.31278E+000,2.19358E-002,4.31126E-001,0,1.41835E+002,-1.04890E+001,9.95997E-001,1.00956E+002,-4.23487E+001,9.96531E-001,2.15836E-001,-9.05789E-002,1.39022E-003,2.15842E-001,-9.05852E-002,2.59946E-001,2.16768E-001,1.24037E+000,-3.72668E-002,0.00000E+000,3.06627E-002,9.16084E-001,0.00000E+000,-9.83780E-003,-8.34012E-002,1.00000E+000,35
859,1327,2.34296E+000,-6.07332E-001,3.30403E-002,7.21414E+000,-5.98723E-001,9.83560E-002,7.23961E+000,1.71824E-002,5.19966E-001,0,1.10639E+002,-1.04850E+001,9.94946E-001,6.66414E+001,-4.51810E+001,9.94318E-001,2.29873E-001,-9.59251E-002,-4.77223E-003,2.29943E-001,-9.59950E-002,-8.39018E-001,2.30984E-001,1.25845E+000,-7.32419E-003,0.00000E+000,-3.72889E-003,9.12982E-001,0.00000E+000,1.84841E-003,-9.88777E-002,1.00000E+000,35
859,1337,2.36681E+000,-2.19564E-002,-8.18762E-003,7.22149E+000,-6.57640E-001,4.06387E-002,7.25148E+000,1.98677E-002,5.12338E-001,0,1.10942E+002,-1.13150E+001,9.94412E-001,6.70181E+001,-4.60521E+001,9.93966E-001,2.28844E-001,-9.59231E-002,-4.74764E-003,2.28913E-001,-9.59924E-002,-8.37345E-001,2.29904E-001,1.25715E+000,-7.35657E-003,0.00000E+000,-3.47994E-003,9.12988E-001,0.00000E+000,-9.58117E-005,-9.89262E-002,1.00000E+000,35
859,1347,2.39151E+000,5.67150E-001,-1.81387E-002,7.22372E+000,-7.17227E-001,-1.46792E-002,7.25926E+000,2.56497E-002,4.70651E-001,0,1.11152E+002,-1.21415E+001,9.96674E-001,6.74777E+001,-4.69525E+001,9.96628E-001,2.27807E-001,-9.59203E-002,-4.72758E-003,2.27876E-001,-9.59893E-002,-8.36487E-001,2.28816E-001,1.25585E+000,-7.40056E-003,0.00000E+000,-3.23019E-003,9.12996E-001,0.00000E+000,-2.04634E-003,-9.89921E-002,1.00000E+000,35
859,1307,2.31733E+000,-1.75284E+000,2.26352E-001,7.20378E+000,-4.68848E-001,2.38692E-001,7.22296E+000,2.21900E-002,5.63272E-001,0,1.09988E+002,-8.69353E+000,9.96686E-001,6.64773E+001,-4.32701E+001,9.96032E-001,2.31906E-001,-9.59271E-002,-4.83466E-003,2.31978E-001,-9.59984E-002,-8.44714E-001,2.33123E-001,1.26103E+000,-7.29405E-003,0.00000E+000,-4.22434E-003,9.12976E-001,0.00000E+000,5.71777E-003,-9.88326E-002,1.00000E+000,35
859,1317,2.33234E+000,-1.19108E+000,1.11350E-001,7.21444E+000,-5.42544E-001,1.66115E-001,7.23672E+000,1.74493E-002,5.02251E-001,0,1.10412E+002,-9.70080E+000,9.95987E-001,6.65512E+001,-4.43761E+001,9.94237E-001,2.30893E-001,-9.59265E-002,-4.80101E-003,2.30964E-001,-9.59970E-002,-8.41437E-001,2.32057E-001,1.25974E+000,-7.30271E-003,0.00000E+000,-3.97698E-003,9.12978E-001,0.00000E+000,3.78598E-003,-9.88456E-002,1.00000E+000,35
999,1337,1.37551E+001,1.90294E-001,-6.45467E-002,9.46274E+000,-5.37159E-001,-8.61254E-002,9.47836E+000,1.60391E-002,3.83837E-001,0,1.44210E+002,-9.47112E+000,9.98418E-001,1.03337E+002,-4.11920E+001,9.97652E-001,2.15886E-001,-9.04877E-002,9.08542E-004,2.15889E-001,-9.04903E-002,1.69907E-001,2.16827E-001,1.24043E+000,-3.75148E-002,0.00000E+000,2.99798E-002,9.15959E-001,0.00000E+000,-1.04879E-002,-8.03107E-002,1.00000E+000,35
999,1347,1.37688E+001,7.95240E-001,-5.79093E-002,9.45122E+000,-5.85636E-001,-1.25307E-001,9.47017E+000,1.47012E-002,3.89036E-001,0,1.44160E+002,-1.01687E+001,9.98536E-001,1.03638E+002,-4.18368E+001,9.98119E-001,2.15889E-001,-9.04426E-002,1.22760E-003,2.15894E-001,-9.04475E-002,2.29603E-001,2.16838E-001,1.24042E+000,-3.75155E-002,0.00000E+000,3.03695E-002,9.15974E-001,0.00000E+000,-7.71638E-003,-8.02036E-002,1.00000E+000,35
999,1307,1.37938E+001,-1.56015E+000,9.74801E-002,9.53977E+000,-3.57979E-001,4.99468E-002,9.54662E+000,1.35201E-002,4.30205E-001,0,1.44866E+002,-6.83705E+000,9.97556E-001,1.04014E+002,-3.86271E+001,9.97523E-001,2.15830E-001,-9.05846E-002,-4.31981E-005,2.15830E-001,-9.05846E-002,-8.07751E-003,2.16756E-001,1.24049E+000,-3.75137E-002,0.00000E+000,2.88206E-002,9.15936E-001,0.00000E+000,-1.87309E-002,-8.04734E-002,1.00000E+000,35
999,1317,1.37700E+001,-9.76962E-001,1.12438E-002,9.50863E+000,-4.16038E-001,-3.68124E-003,9.51773E+000,2.11843E-002,4.96475E-001,0,1.44603E+002,-7.68846E+000,9.96051E-001,1.03560E+002,-3.93770E+001,9.92603E-001,2.15856E-001,-9.05578E-002,2.74439E-004,2.15857E-001,-9.05580E-002,5.13168E-002,2.16787E-001,1.24047E+000,-3.75139E-002,0.00000E+000,2.92070E-002,9.15941E-001,0.00000E+000,-1.59829E-002,-8.04420E-002,1.00000E+000,35
999,1327,1.37663E+001,-4.02541E-001,-3.83337E-002,9.49204E+000,-4.85294E-001,-4.49374E-002,9.50454E+000,2.32227E-002,4.98028E-001,0,1.44510E+002,-8.72484E+000,9.97166E-001,1.03484E+002,-4.03716E+001,9.94664E-001,2.15875E-001,-9.05254E-002,5.91937E-004,2.15876E-001,-9.05265E-002,1.10690E-001,2.16810E-001,1.24045E+000,-3.75143E-002,0.00000E+000,2.95937E-002,9.15948E-001,0.00000E+000,-1.32333E-002,-8.03874E-002,1.00000E+000,35
999,1297,1.38219E+001,-2.14584E+000,2.09506E-001,9.57327E+000,-3.03706E-001,1.20407E-001,9.57884E+000,1.44580E-002,4.54984E-001,0,1.45099E+002,-6.12418E+000,9.95925E-001,1.04582E+002,-3.79241E+001,9.93564E-001,2.15796E-001,-9.06092E-002,-3.60843E-004,2.15797E-001,-9.06096E-002,-6.74750E-002,2.16718E-001,1.24051E+000,-3.75136E-002,0.00000E+000,2.84344E-002,9.15933E-001,0.00000E+000,-2.14767E-002,-8.04961E-002,1.00000E+000,35
849,1337,1.55136E+000,-2.07676E-002,-4.87580E-003,7.05332E+000,-6.53158E-001,3.59986E-002,7.08359E+000,2.33552E-002,5.55299E-001,0,1.08453E+002,-1.12113E+001,9.96427E-001,6.44343E+001,-4.61302E+001,9.95792E-001,2.29117E-001,-9.56549E-002,-4.28514E-003,2.29173E-001,-9.57114E-002,-7.55804E-001,2.30207E-001,1.25749E+000,-5.85417E-003,0.00000E+000,-3.69683E-003,9.13114E-001,0.00000E+000,-2.10359E-004,-9.76542E-002,1.00000E+000,35
849,1347,1.56953E+000,5.63376E-001,-2.08676E-002,7.05184E+000,-7.14495E-001,-1.26861E-002,7.08796E+000,2.06065E-002,4.69149E-001,0,1.08587E+002,-1.20742E+001,9.96942E-001,6.47806E+001,-4.71189E+001,9.96912E-001,2.28571E-001,-9.56532E-002,-4.26556E-003,2.28627E-001,-9.57093E-002,-7.53622E-001,2.29634E-001,1.25681E+000,-5.87447E-003,0.00000E+000,-3.47576E-003,9.13121E-001,0.00000E+000,-2.10564E-003,-9.77104E-002,1.00000E+000,35
849,1357,1.60351E+000,1.16414E+000,1.48017E-002,7.05572E+000,-7.68804E-001,-6.03811E-002,7.09774E+000,1.78700E-002,4.87224E-001,0,1.08785E+002,-1.28529E+001,9.97131E-001,6.54877E+001,-4.79135E+001,9.97408E-001,2.28017E-001,-9.56506E-002,-4.25009E-003,2.28072E-001,-9.57064E-002,-7.52180E-001,2.29052E-001,1.25612E+000,-5.90551E-003,0.00000E+000,-3.25278E-003,9.13131E-001,0.00000E+000,-4.01733E-003,-9.77963E-002,1.00000E+000,35
849,1327,1.53590E+000,-5.98822E-001,4.08244E-002,7.05309E+000,-5.87333E-001,9.26014E-002,7.07811E+000,2.32466E-002,5.44486E-001,0,1.08260E+002,-1.02733E+001,9.96880E-001,6.41979E+001,-4.51619E+001,9.96478E-001,2.29658E-001,-9.56562E-002,-4.30660E-003,2.29715E-001,-9.57132E-002,-7.58318E-001,2.30777E-001,1.25818E+000,-5.83841E-003,0.00000E+000,-3.91794E-003,9.13109E-001,0.00000E+000,1.68530E-003,-9.76106E-002,1.00000E+000,35
1009,1337,1.45745E+001,2.33960E-001,-6.26411E-002,9.62836E+000,-5.00283E-001,-7.58183E-002,9.64164E+000,2.26507E-002,4.26332E-001,0,1.46563E+002,-8.94315E+000,9.98384E-001,1.06077E+002,-4.03914E+001,9.98356E-001,2.15590E-001,-9.02714E-002,5.71261E-004,2.15591E-001,-9.02725E-002,1.07012E-001,2.16538E-001,1.24005E+000,-3.73945E-002,0.00000E+000,2.91178E-002,9.15992E-001,0.00000E+000,-8.46782E-003,-7.77186E-002,1.00000E+000,35
1009,1347,1.45790E+001,8.09913E-001,-5.54411E-002,9.60543E+000,-5.77365E-001,-1.23547E-001,9.62356E+000,1.54081E-002,3.88493E-001,0,1.46381E+002,-1.00702E+001,9.99162E-001,1.06231E+002,-4.15075E+001,9.98887E-001,2.15851E-001,-9.02370E-002,8.13665E-004,2.15854E-001,-9.02392E-002,1.52306E-001,2.16818E-001,1.24036E+000,-3.73814E-002,0.00000E+000,2.93835E-002,9.16003E-001,0.00000E+000,-6.10158E-003,-7.76191E-002,1.00000E+000,35
1009,1297,1.46292E+001,-2.12478E+000,2.01229E-001,9.72401E+000,-2.87890E-001,1.06692E-001,9.72885E+000,1.86390E-002,3.78868E-001,0,1.47315E+002,-5.84536E+000,9.93944E-001,1.07112E+002,-3.75194E+001,9.92442E-001,2.14492E-001,-9.03581E-002,-3.82594E-004,2.14493E-001,-9.03586E-002,-7.19074E-002,2.15377E-001,1.23882E+000,-3.74141E-002,0.00000E+000,2.80616E-002,9.15976E-001,0.00000E+000,-1.78756E-002,-7.78671E-002,1.00000E+000,35
1009,1307,1.46075E+001,-1.53461E+000,9.35708E-002,9.69699E+000,-3.37157E-001,4.06481E-002,9.70293E+000,1.86734E-002,4.00407E-001,0,1.47163E+002,-6.52643E+000,9.96289E-001,1.06655E+002,-3.81365E+001,9.96673E-001,2.14774E-001,-9.03401E-002,-1.45294E-004,2.14774E-001,-9.03402E-002,-2.72839E-002,2.15675E-001,1.23912E+000,-3.74115E-002,0.00000E+000,2.83250E-002,9.15978E-001,0.00000E+000,-1.55293E-002,-7.78476E-002,1.00000E+000,35
1009,1317,1.45907E+001,-9.52275E-001,9.94306E-003,9.67246E+000,-3.96167E-001,-1.15973E-002,9.68058E+000,1.85748E-002,4.30108E-001,0,1.46996E+002,-7.38344E+000,9.97285E-001,1.06314E+002,-3.89208E+001,9.96753E-001,2.15051E-001,-9.03203E-002,9.26388E-005,2.15051E-001,-9.03203E-002,1.73815E-002,2.15967E-001,1.23943E+000,-3.74078E-002,0.00000E+000,2.85889E-002,9.15981E-001,0.00000E+000,-1.31793E-002,-7.78196E-002,1.00000E+000,35
849,1317,1.51407E+000,-1.17655E+000,1.15604E-001,7.04343E+000,-5.24094E-001,1.63416E-001,7.06480E+000,2.23722E-002,5.91251E-001,0,1.07871E+002,-9.42292E+000,9.96562E-001,6.39277E+001,-4.42237E+001,9.94859E-001,2.30195E-001,-9.56573E-002,-4.32926E-003,2.30253E-001,-9.57148E-002,-7.61050E-001,2.31341E-001,1.25886E+000,-5.82579E-003,0.00000E+000,-4.13846E-003,9.13105E-001,0.00000E+000,3.57588E-003,-9.75756E-002,1.00000E+000,35
1009,1327,1.45818E+001,-3.66442E-001,-4.03686E-002,9.64888E+000,-4.55960E-001,-6.07692E-002,9.65984E+000,1.76060E-002,4.28805E-001,0,1.46822E+002,-8.24438E+000,9.98498E-001,1.06157E+002,-3.97374E+001,9.97904E-001,2.15323E-001,-9.02954E-002,3.32303E-004,2.15324E-001,-9.02957E-002,6.22984E-002,2.16255E-001,1.23974E+000,-3.74008E-002,0.00000E+000,2.88534E-002,9.15987E-001,0.00000E+000,-1.08228E-002,-7.77665E-002,1.00000E+000,35
849,1307,1.49108E+000,-1.74978E+000,2.19353E-001,7.02479E+000,-4.61111E-001,2.24891E-001,7.04350E+000,2.43558E-002,6.01660E-001,0,1.07367E+002,-8.54676E+000,9.96729E-001,6.37054E+001,-4.32954E+001,9.95626E-001,2.30726E-001,-9.56578E-002,-4.35498E-003,2.30785E-001,-9.57159E-002,-7.64323E-001,2.31900E-001,1.25954E+000,-5.82121E-003,0.00000E+000,-4.35839E-003,9.13103E-001,0.00000E+000,5.46139E-003,-9.75630E-002,1.00000E+000,35
839,1337,7.30850E-001,-3.20995E-002,1.45128E-002,6.87943E+000,-6.59456E-001,4.59197E-002,6.91111E+000,4.19753E-002,5.37039E-001,0,1.05827E+002,-1.13064E+001,9.97251E-001,6.18126E+001,-4.64681E+001,9.96272E-001,2.29050E-001,-9.57949E-002,-3.55402E-003,2.29089E-001,-9.58337E-002,-6.26754E-001,2.30106E-001,1.25741E+000,-4.50947E-003,0.00000E+000,-3.25348E-003,9.12829E-001,0.00000E+000,-8.71696E-004,-9.59187E-002,1.00000E+000,35
839,1347,7.50736E-001,5.57068E-001,-1.77430E-002,6.88176E+000,-7.14521E-001,-9.52582E-003,6.91876E+000,1.76942E-002,4.62832E-001,0,1.06042E+002,-1.20575E+001,9.97210E-001,6.21507E+001,-4.73395E+001,9.96884E-001,2.28777E-001,-9.57925E-002,-3.51575E-003,2.28815E-001,-9.58306E-002,-6.20533E-001,2.29819E-001,1.25707E+000,-4.51854E-003,0.00000E+000,-3.00802E-003,9.12836E-001,0.00000E+000,-2.79631E-003,-9.59700E-002,1.00000E+000,35
839,1357,7.87014E-001,1.16429E+000,1.25486E-002,6.88906E+000,-7.61393E-001,-5.82809E-002,6.93126E+000,1.51613E-002,4.84455E-001,0,1.06293E+002,-1.27220E+001,9.97654E-001,6.28850E+001,-4.80224E+001,9.97608E-001,2.28498E-001,-9.57887E-002,-3.47957E-003,2.28535E-001,-9.58261E-002,-6.14684E-001,2.29525E-001,1.25673E+000,-4.53348E-003,0.00000E+000,-2.76046E-003,9.12847E-001,0.00000E+000,-4.73737E-003,-9.60546E-002,1.00000E+000,35
1019,1337,1.54029E+001,2.61964E-001,-6.23773E-002,9.79643E+000,-4.82545E-001,-9.37519E-002,9.80876E+000,2.02830E-002,4.98007E-001,0,1.49052E+002,-8.66930E+000,9.97737E-001,1.08956E+002,-3.98141E+001,9.97805E-001,2.15324E-001,-9.01399E-002,2.45101E-004,2.15324E-001,-9.01401E-002,4.59735E-002,2.16273E-001,1.23972E+000,-3.72372E-002,0.00000E+000,2.82682E-002,9.16016E-001,0.00000E+000,-6.58679E-003,-7.60327E-002,1.00000E+000,35
1019,1347,1.53964E+001,8.40457E-001,-5.80194E-002,9.76808E+000,-5.54243E-001,-1.19138E-001,9.78452E+000,1.79381E-002,4.27528E-001,0,1.48712E+002,-9.73728E+000,9.98332E-001,1.08932E+002,-4.09007E+001,9.98288E-001,2.15737E-001,-9.01158E-002,4.45030E-004,2.15738E-001,-9.01164E-002,8.33677E-002,2.16710E-001,1.24022E+000,-3.72203E-002,0.00000E+000,2.84780E-002,9.16023E-001,0.00000E+000,-4.59929E-003,-7.59662E-002,1.00000E+000,35
839,1327,6.95318E-001,-5.96290E-001,3.56253E-002,6.86348E+000,-5.77407E-001,1.00023E-001,6.88845E+000,3.77142E-002,5.72489E-001,0,1.05402E+002,-1.01234E+001,9.97984E-001,6.12127E+001,-4.52100E+001,9.97151E-001,2.29320E-001,-9.57974E-002,-3.59207E-003,2.29360E-001,-9.58371E-002,-6.32932E-001,2.30389E-001,1.25775E+000,-4.49935E-003,0.00000E+000,-3.49941E-003,9.12822E-001,0.00000E+000,1.05663E-003,-9.58614E-002,1.00000E+000,35
1019,1327,1.54005E+001,-3.40535E-001,-4.10698E-002,9.81231E+000,-4.36310E-001,-5.83881E-002,9.82218E+000,1.95314E-002,4.38298E-001,0,1.49171E+002,-7.96409E+000,9.97483E-001,1.08885E+002,-3.92245E+001,9.97104E-001,2.14906E-001,-9.01620E-002,4.60392E-005,2.14906E-001,-9.01620E-002,8.64676E-003,2.15832E-001,1.23921E+000,-3.72514E-002,0.00000E+000,2.80584E-002,9.16010E-001,0.00000E+000,-8.57385E-003,-7.60883E-002,1.00000E+000,35
1019,1317,1.54084E+001,-9.31676E-001,1.48029E-002,9.83123E+000,-3.82833E-001,-1.97574E-002,9.83870E+000,1.98399E-002,4.32618E-001,0,1.49310E+002,-7.18914E+000,9.97694E-001,1.09035E+002,-3.85075E+001,9.97318E-001,2.14486E-001,-9.01798E-002,-1.50596E-004,2.14486E-001,-9.01799E-002,-2.83212E-002,2.15389E-001,1.23871E+000,-3.72599E-002,0.00000E+000,2.78491E-002,9.16007E-001,0.00000E+000,-1.05563E-002,-7.61220E-002,1.00000E+000,35
839,1317,6.91644E-001,-1.17037E+000,1.10990E-001,6.86777E+000,-5.12149E-001,1.51129E-001,6.88850E+000,1.89071E-002,5.36255E-001,0,1.05289E+002,-9.18250E+000,9.96715E-001,6.12256E+001,-4.42540E+001,9.94001E-001,2.29585E-001,-9.57985E-002,-3.63234E-003,2.29625E-001,-9.58391E-002,-6.39501E-001,2.30668E-001,1.25809E+000,-4.49521E-003,0.00000E+000,-3.74443E-003,9.12819E-001,0.00000E+000,2.97772E-003,-9.58380E-002,1.00000E+000,35
1019,1297,1.54342E+001,-2.09732E+000,1.75618E-001,9.87338E+000,-2.65368E-001,8.17117E-002,9.87729E+000,1.84895E-002,4.23262E-001,0,1.49549E+002,-5.49130E+000,9.97896E-001,1.09582E+002,-3.69191E+001,9.97307E-001,2.13634E-001,-9.02119E-002,-5.41432E-004,2.13635E-001,-9.02128E-002,-1.02097E-001,2.14494E-001,1.23770E+000,-3.72726E-002,0.00000E+000,2.74317E-002,9.16002E-001,0.00000E+000,-1.45089E-002,-7.61718E-002,1.00000E+000,35
1019,1307,1.54148E+001,-1.51374E+000,7.74443E-002,9.84787E+000,-3.23505E-001,2.20627E-002,9.85320E+000,2.29459E-002,4.67083E-001,0,1.49399E+002,-6.30926E+000,9.98152E-001,1.09177E+002,-3.76449E+001,9.97767E-001,2.14063E-001,-9.01970E-002,-3.46277E-004,2.14063E-001,-9.01974E-002,-6.52081E-002,2.14944E-001,1.23820E+000,-3.72678E-002,0.00000E+000,2.76407E-002,9.16004E-001,0.00000E+000,-1.25299E-002,-7.61530E-002,1.00000E+000,35
839,1307,6.82755E-001,-1.74124E+000,2.18758E-001,6.86271E+000,-4.46976E-001,2.14301E-001,6.88059E+000,1.68455E-002,5.06232E-001,0,1.04987E+002,-8.26387E+000,9.95470E-001,6.12317E+001,-4.33143E+001,9.93119E-001,2.29846E-001,-9.57991E-002,-3.67333E-003,2.29887E-001,-9.58405E-002,-6.46198E-001,2.30943E-001,1.25843E+000,-4.49320E-003,0.00000E+000,-3.98878E-003,9.12817E-001,0.00000E+000,4.89367E-003,-9.58266E-002,1.00000E+000,35
829,1337,-8.65023E-002,-2.64018E-002,8.29913E-003,6.71151E+000,-6.45887E-001,4.60301E-002,6.74267E+000,3.04321E-002,5.40719E-001,0,1.03319E+002,-1.10922E+001,9.95422E-001,5.91906E+001,-4.64763E+001,9.94057E-001,2.28387E-001,-9.57637E-002,-2.80410E-003,2.28411E-001,-9.57880E-002,-4.95594E-001,2.29399E-001,1.25658E+000,-3.53393E-003,0.00000E+000,-2.50161E-003,9.12708E-001,0.00000E+000,-1.64129E-003,-9.42171E-002,1.00000E+000,35
829,1347,-6.40572E-002,5.59799E-001,-7.35044E-003,6.71397E+000,-7.07055E-001,-5.34316E-003,6.75110E+000,1.67281E-002,4.94347E-001,0,1.03520E+002,-1.19367E+001,9.94931E-001,5.96061E+001,-4.74175E+001,9.94725E-001,2.28326E-001,-9.57666E-002,-2.85080E-003,2.28351E-001,-9.57917E-002,-5.03937E-001,2.29336E-001,1.25651E+000,-3.53606E-003,0.00000E+000,-2.41607E-003,9.12711E-001,0.00000E+000,-3.63599E-003,-9.42779E-002,1.00000E+000,35
829,1357,-3.38049E-002,1.16252E+000,1.46964E-002,6.71691E+000,-7.57311E-001,-5.53165E-002,6.75969E+000,1.69868E-002,5.12595E-001,0,1.03710E+002,-1.26460E+001,9.96644E-001,6.02305E+001,-4.81562E+001,9.97003E-001,2.28261E-001,-9.57705E-002,-2.89819E-003,2.28287E-001,-9.57964E-002,-5.12409E-001,2.29268E-001,1.25643E+000,-3.53899E-003,0.00000E+000,-2.33015E-003,9.12714E-001,0.00000E+000,-5.63939E-003,-9.43609E-002,1.00000E+000,35
1029,1337,1.61979E+001,2.77056E-001,-7.91104E-002,9.93649E+000,-4.71940E-001,-1.03379E-001,9.94823E+000,1.75045E-002,4.64524E-001,0,1.51096E+002,-8.50028E+000,9.96499E-001,1.11289E+002,-3.94565E+001,9.96251E-001,2.15244E-001,-8.97889E-002,3.31054E-005,2.15244E-001,-8.97889E-002,6.21833E-003,2.16227E-001,1.23962E+000,-3.68636E-002,0.00000E+000,2.74673E-002,9.16253E-001,0.00000E+000,-4.54467E-003,-7.45078E-002,1.00000E+000,35
1029,1347,1.61965E+001,8.77248E-001,-6.76519E-002,9.91222E+000,-5.23745E-001,-1.25480E-001,9.92684E+000,1.72397E-002,4.74617E-001,0,1.50796E+002,-9.29455E+000,9.97381E-001,1.11358E+002,-4.01801E+001,9.96842E-001,2.15790E-001,-8.97646E-002,2.35574E-004,2.15790E-001,-8.97648E-002,4.41735E-002,2.16803E-001,1.24029E+000,-3.68400E-002,0.00000E+000,2.76855E-002,9.16261E-001,0.00000E+000,-2.69029E-003,-7.44430E-002,1.00000E+000,35
1029,1327,1.62097E+001,-3.16551E-001,-4.27340E-002,9.96408E+000,-4.17665E-001,-6.45224E-002,9.97304E+000,1.90212E-002,4.40637E-001,0,1.51370E+002,-7.70700E+000,9.96802E-001,1.11468E+002,-3.87442E+001,9.96252E-001,2.14696E-001,-8.98091E-002,-1.66258E-004,2.14696E-001,-8.98091E-002,-3.12832E-002,2.15649E-001,1.23895E+000,-3.68798E-002,0.00000E+000,2.72495E-002,9.16248E-001,0.00000E+000,-6.39467E-003,-7.45523E-002,1.00000E+000,35
829,1327,-1.14291E-001,-5.96466E-001,3.86848E-002,6.69931E+000,-5.72454E-001,9.04510E-002,6.72433E+000,3.25870E-002,5.63742E-001,0,1.02982E+002,-1.00195E+001,9.96313E-001,5.87294E+001,-4.53323E+001,9.96056E-001,2.28443E-001,-9.57614E-002,-2.75784E-003,2.28467E-001,-9.57849E-002,-4.87338E-001,2.29458E-001,1.25665E+000,-3.53226E-003,0.00000E+000,-2.58687E-003,9.12706E-001,0.00000E+000,3.46619E-004,-9.41697E-002,1.00000E+000,35
829,1307,-1.14725E-001,-1.74940E+000,2.41513E-001,6.71117E+000,-4.50249E-001,2.27562E-001,6.73010E+000,2.06027E-002,4.63192E-001,0,1.02692E+002,-8.31844E+000,9.96206E-001,5.89807E+001,-4.36131E+001,9.93726E-001,2.28545E-001,-9.57596E-002,-2.66660E-003,2.28567E-001,-9.57815E-002,-4.71074E-001,2.29563E-001,1.25678E+000,-3.53093E-003,0.00000E+000,-2.75676E-003,9.12704E-001,0.00000E+000,4.30813E-003,-9.41320E-002,1.00000E+000,35
829,1317,-1.20964E-001,-1.17240E+000,1.14789E-001,6.70187E+000,-5.08897E-001,1.49024E-001,6.72281E+000,2.41606E-002,5.08510E-001,0,1.02821E+002,-9.10285E+000,9.95435E-001,5.86978E+001,-4.44144E+001,9.94981E-001,2.28496E-001,-9.57601E-002,-2.71203E-003,2.28519E-001,-9.57828E-002,-4.79169E-001,2.29512E-001,1.25672E+000,-3.53126E-003,0.00000E+000,-2.67191E-003,9.12705E-001,0.00000E+000,2.32967E-003,-9.41415E-002,1.00000E+000,35
1029,1317,1.62198E+001,-9.13652E-001,8.37854E-003,9.98560E+000,-3.71598E-001,-2.94504E-002,9.99255E+000,1.94386E-002,4.47529E-001,0,1.51564E+002,-7.01595E+000,9.98151E-001,1.11645E+002,-3.81044E+001,9.96838E-001,2.14147E-001,-8.98266E-002,-3.63123E-004,2.14147E-001,-8.98271E-002,-6.84447E-002,2.15071E-001,1.23828E+000,-3.68915E-002,0.00000E+000,2.70329E-002,9.16244E-001,0.00000E+000,-8.23560E-003,-7.45846E-002,1.00000E+000,35
1029,1307,1.62344E+001,-1.49462E+000,9.41993E-002,1.00090E+001,-3.11263E-001,2.92012E-002,1.00138E+001,1.63626E-002,5.07314E-001,0,1.51687E+002,-6.17844E+000,9.98260E-001,1.11953E+002,-3.72627E+001,9.96177E-001,2.13595E-001,-8.98427E-002,-5.58839E-004,2.13596E-001,-8.98437E-002,-1.05521E-001,2.14491E-001,1.23761E+000,-3.69006E-002,0.00000E+000,2.68165E-002,9.16241E-001,0.00000E+000,-1.00738E-002,-7.46095E-002,1.00000E+000,35
1029,1297,1.62516E+001,-2.07168E+000,1.87464E-001,1.00328E+001,-2.46586E-001,8.56870E-002,1.00361E+001,1.65259E-002,4.60409E-001,0,1.51819E+002,-5.24329E+000,9.97344E-001,1.12316E+002,-3.64285E+001,9.96456E-001,2.13038E-001,-8.98574E-002,-7.54201E-004,2.13040E-001,-8.98593E-002,-1.42664E-001,2.13906E-001,1.23694E+000,-3.69074E-002,0.00000E+000,2.65998E-002,9.16239E-001,0.00000E+000,-1.19156E-002,-7.46284E-002,1.00000E+000,35
819,1317,-9.29273E-001,-1.18324E+000,1.30774E-001,6.53912E+000,-5.15252E-001,1.55460E-001,6.56123E+000,2.34781E-002,4.75954E-001,0,1.00372E+002,-9.18508E+000,9.94265E-001,5.62686E+001,-4.47390E+001,9.93286E-001,2.26946E-001,-9.54643E-002,-2.06705E-003,2.26960E-001,-9.54776E-002,-3.67316E-001,2.27910E-001,1.25476E+000,-3.37306E-003,0.00000E+000,-1.52214E-003,9.12804E-001,0.00000E+000,1.58468E-003,-9.21300E-002,1.00000E+000,35
819,1327,-9.25958E-001,-6.08498E-001,4.90445E-002,6.53549E+000,-5.77932E-001,1.02188E-001,6.56179E+000,2.30416E-002,4.93875E-001,0,1.00501E+002,-1.00850E+001,9.95893E-001,5.62351E+001,-4.56844E+001,9.95140E-001,2.27014E-001,-9.54673E-002,-2.18991E-003,2.27029E-001,-9.54821E-002,-3.89061E-001,2.27982E-001,1.25485E+000,-3.37216E-003,0.00000E+000,-1.59526E-003,9.12803E-001,0.00000E+000,-2.73512E-004,-9.21501E-002,1.00000E+000,35
819,1337,-9.05585E-001,-2.40328E-002,5.89569E-003,6.54107E+000,-6.37227E-001,4.84093E-002,6.57221E+000,1.97098E-002,5.30575E-001,0,1.00761E+002,-1.09310E+001,9.95415E-001,5.65555E+001,-4.65516E+001,9.94677E-001,2.27079E-001,-9.54732E-002,-2.31309E-003,2.27095E-001,-9.54898E-002,-4.10851E-001,2.28051E-001,1.25493E+000,-3.37025E-003,0.00000E+000,-1.66877E-003,9.12802E-001,0.00000E+000,-2.14153E-003,-9.21925E-002,1.00000E+000,35
819,1307,-9.34861E-001,-1.75650E+000,2.20968E-001,6.53742E+000,-4.54466E-001,2.02042E-001,6.55631E+000,2.20621E-002,4.99095E-001,0,1.00181E+002,-8.30042E+000,9.95644E-001,5.62867E+001,-4.37678E+001,9.94598E-001,2.26875E-001,-9.54625E-002,-1.94449E-003,2.26887E-001,-9.54743E-002,-3.45617E-001,2.27834E-001,1.25468E+000,-3.37357E-003,0.00000E+000,-1.44927E-003,9.12804E-001,0.00000E+000,3.43639E-003,-9.21188E-002,1.00000E+000,35
819,1347,-8.75716E-001,5.70591E-001,-5.22141E-003,6.55074E+000,-6.90307E-001,-3.06730E-004,6.58702E+000,1.92726E-002,5.10888E-001,0,1.01060E+002,-1.16653E+001,9.96912E-001,5.70985E+001,-4.73603E+001,9.97024E-001,2.27140E-001,-9.54812E-002,-2.43647E-003,2.27159E-001,-9.54996E-002,-4.32670E-001,2.28116E-001,1.25502E+000,-3.36765E-003,0.00000E+000,-1.74250E-003,9.12799E-001,0.00000E+000,-4.01507E-003,-9.22504E-002,1.00000E+000,35
819,1357,-8.48746E-001,1.15387E+000,2.30963E-002,6.55006E+000,-7.59981E-001,-4.68124E-002,6.59417E+000,2.37523E-002,5.24185E-001,0,1.01189E+002,-1.26838E+001,9.95796E-001,5.76855E+001,-4.84176E+001,9.96063E-001,2.27198E-001,-9.54920E-002,-2.56011E-003,2.27219E-001,-9.55123E-002,-4.54525E-001,2.28178E-001,1.25510E+000,-3.36408E-003,0.00000E+000,-1.81650E-003,9.12796E-001,0.00000E+000,-5.89568E-003,-9.23297E-002,1.00000E+000,35
1039,1337,1.70129E+001,3.03228E-001,-7.71765E-002,1.00946E+001,-4.52613E-001,-1.01188E-001,1.01052E+001,1.53120E-002,4.54347E-001,0,1.53356E+002,-8.21682E+000,9.97551E-001,1.13974E+002,-3.89542E+001,9.96454E-001,2.15323E-001,-8.93088E-002,-4.59648E-004,2.15324E-001,-8.93095E-002,-8.64512E-002,2.16364E-001,1.23972E+000,-3.67168E-002,0.00000E+000,2.63173E-002,9.16655E-001,0.00000E+000,-2.51836E-003,-7.34963E-002,1.00000E+000,35
1039,1347,1.70076E+001,8.84887E-001,-7.37929E-002,1.00666E+001,-5.20872E-001,-1.29591E-001,1.00809E+001,1.50915E-002,4.26825E-001,0,1.53033E+002,-9.26327E+000,9.98641E-001,1.13963E+002,-3.99646E+001,9.97969E-001,2.15966E-001,-8.92961E-002,-3.40886E-004,2.15966E-001,-8.92965E-002,-6.39821E-002,2.17041E-001,1.24052E+000,-3.66892E-002,0.00000E+000,2.63870E-002,9.16658E-001,0.00000E+000,-8.23862E-004,-7.34378E-002,1.00000E+000,35
1039,1317,1.70288E+001,-8.79145E-001,6.52543E-003,1.01387E+001,-3.41866E-001,-2.72899E-002,1.01445E+001,1.64860E-002,4.04876E-001,0,1.53746E+002,-6.57045E+000,9.97569E-001,1.14232E+002,-3.74849E+001,9.96294E-001,2.14029E-001,-8.93292E-002,-6.89505E-004,2.14031E-001,-8.93308E-002,-1.30227E-001,2.15003E-001,1.23812E+000,-3.67513E-002,0.00000E+000,2.61781E-002,9.16652E-001,0.00000E+000,-5.90554E-003,-7.35694E-002,1.00000E+000,35
1039,1327,1.70223E+001,-2.92941E-001,-4.19085E-002,1.01200E+001,-3.99197E-001,-6.27433E-002,1.01281E+001,1.43512E-002,3.96342E-001,0,1.53600E+002,-7.43901E+000,9.97791E-001,1.14113E+002,-3.82982E+001,9.96968E-001,2.14676E-001,-8.93196E-002,-5.75812E-004,2.14677E-001,-8.93207E-002,-1.08526E-001,2.15683E-001,1.23892E+000,-3.67364E-002,0.00000E+000,2.62475E-002,9.16653E-001,0.00000E+000,-4.21814E-003,-7.35379E-002,1.00000E+000,35
1039,1307,1.70443E+001,-1.47054E+000,7.15095E-002,1.01635E+001,-2.91165E-001,1.24092E-002,1.01677E+001,1.71493E-002,4.15516E-001,0,1.53965E+002,-5.82041E+000,9.97274E-001,1.14516E+002,-3.67864E+001,9.96089E-001,2.13380E-001,-8.93379E-002,-8.01907E-004,2.13382E-001,-8.93400E-002,-1.51776E-001,2.14321E-001,1.23733E+000,-3.67627E-002,0.00000E+000,2.61088E-002,9.16651E-001,0.00000E+000,-7.59183E-003,-7.35936E-002,1.00000E+000,35
1039,1297,1.70636E+001,-2.05417E+000,1.66302E-001,1.01889E+001,-2.33567E-001,6.79531E-002,1.01918E+001,1.79807E-002,4.05773E-001,0,1.54126E+002,-5.00466E+000,9.95600E-001,1.14913E+002,-3.60407E+001,9.95439E-001,2.12727E-001,-8.93456E-002,-9.12935E-004,2.12730E-001,-8.93483E-002,-1.73159E-001,2.13636E-001,1.23653E+000,-3.67702E-002,0.00000E+000,2.60395E-002,9.16651E-001,0.00000E+000,-9.27884E-003,-7.36095E-002,1.00000E+000,35
1049,1337,1.78371E+001,3.28700E-001,-8.07814E-002,1.02607E+001,-4.31958E-001,-1.07517E-001,1.02703E+001,2.11399E-002,4.41052E-001,0,1.55765E+002,-7.93236E+000,9.98818E-001,1.16795E+002,-3.84510E+001,9.97743E-001,2.15317E-001,-8.92339E-002,-1.18567E-003,2.15322E-001,-8.92385E-002,-2.23058E-001,2.16370E-001,1.23972E+000,-3.64661E-002,0.00000E+000,2.47023E-002,9.16672E-001,0.00000E+000,-1.24007E-003,-7.20511E-002,1.00000E+000,35
1049,1347,1.78416E+001,9.15293E-001,-6.56651E-002,1.02400E+001,-4.99213E-001,-1.33718E-001,1.02530E+001,1.69218E-002,4.52011E-001,0,1.55539E+002,-8.95362E+000,9.98524E-001,1.16954E+002,-3.93891E+001,9.96912E-001,2.16061E-001,-8.92353E-002,-1.17185E-003,2.16066E-001,-8.92398E-002,-2.19919E-001,2.17153E-001,1.24065E+000,-3.64308E-002,0.00000E+000,2.46017E-002,9.16668E-001,0.00000E+000,-1.76833E-005,-7.20045E-002,1.00000E+000,35
1049,1307,1.78633E+001,-1.44340E+000,7.76134E-002,1.03228E+001,-2.69632E-001,7.96168E-003,1.03264E+001,2.08962E-002,3.63042E-001,0,1.56258E+002,-5.49826E+000,9.97655E-001,1.17275E+002,-3.63036E+001,9.96883E-001,2.13088E-001,-8.92310E-002,-1.20599E-003,2.13093E-001,-8.92358E-002,-2.28555E-001,2.14029E-001,1.23696E+000,-3.65168E-002,0.00000E+000,2.50021E-002,9.16677E-001,0.00000E+000,-4.88131E-003,-7.21180E-002,1.00000E+000,35
1049,1317,1.78444E+001,-8.55398E-001,7.74903E-003,1.02943E+001,-3.24571E-001,-3.79011E-002,1.02994E+001,1.77882E-002,4.04066E-001,0,1.56007E+002,-6.31944E+000,9.96972E-001,1.16928E+002,-3.70173E+001,9.95088E-001,2.13832E-001,-8.92319E-002,-1.20040E-003,2.13837E-001,-8.92366E-002,-2.26936E-001,2.14809E-001,1.23788E+000,-3.65031E-002,0.00000E+000,2.49023E-002,9.16676E-001,0.00000E+000,-3.66962E-003,-7.20999E-002,1.00000E+000,35
1049,1327,1.78375E+001,-2.75109E-001,-4.24173E-002,1.02783E+001,-3.87467E-001,-6.15311E-002,1.02858E+001,1.16984E-002,3.77063E-001,0,1.55866E+002,-7.27030E+000,9.98095E-001,1.16801E+002,-3.79261E+001,9.96226E-001,2.14575E-001,-8.92328E-002,-1.19522E-003,2.14579E-001,-8.92375E-002,-2.25404E-001,2.15589E-001,1.23880E+000,-3.64902E-002,0.00000E+000,2.48025E-002,9.16675E-001,0.00000E+000,-2.45709E-003,-7.20829E-002,1.00000E+000,35
809,1347,-1.70357E+000,5.56499E-001,-9.79426E-003,6.37123E+000,-6.96902E-001,-4.76399E-004,6.40923E+000,1.61074E-002,4.96704E-001,0,9.83719E+001,-1.17478E+001,9.98101E-001,5.43272E+001,-4.76901E+001,9.98132E-001,2.25832E-001,-9.51252E-002,-2.06361E-003,2.25846E-001,-9.51385E-002,-3.68366E-001,2.26777E-001,1.25337E+000,-3.69549E-003,0.00000E+000,-8.02651E-004,9.12958E-001,0.00000E+000,-4.21900E-003,-9.02408E-002,1.00000E+000,35
809,1357,-1.67587E+000,1.14685E+000,2.83940E-002,6.37079E+000,-7.60361E-001,-4.06234E-002,6.41613E+000,1.85169E-002,4.94898E-001,0,9.84809E+001,-1.26671E+001,9.97358E-001,5.49522E+001,-4.86693E+001,9.96874E-001,2.26062E-001,-9.51471E-002,-2.30305E-003,2.26078E-001,-9.51636E-002,-4.10780E-001,2.27019E-001,1.25367E+000,-3.68261E-003,0.00000E+000,-1.10716E-003,9.12945E-001,0.00000E+000,-6.03079E-003,-9.03187E-002,1.00000E+000,35
809,1327,-1.74223E+000,-6.23993E-001,3.80046E-002,6.36663E+000,-5.89446E-001,9.28008E-002,6.39453E+000,1.44362E-002,5.30188E-001,0,9.80083E+001,-1.02105E+001,9.98018E-001,5.36245E+001,-4.59916E+001,9.96846E-001,2.25368E-001,-9.50979E-002,-1.58549E-003,2.25375E-001,-9.51058E-002,-2.83460E-001,2.26288E-001,1.25278E+000,-3.71111E-003,0.00000E+000,-1.99019E-004,9.12974E-001,0.00000E+000,-6.27457E-004,-9.01463E-002,1.00000E+000,35
809,1337,-1.72145E+000,-3.82128E-002,9.99989E-003,6.37232E+000,-6.46051E-001,5.18154E-002,6.40520E+000,1.36512E-002,5.28448E-001,0,9.82271E+001,-1.10460E+001,9.97809E-001,5.39877E+001,-4.68922E+001,9.97841E-001,2.25601E-001,-9.51101E-002,-1.82453E-003,2.25612E-001,-9.51205E-002,-3.25942E-001,2.26534E-001,1.25308E+000,-3.70419E-003,0.00000E+000,-5.00428E-004,9.12967E-001,0.00000E+000,-2.42081E-003,-9.01882E-002,1.00000E+000,35
809,1307,-1.75185E+000,-1.75654E+000,2.26926E-001,6.36781E+000,-4.49587E-001,2.09939E-001,6.38711E+000,2.66031E-002,5.71632E-001,0,9.76185E+001,-8.24882E+000,9.90713E-001,5.37085E+001,-4.38511E+001,9.89919E-001,2.24892E-001,-9.50879E-002,-1.10602E-003,2.24896E-001,-9.50917E-002,-1.98041E-001,2.25787E-001,1.25219E+000,-3.71609E-003,0.00000E+000,4.01383E-004,9.12979E-001,0.00000E+000,2.94487E-003,-9.01162E-002,1.00000E+000,35
809,1317,-1.74402E+000,-1.18867E+000,1.20412E-001,6.37196E+000,-5.16711E-001,1.47971E-001,6.39459E+000,2.36495E-002,5.43132E-001,0,9.78983E+001,-9.17554E+000,9.96597E-001,5.36852E+001,-4.48750E+001,9.95633E-001,2.25131E-001,-9.50917E-002,-1.34584E-003,2.25137E-001,-9.50973E-002,-2.40798E-001,2.26039E-001,1.25248E+000,-3.71438E-003,0.00000E+000,1.01450E-004,9.12977E-001,0.00000E+000,1.16030E-003,-9.01265E-002,1.00000E+000,35
1049,1297,1.78726E+001,-2.03885E+000,1.61869E-001,1.03407E+001,-2.23031E-001,6.32082E-002,1.03433E+001,1.82821E-002,3.55431E-001,0,1.56312E+002,-4.83741E+000,9.96065E-001,1.17497E+002,-3.57206E+001,9.94351E-001,2.12343E-001,-8.92301E-002,-1.21102E-003,2.12348E-001,-8.92350E-002,-2.30075E-001,2.13247E-001,1.23604E+000,-3.65289E-002,0.00000E+000,2.51018E-002,9.16679E-001,0.00000E+000,-6.09207E-003,-7.21339E-002,1.00000E+000,35
799,1337,-2.53853E+000,-4.72482E-002,2.05044E-003,6.20287E+000,-6.48508E-001,4.78028E-002,6.23686E+000,1.43301E-002,5.17033E-001,0,9.57008E+001,-1.10499E+001,9.97897E-001,5.13793E+001,-4.71322E+001,9.97994E-001,2.23637E-001,-9.47454E-002,-1.28510E-003,2.23642E-001,-9.47506E-002,-2.31260E-001,2.24509E-001,1.25062E+000,-4.15399E-003,0.00000E+000,8.49842E-004,9.13146E-001,0.00000E+000,-2.72219E-003,-8.83078E-002,1.00000E+000,35
799,1347,-2.51888E+000,5.44221E-001,-8.18161E-003,6.20405E+000,-7.02485E-001,6.87362E-003,6.24370E+000,1.68204E-002,5.05305E-001,0,9.58445E+001,-1.18296E+001,9.97178E-001,5.17690E+001,-4.79926E+001,9.96897E-001,2.23942E-001,-9.47668E-002,-1.62430E-003,2.23950E-001,-9.47751E-002,-2.91997E-001,2.24829E-001,1.25100E+000,-4.14290E-003,0.00000E+000,3.38794E-004,9.13131E-001,0.00000E+000,-4.28940E-003,-8.83524E-002,1.00000E+000,35
799,1357,-2.48570E+000,1.14338E+000,2.71154E-002,6.20915E+000,-7.56812E-001,-3.70725E-002,6.25521E+000,1.73649E-002,4.97923E-001,0,9.60474E+001,-1.25996E+001,9.96420E-001,5.24760E+001,-4.88336E+001,9.95932E-001,2.24247E-001,-9.47983E-002,-1.96379E-003,2.24259E-001,-9.48104E-002,-3.52650E-001,2.25149E-001,1.25140E+000,-4.12606E-003,0.00000E+000,-1.75868E-004,9.13109E-001,0.00000E+000,-5.86769E-003,-8.84203E-002,1.00000E+000,35
799,1327,-2.54960E+000,-6.38446E-001,5.20382E-002,6.20634E+000,-5.96758E-001,1.08528E-001,6.23590E+000,2.26489E-002,5.27280E-001,0,9.55611E+001,-1.03567E+001,9.98304E-001,5.12158E+001,-4.63553E+001,9.97076E-001,2.23330E-001,-9.47281E-002,-9.45612E-004,2.23333E-001,-9.47309E-002,-1.70343E-001,2.24187E-001,1.25023E+000,-4.16272E-003,0.00000E+000,1.36005E-003,9.13157E-001,0.00000E+000,-1.15757E-003,-8.82725E-002,1.00000E+000,35
1059,1327,1.86537E+001,-2.60839E-001,-4.29648E-002,1.04361E+001,-3.79696E-001,-6.39234E-002,1.04432E+001,1.78836E-002,4.08232E-001,0,1.58135E+002,-7.18188E+000,9.98503E-001,1.19506E+002,-3.75841E+001,9.96845E-001,2.14733E-001,-8.95923E-002,-1.54208E-003,2.14740E-001,-8.96001E-002,-2.90321E-001,2.15719E-001,1.23903E+000,-3.54885E-002,0.00000E+000,2.33038E-002,9.16296E-001,0.00000E+000,-8.44807E-004,-7.07552E-002,1.00000E+000,35
1059,1337,1.86571E+001,3.48712E-001,-7.01938E-002,1.04219E+001,-4.18859E-001,-1.00397E-001,1.04308E+001,1.49406E-002,4.33605E-001,0,1.58046E+002,-7.76581E+000,9.98988E-001,1.19580E+002,-3.80617E+001,9.98262E-001,2.15509E-001,-8.95998E-002,-1.58943E-003,2.15517E-001,-8.96081E-002,-2.98466E-001,2.16534E-001,1.23999E+000,-3.54625E-002,0.00000E+000,2.31263E-002,9.16291E-001,0.00000E+000,-7.28582E-005,-7.07344E-002,1.00000E+000,35
1059,1347,1.86663E+001,9.37780E-001,-5.56624E-002,1.04055E+001,-4.83027E-001,-1.28209E-001,1.04175E+001,2.02108E-002,4.27722E-001,0,1.57891E+002,-8.74461E+000,9.98680E-001,1.19809E+002,-3.89665E+001,9.97238E-001,2.16286E-001,-8.96089E-002,-1.63248E-003,2.16294E-001,-8.96176E-002,-3.05761E-001,2.17350E-001,1.24096E+000,-3.54251E-002,0.00000E+000,2.29484E-002,9.16284E-001,0.00000E+000,7.01437E-004,-7.07044E-002,1.00000E+000,35
1059,1297,1.86817E+001,-2.01693E+000,1.49184E-001,1.04943E+001,-2.04224E-001,5.87891E-002,1.04964E+001,1.77177E-002,3.03159E-001,0,1.58520E+002,-4.55071E+000,9.96725E-001,1.20075E+002,-3.52818E+001,9.93735E-001,2.12405E-001,-8.95747E-002,-1.38758E-003,2.12412E-001,-8.95810E-002,-2.63263E-001,2.13277E-001,1.23614E+000,-3.55329E-002,0.00000E+000,2.38342E-002,9.16304E-001,0.00000E+000,-3.15223E-003,-7.07906E-002,1.00000E+000,35
1059,1307,1.86735E+001,-1.42737E+000,7.02545E-002,1.04774E+001,-2.56025E-001,8.83256E-003,1.04805E+001,1.83533E-002,3.20589E-001,0,1.58464E+002,-5.32261E+000,9.98038E-001,1.19878E+002,-3.59606E+001,9.97216E-001,2.13180E-001,-8.95802E-002,-1.43968E-003,2.13187E-001,-8.95871E-002,-2.72444E-001,2.14089E-001,1.23710E+000,-3.55201E-002,0.00000E+000,2.36579E-002,9.16302E-001,0.00000E+000,-2.38553E-003,-7.07805E-002,1.00000E+000,35
1059,1317,1.86526E+001,-8.44487E-001,-8.42467E-003,1.04472E+001,-3.16912E-001,-4.35029E-002,1.04521E+001,1.96442E-002,4.07546E-001,0,1.58220E+002,-6.22997E+000,9.97575E-001,1.19485E+002,-3.67100E+001,9.95238E-001,2.13956E-001,-8.95860E-002,-1.49163E-003,2.13963E-001,-8.95933E-002,-2.81547E-001,2.14903E-001,1.23806E+000,-3.55065E-002,0.00000E+000,2.34811E-002,9.16299E-001,0.00000E+000,-1.61619E-003,-7.07695E-002,1.00000E+000,35
799,1307,-2.55604E+000,-1.76517E+000,2.37486E-001,6.20939E+000,-4.52580E-001,2.16302E-001,6.22962E+000,3.45008E-002,5.38024E-001,0,9.52307E+001,-8.28927E+000,9.93485E-001,5.13434E+001,-4.41283E+001,9.93261E-001,2.22711E-001,-9.47139E-002,-2.66297E-004,2.22712E-001,-9.47141E-002,-4.80670E-002,2.23539E-001,1.24946E+000,-4.16846E-003,0.00000E+000,2.37421E-003,9.13165E-001,0.00000E+000,1.95253E-003,-8.82494E-002,1.00000E+000,35
799,1317,-2.55527E+000,-1.19961E+000,1.25346E-001,6.20920E+000,-5.20195E-001,1.62188E-001,6.23306E+000,2.87332E-002,5.66775E-001,0,9.54199E+001,-9.26374E+000,9.95850E-001,5.11962E+001,-4.51502E+001,9.94778E-001,2.23022E-001,-9.47170E-002,-6.06367E-004,2.23023E-001,-9.47182E-002,-1.09342E-001,2.23864E-001,1.24984E+000,-4.16785E-003,0.00000E+000,1.86784E-003,9.13164E-001,0.00000E+000,3.99659E-004,-8.82518E-002,1.00000E+000,35
789,1327,-3.35727E+000,-6.43427E-001,5.53369E-002,6.04599E+000,-5.94944E-001,1.17064E-001,6.07632E+000,2.15863E-002,5.36902E-001,0,9.31308E+001,-1.03387E+001,9.97589E-001,4.87847E+001,-4.65436E+001,9.96645E-001,2.21357E-001,-9.43282E-002,-5.76277E-004,2.21358E-001,-9.43292E-002,-1.04592E-001,2.22161E-001,1.24776E+000,-4.81336E-003,0.00000E+000,2.56043E-003,9.13384E-001,0.00000E+000,-1.64992E-003,-8.65644E-002,1.00000E+000,35
789,1337,-3.34371E+000,-4.70730E-002,8.27762E-003,6.04448E+000,-6.41797E-001,5.59327E-002,6.07871E+000,1.74072E-002,5.15471E-001,0,9.32984E+001,-1.09490E+001,9.96764E-001,4.89949E+001,-4.72547E+001,9.96785E-001,2.21783E-001,-9.43514E-002,-1.00265E-003,2.21786E-001,-9.43546E-002,-1.81717E-001,2.22607E-001,1.24830E+000,-4.80085E-003,0.00000E+000,1.86351E-003,9.13368E-001,0.00000E+000,-2.95801E-003,-8.65950E-002,1.00000E+000,35
789,1347,-3.31981E+000,5.43214E-001,-4.31836E-003,6.04962E+000,-6.97986E-001,1.04230E-002,6.08977E+000,1.87200E-002,5.36625E-001,0,9.35173E+001,-1.17551E+001,9.95863E-001,4.94455E+001,-4.81132E+001,9.95285E-001,2.22208E-001,-9.43793E-002,-1.42917E-003,2.22214E-001,-9.43858E-002,-2.58644E-001,2.23052E-001,1.24883E+000,-4.78528E-003,0.00000E+000,1.16448E-003,9.13348E-001,0.00000E+000,-4.27006E-003,-8.66330E-002,1.00000E+000,35
789,1357,-3.29489E+000,1.13657E+000,2.25750E-002,6.04799E+000,-7.56922E-001,-3.53930E-002,6.09528E+000,1.71085E-002,5.30113E-001,0,9.36251E+001,-1.25916E+001,9.95171E-001,5.00068E+001,-4.90276E+001,9.94720E-001,2.22633E-001,-9.44175E-002,-1.85526E-003,2.22644E-001,-9.44284E-002,-3.35259E-001,2.23497E-001,1.24937E+000,-4.76325E-003,0.00000E+000,4.62163E-004,9.13319E-001,0.00000E+000,-5.58829E-003,-8.66868E-002,1.00000E+000,35
1069,1327,1.94703E+001,-2.46602E-001,-5.22948E-002,1.05951E+001,-3.72142E-001,-7.04079E-002,1.06019E+001,1.86600E-002,4.41012E-001,0,1.60434E+002,-7.07600E+000,9.98179E-001,1.22209E+002,-3.72228E+001,9.96301E-001,2.14975E-001,-8.96422E-002,-1.86914E-003,2.14986E-001,-8.96537E-002,-3.51551E-001,2.15971E-001,1.23935E+000,-3.46567E-002,0.00000E+000,2.20094E-002,9.16210E-001,0.00000E+000,2.40115E-004,-6.96272E-002,1.00000E+000,35
1069,1337,1.94655E+001,3.57919E-001,-7.35978E-002,1.05734E+001,-4.14497E-001,-9.72958E-002,1.05820E+001,1.23677E-002,3.96500E-001,0,1.60200E+002,-7.71864E+000,9.98529E-001,1.22163E+002,-3.78255E+001,9.97588E-001,2.15683E-001,-8.96528E-002,-1.95053E-003,2.15695E-001,-8.96652E-002,-3.65995E-001,2.16715E-001,1.24023E+000,-3.46339E-002,0.00000E+000,2.18031E-002,9.16204E-001,0.00000E+000,5.54662E-004,-6.96191E-002,1.00000E+000,35
1069,1347,1.94706E+001,9.52086E-001,-7.36480E-002,1.05546E+001,-4.73484E-001,-1.31926E-001,1.05661E+001,1.29200E-002,4.17820E-001,0,1.60036E+002,-8.60365E+000,9.98836E-001,1.22303E+002,-3.86041E+001,9.97847E-001,2.16395E-001,-8.96654E-002,-2.02882E-003,2.16408E-001,-8.96789E-002,-3.79782E-001,2.17463E-001,1.24112E+000,-3.46019E-002,0.00000E+000,2.15955E-002,9.16197E-001,0.00000E+000,8.71211E-004,-6.96076E-002,1.00000E+000,35
789,1307,-3.35547E+000,-1.77647E+000,2.33048E-001,6.05749E+000,-4.57705E-001,2.18722E-001,6.07869E+000,2.27227E-002,5.30209E-001,0,9.29552E+001,-8.35249E+000,9.95933E-001,4.90212E+001,-4.44014E+001,9.92542E-001,2.20504E-001,-9.43084E-002,2.77207E-004,2.20504E-001,-9.43087E-002,5.04516E-002,2.21271E-001,1.24670E+000,-4.82145E-003,0.00000E+000,3.94468E-003,9.13395E-001,0.00000E+000,9.48262E-004,-8.65447E-002,1.00000E+000,35
789,1317,-3.36000E+000,-1.21503E+000,1.43492E-001,6.04920E+000,-5.30466E-001,1.72778E-001,6.07487E+000,2.36927E-002,5.52409E-001,0,9.29908E+001,-9.43247E+000,9.96033E-001,4.88442E+001,-4.55409E+001,9.92154E-001,2.20931E-001,-9.43170E-002,-1.49530E-004,2.20931E-001,-9.43170E-002,-2.71769E-002,2.21716E-001,1.24723E+000,-4.81830E-003,0.00000E+000,3.25315E-003,9.13391E-001,0.00000E+000,-3.49716E-004,-8.65523E-002,1.00000E+000,35
1069,1297,1.94773E+001,-1.99871E+000,1.26957E-001,1.06355E+001,-1.89321E-001,5.23841E-002,1.06374E+001,2.28843E-002,3.46564E-001,0,1.60552E+002,-4.34692E+000,9.94479E-001,1.22430E+002,-3.48341E+001,9.90543E-001,2.12846E-001,-8.96158E-002,-1.61588E-003,2.12855E-001,-8.96244E-002,-3.06087E-001,2.13737E-001,1.23671E+000,-3.47018E-002,0.00000E+000,2.26283E-002,9.16220E-001,0.00000E+000,-7.03409E-004,-6.96433E-002,1.00000E+000,35
1069,1307,1.94749E+001,-1.41166E+000,4.82341E-002,1.06257E+001,-2.42959E-001,7.58290E-003,1.06285E+001,1.58091E-002,3.14997E-001,0,1.60586E+002,-5.13781E+000,9.97766E-001,1.22326E+002,-3.55738E+001,9.96100E-001,2.13553E-001,-8.96235E-002,-1.70179E-003,2.13562E-001,-8.96330E-002,-3.21600E-001,2.14478E-001,1.23759E+000,-3.46916E-002,0.00000E+000,2.24230E-002,9.16218E-001,0.00000E+000,-3.90436E-004,-6.96397E-002,1.00000E+000,35
1069,1317,1.94743E+001,-8.21132E-001,-6.73986E-003,1.06123E+001,-2.99405E-001,-3.56455E-002,1.06166E+001,1.60395E-002,4.34267E-001,0,1.60551E+002,-6.00149E+000,9.98562E-001,1.22288E+002,-3.62353E+001,9.96481E-001,2.14264E-001,-8.96328E-002,-1.78550E-003,2.14274E-001,-8.96433E-002,-3.36617E-001,2.15224E-001,1.23847E+000,-3.46743E-002,0.00000E+000,2.22163E-002,9.16214E-001,0.00000E+000,-7.52158E-005,-6.96335E-002,1.00000E+000,35
779,1327,-4.15616E+000,-6.41043E-001,6.97506E-002,5.89300E+000,-5.88383E-001,1.31849E-001,5.92377E+000,3.00029E-002,5.69389E-001,0,9.07880E+001,-1.02434E+001,9.97293E-001,4.65225E+001,-4.66301E+001,9.95895E-001,2.19286E-001,-9.35886E-002,-5.43558E-004,2.19287E-001,-9.35895E-002,-9.95398E-002,2.20069E-001,1.24518E+000,-5.80095E-003,0.00000E+000,3.37366E-003,9.13930E-001,0.00000E+000,-1.98034E-003,-8.49242E-002,1.00000E+000,35
779,1337,-4.14254E+000,-6.28315E-002,1.49992E-002,5.89204E+000,-6.52053E-001,6.46838E-002,5.92836E+000,1.67449E-002,5.20415E-001,0,9.09877E+001,-1.11014E+001,9.96041E-001,4.67124E+001,-4.76201E+001,9.95945E-001,2.19936E-001,-9.36185E-002,-1.09026E-003,2.19940E-001,-9.36223E-002,-1.99220E-001,2.20749E-001,1.24599E+000,-5.78251E-003,0.00000E+000,2.42676E-003,9.13908E-001,0.00000E+000,-3.03770E-003,-8.49482E-002,1.00000E+000,35
779,1347,-4.12615E+000,5.33408E-001,-1.13180E-003,5.88929E+000,-7.01347E-001,1.27009E-002,5.93091E+000,2.09425E-002,5.14473E-001,0,9.11020E+001,-1.17884E+001,9.94281E-001,4.70414E+001,-4.83956E+001,9.93757E-001,2.20586E-001,-9.36559E-002,-1.63647E-003,2.20595E-001,-9.36645E-002,-2.98367E-001,2.21430E-001,1.24681E+000,-5.75833E-003,0.00000E+000,1.47686E-003,9.13880E-001,0.00000E+000,-4.09843E-003,-8.49796E-002,1.00000E+000,35
779,1357,-4.10456E+000,1.13126E+000,2.35475E-002,5.88527E+000,-7.55366E-001,-3.15612E-002,5.93363E+000,1.68271E-002,5.29451E-001,0,9.11668E+001,-1.25566E+001,9.95158E-001,4.75492E+001,-4.92276E+001,9.95084E-001,2.21239E-001,-9.37041E-002,-2.18300E-003,2.21254E-001,-9.37192E-002,-3.97116E-001,2.22114E-001,1.24763E+000,-5.72599E-003,0.00000E+000,5.20953E-004,9.13843E-001,0.00000E+000,-5.16586E-003,-8.50216E-002,1.00000E+000,35
779,1317,-4.14895E+000,-1.20602E+000,1.46348E-001,5.90597E+000,-5.15626E-001,1.75166E-001,5.93102E+000,2.89259E-002,5.37792E-001,0,9.08363E+001,-9.18995E+000,9.97904E-001,4.67094E+001,-4.55205E+001,9.96412E-001,2.18635E-001,-9.35735E-002,6.70202E-006,2.18635E-001,-9.35735E-002,1.22994E-003,2.19389E-001,1.24436E+000,-5.80825E-003,0.00000E+000,4.31906E-003,9.13938E-001,0.00000E+000,-9.24634E-004,-8.49147E-002,1.00000E+000,35
1079,1337,2.02805E+001,3.74961E-001,-9.27769E-002,1.07304E+001,-4.03871E-001,-1.12801E-001,1.07386E+001,1.97646E-002,3.98281E-001,0,1.62501E+002,-7.53704E+000,9.97452E-001,1.24829E+002,-3.74130E+001,9.97611E-001,2.16211E-001,-8.99232E-002,-2.27063E-003,2.16228E-001,-8.99400E-002,-4.24939E-001,2.17244E-001,1.24091E+000,-3.37705E-002,0.00000E+000,2.05294E-002,9.15940E-001,0.00000E+000,9.90047E-004,-6.88705E-002,1.00000E+000,35
1079,1347,2.02910E+001,9.69117E-001,-8.46442E-002,1.07168E+001,-4.63050E-001,-1.39645E-001,1.07277E+001,1.14050E-002,4.31413E-001,0,1.62384E+002,-8.45095E+000,9.98938E-001,1.25065E+002,-3.82014E+001,9.98832E-001,2.16852E-001,-8.99421E-002,-2.40201E-003,2.16871E-001,-8.99609E-002,-4.48555E-001,2.17917E-001,1.24171E+000,-3.37413E-002,0.00000E+000,2.02531E-002,9.15930E-001,0.00000E+000,9.00871E-004,-6.88738E-002,1.00000E+000,35
1079,1297,2.02973E+001,-1.97470E+000,1.32156E-001,1.07970E+001,-1.71219E-001,5.74525E-002,1.07985E+001,2.17592E-002,4.19749E-001,0,1.62832E+002,-4.13036E+000,9.96022E-001,1.25216E+002,-3.43372E+001,9.94090E-001,2.13657E-001,-8.98688E-002,-1.72643E-003,2.13667E-001,-8.98786E-002,-3.25880E-001,2.14562E-001,1.23775E+000,-3.38309E-002,0.00000E+000,2.16273E-002,9.15961E-001,0.00000E+000,1.34442E-003,-6.88638E-002,1.00000E+000,35
1079,1307,2.02870E+001,-1.39817E+000,4.01300E-002,1.07806E+001,-2.35405E-001,5.35083E-003,1.07832E+001,1.82521E-002,3.62428E-001,0,1.62803E+002,-5.04519E+000,9.97964E-001,1.24967E+002,-3.52238E+001,9.96439E-001,2.14293E-001,-8.98795E-002,-1.86487E-003,2.14305E-001,-8.98909E-002,-3.51260E-001,2.15230E-001,1.23853E+000,-3.38234E-002,0.00000E+000,2.13540E-002,9.15958E-001,0.00000E+000,1.25623E-003,-6.88646E-002,1.00000E+000,35
1079,1327,2.02844E+001,-2.30626E-001,-6.49036E-002,1.07509E+001,-3.62345E-001,-8.14298E-002,1.07573E+001,2.13911E-002,4.15881E-001,0,1.62698E+002,-6.90773E+000,9.97931E-001,1.24875E+002,-3.68568E+001,9.97280E-001,2.15573E-001,-8.99078E-002,-2.13647E-003,2.15588E-001,-8.99227E-002,-4.00690E-001,2.16573E-001,1.24012E+000,-3.37905E-002,0.00000E+000,2.08040E-002,9.15947E-001,0.00000E+000,1.07868E-003,-6.88683E-002,1.00000E+000,35
1079,1317,2.02822E+001,-8.03395E-001,-1.84507E-002,1.07631E+001,-2.87964E-001,-4.07562E-002,1.07670E+001,1.75784E-002,3.96531E-001,0,1.62718E+002,-5.79707E+000,9.97767E-001,1.24858E+002,-3.58529E+001,9.96917E-001,2.14934E-001,-8.98933E-002,-2.00112E-003,2.14947E-001,-8.99064E-002,-3.76112E-001,2.15902E-001,1.23933E+000,-3.38079E-002,0.00000E+000,2.10789E-002,9.15953E-001,0.00000E+000,1.16741E-003,-6.88664E-002,1.00000E+000,35
779,1307,-4.16405E+000,-1.79273E+000,2.44520E-001,5.89435E+000,-4.69580E-001,2.28705E-001,5.91745E+000,2.03215E-002,5.61888E-001,0,9.04795E+001,-8.54661E+000,9.97476E-001,4.66005E+001,-4.47666E+001,9.95076E-001,2.17986E-001,-9.35619E-002,5.54519E-004,2.17987E-001,-9.35629E-002,1.01980E-001,2.18714E-001,1.24356E+000,-5.81269E-003,0.00000E+000,5.25827E-003,9.13944E-001,0.00000E+000,1.24150E-004,-8.49090E-002,1.00000E+000,35
1089,1337,2.10931E+001,3.95570E-001,-1.05214E-001,1.08845E+001,-3.90309E-001,-1.21333E-001,1.08922E+001,1.73563E-002,4.66457E-001,0,1.64727E+002,-7.34850E+000,9.97093E-001,1.27474E+002,-3.69274E+001,9.96511E-001,2.17274E-001,-9.03295E-002,-2.38031E-003,2.17293E-001,-9.03480E-002,-4.43332E-001,2.18318E-001,1.24227E+000,-3.25099E-002,0.00000E+000,1.93374E-002,9.15553E-001,0.00000E+000,1.47299E-003,-6.82238E-002,1.00000E+000,35
1089,1347,2.11027E+001,9.89962E-001,-9.24869E-002,1.08699E+001,-4.48422E-001,-1.43143E-001,1.08801E+001,1.23989E-002,4.35304E-001,0,1.64576E+002,-8.24099E+000,9.98425E-001,1.27701E+002,-3.77528E+001,9.97747E-001,2.17996E-001,-9.03535E-002,-2.55342E-003,2.18017E-001,-9.03747E-002,-4.74420E-001,2.19076E-001,1.24317E+000,-3.24770E-002,0.00000E+000,1.89915E-002,9.15540E-001,0.00000E+000,1.19174E-003,-6.82341E-002,1.00000E+000,35
769,1347,-4.93096E+000,5.22397E-001,1.51713E-003,5.73082E+000,-7.06050E-001,1.84680E-002,5.77418E+000,1.70128E-002,5.10240E-001,0,8.87021E+001,-1.18488E+001,9.95141E-001,4.46647E+001,-4.86865E+001,9.95123E-001,2.18403E-001,-9.29498E-002,-1.69159E-003,2.18412E-001,-9.29590E-002,-3.11278E-001,2.19216E-001,1.24408E+000,-6.55401E-003,0.00000E+000,1.93729E-003,9.14425E-001,0.00000E+000,-3.76966E-003,-8.36626E-002,1.00000E+000,35
769,1357,-4.90641E+000,1.12460E+000,2.31219E-002,5.73032E+000,-7.55313E-001,-2.70974E-002,5.77995E+000,1.65045E-002,5.42506E-001,0,8.88236E+001,-1.25476E+001,9.96356E-001,4.52137E+001,-4.94374E+001,9.96398E-001,2.18925E-001,-9.29963E-002,-2.22539E-003,2.18941E-001,-9.30121E-002,-4.08745E-001,2.19764E-001,1.24474E+000,-6.52874E-003,0.00000E+000,1.00097E-003,9.14389E-001,0.00000E+000,-4.73575E-003,-8.36998E-002,1.00000E+000,35
769,1327,-4.95699E+000,-6.51833E-001,7.33009E-002,5.73534E+000,-5.94195E-001,1.23516E-001,5.76736E+000,2.16671E-002,5.74354E-001,0,8.84444E+001,-1.03154E+001,9.96812E-001,4.42078E+001,-4.69104E+001,9.95432E-001,2.17361E-001,-9.28885E-002,-6.24597E-004,2.17362E-001,-9.28897E-002,-1.15348E-001,2.18125E-001,1.24278E+000,-6.58487E-003,0.00000E+000,3.79559E-003,9.14468E-001,0.00000E+000,-1.85226E-003,-8.36172E-002,1.00000E+000,35
769,1337,-4.94875E+000,-7.92826E-002,1.63892E-002,5.73155E+000,-6.62775E-001,6.68541E-002,5.77013E+000,1.51481E-002,5.24480E-001,0,8.85703E+001,-1.12516E+001,9.96358E-001,4.43087E+001,-4.79862E+001,9.95991E-001,2.17882E-001,-9.29139E-002,-1.15875E-003,2.17886E-001,-9.29182E-002,-2.13614E-001,2.18671E-001,1.24343E+000,-6.57271E-003,0.00000E+000,2.86753E-003,9.14451E-001,0.00000E+000,-2.80984E-003,-8.36351E-002,1.00000E+000,35
1089,1327,2.10941E+001,-2.01857E-001,-8.58991E-002,1.09039E+001,-3.37039E-001,-9.19939E-002,1.09095E+001,1.89012E-002,4.05879E-001,0,1.64912E+002,-6.53205E+000,9.97049E-001,1.27463E+002,-3.62671E+001,9.95793E-001,2.16552E-001,-9.03090E-002,-2.20406E-003,2.16568E-001,-9.03248E-002,-4.11504E-001,2.17559E-001,1.24137E+000,-3.25348E-002,0.00000E+000,1.96833E-002,9.15563E-001,0.00000E+000,1.75419E-003,-6.82160E-002,1.00000E+000,35
1089,1317,2.11006E+001,-7.95063E-001,-2.83197E-002,1.09233E+001,-2.84520E-001,-4.64080E-002,1.09271E+001,1.73918E-002,4.38657E-001,0,1.65027E+002,-5.78254E+000,9.97940E-001,1.27597E+002,-3.55793E+001,9.97545E-001,2.15834E-001,-9.02916E-002,-2.02591E-003,2.15847E-001,-9.03050E-002,-3.79156E-001,2.16804E-001,1.24048E+000,-3.25525E-002,0.00000E+000,2.00273E-002,9.15570E-001,0.00000E+000,2.03389E-003,-6.82104E-002,1.00000E+000,35
1089,1297,2.11166E+001,-1.95155E+000,1.38041E-001,1.09575E+001,-1.54676E-001,6.40248E-002,1.09588E+001,1.54976E-002,4.53750E-001,0,1.65087E+002,-3.90965E+000,9.98120E-001,1.27996E+002,-3.38749E+001,9.97810E-001,2.14397E-001,-9.02612E-002,-1.66625E-003,2.14406E-001,-9.02703E-002,-3.13353E-001,2.15296E-001,1.23870E+000,-3.25775E-002,0.00000E+000,2.07139E-002,9.15579E-001,0.00000E+000,2.59204E-003,-6.82026E-002,1.00000E+000,35
1089,1307,2.11053E+001,-1.37757E+000,3.86313E-002,1.09398E+001,-2.21948E-001,3.20110E-003,1.09420E+001,1.48947E-002,4.38107E-001,0,1.65074E+002,-4.87264E+000,9.98479E-001,1.27721E+002,-3.47630E+001,9.98456E-001,2.15114E-001,-9.02748E-002,-1.84714E-003,2.15126E-001,-9.02860E-002,-3.46535E-001,2.16049E-001,1.23959E+000,-3.25685E-002,0.00000E+000,2.03712E-002,9.15576E-001,0.00000E+000,2.31347E-003,-6.82054E-002,1.00000E+000,35
769,1317,-4.96551E+000,-1.21717E+000,1.47304E-001,5.73484E+000,-5.23713E-001,1.76717E-001,5.76142E+000,2.50588E-002,5.51175E-001,0,8.82588E+001,-9.26792E+000,9.97919E-001,4.41465E+001,-4.57970E+001,9.97624E-001,2.16841E-001,-9.28694E-002,-9.20968E-005,2.16841E-001,-9.28694E-002,-1.70377E-002,2.17583E-001,1.24213E+000,-6.59300E-003,0.00000E+000,4.71802E-003,9.14480E-001,0.00000E+000,-9.00504E-004,-8.36053E-002,1.00000E+000,35
1099,1327,2.19028E+001,-1.84010E-001,-8.76220E-002,1.10553E+001,-3.24491E-001,-8.36345E-002,1.10604E+001,2.15806E-002,4.38597E-001,0,1.67029E+002,-6.38755E+000,9.93596E-001,1.30071E+002,-3.58680E+001,9.91042E-001,2.17760E-001,-9.06433E-002,-2.35395E-003,2.17778E-001,-9.06613E-002,-4.37286E-001,2.18793E-001,1.24290E+000,-3.15957E-002,0.00000E+000,1.86477E-002,9.15285E-001,0.00000E+000,2.28086E-003,-6.83111E-002,1.00000E+000,35
1099,1337,2.19117E+001,4.17884E-001,-1.00709E-001,1.10442E+001,-3.73734E-001,-1.13684E-001,1.10511E+001,2.06858E-002,4.47125E-001,0,1.66966E+002,-7.12912E+000,9.94918E-001,1.30246E+002,-3.64958E+001,9.94298E-001,2.18647E-001,-9.06651E-002,-2.52977E-003,2.18667E-001,-9.06858E-002,-4.68564E-001,2.19725E-001,1.24401E+000,-3.15621E-002,0.00000E+000,1.82989E-002,9.15274E-001,0.00000E+000,1.90456E-003,-6.83226E-002,1.00000E+000,35
1099,1347,2.19232E+001,1.01768E+000,-8.88591E-002,1.10292E+001,-4.28278E-001,-1.44739E-001,1.10385E+001,1.62550E-002,4.48642E-001,0,1.66842E+002,-7.95768E+000,9.96763E-001,1.30499E+002,-3.72176E+001,9.96108E-001,2.19534E-001,-9.06907E-002,-2.70189E-003,2.19557E-001,-9.07142E-002,-4.98966E-001,2.20658E-001,1.24511E+000,-3.15179E-002,0.00000E+000,1.79492E-002,9.15260E-001,0.00000E+000,1.52741E-003,-6.83377E-002,1.00000E+000,35
759,1347,-5.72690E+000,5.19281E-001,2.63493E-003,5.58091E+000,-7.03132E-001,2.33136E-002,5.62508E+000,1.52454E-002,5.22041E-001,0,8.64315E+001,-1.17926E+001,9.95266E-001,4.24280E+001,-4.88433E+001,9.94914E-001,2.16276E-001,-9.23456E-002,-1.64318E-003,2.16285E-001,-9.23543E-002,-3.05046E-001,2.17052E-001,1.24143E+000,-7.09259E-003,0.00000E+000,2.40261E-003,9.14894E-001,0.00000E+000,-3.40199E-003,-8.25831E-002,1.00000E+000,35
759,1357,-5.70815E+000,1.11503E+000,2.19908E-002,5.57513E+000,-7.58265E-001,-2.29500E-002,5.62651E+000,1.65138E-002,5.53113E-001,0,8.64752E+001,-1.25813E+001,9.95826E-001,4.28831E+001,-4.96919E+001,9.95349E-001,2.16541E-001,-9.23797E-002,-2.03956E-003,2.16555E-001,-9.23931E-002,-3.78257E-001,2.17330E-001,1.24177E+000,-7.07998E-003,0.00000E+000,1.72848E-003,9.14869E-001,0.00000E+000,-4.34660E-003,-8.26187E-002,1.00000E+000,35
1099,1297,2.19265E+001,-1.94169E+000,1.12020E-001,1.11099E+001,-1.49915E-001,4.60059E-002,1.11110E+001,1.50738E-002,4.69670E-001,0,1.67321E+002,-3.81567E+000,9.97058E-001,1.30583E+002,-3.35612E+001,9.95450E-001,2.15113E-001,-9.05956E-002,-1.81081E-003,2.15124E-001,-9.06063E-002,-3.39366E-001,2.16013E-001,1.23962E+000,-3.16478E-002,0.00000E+000,1.96873E-002,9.15301E-001,0.00000E+000,3.40213E-003,-6.82934E-002,1.00000E+000,35
1099,1307,2.19215E+001,-1.35766E+000,3.31463E-002,1.10984E+001,-2.07767E-001,5.82789E-003,1.11004E+001,1.71512E-002,4.52086E-001,0,1.67318E+002,-4.67185E+000,9.97743E-001,1.30439E+002,-3.43356E+001,9.97133E-001,2.15995E-001,-9.06093E-002,-1.99398E-003,2.16008E-001,-9.06223E-002,-3.72599E-001,2.16938E-001,1.24071E+000,-3.16366E-002,0.00000E+000,1.93414E-002,9.15297E-001,0.00000E+000,3.02906E-003,-6.82972E-002,1.00000E+000,35
1099,1317,2.19108E+001,-7.73720E-001,-4.38115E-002,1.10772E+001,-2.67910E-001,-4.85422E-002,1.10806E+001,2.26777E-002,4.57053E-001,0,1.67220E+002,-5.54359E+000,9.95857E-001,1.30208E+002,-3.51047E+001,9.94408E-001,2.16877E-001,-9.06253E-002,-2.17489E-003,2.16893E-001,-9.06407E-002,-4.05212E-001,2.17865E-001,1.24181E+000,-3.16190E-002,0.00000E+000,1.89949E-002,9.15292E-001,0.00000E+000,2.65533E-003,-6.83032E-002,1.00000E+000,35
759,1327,-5.76444E+000,-6.65367E-001,6.95695E-002,5.57285E+000,-6.01792E-001,1.19261E-001,5.60652E+000,1.85140E-002,5.24247E-001,0,8.60126E+001,-1.03857E+001,9.96663E-001,4.17790E+001,-4.72461E+001,9.96999E-001,2.15746E-001,-9.23011E-002,-8.51971E-004,2.15748E-001,-9.23035E-002,-1.58462E-001,2.16496E-001,1.24077E+000,-7.10776E-003,0.00000E+000,3.74171E-003,9.14925E-001,0.00000E+000,-1.52557E-003,-8.25403E-002,1.00000E+000,35
759,1337,-5.74589E+000,-7.22458E-002,2.21864E-002,5.57919E+000,-6.50065E-001,7.06308E-002,5.61737E+000,1.51179E-002,5.33193E-001,0,8.62616E+001,-1.10499E+001,9.95679E-001,4.20657E+001,-4.79965E+001,9.95381E-001,2.16011E-001,-9.23203E-002,-1.24765E-003,2.16016E-001,-9.23254E-002,-2.31840E-001,2.16774E-001,1.24110E+000,-7.10147E-003,0.00000E+000,3.07288E-003,9.14912E-001,0.00000E+000,-2.46277E-003,-8.25581E-002,1.00000E+000,35
759,1317,-5.76718E+000,-1.23664E+000,1.52311E-001,5.57714E+000,-5.37628E-001,1.76394E-001,5.60577E+000,2.34436E-002,5.72444E-001,0,8.58906E+001,-9.49051E+000,9.97023E-001,4.18267E+001,-4.62045E+001,9.97182E-001,2.15481E-001,-9.22881E-002,-4.57788E-004,2.15482E-001,-9.22888E-002,-8.52237E-002,2.16219E-001,1.24044E+000,-7.11139E-003,0.00000E+000,4.40625E-003,9.14932E-001,0.00000E+000,-5.94386E-004,-8.25301E-002,1.00000E+000,35
749,1317,-6.55686E+000,-1.23937E+000,1.71131E-001,5.42981E+000,-5.37099E-001,1.83627E-001,5.45939E+000,1.77544E-002,5.75814E-001,0,8.36499E+001,-9.47530E+000,9.97317E-001,3.97349E+001,-4.63909E+001,9.95855E-001,2.14093E-001,-9.17531E-002,-6.87198E-004,2.14094E-001,-9.17546E-002,-1.28736E-001,2.14821E-001,1.23872E+000,-7.03464E-003,0.00000E+000,3.93409E-003,9.15358E-001,0.00000E+000,-5.89737E-004,-8.16388E-002,1.00000E+000,35
749,1327,-6.55381E+000,-6.64706E-001,6.96063E-002,5.42743E+000,-5.97104E-001,1.15825E-001,5.46140E+000,1.47021E-002,5.31481E-001,0,8.38332E+001,-1.02748E+001,9.96097E-001,3.96452E+001,-4.73401E+001,9.95936E-001,2.14135E-001,-9.17611E-002,-9.83020E-004,2.14139E-001,-9.17643E-002,-1.84122E-001,2.14867E-001,1.23877E+000,-7.03418E-003,0.00000E+000,3.44252E-003,9.15354E-001,0.00000E+000,-1.36090E-003,-8.16453E-002,1.00000E+000,35
749,1337,-6.54468E+000,-7.49864E-002,2.38109E-002,5.42467E+000,-6.47742E-001,6.98327E-002,5.46365E+000,1.46054E-002,5.60941E-001,0,8.39337E+001,-1.10008E+001,9.96105E-001,3.97907E+001,-4.81393E+001,9.96007E-001,2.14178E-001,-9.17751E-002,-1.28019E-003,2.14183E-001,-9.17805E-002,-2.39736E-001,2.14912E-001,1.23883E+000,-7.03318E-003,0.00000E+000,2.94836E-003,9.15345E-001,0.00000E+000,-2.13612E-003,-8.16596E-002,1.00000E+000,35
749,1347,-6.52971E+000,5.13575E-001,2.79051E-003,5.42325E+000,-7.02568E-001,2.47306E-002,5.46863E+000,1.61021E-002,5.17965E-001,0,8.40487E+001,-1.17658E+001,9.96437E-001,4.00883E+001,-4.90470E+001,9.96329E-001,2.14219E-001,-9.17932E-002,-1.57788E-003,2.14228E-001,-9.18013E-002,-2.95422E-001,2.14956E-001,1.23888E+000,-7.03180E-003,0.00000E+000,2.45312E-003,9.15332E-001,0.00000E+000,-2.91304E-003,-8.16793E-002,1.00000E+000,35
1109,1297,2.27434E+001,-1.92409E+000,1.07896E-001,1.12707E+001,-1.35246E-001,5.67576E-002,1.12716E+001,1.59882E-002,4.79370E-001,0,1.69561E+002,-3.64752E+000,9.95767E-001,1.33321E+002,-3.31765E+001,9.93237E-001,2.16042E-001,-9.12235E-002,-1.83021E-003,2.16053E-001,-9.12344E-002,-3.41262E-001,2.16921E-001,1.24082E+000,-3.00240E-002,0.00000E+000,1.83629E-002,9.14751E-001,0.00000E+000,4.41012E-003,-6.82552E-002,1.00000E+000,35
1109,1307,2.27349E+001,-1.33952E+000,2.19803E-002,1.12556E+001,-1.92468E-001,9.74041E-003,1.12573E+001,1.80696E-002,4.11718E-001,0,1.69533E+002,-4.45915E+000,9.96472E-001,1.33111E+002,-3.39510E+001,9.95838E-001,2.16990E-001,-9.12344E-002,-1.97798E-003,2.17003E-001,-9.12470E-002,-3.67667E-001,2.17915E-001,1.24199E+000,-3.00120E-002,0.00000E+000,1.81002E-002,9.14748E-001,0.00000E+000,3.74142E-003,-6.82620E-002,1.00000E+000,35
1109,1317,2.27259E+001,-7.53897E-001,-4.81284E-002,1.12362E+001,-2.51268E-001,-3.70479E-002,1.12391E+001,2.13113E-002,4.19621E-001,0,1.69433E+002,-5.32566E+000,9.94658E-001,1.32918E+002,-3.47054E+001,9.93621E-001,2.17939E-001,-9.12471E-002,-2.12345E-003,2.17953E-001,-9.12617E-002,-3.93476E-001,2.18911E-001,1.24317E+000,-2.99932E-002,0.00000E+000,1.78367E-002,9.14744E-001,0.00000E+000,3.07101E-003,-6.82728E-002,1.00000E+000,35
749,1357,-6.50588E+000,1.10824E+000,2.73997E-002,5.42305E+000,-7.57989E-001,-1.47746E-002,5.47579E+000,1.93248E-002,5.35812E-001,0,8.41574E+001,-1.25735E+001,9.96315E-001,4.06365E+001,-4.99317E+001,9.96015E-001,2.14261E-001,-9.18182E-002,-1.87719E-003,2.14272E-001,-9.18297E-002,-3.51379E-001,2.15000E-001,1.23894E+000,-7.02978E-003,0.00000E+000,1.95483E-003,9.15314E-001,0.00000E+000,-3.69475E-003,-8.17081E-002,1.00000E+000,35
1109,1327,2.27189E+001,-1.66490E-001,-9.38089E-002,1.12139E+001,-3.11254E-001,-7.91633E-002,1.12185E+001,1.88952E-002,4.20842E-001,0,1.69265E+002,-6.21494E+000,9.93283E-001,1.32792E+002,-3.54887E+001,9.91926E-001,2.18889E-001,-9.12622E-002,-2.26593E-003,2.18905E-001,-9.12788E-002,-4.18567E-001,2.19909E-001,1.24435E+000,-2.99657E-002,0.00000E+000,1.75726E-002,9.14738E-001,0.00000E+000,2.39879E-003,-6.82884E-002,1.00000E+000,35
1109,1337,2.27207E+001,4.35695E-001,-1.13596E-001,1.11952E+001,-3.60825E-001,-1.17171E-001,1.12016E+001,1.95620E-002,4.71423E-001,0,1.69119E+002,-6.96119E+000,9.96119E-001,1.32844E+002,-3.60754E+001,9.95968E-001,2.19841E-001,-9.12800E-002,-2.40535E-003,2.19860E-001,-9.12986E-002,-4.42931E-001,2.20910E-001,1.24553E+000,-2.99287E-002,0.00000E+000,1.73073E-002,9.14729E-001,0.00000E+000,1.72345E-003,-6.83095E-002,1.00000E+000,35
1109,1347,2.27400E+001,1.03435E+000,-8.06381E-002,1.11845E+001,-4.19040E-001,-1.41030E-001,1.11932E+001,1.84825E-002,4.66065E-001,0,1.69027E+002,-7.85570E+000,9.96915E-001,1.33249E+002,-3.68625E+001,9.95483E-001,2.20796E-001,-9.13025E-002,-2.53879E-003,2.20817E-001,-9.13231E-002,-4.66035E-001,2.21914E-001,1.24672E+000,-2.98749E-002,0.00000E+000,1.70408E-002,9.14717E-001,0.00000E+000,1.04530E-003,-6.83401E-002,1.00000E+000,35
739,1337,-7.34006E+000,-8.90234E-002,2.53887E-002,5.27333E+000,-6.56018E-001,6.97387E-002,5.31443E+000,1.67794E-002,5.60291E-001,0,8.16524E+001,-1.11139E+001,9.95574E-001,3.75715E+001,-4.84701E+001,9.95737E-001,2.12240E-001,-9.09019E-002,-1.44506E-003,2.12247E-001,-9.09088E-002,-2.73118E-001,2.12973E-001,1.23643E+000,-7.13012E-003,0.00000E+000,2.70916E-003,9.16114E-001,0.00000E+000,-1.89980E-003,-8.12368E-002,1.00000E+000,35
739,1347,-7.33213E+000,5.03629E-001,4.90988E-003,5.26531E+000,-7.06431E-001,2.67606E-002,5.31256E+000,1.27282E-002,5.31664E-001,0,8.16572E+001,-1.18189E+001,9.97843E-001,3.77642E+001,-4.93117E+001,9.97911E-001,2.12031E-001,-9.09208E-002,-1.76801E-003,2.12041E-001,-9.09311E-002,-3.34360E-001,2.12756E-001,1.23617E+000,-7.13642E-003,0.00000E+000,2.17657E-003,9.16101E-001,0.00000E+000,-2.71728E-003,-8.12569E-002,1.00000E+000,35
739,1357,-7.30806E+000,1.10205E+000,2.68352E-002,5.26594E+000,-7.57456E-001,-1.34691E-002,5.32015E+000,1.43166E-002,5.26160E-001,0,8.17795E+001,-1.25464E+001,9.96944E-001,3.83126E+001,-5.01463E+001,9.97167E-001,2.11819E-001,-9.09470E-002,-2.09399E-003,2.11834E-001,-9.09614E-002,-3.96243E-001,2.12537E-001,1.23591E+000,-7.14567E-003,0.00000E+000,1.64095E-003,9.16082E-001,0.00000E+000,-3.53940E-003,-8.12865E-002,1.00000E+000,35
739,1327,-7.35139E+000,-6.72769E-001,7.11284E-002,5.27374E+000,-5.99382E-001,1.15492E-001,5.30895E+000,1.58757E-002,5.10388E-001,0,8.15156E+001,-1.02880E+001,9.97631E-001,3.73929E+001,-4.75873E+001,9.97740E-001,2.12448E-001,-9.08871E-002,-1.12338E-003,2.12452E-001,-9.08913E-002,-2.12187E-001,2.13189E-001,1.23668E+000,-7.12548E-003,0.00000E+000,3.24082E-003,9.16124E-001,0.00000E+000,-1.08376E-003,-8.12220E-002,1.00000E+000,35
1119,1297,2.35555E+001,-1.90804E+000,9.68471E-002,1.14262E+001,-1.22312E-001,6.08664E-002,1.14270E+001,1.71974E-002,4.42107E-001,0,1.71745E+002,-3.46490E+000,9.97575E-001,1.35977E+002,-3.28252E+001,9.96678E-001,2.17273E-001,-9.11568E-002,-2.04999E-003,2.17286E-001,-9.11704E-002,-3.80796E-001,2.18221E-001,1.24238E+000,-2.86613E-002,0.00000E+000,1.69315E-002,9.14868E-001,0.00000E+000,4.35170E-003,-6.86990E-002,1.00000E+000,35
1119,1307,2.35489E+001,-1.32472E+000,1.98610E-002,1.14116E+001,-1.81913E-001,1.71332E-002,1.14130E+001,1.60070E-002,3.98653E-001,0,1.71710E+002,-4.33124E+000,9.97322E-001,1.35810E+002,-3.36243E+001,9.97247E-001,2.18123E-001,-9.11634E-002,-2.13256E-003,2.18137E-001,-9.11781E-002,-3.95036E-001,2.19113E-001,1.24343E+000,-2.86483E-002,0.00000E+000,1.67990E-002,9.14867E-001,0.00000E+000,3.57472E-003,-6.87086E-002,1.00000E+000,35
1119,1317,2.35463E+001,-7.37693E-001,-5.08258E-002,1.13977E+001,-2.39554E-001,-3.33702E-002,1.14003E+001,1.72810E-002,3.99871E-001,0,1.71708E+002,-5.17673E+000,9.96006E-001,1.35716E+002,-3.43564E+001,9.96154E-001,2.18973E-001,-9.11709E-002,-2.21327E-003,2.18988E-001,-9.11867E-002,-4.08850E-001,2.20006E-001,1.24448E+000,-2.86301E-002,0.00000E+000,1.66663E-002,9.14865E-001,0.00000E+000,2.79660E-003,-6.87221E-002,1.00000E+000,35
1119,1327,2.35411E+001,-1.47742E-001,-9.44851E-002,1.13764E+001,-2.97436E-001,-7.65322E-002,1.13805E+001,1.58470E-002,4.02005E-001,0,1.71557E+002,-6.03629E+000,9.95882E-001,1.35620E+002,-3.51024E+001,9.96010E-001,2.19824E-001,-9.11799E-002,-2.29121E-003,2.19840E-001,-9.11968E-002,-4.22076E-001,2.20901E-001,1.24554E+000,-2.86042E-002,0.00000E+000,1.65332E-002,9.14861E-001,0.00000E+000,2.01610E-003,-6.87412E-002,1.00000E+000,35
1119,1337,2.35432E+001,4.45984E-001,-1.13089E-001,1.13571E+001,-3.56396E-001,-1.15926E-001,1.13633E+001,1.41697E-002,4.59256E-001,0,1.71414E+002,-6.92247E+000,9.97702E-001,1.35678E+002,-3.58180E+001,9.97301E-001,2.20678E-001,-9.11905E-002,-2.36635E-003,2.20696E-001,-9.12084E-002,-4.34707E-001,2.21800E-001,1.24660E+000,-2.85698E-002,0.00000E+000,1.63993E-002,9.14857E-001,0.00000E+000,1.23132E-003,-6.87666E-002,1.00000E+000,35
1119,1347,2.35566E+001,1.04310E+000,-8.72697E-002,1.13411E+001,-4.15481E-001,-1.44013E-001,1.13496E+001,2.08173E-002,4.21747E-001,0,1.71260E+002,-7.81225E+000,9.97515E-001,1.35977E+002,-3.66282E+001,9.96471E-001,2.21532E-001,-9.12034E-002,-2.43663E-003,2.21551E-001,-9.12224E-002,-4.46375E-001,2.22699E-001,1.24767E+000,-2.85225E-002,0.00000E+000,1.62652E-002,9.14851E-001,0.00000E+000,4.44724E-004,-6.88015E-002,1.00000E+000,35
739,1317,-7.34794E+000,-1.24392E+000,1.64145E-001,5.28226E+000,-5.36604E-001,1.73282E-001,5.31227E+000,1.94114E-002,5.47910E-001,0,8.14585E+001,-9.41629E+000,9.97374E-001,3.75627E+001,-4.65664E+001,9.96824E-001,2.12654E-001,-9.08788E-002,-8.04765E-004,2.12656E-001,-9.08810E-002,-1.51909E-001,2.13402E-001,1.23694E+000,-7.12346E-003,0.00000E+000,3.76913E-003,9.16128E-001,0.00000E+000,-2.72850E-004,-8.12155E-002,1.00000E+000,35
1129,1297,2.43661E+001,-1.88320E+000,9.37698E-002,1.15786E+001,-1.01164E-001,6.81390E-002,1.15792E+001,1.70370E-002,4.04087E-001,0,1.73859E+002,-3.16448E+000,9.98515E-001,1.38626E+002,-3.23553E+001,9.97651E-001,2.18242E-001,-9.13217E-002,-2.38637E-003,2.18260E-001,-9.13401E-002,-4.41647E-001,2.19225E-001,1.24361E+000,-2.74835E-002,0.00000E+000,1.54559E-002,9.14780E-001,0.00000E+000,3.76566E-003,-6.92316E-002,1.00000E+000,35
1129,1307,2.43580E+001,-1.31291E+000,1.85032E-003,1.15622E+001,-1.73931E-001,8.76341E-003,1.15635E+001,2.37621E-002,3.65114E-001,0,1.73868E+002,-4.20482E+000,9.98071E-001,1.38414E+002,-3.33208E+001,9.95142E-001,2.19128E-001,-9.13228E-002,-2.38977E-003,2.19146E-001,-9.13412E-002,-4.41013E-001,2.20155E-001,1.24471E+000,-2.74694E-002,0.00000E+000,1.54744E-002,9.14780E-001,0.00000E+000,2.91726E-003,-6.92424E-002,1.00000E+000,35
1129,1317,2.43612E+001,-7.27243E-001,-5.82557E-002,1.15537E+001,-2.33349E-001,-3.27347E-002,1.15561E+001,1.41334E-002,3.67791E-001,0,1.73912E+002,-5.09934E+000,9.97986E-001,1.38426E+002,-3.40936E+001,9.96069E-001,2.20013E-001,-9.13242E-002,-2.39097E-003,2.20031E-001,-9.13425E-002,-4.39979E-001,2.21085E-001,1.24580E+000,-2.74497E-002,0.00000E+000,1.54931E-002,9.14781E-001,0.00000E+000,2.06728E-003,-6.92577E-002,1.00000E+000,35
729,1347,-8.11407E+000,4.86172E-001,1.17530E-002,5.12628E+000,-7.19226E-001,2.73870E-002,5.17656E+000,1.13149E-002,5.64276E-001,0,7.95601E+001,-1.20123E+001,9.98774E-001,3.57705E+001,-4.96901E+001,9.98550E-001,2.09793E-001,-9.02154E-002,-1.59156E-003,2.09801E-001,-9.02239E-002,-3.03947E-001,2.10484E-001,1.23341E+000,-6.47636E-003,0.00000E+000,2.04138E-003,9.16669E-001,0.00000E+000,-2.89261E-003,-8.01992E-002,1.00000E+000,35
729,1357,-8.09923E+000,1.09245E+000,2.37218E-002,5.11903E+000,-7.61451E-001,-1.66962E-002,5.17538E+000,1.36873E-002,5.46762E-001,0,7.95704E+001,-1.25837E+001,9.97589E-001,3.61559E+001,-5.03911E+001,9.97813E-001,2.09267E-001,-9.02348E-002,-1.85565E-003,2.09279E-001,-9.02463E-002,-3.54975E-001,2.09937E-001,1.23277E+000,-6.49814E-003,0.00000E+000,1.65152E-003,9.16656E-001,0.00000E+000,-4.00366E-003,-8.02369E-002,1.00000E+000,35
1129,1327,2.43637E+001,-1.33241E-001,-9.68291E-002,1.15406E+001,-2.86536E-001,-6.85995E-002,1.15443E+001,1.69532E-002,3.88460E-001,0,1.73853E+002,-5.92225E+000,9.97683E-001,1.38458E+002,-3.47759E+001,9.97258E-001,2.20899E-001,-9.13257E-002,-2.38968E-003,2.20917E-001,-9.13440E-002,-4.38491E-001,2.22017E-001,1.24691E+000,-2.74234E-002,0.00000E+000,1.55117E-002,9.14781E-001,0.00000E+000,1.21578E-003,-6.92780E-002,1.00000E+000,35
729,1337,-8.13439E+000,-9.56873E-002,3.43524E-002,5.12295E+000,-6.56731E-001,7.87362E-002,5.16547E+000,1.51379E-002,5.50536E-001,0,7.93530E+001,-1.11245E+001,9.96887E-001,3.53945E+001,-4.87079E+001,9.96637E-001,2.10315E-001,-9.01999E-002,-1.33045E-003,2.10321E-001,-9.02058E-002,-2.53656E-001,2.11028E-001,1.23405E+000,-6.45960E-003,0.00000E+000,2.42986E-003,9.16679E-001,0.00000E+000,-1.78547E-003,-8.01703E-002,1.00000E+000,35
729,1327,-8.14362E+000,-6.77667E-001,8.02479E-002,5.12446E+000,-6.00279E-001,1.20046E-001,5.16089E+000,1.51549E-002,5.19572E-001,0,7.92468E+001,-1.02848E+001,9.96834E-001,3.52483E+001,-4.77864E+001,9.96895E-001,2.10833E-001,-9.01893E-002,-1.07330E-003,2.10836E-001,-9.01931E-002,-2.04285E-001,2.11568E-001,1.23469E+000,-6.44898E-003,0.00000E+000,2.81616E-003,9.16686E-001,0.00000E+000,-6.84581E-004,-8.01519E-002,1.00000E+000,35
1129,1337,2.43783E+001,4.61655E-001,-9.62195E-002,1.15278E+001,-3.49270E-001,-1.12314E-001,1.15336E+001,1.99246E-002,4.79083E-001,0,1.73817E+002,-6.85531E+000,9.96880E-001,1.38737E+002,-3.54960E+001,9.96951E-001,2.21793E-001,-9.13280E-002,-2.38087E-003,2.21811E-001,-9.13461E-002,-4.35624E-001,2.22958E-001,1.24802E+000,-2.73776E-002,0.00000E+000,1.55306E-002,9.14782E-001,0.00000E+000,3.54229E-004,-6.93134E-002,1.00000E+000,35
729,1317,-8.14477E+000,-1.25241E+000,1.60198E-001,5.12975E+000,-5.39564E-001,1.72360E-001,5.16093E+000,1.70631E-002,5.52721E-001,0,7.91600E+001,-9.44143E+000,9.96809E-001,3.53141E+001,-4.67936E+001,9.96501E-001,2.11347E-001,-9.01819E-002,-8.18418E-004,2.11350E-001,-9.01841E-002,-1.55512E-001,2.12105E-001,1.23533E+000,-6.44258E-003,0.00000E+000,3.20161E-003,9.16690E-001,0.00000E+000,4.13914E-004,-8.01409E-002,1.00000E+000,35
1129,1347,2.43816E+001,1.06560E+000,-8.44643E-002,1.15042E+001,-4.00235E-001,-1.42864E-001,1.15120E+001,2.33616E-002,4.77847E-001,0,1.73562E+002,-7.63044E+000,9.96192E-001,1.38854E+002,-3.61510E+001,9.95312E-001,2.22682E-001,-9.13301E-002,-2.37249E-003,2.22700E-001,-9.13481E-002,-4.32860E-001,2.23894E-001,1.24913E+000,-2.73327E-002,0.00000E+000,1.55493E-002,9.14783E-001,0.00000E+000,-5.03899E-004,-6.93481E-002,1.00000E+000,35
719,1347,-8.91202E+000,4.88229E-001,1.13433E-002,4.97229E+000,-7.11030E-001,2.84724E-002,5.02295E+000,1.72919E-002,5.67955E-001,0,7.72223E+001,-1.18687E+001,9.97449E-001,3.35226E+001,-4.97693E+001,9.97407E-001,2.08036E-001,-8.98199E-002,-1.44810E-003,2.08043E-001,-8.98269E-002,-2.78549E-001,2.08687E-001,1.23125E+000,-5.51119E-003,0.00000E+000,1.58422E-003,9.16929E-001,0.00000E+000,-2.67480E-003,-7.87722E-002,1.00000E+000,35
719,1357,-8.90041E+000,1.08208E+000,2.54739E-002,4.96214E+000,-7.65970E-001,-1.26120E-002,5.02092E+000,1.55637E-002,5.49639E-001,0,7.71821E+001,-1.26339E+001,9.97387E-001,3.38632E+001,-5.06690E+001,9.97629E-001,2.07224E-001,-8.98318E-002,-1.62385E-003,2.07233E-001,-8.98407E-002,-3.13194E-001,2.07843E-001,1.23026E+000,-5.54426E-003,0.00000E+000,1.38104E-003,9.16922E-001,0.00000E+000,-3.99445E-003,-7.88161E-002,1.00000E+000,35
719,1337,-8.92928E+000,-9.76057E-002,3.25031E-002,4.97106E+000,-6.53722E-001,7.41248E-002,5.01441E+000,1.94375E-002,5.65013E-001,0,7.70666E+001,-1.10493E+001,9.95243E-001,3.31879E+001,-4.88374E+001,9.94435E-001,2.08840E-001,-8.98108E-002,-1.27682E-003,2.08845E-001,-8.98162E-002,-2.44950E-001,2.09525E-001,1.23224E+000,-5.48679E-003,0.00000E+000,1.78627E-003,9.16934E-001,0.00000E+000,-1.36241E-003,-7.87398E-002,1.00000E+000,35
719,1327,-8.93525E+000,-6.78507E-001,8.61850E-002,4.97541E+000,-5.96734E-001,1.21566E-001,5.01254E+000,1.41543E-002,5.57215E-001,0,7.69862E+001,-1.02261E+001,9.95149E-001,3.31113E+001,-4.79021E+001,9.94704E-001,2.09638E-001,-8.98045E-002,-1.10986E-003,2.09642E-001,-8.98086E-002,-2.12359E-001,2.10358E-001,1.23322E+000,-5.47105E-003,0.00000E+000,1.98733E-003,9.16937E-001,0.00000E+000,-5.64706E-005,-7.87189E-002,1.00000E+000,35
719,1317,-8.93871E+000,-1.25571E+000,1.71364E-001,4.97727E+000,-5.39032E-001,1.73335E-001,5.00937E+000,1.84762E-002,5.48550E-001,0,7.68491E+001,-9.41479E+000,9.95083E-001,3.31553E+001,-4.69776E+001,9.94123E-001,2.10433E-001,-8.98007E-002,-9.46276E-004,2.10435E-001,-8.98037E-002,-1.80583E-001,2.11187E-001,1.23420E+000,-5.46290E-003,0.00000E+000,2.18804E-003,9.16939E-001,0.00000E+000,1.24717E-003,-7.87080E-002,1.00000E+000,35
1139,1297,2.52000E+001,-1.87482E+000,9.58250E-002,1.17524E+001,-9.61400E-002,7.47046E-002,1.17531E+001,1.08630E-002,3.61962E-001,0,1.76298E+002,-3.12871E+000,9.99171E-001,1.41651E+002,-3.21514E+001,9.98458E-001,2.19001E-001,-9.15752E-002,-2.66639E-003,2.19024E-001,-9.15981E-002,-4.91854E-001,2.19999E-001,1.24457E+000,-2.62697E-002,0.00000E+000,1.41081E-002,9.14611E-001,0.00000E+000,2.47917E-003,-6.98316E-002,1.00000E+000,35
1139,1307,2.51884E+001,-1.30609E+000,-8.38818E-003,1.17336E+001,-1.70518E-001,7.77492E-003,1.17349E+001,1.59794E-002,3.20617E-001,0,1.76306E+002,-4.16936E+000,9.98438E-001,1.41367E+002,-3.31147E+001,9.97390E-001,2.20028E-001,-9.15731E-002,-2.61812E-003,2.20050E-001,-9.15951E-002,-4.81361E-001,2.21077E-001,1.24585E+000,-2.62555E-002,0.00000E+000,1.42136E-002,9.14612E-001,0.00000E+000,1.74585E-003,-6.98397E-002,1.00000E+000,35
1139,1337,2.51969E+001,4.86931E-001,-9.62484E-002,1.16851E+001,-3.29922E-001,-1.10334E-001,1.16903E+001,1.97467E-002,4.97943E-001,0,1.76025E+002,-6.60135E+000,9.95927E-001,1.41517E+002,-3.49903E+001,9.95079E-001,2.23122E-001,-9.15634E-002,-2.44580E-003,2.23141E-001,-9.15824E-002,-4.45278E-001,2.24332E-001,1.24971E+000,-2.61443E-002,0.00000E+000,1.45325E-002,9.14622E-001,0.00000E+000,-4.70958E-004,-6.99036E-002,1.00000E+000,35
1139,1347,2.52169E+001,1.08302E+000,-7.03060E-002,1.16740E+001,-3.91903E-001,-1.43175E-001,1.16814E+001,2.04160E-002,4.94752E-001,0,1.75963E+002,-7.53414E+000,9.95590E-001,1.41914E+002,-3.57963E+001,9.94177E-001,2.24157E-001,-9.15589E-002,-2.37907E-003,2.24175E-001,-9.15768E-002,-4.31719E-001,2.25423E-001,1.25100E+000,-2.60839E-002,0.00000E+000,1.46395E-002,9.14627E-001,0.00000E+000,-1.21491E-003,-6.99383E-002,1.00000E+000,35
1139,1327,2.51917E+001,-1.19318E-001,-1.01473E-001,1.17073E+001,-2.80078E-001,-7.20781E-002,1.17109E+001,1.87347E-002,4.42915E-001,0,1.76227E+002,-5.84681E+000,9.97006E-001,1.41380E+002,-3.44189E+001,9.95283E-001,2.22088E-001,-9.15675E-002,-2.50969E-003,2.22108E-001,-9.15876E-002,-4.58409E-001,2.23242E-001,1.24841E+000,-2.61975E-002,0.00000E+000,1.44257E-002,9.14617E-001,0.00000E+000,2.71768E-004,-6.98731E-002,1.00000E+000,35
1139,1317,2.51782E+001,-7.18690E-001,-7.47164E-002,1.17127E+001,-2.28518E-001,-3.54918E-002,1.17150E+001,1.62669E-002,3.69993E-001,0,1.76172E+002,-5.04914E+000,9.98734E-001,1.41159E+002,-3.38235E+001,9.97035E-001,2.21056E-001,-9.15707E-002,-2.56710E-003,2.21077E-001,-9.15918E-002,-4.70437E-001,2.22157E-001,1.24713E+000,-2.62344E-002,0.00000E+000,1.43194E-002,9.14614E-001,0.00000E+000,1.01086E-003,-6.98519E-002,1.00000E+000,35
709,1347,-9.71629E+000,4.90818E-001,1.69351E-002,4.81163E+000,-7.02216E-001,3.59194E-002,4.86273E+000,1.65984E-002,5.57380E-001,0,7.47587E+001,-1.17223E+001,9.96865E-001,3.11991E+001,-4.98616E+001,9.96777E-001,2.06358E-001,-8.84801E-002,-1.61508E-003,2.06367E-001,-8.84889E-002,-3.13844E-001,2.07064E-001,1.22919E+000,-4.64308E-003,0.00000E+000,6.20121E-004,9.18071E-001,0.00000E+000,-2.43965E-003,-7.75359E-002,1.00000E+000,35
709,1357,-9.69907E+000,1.08514E+000,2.72280E-002,4.80787E+000,-7.55124E-001,-5.96501E-003,4.86682E+000,1.60734E-002,5.37491E-001,0,7.48192E+001,-1.24677E+001,9.97376E-001,3.16181E+001,-5.07477E+001,9.97699E-001,2.05406E-001,-8.84985E-002,-1.89505E-003,2.05418E-001,-8.85107E-002,-3.69414E-001,2.06071E-001,1.22803E+000,-4.68050E-003,0.00000E+000,2.28496E-004,9.18059E-001,0.00000E+000,-3.80808E-003,-7.75799E-002,1.00000E+000,35
709,1337,-9.71762E+000,-1.05564E-001,4.12427E-002,4.82470E+000,-6.56784E-001,7.67152E-002,4.86981E+000,1.54955E-002,5.49266E-001,0,7.48419E+001,-1.10779E+001,9.96406E-001,3.11136E+001,-4.90972E+001,9.95959E-001,2.07304E-001,-8.84669E-002,-1.34115E-003,2.07310E-001,-8.84730E-002,-2.59795E-001,2.08050E-001,1.23035E+000,-4.61735E-003,0.00000E+000,1.00993E-003,9.18080E-001,0.00000E+000,-1.07758E-003,-7.75057E-002,1.00000E+000,35
709,1317,-9.72495E+000,-1.25681E+000,1.91712E-001,4.83126E+000,-5.37237E-001,1.78980E-001,4.86433E+000,1.93769E-002,5.57799E-001,0,7.46202E+001,-9.38185E+000,9.96789E-001,3.11450E+001,-4.71395E+001,9.96601E-001,2.09175E-001,-8.84525E-002,-8.07198E-004,2.09177E-001,-8.84547E-002,-1.55391E-001,2.10005E-001,1.23266E+000,-4.59242E-003,0.00000E+000,1.78508E-003,9.18088E-001,0.00000E+000,1.63100E-003,-7.74764E-002,1.00000E+000,35
709,1327,-9.71872E+000,-6.81827E-001,1.04359E-001,4.83175E+000,-5.96767E-001,1.22295E-001,4.87000E+000,2.17317E-002,5.83243E-001,0,7.48070E+001,-1.02285E+001,9.96654E-001,3.11368E+001,-4.80871E+001,9.96200E-001,2.08242E-001,-8.84588E-002,-1.07310E-003,2.08245E-001,-8.84626E-002,-2.07223E-001,2.09029E-001,1.23150E+000,-4.60276E-003,0.00000E+000,1.39777E-003,9.18085E-001,0.00000E+000,2.77633E-004,-7.74885E-002,1.00000E+000,35
1149,1297,2.60200E+001,-1.86778E+000,8.16518E-002,1.19138E+001,-9.38378E-002,7.29901E-002,1.19144E+001,2.71617E-002,4.20483E-001,0,1.78583E+002,-3.12716E+000,9.97532E-001,1.44438E+002,-3.18852E+001,9.94853E-001,2.19593E-001,-9.17221E-002,-2.89789E-003,2.19620E-001,-9.17491E-002,-5.33278E-001,2.20608E-001,1.24533E+000,-2.50750E-002,0.00000E+000,1.28936E-002,9.14543E-001,0.00000E+000,8.59060E-004,-7.05306E-002,1.00000E+000,35
1149,1307,2.60250E+001,-1.27869E+000,-1.52142E-003,1.19104E+001,-1.47854E-001,2.20891E-002,1.19113E+001,1.74628E-002,3.91600E-001,0,1.78746E+002,-3.91326E+000,9.98152E-001,1.44447E+002,-3.25674E+001,9.96625E-001,2.20768E-001,-9.17200E-002,-2.84649E-003,2.20794E-001,-9.17459E-002,-5.21856E-001,2.21842E-001,1.24679E+000,-2.50558E-002,0.00000E+000,1.29898E-002,9.14544E-001,0.00000E+000,2.81561E-004,-7.05382E-002,1.00000E+000,35
1149,1317,2.60179E+001,-6.93610E-001,-6.58425E-002,1.18903E+001,-2.09907E-001,-2.78128E-002,1.18922E+001,1.62197E-002,4.14265E-001,0,1.78651E+002,-4.82470E+000,9.98001E-001,1.44290E+002,-3.33282E+001,9.96149E-001,2.21947E-001,-9.17174E-002,-2.79103E-003,2.21972E-001,-9.17422E-002,-5.09772E-001,2.23081E-001,1.24826E+000,-2.50266E-002,0.00000E+000,1.30864E-002,9.14546E-001,0.00000E+000,-2.98628E-004,-7.05497E-002,1.00000E+000,35
1149,1327,2.60136E+001,-9.67236E-002,-1.10514E-001,1.18686E+001,-2.61060E-001,-7.58345E-002,1.18717E+001,1.74260E-002,4.00907E-001,0,1.78514E+002,-5.58102E+000,9.97447E-001,1.44207E+002,-3.39668E+001,9.95397E-001,2.23124E-001,-9.17143E-002,-2.73182E-003,2.23147E-001,-9.17380E-002,-4.97101E-001,2.24320E-001,1.24973E+000,-2.49877E-002,0.00000E+000,1.31830E-002,9.14548E-001,0.00000E+000,-8.78716E-004,-7.05651E-002,1.00000E+000,35
1149,1337,2.60252E+001,4.95034E-001,-1.08125E-001,1.18543E+001,-3.26742E-001,-1.10222E-001,1.18593E+001,2.58381E-002,4.82084E-001,0,1.78422E+002,-6.56923E+000,9.97009E-001,1.44437E+002,-3.47413E+001,9.96338E-001,2.24312E-001,-9.17104E-002,-2.66482E-003,2.24335E-001,-9.17328E-002,-4.83094E-001,2.25572E-001,1.25122E+000,-2.49298E-002,0.00000E+000,1.32808E-002,9.14552E-001,0.00000E+000,-1.46550E-003,-7.05879E-002,1.00000E+000,35
1149,1347,2.60547E+001,1.09490E+000,-6.26912E-002,1.18486E+001,-3.88085E-001,-1.38675E-001,1.18557E+001,2.41687E-002,4.68495E-001,0,1.78418E+002,-7.48781E+000,9.97202E-001,1.45006E+002,-3.55344E+001,9.96344E-001,2.25501E-001,-9.17055E-002,-2.58981E-003,2.25523E-001,-9.17266E-002,-4.67745E-001,2.26827E-001,1.25271E+000,-2.48515E-002,0.00000E+000,1.33788E-002,9.14557E-001,0.00000E+000,-2.05375E-003,-7.06188E-002,1.00000E+000,35
699,1347,-1.04948E+001,4.83549E-001,2.38980E-002,4.67489E+000,-7.05720E-001,3.69981E-002,4.72801E+000,1.73710E-002,5.75148E-001,0,7.26838E+001,-1.17511E+001,9.97718E-001,2.92782E+001,-5.00911E+001,9.97572E-001,2.04536E-001,-8.73010E-002,-1.42934E-003,2.04543E-001,-8.73080E-002,-2.80610E-001,2.05272E-001,1.22696E+000,-3.06464E-003,0.00000E+000,-2.23413E-004,9.19055E-001,0.00000E+000,-2.17494E-003,-7.61214E-002,1.00000E+000,35
699,1357,-1.04812E+001,1.07099E+000,3.54208E-002,4.66803E+000,-7.65021E-001,-1.92009E-003,4.73030E+000,1.73182E-002,5.71957E-001,0,7.26887E+001,-1.26107E+001,9.97341E-001,2.96452E+001,-5.10798E+001,9.97448E-001,2.03550E-001,-8.73163E-002,-1.67792E-003,2.03560E-001,-8.73260E-002,-3.30507E-001,2.04243E-001,1.22575E+000,-3.10235E-003,0.00000E+000,-5.75033E-004,9.19044E-001,0.00000E+000,-3.32084E-003,-7.61573E-002,1.00000E+000,35
699,1337,-1.05095E+001,-1.17457E-001,4.60530E-002,4.67469E+000,-6.63751E-001,7.66638E-002,4.72220E+000,1.27675E-002,5.72393E-001,0,7.25664E+001,-1.11785E+001,9.97655E-001,2.89801E+001,-4.93903E+001,9.97709E-001,2.05518E-001,-8.72899E-002,-1.18585E-003,2.05522E-001,-8.72947E-002,-2.32038E-001,2.06297E-001,1.22816E+000,-3.03790E-003,0.00000E+000,1.27356E-004,9.19062E-001,0.00000E+000,-1.03181E-003,-7.60960E-002,1.00000E+000,35
699,1317,-1.05199E+001,-1.25824E+000,2.07816E-001,4.67573E+000,-5.36829E-001,1.78174E-001,4.70982E+000,1.83561E-002,6.07993E-001,0,7.22599E+001,-9.36454E+000,9.97759E-001,2.89958E+001,-4.72784E+001,9.97387E-001,2.07456E-001,-8.72800E-002,-7.16240E-004,2.07457E-001,-8.72817E-002,-1.39234E-001,2.08325E-001,1.23054E+000,-3.01650E-003,0.00000E+000,8.22423E-004,9.19069E-001,0.00000E+000,1.23336E-003,-7.60757E-002,1.00000E+000,35
699,1327,-1.05148E+001,-6.83923E-001,1.10434E-001,4.67681E+000,-5.97030E-001,1.20584E-001,4.71631E+000,1.41680E-002,6.74025E-001,0,7.24589E+001,-1.02164E+001,9.97701E-001,2.89432E+001,-4.81970E+001,9.96739E-001,2.06486E-001,-8.72837E-002,-9.50232E-004,2.06489E-001,-8.72868E-002,-1.85327E-001,2.07309E-001,1.22935E+000,-3.02406E-003,0.00000E+000,4.74171E-004,9.19066E-001,0.00000E+000,9.84332E-005,-7.60829E-002,1.00000E+000,35
1159,1307,2.68372E+001,-1.27203E+000,-2.88488E-002,1.20634E+001,-1.45289E-001,7.08983E-003,1.20643E+001,2.07439E-002,3.97713E-001,0,1.80958E+002,-3.86696E+000,9.94885E-001,1.47100E+002,-3.23043E+001,9.92901E-001,2.21603E-001,-9.21600E-002,-2.92884E-003,2.21630E-001,-9.21873E-002,-5.34769E-001,2.22672E-001,1.24785E+000,-2.39450E-002,0.00000E+000,1.21072E-002,9.14186E-001,0.00000E+000,-1.30110E-003,-7.10073E-002,1.00000E+000,35
1159,1317,2.68425E+001,-6.75467E-001,-8.17598E-002,1.20556E+001,-1.96694E-001,-3.14985E-002,1.20572E+001,2.16335E-002,4.42390E-001,0,1.80997E+002,-4.64344E+000,9.95490E-001,1.47154E+002,-3.28969E+001,9.95339E-001,2.22876E-001,-9.21632E-002,-2.94955E-003,2.22903E-001,-9.21909E-002,-5.36369E-001,2.24010E-001,1.24945E+000,-2.39131E-002,0.00000E+000,1.20580E-002,9.14185E-001,0.00000E+000,-1.84800E-003,-7.10182E-002,1.00000E+000,35
1159,1327,2.68528E+001,-8.43370E-002,-1.05949E-001,1.20459E+001,-2.56319E-001,-6.83931E-002,1.20489E+001,1.50169E-002,4.17689E-001,0,1.80993E+002,-5.53303E+000,9.97651E-001,1.47325E+002,-3.36718E+001,9.96979E-001,2.24149E-001,-9.21674E-002,-2.96403E-003,2.24176E-001,-9.21951E-002,-5.36826E-001,2.25350E-001,1.25104E+000,-2.38649E-002,0.00000E+000,1.20086E-002,9.14183E-001,0.00000E+000,-2.39597E-003,-7.10348E-002,1.00000E+000,35
1159,1297,2.68387E+001,-1.85514E+000,5.45371E-002,1.20742E+001,-8.53592E-002,6.12233E-002,1.20747E+001,2.00423E-002,4.12560E-001,0,1.80889E+002,-2.98005E+000,9.96070E-001,1.47194E+002,-3.15381E+001,9.91850E-001,2.20336E-001,-9.21573E-002,-2.90478E-003,2.20363E-001,-9.21843E-002,-5.32531E-001,2.21341E-001,1.24627E+000,-2.39677E-002,0.00000E+000,1.21561E-002,9.14186E-001,0.00000E+000,-7.57640E-004,-7.09995E-002,1.00000E+000,35
1159,1337,2.68765E+001,5.06027E-001,-9.49298E-002,1.20401E+001,-3.23883E-001,-1.08041E-001,1.20449E+001,2.01154E-002,4.26609E-001,0,1.81046E+002,-6.53215E+000,9.98903E-001,1.47754E+002,-3.45201E+001,9.98666E-001,2.25429E-001,-9.21728E-002,-2.96984E-003,2.25457E-001,-9.22005E-002,-5.35700E-001,2.26700E-001,1.25264E+000,-2.37938E-002,0.00000E+000,1.19589E-002,9.14181E-001,0.00000E+000,-2.94819E-003,-7.10592E-002,1.00000E+000,35
1159,1347,2.68927E+001,1.10755E+000,-7.12952E-002,1.20237E+001,-3.80716E-001,-1.47484E-001,1.20306E+001,2.15078E-002,4.32039E-001,0,1.80930E+002,-7.38904E+000,9.97850E-001,1.48084E+002,-3.52295E+001,9.97088E-001,2.26707E-001,-9.21786E-002,-2.97287E-003,2.26735E-001,-9.22063E-002,-5.34087E-001,2.28048E-001,1.25425E+000,-2.37152E-002,0.00000E+000,1.19092E-002,9.14179E-001,0.00000E+000,-3.50019E-003,-7.10863E-002,1.00000E+000,35
689,1347,-1.12810E+001,4.71357E-001,2.81348E-002,4.52962E+000,-7.14260E-001,3.28507E-002,4.58571E+000,1.44056E-002,6.06606E-001,0,7.04898E+001,-1.18566E+001,9.98486E-001,2.72368E+001,-5.03848E+001,9.97680E-001,2.02594E-001,-8.63021E-002,-1.40347E-003,2.02601E-001,-8.63089E-002,-2.78337E-001,2.03339E-001,1.22458E+000,-1.72850E-003,0.00000E+000,-1.17241E-003,9.19917E-001,0.00000E+000,-2.13757E-003,-7.53198E-002,1.00000E+000,35
689,1357,-1.12718E+001,1.05729E+000,3.18760E-002,4.52069E+000,-7.72582E-001,-2.08944E-003,4.58623E+000,1.59012E-002,5.68710E-001,0,7.04520E+001,-1.27003E+001,9.98031E-001,2.75175E+001,-5.13994E+001,9.97950E-001,2.01396E-001,-8.63174E-002,-1.69081E-003,2.01405E-001,-8.63274E-002,-3.36695E-001,2.02088E-001,1.22312E+000,-1.76922E-003,0.00000E+000,-1.60626E-003,9.19905E-001,0.00000E+000,-3.12770E-003,-7.53474E-002,1.00000E+000,35
689,1337,-1.12893E+001,-1.08514E-001,5.22131E-002,4.53665E+000,-6.49740E-001,7.97453E-002,4.58363E+000,1.58404E-002,5.62643E-001,0,7.04584E+001,-1.09421E+001,9.98373E-001,2.70454E+001,-4.93806E+001,9.98502E-001,2.03793E-001,-8.62890E-002,-1.11827E-003,2.03797E-001,-8.62933E-002,-2.20872E-001,2.04592E-001,1.22605E+000,-1.69405E-003,0.00000E+000,-7.37730E-004,9.19927E-001,0.00000E+000,-1.14554E-003,-7.52965E-002,1.00000E+000,35
1169,1327,2.76767E+001,-7.36436E-002,-1.11580E-001,1.22082E+001,-2.51259E-001,-6.90071E-002,1.22110E+001,1.42528E-002,4.25185E-001,0,1.83278E+002,-5.48237E+000,9.98400E-001,1.50196E+002,-3.33874E+001,9.97940E-001,2.24802E-001,-9.25009E-002,-2.92410E-003,2.24828E-001,-9.25278E-002,-5.27949E-001,2.25998E-001,1.25188E+000,-2.26410E-002,0.00000E+000,1.12868E-002,9.13894E-001,0.00000E+000,-4.07976E-003,-7.11221E-002,1.00000E+000,35
1169,1337,2.77037E+001,5.26585E-001,-9.52891E-002,1.22036E+001,-3.09281E-001,-1.10814E-001,1.22080E+001,1.83384E-002,4.23363E-001,0,1.83350E+002,-6.34153E+000,9.98786E-001,1.50682E+002,-3.40977E+001,9.98182E-001,2.26061E-001,-9.25103E-002,-2.95925E-003,2.26089E-001,-9.25378E-002,-5.32166E-001,2.27326E-001,1.25347E+000,-2.25660E-002,0.00000E+000,1.11803E-002,9.13889E-001,0.00000E+000,-4.61399E-003,-7.11474E-002,1.00000E+000,35
1169,1347,2.77319E+001,1.12292E+000,-6.24696E-002,1.21971E+001,-3.72965E-001,-1.48560E-001,1.22037E+001,1.84671E-002,4.06937E-001,0,1.83375E+002,-7.29369E+000,9.97524E-001,1.51209E+002,-3.49161E+001,9.97119E-001,2.27322E-001,-9.25205E-002,-2.99171E-003,2.27350E-001,-9.25484E-002,-5.35866E-001,2.28655E-001,1.25505E+000,-2.24836E-002,0.00000E+000,1.10737E-002,9.13884E-001,0.00000E+000,-5.14910E-003,-7.11752E-002,1.00000E+000,35
689,1327,-1.13127E+001,-6.92543E-001,1.02116E-001,4.52286E+000,-5.97694E-001,1.21450E-001,4.56380E+000,1.74626E-002,6.43318E-001,0,7.01179E+001,-1.02129E+001,9.96795E-001,2.66893E+001,-4.84375E+001,9.96582E-001,2.04978E-001,-8.62806E-002,-8.40904E-004,2.04980E-001,-8.62830E-002,-1.65419E-001,2.05833E-001,1.22750E+000,-1.67233E-003,0.00000E+000,-3.07217E-004,9.19933E-001,0.00000E+000,-1.63023E-004,-7.52818E-002,1.00000E+000,35
1169,1317,2.76703E+001,-6.64929E-001,-7.35799E-002,1.22215E+001,-1.89400E-001,-2.00994E-002,1.22229E+001,2.64588E-002,3.63121E-001,0,1.83282E+002,-4.57854E+000,9.97108E-001,1.50106E+002,-3.26896E+001,9.97084E-001,2.23544E-001,-9.24941E-002,-2.87828E-003,2.23571E-001,-9.25203E-002,-5.21757E-001,2.24674E-001,1.25031E+000,-2.26878E-002,0.00000E+000,1.13928E-002,9.13897E-001,0.00000E+000,-3.54761E-003,-7.11063E-002,1.00000E+000,35
1169,1307,2.76624E+001,-1.26087E+000,-3.31928E-002,1.22282E+001,-1.39935E-001,1.18267E-002,1.22290E+001,2.10546E-002,3.95944E-001,0,1.83257E+002,-3.79907E+000,9.97182E-001,1.49994E+002,-3.20234E+001,9.95839E-001,2.22298E-001,-9.24885E-002,-2.82851E-003,2.22323E-001,-9.25139E-002,-5.14775E-001,2.23364E-001,1.24875E+000,-2.27228E-002,0.00000E+000,1.14977E-002,9.13900E-001,0.00000E+000,-3.02093E-003,-7.10945E-002,1.00000E+000,35
1169,1297,2.76656E+001,-1.84405E+000,5.80333E-002,1.22399E+001,-7.90174E-002,7.00519E-002,1.22403E+001,1.65776E-002,4.05947E-001,0,1.83182E+002,-2.92328E+000,9.97519E-001,1.50126E+002,-3.12790E+001,9.94766E-001,2.21050E-001,-9.24842E-002,-2.77308E-003,2.21074E-001,-9.25087E-002,-5.06705E-001,2.22052E-001,1.24719E+000,-2.27432E-002,0.00000E+000,1.16027E-002,9.13901E-001,0.00000E+000,-2.49422E-003,-7.10876E-002,1.00000E+000,35
689,1317,-1.13178E+001,-1.26671E+000,1.96247E-001,4.52157E+000,-5.39149E-001,1.75090E-001,4.55696E+000,2.01690E-002,5.97711E-001,0,6.99291E+001,-9.36594E+000,9.96491E-001,2.67340E+001,-4.74977E+001,9.94563E-001,2.06158E-001,-8.62769E-002,-5.69307E-004,2.06159E-001,-8.62780E-002,-1.11542E-001,2.07070E-001,1.22895E+000,-1.66361E-003,0.00000E+000,1.22533E-004,9.19936E-001,0.00000E+000,8.17753E-004,-7.52759E-002,1.00000E+000,35
679,1347,-1.20778E+001,4.66388E-001,2.93130E-002,4.37517E+000,-7.10798E-001,3.55562E-002,4.43268E+000,2.36880E-002,5.97010E-001,0,6.81280E+001,-1.18205E+001,9.97238E-001,2.50314E+001,-5.05829E+001,9.96577E-001,2.00568E-001,-8.53714E-002,-1.42292E-003,2.00575E-001,-8.53785E-002,-2.85112E-001,2.01313E-001,1.22210E+000,-2.71510E-004,0.00000E+000,-2.29856E-003,9.20720E-001,0.00000E+000,-2.14911E-003,-7.45769E-002,1.00000E+000,35
679,1357,-1.20489E+001,1.05191E+000,2.31960E-002,4.38751E+000,-7.70642E-001,-1.04346E-003,4.45467E+000,1.18498E-002,5.86928E-001,0,6.84263E+001,-1.26615E+001,9.98116E-001,2.55887E+001,-5.15675E+001,9.98040E-001,1.99034E-001,-8.53922E-002,-1.86599E-003,1.99046E-001,-8.54045E-002,-3.75870E-001,1.99712E-001,1.22023E+000,-3.18923E-004,0.00000E+000,-3.02329E-003,9.20702E-001,0.00000E+000,-3.07934E-003,-7.46005E-002,1.00000E+000,35
1179,1297,2.84821E+001,-1.83784E+000,3.23948E-002,1.23992E+001,-7.52048E-002,6.78691E-002,1.23996E+001,2.69068E-002,4.68986E-001,0,1.85430E+002,-2.91304E+000,9.98353E-001,1.52858E+002,-3.10001E+001,9.96185E-001,2.21520E-001,-9.26316E-002,-2.82961E-003,2.21545E-001,-9.26571E-002,-5.16016E-001,2.22531E-001,1.24779E+000,-2.19203E-002,0.00000E+000,1.10003E-002,9.13802E-001,0.00000E+000,-4.20635E-003,-7.14913E-002,1.00000E+000,35
1179,1307,2.84897E+001,-1.25305E+000,-4.34166E-002,1.23958E+001,-1.33823E-001,1.51716E-002,1.23966E+001,1.32276E-002,3.51605E-001,0,1.85602E+002,-3.74941E+000,9.98784E-001,1.52918E+002,-3.18030E+001,9.97171E-001,2.22664E-001,-9.26309E-002,-2.80098E-003,2.22689E-001,-9.26558E-002,-5.08943E-001,2.23733E-001,1.24922E+000,-2.18961E-002,0.00000E+000,1.10390E-002,9.13802E-001,0.00000E+000,-4.54770E-003,-7.14971E-002,1.00000E+000,35
1179,1317,2.84927E+001,-6.58006E-001,-1.22196E-001,1.23889E+001,-1.83254E-001,-3.64622E-002,1.23903E+001,2.96319E-002,3.36986E-001,0,1.85714E+002,-4.47245E+000,9.98698E-001,1.52902E+002,-3.23891E+001,9.98006E-001,2.23810E-001,-9.26302E-002,-2.77320E-003,2.23834E-001,-9.26545E-002,-5.02075E-001,2.24937E-001,1.25066E+000,-2.18739E-002,0.00000E+000,1.10778E-002,9.13803E-001,0.00000E+000,-4.88973E-003,-7.15024E-002,1.00000E+000,35
1179,1337,2.85352E+001,5.33295E-001,-1.07780E-001,1.23715E+001,-3.07888E-001,-1.23330E-001,1.23760E+001,1.49549E-002,4.13366E-001,0,1.85764E+002,-6.33384E+000,9.98390E-001,1.53665E+002,-3.38664E+001,9.97084E-001,2.26129E-001,-9.26275E-002,-2.68354E-003,2.26152E-001,-9.26501E-002,-4.82315E-001,2.27378E-001,1.25357E+000,-2.17434E-002,0.00000E+000,1.11566E-002,9.13806E-001,0.00000E+000,-5.58372E-003,-7.15335E-002,1.00000E+000,35
1179,1347,2.85781E+001,1.13720E+000,-6.68712E-002,1.23769E+001,-3.66862E-001,-1.62330E-001,1.23834E+001,1.50664E-002,4.08096E-001,0,1.85966E+002,-7.20008E+000,9.98529E-001,1.54429E+002,-3.45763E+001,9.97860E-001,2.27292E-001,-9.26260E-002,-2.63244E-003,2.27314E-001,-9.26476E-002,-4.71414E-001,2.28604E-001,1.25503E+000,-2.16619E-002,0.00000E+000,1.11962E-002,9.13809E-001,0.00000E+000,-5.93249E-003,-7.15529E-002,1.00000E+000,35
679,1327,-1.21009E+001,-6.99997E-001,1.10116E-001,4.37616E+000,-5.99396E-001,1.27473E-001,4.41886E+000,2.09078E-002,5.93596E-001,0,6.78695E+001,-1.02190E+001,9.96030E-001,2.46334E+001,-4.87034E+001,9.95083E-001,2.03604E-001,-8.53408E-002,-5.53992E-004,2.03605E-001,-8.53419E-002,-1.09852E-001,2.04490E-001,1.22581E+000,-2.02481E-004,0.00000E+000,-8.59686E-004,9.20747E-001,0.00000E+000,-3.02241E-004,-7.45425E-002,1.00000E+000,35
679,1337,-1.20866E+001,-1.14675E-001,5.49260E-002,4.38172E+000,-6.50139E-001,8.53428E-002,4.43051E+000,2.48347E-002,6.04597E-001,0,6.80830E+001,-1.09579E+001,9.97009E-001,2.48346E+001,-4.95728E+001,9.96643E-001,2.02091E-001,-8.53519E-002,-9.83529E-004,2.02095E-001,-8.53552E-002,-1.96043E-001,2.02905E-001,1.22396E+000,-2.27447E-004,0.00000E+000,-1.57743E-003,9.20737E-001,0.00000E+000,-1.22350E-003,-7.45550E-002,1.00000E+000,35
1179,1327,2.85048E+001,-7.08282E-002,-1.24001E-001,1.23751E+001,-2.51142E-001,-7.29404E-002,1.23779E+001,1.98285E-002,4.11341E-001,0,1.85644E+002,-5.52785E+000,9.98672E-001,1.53128E+002,-3.32210E+001,9.96304E-001,2.24967E-001,-9.26290E-002,-2.73185E-003,2.24990E-001,-9.26525E-002,-4.92790E-001,2.26154E-001,1.25211E+000,-2.18175E-002,0.00000E+000,1.11171E-002,9.13804E-001,0.00000E+000,-5.23563E-003,-7.15158E-002,1.00000E+000,35
679,1317,-1.21068E+001,-1.27448E+000,2.05835E-001,4.37415E+000,-5.41453E-001,1.83362E-001,4.41134E+000,1.68423E-002,6.28456E-001,0,6.76645E+001,-9.42480E+000,9.97067E-001,2.46706E+001,-4.77297E+001,9.95645E-001,2.05109E-001,-8.53357E-002,-1.31250E-004,2.05109E-001,-8.53358E-002,-2.58915E-002,2.06071E-001,1.22766E+000,-1.91200E-004,0.00000E+000,-1.43900E-004,9.20751E-001,0.00000E+000,6.16509E-004,-7.45369E-002,1.00000E+000,35
669,1327,-1.28811E+001,-7.17995E-001,1.09719E-001,4.23772E+000,-6.10585E-001,1.29067E-001,4.28343E+000,1.40530E-002,5.72903E-001,0,6.57625E+001,-1.03875E+001,9.98720E-001,2.26798E+001,-4.90981E+001,9.98440E-001,2.02099E-001,-8.45543E-002,-2.12319E-004,2.02099E-001,-8.45544E-002,-4.24380E-002,2.02994E-001,1.22397E+000,2.19606E-003,0.00000E+000,-2.00538E-003,9.21417E-001,0.00000E+000,-5.09681E-004,-7.37826E-002,1.00000E+000,35
669,1337,-1.28721E+001,-1.24358E-001,5.30049E-002,4.23774E+000,-6.54977E-001,8.30920E-002,4.28886E+000,1.46505E-002,5.95339E-001,0,6.58981E+001,-1.09943E+001,9.97708E-001,2.27997E+001,-4.98333E+001,9.97722E-001,2.00179E-001,-8.45663E-002,-7.25896E-004,2.00180E-001,-8.45681E-002,-1.46062E-001,2.00981E-001,1.22162E+000,2.16320E-003,0.00000E+000,-2.88220E-003,9.21405E-001,0.00000E+000,-1.37116E-003,-7.37946E-002,1.00000E+000,35
669,1347,-1.28582E+001,4.57883E-001,2.03470E-002,4.23972E+000,-7.11675E-001,4.46650E-002,4.29927E+000,1.33518E-002,5.66259E-001,0,6.60434E+001,-1.18086E+001,9.97250E-001,2.30568E+001,-5.08217E+001,9.97256E-001,1.98254E-001,-8.45825E-002,-1.24371E-003,1.98260E-001,-8.45879E-002,-2.51939E-001,1.98970E-001,1.21928E+000,2.11990E-003,0.00000E+000,-3.75861E-003,9.21389E-001,0.00000E+000,-2.23224E-003,-7.38105E-002,1.00000E+000,35
669,1357,-1.28332E+001,1.05493E+000,2.68722E-002,4.24522E+000,-7.60035E-001,3.46598E-003,4.31272E+000,1.37064E-002,5.66986E-001,0,6.62423E+001,-1.24993E+001,9.97165E-001,2.35913E+001,-5.16537E+001,9.97514E-001,1.96315E-001,-8.46099E-002,-1.77544E-003,1.96326E-001,-8.46212E-002,-3.62089E-001,1.96948E-001,1.21692E+000,2.04960E-003,0.00000E+000,-4.63971E-003,9.21363E-001,0.00000E+000,-3.09792E-003,-7.38363E-002,1.00000E+000,35
1189,1337,2.93723E+001,5.43757E-001,-1.24951E-001,1.25440E+001,-3.04994E-001,-1.42210E-001,1.25485E+001,1.93202E-002,4.20906E-001,0,1.88266E+002,-6.26843E+000,9.98610E-001,1.56734E+002,-3.35573E+001,9.97725E-001,2.25673E-001,-9.29573E-002,-2.36917E-003,2.25690E-001,-9.29749E-002,-4.25990E-001,2.26854E-001,1.25301E+000,-2.09341E-002,0.00000E+000,1.11909E-002,9.13491E-001,0.00000E+000,-6.13486E-003,-7.13531E-002,1.00000E+000,35
669,1317,-1.28827E+001,-1.28567E+000,2.18499E-001,4.23875E+000,-5.46300E-001,1.91197E-001,4.27809E+000,1.66993E-002,6.03723E-001,0,6.55852E+001,-9.51776E+000,9.98587E-001,2.28205E+001,-4.80468E+001,9.98560E-001,2.04004E-001,-8.45519E-002,2.89014E-004,2.04004E-001,-8.45521E-002,5.73866E-002,2.04997E-001,1.22630E+000,2.20577E-003,0.00000E+000,-1.13331E-003,9.21421E-001,0.00000E+000,3.47136E-004,-7.37790E-002,1.00000E+000,35
1189,1297,2.93190E+001,-1.83210E+000,3.31626E-002,1.25683E+001,-7.56242E-002,5.20737E-002,1.25687E+001,1.88711E-002,4.50511E-001,0,1.87861E+002,-2.92839E+000,9.98181E-001,1.55950E+002,-3.08235E+001,9.95714E-001,2.21868E-001,-9.29563E-002,-2.43982E-003,2.21887E-001,-9.29752E-002,-4.43994E-001,2.22855E-001,1.24825E+000,-2.10744E-002,0.00000E+000,1.12080E-002,9.13492E-001,0.00000E+000,-5.92249E-003,-7.13469E-002,1.00000E+000,35
1189,1307,2.93138E+001,-1.24864E+000,-5.57246E-002,1.25566E+001,-1.36243E-001,4.30249E-003,1.25574E+001,1.57789E-002,4.26899E-001,0,1.87899E+002,-3.80613E+000,9.97032E-001,1.55793E+002,-3.15719E+001,9.96836E-001,2.22814E-001,-9.29565E-002,-2.43116E-003,2.22833E-001,-9.29752E-002,-4.41092E-001,2.23848E-001,1.24943E+000,-2.10624E-002,0.00000E+000,1.12037E-002,9.13492E-001,0.00000E+000,-5.97521E-003,-7.13474E-002,1.00000E+000,35
1189,1317,2.93342E+001,-6.41205E-001,-1.01802E-001,1.25575E+001,-1.81543E-001,-5.11386E-002,1.25589E+001,1.91375E-002,4.37968E-001,0,1.88126E+002,-4.42931E+000,9.98360E-001,1.56091E+002,-3.20200E+001,9.98468E-001,2.23768E-001,-9.29567E-002,-2.41336E-003,2.23786E-001,-9.29751E-002,-4.36546E-001,2.24850E-001,1.25062E+000,-2.10271E-002,0.00000E+000,1.11995E-002,9.13492E-001,0.00000E+000,-6.02842E-003,-7.13490E-002,1.00000E+000,35
1189,1327,2.93497E+001,-5.53140E-002,-1.32484E-001,1.25494E+001,-2.48570E-001,-1.07275E-001,1.25523E+001,2.26609E-002,4.28880E-001,0,1.88226E+002,-5.40603E+000,9.98679E-001,1.56332E+002,-3.28485E+001,9.98388E-001,2.24720E-001,-9.29570E-002,-2.39277E-003,2.24738E-001,-9.29750E-002,-4.31525E-001,2.25851E-001,1.25182E+000,-2.09845E-002,0.00000E+000,1.11952E-002,9.13492E-001,0.00000E+000,-6.08157E-003,-7.13509E-002,1.00000E+000,35
659,1327,-1.36598E+001,-7.01710E-001,1.19536E-001,4.09923E+000,-5.89762E-001,1.34149E-001,4.14361E+000,2.19850E-002,5.79126E-001,0,6.36316E+001,-1.00566E+001,9.98427E-001,2.07913E+001,-4.89739E+001,9.96716E-001,2.00250E-001,-8.40210E-002,-1.35462E-004,2.00250E-001,-8.40210E-002,-2.73028E-002,2.01111E-001,1.22170E+000,4.72387E-003,0.00000E+000,-3.74911E-003,9.21881E-001,0.00000E+000,-7.24567E-004,-7.34585E-002,1.00000E+000,35
659,1337,-1.36276E+001,-1.42508E-001,7.86388E-002,4.12243E+000,-6.68525E-001,1.03784E-001,4.17758E+000,3.27597E-002,6.29521E-001,0,6.40915E+001,-1.12509E+001,9.97816E-001,2.13003E+001,-5.02577E+001,9.97724E-001,1.98143E-001,-8.40309E-002,-6.49592E-004,1.98145E-001,-8.40324E-002,-1.31900E-001,1.98904E-001,1.21913E+000,4.68813E-003,0.00000E+000,-4.63335E-003,9.21869E-001,0.00000E+000,-1.52964E-003,-7.34697E-002,1.00000E+000,35
659,1347,-1.36208E+001,4.52621E-001,4.90499E-002,4.11724E+000,-7.12036E-001,6.74793E-002,4.17890E+000,1.96854E-002,6.16294E-001,0,6.41144E+001,-1.18746E+001,9.98392E-001,2.14601E+001,-5.10501E+001,9.98525E-001,1.96033E-001,-8.40451E-002,-1.16830E-003,1.96038E-001,-8.40500E-002,-2.38994E-001,1.96700E-001,1.21656E+000,4.64056E-003,0.00000E+000,-5.51673E-003,9.21853E-001,0.00000E+000,-2.33394E-003,-7.34846E-002,1.00000E+000,35
659,1357,-1.36073E+001,1.05501E+000,3.82298E-002,4.11212E+000,-7.54249E-001,1.21349E-002,4.18074E+000,1.39682E-002,5.73765E-001,0,6.41872E+001,-1.24157E+001,9.97719E-001,2.17767E+001,-5.17876E+001,9.98087E-001,1.93907E-001,-8.40694E-002,-1.70051E-003,1.93917E-001,-8.40798E-002,-3.50486E-001,1.94487E-001,1.21398E+000,4.56657E-003,0.00000E+000,-6.40445E-003,9.21827E-001,0.00000E+000,-3.14218E-003,-7.35078E-002,1.00000E+000,35
1199,1307,3.01453E+001,-1.23858E+000,-5.35508E-002,1.27213E+001,-1.34247E-001,-4.00195E-003,1.27221E+001,2.07070E-002,4.27426E-001,0,1.90231E+002,-3.77193E+000,9.97188E-001,1.58809E+002,-3.13211E+001,9.96470E-001,2.22752E-001,-9.28684E-002,-1.94743E-003,2.22764E-001,-9.28804E-002,-3.53507E-001,2.23786E-001,1.24937E+000,-1.99628E-002,0.00000E+000,1.13541E-002,9.13547E-001,0.00000E+000,-6.80251E-003,-7.10142E-002,1.00000E+000,35
1199,1317,3.01550E+001,-6.45149E-001,-1.07205E-001,1.27138E+001,-1.90653E-001,-5.77126E-002,1.27154E+001,1.86571E-002,4.23168E-001,0,1.90337E+002,-4.58827E+000,9.96007E-001,1.58929E+002,-3.19777E+001,9.94562E-001,2.23560E-001,-9.28699E-002,-1.95080E-003,2.23572E-001,-9.28820E-002,-3.53211E-001,2.24635E-001,1.25039E+000,-1.99363E-002,0.00000E+000,1.13078E-002,9.13546E-001,0.00000E+000,-6.66841E-003,-7.10107E-002,1.00000E+000,35
1199,1327,3.01723E+001,-4.73036E-002,-1.47059E-001,1.27111E+001,-2.43734E-001,-1.08394E-001,1.27139E+001,1.91155E-002,4.15360E-001,0,1.90496E+002,-5.36749E+000,9.97298E-001,1.59185E+002,-3.25976E+001,9.96083E-001,2.24369E-001,-9.28717E-002,-1.95255E-003,2.24381E-001,-9.28837E-002,-3.52625E-001,2.25486E-001,1.25140E+000,-1.99056E-002,0.00000E+000,1.12615E-002,9.13545E-001,0.00000E+000,-6.53421E-003,-7.10066E-002,1.00000E+000,35
659,1317,-1.36731E+001,-1.28640E+000,1.94882E-001,4.09094E+000,-5.41559E-001,1.76847E-001,4.13042E+000,1.63408E-002,5.89732E-001,0,6.33733E+001,-9.37139E+000,9.97154E-001,2.06585E+001,-4.81231E+001,9.94766E-001,2.02340E-001,-8.40168E-002,3.69477E-004,2.02340E-001,-8.40173E-002,7.39269E-002,2.03307E-001,1.22425E+000,4.74405E-003,0.00000E+000,-2.86960E-003,9.21888E-001,0.00000E+000,7.62064E-005,-7.34522E-002,1.00000E+000,35
1199,1337,3.02080E+001,5.55380E-001,-1.22455E-001,1.27120E+001,-3.01829E-001,-1.51706E-001,1.27165E+001,1.45765E-002,4.45834E-001,0,1.90654E+002,-6.23707E+000,9.98485E-001,1.59811E+002,-3.32655E+001,9.97351E-001,2.25185E-001,-9.28743E-002,-1.94562E-003,2.25197E-001,-9.28862E-002,-3.50471E-001,2.26344E-001,1.25242E+000,-1.98523E-002,0.00000E+000,1.12147E-002,9.13542E-001,0.00000E+000,-6.39861E-003,-7.09996E-002,1.00000E+000,35
1199,1297,3.01495E+001,-1.81379E+000,3.10454E-002,1.27327E+001,-6.47327E-002,4.21151E-002,1.27330E+001,1.56151E-002,4.31822E-001,0,1.90191E+002,-2.74502E+000,9.97041E-001,1.58944E+002,-3.04464E+001,9.95600E-001,2.21946E-001,-9.28674E-002,-1.93819E-003,2.21958E-001,-9.28793E-002,-3.52732E-001,2.22939E-001,1.24837E+000,-1.99741E-002,0.00000E+000,1.14001E-002,9.13548E-001,0.00000E+000,-6.93599E-003,-7.10157E-002,1.00000E+000,35
649,1347,-1.44103E+001,4.57821E-001,3.34445E-002,3.96783E+000,-7.02132E-001,4.75873E-002,4.02976E+000,1.89279E-002,6.37875E-001,0,6.18839E+001,-1.16593E+001,9.97697E-001,1.93410E+001,-5.10394E+001,9.96342E-001,1.93616E-001,-8.32772E-002,-9.96719E-004,1.93619E-001,-8.32808E-002,-2.06241E-001,1.94248E-001,1.21361E+000,7.48385E-003,0.00000E+000,-7.35251E-003,9.22504E-001,0.00000E+000,-2.45252E-003,-7.28421E-002,1.00000E+000,35
649,1357,-1.43899E+001,1.05120E+000,4.27892E-002,3.97023E+000,-7.52295E-001,1.49339E-002,4.04090E+000,1.30172E-002,5.77015E-001,0,6.20107E+001,-1.23745E+001,9.98277E-001,1.98176E+001,-5.19693E+001,9.97688E-001,1.91160E-001,-8.32972E-002,-1.50314E-003,1.91168E-001,-8.33055E-002,-3.13784E-001,1.91693E-001,1.21064E+000,7.40139E-003,0.00000E+000,-8.19716E-003,9.22481E-001,0.00000E+000,-3.19706E-003,-7.28627E-002,1.00000E+000,35
649,1337,-1.44309E+001,-1.29405E-001,6.93172E-002,3.95893E+000,-6.49197E-001,8.91339E-002,4.01279E+000,2.03399E-002,5.93664E-001,0,6.16246E+001,-1.08990E+001,9.98106E-001,1.89880E+001,-5.01680E+001,9.97158E-001,1.96062E-001,-8.32663E-002,-5.02815E-004,1.96063E-001,-8.32672E-002,-1.03137E-001,1.96803E-001,1.21658E+000,7.53751E-003,0.00000E+000,-6.50866E-003,9.22519E-001,0.00000E+000,-1.70867E-003,-7.28286E-002,1.00000E+000,35
649,1327,-1.44527E+001,-6.94254E-001,1.11923E-001,3.94561E+000,-5.78490E-001,1.19098E-001,3.98957E+000,1.61519E-002,5.69557E-001,0,6.13220E+001,-9.81533E+000,9.98922E-001,1.86409E+001,-4.89583E+001,9.98359E-001,1.98489E-001,-8.32598E-002,-1.75527E-005,1.98489E-001,-8.32598E-002,-3.56948E-003,1.99345E-001,1.21954E+000,7.57641E-003,0.00000E+000,-5.66904E-003,9.22530E-001,0.00000E+000,-9.68553E-004,-7.28189E-002,1.00000E+000,35
1209,1307,3.09747E+001,-1.22374E+000,-6.23992E-002,1.28841E+001,-1.26205E-001,-2.07179E-002,1.28847E+001,1.52337E-002,4.45728E-001,0,1.92564E+002,-3.64992E+000,9.98007E-001,1.61781E+002,-3.09637E+001,9.96664E-001,2.22197E-001,-9.24081E-002,-1.43695E-003,2.22203E-001,-9.24147E-002,-2.61691E-001,2.23248E-001,1.24870E+000,-1.87976E-002,0.00000E+000,1.14793E-002,9.13948E-001,0.00000E+000,-7.03981E-003,-7.07600E-002,1.00000E+000,35
1209,1317,3.09831E+001,-6.38431E-001,-1.15296E-001,1.28769E+001,-1.89934E-001,-6.66407E-002,1.28785E+001,1.75015E-002,4.24435E-001,0,1.92650E+002,-4.58768E+000,9.97897E-001,1.61881E+002,-3.17551E+001,9.95139E-001,2.23032E-001,-9.24091E-002,-1.43385E-003,2.23038E-001,-9.24156E-002,-2.60433E-001,2.24126E-001,1.24974E+000,-1.87729E-002,0.00000E+000,1.14370E-002,9.13947E-001,0.00000E+000,-6.75410E-003,-7.07533E-002,1.00000E+000,35
1209,1327,3.10139E+001,-3.15480E-002,-1.35552E-001,1.28830E+001,-2.36254E-001,-1.15380E-001,1.28857E+001,1.72259E-002,3.94196E-001,0,1.92922E+002,-5.26667E+000,9.98163E-001,1.62374E+002,-3.22855E+001,9.96746E-001,2.23869E-001,-9.24103E-002,-1.42510E-003,2.23875E-001,-9.24167E-002,-2.58158E-001,2.25007E-001,1.25079E+000,-1.87337E-002,0.00000E+000,1.13945E-002,9.13946E-001,0.00000E+000,-6.46742E-003,-7.07425E-002,1.00000E+000,35
1209,1337,3.10485E+001,5.68623E-001,-1.02859E-001,1.28823E+001,-2.98345E-001,-1.51620E-001,1.28866E+001,1.66956E-002,4.68126E-001,0,1.93027E+002,-6.21805E+000,9.97804E-001,1.62989E+002,-3.29877E+001,9.96327E-001,2.24714E-001,-9.24120E-002,-1.40990E-003,2.24720E-001,-9.24183E-002,-2.54723E-001,2.25897E-001,1.25184E+000,-1.86778E-002,0.00000E+000,1.13516E-002,9.13943E-001,0.00000E+000,-6.17775E-003,-7.07272E-002,1.00000E+000,35
1209,1297,3.09804E+001,-1.80146E+000,2.22928E-002,1.28989E+001,-5.74877E-002,3.23705E-002,1.28990E+001,1.38348E-002,4.05868E-001,0,1.92547E+002,-2.63601E+000,9.97945E-001,1.61941E+002,-3.01520E+001,9.96173E-001,2.21362E-001,-9.24074E-002,-1.43614E-003,2.21369E-001,-9.24140E-002,-2.62240E-001,2.22372E-001,1.24766E+000,-1.88122E-002,0.00000E+000,1.15216E-002,9.13949E-001,0.00000E+000,-7.32497E-003,-7.07640E-002,1.00000E+000,35
649,1317,-1.44564E+001,-1.28059E+000,2.02061E-001,3.94558E+000,-5.33157E-001,1.69121E-001,3.98503E+000,1.40252E-002,5.94753E-001,0,6.11721E+001,-9.20089E+000,9.97984E-001,1.86960E+001,-4.81536E+001,9.97669E-001,2.00902E-001,-8.32600E-002,4.57290E-004,2.00903E-001,-8.32608E-002,9.22033E-002,2.01881E-001,1.22248E+000,7.59341E-003,0.00000E+000,-4.83177E-003,9.22535E-001,0.00000E+000,-2.30515E-004,-7.28146E-002,1.00000E+000,35
639,1347,-1.51949E+001,4.64786E-001,3.06032E-002,3.82399E+000,-6.88934E-001,4.65089E-002,3.88583E+000,1.95213E-002,5.98114E-001,0,5.96828E+001,-1.14147E+001,9.96778E-001,1.73376E+001,-5.10596E+001,9.95879E-001,1.91407E-001,-8.23217E-002,-8.71979E-004,1.91409E-001,-8.23245E-002,-1.82517E-001,1.92032E-001,1.21091E+000,1.06508E-002,0.00000E+000,-9.53213E-003,9.23310E-001,0.00000E+000,-2.62371E-003,-7.20145E-002,1.00000E+000,35
639,1357,-1.51723E+001,1.06228E+000,4.13983E-002,3.82859E+000,-7.35600E-001,1.42466E-002,3.89864E+000,1.29340E-002,5.79800E-001,0,5.98413E+001,-1.20869E+001,9.97909E-001,1.78550E+001,-5.19099E+001,9.97690E-001,1.88724E-001,-8.23382E-002,-1.34861E-003,1.88730E-001,-8.23449E-002,-2.85053E-001,1.89240E-001,1.20767E+000,1.05609E-002,0.00000E+000,-1.03247E-002,9.23288E-001,0.00000E+000,-3.36186E-003,-7.20350E-002,1.00000E+000,35
639,1317,-1.52302E+001,-1.29347E+000,2.18496E-001,3.80969E+000,-5.44666E-001,1.72357E-001,3.85228E+000,1.78589E-002,6.77517E-001,0,5.90897E+001,-9.38415E+000,9.97850E-001,1.69064E+001,-4.84513E+001,9.96941E-001,1.99343E-001,-8.23165E-002,4.78561E-004,1.99344E-001,-8.23174E-002,9.73494E-002,2.00349E-001,1.22055E+000,1.07556E-002,0.00000E+000,-7.17310E-003,9.23336E-001,0.00000E+000,-4.26657E-004,-7.19906E-002,1.00000E+000,35
639,1327,-1.52238E+001,-7.17121E-001,1.30932E-001,3.81383E+000,-5.96603E-001,1.32664E-001,3.86249E+000,1.31393E-002,6.08318E-001,0,5.92763E+001,-1.01352E+001,9.98527E-001,1.68965E+001,-4.94389E+001,9.97439E-001,1.96722E-001,-8.23120E-002,4.07855E-005,1.96722E-001,-8.23120E-002,8.37476E-003,1.97592E-001,1.21736E+000,1.07443E-002,0.00000E+000,-7.95478E-003,9.23333E-001,0.00000E+000,-1.15466E-003,-7.19932E-002,1.00000E+000,35
639,1337,-1.52142E+001,-1.24586E-001,6.11216E-002,3.81679E+000,-6.39850E-001,8.59207E-002,3.87100E+000,1.65393E-002,6.36541E-001,0,5.94582E+001,-1.07220E+001,9.97664E-001,1.69881E+001,-5.01662E+001,9.96707E-001,1.94069E-001,-8.23132E-002,-4.09840E-004,1.94069E-001,-8.23138E-002,-8.49623E-002,1.94812E-001,1.21414E+000,1.07112E-002,0.00000E+000,-8.74334E-003,9.23325E-001,0.00000E+000,-1.88908E-003,-7.20007E-002,1.00000E+000,35
1219,1317,3.18201E+001,-6.27107E-001,-1.12454E-001,1.30448E+001,-1.88928E-001,-7.83769E-002,1.30464E+001,2.11011E-002,4.82779E-001,0,1.95036E+002,-4.56981E+000,9.97926E-001,1.64991E+002,-3.14556E+001,9.95293E-001,2.22240E-001,-9.24210E-002,-7.73574E-004,2.22242E-001,-9.24229E-002,-1.40857E-001,2.23288E-001,1.24877E+000,-1.71632E-002,0.00000E+000,1.14880E-002,9.13873E-001,0.00000E+000,-6.65108E-003,-6.97957E-002,1.00000E+000,35
1219,1327,3.18468E+001,-2.09359E-002,-1.33922E-001,1.30488E+001,-2.33914E-001,-1.20351E-001,1.30514E+001,1.07345E-002,4.03745E-001,0,1.95250E+002,-5.23709E+000,9.99131E-001,1.65417E+002,-3.20177E+001,9.98014E-001,2.23052E-001,-9.24206E-002,-7.51086E-004,2.23054E-001,-9.24224E-002,-1.36410E-001,2.24142E-001,1.24978E+000,-1.71282E-002,0.00000E+000,1.14554E-002,9.13872E-001,0.00000E+000,-6.04735E-003,-6.97748E-002,1.00000E+000,35
1219,1337,3.18838E+001,5.84567E-001,-1.08002E-001,1.30496E+001,-2.91244E-001,-1.65910E-001,1.30539E+001,1.63332E-002,4.84315E-001,0,1.95415E+002,-6.10033E+000,9.98197E-001,1.66059E+002,-3.26169E+001,9.96434E-001,2.23873E-001,-9.24201E-002,-7.20422E-004,2.23875E-001,-9.24218E-002,-1.30502E-001,2.25006E-001,1.25081E+000,-1.70725E-002,0.00000E+000,1.14224E-002,9.13870E-001,0.00000E+000,-5.43544E-003,-6.97415E-002,1.00000E+000,35
1219,1297,3.18152E+001,-1.78965E+000,1.54691E-002,1.30672E+001,-5.27599E-002,2.04148E-002,1.30674E+001,1.50689E-002,3.81182E-001,0,1.94941E+002,-2.54047E+000,9.98035E-001,1.65005E+002,-2.98687E+001,9.96034E-001,2.20612E-001,-9.24215E-002,-8.07725E-004,2.20614E-001,-9.24235E-002,-1.47840E-001,2.21579E-001,1.24675E+000,-1.72055E-002,0.00000E+000,1.15530E-002,9.13874E-001,0.00000E+000,-7.85887E-003,-6.98210E-002,1.00000E+000,35
1219,1307,3.18143E+001,-1.20990E+000,-5.69222E-002,1.30546E+001,-1.21147E-001,-2.99231E-002,1.30552E+001,1.95362E-002,4.09155E-001,0,1.94974E+002,-3.54861E+000,9.97991E-001,1.64934E+002,-3.06793E+001,9.95308E-001,2.21426E-001,-9.24212E-002,-7.91828E-004,2.21428E-001,-9.24232E-002,-1.44555E-001,2.22433E-001,1.24776E+000,-1.71874E-002,0.00000E+000,1.15205E-002,9.13873E-001,0.00000E+000,-7.25572E-003,-6.98101E-002,1.00000E+000,35
629,1347,-1.59719E+001,4.56846E-001,2.47763E-002,3.68781E+000,-6.90507E-001,4.51116E-002,3.75217E+000,1.80704E-002,5.77100E-001,0,5.76032E+001,-1.14072E+001,9.95851E-001,1.54442E+001,-5.12920E+001,9.95300E-001,1.89553E-001,-8.26503E-002,-8.48271E-004,1.89555E-001,-8.26529E-002,-1.78549E-001,1.90072E-001,1.20864E+000,1.39756E-002,0.00000E+000,-1.20267E-002,9.22965E-001,0.00000E+000,-2.61462E-003,-7.18268E-002,1.00000E+000,35
629,1357,-1.59423E+001,1.05549E+000,3.91139E-002,3.69920E+000,-7.36119E-001,1.45602E-002,3.77176E+000,1.51216E-002,5.70691E-001,0,5.78618E+001,-1.20728E+001,9.96396E-001,1.60794E+001,-5.21274E+001,9.96248E-001,1.86980E-001,-8.26578E-002,-1.10856E-003,1.86984E-001,-8.26623E-002,-2.35555E-001,1.87402E-001,1.20553E+000,1.38893E-002,0.00000E+000,-1.24313E-002,9.22953E-001,0.00000E+000,-3.24454E-003,-7.18444E-002,1.00000E+000,35
629,1327,-1.59985E+001,-7.15813E-001,1.28274E-001,3.67937E+000,-5.89520E-001,1.32318E-001,3.72864E+000,1.38637E-002,5.90124E-001,0,5.72194E+001,-9.99948E+000,9.97364E-001,1.50483E+001,-4.95306E+001,9.96961E-001,1.94652E-001,-8.26484E-002,-3.65597E-004,1.94653E-001,-8.26489E-002,-7.55393E-002,1.95389E-001,1.21481E+000,1.40620E-002,0.00000E+000,-1.12212E-002,9.22976E-001,0.00000E+000,-1.36080E-003,-7.18093E-002,1.00000E+000,35
629,1337,-1.59851E+001,-1.31897E-001,5.96454E-002,3.68619E+000,-6.41084E-001,8.62919E-002,3.74252E+000,1.67751E-002,6.22956E-001,0,5.74609E+001,-1.07228E+001,9.97108E-001,1.52001E+001,-5.03920E+001,9.96295E-001,1.92107E-001,-8.26475E-002,-6.02058E-004,1.92108E-001,-8.26489E-002,-1.25549E-001,1.92731E-001,1.21172E+000,1.40305E-002,0.00000E+000,-1.16239E-002,9.22972E-001,0.00000E+000,-1.98756E-003,-7.18157E-002,1.00000E+000,35
1229,1317,3.26577E+001,-6.03245E-001,-1.28769E-001,1.32159E+001,-1.71447E-001,-9.75851E-002,1.32174E+001,2.30716E-002,4.56878E-001,0,1.97494E+002,-4.27868E+000,9.97723E-001,1.68093E+002,-3.09613E+001,9.95963E-001,2.21799E-001,-9.19704E-002,-7.20744E-005,2.21799E-001,-9.19705E-002,-1.31611E-002,2.22873E-001,1.24824E+000,-1.56557E-002,0.00000E+000,1.16434E-002,9.14247E-001,0.00000E+000,-5.78809E-003,-6.92523E-002,1.00000E+000,35
1229,1327,3.26775E+001,-1.37153E-002,-1.37367E-001,1.32123E+001,-2.36362E-001,-1.28009E-001,1.32150E+001,1.42961E-002,4.74072E-001,0,1.97555E+002,-5.27803E+000,9.98279E-001,1.68421E+002,-3.17616E+001,9.97037E-001,2.22506E-001,-9.19667E-002,-1.67865E-005,2.22506E-001,-9.19667E-002,-3.05844E-003,2.23617E-001,1.24912E+000,-1.56245E-002,0.00000E+000,1.16717E-002,9.14248E-001,0.00000E+000,-5.10180E-003,-6.92279E-002,1.00000E+000,35
1229,1337,3.27178E+001,5.97179E-001,-1.17290E-001,1.32192E+001,-2.83291E-001,-1.68273E-001,1.32233E+001,1.51126E-002,4.28854E-001,0,1.97789E+002,-5.98954E+000,9.97433E-001,1.69107E+002,-3.23248E+001,9.96408E-001,2.23212E-001,-9.19617E-002,4.37974E-005,2.23213E-001,-9.19617E-002,7.96197E-003,2.24362E-001,1.25000E+000,-1.55798E-002,0.00000E+000,1.17001E-002,9.14249E-001,0.00000E+000,-4.41431E-003,-6.91931E-002,1.00000E+000,35
629,1317,-1.60123E+001,-1.28983E+000,2.25010E-001,3.66757E+000,-5.35067E-001,1.80076E-001,3.71077E+000,1.52737E-002,6.07689E-001,0,5.68915E+001,-9.20867E+000,9.97636E-001,1.49719E+001,-4.85515E+001,9.97239E-001,1.97171E-001,-8.26525E-002,-1.39750E-004,1.97171E-001,-8.26526E-002,-2.86148E-002,1.98028E-001,1.21787E+000,1.40717E-002,0.00000E+000,-1.08217E-002,9.22977E-001,0.00000E+000,-7.38806E-004,-7.18073E-002,1.00000E+000,35
1229,1297,3.26508E+001,-1.77370E+000,1.10470E-002,1.32359E+001,-4.42046E-002,1.09909E-002,1.32360E+001,1.75070E-002,4.52477E-001,0,1.97322E+002,-2.43436E+000,9.96669E-001,1.68088E+002,-2.94786E+001,9.94050E-001,2.20390E-001,-9.19756E-002,-1.71969E-004,2.20390E-001,-9.19757E-002,-3.15435E-002,2.21392E-001,1.24649E+000,-1.56919E-002,0.00000E+000,1.15869E-002,9.14246E-001,0.00000E+000,-7.15347E-003,-6.92805E-002,1.00000E+000,35
1229,1307,3.26623E+001,-1.18533E+000,-5.83128E-002,1.32370E+001,-1.02898E-001,-3.10170E-002,1.32375E+001,2.60562E-002,4.49311E-001,0,1.97523E+002,-3.30813E+000,9.95993E-001,1.68217E+002,-3.01740E+001,9.94510E-001,2.21094E-001,-9.19734E-002,-1.23701E-004,2.21094E-001,-9.19735E-002,-2.26391E-002,2.22131E-001,1.24736E+000,-1.56779E-002,0.00000E+000,1.16151E-002,9.14246E-001,0.00000E+000,-6.47194E-003,-6.92696E-002,1.00000E+000,35
619,1327,-1.67776E+001,-7.16307E-001,1.29811E-001,3.53988E+000,-5.84480E-001,1.34846E-001,3.59034E+000,1.13556E-002,5.77572E-001,0,5.50738E+001,-9.90369E+000,9.97378E-001,1.31499E+001,-4.96570E+001,9.97677E-001,1.93068E-001,-8.18975E-002,-6.22236E-004,1.93070E-001,-8.18989E-002,-1.29657E-001,1.93808E-001,1.21284E+000,1.75594E-002,0.00000E+000,-1.43663E-002,9.23615E-001,0.00000E+000,-1.49851E-003,-7.16560E-002,1.00000E+000,35
619,1337,-1.67597E+001,-1.31231E-001,6.58250E-002,3.55051E+000,-6.35278E-001,8.88563E-002,3.60799E+000,1.40553E-002,6.19938E-001,0,5.53726E+001,-1.06211E+001,9.95618E-001,1.33838E+001,-5.05072E+001,9.95551E-001,1.90371E-001,-8.18965E-002,-7.50270E-004,1.90373E-001,-8.18985E-002,-1.57885E-001,1.90990E-001,1.20958E+000,1.75228E-002,0.00000E+000,-1.45781E-002,9.23613E-001,0.00000E+000,-2.02864E-003,-7.16620E-002,1.00000E+000,35
619,1347,-1.67407E+001,4.61005E-001,2.63768E-002,3.55930E+000,-6.80010E-001,5.03130E-002,3.62403E+000,1.71794E-002,5.87393E-001,0,5.56184E+001,-1.12443E+001,9.95144E-001,1.37054E+001,-5.13383E+001,9.94690E-001,1.87668E-001,-8.18966E-002,-8.84114E-004,1.87671E-001,-8.18995E-002,-1.87915E-001,1.88176E-001,1.20631E+000,1.74719E-002,0.00000E+000,-1.47897E-002,9.23610E-001,0.00000E+000,-2.55847E-003,-7.16702E-002,1.00000E+000,35
619,1357,-1.67119E+001,1.05899E+000,3.13585E-002,3.57102E+000,-7.25125E-001,1.61113E-002,3.64393E+000,1.56594E-002,5.74499E-001,0,5.58925E+001,-1.18919E+001,9.96943E-001,1.43030E+001,-5.21685E+001,9.96735E-001,1.84945E-001,-8.18995E-002,-1.03248E-003,1.84949E-001,-8.19035E-002,-2.21686E-001,1.85351E-001,1.20304E+000,1.73870E-002,0.00000E+000,-1.50022E-002,9.23604E-001,0.00000E+000,-3.09053E-003,-7.16840E-002,1.00000E+000,35
619,1317,-1.67878E+001,-1.28620E+000,2.27716E-001,3.53181E+000,-5.24459E-001,1.84277E-001,3.57529E+000,1.91366E-002,6.09624E-001,0,5.47988E+001,-9.06232E+000,9.96404E-001,1.31341E+001,-4.86073E+001,9.96225E-001,1.95743E-001,-8.19006E-002,-5.05372E-004,1.95744E-001,-8.19015E-002,-1.04290E-001,1.96611E-001,1.21609E+000,1.75700E-002,0.00000E+000,-1.41556E-002,9.23616E-001,0.00000E+000,-9.71144E-004,-7.16543E-002,1.00000E+000,35
1239,1307,3.34839E+001,-1.17698E+000,-7.95738E-002,1.33934E+001,-9.92567E-002,-4.90430E-002,1.33938E+001,2.65306E-002,4.32015E-001,0,1.99761E+002,-3.24136E+000,9.95674E-001,1.71066E+002,-2.99099E+001,9.93897E-001,2.20391E-001,-9.11901E-002,1.65553E-004,2.20391E-001,-9.11902E-002,3.04431E-002,2.21481E-001,1.24650E+000,-1.45791E-002,0.00000E+000,1.13610E-002,9.14957E-001,0.00000E+000,-6.40195E-003,-6.91276E-002,1.00000E+000,35
1239,1317,3.34933E+001,-5.78686E-001,-1.41877E-001,1.33864E+001,-1.50788E-001,-1.06157E-001,1.33877E+001,2.60803E-002,4.37513E-001,0,1.99895E+002,-3.98724E+000,9.96332E-001,1.71171E+002,-3.04604E+001,9.95183E-001,2.21163E-001,-9.11802E-002,3.12519E-004,2.21164E-001,-9.11805E-002,5.73280E-002,2.22295E-001,1.24746E+000,-1.45551E-002,0.00000E+000,1.15433E-002,9.14961E-001,0.00000E+000,-5.37497E-003,-6.91020E-002,1.00000E+000,35
1239,1327,3.35161E+001,9.07947E-003,-1.28601E-001,1.33810E+001,-2.22403E-001,-1.32032E-001,1.33835E+001,1.98364E-002,4.94775E-001,0,1.99907E+002,-5.08506E+000,9.97012E-001,1.71570E+002,-3.13144E+001,9.96121E-001,2.21942E-001,-9.11653E-002,4.67649E-004,2.21942E-001,-9.11660E-002,8.55753E-002,2.23118E-001,1.24842E+000,-1.45139E-002,0.00000E+000,1.17276E-002,9.14969E-001,0.00000E+000,-4.33714E-003,-6.90577E-002,1.00000E+000,35
1239,1337,3.35401E+001,6.16755E-001,-1.18907E-001,1.33752E+001,-2.69809E-001,-1.68786E-001,1.33790E+001,1.67746E-002,4.13980E-001,0,1.99944E+002,-5.80785E+000,9.96400E-001,1.71988E+002,-3.19229E+001,9.94045E-001,2.22713E-001,-9.11497E-002,6.22669E-004,2.22714E-001,-9.11510E-002,1.13668E-001,2.23933E-001,1.24938E+000,-1.44701E-002,0.00000E+000,1.19105E-002,9.14977E-001,0.00000E+000,-3.30681E-003,-6.90107E-002,1.00000E+000,35
1239,1297,3.34813E+001,-1.76230E+000,5.87632E-003,1.34002E+001,-3.78805E-002,5.02576E-003,1.34002E+001,1.66535E-002,4.59757E-001,0,1.99621E+002,-2.36419E+000,9.96718E-001,1.71095E+002,-2.91903E+001,9.94842E-001,2.19619E-001,-9.11972E-002,2.28236E-005,2.19619E-001,-9.11972E-002,4.20730E-003,2.20668E-001,1.24554E+000,-1.45929E-002,0.00000E+000,1.11791E-002,9.14954E-001,0.00000E+000,-7.42652E-003,-6.91425E-002,1.00000E+000,35
609,1347,-1.75097E+001,4.58699E-001,2.85372E-002,3.42918E+000,-6.77211E-001,5.06614E-002,3.49577E+000,2.14741E-002,6.24387E-001,0,5.36204E+001,-1.11977E+001,9.94857E-001,1.19676E+001,-5.14719E+001,9.94373E-001,1.85849E-001,-8.02581E-002,-1.16788E-003,1.85854E-001,-8.02633E-002,-2.51452E-001,1.86428E-001,1.20407E+000,2.07490E-002,0.00000E+000,-1.78821E-002,9.24996E-001,0.00000E+000,-2.47243E-003,-7.05469E-002,1.00000E+000,35
609,1357,-1.74832E+001,1.06445E+000,2.76645E-002,3.43981E+000,-7.13448E-001,1.59595E-002,3.51305E+000,1.72441E-002,5.92948E-001,0,5.38770E+001,-1.16968E+001,9.96840E-001,1.25192E+001,-5.21817E+001,9.96126E-001,1.83040E-001,-8.02593E-002,-1.27258E-003,1.83046E-001,-8.02655E-002,-2.76914E-001,1.83507E-001,1.20070E+000,2.06672E-002,0.00000E+000,-1.80093E-002,9.24993E-001,0.00000E+000,-3.23547E-003,-7.05654E-002,1.00000E+000,35
609,1317,-1.75698E+001,-1.29116E+000,2.23866E-001,3.38848E+000,-5.23858E-001,1.78620E-001,3.43338E+000,1.87152E-002,6.26887E-001,0,5.26147E+001,-9.04330E+000,9.97038E-001,1.11807E+001,-4.87748E+001,9.96372E-001,1.94189E-001,-8.02629E-002,-9.14465E-004,1.94192E-001,-8.02659E-002,-1.90905E-001,1.95162E-001,1.21415E+000,2.08487E-002,0.00000E+000,-1.75019E-002,9.25000E-001,0.00000E+000,-1.92640E-004,-7.05244E-002,1.00000E+000,35
609,1327,-1.75539E+001,-7.23109E-001,1.28933E-001,3.40281E+000,-5.86767E-001,1.35056E-001,3.45567E+000,1.32065E-002,6.41636E-001,0,5.29712E+001,-9.94089E+000,9.97711E-001,1.12913E+001,-4.98369E+001,9.97351E-001,1.91421E-001,-8.02599E-002,-9.88716E-004,1.91425E-001,-8.02635E-002,-2.08510E-001,1.92254E-001,1.21079E+000,2.08404E-002,0.00000E+000,-1.76285E-002,9.25000E-001,0.00000E+000,-9.51509E-004,-7.05263E-002,1.00000E+000,35
609,1337,-1.75320E+001,-1.30525E-001,6.84485E-002,3.41740E+000,-6.28357E-001,9.20952E-002,3.47591E+000,1.69376E-002,6.05586E-001,0,5.33201E+001,-1.05054E+001,9.95602E-001,1.15973E+001,-5.06197E+001,9.95433E-001,1.88644E-001,-8.02585E-002,-1.07479E-003,1.88648E-001,-8.02628E-002,-2.29004E-001,1.89346E-001,1.20744E+000,2.08030E-002,0.00000E+000,-1.77550E-002,9.24998E-001,0.00000E+000,-1.71064E-003,-7.05347E-002,1.00000E+000,35
1249,1297,3.43165E+001,-1.74292E+000,1.24996E-002,1.35671E+001,-2.55805E-002,5.18076E-003,1.35671E+001,1.88192E-002,4.83837E-001,0,2.01924E+002,-2.20668E+000,9.97182E-001,1.74194E+002,-2.87945E+001,9.95672E-001,2.18392E-001,-9.02974E-002,2.23217E-004,2.18392E-001,-9.02975E-002,4.14312E-002,2.19480E-001,1.24404E+000,-1.29135E-002,0.00000E+000,1.03765E-002,9.15752E-001,0.00000E+000,-8.00256E-003,-6.85814E-002,1.00000E+000,35
1249,1307,3.43115E+001,-1.16431E+000,-8.44270E-002,1.35551E+001,-9.20059E-002,-5.09194E-002,1.35555E+001,2.33811E-002,4.33082E-001,0,2.02004E+002,-3.15398E+000,9.97024E-001,1.74033E+002,-2.96047E+001,9.95110E-001,2.19402E-001,-9.02820E-002,5.87154E-004,2.19403E-001,-9.02831E-002,1.08631E-001,2.20546E-001,1.24529E+000,-1.29002E-002,0.00000E+000,1.09340E-002,9.15758E-001,0.00000E+000,-6.42085E-003,-6.85644E-002,1.00000E+000,35
1249,1317,3.43187E+001,-5.72941E-001,-1.30714E-001,1.35469E+001,-1.49774E-001,-8.81805E-002,1.35481E+001,2.30764E-002,4.06860E-001,0,2.02040E+002,-4.02821E+000,9.94572E-001,1.74122E+002,-3.03124E+001,9.93269E-001,2.20411E-001,-9.02571E-002,9.58448E-004,2.20414E-001,-9.02601E-002,1.76762E-001,2.21614E-001,1.24653E+000,-1.28706E-002,0.00000E+000,1.14933E-002,9.15771E-001,0.00000E+000,-4.83402E-003,-6.85268E-002,1.00000E+000,35
1249,1327,3.43346E+001,3.33704E-002,-1.41670E-001,1.35373E+001,-1.99710E-001,-1.28070E-001,1.35393E+001,2.22080E-002,4.54191E-001,0,2.02044E+002,-4.78960E+000,9.94812E-001,1.74385E+002,-3.08289E+001,9.94237E-001,2.21423E-001,-9.02209E-002,1.33974E-003,2.21429E-001,-9.02266E-002,2.46305E-001,2.22689E-001,1.24779E+000,-1.28216E-002,0.00000E+000,1.20566E-002,9.15793E-001,0.00000E+000,-3.23570E-003,-6.84646E-002,1.00000E+000,35
1249,1337,3.43624E+001,6.40564E-001,-1.26237E-001,1.35322E+001,-2.51579E-001,-1.69256E-001,1.35356E+001,1.74218E-002,4.19928E-001,0,2.02109E+002,-5.55984E+000,9.97427E-001,1.74865E+002,-3.14324E+001,9.96778E-001,2.22434E-001,-9.01764E-002,1.72682E-003,2.22443E-001,-9.01859E-002,3.16482E-001,2.23765E-001,1.24905E+000,-1.27586E-002,0.00000E+000,1.26208E-002,9.15822E-001,0.00000E+000,-1.63478E-003,-6.83845E-002,1.00000E+000,35
1259,1327,3.51630E+001,4.67044E-002,-1.50468E-001,1.36992E+001,-1.91002E-001,-1.33392E-001,1.37012E+001,1.75901E-002,4.13889E-001,0,2.04301E+002,-4.67247E+000,9.97659E-001,1.77362E+002,-3.05221E+001,9.97224E-001,2.21194E-001,-8.96844E-002,2.05001E-003,2.21208E-001,-8.96979E-002,3.77801E-001,2.22521E-001,1.24751E+000,-1.19419E-002,0.00000E+000,1.26257E-002,9.16238E-001,0.00000E+000,-1.39042E-003,-6.78166E-002,1.00000E+000,35
1259,1337,3.51921E+001,6.52012E-001,-1.24018E-001,1.36947E+001,-2.45539E-001,-1.65199E-001,1.36979E+001,1.66744E-002,3.96731E-001,0,2.04335E+002,-5.50828E+000,9.98341E-001,1.77871E+002,-3.11692E+001,9.98320E-001,2.22286E-001,-8.96227E-002,2.57011E-003,2.22307E-001,-8.96439E-002,4.72071E-001,2.23690E-001,1.24888E+000,-1.18720E-002,0.00000E+000,1.33982E-002,9.16278E-001,0.00000E+000,7.87726E-004,-6.77054E-002,1.00000E+000,35
599,1347,-1.82695E+001,4.71376E-001,3.70679E-002,3.30752E+000,-6.59404E-001,5.43965E-002,3.37305E+000,2.15597E-002,6.46267E-001,0,5.17384E+001,-1.09245E+001,9.96814E-001,1.04003E+001,-5.13958E+001,9.96890E-001,1.84900E-001,-8.01967E-002,-9.14717E-004,1.84903E-001,-8.01998E-002,-1.97696E-001,1.85444E-001,1.20288E+000,2.32690E-002,0.00000E+000,-1.93680E-002,9.24940E-001,0.00000E+000,-2.31734E-003,-6.92682E-002,1.00000E+000,35
599,1357,-1.82390E+001,1.06206E+000,3.35423E-002,3.32268E+000,-7.10390E-001,1.98366E-002,3.39783E+000,1.45132E-002,6.14014E-001,0,5.20691E+001,-1.16503E+001,9.97368E-001,1.10015E+001,-5.23330E+001,9.96931E-001,1.82256E-001,-8.01953E-002,-7.10154E-004,1.82258E-001,-8.01973E-002,-1.55032E-001,1.82695E-001,1.19971E+000,2.31954E-002,0.00000E+000,-1.89237E-002,9.24951E-001,0.00000E+000,-3.14308E-003,-6.92873E-002,1.00000E+000,35
1259,1287,3.51486E+001,-2.31021E+000,1.00539E-001,1.37360E+001,4.73210E-002,4.03790E-002,1.37361E+001,1.91163E-002,4.31614E-001,0,2.04084E+002,-1.12384E+000,9.96029E-001,1.77312E+002,-2.77458E+001,9.92370E-001,2.16802E-001,-8.98026E-002,5.11349E-005,2.16802E-001,-8.98027E-002,9.55566E-003,2.17863E-001,1.24209E+000,-1.20485E-002,0.00000E+000,9.56350E-003,9.16178E-001,0.00000E+000,-1.00248E-002,-6.79865E-002,1.00000E+000,35
1259,1297,3.51403E+001,-1.73274E+000,-1.84987E-002,1.37262E+001,-1.90919E-002,-1.66479E-002,1.37262E+001,1.73784E-002,4.42666E-001,0,2.04212E+002,-2.07703E+000,9.96507E-001,1.77076E+002,-2.84953E+001,9.93900E-001,2.17906E-001,-8.97908E-002,5.40318E-004,2.17907E-001,-8.97917E-002,1.00611E-001,2.19028E-001,1.24344E+000,-1.20455E-002,0.00000E+000,1.03266E-002,9.16180E-001,0.00000E+000,-7.87319E-003,-6.79818E-002,1.00000E+000,35
1259,1307,3.51398E+001,-1.14710E+000,-9.84774E-002,1.37175E+001,-8.01668E-002,-6.04099E-002,1.37179E+001,1.74755E-002,4.25535E-001,0,2.04285E+002,-2.97403E+000,9.96959E-001,1.77007E+002,-2.92133E+001,9.95630E-001,2.19006E-001,-8.97682E-002,1.03581E-003,2.19009E-001,-8.97717E-002,1.92202E-001,2.20191E-001,1.24480E+000,-1.20283E-002,0.00000E+000,1.10910E-002,9.16189E-001,0.00000E+000,-5.71781E-003,-6.79543E-002,1.00000E+000,35
599,1327,-1.83251E+001,-7.03463E-001,1.38140E-001,3.26912E+000,-5.63042E-001,1.37092E-001,3.32008E+000,1.49905E-002,6.27866E-001,0,5.09056E+001,-9.54723E+000,9.97720E-001,9.55283E+000,-4.96702E+001,9.96949E-001,1.90144E-001,-8.01907E-002,-1.34810E-003,1.90151E-001,-8.01974E-002,-2.85712E-001,1.90925E-001,1.20920E+000,2.33518E-002,0.00000E+000,-2.02532E-002,9.24929E-001,0.00000E+000,-6.72156E-004,-6.92466E-002,1.00000E+000,35
599,1337,-1.83015E+001,-1.21649E-001,6.74006E-002,3.28694E+000,-6.13858E-001,9.25059E-002,3.34505E+000,1.39650E-002,6.17588E-001,0,5.13121E+001,-1.02673E+001,9.97175E-001,9.85257E+000,-5.05855E+001,9.97499E-001,1.87532E-001,-8.01955E-002,-1.12643E-003,1.87537E-001,-8.02002E-002,-2.41060E-001,1.88190E-001,1.20605E+000,2.33241E-002,0.00000E+000,-1.98116E-002,9.24933E-001,0.00000E+000,-1.49289E-003,-6.92538E-002,1.00000E+000,35
1259,1317,3.51488E+001,-5.52755E-001,-1.34706E-001,1.37106E+001,-1.35941E-001,-8.87529E-002,1.37116E+001,1.81474E-002,4.42204E-001,0,2.04300E+002,-3.84985E+000,9.97518E-001,1.77132E+002,-2.98732E+001,9.96351E-001,2.20102E-001,-8.97339E-002,1.53837E-003,2.20109E-001,-8.97415E-002,2.84471E-001,2.21355E-001,1.24615E+000,-1.19953E-002,0.00000E+000,1.18572E-002,9.16208E-001,0.00000E+000,-3.55737E-003,-6.79017E-002,1.00000E+000,35
599,1317,-1.83506E+001,-1.28556E+000,2.33398E-001,3.24498E+000,-5.15155E-001,1.79954E-001,3.29054E+000,1.85538E-002,6.10399E-001,0,5.04029E+001,-8.87143E+000,9.97504E-001,9.29443E+000,-4.88251E+001,9.97178E-001,1.92747E-001,-8.01830E-002,-1.57796E-003,1.92756E-001,-8.01922E-002,-3.31245E-001,1.93660E-001,1.21235E+000,2.33585E-002,0.00000E+000,-2.06947E-002,9.24928E-001,0.00000E+000,1.48230E-004,-6.92449E-002,1.00000E+000,35
589,1347,-1.90392E+001,4.83926E-001,4.01112E-002,3.17624E+000,-6.41235E-001,5.71683E-002,3.24082E+000,1.48677E-002,6.35168E-001,0,4.97068E+001,-1.06227E+001,9.97480E-001,8.67061E+000,-5.13280E+001,9.97359E-001,1.84052E-001,-7.98242E-002,-1.75210E-004,1.84053E-001,-7.98243E-002,-3.80435E-002,1.84591E-001,1.20179E+000,2.68697E-002,0.00000E+000,-2.07770E-002,9.25183E-001,0.00000E+000,-2.23425E-003,-6.81611E-002,1.00000E+000,35
589,1357,-1.90033E+001,1.07383E+000,4.11355E-002,3.19632E+000,-6.94011E-001,2.38396E-002,3.27088E+000,1.21281E-002,6.21070E-001,0,5.01108E+001,-1.13777E+001,9.97668E-001,9.36747E+000,-5.22794E+001,9.98121E-001,1.81350E-001,-7.98237E-002,2.52858E-005,1.81350E-001,-7.98237E-002,5.54714E-003,1.81783E-001,1.19855E+000,2.67927E-002,0.00000E+000,-2.03547E-002,9.25193E-001,0.00000E+000,-2.94127E-003,-6.81779E-002,1.00000E+000,35
589,1337,-1.90661E+001,-1.14475E-001,7.48846E-002,3.15965E+000,-6.01778E-001,9.39866E-002,3.21782E+000,1.07906E-002,6.11627E-001,0,4.93477E+001,-1.00666E+001,9.98461E-001,8.21098E+000,-5.06044E+001,9.98512E-001,1.86738E-001,-7.98214E-002,-3.85631E-004,1.86739E-001,-7.98220E-002,-8.28892E-002,1.87393E-001,1.20502E+000,2.69205E-002,0.00000E+000,-2.11981E-002,9.25177E-001,0.00000E+000,-1.52930E-003,-6.81500E-002,1.00000E+000,35
589,1327,-1.90831E+001,-6.80734E-001,1.49998E-001,3.14858E+000,-5.36215E-001,1.44285E-001,3.19717E+000,1.93659E-002,6.73163E-001,0,4.90285E+001,-9.14273E+000,9.98492E-001,8.02869E+000,-4.94309E+001,9.97490E-001,1.89401E-001,-7.98159E-002,-6.03533E-004,1.89402E-001,-7.98173E-002,-1.28445E-001,1.90181E-001,1.20823E+000,2.69494E-002,0.00000E+000,-2.16168E-002,9.25173E-001,0.00000E+000,-8.28322E-004,-6.81437E-002,1.00000E+000,35
1269,1327,3.59980E+001,6.35807E-002,-1.46437E-001,1.38668E+001,-1.80859E-001,-1.27425E-001,1.38685E+001,1.55996E-002,4.14041E-001,0,2.06587E+002,-4.55027E+000,9.98012E-001,1.80461E+002,-3.01679E+001,9.97350E-001,2.21055E-001,-8.89376E-002,2.68049E-003,2.21078E-001,-8.89608E-002,4.95383E-001,2.22478E-001,1.24735E+000,-1.08713E-002,0.00000E+000,1.29772E-002,9.16779E-001,0.00000E+000,-6.23376E-004,-6.54882E-002,1.00000E+000,35
1269,1337,3.60364E+001,6.59181E-001,-1.22818E-001,1.38705E+001,-2.45159E-001,-1.65376E-001,1.38737E+001,1.49731E-002,3.94623E-001,0,2.06772E+002,-5.53266E+000,9.97892E-001,1.81110E+002,-3.09583E+001,9.96583E-001,2.22278E-001,-8.88592E-002,3.32476E-003,2.22314E-001,-8.88947E-002,6.12159E-001,2.23795E-001,1.24889E+000,-1.07903E-002,0.00000E+000,1.39733E-002,9.16831E-001,0.00000E+000,1.63279E-003,-6.53691E-002,1.00000E+000,35
589,1317,-1.91141E+001,-1.26442E+000,2.47343E-001,3.11862E+000,-4.89905E-001,1.87503E-001,3.16243E+000,1.54281E-002,5.91474E-001,0,4.84351E+001,-8.46624E+000,9.96539E-001,7.69331E+000,-4.86451E+001,9.95504E-001,1.92059E-001,-7.98073E-002,-8.31059E-004,1.92062E-001,-7.98099E-002,-1.75143E-001,1.92973E-001,1.21144E+000,2.69547E-002,0.00000E+000,-2.20361E-002,9.25172E-001,0.00000E+000,-1.26423E-004,-6.81426E-002,1.00000E+000,35
1269,1317,3.59882E+001,-5.34273E-001,-1.33458E-001,1.38806E+001,-1.24098E-001,-9.38582E-002,1.38815E+001,1.55818E-002,4.07005E-001,0,2.06664E+002,-3.67611E+000,9.97804E-001,1.80300E+002,-2.95064E+001,9.97057E-001,2.19829E-001,-8.89950E-002,2.04802E-003,2.19843E-001,-8.90086E-002,3.79945E-001,2.21165E-001,1.24582E+000,-1.09266E-002,0.00000E+000,1.19851E-002,9.16743E-001,0.00000E+000,-2.87071E-003,-6.55694E-002,1.00000E+000,35
1269,1307,3.59782E+001,-1.12934E+000,-8.61636E-002,1.38866E+001,-6.92633E-002,-5.44258E-002,1.38868E+001,1.66133E-002,4.31379E-001,0,2.06585E+002,-2.85009E+000,9.96702E-001,1.80169E+002,-2.88628E+001,9.95855E-001,2.18601E-001,-8.90374E-002,1.42475E-003,2.18608E-001,-8.90440E-002,2.65344E-001,2.19856E-001,1.24430E+000,-1.09639E-002,0.00000E+000,1.09972E-002,9.16719E-001,0.00000E+000,-5.10833E-003,-6.56242E-002,1.00000E+000,35
1269,1297,3.59690E+001,-1.72123E+000,-2.41050E-002,1.38882E+001,-1.31883E-002,-1.92751E-002,1.38882E+001,1.72081E-002,4.28773E-001,0,2.06452E+002,-1.99495E+000,9.96374E-001,1.80068E+002,-2.82159E+001,9.95239E-001,2.17367E-001,-8.90696E-002,8.06421E-004,2.17369E-001,-8.90717E-002,1.50779E-001,2.18546E-001,1.24278E+000,-1.09892E-002,0.00000E+000,1.00103E-002,9.16702E-001,0.00000E+000,-7.34366E-003,-6.56615E-002,1.00000E+000,35
1269,1287,3.59806E+001,-2.30380E+000,9.70666E-002,1.38989E+001,4.68685E-002,3.15670E-002,1.38990E+001,2.20122E-002,4.11559E-001,0,2.06363E+002,-1.11712E+000,9.96877E-001,1.80355E+002,-2.75549E+001,9.94864E-001,2.16131E-001,-8.90794E-002,2.00917E-004,2.16131E-001,-8.90795E-002,3.77173E-002,2.17240E-001,1.24127E+000,-1.09874E-002,0.00000E+000,9.02720E-003,9.16704E-001,0.00000E+000,-9.57054E-003,-6.56587E-002,1.00000E+000,35
579,1347,-1.98019E+001,4.91519E-001,4.90843E-002,3.05077E+000,-6.28890E-001,6.16362E-002,3.11553E+000,1.25683E-002,6.36713E-001,0,4.77601E+001,-1.04194E+001,9.97644E-001,7.06825E+000,-5.13420E+001,9.97867E-001,1.82543E-001,-7.91599E-002,6.68686E-004,1.82545E-001,-7.91616E-002,1.46397E-001,1.83080E-001,1.19989E+000,3.05826E-002,0.00000E+000,-2.20553E-002,9.25728E-001,0.00000E+000,-2.93361E-003,-6.75266E-002,1.00000E+000,35
579,1357,-1.97589E+001,1.09259E+000,5.12593E-002,3.07789E+000,-6.70823E-001,2.75912E-002,3.15027E+000,1.28476E-002,6.41346E-001,0,4.82728E+001,-1.10091E+001,9.98489E-001,7.88222E+000,-5.21163E+001,9.98759E-001,1.79622E-001,-7.91604E-002,9.36718E-004,1.79625E-001,-7.91638E-002,2.07391E-001,1.80046E-001,1.19640E+000,3.04991E-002,0.00000E+000,-2.15040E-002,9.25742E-001,0.00000E+000,-3.82260E-003,-6.75479E-002,1.00000E+000,35
579,1337,-1.98369E+001,-1.03340E-001,8.62578E-002,3.02606E+000,-5.86129E-001,1.00824E-001,3.08395E+000,1.29704E-002,6.18603E-001,0,4.72673E+001,-9.81830E+000,9.97043E-001,6.49380E+000,-5.05656E+001,9.97493E-001,1.85444E-001,-7.91548E-002,3.89780E-004,1.85445E-001,-7.91553E-002,8.44019E-002,1.86105E-001,1.20337E+000,3.06365E-002,0.00000E+000,-2.26048E-002,9.25720E-001,0.00000E+000,-2.04771E-003,-6.75129E-002,1.00000E+000,35
579,1327,-1.98662E+001,-6.73991E-001,1.45387E-001,3.00315E+000,-5.25168E-001,1.38846E-001,3.05188E+000,1.32213E-002,6.84541E-001,0,4.67984E+001,-8.93185E+000,9.98300E-001,6.07553E+000,-4.94227E+001,9.97673E-001,1.88318E-001,-7.91465E-002,1.04714E-004,1.88318E-001,-7.91466E-002,2.24316E-002,1.89114E-001,1.20683E+000,3.06703E-002,0.00000E+000,-2.31508E-002,9.25715E-001,0.00000E+000,-1.16720E-003,-6.75043E-002,1.00000E+000,35
579,1317,-1.98863E+001,-1.24775E+000,2.47159E-001,2.98439E+000,-4.70461E-001,1.88110E-001,3.02710E+000,1.90439E-002,6.51528E-001,0,4.63627E+001,-8.13935E+000,9.96403E-001,5.92378E+000,-4.84662E+001,9.95339E-001,1.91181E-001,-7.91341E-002,-1.90868E-004,1.91181E-001,-7.91343E-002,-4.04561E-002,1.92123E-001,1.21029E+000,3.06770E-002,0.00000E+000,-2.36967E-002,9.25714E-001,0.00000E+000,-2.87035E-004,-6.75026E-002,1.00000E+000,35
1279,1317,3.68150E+001,-5.27460E-001,-1.35289E-001,1.40409E+001,-1.21565E-001,-8.95593E-002,1.40417E+001,1.31575E-002,3.84422E-001,0,2.08848E+002,-3.67805E+000,9.97667E-001,1.83269E+002,-2.93100E+001,9.96146E-001,2.19369E-001,-8.79023E-002,2.49311E-003,2.19389E-001,-8.79225E-002,4.64841E-001,2.20825E-001,1.24526E+000,-9.63528E-003,0.00000E+000,1.18302E-002,9.17603E-001,0.00000E+000,-2.07036E-003,-6.30898E-002,1.00000E+000,35
1279,1327,3.68424E+001,7.78770E-002,-1.42174E-001,1.40429E+001,-1.73326E-001,-1.22470E-001,1.40445E+001,2.30089E-002,4.26396E-001,0,2.08998E+002,-4.47565E+000,9.96181E-001,1.83711E+002,-2.98474E+001,9.96150E-001,2.20768E-001,-8.78323E-002,3.23712E-003,2.20801E-001,-8.78663E-002,6.00928E-001,2.22329E-001,1.24701E+000,-9.56792E-003,0.00000E+000,1.30230E-002,9.17649E-001,0.00000E+000,2.54516E-004,-6.30001E-002,1.00000E+000,35
1279,1337,3.68750E+001,6.72212E-001,-1.24779E-001,1.40408E+001,-2.40445E-001,-1.66157E-001,1.40438E+001,1.83692E-002,4.27040E-001,0,2.09124E+002,-5.47719E+000,9.97269E-001,1.84262E+002,-3.06329E+001,9.96812E-001,2.22162E-001,-8.77408E-002,3.99242E-003,2.22214E-001,-8.77922E-002,7.37967E-001,2.23838E-001,1.24876E+000,-9.47536E-003,0.00000E+000,1.42194E-002,9.17712E-001,0.00000E+000,2.58660E-003,-6.28769E-002,1.00000E+000,35
1279,1307,3.67960E+001,-1.12018E+000,-9.04223E-002,1.40391E+001,-6.43657E-002,-4.80416E-002,1.40394E+001,1.49412E-002,4.30089E-001,0,2.08647E+002,-2.81594E+000,9.97389E-001,1.82996E+002,-2.86165E+001,9.95412E-001,2.17973E-001,-8.79538E-002,1.76261E-003,2.17983E-001,-8.79640E-002,3.30098E-001,2.19331E-001,1.24353E+000,-9.68124E-003,0.00000E+000,1.06471E-002,9.17572E-001,0.00000E+000,-4.37669E-003,-6.31509E-002,1.00000E+000,35
1279,1297,3.67951E+001,-1.70207E+000,-1.75248E-002,1.40456E+001,1.20919E-003,-1.49175E-002,1.40456E+001,2.82148E-002,3.79025E-001,0,2.08584E+002,-1.80452E+000,9.95861E-001,1.83036E+002,-2.78619E+001,9.94535E-001,2.16569E-001,-8.79831E-002,1.04194E-003,2.16573E-001,-8.79867E-002,1.96018E-001,2.17837E-001,1.24180E+000,-9.70118E-003,0.00000E+000,9.46393E-003,9.17558E-001,0.00000E+000,-6.68289E-003,-6.31775E-002,1.00000E+000,35
1279,1287,3.68031E+001,-2.30790E+000,8.31331E-002,1.40568E+001,3.97715E-002,2.99845E-002,1.40569E+001,2.57521E-002,3.11299E-001,0,2.08543E+002,-1.20848E+000,9.96423E-001,1.83245E+002,-2.75466E+001,9.93901E-001,2.15161E-001,-8.80020E-002,3.27725E-004,2.15162E-001,-8.80024E-002,6.19377E-002,2.16346E-001,1.24007E+000,-9.70954E-003,0.00000E+000,8.28447E-003,9.17553E-001,0.00000E+000,-8.98195E-003,-6.31886E-002,1.00000E+000,35
569,1347,-2.05644E+001,5.09963E-001,5.75142E-002,2.92558E+000,-6.05789E-001,6.72368E-002,2.98840E+000,1.36698E-002,6.47968E-001,0,4.58098E+001,-1.00497E+001,9.97218E-001,5.47878E+000,-5.11838E+001,9.96953E-001,1.81559E-001,-7.83598E-002,1.36501E-003,1.81566E-001,-7.83670E-002,3.00888E-001,1.82131E-001,1.19861E+000,3.44432E-002,0.00000E+000,-2.37532E-002,9.26392E-001,0.00000E+000,-3.16615E-003,-6.69338E-002,1.00000E+000,35
569,1357,-2.05244E+001,1.10137E+000,5.14225E-002,2.95105E+000,-6.55039E-001,3.25874E-002,3.02305E+000,1.28369E-002,6.32674E-001,0,4.63007E+001,-1.07581E+001,9.98033E-001,6.22042E+000,-5.21008E+001,9.97682E-001,1.78458E-001,-7.83645E-002,1.78053E-003,1.78471E-001,-7.83769E-002,3.97201E-001,1.78911E-001,1.19491E+000,3.43628E-002,0.00000E+000,-2.29266E-002,9.26410E-001,0.00000E+000,-4.31139E-003,-6.69587E-002,1.00000E+000,35
569,1327,-2.06296E+001,-6.70715E-001,1.48700E-001,2.87786E+000,-5.16526E-001,1.45535E-001,2.92746E+000,2.04141E-002,6.92818E-001,0,4.48490E+001,-8.79394E+000,9.98543E-001,4.45253E+000,-4.94837E+001,9.98011E-001,1.87701E-001,-7.83358E-002,5.12478E-004,1.87702E-001,-7.83368E-002,1.10371E-001,1.88555E-001,1.20598E+000,3.45405E-002,0.00000E+000,-2.54001E-002,9.26370E-001,0.00000E+000,-8.84281E-004,-6.69037E-002,1.00000E+000,35
569,1337,-2.05994E+001,-8.23974E-002,9.26972E-002,2.90003E+000,-5.61523E-001,1.00685E-001,2.95561E+000,1.27628E-002,6.55637E-001,0,4.53186E+001,-9.42155E+000,9.97477E-001,4.89682E+000,-5.03497E+001,9.97464E-001,1.84641E-001,-7.83489E-002,9.39453E-004,1.84644E-001,-7.83522E-002,2.04669E-001,1.85348E-001,1.20230E+000,3.44962E-002,0.00000E+000,-2.45782E-002,9.26380E-001,0.00000E+000,-2.02304E-003,-6.69174E-002,1.00000E+000,35
1289,1327,3.76633E+001,8.19874E-002,-1.58285E-001,1.41981E+001,-1.73708E-001,-1.27066E-001,1.41997E+001,2.08314E-002,4.11821E-001,0,2.11146E+002,-4.49567E+000,9.95353E-001,1.86577E+002,-2.96569E+001,9.94546E-001,2.20544E-001,-8.63767E-002,3.80468E-003,2.20591E-001,-8.64238E-002,7.10110E-001,2.22307E-001,1.24675E+000,-7.85339E-003,0.00000E+000,1.27858E-002,9.18849E-001,0.00000E+000,1.28282E-003,-6.04414E-002,1.00000E+000,35
1289,1337,3.77023E+001,6.87801E-001,-1.28047E-001,1.42022E+001,-2.29793E-001,-1.57229E-001,1.42049E+001,1.97663E-002,4.36545E-001,0,2.11300E+002,-5.36737E+000,9.96927E-001,1.87236E+002,-3.02779E+001,9.96338E-001,2.22226E-001,-8.62750E-002,4.65817E-003,2.22296E-001,-8.63453E-002,8.64869E-001,2.24133E-001,1.24886E+000,-7.74152E-003,0.00000E+000,1.41474E-002,9.18921E-001,0.00000E+000,3.82046E-003,-6.03073E-002,1.00000E+000,35
569,1317,-2.06584E+001,-1.23587E+000,2.48141E-001,2.84875E+000,-4.53551E-001,1.83218E-001,2.89044E+000,2.14575E-002,6.53531E-001,0,4.42799E+001,-7.86054E+000,9.96950E-001,4.16273E+000,-4.83924E+001,9.95436E-001,1.90746E-001,-7.83126E-002,6.77446E-005,1.90746E-001,-7.83126E-002,1.44261E-002,1.91761E-001,1.20966E+000,3.45392E-002,0.00000E+000,-2.62214E-002,9.26370E-001,0.00000E+000,2.53694E-004,-6.69041E-002,1.00000E+000,35
1289,1317,3.76388E+001,-5.21795E-001,-1.39212E-001,1.41965E+001,-1.23987E-001,-9.08711E-002,1.41974E+001,2.03886E-002,4.77679E-001,0,2.10985E+002,-3.74946E+000,9.97720E-001,1.86192E+002,-2.90696E+001,9.95028E-001,2.18866E-001,-8.64481E-002,2.97184E-003,2.18895E-001,-8.64770E-002,5.57630E-001,2.20496E-001,1.24465E+000,-7.92718E-003,0.00000E+000,1.14355E-002,9.18801E-001,0.00000E+000,-1.23364E-003,-6.05299E-002,1.00000E+000,35
1289,1287,3.76221E+001,-2.28353E+000,6.28905E-002,1.42088E+001,5.85094E-002,1.58141E-002,1.42089E+001,2.70860E-002,4.14560E-001,0,2.10672E+002,-9.52321E-001,9.96603E-001,1.86076E+002,-2.69805E+001,9.92954E-001,2.13786E-001,-8.65582E-002,5.27745E-004,2.13787E-001,-8.65591E-002,1.00676E-001,2.15072E-001,1.23837E+000,-8.02066E-003,0.00000E+000,7.39792E-003,9.18741E-001,0.00000E+000,-8.75826E-003,-6.06421E-002,1.00000E+000,35
1289,1297,3.76121E+001,-1.69257E+000,-3.27147E-002,1.41923E+001,5.29555E-003,-3.70475E-002,1.41923E+001,3.33614E-002,3.53177E-001,0,2.10672E+002,-1.72611E+000,9.96327E-001,1.85844E+002,-2.76010E+001,9.92621E-001,2.15481E-001,-8.65301E-002,1.33515E-003,2.15487E-001,-8.65360E-002,2.53291E-001,2.16874E-001,1.24046E+000,-7.99930E-003,0.00000E+000,8.73722E-003,9.18755E-001,0.00000E+000,-6.26227E-003,-6.06164E-002,1.00000E+000,35
1289,1307,3.76290E+001,-1.11283E+000,-9.29811E-002,1.42027E+001,-6.39783E-002,-5.30681E-002,1.42030E+001,1.74064E-002,4.50947E-001,0,2.10914E+002,-2.82610E+000,9.98675E-001,1.86065E+002,-2.83895E+001,9.96791E-001,2.17179E-001,-8.65015E-002,2.14790E-003,2.17194E-001,-8.65167E-002,4.05220E-001,2.18686E-001,1.24255E+000,-7.97875E-003,0.00000E+000,1.00868E-002,9.18768E-001,0.00000E+000,-3.74721E-003,-6.05918E-002,1.00000E+000,35
559,1327,-2.13830E+001,-6.62133E-001,1.41484E-001,2.76112E+000,-5.04199E-001,1.36081E-001,2.81008E+000,3.47005E-002,7.92007E-001,0,4.30718E+001,-8.59717E+000,9.98865E-001,2.95528E+000,-4.93942E+001,9.97855E-001,1.87045E-001,-7.80652E-002,1.21539E-003,1.87050E-001,-7.80707E-002,2.62663E-001,1.87900E-001,1.20507E+000,3.86807E-002,0.00000E+000,-2.73019E-002,9.26502E-001,0.00000E+000,-5.48432E-004,-6.58122E-002,1.00000E+000,35
559,1337,-2.13625E+001,-6.99722E-002,9.06501E-002,2.77402E+000,-5.44201E-001,9.78973E-002,2.82859E+000,1.09577E-002,6.54463E-001,0,4.33771E+001,-9.11977E+000,9.98945E-001,3.26997E+000,-5.02656E+001,9.98808E-001,1.84043E-001,-7.80763E-002,1.52564E-003,1.84052E-001,-7.80851E-002,3.33470E-001,1.84755E-001,1.20146E+000,3.86393E-002,0.00000E+000,-2.66951E-002,9.26509E-001,0.00000E+000,-1.93360E-003,-6.58281E-002,1.00000E+000,35
559,1347,-2.13327E+001,5.23977E-001,5.60354E-002,2.79439E+000,-5.85120E-001,6.44032E-002,2.85572E+000,1.68860E-002,6.27607E-001,0,4.37861E+001,-9.71018E+000,9.97142E-001,3.77531E+000,-5.10890E+001,9.96463E-001,1.81022E-001,-7.80857E-002,1.83297E-003,1.81035E-001,-7.80987E-002,4.05291E-001,1.81602E-001,1.19784E+000,3.85878E-002,0.00000E+000,-2.60867E-002,9.26517E-001,0.00000E+000,-3.32229E-003,-6.58479E-002,1.00000E+000,35
559,1357,-2.12891E+001,1.11524E+000,5.00567E-002,2.82427E+000,-6.33447E-001,3.36093E-002,2.89463E+000,1.48181E-002,6.22536E-001,0,4.43358E+001,-1.04233E+001,9.97182E-001,4.57378E+000,-5.20048E+001,9.97004E-001,1.77979E-001,-7.80915E-002,2.13241E-003,1.77997E-001,-7.81092E-002,4.77081E-001,1.78441E-001,1.19421E+000,3.85134E-002,0.00000E+000,-2.54761E-002,9.26530E-001,0.00000E+000,-4.71591E-003,-6.58764E-002,1.00000E+000,35
559,1317,-2.14207E+001,-1.21524E+000,2.56957E-001,2.72278E+000,-4.29800E-001,1.87066E-001,2.76283E+000,3.24348E-002,6.77989E-001,0,4.23212E+001,-7.47442E+000,9.98327E-001,2.58420E+000,-4.81888E+001,9.97212E-001,1.90035E-001,-7.80469E-002,8.87033E-004,1.90038E-001,-7.80498E-002,1.89578E-001,1.91046E-001,1.20868E+000,3.86769E-002,0.00000E+000,-2.79090E-002,9.26502E-001,0.00000E+000,8.37335E-004,-6.58137E-002,1.00000E+000,35
1299,1327,3.84942E+001,9.90883E-002,-1.44629E-001,1.43586E+001,-1.64037E-001,-1.16861E-001,1.43600E+001,2.62444E-002,4.45335E-001,0,2.13292E+002,-4.40766E+000,9.95400E-001,1.89632E+002,-2.93051E+001,9.94467E-001,2.20391E-001,-8.47237E-002,4.34799E-003,2.20453E-001,-8.47856E-002,8.16264E-001,2.22402E-001,1.24657E+000,-5.40440E-003,0.00000E+000,1.19910E-002,9.20235E-001,0.00000E+000,1.88126E-003,-5.76742E-002,1.00000E+000,35
1299,1337,3.85478E+001,6.99582E-001,-1.23309E-001,1.43758E+001,-2.27100E-001,-1.60493E-001,1.43785E+001,2.43248E-002,4.71025E-001,0,2.13699E+002,-5.34828E+000,9.95103E-001,1.90509E+002,-2.99857E+001,9.93939E-001,2.22407E-001,-8.46105E-002,5.29299E-003,2.22498E-001,-8.47017E-002,9.87392E-001,2.24600E-001,1.24911E+000,-5.26470E-003,0.00000E+000,1.35064E-002,9.20318E-001,0.00000E+000,4.55942E-003,-5.75267E-002,1.00000E+000,35
1299,1287,3.84568E+001,-2.27398E+000,7.80341E-002,1.43718E+001,5.92399E-002,2.12576E-002,1.43719E+001,1.86388E-002,4.80734E-001,0,2.12873E+002,-9.79751E-001,9.97589E-001,1.89193E+002,-2.67374E+001,9.95690E-001,2.12308E-001,-8.49077E-002,7.47942E-004,2.12310E-001,-8.49096E-002,1.44183E-001,2.13722E-001,1.23656E+000,-5.59935E-003,0.00000E+000,6.00867E-003,9.20118E-001,0.00000E+000,-8.69133E-003,-5.78800E-002,1.00000E+000,35
1299,1297,3.84602E+001,-1.69170E+000,7.33169E-003,1.43700E+001,-2.40533E-003,-1.32346E-003,1.43700E+001,1.99290E-002,4.75522E-001,0,2.12963E+002,-1.97192E+000,9.98086E-001,1.89195E+002,-2.75161E+001,9.96226E-001,2.14337E-001,-8.48837E-002,1.63312E-003,2.14346E-001,-8.48926E-002,3.12704E-001,2.15884E-001,1.23905E+000,-5.57920E-003,0.00000E+000,7.49662E-003,9.20130E-001,0.00000E+000,-6.06169E-003,-5.78587E-002,1.00000E+000,35
1299,1307,3.84859E+001,-1.09331E+000,-5.05480E-002,1.43850E+001,-5.35816E-002,-3.03442E-002,1.43852E+001,4.01342E-002,4.97347E-001,0,2.13314E+002,-2.76288E+000,9.97437E-001,1.89558E+002,-2.80556E+001,9.95700E-001,2.16367E-001,-8.48439E-002,2.53179E-003,2.16388E-001,-8.48651E-002,4.81548E-001,2.18059E-001,1.24156E+000,-5.53841E-003,0.00000E+000,8.99451E-003,9.20155E-001,0.00000E+000,-3.41448E-003,-5.78156E-002,1.00000E+000,35
1299,1317,3.84902E+001,-5.00637E-001,-1.21284E-001,1.43740E+001,-1.11840E-001,-9.01111E-002,1.43747E+001,3.34624E-002,4.84434E-001,0,2.13413E+002,-3.59399E+000,9.95681E-001,1.89575E+002,-2.86762E+001,9.94029E-001,2.18385E-001,-8.47896E-002,3.43735E-003,2.18424E-001,-8.48286E-002,6.49500E-001,2.20231E-001,1.24407E+000,-5.47891E-003,0.00000E+000,1.04928E-002,9.20190E-001,0.00000E+000,-7.66624E-004,-5.77528E-002,1.00000E+000,35
559,1307,-2.14539E+001,-1.79014E+000,3.72816E-001,2.68712E+000,-3.78332E-001,2.27387E-001,2.72314E+000,1.63449E-002,6.65263E-001,0,4.16449E+001,-6.74540E+000,9.96819E-001,2.27611E+000,-4.72652E+001,9.95729E-001,1.93014E-001,-7.80270E-002,5.55415E-004,1.93016E-001,-7.80282E-002,1.17409E-001,1.94192E-001,1.21228E+000,3.86635E-002,0.00000E+000,-2.85160E-002,9.26505E-001,0.00000E+000,2.22289E-003,-6.58188E-002,1.00000E+000,35
549,1347,-2.20868E+001,5.41704E-001,5.70554E-002,2.67699E+000,-5.63025E-001,6.42206E-002,2.73631E+000,1.49965E-002,6.60560E-001,0,4.19683E+001,-9.34714E+000,9.96867E-001,2.30157E+000,-5.09142E+001,9.96413E-001,1.80530E-001,-7.76573E-002,2.39546E-003,1.80553E-001,-7.76796E-002,5.31529E-001,1.81138E-001,1.19712E+000,4.25242E-002,0.00000E+000,-2.81062E-002,9.26774E-001,0.00000E+000,-3.25891E-003,-6.44586E-002,1.00000E+000,35
549,1357,-2.20439E+001,1.14294E+000,5.37719E-002,2.70549E+000,-6.02175E-001,3.08389E-002,2.77187E+000,1.60477E-002,6.53555E-001,0,4.25003E+001,-9.90529E+000,9.97001E-001,3.10182E+000,-5.16861E+001,9.96909E-001,1.77604E-001,-7.76637E-002,2.67585E-003,1.77632E-001,-7.76917E-002,6.00515E-001,1.78096E-001,1.19364E+000,4.24495E-002,0.00000E+000,-2.75293E-002,9.26787E-001,0.00000E+000,-4.80128E-003,-6.44917E-002,1.00000E+000,35
549,1327,-2.21795E+001,-6.35609E-001,1.60767E-001,2.59947E+000,-4.73294E-001,1.43147E-001,2.64608E+000,2.69060E-002,7.29514E-001,0,4.05399E+001,-8.08945E+000,9.97652E-001,8.94302E-001,-4.91731E+001,9.95933E-001,1.86323E-001,-7.76337E-002,1.80944E-003,1.86335E-001,-7.76461E-002,3.92742E-001,1.87195E-001,1.20406E+000,4.26031E-002,0.00000E+000,-2.92550E-002,9.26761E-001,0.00000E+000,-1.87667E-004,-6.44237E-002,1.00000E+000,35
549,1337,-2.21223E+001,-4.84391E-002,9.39294E-002,2.65054E+000,-5.16386E-001,9.79398E-002,2.70215E+000,1.13720E-002,6.54319E-001,0,4.14623E+001,-8.68793E+000,9.98352E-001,1.71710E+000,-5.00526E+001,9.98391E-001,1.83443E-001,-7.76467E-002,2.10431E-003,1.83460E-001,-7.76637E-002,4.61748E-001,1.84178E-001,1.20061E+000,4.25715E-002,0.00000E+000,-2.86827E-002,9.26766E-001,0.00000E+000,-1.71755E-003,-6.44377E-002,1.00000E+000,35
1309,1317,3.93026E+001,-5.00729E-001,-1.48725E-001,1.45198E+001,-1.15732E-001,-1.05741E-001,1.45207E+001,2.70302E-002,4.56618E-001,0,2.15466E+002,-3.64241E+000,9.95574E-001,1.92305E+002,-2.85363E+001,9.93873E-001,2.18399E-001,-8.34422E-002,4.05724E-003,2.18454E-001,-8.34967E-002,7.69963E-001,2.20465E-001,1.24410E+000,-2.10956E-003,0.00000E+000,9.17053E-003,9.21310E-001,0.00000E+000,-6.78616E-004,-5.50412E-002,1.00000E+000,35
1309,1327,3.93294E+001,1.04427E-001,-1.68112E-001,1.45244E+001,-1.64471E-001,-1.38271E-001,1.45260E+001,3.16097E-002,4.20838E-001,0,2.15658E+002,-4.39099E+000,9.94436E-001,1.92722E+002,-2.90830E+001,9.92487E-001,2.20759E-001,-8.33779E-002,4.91139E-003,2.20838E-001,-8.34571E-002,9.24926E-001,2.23022E-001,1.24705E+000,-2.00934E-003,0.00000E+000,1.05556E-002,9.21357E-001,0.00000E+000,2.01072E-003,-5.49499E-002,1.00000E+000,35
1309,1337,3.93786E+001,7.13040E-001,-1.38367E-001,1.45385E+001,-2.18749E-001,-1.68605E-001,1.45411E+001,3.28465E-002,4.52627E-001,0,2.15958E+002,-5.23294E+000,9.96060E-001,1.93538E+002,-2.96516E+001,9.95157E-001,2.23126E-001,-8.32801E-002,5.79451E-003,2.23235E-001,-8.33896E-002,1.08302E+000,2.25602E-001,1.25003E+000,-1.85043E-003,0.00000E+000,1.19528E-002,9.21432E-001,0.00000E+000,4.72378E-003,-5.48050E-002,1.00000E+000,35
549,1317,-2.21897E+001,-1.20038E+000,2.74628E-001,2.58965E+000,-4.11191E-001,1.99878E-001,2.62970E+000,2.38036E-002,7.52821E-001,0,4.02259E+001,-7.22314E+000,9.97995E-001,9.32808E-001,-4.80683E+001,9.96948E-001,1.89191E-001,-7.76163E-002,1.50308E-003,1.89199E-001,-7.76247E-002,3.22766E-001,1.90212E-001,1.20752E+000,4.26053E-002,0.00000E+000,-2.98272E-002,9.26761E-001,0.00000E+000,1.34227E-003,-6.44227E-002,1.00000E+000,35
549,1307,-2.22165E+001,-1.77410E+000,3.64435E-001,2.56130E+000,-3.57909E-001,2.19783E-001,2.59550E+000,1.64586E-002,6.77634E-001,0,3.97177E+001,-6.39070E+000,9.97254E-001,6.46027E-001,-4.71000E+001,9.96656E-001,1.92054E-001,-7.75972E-002,1.19241E-003,1.92059E-001,-7.76024E-002,2.53358E-001,1.93234E-001,1.21099E+000,4.25972E-002,0.00000E+000,-3.04007E-002,9.26762E-001,0.00000E+000,2.87547E-003,-6.44263E-002,1.00000E+000,35
1309,1287,3.92885E+001,-2.27333E+000,7.51874E-002,1.45303E+001,5.40716E-002,5.38974E-003,1.45304E+001,1.60948E-002,4.68112E-001,0,2.15100E+002,-1.06657E+000,9.97837E-001,1.92249E+002,-2.66349E+001,9.95745E-001,2.11266E-001,-8.35243E-002,1.57576E-003,2.11275E-001,-8.35327E-002,3.06255E-001,2.12811E-001,1.23529E+000,-2.22125E-003,0.00000E+000,5.03410E-003,9.21258E-001,0.00000E+000,-8.71038E-003,-5.51431E-002,1.00000E+000,35
1309,1297,3.92895E+001,-1.69610E+000,-1.29619E-002,1.45279E+001,-1.43169E-002,-2.79061E-002,1.45280E+001,2.27961E-002,4.61936E-001,0,2.15236E+002,-2.10240E+000,9.97229E-001,1.92198E+002,-2.74537E+001,9.94769E-001,2.13656E-001,-8.35098E-002,2.39419E-003,2.13675E-001,-8.35291E-002,4.61579E-001,2.15363E-001,1.23822E+000,-2.20540E-003,0.00000E+000,6.41152E-003,9.21265E-001,0.00000E+000,-6.03582E-003,-5.51286E-002,1.00000E+000,35
1309,1307,3.92910E+001,-1.09315E+000,-1.04277E-001,1.45245E+001,-5.53860E-002,-6.96239E-002,1.45248E+001,2.56364E-002,3.89143E-001,0,2.15379E+002,-2.70760E+000,9.97006E-001,1.92151E+002,-2.78975E+001,9.96060E-001,2.16024E-001,-8.34909E-002,3.21213E-003,2.16058E-001,-8.35254E-002,6.14372E-001,2.17903E-001,1.24115E+000,-2.18334E-003,0.00000E+000,7.78477E-003,9.21275E-001,0.00000E+000,-3.36937E-003,-5.51085E-002,1.00000E+000,35
539,1347,-2.28472E+001,5.63647E-001,5.88508E-002,2.55276E+000,-5.35349E-001,6.37256E-002,2.60907E+000,1.30455E-002,6.48937E-001,0,4.00405E+001,-8.89593E+000,9.97518E-001,7.41396E-001,-5.07000E+001,9.97632E-001,1.80119E-001,-7.69947E-002,2.60488E-003,1.80145E-001,-7.70211E-002,5.80398E-001,1.80774E-001,1.19650E+000,4.60111E-002,0.00000E+000,-3.04458E-002,9.27218E-001,0.00000E+000,-3.27711E-003,-6.28018E-002,1.00000E+000,35
539,1357,-2.28030E+001,1.16819E+000,5.17010E-002,2.58366E+000,-5.70507E-001,3.24622E-002,2.64610E+000,1.16794E-002,6.53181E-001,0,4.06040E+001,-9.39573E+000,9.98421E-001,1.55171E+000,-5.14091E+001,9.98202E-001,1.77402E-001,-7.70014E-002,2.82934E-003,1.77434E-001,-7.70329E-002,6.37107E-001,1.77946E-001,1.19327E+000,4.59472E-002,0.00000E+000,-2.99764E-002,9.27228E-001,0.00000E+000,-4.95911E-003,-6.28350E-002,1.00000E+000,35
539,1327,-2.29214E+001,-6.08571E-001,1.47206E-001,2.49404E+000,-4.38745E-001,1.30046E-001,2.53567E+000,1.49189E-002,6.46136E-001,0,3.89384E+001,-7.49667E+000,9.95023E-001,-4.29210E-001,-4.88769E+001,9.95504E-001,1.85504E-001,-7.69744E-002,2.13647E-003,1.85522E-001,-7.69918E-002,4.66322E-001,1.86413E-001,1.20295E+000,4.60855E-002,0.00000E+000,-3.13819E-002,9.27208E-001,0.00000E+000,7.69575E-005,-6.27631E-002,1.00000E+000,35
539,1337,-2.28836E+001,-2.13541E-002,9.37052E-002,2.52527E+000,-4.83844E-001,9.50580E-002,2.57296E+000,1.37482E-002,6.33755E-001,0,3.95234E+001,-8.15016E+000,9.96885E-001,1.38315E-001,-4.97577E+001,9.97069E-001,1.82822E-001,-7.69853E-002,2.37232E-003,1.82844E-001,-7.70069E-002,5.23113E-001,1.83600E-001,1.19973E+000,4.60541E-002,0.00000E+000,-3.09148E-002,9.27212E-001,0.00000E+000,-1.59647E-003,-6.27794E-002,1.00000E+000,35
1319,1297,4.00951E+001,-1.68827E+000,-4.99137E-002,1.46665E+001,-8.63869E-003,-5.34482E-002,1.46666E+001,2.01329E-002,3.66115E-001,0,2.17218E+002,-1.96893E+000,9.97741E-001,1.94817E+002,-2.72090E+001,9.95636E-001,2.13040E-001,-8.21151E-002,3.34576E-003,2.13078E-001,-8.21531E-002,6.49370E-001,2.14931E-001,1.23747E+000,2.01061E-003,0.00000E+000,5.08327E-003,9.22441E-001,0.00000E+000,-6.69171E-003,-5.26221E-002,1.00000E+000,35
1319,1307,4.01104E+001,-1.09582E+000,-1.19486E-001,1.46737E+001,-6.30071E-002,-8.50636E-002,1.46740E+001,2.43169E-002,3.49918E-001,0,2.17472E+002,-2.81304E+000,9.97251E-001,1.95007E+002,-2.78315E+001,9.96643E-001,2.15772E-001,-8.20930E-002,4.14554E-003,2.15830E-001,-8.21507E-002,7.97208E-001,2.17871E-001,1.24085E+000,2.05306E-003,0.00000E+000,6.42285E-003,9.22458E-001,0.00000E+000,-4.00633E-003,-5.25883E-002,1.00000E+000,35
539,1307,-2.29815E+001,-1.76273E+000,3.47184E-001,2.43227E+000,-3.40549E-001,2.00100E-001,2.46413E+000,1.19306E-002,6.58737E-001,0,3.77686E+001,-6.07368E+000,9.97578E-001,-1.04227E+000,-4.70042E+001,9.97421E-001,1.90822E-001,-7.69439E-002,1.63857E-003,1.90832E-001,-7.69539E-002,3.50600E-001,1.92019E-001,1.20937E+000,4.60775E-002,0.00000E+000,-3.23135E-002,9.27209E-001,0.00000E+000,3.41519E-003,-6.27672E-002,1.00000E+000,35
539,1317,-2.29526E+001,-1.19423E+000,2.40173E-001,2.46349E+000,-3.96845E-001,1.67843E-001,2.50089E+000,1.39594E-002,6.75032E-001,0,3.83544E+001,-6.91634E+000,9.96482E-001,-7.77866E-001,-4.80469E+001,9.95810E-001,1.88170E-001,-7.69601E-002,1.89012E-003,1.88183E-001,-7.69736E-002,4.08436E-001,1.89219E-001,1.20616E+000,4.60889E-002,0.00000E+000,-3.18480E-002,9.27207E-001,0.00000E+000,1.74722E-003,-6.27613E-002,1.00000E+000,35
1319,1287,4.01033E+001,-2.28276E+000,4.58434E-002,1.46759E+001,3.98375E-002,-2.11798E-002,1.46760E+001,2.09041E-002,4.28023E-001,0,2.17193E+002,-1.23603E+000,9.97276E-001,1.95021E+002,-2.66487E+001,9.96153E-001,2.10302E-001,-8.21191E-002,2.56258E-003,2.10324E-001,-8.21416E-002,5.02050E-001,2.11997E-001,1.23411E+000,2.00481E-003,0.00000E+000,3.74793E-003,9.22438E-001,0.00000E+000,-9.36861E-003,-5.26268E-002,1.00000E+000,35
529,1327,-2.36788E+001,-5.90609E-001,1.51279E-001,2.37178E+000,-4.15464E-001,1.29088E-001,2.41135E+000,1.33411E-002,6.54943E-001,0,3.70417E+001,-7.13070E+000,9.94846E-001,-1.93341E+000,-4.87142E+001,9.95142E-001,1.84899E-001,-7.56461E-002,2.58263E-003,1.84924E-001,-7.56717E-002,5.67866E-001,1.85938E-001,1.20213E+000,4.84546E-002,0.00000E+000,-3.24785E-002,9.28300E-001,0.00000E+000,8.30124E-004,-6.08895E-002,1.00000E+000,35
529,1307,-2.37404E+001,-1.74136E+000,3.52283E-001,2.30793E+000,-3.14567E-001,1.96695E-001,2.33756E+000,1.59339E-002,6.41433E-001,0,3.58459E+001,-5.64982E+000,9.97973E-001,-2.56302E+000,-4.68006E+001,9.97330E-001,1.89500E-001,-7.56518E-002,2.56452E-003,1.89525E-001,-7.56766E-002,5.54090E-001,1.90802E-001,1.20768E+000,4.84452E-002,0.00000E+000,-3.25481E-002,9.28300E-001,0.00000E+000,4.65956E-003,-6.08960E-002,1.00000E+000,35
529,1317,-2.37116E+001,-1.17240E+000,2.39845E-001,2.34061E+000,-3.69367E-001,1.68208E-001,2.37554E+000,1.34378E-002,6.30399E-001,0,3.64448E+001,-6.45585E+000,9.97705E-001,-2.31600E+000,-4.78403E+001,9.96938E-001,1.87206E-001,-7.56487E-002,2.57801E-003,1.87231E-001,-7.56739E-002,5.61872E-001,1.88374E-001,1.20491E+000,4.84612E-002,0.00000E+000,-3.25133E-002,9.28300E-001,0.00000E+000,2.74594E-003,-6.08850E-002,1.00000E+000,35
