Coordinates.Image X [Pixel],Coordinates.Image Y [Pixel],coor.X [mm],coor.Y [mm],coor.Z [mm],disp.Horizontal Displacement U [mm],disp.Vertical Displacement V [mm],disp.Out-Of-Plane: W [mm],disp.Displacement Magnitude [mm],stats.Sigma [mm],stats.Epipolar Distance [Pixel],stats.Shape Index [-],SameCamera.Horizontal: u [Pixel],SameCamera.Vertical: v [Pixel],SameCamera.Correlation Value 2D [-],CrossCamera.Horizontal: q [Pixel],CrossCamera.Vertical: r [Pixel],CrossCamera.Correlation Value Persp [-],strain.Strain-global frame: Exx [ ],strain.Strain-global frame: Eyy [ ],strain.Strain-global frame: Exy [ ],strain.Maximum Principal Strain: EI [ ],strain.Minimum Principal Strain: EII [ ],strain.Shear Angle Gamma [deg],strain.Von Mises Equivalent Strain [ ],defgradient.F[0,0] [-],defgradient.F[0,1] [-],defgradient.F[0,2] [-],defgradient.F[1,0] [-],defgradient.F[1,1] [-],defgradient.F[1,2] [-],defgradient.F[2,0] [-],defgradient.F[2,1] [-],defgradient.F[2,2] [-],ext.Current Image [#]
929,1317,2.07051E+000,-9.63990E-001,2.93467E-002,2.40658E+000,-3.47631E-001,1.16067E-001,2.43432E+000,7.57009E-003,4.85618E-001,0,3.66052E+001,-5.95631E+000,9.99648E-001,-7.63481E+000,-4.07353E+001,9.98799E-001,6.75791E-002,-2.80110E-002,3.38729E-004,6.75803E-002,-2.80122E-002,2.03028E-001,6.79088E-002,1.06990E+000,-1.36650E-002,0.00000E+000,1.39048E-002,9.74731E-001,0.00000E+000,-1.24474E-002,-7.09054E-002,1.00000E+000,10
919,1307,1.36798E+000,-1.59959E+000,8.33953E-002,2.37060E+000,-3.33959E-001,1.74913E-001,2.40039E+000,9.93706E-003,5.20246E-001,0,3.58861E+001,-5.86554E+000,9.99494E-001,-8.47177E+000,-4.07437E+001,9.96670E-001,6.91762E-002,-2.77620E-002,5.74533E-005,6.91762E-002,-2.77620E-002,3.39580E-002,6.96238E-002,1.07162E+000,-1.22989E-002,0.00000E+000,1.20516E-002,9.75054E-001,0.00000E+000,-1.15655E-002,-7.17416E-002,1.00000E+000,10
919,1317,1.36036E+000,-9.85662E-001,-1.28405E-002,2.36017E+000,-3.55025E-001,1.29588E-001,2.39024E+000,1.03715E-002,4.80137E-001,0,3.58829E+001,-6.10416E+000,9.99298E-001,-8.69808E+000,-4.10760E+001,9.96824E-001,6.78765E-002,-2.77677E-002,-1.32623E-004,6.78766E-002,-2.77679E-002,-7.94475E-002,6.82496E-002,1.07021E+000,-1.23052E-002,0.00000E+000,1.16043E-002,9.75052E-001,0.00000E+000,-1.01742E-002,-7.17354E-002,1.00000E+000,10
919,1327,1.36897E+000,-3.59920E-001,-4.97310E-002,2.35165E+000,-3.76352E-001,7.75667E-002,2.38284E+000,8.95274E-003,5.25141E-001,0,3.59259E+001,-6.33442E+000,9.99612E-001,-8.53978E+000,-4.13090E+001,9.97681E-001,6.65571E-002,-2.77814E-002,-3.39546E-004,6.65583E-002,-2.77827E-002,-2.06217E-001,6.68602E-002,1.06878E+000,-1.23428E-002,0.00000E+000,1.11515E-002,9.75040E-001,0.00000E+000,-8.76542E-003,-7.16982E-002,1.00000E+000,10
929,1307,2.07427E+000,-1.57954E+000,1.10371E-001,2.41753E+000,-3.24898E-001,1.66071E-001,2.44491E+000,7.64591E-003,5.27414E-001,0,3.66006E+001,-5.70551E+000,9.99701E-001,-7.50246E+000,-4.03960E+001,9.98890E-001,6.89163E-002,-2.80069E-002,4.38011E-004,6.89183E-002,-2.80089E-002,2.58922E-001,6.93196E-002,1.07135E+000,-1.36487E-002,0.00000E+000,1.41803E-002,9.74734E-001,0.00000E+000,-1.40887E-002,-7.09239E-002,1.00000E+000,10
929,1327,2.07388E+000,-3.39583E-001,-2.08513E-002,2.39652E+000,-3.65567E-001,6.80488E-002,2.42519E+000,6.57768E-003,4.53277E-001,0,3.66126E+001,-6.14312E+000,9.99749E-001,-7.58715E+000,-4.09986E+001,9.99112E-001,6.62329E-002,-2.80166E-002,2.32470E-004,6.62334E-002,-2.80172E-002,1.41321E-001,6.64947E-002,1.06844E+000,-1.36956E-002,0.00000E+000,1.36284E-002,9.74726E-001,0.00000E+000,-1.08004E-002,-7.08709E-002,1.00000E+000,10
939,1307,2.77388E+000,-1.56195E+000,1.02477E-001,2.46280E+000,-3.14224E-001,1.47784E-001,2.48716E+000,8.51944E-003,5.26801E-001,0,3.73225E+001,-5.50424E+000,9.99754E-001,-6.71032E+000,-4.00173E+001,9.98813E-001,6.85999E-002,-2.77386E-002,7.87995E-004,6.86064E-002,-2.77450E-002,4.68605E-001,6.90230E-002,1.07102E+000,-1.50682E-002,0.00000E+000,1.62799E-002,9.74891E-001,0.00000E+000,-1.61226E-002,-6.98005E-002,1.00000E+000,10
939,1317,2.77142E+000,-9.46595E-001,2.82104E-002,2.45236E+000,-3.37083E-001,1.01115E-001,2.47748E+000,8.52203E-003,4.56305E-001,0,3.73246E+001,-5.76202E+000,9.99646E-001,-6.80727E+000,-4.03863E+001,9.98402E-001,6.73547E-002,-2.77427E-002,6.96217E-004,6.73598E-002,-2.77478E-002,4.19438E-001,6.77072E-002,1.06966E+000,-1.50852E-002,0.00000E+000,1.60073E-002,9.74887E-001,0.00000E+000,-1.42711E-002,-6.97774E-002,1.00000E+000,10
939,1327,2.77551E+000,-3.18045E-001,-1.62424E-002,2.44135E+000,-3.54145E-001,5.20443E-002,2.46745E+000,5.80530E-003,4.74674E-001,0,3.73214E+001,-5.92647E+000,9.99671E-001,-6.73615E+000,-4.05710E+001,9.99043E-001,6.60942E-002,-2.77485E-002,5.96623E-004,6.60980E-002,-2.77523E-002,3.64249E-001,6.63804E-002,1.06829E+000,-1.51175E-002,0.00000E+000,1.57325E-002,9.74881E-001,0.00000E+000,-1.24041E-002,-6.97335E-002,1.00000E+000,10
919,1337,1.38492E+000,2.71932E-001,-6.12170E-002,2.34556E+000,-3.93092E-001,2.78783E-002,2.37844E+000,6.59973E-003,4.97867E-001,0,3.59948E+001,-6.49303E+000,9.99567E-001,-8.20956E+000,-4.15400E+001,9.98826E-001,6.52338E-002,-2.77979E-002,-5.51637E-004,6.52371E-002,-2.78011E-002,-3.39723E-001,6.54738E-002,1.06736E+000,-1.23911E-002,0.00000E+000,1.06986E-002,9.75025E-001,0.00000E+000,-7.35648E-003,-7.16504E-002,1.00000E+000,10
929,1337,2.08496E+000,2.89354E-001,-4.47687E-002,2.38798E+000,-3.84581E-001,1.80243E-002,2.41882E+000,6.28591E-003,4.65009E-001,0,3.66480E+001,-6.34253E+000,9.99793E-001,-7.36188E+000,-4.12276E+001,9.99361E-001,6.48743E-002,-2.80239E-002,1.19021E-004,6.48744E-002,-2.80241E-002,7.34068E-002,6.50743E-002,1.06697E+000,-1.37402E-002,0.00000E+000,1.33503E-002,9.74717E-001,0.00000E+000,-9.14379E-003,-7.08205E-002,1.00000E+000,10
939,1337,2.78536E+000,3.10247E-001,-3.75940E-002,2.43245E+000,-3.72784E-001,9.16676E-003,2.46087E+000,5.54591E-003,4.72497E-001,0,3.73283E+001,-6.13840E+000,9.99747E-001,-6.52530E+000,-4.08211E+001,9.99368E-001,6.48282E-002,-2.77551E-002,4.93193E-004,6.48309E-002,-2.77577E-002,3.05204E-001,6.50536E-002,1.06692E+000,-1.51576E-002,0.00000E+000,1.54576E-002,9.74873E-001,0.00000E+000,-1.05366E-002,-6.96789E-002,1.00000E+000,10
949,1317,3.47476E+000,-9.23224E-001,3.17954E-002,2.49874E+000,-3.23276E-001,8.50644E-002,2.52100E+000,1.03345E-002,4.92980E-001,0,3.80548E+001,-5.51912E+000,9.99410E-001,-5.92764E+000,-3.99220E+001,9.98231E-001,6.71119E-002,-2.74976E-002,9.81435E-004,6.71221E-002,-2.75078E-002,5.94275E-001,6.74850E-002,1.06941E+000,-1.63592E-002,0.00000E+000,1.78041E-002,9.75004E-001,0.00000E+000,-1.57074E-002,-6.83575E-002,1.00000E+000,10
949,1327,3.47699E+000,-2.97404E-001,-1.63265E-002,2.48697E+000,-3.41162E-001,3.76351E-002,2.51054E+000,9.13990E-003,4.77196E-001,0,3.80360E+001,-5.70431E+000,9.99472E-001,-5.89394E+000,-4.01567E+001,9.98854E-001,6.60198E-002,-2.75016E-002,9.09024E-004,6.60286E-002,-2.75104E-002,5.56843E-001,6.63338E-002,1.06821E+000,-1.63855E-002,0.00000E+000,1.75623E-002,9.74998E-001,0.00000E+000,-1.36029E-002,-6.83113E-002,1.00000E+000,10
949,1337,3.48509E+000,3.30956E-001,-3.73970E-002,2.47680E+000,-3.59785E-001,-1.99727E-003,2.50280E+000,7.43025E-003,4.77143E-001,0,3.80139E+001,-5.92035E+000,9.99605E-001,-5.71079E+000,-4.04039E+001,9.98868E-001,6.49186E-002,-2.75062E-002,8.32549E-004,6.49261E-002,-2.75137E-002,5.16056E-001,6.51771E-002,1.06700E+000,-1.64198E-002,0.00000E+000,1.73197E-002,9.74991E-001,0.00000E+000,-1.14916E-002,-6.82512E-002,1.00000E+000,10
949,1307,3.47928E+000,-1.54160E+000,1.08970E-001,2.51095E+000,-3.02634E-001,1.32862E-001,2.53261E+000,8.04638E-003,5.26240E-001,0,3.80754E+001,-5.29216E+000,9.99633E-001,-5.79291E+000,-3.96257E+001,9.98796E-001,6.81937E-002,-2.74947E-002,1.04800E-003,6.82052E-002,-2.75062E-002,6.27417E-001,6.86291E-002,1.07060E+000,-1.63449E-002,0.00000E+000,1.80448E-002,9.75007E-001,0.00000E+000,-1.78026E-002,-6.83827E-002,1.00000E+000,10
909,1317,6.65493E-001,-1.00101E+000,-1.82657E-002,2.31701E+000,-3.62563E-001,1.26471E-001,2.34862E+000,1.00772E-002,4.43388E-001,0,3.52607E+001,-6.22064E+000,9.99061E-001,-9.43925E+000,-4.14116E+001,9.96481E-001,6.82338E-002,-2.79239E-002,-6.27303E-004,6.82379E-002,-2.79280E-002,-3.73759E-001,6.86113E-002,1.07059E+000,-1.08375E-002,0.00000E+000,9.12608E-003,9.74944E-001,0.00000E+000,-7.57573E-003,-7.20305E-002,1.00000E+000,10
909,1327,6.76661E-001,-3.72293E-001,-5.34620E-002,2.31155E+000,-3.81463E-001,7.79124E-002,2.34411E+000,7.78444E-003,4.91050E-001,0,3.53372E+001,-6.40638E+000,9.99300E-001,-9.23629E+000,-4.16023E+001,9.98087E-001,6.69540E-002,-2.79362E-002,-8.25330E-004,6.69612E-002,-2.79433E-002,-4.98293E-001,6.72658E-002,1.06921E+000,-1.08725E-002,0.00000E+000,8.71646E-003,9.74934E-001,0.00000E+000,-6.60247E-003,-7.20057E-002,1.00000E+000,10
909,1337,6.92337E-001,2.62885E-001,-6.28364E-002,2.30507E+000,-3.97786E-001,2.93590E-002,2.33933E+000,7.90881E-003,5.46542E-001,0,3.53951E+001,-6.55586E+000,9.99511E-001,-8.90432E+000,-4.17469E+001,9.98863E-001,6.56671E-002,-2.79514E-002,-1.02949E-003,6.56784E-002,-2.79627E-002,-6.29962E-001,6.59193E-002,1.06783E+000,-1.09191E-002,0.00000E+000,8.30536E-003,9.74920E-001,0.00000E+000,-5.62568E-003,-7.19728E-002,1.00000E+000,10
909,1307,6.71439E-001,-1.61422E+000,8.66085E-002,2.32474E+000,-3.40970E-001,1.75739E-001,2.35618E+000,1.04982E-002,4.33543E-001,0,3.52100E+001,-5.96786E+000,9.99134E-001,-9.21823E+000,-4.11101E+001,9.95410E-001,6.94941E-002,-2.79196E-002,-4.46148E-004,6.94961E-002,-2.79216E-002,-2.62404E-001,6.99417E-002,1.07194E+000,-1.08335E-002,0.00000E+000,9.53020E-003,9.74945E-001,0.00000E+000,-8.53592E-003,-7.20333E-002,1.00000E+000,10
919,1347,1.40668E+000,9.10776E-001,-6.10820E-002,2.34203E+000,-4.06796E-001,-2.50984E-002,2.37723E+000,1.00611E-002,5.05446E-001,0,3.61115E+001,-6.59077E+000,9.99772E-001,-7.76284E+000,-4.16734E+001,9.99309E-001,6.39005E-002,-2.78161E-002,-7.68111E-004,6.39069E-002,-2.78226E-002,-4.79798E-001,6.40847E-002,1.06593E+000,-1.24466E-002,0.00000E+000,1.02435E-002,9.75007E-001,0.00000E+000,-5.94094E-003,-7.15955E-002,1.00000E+000,10
929,1347,2.10373E+000,9.25511E-001,-4.16220E-002,2.38197E+000,-3.99976E-001,-2.87581E-002,2.41549E+000,5.90640E-003,4.78197E-001,0,3.67078E+001,-6.49523E+000,9.99787E-001,-6.95672E+000,-4.14054E+001,9.99391E-001,6.35068E-002,-2.80326E-002,-3.81628E-007,6.35068E-002,-2.80326E-002,-2.38866E-004,6.36520E-002,1.06550E+000,-1.37966E-002,0.00000E+000,1.30714E-002,9.74706E-001,0.00000E+000,-7.48186E-003,-7.07569E-002,1.00000E+000,10
939,1347,2.80355E+000,9.47778E-001,-2.95044E-002,2.42617E+000,-3.86907E-001,-3.03631E-002,2.45701E+000,9.17175E-003,4.84511E-001,0,3.73601E+001,-6.28407E+000,9.99730E-001,-6.11982E+000,-4.09879E+001,9.98798E-001,6.35513E-002,-2.77631E-002,3.83471E-004,6.35529E-002,-2.77647E-002,2.40606E-001,6.37215E-002,1.06554E+000,-1.52100E-002,0.00000E+000,1.51814E-002,9.74863E-001,0.00000E+000,-8.66016E-003,-6.96077E-002,1.00000E+000,10
949,1347,3.50581E+000,9.68796E-001,-1.74843E-002,2.47100E+000,-3.75975E-001,-3.80264E-002,2.49973E+000,8.19305E-003,4.82624E-001,0,3.80419E+001,-6.08879E+000,9.99338E-001,-5.24228E+000,-4.05934E+001,9.98366E-001,6.38039E-002,-2.75122E-002,7.48224E-004,6.38101E-002,-2.75183E-002,4.69427E-001,6.40108E-002,1.06579E+000,-1.64696E-002,0.00000E+000,1.70754E-002,9.74981E-001,0.00000E+000,-9.36516E-003,-6.81637E-002,1.00000E+000,10
959,1317,4.17385E+000,-9.04565E-001,2.35993E-002,2.54233E+000,-3.11686E-001,6.58701E-002,2.56221E+000,8.74383E-003,4.94465E-001,0,3.87541E+001,-5.30577E+000,9.99495E-001,-5.13569E+000,-3.95234E+001,9.98960E-001,6.69485E-002,-2.72309E-002,1.07748E-003,6.69608E-002,-2.72433E-002,6.55393E-001,6.73470E-002,1.06922E+000,-1.76873E-002,0.00000E+000,1.92239E-002,9.75126E-001,0.00000E+000,-1.63803E-002,-6.66355E-002,1.00000E+000,10
959,1327,4.17513E+000,-2.79359E-001,-3.02330E-002,2.53127E+000,-3.29428E-001,2.08046E-002,2.55270E+000,1.33514E-002,4.83487E-001,0,3.87400E+001,-5.49375E+000,9.99747E-001,-5.12960E+000,-3.97511E+001,9.99097E-001,6.59717E-002,-2.72320E-002,1.04518E-003,6.59835E-002,-2.72437E-002,6.42402E-001,6.63164E-002,1.06814E+000,-1.77081E-002,0.00000E+000,1.90530E-002,9.75123E-001,0.00000E+000,-1.41951E-002,-6.65932E-002,1.00000E+000,10
959,1337,4.18714E+000,3.50221E-001,-4.33133E-002,2.52265E+000,-3.49361E-001,-2.07594E-002,2.54681E+000,1.09649E-002,4.92602E-001,0,3.87485E+001,-5.71726E+000,9.99492E-001,-4.86978E+000,-3.99900E+001,9.98641E-001,6.49831E-002,-2.72334E-002,1.00609E-003,6.49940E-002,-2.72444E-002,6.25005E-001,6.52764E-002,1.06706E+000,-1.77431E-002,0.00000E+000,1.88810E-002,9.75117E-001,0.00000E+000,-1.19957E-002,-6.65224E-002,1.00000E+000,10
959,1307,4.17704E+000,-1.52337E+000,9.71576E-002,2.55409E+000,-2.89846E-001,1.13588E-001,2.57299E+000,6.71488E-003,4.99721E-001,0,3.87670E+001,-5.05984E+000,9.99575E-001,-5.02918E+000,-3.92420E+001,9.99100E-001,6.79177E-002,-2.72301E-002,1.10666E-003,6.79306E-002,-2.72429E-002,6.66287E-001,6.83726E-002,1.07029E+000,-1.76728E-002,0.00000E+000,1.93944E-002,9.75128E-001,0.00000E+000,-1.85613E-002,-6.66648E-002,1.00000E+000,10
959,1347,4.20483E+000,9.84837E-001,-3.41116E-002,2.51572E+000,-3.66537E-001,-5.81313E-002,2.54294E+000,7.62347E-003,4.91383E-001,0,3.87657E+001,-5.91146E+000,9.99459E-001,-4.47368E+000,-4.02076E+001,9.98933E-001,6.39869E-002,-2.72351E-002,9.63567E-004,6.39971E-002,-2.72453E-002,6.05119E-001,6.42320E-002,1.06597E+000,-1.77848E-002,0.00000E+000,1.87087E-002,9.75110E-001,0.00000E+000,-9.79244E-003,-6.64378E-002,1.00000E+000,10
909,1347,7.15323E-001,9.00583E-001,-4.83898E-002,2.30086E+000,-4.12139E-001,-1.93020E-002,2.33756E+000,9.61824E-003,5.11456E-001,0,3.54855E+001,-6.67848E+000,9.99709E-001,-8.40473E+000,-4.19523E+001,9.98722E-001,6.43792E-002,-2.79692E-002,-1.23844E-003,6.43958E-002,-2.79858E-002,-7.68183E-001,6.45792E-002,1.06645E+000,-1.09762E-002,0.00000E+000,7.89481E-003,9.74903E-001,0.00000E+000,-4.65021E-003,-7.19324E-002,1.00000E+000,10
899,1327,-1.14297E-002,-3.74991E-001,-1.70805E-002,2.26713E+000,-3.84107E-001,8.06200E-002,2.30085E+000,5.03276E-003,5.07410E-001,0,3.46697E+001,-6.44276E+000,9.99380E-001,-9.77124E+000,-4.18075E+001,9.99301E-001,6.72554E-002,-2.80480E-002,-1.28713E-003,6.72728E-002,-2.80654E-002,-7.73623E-001,6.75797E-002,1.06954E+000,-9.49401E-003,0.00000E+000,6.41397E-003,9.74886E-001,0.00000E+000,-4.43459E-003,-7.26378E-002,1.00000E+000,10
899,1337,3.03449E-003,2.55498E-001,-4.76043E-002,2.26332E+000,-4.00723E-001,2.81107E-002,2.29870E+000,7.95663E-003,5.17959E-001,0,3.47821E+001,-6.59231E+000,9.99746E-001,-9.50533E+000,-4.20033E+001,9.99543E-001,6.60748E-002,-2.80576E-002,-1.44335E-003,6.60969E-002,-2.80797E-002,-8.78254E-001,6.63455E-002,1.06827E+000,-9.52919E-003,0.00000E+000,6.11884E-003,9.74878E-001,0.00000E+000,-3.96681E-003,-7.26248E-002,1.00000E+000,10
899,1347,2.80123E-002,8.93243E-001,-3.22883E-002,2.26128E+000,-4.15205E-001,-1.98257E-002,2.29917E+000,6.83168E-003,5.07682E-001,0,3.49023E+001,-6.72554E+000,9.99735E-001,-8.97134E+000,-4.21992E+001,9.99343E-001,6.48876E-002,-2.80708E-002,-1.60802E-003,6.49154E-002,-2.80986E-002,-9.90726E-001,6.51103E-002,1.06700E+000,-9.58107E-003,0.00000E+000,5.82246E-003,9.74866E-001,0.00000E+000,-3.49704E-003,-7.26056E-002,1.00000E+000,10
899,1317,-1.78171E-002,-9.98135E-001,3.78161E-002,2.27341E+000,-3.63956E-001,1.31069E-001,2.30608E+000,6.83495E-003,5.01349E-001,0,3.45986E+001,-6.23791E+000,9.99370E-001,-9.85559E+000,-4.15492E+001,9.98578E-001,6.84303E-002,-2.80407E-002,-1.13643E-003,6.84437E-002,-2.80541E-002,-6.74821E-001,6.88132E-002,1.07080E+000,-9.46955E-003,0.00000E+000,6.70805E-003,9.74892E-001,0.00000E+000,-4.90071E-003,-7.26468E-002,1.00000E+000,10
899,1307,-1.90729E-002,-1.61473E+000,1.19570E-001,2.27915E+000,-3.41615E-001,1.81788E-001,2.31177E+000,7.63097E-003,4.56745E-001,0,3.45157E+001,-5.97172E+000,9.99326E-001,-9.79799E+000,-4.12663E+001,9.97581E-001,6.95984E-002,-2.80357E-002,-9.91407E-004,6.96085E-002,-2.80457E-002,-5.81719E-001,7.00446E-002,1.07205E+000,-9.45589E-003,0.00000E+000,7.00084E-003,9.74895E-001,0.00000E+000,-5.36478E-003,-7.26519E-002,1.00000E+000,10
889,1327,-7.03675E-001,-3.81788E-001,-4.86881E-003,2.22291E+000,-3.87207E-001,8.12653E-002,2.25785E+000,4.20912E-003,5.21804E-001,0,3.40131E+001,-6.48813E+000,9.99621E-001,-1.04210E+001,-4.20254E+001,9.99493E-001,6.76243E-002,-2.75660E-002,-1.74963E-003,6.76564E-002,-2.75981E-002,-1.05264E+000,6.80378E-002,1.06994E+000,-8.21752E-003,0.00000E+000,4.20262E-003,9.75429E-001,0.00000E+000,-2.25126E-003,-7.35006E-002,1.00000E+000,10
889,1337,-6.92573E-001,2.48718E-001,-3.77078E-002,2.21702E+000,-4.02181E-001,3.16788E-002,2.25342E+000,7.09002E-003,5.09475E-001,0,3.40827E+001,-6.61688E+000,9.99742E-001,-1.02112E+001,-4.22297E+001,9.99497E-001,6.64699E-002,-2.75667E-002,-1.78020E-003,6.65036E-002,-2.76004E-002,-1.08414E+000,6.68230E-002,1.06870E+000,-8.24941E-003,0.00000E+000,4.20318E-003,9.75429E-001,0.00000E+000,-2.56589E-003,-7.35087E-002,1.00000E+000,10
889,1347,-6.67434E-001,8.84671E-001,-2.42663E-002,2.21591E+000,-4.17721E-001,-1.54795E-002,2.25499E+000,6.04107E-003,4.86747E-001,0,3.42145E+001,-6.76405E+000,9.99656E-001,-9.67742E+000,-4.24571E+001,9.99358E-001,6.53077E-002,-2.75679E-002,-1.81890E-003,6.53433E-002,-2.76035E-002,-1.12152E+000,6.56048E-002,1.06746E+000,-8.29842E-003,0.00000E+000,4.20374E-003,9.75429E-001,0.00000E+000,-2.88228E-003,-7.35212E-002,1.00000E+000,10
969,1297,4.89372E+000,-2.11750E+000,1.89738E-001,2.61610E+000,-2.54194E-001,1.36014E-001,2.63194E+000,1.09240E-002,4.76458E-001,0,3.95954E+001,-4.54584E+000,9.99696E-001,-3.84501E+000,-3.85435E+001,9.98522E-001,6.84590E-002,-2.71087E-002,1.10947E-003,6.84718E-002,-2.71216E-002,6.65044E-001,6.89629E-002,1.07090E+000,-1.88407E-002,0.00000E+000,2.05667E-002,9.75102E-001,0.00000E+000,-2.08807E-002,-6.47201E-002,1.00000E+000,10
969,1307,4.87838E+000,-1.50499E+000,9.33211E-002,2.59876E+000,-2.79113E-001,9.53422E-002,2.61545E+000,1.72401E-002,4.76295E-001,0,3.94782E+001,-4.84485E+000,9.99493E-001,-4.18882E+000,-3.88711E+001,9.98005E-001,6.76164E-002,-2.71083E-002,1.10879E-003,6.76294E-002,-2.71213E-002,6.70547E-001,6.80696E-002,1.06995E+000,-1.88436E-002,0.00000E+000,2.04425E-002,9.75102E-001,0.00000E+000,-1.86713E-002,-6.47134E-002,1.00000E+000,10
969,1317,4.87679E+000,-8.86353E-001,2.91263E-002,2.58755E+000,-3.01344E-001,5.25298E-002,2.60556E+000,7.03196E-003,4.55739E-001,0,3.94576E+001,-5.10994E+000,9.99779E-001,-4.25059E+000,-3.91809E+001,9.99224E-001,6.67667E-002,-2.71078E-002,1.10286E-003,6.67797E-002,-2.71207E-002,6.72998E-001,6.71709E-002,1.06901E+000,-1.88579E-002,0.00000E+000,2.03181E-002,9.75100E-001,0.00000E+000,-1.64575E-002,-6.46799E-002,1.00000E+000,10
889,1317,-7.11347E-001,-1.00359E+000,5.34526E-002,2.22733E+000,-3.66344E-001,1.32989E-001,2.26118E+000,6.10798E-003,5.39449E-001,0,3.39101E+001,-6.28511E+000,9.99611E-001,-1.05175E+001,-4.17402E+001,9.99232E-001,6.87745E-002,-2.75654E-002,-1.72337E-003,6.88053E-002,-2.75962E-002,-1.02449E+000,6.92528E-002,1.07117E+000,-8.19472E-003,0.00000E+000,4.20207E-003,9.75429E-001,0.00000E+000,-1.93737E-003,-7.34947E-002,1.00000E+000,10
969,1327,4.87905E+000,-2.58463E-001,-1.40251E-002,2.57676E+000,-3.16914E-001,1.54753E-002,2.59622E+000,7.54919E-003,4.89319E-001,0,3.94200E+001,-5.30627E+000,9.99757E-001,-4.20711E+000,-3.93664E+001,9.99382E-001,6.59093E-002,-2.71071E-002,1.09442E-003,6.59222E-002,-2.71200E-002,6.74013E-001,6.62663E-002,1.06806E+000,-1.88773E-002,0.00000E+000,2.01934E-002,9.75097E-001,0.00000E+000,-1.42382E-002,-6.46345E-002,1.00000E+000,10
889,1307,-7.15076E-001,-1.62066E+000,1.35218E-001,2.22990E+000,-3.45271E-001,1.80719E-001,2.26370E+000,8.40638E-003,4.88173E-001,0,3.37895E+001,-6.02584E+000,9.99480E-001,-1.04978E+001,-4.14660E+001,9.98131E-001,6.99180E-002,-2.75650E-002,-1.70220E-003,6.99477E-002,-2.75947E-002,-1.00007E+000,7.04648E-002,1.07239E+000,-8.18267E-003,0.00000E+000,4.20151E-003,9.75429E-001,0.00000E+000,-1.62497E-003,-7.34917E-002,1.00000E+000,10
969,1337,4.88807E+000,3.67211E-001,-4.05907E-002,2.56721E+000,-3.37801E-001,-2.98827E-002,2.58951E+000,8.14556E-003,4.48891E-001,0,3.94294E+001,-5.53919E+000,9.99609E-001,-4.02368E+000,-3.96600E+001,9.99246E-001,6.50443E-002,-2.71063E-002,1.08200E-003,6.50570E-002,-2.71190E-002,6.72622E-001,6.53562E-002,1.06710E+000,-1.89051E-002,0.00000E+000,2.00684E-002,9.75094E-001,0.00000E+000,-1.20136E-002,-6.45697E-002,1.00000E+000,10
969,1347,4.90131E+000,1.00766E+000,-4.09405E-002,2.55708E+000,-3.50051E-001,-7.01576E-002,2.58188E+000,7.38139E-003,4.84469E-001,0,3.94075E+001,-5.64336E+000,9.99574E-001,-3.71768E+000,-3.97471E+001,9.98955E-001,6.41673E-002,-2.71054E-002,1.06601E-003,6.41797E-002,-2.71179E-002,6.69060E-001,6.44360E-002,1.06614E+000,-1.89400E-002,0.00000E+000,1.99425E-002,9.75089E-001,0.00000E+000,-9.77251E-003,-6.44881E-002,1.00000E+000,10
879,1327,-1.39404E+000,-3.85834E-001,9.91645E-003,2.18004E+000,-3.87367E-001,8.38008E-002,2.21577E+000,5.88371E-003,5.32216E-001,0,3.33691E+001,-6.49491E+000,9.99652E-001,-1.10308E+001,-4.22083E+001,9.99484E-001,6.80616E-002,-2.77149E-002,-2.02700E-003,6.81044E-002,-2.77578E-002,-1.21188E+000,6.84912E-002,1.07041E+000,-7.14328E-003,0.00000E+000,2.55695E-003,9.75262E-001,0.00000E+000,-4.58977E-004,-7.30985E-002,1.00000E+000,10
879,1337,-1.38333E+000,2.41778E-001,-2.88486E-002,2.17442E+000,-4.04345E-001,3.07348E-002,2.21191E+000,5.51835E-003,5.06844E-001,0,3.34540E+001,-6.64551E+000,9.99586E-001,-1.08403E+001,-4.24528E+001,9.99362E-001,6.69681E-002,-2.77140E-002,-2.02780E-003,6.70115E-002,-2.77574E-002,-1.22635E+000,6.73395E-002,1.06924E+000,-7.17233E-003,0.00000E+000,2.64009E-003,9.75264E-001,0.00000E+000,-1.17950E-003,-7.31164E-002,1.00000E+000,10
879,1347,-1.36053E+000,8.79025E-001,-2.04480E-002,2.17247E+000,-4.18851E-001,-1.51440E-002,2.21253E+000,6.94286E-003,5.07393E-001,0,3.35680E+001,-6.76911E+000,9.99553E-001,-1.03525E+001,-4.26398E+001,9.99285E-001,6.58645E-002,-2.77127E-002,-2.03544E-003,6.59088E-002,-2.77570E-002,-1.24548E+000,6.61815E-002,1.06806E+000,-7.21614E-003,0.00000E+000,2.72386E-003,9.75267E-001,0.00000E+000,-1.90560E-003,-7.31434E-002,1.00000E+000,10
879,1307,-1.40949E+000,-1.62305E+000,1.53101E-001,2.18128E+000,-3.45537E-001,1.79130E-001,2.21573E+000,8.66971E-003,5.03753E-001,0,3.30724E+001,-6.02234E+000,9.99367E-001,-1.11625E+001,-4.16237E+001,9.98366E-001,7.02334E-002,-2.77160E-002,-2.03844E-003,7.02758E-002,-2.77584E-002,-1.19171E+000,7.07905E-002,1.07274E+000,-7.11320E-003,0.00000E+000,2.39146E-003,9.75260E-001,0.00000E+000,9.75392E-004,-7.30800E-002,1.00000E+000,10
879,1317,-1.40283E+000,-1.00803E+000,6.93958E-002,2.18306E+000,-3.66540E-001,1.35742E-001,2.21778E+000,6.18353E-003,4.84230E-001,0,3.32450E+001,-6.27070E+000,9.99690E-001,-1.11416E+001,-4.19624E+001,9.99127E-001,6.91527E-002,-2.77156E-002,-2.02994E-003,6.91952E-002,-2.77581E-002,-1.19997E+000,6.96445E-002,1.07158E+000,-7.12217E-003,0.00000E+000,2.47387E-003,9.75260E-001,0.00000E+000,2.61130E-004,-7.30855E-002,1.00000E+000,10
979,1307,5.59387E+000,-1.48485E+000,1.06271E-001,2.65391E+000,-2.68676E-001,7.97300E-002,2.66866E+000,1.03005E-002,4.60158E-001,0,4.03384E+001,-4.64465E+000,9.99869E-001,-3.09023E+000,-3.85034E+001,9.99530E-001,6.73205E-002,-2.69727E-002,1.07586E-003,6.73328E-002,-2.69850E-002,6.53616E-001,6.77733E-002,1.06961E+000,-1.98071E-002,0.00000E+000,2.11782E-002,9.75078E-001,0.00000E+000,-1.79357E-002,-6.24612E-002,1.00000E+000,10
979,1317,5.58469E+000,-8.62936E-001,3.79543E-002,2.63662E+000,-2.87229E-001,3.99895E-002,2.65252E+000,5.41893E-003,4.45566E-001,0,4.02150E+001,-4.85613E+000,9.99756E-001,-3.27780E+000,-3.87503E+001,9.99403E-001,6.66574E-002,-2.69707E-002,1.09618E-003,6.66703E-002,-2.69836E-002,6.70683E-001,6.70724E-002,1.06886E+000,-1.98166E-002,0.00000E+000,2.11095E-002,9.75077E-001,0.00000E+000,-1.58285E-002,-6.24344E-002,1.00000E+000,10
979,1327,5.58244E+000,-2.38764E-001,-1.35277E-002,2.62213E+000,-3.05740E-001,-1.40498E-003,2.63989E+000,6.10336E-003,4.65553E-001,0,4.01382E+001,-5.08825E+000,9.99501E-001,-3.32259E+000,-3.89811E+001,9.98904E-001,6.59884E-002,-2.69683E-002,1.11419E-003,6.60018E-002,-2.69817E-002,6.86620E-001,6.63667E-002,1.06812E+000,-1.98309E-002,0.00000E+000,2.10406E-002,9.75076E-001,0.00000E+000,-1.37178E-002,-6.23938E-002,1.00000E+000,10
979,1337,5.58812E+000,3.90998E-001,-4.20384E-002,2.61141E+000,-3.21704E-001,-3.83586E-002,2.63143E+000,8.38311E-003,4.72390E-001,0,4.01007E+001,-5.28059E+000,9.99228E-001,-3.19557E+000,-3.91825E+001,9.98551E-001,6.53126E-002,-2.69655E-002,1.12986E-003,6.53265E-002,-2.69793E-002,7.01391E-001,6.56553E-002,1.06737E+000,-1.98502E-002,0.00000E+000,2.09714E-002,9.75074E-001,0.00000E+000,-1.16011E-002,-6.23394E-002,1.00000E+000,10
979,1347,5.60069E+000,1.03019E+000,-3.52135E-002,2.59908E+000,-3.34955E-001,-7.75604E-002,2.62172E+000,8.93362E-003,4.72750E-001,0,4.00422E+001,-5.40629E+000,9.98880E-001,-2.88668E+000,-3.93210E+001,9.98057E-001,6.46275E-002,-2.69619E-002,1.14091E-003,6.46417E-002,-2.69761E-002,7.13572E-001,6.49357E-002,1.06661E+000,-1.98794E-002,0.00000E+000,2.09019E-002,9.75072E-001,0.00000E+000,-9.47020E-003,-6.22566E-002,1.00000E+000,10
979,1297,5.59572E+000,-2.09791E+000,1.81264E-001,2.66227E+000,-2.41821E-001,1.18968E-001,2.67588E+000,9.52495E-003,4.74862E-001,0,4.03237E+001,-4.30993E+000,9.99771E-001,-3.00073E+000,-3.81349E+001,9.98911E-001,6.79786E-002,-2.69746E-002,1.05457E-003,6.79904E-002,-2.69863E-002,6.36234E-001,6.84703E-002,1.07035E+000,-1.97995E-002,0.00000E+000,2.12470E-002,9.75079E-001,0.00000E+000,-2.00426E-002,-6.24827E-002,1.00000E+000,10
869,1317,-2.10136E+000,-1.01133E+000,6.67113E-002,2.13292E+000,-3.65819E-001,1.27584E-001,2.16782E+000,5.40295E-003,4.88957E-001,0,3.25244E+001,-6.22730E+000,9.99710E-001,-1.19136E+001,-4.20983E+001,9.98920E-001,6.93757E-002,-2.78787E-002,-2.11325E-003,6.94216E-002,-2.79246E-002,-1.24420E+000,6.98625E-002,1.07183E+000,-5.94550E-003,0.00000E+000,1.13512E-003,9.75079E-001,0.00000E+000,1.82062E-003,-7.27261E-002,1.00000E+000,10
869,1327,-2.09125E+000,-3.89284E-001,1.14306E-002,2.13169E+000,-3.85361E-001,8.14812E-002,2.16778E+000,6.29599E-003,5.42009E-001,0,3.26557E+001,-6.46220E+000,9.99573E-001,-1.17723E+001,-4.23546E+001,9.99210E-001,6.84188E-002,-2.78781E-002,-2.11035E-003,6.84651E-002,-2.79243E-002,-1.25484E+000,6.88514E-002,1.07080E+000,-5.96334E-003,0.00000E+000,1.24040E-003,9.75080E-001,0.00000E+000,7.11537E-004,-7.27454E-002,1.00000E+000,10
869,1337,-2.07710E+000,2.36287E-001,-2.12791E-002,2.12904E+000,-4.05139E-001,3.16252E-002,2.16747E+000,6.35729E-003,5.29381E-001,0,3.27754E+001,-6.66127E+000,9.99406E-001,-1.15145E+001,-4.26387E+001,9.99184E-001,6.74564E-002,-2.78774E-002,-2.11139E-003,6.75031E-002,-2.79241E-002,-1.26812E+000,6.78376E-002,1.06977E+000,-5.98959E-003,0.00000E+000,1.34607E-003,9.75083E-001,0.00000E+000,-4.01572E-004,-7.27737E-002,1.00000E+000,10
869,1347,-2.05685E+000,8.71902E-001,-2.47002E-002,2.12729E+000,-4.17943E-001,-1.40679E-002,2.16800E+000,8.51238E-003,4.92607E-001,0,3.28913E+001,-6.76100E+000,9.99582E-001,-1.10918E+001,-4.28457E+001,9.99264E-001,6.64892E-002,-2.78764E-002,-2.11619E-003,6.65366E-002,-2.79239E-002,-1.28402E+000,6.68222E-002,1.06874E+000,-6.02387E-003,0.00000E+000,1.45201E-003,9.75087E-001,0.00000E+000,-1.51762E-003,-7.28107E-002,1.00000E+000,10
869,1307,-2.10461E+000,-1.62546E+000,1.57933E-001,2.13401E+000,-3.43898E-001,1.76080E-001,2.16870E+000,7.44305E-003,5.18194E-001,0,3.23797E+001,-5.99034E+000,9.99389E-001,-1.18637E+001,-4.17549E+001,9.98598E-001,7.03250E-002,-2.78789E-002,-2.12110E-003,7.03708E-002,-2.79247E-002,-1.23676E+000,7.08684E-002,1.07285E+000,-5.93845E-003,0.00000E+000,1.03045E-003,9.75078E-001,0.00000E+000,2.92329E-003,-7.27185E-002,1.00000E+000,10
989,1307,6.29251E+000,-1.45944E+000,9.90181E-002,2.69573E+000,-2.50241E-001,6.18691E-002,2.70803E+000,8.14403E-003,4.83965E-001,0,4.10015E+001,-4.33755E+000,9.99572E-001,-2.29038E+000,-3.79935E+001,9.99055E-001,6.70315E-002,-2.69590E-002,9.67340E-004,6.70414E-002,-2.69689E-002,5.89599E-001,6.74669E-002,1.06926E+000,-2.04730E-002,0.00000E+000,2.14601E-002,9.74957E-001,0.00000E+000,-1.65303E-002,-6.03500E-002,1.00000E+000,10
989,1317,6.28107E+000,-8.35672E-001,2.80059E-002,2.67732E+000,-2.68086E-001,2.49529E-002,2.69082E+000,8.30367E-003,5.28436E-001,0,4.08524E+001,-4.54721E+000,9.99687E-001,-2.51863E+000,-3.81750E+001,9.99098E-001,6.65488E-002,-2.69553E-002,1.01996E-003,6.65599E-002,-2.69664E-002,6.24894E-001,6.69579E-002,1.06871E+000,-2.04790E-002,0.00000E+000,2.14588E-002,9.74957E-001,0.00000E+000,-1.45278E-002,-6.03282E-002,1.00000E+000,10
989,1327,6.28456E+000,-2.11711E-001,-1.54278E-002,2.66649E+000,-2.89109E-001,-1.69803E-002,2.68217E+000,1.06422E-002,5.31646E-001,0,4.08344E+001,-4.79629E+000,9.99535E-001,-2.45845E+000,-3.84323E+001,9.98364E-001,6.60609E-002,-2.69501E-002,1.06974E-003,6.60732E-002,-2.69624E-002,6.58854E-001,6.64445E-002,1.06817E+000,-2.04912E-002,0.00000E+000,2.14575E-002,9.74957E-001,0.00000E+000,-1.25212E-002,-6.02833E-002,1.00000E+000,10
989,1297,6.30161E+000,-2.07786E+000,1.78352E-001,2.71055E+000,-2.28488E-001,1.01539E-001,2.72206E+000,7.80436E-003,4.88449E-001,0,4.10842E+001,-4.08725E+000,9.99584E-001,-2.08037E+000,-3.77231E+001,9.98618E-001,6.75091E-002,-2.69624E-002,9.14213E-004,6.75180E-002,-2.69713E-002,5.54389E-001,6.79714E-002,1.06981E+000,-2.04682E-002,0.00000E+000,2.14614E-002,9.74957E-001,0.00000E+000,-1.85295E-002,-6.03678E-002,1.00000E+000,10
989,1337,6.29041E+000,4.15247E-001,-3.41093E-002,2.65307E+000,-3.07771E-001,-5.64345E-002,2.67146E+000,7.70046E-003,4.58182E-001,0,4.07653E+001,-5.01748E+000,9.99161E-001,-2.30936E+000,-3.87371E+001,9.98548E-001,6.55695E-002,-2.69441E-002,1.11735E-003,6.55830E-002,-2.69576E-002,6.91864E-001,6.59281E-002,1.06762E+000,-2.05077E-002,0.00000E+000,2.14562E-002,9.74957E-001,0.00000E+000,-1.05170E-002,-6.02228E-002,1.00000E+000,10
989,1347,6.30211E+000,1.05278E+000,-2.95516E-002,2.64198E+000,-3.20509E-001,-8.79139E-002,2.66280E+000,7.94564E-003,4.67630E-001,0,4.07002E+001,-5.17216E+000,9.99555E-001,-2.02064E+000,-3.88903E+001,9.99369E-001,6.50710E-002,-2.69374E-002,1.16368E-003,6.50858E-002,-2.69521E-002,7.24499E-001,6.54051E-002,1.06707E+000,-2.05273E-002,0.00000E+000,2.14549E-002,9.74957E-001,0.00000E+000,-8.50143E-003,-6.01513E-002,1.00000E+000,10
859,1327,-2.78635E+000,-3.91336E-001,8.98428E-003,2.08484E+000,-3.82727E-001,7.43000E-002,2.12098E+000,6.12770E-003,5.32590E-001,0,3.19796E+001,-6.38972E+000,9.99410E-001,-1.24861E+001,-4.24803E+001,9.99001E-001,6.86545E-002,-2.79832E-002,-2.11602E-003,6.87008E-002,-2.80295E-002,-1.25377E+000,6.90874E-002,1.07106E+000,-4.94830E-003,0.00000E+000,2.74691E-004,9.74951E-001,0.00000E+000,1.20336E-003,-7.23448E-002,1.00000E+000,10
859,1337,-2.77052E+000,2.34526E-001,-2.14949E-002,2.08416E+000,-4.01157E-001,2.73315E-002,2.12259E+000,6.72258E-003,5.29134E-001,0,3.21189E+001,-6.59036E+000,9.99438E-001,-1.21964E+001,-4.27618E+001,9.99011E-001,6.78623E-002,-2.79834E-002,-2.13074E-003,6.79096E-002,-2.80307E-002,-1.27290E+000,6.82533E-002,1.07021E+000,-4.96957E-003,0.00000E+000,3.63187E-004,9.74953E-001,0.00000E+000,-1.39765E-004,-7.23784E-002,1.00000E+000,10
859,1347,-2.74981E+000,8.66089E-001,-2.19390E-002,2.08240E+000,-4.18287E-001,-1.84794E-002,2.12408E+000,9.37366E-003,4.94602E-001,0,3.22354E+001,-6.75731E+000,9.99642E-001,-1.17589E+001,-4.30383E+001,9.99353E-001,6.70641E-002,-2.79837E-002,-2.14908E-003,6.71127E-002,-2.80323E-002,-1.29460E+000,6.74151E-002,1.06936E+000,-4.99840E-003,0.00000E+000,4.52072E-004,9.74956E-001,0.00000E+000,-1.48880E-003,-7.24240E-002,1.00000E+000,10
859,1307,-2.80022E+000,-1.62411E+000,1.59991E-001,2.08623E+000,-3.40119E-001,1.72331E-001,2.12079E+000,1.01513E-002,6.10072E-001,0,3.16799E+001,-5.93312E+000,9.99373E-001,-1.25745E+001,-4.17838E+001,9.98686E-001,7.02214E-002,-2.79830E-002,-2.09724E-003,7.02661E-002,-2.80277E-002,-1.22286E+000,7.07435E-002,1.07275E+000,-4.92830E-003,0.00000E+000,9.88715E-005,9.74949E-001,0.00000E+000,3.87182E-003,-7.23131E-002,1.00000E+000,10
859,1317,-2.79508E+000,-1.01393E+000,6.51132E-002,2.08702E+000,-3.65400E-001,1.19878E-001,2.12216E+000,7.42658E-003,5.37194E-001,0,3.18662E+001,-6.19812E+000,9.99377E-001,-1.26050E+001,-4.22037E+001,9.98423E-001,6.94408E-002,-2.79830E-002,-2.10467E-003,6.94862E-002,-2.80285E-002,-1.23700E+000,6.99175E-002,1.07191E+000,-4.93413E-003,0.00000E+000,1.86593E-004,9.74949E-001,0.00000E+000,2.54045E-003,-7.23224E-002,1.00000E+000,10
999,1337,6.98877E+000,4.34640E-001,-3.78329E-002,2.69644E+000,-2.92812E-001,-5.94116E-002,2.71294E+000,7.64156E-003,4.01817E-001,0,4.14045E+001,-4.78240E+000,9.99730E-001,-1.50474E+000,-3.83628E+001,9.99121E-001,6.56799E-002,-2.69712E-002,9.89957E-004,6.56905E-002,-2.69818E-002,6.12100E-001,6.60384E-002,1.06771E+000,-2.09325E-002,0.00000E+000,2.14860E-002,9.74801E-001,0.00000E+000,-9.00139E-003,-5.80190E-002,1.00000E+000,10
999,1347,7.00434E+000,1.07458E+000,-2.61900E-002,2.68677E+000,-3.06300E-001,-9.35876E-002,2.70580E+000,6.39072E-003,3.99609E-001,0,4.13707E+001,-4.91438E+000,9.99808E-001,-1.14297E+000,-3.84983E+001,9.99316E-001,6.53568E-002,-2.69634E-002,1.04574E-003,6.53686E-002,-2.69753E-002,6.48895E-001,6.57002E-002,1.06735E+000,-2.09465E-002,0.00000E+000,2.15108E-002,9.74802E-001,0.00000E+000,-7.18801E-003,-5.79484E-002,1.00000E+000,10
999,1307,6.99382E+000,-1.43728E+000,9.61521E-002,2.73981E+000,-2.35108E-001,4.86187E-002,2.75031E+000,5.56348E-003,4.79458E-001,0,4.16836E+001,-4.07661E+000,9.99691E-001,-1.43626E+000,-3.75570E+001,9.99258E-001,6.66196E-002,-2.69869E-002,8.14345E-004,6.66267E-002,-2.69940E-002,4.98404E-001,6.70251E-002,1.06878E+000,-2.09113E-002,0.00000E+000,2.14124E-002,9.74799E-001,0.00000E+000,-1.43851E-002,-5.81261E-002,1.00000E+000,10
999,1317,6.98567E+000,-8.14748E-001,3.06180E-002,2.72429E+000,-2.53824E-001,1.56929E-002,2.73613E+000,9.91882E-003,5.11508E-001,0,4.15657E+001,-4.31540E+000,9.99171E-001,-1.60270E+000,-3.77735E+001,9.97358E-001,6.63098E-002,-2.69828E-002,8.74292E-004,6.63180E-002,-2.69910E-002,5.36884E-001,6.66994E-002,1.06842E+000,-2.09154E-002,0.00000E+000,2.14369E-002,9.74800E-001,0.00000E+000,-1.25917E-002,-5.81055E-002,1.00000E+000,10
999,1327,6.98660E+000,-1.94655E-001,-2.01298E-002,2.71237E+000,-2.77407E-001,-2.67334E-002,2.72665E+000,1.10564E-002,4.90316E-001,0,4.15353E+001,-4.59953E+000,9.99551E-001,-1.59801E+000,-3.80857E+001,9.98132E-001,6.59964E-002,-2.69775E-002,9.32864E-004,6.60057E-002,-2.69869E-002,5.74807E-001,6.63703E-002,1.06807E+000,-2.09225E-002,0.00000E+000,2.14615E-002,9.74800E-001,0.00000E+000,-1.07959E-002,-5.80696E-002,1.00000E+000,10
999,1297,7.00518E+000,-2.05842E+000,1.78502E-001,2.75650E+000,-2.16284E-001,8.94026E-002,2.76642E+000,6.15077E-003,4.90273E-001,0,4.17908E+001,-3.87465E+000,9.99461E-001,-1.18580E+000,-3.73331E+001,9.98100E-001,6.69257E-002,-2.69906E-002,7.53881E-004,6.69318E-002,-2.69967E-002,4.59883E-001,6.73473E-002,1.06913E+000,-2.09084E-002,0.00000E+000,2.13879E-002,9.74799E-001,0.00000E+000,-1.61764E-002,-5.81410E-002,1.00000E+000,10
849,1337,-3.46419E+000,2.32229E-001,-1.54821E-002,2.03777E+000,-4.00161E-001,2.53924E-002,2.07684E+000,8.25959E-003,5.53902E-001,0,3.14312E+001,-6.55452E+000,9.99634E-001,-1.28635E+001,-4.28943E+001,9.99281E-001,6.81406E-002,-2.79535E-002,-1.98303E-003,6.81816E-002,-2.79944E-002,-1.18170E+000,6.85440E-002,1.07051E+000,-4.03432E-003,0.00000E+000,-1.97318E-004,9.74925E-001,0.00000E+000,-1.44125E-004,-7.15717E-002,1.00000E+000,10
849,1347,-3.44735E+000,8.60018E-001,-2.43298E-002,2.03496E+000,-4.17854E-001,-1.61484E-002,2.07748E+000,7.32108E-003,4.96588E-001,0,3.15181E+001,-6.74572E+000,9.99647E-001,-1.25046E+001,-4.32242E+001,9.99518E-001,6.75231E-002,-2.79542E-002,-2.00425E-003,6.75652E-002,-2.79963E-002,-1.20204E+000,6.78947E-002,1.06985E+000,-4.05394E-003,0.00000E+000,-1.23708E-004,9.74927E-001,0.00000E+000,-1.50926E-003,-7.16123E-002,1.00000E+000,10
849,1357,-3.41812E+000,1.50107E+000,1.85631E-002,2.03409E+000,-4.31871E-001,-5.66197E-002,2.08020E+000,6.32849E-003,4.99398E-001,0,3.16263E+001,-6.88368E+000,9.99659E-001,-1.18294E+001,-4.34358E+001,9.99559E-001,6.68968E-002,-2.79553E-002,-2.03050E-003,6.69402E-002,-2.79988E-002,-1.22578E+000,6.72377E-002,1.06919E+000,-4.08387E-003,0.00000E+000,-4.93150E-005,9.74931E-001,0.00000E+000,-2.88892E-003,-7.16742E-002,1.00000E+000,10
849,1327,-3.47697E+000,-3.91694E-001,1.55350E-002,2.04022E+000,-3.80205E-001,6.73120E-002,2.07643E+000,8.57487E-003,5.52313E-001,0,3.13352E+001,-6.32627E+000,9.99631E-001,-1.31055E+001,-4.25843E+001,9.99259E-001,6.87556E-002,-2.79529E-002,-1.96391E-003,6.87954E-002,-2.79928E-002,-1.16290E+000,6.91918E-002,1.07117E+000,-4.01906E-003,0.00000E+000,-2.70879E-004,9.74923E-001,0.00000E+000,1.22011E-003,-7.15401E-002,1.00000E+000,10
1009,1337,7.69142E+000,4.61579E-001,-4.55593E-002,2.74531E+000,-2.72664E-001,-5.87365E-002,2.75944E+000,9.23425E-003,4.40409E-001,0,4.21125E+001,-4.47033E+000,9.99763E-001,-6.37388E-001,-3.78152E+001,9.99489E-001,6.56876E-002,-2.69939E-002,7.94926E-004,6.56945E-002,-2.70007E-002,4.91376E-001,6.60404E-002,1.06771E+000,-2.11652E-002,0.00000E+000,2.12224E-002,9.74684E-001,0.00000E+000,-7.52132E-003,-5.62644E-002,1.00000E+000,10
1009,1347,7.70487E+000,1.09088E+000,-2.94264E-002,2.73130E+000,-2.96400E-001,-9.75321E-002,2.74907E+000,6.72931E-003,3.99356E-001,0,4.20323E+001,-4.76083E+000,9.99881E-001,-3.02582E-001,-3.81430E+001,9.99598E-001,6.55012E-002,-2.69867E-002,8.46700E-004,6.55090E-002,-2.69944E-002,5.24468E-001,6.58457E-002,1.06750E+000,-2.11740E-002,0.00000E+000,2.12509E-002,9.74686E-001,0.00000E+000,-5.99071E-003,-5.61997E-002,1.00000E+000,10
1009,1297,7.70536E+000,-2.03980E+000,1.73402E-001,2.80017E+000,-2.02918E-001,7.88642E-002,2.80862E+000,7.74356E-003,4.37746E-001,0,4.24565E+001,-3.63651E+000,9.99047E-001,-3.50458E-001,-3.69727E+001,9.98074E-001,6.64041E-002,-2.70106E-002,5.78843E-004,6.64077E-002,-2.70142E-002,3.55014E-001,6.67912E-002,1.06853E+000,-2.11521E-002,0.00000E+000,2.11095E-002,9.74683E-001,0.00000E+000,-1.35919E-002,-5.63609E-002,1.00000E+000,10
1009,1307,7.69513E+000,-1.41755E+000,9.26904E-002,2.78458E+000,-2.20097E-001,3.97677E-002,2.79355E+000,7.64103E-003,4.35100E-001,0,4.23607E+001,-3.83266E+000,9.99467E-001,-5.79693E-001,-3.71768E+001,9.99138E-001,6.62290E-002,-2.70073E-002,6.33490E-004,6.62333E-002,-2.70116E-002,3.89269E-001,6.66074E-002,1.06833E+000,-2.11538E-002,0.00000E+000,2.11377E-002,9.74683E-001,0.00000E+000,-1.20790E-002,-5.63482E-002,1.00000E+000,10
1009,1317,7.69035E+000,-7.95558E-001,2.45300E-002,2.77209E+000,-2.39450E-001,2.98972E-003,2.78242E+000,7.99271E-003,4.69445E-001,0,4.23035E+001,-4.07938E+000,9.99624E-001,-6.99485E-001,-3.73927E+001,9.99083E-001,6.60513E-002,-2.70036E-002,6.87851E-004,6.60564E-002,-2.70087E-002,4.23493E-001,6.64210E-002,1.06812E+000,-2.11563E-002,0.00000E+000,2.11659E-002,9.74683E-001,0.00000E+000,-1.05631E-002,-5.63300E-002,1.00000E+000,10
849,1317,-3.49014E+000,-1.00978E+000,7.19390E-002,2.03923E+000,-3.57323E-001,1.19751E-001,2.07376E+000,9.44745E-003,5.97101E-001,0,3.11507E+001,-6.08821E+000,9.99475E-001,-1.32917E+001,-4.22175E+001,9.98817E-001,6.93662E-002,-2.79524E-002,-1.94627E-003,6.94051E-002,-2.79913E-002,-1.14525E+000,6.98364E-002,1.07183E+000,-4.00680E-003,0.00000E+000,-3.44200E-004,9.74922E-001,0.00000E+000,2.57987E-003,-7.15148E-002,1.00000E+000,10
1009,1327,7.68957E+000,-1.69795E-001,-1.32538E-002,2.75669E+000,-2.59313E-001,-3.36545E-002,2.76906E+000,7.85978E-003,4.73009E-001,0,4.21986E+001,-4.32014E+000,9.99707E-001,-6.94857E-001,-3.76316E+001,9.99469E-001,6.58706E-002,-2.69986E-002,7.41359E-004,6.58765E-002,-2.70045E-002,4.57344E-001,6.62318E-002,1.06791E+000,-2.11610E-002,0.00000E+000,2.11942E-002,9.74684E-001,0.00000E+000,-9.04159E-003,-5.62955E-002,1.00000E+000,10
849,1307,-3.49741E+000,-1.62552E+000,1.61898E-001,2.03630E+000,-3.36852E-001,1.67436E-001,2.07076E+000,1.13335E-002,5.76328E-001,0,3.09496E+001,-5.85507E+000,9.99350E-001,-1.33056E+001,-4.19181E+001,9.98543E-001,6.99722E-002,-2.79522E-002,-1.93229E-003,7.00103E-002,-2.79904E-002,-1.13000E+000,7.04773E-002,1.07248E+000,-4.00228E-003,0.00000E+000,-4.17213E-004,9.74922E-001,0.00000E+000,3.93394E-003,-7.15054E-002,1.00000E+000,10
839,1337,-4.15770E+000,2.26075E-001,3.03551E-003,1.99088E+000,-4.01282E-001,3.44424E-002,2.03121E+000,1.71355E-002,5.57207E-001,0,3.07004E+001,-6.59596E+000,9.99619E-001,-1.34940E+001,-4.31245E+001,9.99092E-001,6.82751E-002,-2.79580E-002,-1.77627E-003,6.83078E-002,-2.79908E-002,-1.05708E+000,6.86775E-002,1.07066E+000,-3.32359E-003,0.00000E+000,-4.15798E-004,9.74838E-001,0.00000E+000,-4.82022E-004,-7.03859E-002,1.00000E+000,10
839,1347,-4.14226E+000,8.53519E-001,-2.11438E-002,1.98876E+000,-4.18070E-001,-1.29266E-002,2.03227E+000,6.60000E-003,4.92953E-001,0,3.08159E+001,-6.75107E+000,9.99645E-001,-1.31926E+001,-4.34317E+001,9.99384E-001,6.77470E-002,-2.79591E-002,-1.80233E-003,6.77809E-002,-2.79930E-002,-1.07848E+000,6.81222E-002,1.07009E+000,-3.33869E-003,0.00000E+000,-3.56475E-004,9.74840E-001,0.00000E+000,-1.86907E-003,-7.04231E-002,1.00000E+000,10
839,1357,-4.11261E+000,1.49572E+000,1.77645E-002,1.98944E+000,-4.29965E-001,-5.30650E-002,2.03607E+000,5.33914E-003,4.80059E-001,0,3.09461E+001,-6.85075E+000,9.99738E-001,-1.25174E+001,-4.36263E+001,9.99492E-001,6.72111E-002,-2.79608E-002,-1.83322E-003,6.72464E-002,-2.79961E-002,-1.10310E+000,6.75596E-002,1.06952E+000,-3.36349E-003,0.00000E+000,-2.96516E-004,9.74842E-001,0.00000E+000,-3.27098E-003,-7.04841E-002,1.00000E+000,10
1019,1337,8.39878E+000,4.85706E-001,-3.95180E-002,2.79232E+000,-2.58804E-001,-7.08925E-002,2.80518E+000,8.07905E-003,4.89681E-001,0,4.28361E+001,-4.23871E+000,9.99698E-001,3.33889E-001,-3.73355E+001,9.99454E-001,6.56632E-002,-2.69986E-002,5.84987E-004,6.56669E-002,-2.70023E-002,3.61697E-001,6.60112E-002,1.06767E+000,-2.13478E-002,0.00000E+000,2.08893E-002,9.74624E-001,0.00000E+000,-5.96747E-003,-5.51354E-002,1.00000E+000,10
1019,1347,8.40502E+000,1.11405E+000,-3.87118E-002,2.77670E+000,-2.80653E-001,-9.98300E-002,2.79263E+000,7.13625E-003,4.51715E-001,0,4.26991E+001,-4.51402E+000,9.99763E-001,5.24273E-001,-3.76422E+001,9.99628E-001,6.55778E-002,-2.69922E-002,6.42313E-004,6.55823E-002,-2.69966E-002,3.97531E-001,6.59227E-002,1.06757E+000,-2.13510E-002,0.00000E+000,2.09339E-002,9.74625E-001,0.00000E+000,-4.63121E-003,-5.50905E-002,1.00000E+000,10
839,1327,-4.17813E+000,-3.95557E-001,1.11728E-002,1.99003E+000,-3.76674E-001,7.55703E-002,2.02678E+000,1.55310E-002,5.67017E-001,0,3.05572E+001,-6.28938E+000,9.99747E-001,-1.39096E+001,-4.27230E+001,9.99084E-001,6.88021E-002,-2.79569E-002,-1.74942E-003,6.88337E-002,-2.79885E-002,-1.03547E+000,6.92328E-002,1.07122E+000,-3.30677E-003,0.00000E+000,-4.75258E-004,9.74836E-001,0.00000E+000,9.08233E-004,-7.03445E-002,1.00000E+000,10
1019,1327,8.39154E+000,-1.49486E-001,-2.43139E-002,2.80335E+000,-2.45262E-001,-4.16322E-002,2.81437E+000,7.63053E-003,4.69748E-001,0,4.29037E+001,-4.07895E+000,9.99687E-001,1.59536E-001,-3.72021E+001,9.99356E-001,6.57467E-002,-2.70044E-002,5.27373E-004,6.57497E-002,-2.70074E-002,3.25764E-001,6.60979E-002,1.06776E+000,-2.13451E-002,0.00000E+000,2.08447E-002,9.74622E-001,0.00000E+000,-7.30277E-003,-5.51729E-002,1.00000E+000,10
1019,1317,8.39327E+000,-7.76956E-001,2.57377E-002,2.81615E+000,-2.28113E-001,-8.82263E-003,2.82538E+000,9.13551E-003,4.57033E-001,0,4.29809E+001,-3.88329E+000,9.99706E-001,1.94888E-001,-3.70223E+001,9.99016E-001,6.58282E-002,-2.70089E-002,4.69408E-004,6.58306E-002,-2.70113E-002,2.89692E-001,6.61827E-002,1.06786E+000,-2.13434E-002,0.00000E+000,2.08003E-002,9.74622E-001,0.00000E+000,-8.63367E-003,-5.51957E-002,1.00000E+000,10
839,1317,-4.18710E+000,-1.01352E+000,7.54829E-002,1.98903E+000,-3.55291E-001,1.15622E-001,2.02382E+000,7.78053E-003,5.43584E-001,0,3.04119E+001,-6.03653E+000,9.99518E-001,-1.40117E+001,-4.24029E+001,9.98468E-001,6.93239E-002,-2.79563E-002,-1.72732E-003,6.93545E-002,-2.79870E-002,-1.01692E+000,6.97835E-002,1.07178E+000,-3.29983E-003,0.00000E+000,-5.34363E-004,9.74836E-001,0.00000E+000,2.29019E-003,-7.03275E-002,1.00000E+000,10
1019,1297,8.40324E+000,-2.02096E+000,1.56139E-001,2.84245E+000,-1.89012E-001,6.22328E-002,2.84941E+000,8.94952E-003,4.33349E-001,0,4.31227E+001,-3.39295E+000,9.99615E-001,4.28736E-001,-3.65594E+001,9.98819E-001,6.59854E-002,-2.70168E-002,3.53345E-004,6.59867E-002,-2.70181E-002,2.17681E-001,6.63464E-002,1.06805E+000,-2.13409E-002,0.00000E+000,2.07117E-002,9.74620E-001,0.00000E+000,-1.12861E-002,-5.52294E-002,1.00000E+000,10
1019,1307,8.39411E+000,-1.39780E+000,8.06594E-002,2.82715E+000,-2.07564E-001,2.52778E-002,2.83488E+000,1.21295E-002,4.80543E-001,0,4.30248E+001,-3.61486E+000,9.99676E-001,2.26923E-001,-3.67336E+001,9.98776E-001,6.59076E-002,-2.70132E-002,4.11596E-004,6.59094E-002,-2.70150E-002,2.53787E-001,6.62653E-002,1.06796E+000,-2.13419E-002,0.00000E+000,2.07561E-002,9.74621E-001,0.00000E+000,-9.95838E-003,-5.52166E-002,1.00000E+000,10
839,1307,-4.19090E+000,-1.62643E+000,1.64115E-001,1.98906E+000,-3.32167E-001,1.59658E-001,2.02292E+000,6.90436E-003,5.13833E-001,0,3.02678E+001,-5.75599E+000,9.99404E-001,-1.39744E+001,-4.20593E+001,9.98242E-001,6.98417E-002,-2.79561E-002,-1.70693E-003,6.98714E-002,-2.79858E-002,-9.99614E-001,7.03308E-002,1.07234E+000,-3.29641E-003,0.00000E+000,-5.93264E-004,9.74835E-001,0.00000E+000,3.66736E-003,-7.03190E-002,1.00000E+000,10
829,1337,-4.85631E+000,2.21914E-001,-1.09733E-002,1.94170E+000,-3.97572E-001,2.67577E-002,1.98216E+000,1.20054E-002,5.43778E-001,0,2.99859E+001,-6.52490E+000,9.99341E-001,-1.42770E+001,-4.32622E+001,9.98888E-001,6.81801E-002,-2.79192E-002,-1.53505E-003,6.82046E-002,-2.79437E-002,-9.14905E-001,6.85743E-002,1.07056E+000,-2.73982E-003,0.00000E+000,-4.43217E-004,9.74799E-001,0.00000E+000,-9.54049E-004,-6.92680E-002,1.00000E+000,10
829,1347,-4.83486E+000,8.51598E-001,-1.35812E-002,1.94316E+000,-4.15256E-001,-1.15739E-002,1.98707E+000,5.52268E-003,5.05309E-001,0,3.01268E+001,-6.70369E+000,9.99414E-001,-1.38292E+001,-4.35701E+001,9.99237E-001,6.77059E-002,-2.79230E-002,-1.60272E-003,6.77328E-002,-2.79499E-002,-9.59904E-001,6.80764E-002,1.07005E+000,-2.75524E-003,0.00000E+000,-4.62451E-004,9.74799E-001,0.00000E+000,-2.40177E-003,-6.93122E-002,1.00000E+000,10
829,1357,-4.80698E+000,1.49174E+000,1.87227E-002,1.94373E+000,-4.28091E-001,-5.12902E-002,1.99097E+000,5.47469E-003,5.12943E-001,0,3.02538E+001,-6.82689E+000,9.99696E-001,-1.31956E+001,-4.37737E+001,9.99518E-001,6.72267E-002,-2.79282E-002,-1.67346E-003,6.72561E-002,-2.79576E-002,-1.00723E+000,6.75741E-002,1.06954E+000,-2.77629E-003,0.00000E+000,-4.81795E-004,9.74798E-001,0.00000E+000,-3.85778E-003,-6.93725E-002,1.00000E+000,10
1029,1337,9.09264E+000,5.01193E-001,-4.73361E-002,2.83127E+000,-2.47803E-001,-7.16042E-002,2.84300E+000,7.43965E-003,4.79912E-001,0,4.33992E+001,-4.07878E+000,9.99588E-001,1.07136E+000,-3.69903E+001,9.98982E-001,6.56775E-002,-2.68878E-002,4.09826E-004,6.56793E-002,-2.68896E-002,2.53666E-001,6.60377E-002,1.06767E+000,-2.13889E-002,0.00000E+000,2.05000E-002,9.74695E-001,0.00000E+000,-4.38985E-003,-5.43229E-002,1.00000E+000,10
1029,1347,9.10066E+000,1.13780E+000,-4.56786E-002,2.81635E+000,-2.63197E-001,-1.03507E-001,2.83051E+000,6.83640E-003,4.73439E-001,0,4.32814E+001,-4.24811E+000,9.99667E-001,1.29026E+000,-3.71534E+001,9.99117E-001,6.56808E-002,-2.68799E-002,4.80539E-004,6.56833E-002,-2.68824E-002,2.97447E-001,6.60427E-002,1.06767E+000,-2.13889E-002,0.00000E+000,2.05725E-002,9.74697E-001,0.00000E+000,-3.15376E-003,-5.42796E-002,1.00000E+000,10
1029,1327,9.09184E+000,-1.31196E-001,-2.31564E-002,2.84621E+000,-2.32310E-001,-4.49448E-002,2.85603E+000,7.72127E-003,4.56646E-001,0,4.35328E+001,-3.89107E+000,9.99615E-001,1.01623E+000,-3.68356E+001,9.99142E-001,6.56727E-002,-2.68941E-002,3.39277E-004,6.56739E-002,-2.68953E-002,2.09997E-001,6.60313E-002,1.06767E+000,-2.13889E-002,0.00000E+000,2.04277E-002,9.74693E-001,0.00000E+000,-5.62185E-003,-5.43527E-002,1.00000E+000,10
829,1327,-4.87261E+000,-3.98433E-001,1.50403E-002,1.94099E+000,-3.74421E-001,6.68065E-002,1.97790E+000,1.12243E-002,5.57880E-001,0,2.98481E+001,-6.24443E+000,9.99655E-001,-1.45864E+001,-4.28754E+001,9.99223E-001,6.86500E-002,-2.79162E-002,-1.46927E-003,6.86723E-002,-2.79386E-002,-8.71493E-001,6.90685E-002,1.07106E+000,-2.72776E-003,0.00000E+000,-4.24064E-004,9.74800E-001,0.00000E+000,4.87547E-004,-6.92335E-002,1.00000E+000,10
829,1307,-4.87902E+000,-1.63170E+000,1.79165E-001,1.94687E+000,-3.32557E-001,1.65215E-001,1.98197E+000,8.39769E-003,4.59131E-001,0,2.96223E+001,-5.75741E+000,9.99479E-001,-1.45261E+001,-4.22906E+001,9.98226E-001,6.95779E-002,-2.79136E-002,-1.34519E-003,6.95964E-002,-2.79322E-002,-7.90366E-001,7.00466E-002,1.07206E+000,-2.71814E-003,0.00000E+000,-3.85965E-004,9.74800E-001,0.00000E+000,3.35522E-003,-6.92059E-002,1.00000E+000,10
829,1317,-4.87931E+000,-1.01723E+000,8.10118E-002,1.94352E+000,-3.53731E-001,1.15246E-001,1.97881E+000,9.34845E-003,4.97870E-001,0,2.97325E+001,-5.99367E+000,9.99519E-001,-1.46497E+001,-4.25879E+001,9.98917E-001,6.91159E-002,-2.79144E-002,-1.40602E-003,6.91362E-002,-2.79347E-002,-8.30012E-001,6.95593E-002,1.07156E+000,-2.72058E-003,0.00000E+000,-4.04981E-004,9.74800E-001,0.00000E+000,1.92388E-003,-6.92129E-002,1.00000E+000,10
1029,1317,9.09401E+000,-7.59702E-001,2.02253E-002,2.85977E+000,-2.17648E-001,-1.76036E-002,2.86809E+000,8.85829E-003,4.71744E-001,0,4.36416E+001,-3.70702E+000,9.99736E-001,1.04551E+000,-3.66451E+001,9.99045E-001,6.56664E-002,-2.68994E-002,2.69061E-004,6.56672E-002,-2.69002E-002,1.66540E-001,6.60237E-002,1.06767E+000,-2.13889E-002,0.00000E+000,2.03559E-002,9.74692E-001,0.00000E+000,-6.84710E-003,-5.43743E-002,1.00000E+000,10
1029,1307,9.09975E+000,-1.38063E+000,8.87508E-002,2.87431E+000,-1.97276E-001,2.37526E-002,2.88117E+000,8.81882E-003,5.09067E-001,0,4.37117E+001,-3.47318E+000,9.99737E-001,1.18067E+000,-3.63811E+001,9.97909E-001,6.56587E-002,-2.69041E-002,1.98928E-004,6.56591E-002,-2.69046E-002,1.23135E-001,6.60146E-002,1.06767E+000,-2.13889E-002,0.00000E+000,2.02841E-002,9.74691E-001,0.00000E+000,-8.07014E-003,-5.43910E-002,1.00000E+000,10
1029,1297,9.10776E+000,-2.00032E+000,1.62224E-001,2.88893E+000,-1.75229E-001,6.04470E-002,2.89487E+000,8.22989E-003,4.73280E-001,0,4.37983E+001,-3.19483E+000,9.99680E-001,1.36143E+000,-3.61448E+001,9.98051E-001,6.56494E-002,-2.69084E-002,1.28644E-004,6.56496E-002,-2.69086E-002,7.96339E-002,6.60041E-002,1.06767E+000,-2.13889E-002,0.00000E+000,2.02123E-002,9.74690E-001,0.00000E+000,-9.29515E-003,-5.44036E-002,1.00000E+000,10
819,1317,-5.57091E+000,-1.02451E+000,9.15384E-002,1.89748E+000,-3.56515E-001,1.16225E-001,1.93417E+000,9.31961E-003,4.68800E-001,0,2.90408E+001,-6.02570E+000,9.99440E-001,-1.52624E+001,-4.28302E+001,9.98331E-001,6.86472E-002,-2.77700E-002,-1.10728E-003,6.86599E-002,-2.77827E-002,-6.57884E-001,6.90749E-002,1.07106E+000,-2.29532E-003,0.00000E+000,-1.74534E-004,9.74847E-001,0.00000E+000,1.47175E-003,-6.78175E-002,1.00000E+000,10
819,1327,-5.56607E+000,-4.07727E-001,1.97095E-002,1.89537E+000,-3.77160E-001,7.28526E-002,1.93391E+000,9.97659E-003,4.94815E-001,0,2.91469E+001,-6.27427E+000,9.99572E-001,-1.52422E+001,-4.31554E+001,9.98413E-001,6.82412E-002,-2.77722E-002,-1.20446E-003,6.82563E-002,-2.77873E-002,-7.18607E-001,6.86478E-002,1.07062E+000,-2.30005E-003,0.00000E+000,-2.69125E-004,9.74846E-001,0.00000E+000,1.10637E-004,-6.78322E-002,1.00000E+000,10
819,1337,-5.54975E+000,2.18705E-001,-1.10642E-002,1.89691E+000,-3.94490E-001,3.14494E-002,1.93775E+000,6.95671E-003,5.29621E-001,0,2.92992E+001,-6.47061E+000,9.99398E-001,-1.49423E+001,-4.34154E+001,9.99186E-001,6.78304E-002,-2.77768E-002,-1.30477E-003,6.78482E-002,-2.77946E-002,-7.81735E-001,6.82163E-002,1.07018E+000,-2.31006E-003,0.00000E+000,-3.64356E-004,9.74844E-001,0.00000E+000,-1.25968E-003,-6.78635E-002,1.00000E+000,10
819,1307,-5.57521E+000,-1.63613E+000,1.76470E-001,1.89706E+000,-3.34091E-001,1.57544E-001,1.93269E+000,9.11807E-003,5.13205E-001,0,2.89006E+001,-5.76120E+000,9.99504E-001,-1.52412E+001,-4.24181E+001,9.98387E-001,6.90495E-002,-2.77686E-002,-1.01146E-003,6.90601E-002,-2.77792E-002,-5.98483E-001,6.94986E-002,1.07149E+000,-2.29264E-003,0.00000E+000,-8.03282E-005,9.74848E-001,0.00000E+000,2.82733E-003,-6.78091E-002,1.00000E+000,10
819,1347,-5.52680E+000,8.50841E-001,-1.15185E-002,1.89966E+000,-4.10057E-001,-6.60384E-003,1.94342E+000,6.30437E-003,5.23613E-001,0,2.94575E+001,-6.62903E+000,9.99630E-001,-1.44644E+001,-4.36757E+001,9.99551E-001,6.74159E-002,-2.77829E-002,-1.40723E-003,6.74367E-002,-2.78037E-002,-8.46698E-001,6.77816E-002,1.06974E+000,-2.32371E-003,0.00000E+000,-4.59965E-004,9.74841E-001,0.00000E+000,-2.63544E-003,-6.79061E-002,1.00000E+000,10
819,1357,-5.50019E+000,1.48552E+000,2.41908E-002,1.89862E+000,-4.28333E-001,-4.57179E-002,1.94688E+000,7.11813E-003,5.17985E-001,0,2.95589E+001,-6.83462E+000,9.99639E-001,-1.38407E+001,-4.39796E+001,9.99463E-001,6.69971E-002,-2.77912E-002,-1.51261E-003,6.70213E-002,-2.78153E-002,-9.14001E-001,6.73432E-002,1.06930E+000,-2.34238E-003,0.00000E+000,-5.56066E-004,9.74837E-001,0.00000E+000,-4.01829E-003,-6.79644E-002,1.00000E+000,10
1039,1337,9.79362E+000,5.20816E-001,-5.38847E-002,2.87527E+000,-2.35026E-001,-7.78967E-002,2.88591E+000,7.03545E-003,4.98286E-001,0,4.40567E+001,-3.87329E+000,9.99671E-001,1.92612E+000,-3.65691E+001,9.98689E-001,6.56879E-002,-2.67118E-002,1.49205E-004,6.56882E-002,-2.67120E-002,9.25199E-002,6.60687E-002,1.06768E+000,-2.14099E-002,0.00000E+000,1.99383E-002,9.74841E-001,0.00000E+000,-2.97426E-003,-5.36455E-002,1.00000E+000,10
1039,1347,9.80035E+000,1.15082E+000,-4.85775E-002,2.85936E+000,-2.54943E-001,-1.04375E-001,2.87260E+000,6.68636E-003,4.32599E-001,0,4.39070E+001,-4.12663E+000,9.99854E-001,2.12993E+000,-3.68705E+001,9.99272E-001,6.57719E-002,-2.67059E-002,2.04857E-004,6.57723E-002,-2.67064E-002,1.26921E-001,6.61583E-002,1.06777E+000,-2.14068E-002,0.00000E+000,1.99855E-002,9.74842E-001,0.00000E+000,-1.88169E-003,-5.36077E-002,1.00000E+000,10
1039,1317,9.79313E+000,-7.37914E-001,1.73299E-002,2.90302E+000,-2.00636E-001,-1.64854E-002,2.90999E+000,6.34701E-003,4.55035E-001,0,4.42586E+001,-3.45081E+000,9.99715E-001,1.88078E+000,-3.62195E+001,9.99159E-001,6.55167E-002,-2.67207E-002,3.89815E-005,6.55167E-002,-2.67207E-002,2.42144E-002,6.58866E-002,1.06750E+000,-2.14137E-002,0.00000E+000,1.98442E-002,9.74838E-001,0.00000E+000,-5.15578E-003,-5.36928E-002,1.00000E+000,10
1039,1327,9.79240E+000,-1.12448E-001,-2.34148E-002,2.89011E+000,-2.18704E-001,-4.42496E-002,2.89871E+000,6.49447E-003,4.33534E-001,0,4.41628E+001,-3.68834E+000,9.99700E-001,1.87801E+000,-3.64642E+001,9.98951E-001,6.56026E-002,-2.67166E-002,9.37840E-005,6.56027E-002,-2.67167E-002,5.82048E-002,6.59779E-002,1.06759E+000,-2.14120E-002,0.00000E+000,1.98910E-002,9.74839E-001,0.00000E+000,-4.06927E-003,-5.36723E-002,1.00000E+000,10
1039,1307,9.79844E+000,-1.36292E+000,7.48063E-002,2.91766E+000,-1.83545E-001,1.57061E-002,2.92347E+000,7.26994E-003,4.63508E-001,0,4.43637E+001,-3.23798E+000,9.99651E-001,1.98746E+000,-3.60109E+001,9.98828E-001,6.54297E-002,-2.67244E-002,-1.56243E-005,6.54297E-002,-2.67244E-002,-9.71423E-003,6.57944E-002,1.06742E+000,-2.14150E-002,0.00000E+000,1.97973E-002,9.74838E-001,0.00000E+000,-6.24116E-003,-5.37084E-002,1.00000E+000,10
1039,1297,9.80769E+000,-1.98452E+000,1.50163E-001,2.93301E+000,-1.63915E-001,5.18144E-002,2.93805E+000,7.46611E-003,4.44553E-001,0,4.44630E+001,-2.99822E+000,9.99442E-001,2.19084E+000,-3.58015E+001,9.98635E-001,6.53416E-002,-2.67275E-002,-7.00570E-005,6.53416E-002,-2.67276E-002,-4.35973E-002,6.57010E-002,1.06733E+000,-2.14158E-002,0.00000E+000,1.97505E-002,9.74837E-001,0.00000E+000,-7.32653E-003,-5.37187E-002,1.00000E+000,10
1049,1337,1.04992E+001,5.39039E-001,-5.31456E-002,2.92275E+000,-2.21619E-001,-7.98812E-002,2.93223E+000,1.00567E-002,4.52283E-001,0,4.47500E+001,-3.67446E+000,9.99832E-001,2.87013E+000,-3.62172E+001,9.99223E-001,6.56631E-002,-2.66550E-002,-1.67468E-004,6.56634E-002,-2.66553E-002,-1.03936E-001,6.60496E-002,1.06765E+000,-2.14172E-002,0.00000E+000,1.92610E-002,9.74861E-001,0.00000E+000,-1.67960E-003,-5.27375E-002,1.00000E+000,10
1049,1347,1.05104E+001,1.17468E+000,-3.63804E-002,2.90887E+000,-2.39822E-001,-1.04434E-001,2.92061E+000,8.45514E-003,4.61836E-001,0,4.46232E+001,-3.90839E+000,9.99791E-001,3.16446E+000,-3.64172E+001,9.98895E-001,6.58498E-002,-2.66508E-002,-1.25477E-004,6.58500E-002,-2.66510E-002,-7.77215E-002,6.62473E-002,1.06785E+000,-2.14096E-002,0.00000E+000,1.92921E-002,9.74862E-001,0.00000E+000,-8.92736E-004,-5.27075E-002,1.00000E+000,10
1049,1307,1.05029E+001,-1.34245E+000,8.27237E-002,2.96254E+000,-1.68681E-001,1.30719E-002,2.96737E+000,9.85695E-003,4.12820E-001,0,4.50163E+001,-3.00587E+000,9.99716E-001,2.93140E+000,-3.56468E+001,9.98841E-001,6.51037E-002,-2.66634E-002,-2.87111E-004,6.51046E-002,-2.66643E-002,-1.79259E-001,6.54587E-002,1.06706E+000,-2.14281E-002,0.00000E+000,1.91687E-002,9.74859E-001,0.00000E+000,-4.01963E-003,-5.27807E-002,1.00000E+000,10
1049,1317,1.04969E+001,-7.16255E-001,2.98573E-002,2.94673E+000,-1.85428E-001,-1.57929E-002,2.95260E+000,9.09871E-003,4.12741E-001,0,4.48819E+001,-3.21848E+000,9.99540E-001,2.82131E+000,-3.58414E+001,9.97877E-001,6.52905E-002,-2.66609E-002,-2.47603E-004,6.52912E-002,-2.66615E-002,-1.54282E-001,6.56558E-002,1.06726E+000,-2.14252E-002,0.00000E+000,1.91994E-002,9.74860E-001,0.00000E+000,-3.24117E-003,-5.27690E-002,1.00000E+000,10
1049,1327,1.04938E+001,-9.40375E-002,-2.52710E-002,2.93455E+000,-2.06395E-001,-4.43848E-002,2.94213E+000,5.66206E-003,4.11506E-001,0,4.48035E+001,-3.48847E+000,9.99739E-001,2.75350E+000,-3.60938E+001,9.98436E-001,6.54767E-002,-2.66584E-002,-2.08176E-004,6.54772E-002,-2.66589E-002,-1.29457E-001,6.58525E-002,1.06745E+000,-2.14224E-002,0.00000E+000,1.92301E-002,9.74860E-001,0.00000E+000,-2.46222E-003,-5.27580E-002,1.00000E+000,10
809,1347,-6.22521E+000,8.40147E-001,-1.66999E-002,1.84958E+000,-4.13254E-001,-7.38205E-003,1.89520E+000,5.57197E-003,5.09957E-001,0,2.87066E+001,-6.67586E+000,9.99781E-001,-1.52146E+001,-4.39354E+001,9.99637E-001,6.70583E-002,-2.76423E-002,-1.21875E-003,6.70740E-002,-2.76580E-002,-7.37204E-001,6.74167E-002,1.06936E+000,-2.02660E-003,0.00000E+000,-3.51672E-004,9.74889E-001,0.00000E+000,-2.84140E-003,-6.65377E-002,1.00000E+000,10
809,1357,-6.19889E+000,1.47747E+000,2.42899E-002,1.84777E+000,-4.29741E-001,-4.47275E-002,1.89761E+000,6.66966E-003,5.11292E-001,0,2.87891E+001,-6.85201E+000,9.99738E-001,-1.45794E+001,-4.42084E+001,9.99318E-001,6.67223E-002,-2.76547E-002,-1.36847E-003,6.67421E-002,-2.76746E-002,-8.30560E-001,6.70655E-002,1.06901E+000,-2.04183E-003,0.00000E+000,-5.44919E-004,9.74880E-001,0.00000E+000,-4.13874E-003,-6.65935E-002,1.00000E+000,10
809,1327,-6.26145E+000,-4.15892E-001,1.10593E-002,1.84742E+000,-3.81344E-001,6.58555E-002,1.88751E+000,7.52572E-003,5.30553E-001,0,2.84496E+001,-6.30699E+000,9.99643E-001,-1.59566E+001,-4.33403E+001,9.98285E-001,6.77177E-002,-2.76270E-002,-9.28216E-004,6.77268E-002,-2.76360E-002,-5.57725E-001,6.81074E-002,1.07006E+000,-2.00812E-003,0.00000E+000,3.06344E-005,9.74899E-001,0.00000E+000,-2.74828E-004,-6.64701E-002,1.00000E+000,10
809,1337,-6.24325E+000,2.09988E-001,-9.75789E-003,1.85052E+000,-3.97850E-001,3.20576E-002,1.89307E+000,4.85967E-003,5.26874E-001,0,2.86013E+001,-6.51113E+000,9.99712E-001,-1.56022E+001,-4.36511E+001,9.99601E-001,6.73895E-002,-2.76338E-002,-1.07272E-003,6.74016E-002,-2.76459E-002,-6.46707E-001,6.77632E-002,1.06971E+000,-2.01631E-003,0.00000E+000,-1.60193E-004,9.74894E-001,0.00000E+000,-1.55592E-003,-6.65000E-002,1.00000E+000,10
809,1307,-6.27261E+000,-1.64135E+000,1.71694E-001,1.84705E+000,-3.34393E-001,1.54706E-001,1.88344E+000,1.07937E-002,5.57546E-001,0,2.81594E+001,-5.76793E+000,9.98754E-001,-1.59760E+001,-4.25587E+001,9.97303E-001,6.83651E-002,-2.76216E-002,-6.45794E-004,6.83695E-002,-2.76259E-002,-3.85460E-001,6.87877E-002,1.07076E+000,-2.00222E-003,0.00000E+000,4.10073E-004,9.74902E-001,0.00000E+000,2.27249E-003,-6.64484E-002,1.00000E+000,10
809,1317,-6.26568E+000,-1.02958E+000,8.54453E-002,1.85030E+000,-3.57616E-001,1.13004E-001,1.88793E+000,1.05291E-002,5.42867E-001,0,2.83439E+001,-6.03901E+000,9.99591E-001,-1.59606E+001,-4.29522E+001,9.98303E-001,6.80427E-002,-2.76235E-002,-7.86396E-004,6.80492E-002,-2.76300E-002,-4.70940E-001,6.84486E-002,1.07041E+000,-2.00425E-003,0.00000E+000,2.20585E-004,9.74901E-001,0.00000E+000,1.00038E-003,-6.64559E-002,1.00000E+000,10
1049,1297,1.05073E+001,-1.96881E+000,1.48344E-001,2.97544E+000,-1.52994E-001,4.96823E-002,2.97978E+000,8.12934E-003,4.13056E-001,0,4.50781E+001,-2.82397E+000,9.99513E-001,3.03908E+000,-3.54829E+001,9.97930E-001,6.49165E-002,-2.66658E-002,-3.26441E-004,6.49177E-002,-2.66670E-002,-2.04225E-001,6.52613E-002,1.06686E+000,-2.14307E-002,0.00000E+000,1.91380E-002,9.74859E-001,0.00000E+000,-4.79738E-003,-5.27910E-002,1.00000E+000,10
799,1337,-6.93827E+000,2.02419E-001,-1.21530E-002,1.80312E+000,-3.98841E-001,3.35994E-002,1.84701E+000,4.69489E-003,5.22304E-001,0,2.78836E+001,-6.52455E+000,9.99813E-001,-1.62903E+001,-4.38623E+001,9.99646E-001,6.67557E-002,-2.75077E-002,-8.11197E-004,6.67627E-002,-2.75147E-002,-4.93019E-001,6.71055E-002,1.06904E+000,-1.73492E-003,0.00000E+000,1.13094E-004,9.74938E-001,0.00000E+000,-1.86718E-003,-6.52674E-002,1.00000E+000,10
799,1347,-6.92014E+000,8.32358E-001,-1.65820E-002,1.80279E+000,-4.14347E-001,-1.52675E-003,1.84979E+000,6.05508E-003,5.15900E-001,0,2.79843E+001,-6.70005E+000,9.99660E-001,-1.58937E+001,-4.41519E+001,9.99412E-001,6.64749E-002,-2.75178E-002,-9.88031E-004,6.64853E-002,-2.75282E-002,-6.02192E-001,6.68119E-002,1.06874E+000,-1.74340E-003,0.00000E+000,-1.54169E-004,9.74930E-001,0.00000E+000,-2.95721E-003,-6.52985E-002,1.00000E+000,10
799,1357,-6.89084E+000,1.47154E+000,2.21185E-002,1.80401E+000,-4.28653E-001,-4.20694E-002,1.85471E+000,6.02258E-003,5.10137E-001,0,2.81221E+001,-6.83530E+000,9.99635E-001,-1.52157E+001,-4.43961E+001,9.99204E-001,6.61903E-002,-2.75330E-002,-1.16852E-003,6.62049E-002,-2.75476E-002,-7.14200E-001,6.65149E-002,1.06844E+000,-1.75630E-003,0.00000E+000,-4.23785E-004,9.74919E-001,0.00000E+000,-4.05684E-003,-6.53458E-002,1.00000E+000,10
799,1327,-6.95217E+000,-4.25257E-001,1.57320E-002,1.80377E+000,-3.83570E-001,7.22221E-002,1.84551E+000,1.22062E-002,5.36927E-001,0,2.77757E+001,-6.37381E+000,9.99736E-001,-1.65624E+001,-4.35867E+001,9.98444E-001,6.70345E-002,-2.74996E-002,-6.35653E-004,6.70388E-002,-2.75039E-002,-3.85237E-001,6.73977E-002,1.06933E+000,-1.72823E-003,0.00000E+000,3.79724E-004,9.74944E-001,0.00000E+000,-7.79723E-004,-6.52428E-002,1.00000E+000,10
1059,1327,1.11960E+001,-7.66080E-002,-2.35078E-002,2.97848E+000,-1.95466E-001,-4.44665E-002,2.98521E+000,8.90861E-003,4.25030E-001,0,4.54351E+001,-3.32993E+000,9.99781E-001,3.65139E+000,-3.57289E+001,9.98632E-001,6.54182E-002,-2.66938E-002,-4.16078E-004,6.54201E-002,-2.66957E-002,-2.58803E-001,6.57877E-002,1.06740E+000,-2.11647E-002,0.00000E+000,1.85180E-002,9.74802E-001,0.00000E+000,-1.04740E-003,-5.20536E-002,1.00000E+000,10
1059,1337,1.12027E+001,5.58661E-001,-4.48797E-002,2.96744E+000,-2.08909E-001,-7.50830E-002,2.97573E+000,6.91678E-003,4.48740E-001,0,4.53754E+001,-3.49202E+000,9.99848E-001,3.79962E+000,-3.58395E+001,9.99363E-001,6.56827E-002,-2.66907E-002,-3.76323E-004,6.56842E-002,-2.66922E-002,-2.33414E-001,6.60670E-002,1.06768E+000,-2.11571E-002,0.00000E+000,1.85584E-002,9.74803E-001,0.00000E+000,-5.52260E-004,-5.20402E-002,1.00000E+000,10
1059,1347,1.12159E+001,1.19413E+000,-2.98777E-002,2.95518E+000,-2.26676E-001,-1.02424E-001,2.96563E+000,9.56775E-003,4.38018E-001,0,4.52836E+001,-3.71896E+000,9.99811E-001,4.11998E+000,-3.60467E+001,9.99031E-001,6.59478E-002,-2.66868E-002,-3.34886E-004,6.59491E-002,-2.66880E-002,-2.07128E-001,6.63474E-002,1.06796E+000,-2.11461E-002,0.00000E+000,1.85990E-002,9.74805E-001,0.00000E+000,-5.51413E-005,-5.20210E-002,1.00000E+000,10
1059,1297,1.12064E+001,-1.95182E+000,1.40235E-001,3.01895E+000,-1.39117E-001,4.98404E-002,3.02256E+000,7.28685E-003,3.90029E-001,0,4.57001E+001,-2.62091E+000,9.99628E-001,3.87148E+000,-3.51273E+001,9.98221E-001,6.46264E-002,-2.67008E-002,-5.30351E-004,6.46294E-002,-2.67039E-002,-3.32711E-001,6.49534E-002,1.06655E+000,-2.11778E-002,0.00000E+000,1.83971E-002,9.74800E-001,0.00000E+000,-2.52604E-003,-5.20764E-002,1.00000E+000,10
1059,1307,1.12025E+001,-1.32737E+000,7.59549E-002,3.00640E+000,-1.56024E-001,1.45329E-002,3.01048E+000,9.72823E-003,3.56765E-001,0,4.56401E+001,-2.82250E+000,9.99752E-001,3.77238E+000,-3.53382E+001,9.98606E-001,6.48898E-002,-2.66986E-002,-4.92652E-004,6.48924E-002,-2.67013E-002,-3.08181E-001,6.52306E-002,1.06683E+000,-2.11740E-002,0.00000E+000,1.84373E-002,9.74801E-001,0.00000E+000,-2.03481E-003,-5.20699E-002,1.00000E+000,10
1059,1317,1.11964E+001,-7.03405E-001,1.50866E-002,2.99103E+000,-1.75829E-001,-1.99916E-002,2.99627E+000,1.06976E-002,3.93753E-001,0,4.55354E+001,-3.07422E+000,9.99648E-001,3.64609E+000,-3.55297E+001,9.97502E-001,6.51538E-002,-2.66964E-002,-4.54704E-004,6.51560E-002,-2.66986E-002,-2.83633E-001,6.55087E-002,1.06711E+000,-2.11700E-002,0.00000E+000,1.84776E-002,9.74802E-001,0.00000E+000,-1.54185E-003,-5.20628E-002,1.00000E+000,10
799,1307,-6.96137E+000,-1.64957E+000,1.80286E-001,1.80407E+000,-3.36976E-001,1.59101E-001,1.84215E+000,1.35540E-002,5.46323E-001,0,2.75035E+001,-5.82387E+000,9.99133E-001,-1.65410E+001,-4.28005E+001,9.98569E-001,6.75838E-002,-2.74937E-002,-2.91541E-004,6.75847E-002,-2.74946E-002,-1.75687E-001,6.79748E-002,1.06992E+000,-1.72383E-003,0.00000E+000,9.08774E-004,9.74948E-001,0.00000E+000,1.37801E-003,-6.52267E-002,1.00000E+000,10
799,1317,-6.96125E+000,-1.03857E+000,7.28518E-002,1.80322E+000,-3.59158E-001,1.09694E-001,1.84191E+000,1.27522E-002,5.63079E-001,0,2.76481E+001,-6.07206E+000,9.99477E-001,-1.66840E+001,-4.31479E+001,9.97966E-001,6.73104E-002,-2.74946E-002,-4.62426E-004,6.73126E-002,-2.74969E-002,-2.79460E-001,6.76873E-002,1.06963E+000,-1.72430E-003,0.00000E+000,6.44805E-004,9.74947E-001,0.00000E+000,3.01408E-004,-6.52284E-002,1.00000E+000,10
789,1327,-7.64320E+000,-4.30385E-001,2.09858E-002,1.76006E+000,-3.81902E-001,8.27125E-002,1.80291E+000,9.85098E-003,5.41560E-001,0,2.70866E+001,-6.37523E+000,9.99709E-001,-1.71662E+001,-4.37701E+001,9.98752E-001,6.63670E-002,-2.73573E-002,-4.14591E-004,6.63688E-002,-2.73591E-002,-2.53442E-001,6.67088E-002,1.06862E+000,-1.50130E-003,0.00000E+000,6.25159E-004,9.75015E-001,0.00000E+000,-1.10685E-003,-6.41678E-002,1.00000E+000,10
789,1337,-7.62922E+000,1.98126E-001,-9.01550E-003,1.75898E+000,-3.96598E-001,3.86396E-002,1.80355E+000,5.61380E-003,5.18437E-001,0,2.72034E+001,-6.50046E+000,9.99705E-001,-1.68969E+001,-4.40343E+001,9.99525E-001,6.61390E-002,-2.73669E-002,-6.15946E-004,6.61430E-002,-2.73710E-002,-3.77399E-001,6.64697E-002,1.06838E+000,-1.50697E-003,0.00000E+000,2.95102E-004,9.75007E-001,0.00000E+000,-2.01931E-003,-6.41892E-002,1.00000E+000,10
789,1347,-7.60927E+000,8.28581E-001,-1.28484E-002,1.76016E+000,-4.12619E-001,1.89300E-003,1.80788E+000,6.59351E-003,5.37014E-001,0,2.73318E+001,-6.67872E+000,9.99560E-001,-1.64697E+001,-4.43064E+001,9.99179E-001,6.59091E-002,-2.73788E-002,-8.18715E-004,6.59163E-002,-2.73860E-002,-5.02789E-001,6.62296E-002,1.06813E+000,-1.51402E-003,0.00000E+000,-3.61751E-005,9.74997E-001,0.00000E+000,-2.93513E-003,-6.42157E-002,1.00000E+000,10
789,1357,-7.58310E+000,1.46548E+000,2.06450E-002,1.75978E+000,-4.28020E-001,-3.73229E-002,1.81147E+000,5.81459E-003,5.36702E-001,0,2.74409E+001,-6.83647E+000,9.99508E-001,-1.58508E+001,-4.45737E+001,9.99169E-001,6.56769E-002,-2.73954E-002,-1.02412E-003,6.56882E-002,-2.74067E-002,-6.30350E-001,6.59875E-002,1.06789E+000,-1.52399E-003,0.00000E+000,-3.69469E-004,9.74984E-001,0.00000E+000,-3.85653E-003,-6.42534E-002,1.00000E+000,10
1069,1327,1.18994E+001,-6.10626E-002,-2.76005E-002,3.02427E+000,-1.86602E-001,-4.57136E-002,3.03037E+000,9.63557E-003,4.54314E-001,0,4.60995E+001,-3.19588E+000,9.99739E-001,4.56078E+000,-3.53724E+001,9.98236E-001,6.53465E-002,-2.66406E-002,-6.26491E-004,6.53508E-002,-2.66448E-002,-3.90197E-001,6.57207E-002,1.06732E+000,-2.09243E-002,0.00000E+000,1.78421E-002,9.74846E-001,0.00000E+000,-7.13740E-005,-5.16524E-002,1.00000E+000,10
1069,1337,1.19015E+001,5.72971E-001,-5.00764E-002,3.00945E+000,-1.99445E-001,-7.37743E-002,3.01696E+000,6.32370E-003,4.15902E-001,0,4.59741E+001,-3.34680E+000,9.99760E-001,4.63519E+000,-3.55296E+001,9.98857E-001,6.56234E-002,-2.66379E-002,-5.90324E-004,6.56272E-002,-2.66417E-002,-3.66581E-001,6.60130E-002,1.06762E+000,-2.09167E-002,0.00000E+000,1.78934E-002,9.74847E-001,0.00000E+000,6.77424E-005,-5.16488E-002,1.00000E+000,10
1069,1347,1.19126E+001,1.20765E+000,-4.62950E-002,2.99667E+000,-2.17917E-001,-1.04573E-001,3.00640E+000,6.18095E-003,4.26714E-001,0,4.58886E+001,-3.57488E+000,9.99787E-001,4.89850E+000,-3.57120E+001,9.99208E-001,6.59022E-002,-2.66345E-002,-5.52476E-004,6.59055E-002,-2.66378E-002,-3.42059E-001,6.63076E-002,1.06792E+000,-2.09059E-002,0.00000E+000,1.79451E-002,9.74849E-001,0.00000E+000,2.07856E-004,-5.16437E-002,1.00000E+000,10
789,1307,-7.64962E+000,-1.65444E+000,1.81804E-001,1.76334E+000,-3.35678E-001,1.67478E-001,1.80280E+000,1.11668E-002,5.51599E-001,0,2.68691E+001,-5.82062E+000,9.99363E-001,-1.71109E+001,-4.29676E+001,9.96973E-001,6.68163E-002,-2.73503E-002,-1.89741E-005,6.68163E-002,-2.73503E-002,-1.15448E-002,6.71815E-002,1.06910E+000,-1.49764E-003,0.00000E+000,1.27953E-003,9.75020E-001,0.00000E+000,7.02173E-004,-6.41540E-002,1.00000E+000,10
789,1317,-7.64681E+000,-1.04664E+000,9.07261E-002,1.76239E+000,-3.62081E-001,1.20012E-001,1.80320E+000,1.26793E-002,5.56043E-001,0,2.70054E+001,-6.14529E+000,9.99280E-001,-1.71727E+001,-4.34067E+001,9.96298E-001,6.65924E-002,-2.73532E-002,-2.16378E-004,6.65929E-002,-2.73537E-002,-1.31965E-001,6.69455E-002,1.06886E+000,-1.49906E-003,0.00000E+000,9.52691E-004,9.75018E-001,0.00000E+000,-2.01384E-004,-6.41594E-002,1.00000E+000,10
1069,1297,1.18996E+001,-1.93715E+000,1.20529E-001,3.05786E+000,-1.27759E-001,4.59565E-002,3.06087E+000,9.31968E-003,3.94285E-001,0,4.62679E+001,-2.44215E+000,9.99319E-001,4.59347E+000,-3.47700E+001,9.97793E-001,6.45156E-002,-2.66471E-002,-7.31339E-004,6.45215E-002,-2.66529E-002,-4.59607E-001,6.48456E-002,1.06644E+000,-2.09395E-002,0.00000E+000,1.76882E-002,9.74843E-001,0.00000E+000,-4.88389E-004,-5.16595E-002,1.00000E+000,10
1069,1307,1.18968E+001,-1.31449E+000,5.10560E-002,3.04760E+000,-1.45799E-001,1.04047E-002,3.05110E+000,7.66654E-003,3.55249E-001,0,4.62453E+001,-2.66081E+000,9.99744E-001,4.50257E+000,-3.49983E+001,9.98292E-001,6.47913E-002,-2.66452E-002,-6.97321E-004,6.47966E-002,-2.66506E-002,-4.36920E-001,6.51356E-002,1.06673E+000,-2.09361E-002,0.00000E+000,1.77392E-002,9.74844E-001,0.00000E+000,-3.50121E-004,-5.16579E-002,1.00000E+000,10
1069,1317,1.18983E+001,-6.85256E-001,1.17957E-002,3.03626E+000,-1.63528E-001,-1.71099E-002,3.04071E+000,9.01729E-003,4.20630E-001,0,4.61743E+001,-2.89667E+000,9.99793E-001,4.53526E+000,-3.51377E+001,9.97961E-001,6.50689E-002,-2.66429E-002,-6.61933E-004,6.50737E-002,-2.66477E-002,-4.13506E-001,6.54280E-002,1.06703E+000,-2.09303E-002,0.00000E+000,1.77906E-002,9.74845E-001,0.00000E+000,-2.10774E-004,-5.16552E-002,1.00000E+000,10
779,1327,-8.32880E+000,-4.32218E-001,2.82958E-002,1.72036E+000,-3.79558E-001,9.03945E-002,1.76406E+000,1.42406E-002,5.78434E-001,0,2.64672E+001,-6.34708E+000,9.99694E-001,-1.76763E+001,-4.38905E+001,9.98470E-001,6.56539E-002,-2.71310E-002,-3.52951E-004,6.56552E-002,-2.71324E-002,-2.17947E-001,6.59838E-002,1.06786E+000,-1.41694E-003,0.00000E+000,6.76424E-004,9.75181E-001,0.00000E+000,-1.23003E-003,-6.32884E-002,1.00000E+000,10
779,1337,-8.31640E+000,1.88972E-001,-9.13533E-003,1.71818E+000,-4.00250E-001,4.05493E-002,1.76465E+000,5.56027E-003,5.32872E-001,0,2.65854E+001,-6.55484E+000,9.99604E-001,-1.74509E+001,-4.42646E+001,9.99352E-001,6.55298E-002,-2.71412E-002,-5.70597E-004,6.55333E-002,-2.71448E-002,-3.52765E-001,6.58541E-002,1.06773E+000,-1.41992E-003,0.00000E+000,3.00003E-004,9.75172E-001,0.00000E+000,-1.96085E-003,-6.33050E-002,1.00000E+000,10
779,1347,-8.29838E+000,8.20888E-001,-1.37327E-002,1.71706E+000,-4.13867E-001,9.99948E-005,1.76623E+000,6.82047E-003,5.27289E-001,0,2.66878E+001,-6.69246E+000,9.99457E-001,-1.70533E+001,-4.45266E+001,9.99074E-001,6.54046E-002,-2.71544E-002,-7.89561E-004,6.54113E-002,-2.71612E-002,-4.88706E-001,6.57239E-002,1.06759E+000,-1.42383E-003,0.00000E+000,-7.79160E-005,9.75161E-001,0.00000E+000,-2.69459E-003,-6.33268E-002,1.00000E+000,10
779,1357,-8.27399E+000,1.45857E+000,1.91805E-002,1.71584E+000,-4.28056E-001,-3.59282E-002,1.76879E+000,5.21742E-003,5.41480E-001,0,2.67733E+001,-6.84025E+000,9.99494E-001,-1.64611E+001,-4.47753E+001,9.99358E-001,6.52777E-002,-2.71719E-002,-1.01079E-003,6.52888E-002,-2.71829E-002,-6.26338E-001,6.55927E-002,1.06746E+000,-1.42906E-003,0.00000E+000,-4.58642E-004,9.75146E-001,0.00000E+000,-3.43377E-003,-6.33559E-002,1.00000E+000,10
779,1317,-8.33479E+000,-1.04781E+000,9.57756E-002,1.72013E+000,-3.57416E-001,1.24593E-001,1.76128E+000,1.56018E-002,5.27519E-001,0,2.63559E+001,-6.07165E+000,9.99715E-001,-1.77246E+001,-4.35431E+001,9.98216E-001,6.57770E-002,-2.71267E-002,-1.36840E-004,6.57772E-002,-2.71269E-002,-8.43921E-002,6.61128E-002,1.06799E+000,-1.41576E-003,0.00000E+000,1.05167E-003,9.75184E-001,0.00000E+000,-5.01492E-004,-6.32818E-002,1.00000E+000,10
1079,1337,1.26045E+001,5.89264E-001,-5.97960E-002,3.05445E+000,-1.89568E-001,-7.98206E-002,3.06137E+000,6.96899E-003,4.18539E-001,0,4.66434E+001,-3.17961E+000,9.99741E-001,5.53044E+000,-3.51610E+001,9.99443E-001,6.56534E-002,-2.66460E-002,-7.67220E-004,6.56598E-002,-2.66524E-002,-4.76216E-001,6.60461E-002,1.06766E+000,-2.06031E-002,0.00000E+000,1.72363E-002,9.74842E-001,0.00000E+000,5.89992E-004,-5.14628E-002,1.00000E+000,10
1079,1347,1.26162E+001,1.22520E+000,-5.42319E-002,3.04200E+000,-2.06963E-001,-1.09233E-001,3.05099E+000,4.65547E-003,4.48225E-001,0,4.65580E+001,-3.40545E+000,9.99855E-001,5.80466E+000,-3.53166E+001,9.99670E-001,6.59444E-002,-2.66438E-002,-7.38983E-004,6.59503E-002,-2.66497E-002,-4.57261E-001,6.63535E-002,1.06797E+000,-2.05918E-002,0.00000E+000,1.72841E-002,9.74843E-001,0.00000E+000,4.20491E-004,-5.14690E-002,1.00000E+000,10
1079,1297,1.26032E+001,-1.91852E+000,1.23842E-001,3.10292E+000,-1.15037E-001,4.91389E-002,3.10544E+000,9.47275E-003,4.23662E-001,0,4.68998E+001,-2.26548E+000,9.99471E-001,5.52474E+000,-3.43865E+001,9.98197E-001,6.44970E-002,-2.66520E-002,-8.69330E-004,6.45053E-002,-2.66603E-002,-5.46389E-001,6.48277E-002,1.06643E+000,-2.06267E-002,0.00000E+000,1.70468E-002,9.74838E-001,0.00000E+000,1.26269E-003,-5.14499E-002,1.00000E+000,10
1079,1307,1.25968E+001,-1.29910E+000,4.42944E-002,3.09041E+000,-1.36338E-001,9.51519E-003,3.09343E+000,8.79448E-003,3.83315E-001,0,4.68609E+001,-2.51529E+000,9.99735E-001,5.35870E+000,-3.46429E+001,9.98358E-001,6.47848E-002,-2.66509E-002,-8.45295E-004,6.47926E-002,-2.66587E-002,-5.29621E-001,6.51305E-002,1.06673E+000,-2.06238E-002,0.00000E+000,1.70939E-002,9.74839E-001,0.00000E+000,1.09540E-003,-5.14515E-002,1.00000E+000,10
1079,1327,1.26011E+001,-4.49420E-002,-3.47097E-002,3.06759E+000,-1.76661E-001,-5.12358E-002,3.07310E+000,8.47385E-003,4.42198E-001,0,4.67405E+001,-3.02587E+000,9.99807E-001,5.44171E+000,-3.50215E+001,9.99256E-001,6.53642E-002,-2.66478E-002,-7.93651E-004,6.53711E-002,-2.66546E-002,-4.94157E-001,6.57410E-002,1.06735E+000,-2.06109E-002,0.00000E+000,1.71889E-002,9.74841E-001,0.00000E+000,7.58321E-004,-5.14586E-002,1.00000E+000,10
1079,1317,1.25976E+001,-6.68468E-001,4.96903E-004,3.07838E+000,-1.53038E-001,-2.18087E-002,3.08226E+000,7.72090E-003,4.35291E-001,0,4.67939E+001,-2.71659E+000,9.99792E-001,5.37076E+000,-3.47560E+001,9.98866E-001,6.50747E-002,-2.66494E-002,-8.19631E-004,6.50820E-002,-2.66567E-002,-5.11931E-001,6.54358E-002,1.06704E+000,-2.06177E-002,0.00000E+000,1.71414E-002,9.74839E-001,0.00000E+000,9.26791E-004,-5.14548E-002,1.00000E+000,10
779,1307,-8.34114E+000,-1.66475E+000,1.82303E-001,1.71726E+000,-3.41605E-001,1.66488E-001,1.75881E+000,1.05902E-002,5.63741E-001,0,2.61817E+001,-5.90346E+000,9.99534E-001,-1.77305E+001,-4.32136E+001,9.97931E-001,6.58986E-002,-2.71238E-002,7.75504E-005,6.58987E-002,-2.71238E-002,4.77660E-002,6.62411E-002,1.06812E+000,-1.41505E-003,0.00000E+000,1.42430E-003,9.75186E-001,0.00000E+000,2.21983E-004,-6.32778E-002,1.00000E+000,10
1089,1337,1.33064E+001,6.07795E-001,-6.55050E-002,3.09784E+000,-1.78084E-001,-8.16238E-002,3.10403E+000,5.92043E-003,4.62096E-001,0,4.72711E+001,-3.00732E+000,9.99679E-001,6.41873E+000,-3.47465E+001,9.99426E-001,6.59107E-002,-2.66810E-002,-8.66185E-004,6.59188E-002,-2.66891E-002,-5.35933E-001,6.63153E-002,1.06794E+000,-2.01334E-002,0.00000E+000,1.65879E-002,9.74814E-001,0.00000E+000,1.03973E-003,-5.13772E-002,1.00000E+000,10
1089,1347,1.33184E+001,1.24317E+000,-6.26509E-002,3.08566E+000,-1.95210E-001,-1.13307E-001,3.09390E+000,5.40108E-003,4.38016E-001,0,4.71989E+001,-3.21276E+000,9.99767E-001,6.69123E+000,-3.49299E+001,9.99288E-001,6.62824E-002,-2.66800E-002,-8.47052E-004,6.62901E-002,-2.66877E-002,-5.22008E-001,6.67082E-002,1.06834E+000,-2.01189E-002,0.00000E+000,1.66238E-002,9.74816E-001,0.00000E+000,6.66544E-004,-5.13909E-002,1.00000E+000,10
769,1347,-8.98798E+000,8.13862E-001,-1.19106E-002,1.67380E+000,-4.14585E-001,5.04036E-003,1.72439E+000,5.66018E-003,5.27465E-001,0,2.60203E+001,-6.70721E+000,9.99448E-001,-1.76333E+001,-4.47377E+001,9.99172E-001,6.47343E-002,-2.69566E-002,-7.32848E-004,6.47402E-002,-2.69625E-002,-4.57903E-001,6.50406E-002,1.06688E+000,-1.21079E-003,0.00000E+000,-1.78037E-004,9.75295E-001,0.00000E+000,-2.44464E-003,-6.23606E-002,1.00000E+000,10
769,1357,-8.96274E+000,1.45187E+000,1.73893E-002,1.67399E+000,-4.28037E-001,-3.28300E-002,1.72816E+000,5.55447E-003,5.56652E-001,0,2.61325E+001,-6.84562E+000,9.99561E-001,-1.70351E+001,-4.49674E+001,9.99392E-001,6.45977E-002,-2.69719E-002,-9.32415E-004,6.46072E-002,-2.69814E-002,-5.83338E-001,6.48988E-002,1.06673E+000,-1.21632E-003,0.00000E+000,-5.20770E-004,9.75282E-001,0.00000E+000,-3.12229E-003,-6.23867E-002,1.00000E+000,10
769,1327,-9.01797E+000,-4.38559E-001,3.64643E-002,1.67436E+000,-3.80921E-001,8.66793E-002,1.71933E+000,1.10607E-002,5.68115E-001,0,2.57843E+001,-6.36690E+000,9.99596E-001,-1.82354E+001,-4.41064E+001,9.97724E-001,6.50035E-002,-2.69376E-002,-3.39473E-004,6.50047E-002,-2.69389E-002,-2.11549E-001,6.53214E-002,1.06716E+000,-1.20405E-003,0.00000E+000,5.01048E-004,9.75311E-001,0.00000E+000,-1.10195E-003,-6.23287E-002,1.00000E+000,10
769,1337,-9.00603E+000,1.80705E-001,-7.66034E-003,1.67426E+000,-4.02788E-001,4.28045E-002,1.72257E+000,5.50369E-003,5.33984E-001,0,2.59170E+001,-6.59208E+000,9.99554E-001,-1.80341E+001,-4.44919E+001,9.99156E-001,6.48694E-002,-2.69452E-002,-5.35478E-004,6.48725E-002,-2.69483E-002,-3.34143E-001,6.51813E-002,1.06702E+000,-1.20670E-003,0.00000E+000,1.62095E-004,9.75305E-001,0.00000E+000,-1.77213E-003,-6.23412E-002,1.00000E+000,10
1089,1327,1.33007E+001,-2.61711E-002,-5.04719E-002,3.11049E+000,-1.61353E-001,-5.65666E-002,3.11518E+000,7.68715E-003,4.22269E-001,0,4.73725E+001,-2.79219E+000,9.99711E-001,6.27793E+000,-3.46149E+001,9.98804E-001,6.55390E-002,-2.66818E-002,-8.83688E-004,6.55475E-002,-2.66903E-002,-5.48958E-001,6.59228E-002,1.06755E+000,-2.01444E-002,0.00000E+000,1.65521E-002,9.74813E-001,0.00000E+000,1.41261E-003,-5.13668E-002,1.00000E+000,10
1089,1317,1.33005E+001,-6.55409E-001,-7.50776E-003,3.12327E+000,-1.44867E-001,-2.55961E-002,3.12674E+000,7.31702E-003,4.52000E-001,0,4.74516E+001,-2.60307E+000,9.99817E-001,6.27391E+000,-3.44378E+001,9.99144E-001,6.51691E-002,-2.66825E-002,-8.99632E-004,6.51779E-002,-2.66913E-002,-5.61106E-001,6.55327E-002,1.06715E+000,-2.01523E-002,0.00000E+000,1.65164E-002,9.74813E-001,0.00000E+000,1.78330E-003,-5.13594E-002,1.00000E+000,10
1089,1297,1.33072E+001,-1.89948E+000,1.23923E-001,3.14815E+000,-1.02603E-001,4.99066E-002,3.15021E+000,7.17886E-003,4.45974E-001,0,4.75419E+001,-2.07257E+000,9.99706E-001,6.46060E+000,-3.39934E+001,9.99165E-001,6.44305E-002,-2.66837E-002,-9.29333E-004,6.44400E-002,-2.66931E-002,-5.84316E-001,6.47552E-002,1.06637E+000,-2.01634E-002,0.00000E+000,1.64454E-002,9.74812E-001,0.00000E+000,2.52269E-003,-5.13490E-002,1.00000E+000,10
1089,1307,1.33014E+001,-1.28123E+000,4.27548E-002,3.13581E+000,-1.25605E-001,7.32456E-003,3.13833E+000,7.33756E-003,4.51367E-001,0,4.75180E+001,-2.36347E+000,9.99794E-001,6.29992E+000,-3.42400E+001,9.99182E-001,6.47992E-002,-2.66832E-002,-9.15223E-004,6.48083E-002,-2.66923E-002,-5.73132E-001,6.51431E-002,1.06676E+000,-2.01594E-002,0.00000E+000,1.64808E-002,9.74812E-001,0.00000E+000,2.15377E-003,-5.13528E-002,1.00000E+000,10
769,1317,-9.02534E+000,-1.05338E+000,9.95220E-002,1.67502E+000,-3.59920E-001,1.28934E-001,1.71810E+000,1.24287E-002,5.26574E-001,0,2.56645E+001,-6.07779E+000,9.99759E-001,-1.83161E+001,-4.37312E+001,9.98884E-001,6.51361E-002,-2.69324E-002,-1.45212E-004,6.51364E-002,-2.69326E-002,-9.03674E-002,6.54606E-002,1.06730E+000,-1.20227E-003,0.00000E+000,8.37708E-004,9.75315E-001,0.00000E+000,-4.36299E-004,-6.23203E-002,1.00000E+000,10
1099,1327,1.40010E+001,-1.13943E-002,-6.19438E-002,3.15356E+000,-1.51875E-001,-5.79562E-002,3.15775E+000,8.44045E-003,4.46795E-001,0,4.79937E+001,-2.65205E+000,9.99334E-001,7.13697E+000,-3.42574E+001,9.97873E-001,6.57077E-002,-2.67002E-002,-1.00021E-003,6.57186E-002,-2.67110E-002,-6.20066E-001,6.61009E-002,1.06774E+000,-1.97178E-002,0.00000E+000,1.59248E-002,9.74812E-001,0.00000E+000,1.56987E-003,-5.14849E-002,1.00000E+000,10
1099,1337,1.40106E+001,6.25763E-001,-6.96104E-002,3.14308E+000,-1.65856E-001,-8.25851E-002,3.14853E+000,7.70390E-003,4.64675E-001,0,4.79222E+001,-2.82766E+000,9.99334E-001,7.35196E+000,-3.43645E+001,9.98868E-001,6.61873E-002,-2.66984E-002,-9.70787E-004,6.61975E-002,-2.67086E-002,-5.98734E-001,6.66074E-002,1.06825E+000,-1.97021E-002,0.00000E+000,1.59824E-002,9.74814E-001,0.00000E+000,1.10858E-003,-5.14990E-002,1.00000E+000,10
1099,1347,1.40255E+001,1.26416E+000,-5.77078E-002,3.13148E+000,-1.81791E-001,-1.13588E-001,3.13881E+000,6.67778E-003,4.59138E-001,0,4.78555E+001,-3.02028E+000,9.99473E-001,7.68288E+000,-3.45101E+001,9.99103E-001,6.66678E-002,-2.66964E-002,-9.39065E-004,6.66773E-002,-2.67058E-002,-5.76208E-001,6.71157E-002,1.06876E+000,-1.96817E-002,0.00000E+000,1.60402E-002,9.74816E-001,0.00000E+000,6.45918E-004,-5.15174E-002,1.00000E+000,10
759,1347,-9.67530E+000,8.09550E-001,-1.10117E-002,1.63251E+000,-4.12863E-001,9.66691E-003,1.68393E+000,5.18150E-003,5.37725E-001,0,2.53827E+001,-6.68307E+000,9.99430E-001,-1.81761E+001,-4.48999E+001,9.99173E-001,6.40460E-002,-2.68146E-002,-6.47381E-004,6.40506E-002,-2.68192E-002,-4.08205E-001,6.43321E-002,1.06614E+000,-9.12433E-004,0.00000E+000,-2.98274E-004,9.75387E-001,0.00000E+000,-2.21151E-003,-6.15935E-002,1.00000E+000,10
759,1357,-9.65213E+000,1.44549E+000,1.61970E-002,1.63115E+000,-4.27812E-001,-2.87439E-002,1.68656E+000,5.52754E-003,5.59237E-001,0,2.54723E+001,-6.84135E+000,9.99534E-001,-1.76132E+001,-4.51628E+001,9.99260E-001,6.38238E-002,-2.68251E-002,-7.89838E-004,6.38307E-002,-2.68320E-002,-4.99177E-001,6.41000E-002,1.06591E+000,-9.21291E-004,0.00000E+000,-5.27801E-004,9.75378E-001,0.00000E+000,-2.87798E-003,-6.16187E-002,1.00000E+000,10
1099,1297,1.40074E+001,-1.88680E+000,1.11436E-001,3.19088E+000,-9.50236E-002,4.54214E-002,3.19262E+000,6.66411E-003,4.88414E-001,0,4.81674E+001,-1.96078E+000,9.99505E-001,7.31710E+000,-3.36627E+001,9.98724E-001,6.42772E-002,-2.67037E-002,-1.07749E-003,6.42899E-002,-2.67165E-002,-6.78426E-001,6.45948E-002,1.06621E+000,-1.97420E-002,0.00000E+000,1.57534E-002,9.74809E-001,0.00000E+000,2.94299E-003,-5.14631E-002,1.00000E+000,10
1099,1307,1.40038E+001,-1.26410E+000,3.67955E-002,3.18068E+000,-1.14203E-001,9.47702E-003,3.18275E+000,7.63379E-003,4.59531E-001,0,4.81508E+001,-2.18390E+000,9.99690E-001,7.20322E+000,-3.38693E+001,9.99026E-001,6.47534E-002,-2.67028E-002,-1.05310E-003,6.47655E-002,-2.67149E-002,-6.59635E-001,6.50954E-002,1.06672E+000,-1.97368E-002,0.00000E+000,1.58104E-002,9.74810E-001,0.00000E+000,2.48631E-003,-5.14677E-002,1.00000E+000,10
1099,1317,1.40010E+001,-6.39111E-001,-2.20589E-002,3.16744E+000,-1.33301E-001,-2.67895E-002,3.17036E+000,8.86239E-003,4.63734E-001,0,4.80874E+001,-2.42288E+000,9.99654E-001,7.13141E+000,-3.40582E+001,9.98562E-001,6.52303E-002,-2.67016E-002,-1.02728E-003,6.52417E-002,-2.67130E-002,-6.40138E-001,6.55974E-002,1.06723E+000,-1.97286E-002,0.00000E+000,1.58675E-002,9.74811E-001,0.00000E+000,2.02863E-003,-5.14752E-002,1.00000E+000,10
759,1327,-9.70799E+000,-4.46692E-001,3.73315E-002,1.62930E+000,-3.83117E-001,8.70228E-002,1.67600E+000,6.71689E-003,5.35484E-001,0,2.51038E+001,-6.38739E+000,9.99596E-001,-1.88220E+001,-4.43455E+001,9.99406E-001,6.44850E-002,-2.68019E-002,-3.68174E-004,6.44864E-002,-2.68034E-002,-2.31078E-001,6.47916E-002,1.06661E+000,-9.01776E-004,0.00000E+000,1.56907E-004,9.75397E-001,0.00000E+000,-8.89829E-004,-6.15633E-002,1.00000E+000,10
759,1337,-9.69336E+000,1.79554E-001,-4.12477E-004,1.63171E+000,-3.98265E-001,4.80319E-002,1.68030E+000,5.34191E-003,5.53811E-001,0,2.52576E+001,-6.54128E+000,9.99432E-001,-1.85612E+001,-4.46127E+001,9.99192E-001,6.42661E-002,-2.68072E-002,-5.07136E-004,6.42689E-002,-2.68100E-002,-3.19035E-001,6.45623E-002,1.06638E+000,-9.06194E-004,0.00000E+000,-7.03391E-005,9.75393E-001,0.00000E+000,-1.54967E-003,-6.15758E-002,1.00000E+000,10
759,1317,-9.71499E+000,-1.06177E+000,1.06443E-001,1.62933E+000,-3.62755E-001,1.30526E-001,1.67432E+000,1.04023E-002,5.55503E-001,0,2.49712E+001,-6.15024E+000,9.99586E-001,-1.88819E+001,-4.39546E+001,9.99064E-001,6.47017E-002,-2.67987E-002,-2.31096E-004,6.47023E-002,-2.67993E-002,-1.44707E-001,6.50191E-002,1.06684E+000,-8.99226E-004,0.00000E+000,3.82495E-004,9.75400E-001,0.00000E+000,-2.34805E-004,-6.15561E-002,1.00000E+000,10
749,1317,-1.03969E+001,-1.06524E+000,1.13262E-001,1.58971E+000,-3.62967E-001,1.25758E-001,1.63547E+000,7.82671E-003,5.84787E-001,0,2.43889E+001,-6.14706E+000,9.99563E-001,-1.93245E+001,-4.41011E+001,9.98865E-001,6.43157E-002,-2.67098E-002,-3.01969E-004,6.43167E-002,-2.67108E-002,-1.90071E-001,6.46235E-002,1.06643E+000,-4.43220E-004,0.00000E+000,-1.88792E-004,9.75429E-001,0.00000E+000,6.58267E-005,-6.05819E-002,1.00000E+000,10
749,1327,-1.03915E+001,-4.50552E-001,3.74294E-002,1.58973E+000,-3.82951E-001,8.36479E-002,1.63734E+000,5.45012E-003,5.59295E-001,0,2.45175E+001,-6.36902E+000,9.99517E-001,-1.93062E+001,-4.44883E+001,9.99166E-001,6.40226E-002,-2.67113E-002,-3.88577E-004,6.40243E-002,-2.67129E-002,-2.45369E-001,6.43160E-002,1.06612E+000,-4.45889E-004,0.00000E+000,-3.17430E-004,9.75428E-001,0.00000E+000,-5.74212E-004,-6.05874E-002,1.00000E+000,10
749,1337,-1.03800E+001,1.75047E-001,1.64296E-004,1.58937E+000,-3.97709E-001,4.61861E-002,1.63902E+000,5.10618E-003,5.71843E-001,0,2.46229E+001,-6.52728E+000,9.99522E-001,-1.90912E+001,-4.47715E+001,9.99349E-001,6.37271E-002,-2.67145E-002,-4.77213E-004,6.37296E-002,-2.67170E-002,-3.02308E-001,6.40062E-002,1.06580E+000,-4.51703E-004,0.00000E+000,-4.46893E-004,9.75425E-001,0.00000E+000,-1.21835E-003,-6.05993E-002,1.00000E+000,10
749,1347,-1.03636E+001,8.03540E-001,-1.28820E-002,1.58932E+000,-4.12603E-001,9.05802E-003,1.64203E+000,5.16119E-003,5.35558E-001,0,2.47309E+001,-6.67295E+000,9.99613E-001,-1.87376E+001,-4.50886E+001,9.99453E-001,6.34302E-002,-2.67188E-002,-5.67148E-004,6.34338E-002,-2.67224E-002,-3.60442E-001,6.36954E-002,1.06549E+000,-4.59718E-004,0.00000E+000,-5.76739E-004,9.75422E-001,0.00000E+000,-1.86440E-003,-6.06157E-002,1.00000E+000,10
1109,1297,1.47084E+001,-1.87320E+000,1.02206E-001,3.23567E+000,-8.43519E-002,5.10676E-002,3.23717E+000,6.65105E-003,4.70452E-001,0,4.87847E+001,-1.81211E+000,9.99487E-001,8.19622E+000,-3.33548E+001,9.98088E-001,6.42784E-002,-2.68268E-002,-1.15866E-003,6.42931E-002,-2.68415E-002,-7.28522E-001,6.45843E-002,1.06623E+000,-1.90511E-002,0.00000E+000,1.49383E-002,9.74720E-001,0.00000E+000,3.41164E-003,-5.18257E-002,1.00000E+000,10
1109,1307,1.47036E+001,-1.24958E+000,2.86680E-002,3.22431E+000,-1.02529E-001,1.64281E-002,3.22598E+000,7.43822E-003,4.26982E-001,0,4.87460E+001,-2.01962E+000,9.99617E-001,8.06657E+000,-3.35553E+001,9.98819E-001,6.48042E-002,-2.68247E-002,-1.11297E-003,6.48177E-002,-2.68382E-002,-6.95806E-001,6.51361E-002,1.06679E+000,-1.90453E-002,0.00000E+000,1.50451E-002,9.74721E-001,0.00000E+000,2.77277E-003,-5.18323E-002,1.00000E+000,10
1109,1317,1.47011E+001,-6.23884E-001,-2.99492E-002,3.21142E+000,-1.21255E-001,-1.88687E-002,3.21376E+000,7.82146E-003,4.36808E-001,0,4.86852E+001,-2.25472E+000,9.99525E-001,7.99911E+000,-3.37291E+001,9.98626E-001,6.53308E-002,-2.68221E-002,-1.06566E-003,6.53432E-002,-2.68345E-002,-6.62452E-001,6.56899E-002,1.06735E+000,-1.90364E-002,0.00000E+000,1.51522E-002,9.74723E-001,0.00000E+000,2.13201E-003,-5.18426E-002,1.00000E+000,10
749,1357,-1.03393E+001,1.43881E+000,1.57249E-002,1.58966E+000,-4.27425E-001,-2.64494E-002,1.64633E+000,6.18575E-003,5.46364E-001,0,2.48376E+001,-6.83609E+000,9.99632E-001,-1.81508E+001,-4.53717E+001,9.99448E-001,6.31306E-002,-2.67252E-002,-6.59491E-004,6.31355E-002,-2.67301E-002,-4.20489E-001,6.33821E-002,1.06517E+000,-4.71448E-004,0.00000E+000,-7.07557E-004,9.75417E-001,0.00000E+000,-2.51528E-003,-6.06397E-002,1.00000E+000,10
1109,1327,1.47034E+001,3.94851E-003,-6.69736E-002,3.19848E+000,-1.40816E-001,-5.23280E-002,3.20200E+000,6.82880E-003,4.31686E-001,0,4.86148E+001,-2.49833E+000,9.99289E-001,8.04486E+000,-3.39248E+001,9.98448E-001,6.58584E-002,-2.68190E-002,-1.01633E-003,6.58695E-002,-2.68302E-002,-6.28221E-001,6.62456E-002,1.06791E+000,-1.90233E-002,0.00000E+000,1.52597E-002,9.74726E-001,0.00000E+000,1.48920E-003,-5.18576E-002,1.00000E+000,10
1109,1337,1.47121E+001,6.41437E-001,-7.60472E-002,3.18653E+000,-1.55083E-001,-7.96219E-002,3.19130E+000,7.34749E-003,4.70318E-001,0,4.85318E+001,-2.67961E+000,9.99521E-001,8.24020E+000,-3.40118E+001,9.99135E-001,6.63879E-002,-2.68153E-002,-9.64685E-004,6.63979E-002,-2.68253E-002,-5.92946E-001,6.68045E-002,1.06847E+000,-1.90057E-002,0.00000E+000,1.53678E-002,9.74729E-001,0.00000E+000,8.43051E-004,-5.18777E-002,1.00000E+000,10
1109,1347,1.47309E+001,1.28192E+000,-4.94118E-002,3.17531E+000,-1.71475E-001,-1.09804E-001,3.18183E+000,7.67416E-003,4.86669E-001,0,4.84669E+001,-2.88838E+000,9.99512E-001,8.65732E+000,-3.41450E+001,9.98895E-001,6.69193E-002,-2.68104E-002,-9.09143E-004,6.69282E-002,-2.68193E-002,-5.55677E-001,6.73665E-002,1.06904E+000,-1.89801E-002,0.00000E+000,1.54764E-002,9.74734E-001,0.00000E+000,1.93583E-004,-5.19070E-002,1.00000E+000,10
739,1337,-1.10653E+001,1.67459E-001,-4.84582E-004,1.54807E+000,-3.99535E-001,4.38654E-002,1.59940E+000,5.61583E-003,5.65270E-001,0,2.40057E+001,-6.54649E+000,9.99532E-001,-1.96008E+001,-4.49874E+001,9.99288E-001,6.31499E-002,-2.65529E-002,-5.43613E-004,6.31532E-002,-2.65561E-002,-3.47204E-001,6.34187E-002,1.06519E+000,-8.86720E-005,0.00000E+000,-9.18966E-004,9.75532E-001,0.00000E+000,-1.03807E-003,-5.97289E-002,1.00000E+000,10
739,1347,-1.10507E+001,7.96823E-001,-1.20184E-002,1.54674E+000,-4.13237E-001,9.83237E-003,1.60102E+000,4.45034E-003,5.38213E-001,0,2.40837E+001,-6.68289E+000,9.99750E-001,-1.92683E+001,-4.52918E+001,9.99592E-001,6.27498E-002,-2.65566E-002,-6.25710E-004,6.27542E-002,-2.65610E-002,-4.01407E-001,6.30001E-002,1.06476E+000,-9.91741E-005,0.00000E+000,-1.02677E-003,9.75529E-001,0.00000E+000,-1.77237E-003,-5.97470E-002,1.00000E+000,10
739,1357,-1.10272E+001,1.43291E+000,1.65311E-002,1.54683E+000,-4.26591E-001,-2.37733E-002,1.60475E+000,4.72545E-003,5.41499E-001,0,2.41799E+001,-6.82560E+000,9.99676E-001,-1.86921E+001,-4.55679E+001,9.99559E-001,6.23462E-002,-2.65621E-002,-7.10678E-004,6.23519E-002,-2.65678E-002,-4.57948E-001,6.25785E-002,1.06433E+000,-1.14586E-004,0.00000E+000,-1.13533E-003,9.75525E-001,0.00000E+000,-2.51180E-003,-5.97737E-002,1.00000E+000,10
739,1327,-1.10773E+001,-4.55501E-001,3.80868E-002,1.54783E+000,-3.82114E-001,8.24503E-002,1.59643E+000,6.25780E-003,5.26881E-001,0,2.38876E+001,-6.34032E+000,9.99721E-001,-1.98194E+001,-4.46776E+001,9.99355E-001,6.35483E-002,-2.65501E-002,-4.63021E-004,6.35506E-002,-2.65525E-002,-2.94436E-001,6.38362E-002,1.06561E+000,-8.09327E-005,0.00000E+000,-8.11431E-004,9.75534E-001,0.00000E+000,-3.05631E-004,-5.97155E-002,1.00000E+000,10
1119,1297,1.54069E+001,-1.85977E+000,9.13161E-002,3.27754E+000,-7.40430E-002,5.53353E-002,3.27884E+000,6.50527E-003,4.23375E-001,0,4.93620E+001,-1.64798E+000,9.99764E-001,9.03688E+000,-3.30610E+001,9.99147E-001,6.43766E-002,-2.66817E-002,-1.27067E-003,6.43943E-002,-2.66994E-002,-7.99322E-001,6.47065E-002,1.06635E+000,-1.83785E-002,0.00000E+000,1.41048E-002,9.74903E-001,0.00000E+000,3.41063E-003,-5.23819E-002,1.00000E+000,10
1119,1307,1.54040E+001,-1.23609E+000,2.33019E-002,3.26664E+000,-9.32882E-002,2.05741E-002,3.26804E+000,5.32703E-003,4.36253E-001,0,4.93314E+001,-1.89854E+000,9.99739E-001,8.94647E+000,-3.32423E+001,9.99553E-001,6.49010E-002,-2.66780E-002,-1.19844E-003,6.49167E-002,-2.66937E-002,-7.49626E-001,6.52571E-002,1.06690E+000,-1.83715E-002,0.00000E+000,1.42686E-002,9.74905E-001,0.00000E+000,2.66107E-003,-5.23913E-002,1.00000E+000,10
1119,1317,1.54042E+001,-6.09648E-001,-3.11534E-002,3.25558E+000,-1.11509E-001,-1.36979E-002,3.25752E+000,5.68044E-003,4.24388E-001,0,4.92946E+001,-2.12436E+000,9.99517E-001,8.92784E+000,-3.34224E+001,9.99514E-001,6.54254E-002,-2.66737E-002,-1.12486E-003,6.54392E-002,-2.66874E-002,-6.99648E-001,6.58088E-002,1.06746E+000,-1.83619E-002,0.00000E+000,1.44327E-002,9.74908E-001,0.00000E+000,1.91015E-003,-5.24043E-002,1.00000E+000,10
1119,1327,1.54077E+001,2.01878E-002,-6.60544E-002,3.24299E+000,-1.29507E-001,-4.81015E-002,3.24593E+000,5.59304E-003,3.96716E-001,0,4.92329E+001,-2.33452E+000,9.99463E-001,8.99578E+000,-3.36012E+001,9.99289E-001,6.59508E-002,-2.66684E-002,-1.04917E-003,6.59627E-002,-2.66802E-002,-6.48920E-001,6.63628E-002,1.06802E+000,-1.83481E-002,0.00000E+000,1.45974E-002,9.74912E-001,0.00000E+000,1.15656E-003,-5.24228E-002,1.00000E+000,10
1119,1337,1.54168E+001,6.55284E-001,-7.67982E-002,3.23075E+000,-1.47096E-001,-7.96353E-002,3.23507E+000,5.60665E-003,4.50054E-001,0,4.91630E+001,-2.56027E+000,9.99734E-001,9.19395E+000,-3.37127E+001,9.99169E-001,6.64785E-002,-2.66620E-002,-9.71024E-004,6.64886E-002,-2.66721E-002,-5.97243E-001,6.69203E-002,1.06858E+000,-1.83299E-002,0.00000E+000,1.47631E-002,9.74917E-001,0.00000E+000,3.98437E-004,-5.24473E-002,1.00000E+000,10
1119,1347,1.54346E+001,1.29614E+000,-4.99806E-002,3.21907E+000,-1.62441E-001,-1.06724E-001,3.22493E+000,7.99760E-003,4.54614E-001,0,4.90801E+001,-2.76146E+000,9.99741E-001,9.59408E+000,-3.38449E+001,9.99124E-001,6.70068E-002,-2.66541E-002,-8.89544E-004,6.70153E-002,-2.66625E-002,-5.44101E-001,6.74798E-002,1.06915E+000,-1.83050E-002,0.00000E+000,1.49293E-002,9.74924E-001,0.00000E+000,-3.62065E-004,-5.24809E-002,1.00000E+000,10
739,1317,-1.10813E+001,-1.06873E+000,1.13917E-001,1.54891E+000,-3.61413E-001,1.23053E-001,1.59527E+000,7.82347E-003,5.68331E-001,0,2.37810E+001,-6.10732E+000,9.99654E-001,-1.98152E+001,-4.42579E+001,9.99127E-001,6.39430E-002,-2.65489E-002,-3.85063E-004,6.39446E-002,-2.65506E-002,-2.43800E-001,6.42503E-002,1.06603E+000,-7.75673E-005,0.00000E+000,-7.04698E-004,9.75535E-001,0.00000E+000,4.21348E-004,-5.97097E-002,1.00000E+000,10
1129,1297,1.61055E+001,-1.84446E+000,8.08201E-002,3.31798E+000,-6.24244E-002,5.51893E-002,3.31903E+000,8.44391E-003,4.20363E-001,0,4.99321E+001,-1.47820E+000,9.99804E-001,9.88508E+000,-3.27170E+001,9.98794E-001,6.43506E-002,-2.66035E-002,-1.38470E-003,6.43717E-002,-2.66245E-002,-8.72009E-001,6.46912E-002,1.06633E+000,-1.77149E-002,0.00000E+000,1.33104E-002,9.75011E-001,0.00000E+000,2.76545E-003,-5.27693E-002,1.00000E+000,10
1129,1307,1.61040E+001,-1.22394E+000,1.52127E-002,3.30819E+000,-8.49613E-002,2.21258E-002,3.30936E+000,1.21080E-002,4.23442E-001,0,4.99138E+001,-1.78133E+000,9.99756E-001,9.81941E+000,-3.29553E+001,9.97641E-001,6.49400E-002,-2.65984E-002,-1.28626E-003,6.49581E-002,-2.66164E-002,-8.04884E-001,6.53098E-002,1.06695E+000,-1.77068E-002,0.00000E+000,1.35233E-002,9.75014E-001,0.00000E+000,2.02759E-003,-5.27789E-002,1.00000E+000,10
1129,1317,1.61071E+001,-5.98175E-001,-3.69835E-002,3.29959E+000,-1.04281E-001,-1.14625E-002,3.30125E+000,7.16755E-003,4.04847E-001,0,4.99126E+001,-2.02325E+000,9.99775E-001,9.84990E+000,-3.31521E+001,9.97924E-001,6.55297E-002,-2.65923E-002,-1.18612E-003,6.55450E-002,-2.66076E-002,-7.37553E-001,6.59304E-002,1.06758E+000,-1.76955E-002,0.00000E+000,1.37366E-002,9.75018E-001,0.00000E+000,1.28810E-003,-5.27922E-002,1.00000E+000,10
729,1347,-1.17315E+001,7.88874E-001,-6.13682E-003,1.50887E+000,-4.16524E-001,9.49719E-003,1.56533E+000,4.06672E-003,5.51014E-001,0,2.35122E+001,-6.72968E+000,9.99849E-001,-1.96856E+001,-4.55191E+001,9.99729E-001,6.20367E-002,-2.63448E-002,-5.46265E-004,6.20401E-002,-2.63482E-002,-3.54113E-001,6.22742E-002,1.06400E+000,5.45242E-004,0.00000E+000,-1.46394E-003,9.75677E-001,0.00000E+000,-1.74827E-003,-5.87322E-002,1.00000E+000,10
729,1357,-1.17111E+001,1.42718E+000,1.71875E-002,1.50716E+000,-4.26719E-001,-2.32305E-002,1.56658E+000,4.38677E-003,5.52120E-001,0,2.35770E+001,-6.82085E+000,9.99744E-001,-1.91688E+001,-4.57529E+001,9.99709E-001,6.14691E-002,-2.63486E-002,-6.12599E-004,6.14734E-002,-2.63529E-002,-3.99658E-001,6.16814E-002,1.06340E+000,5.24823E-004,0.00000E+000,-1.52108E-003,9.75675E-001,0.00000E+000,-2.68949E-003,-5.87642E-002,1.00000E+000,10
1129,1327,1.61122E+001,3.39821E-002,-6.94220E-002,3.28900E+000,-1.19313E-001,-4.11924E-002,3.29142E+000,7.99433E-003,3.86606E-001,0,4.98633E+001,-2.21173E+000,9.99670E-001,9.94582E+000,-3.32938E+001,9.98911E-001,6.61198E-002,-2.65852E-002,-1.08409E-003,6.61324E-002,-2.65979E-002,-6.69893E-001,6.65529E-002,1.06821E+000,-1.76804E-002,0.00000E+000,1.39505E-002,9.75023E-001,0.00000E+000,5.46985E-004,-5.28100E-002,1.00000E+000,10
729,1337,-1.17505E+001,1.63277E-001,4.68943E-003,1.50684E+000,-3.97766E-001,4.90732E-002,1.55922E+000,5.07852E-003,5.67263E-001,0,2.33654E+001,-6.53016E+000,9.99705E-001,-2.00878E+001,-4.51594E+001,9.99404E-001,6.26007E-002,-2.63420E-002,-4.82428E-004,6.26033E-002,-2.63446E-002,-3.10762E-001,6.28644E-002,1.06460E+000,5.60963E-004,0.00000E+000,-1.40705E-003,9.75678E-001,0.00000E+000,-8.11215E-004,-5.87076E-002,1.00000E+000,10
729,1327,-1.17619E+001,-4.57574E-001,4.69937E-002,1.50613E+000,-3.80186E-001,8.67916E-002,1.55579E+000,5.85304E-003,5.54579E-001,0,2.32431E+001,-6.31580E+000,9.99638E-001,-2.02886E+001,-4.48104E+001,9.99186E-001,6.31596E-002,-2.63402E-002,-4.21700E-004,6.31616E-002,-2.63422E-002,-2.69955E-001,6.34506E-002,1.06520E+000,5.70922E-004,0.00000E+000,-1.35054E-003,9.75679E-001,0.00000E+000,1.19511E-004,-5.86921E-002,1.00000E+000,10
1129,1337,1.61282E+001,6.72881E-001,-6.43073E-002,3.27763E+000,-1.38043E-001,-8.04017E-002,3.28152E+000,7.35971E-003,4.73883E-001,0,4.98340E+001,-2.43580E+000,9.99689E-001,1.02775E+001,-3.33620E+001,9.99266E-001,6.67164E-002,-2.65748E-002,-9.75702E-004,6.67266E-002,-2.65850E-002,-5.99150E-001,6.71840E-002,1.06885E+000,-1.76543E-002,0.00000E+000,1.41671E-002,9.75032E-001,0.00000E+000,-2.03759E-004,-5.28408E-002,1.00000E+000,10
729,1317,-1.17689E+001,-1.07316E+000,1.13355E-001,1.50565E+000,-3.60322E-001,1.25516E-001,1.55325E+000,7.67172E-003,5.61630E-001,0,2.31196E+001,-6.08444E+000,9.99618E-001,-2.03546E+001,-4.44225E+001,9.98600E-001,6.37157E-002,-2.63391E-002,-3.63005E-004,6.37171E-002,-2.63406E-002,-2.30951E-001,6.40349E-002,1.06579E+000,5.76928E-004,0.00000E+000,-1.29420E-003,9.75680E-001,0.00000E+000,1.04749E-003,-5.86827E-002,1.00000E+000,10
1129,1347,1.61416E+001,1.31399E+000,-5.03661E-002,3.26424E+000,-1.51842E-001,-1.08765E-001,3.26958E+000,8.54223E-003,4.77869E-001,0,4.97316E+001,-2.60759E+000,9.99691E-001,1.05850E+001,-3.34614E+001,9.99014E-001,6.73097E-002,-2.65646E-002,-8.68014E-004,6.73177E-002,-2.65726E-002,-5.29729E-001,6.78132E-002,1.06948E+000,-1.76287E-002,0.00000E+000,1.43829E-002,9.75040E-001,0.00000E+000,-9.51486E-004,-5.28709E-002,1.00000E+000,10
719,1347,-1.24177E+001,7.86904E-001,-8.37553E-003,1.46656E+000,-4.12354E-001,8.75362E-003,1.52346E+000,6.99214E-003,5.75040E-001,0,2.28706E+001,-6.66982E+000,9.99629E-001,-2.02030E+001,-4.56320E+001,9.99410E-001,6.15481E-002,-2.62384E-002,-5.18638E-004,6.15511E-002,-2.62415E-002,-3.38485E-001,6.17734E-002,1.06348E+000,1.22607E-003,0.00000E+000,-2.04966E-003,9.75733E-001,0.00000E+000,-1.47725E-003,-5.79163E-002,1.00000E+000,10
719,1357,-1.23972E+001,1.42111E+000,1.50690E-002,1.46532E+000,-4.26933E-001,-2.30169E-002,1.52642E+000,5.12247E-003,5.81880E-001,0,2.29405E+001,-6.82454E+000,9.99685E-001,-1.96829E+001,-4.59279E+001,9.99653E-001,6.08374E-002,-2.62404E-002,-5.62260E-004,6.08411E-002,-2.62441E-002,-3.69937E-001,6.10319E-002,1.06273E+000,1.20093E-003,0.00000E+000,-2.04991E-003,9.75733E-001,0.00000E+000,-2.58722E-003,-5.79533E-002,1.00000E+000,10
719,1337,-1.24355E+001,1.60694E-001,5.00160E-003,1.46488E+000,-3.95422E-001,4.66233E-002,1.51803E+000,6.82878E-003,5.88570E-001,0,2.27353E+001,-6.48794E+000,9.99400E-001,-2.05797E+001,-4.52867E+001,9.99098E-001,6.22524E-002,-2.62369E-002,-4.78367E-004,6.22550E-002,-2.62395E-002,-3.09725E-001,6.25103E-002,1.06423E+000,1.24462E-003,0.00000E+000,-2.04941E-003,9.75733E-001,0.00000E+000,-3.74474E-004,-5.78889E-002,1.00000E+000,10
719,1327,-1.24465E+001,-4.59366E-001,5.00463E-002,1.46420E+000,-3.77593E-001,8.54269E-002,1.51451E+000,4.80057E-003,5.86172E-001,0,2.26108E+001,-6.27609E+000,9.99506E-001,-2.07668E+001,-4.49244E+001,9.99093E-001,6.29508E-002,-2.62360E-002,-4.41399E-004,6.29530E-002,-2.62382E-002,-2.83556E-001,6.32430E-002,1.06497E+000,1.25660E-003,0.00000E+000,-2.04916E-003,9.75733E-001,0.00000E+000,7.21776E-004,-5.78713E-002,1.00000E+000,10
719,1317,-1.24533E+001,-1.07535E+000,1.21363E-001,1.46262E+000,-3.58666E-001,1.23334E-001,1.51100E+000,6.91585E-003,5.58666E-001,0,2.24734E+001,-6.04758E+000,9.99509E-001,-2.08188E+001,-4.45685E+001,9.98587E-001,6.36458E-002,-2.62355E-002,-4.07233E-004,6.36476E-002,-2.62374E-002,-2.59588E-001,6.39736E-002,1.06572E+000,1.26281E-003,0.00000E+000,-2.04891E-003,9.75733E-001,0.00000E+000,1.81512E-003,-5.78621E-002,1.00000E+000,10
1139,1297,1.68146E+001,-1.83300E+000,8.66260E-002,3.36705E+000,-5.43183E-002,6.55056E-002,3.36813E+000,6.60704E-003,3.65839E-001,0,5.05920E+001,-1.37831E+000,9.99878E-001,1.09283E+001,-3.24920E+001,9.98773E-001,6.43512E-002,-2.66213E-002,-1.43055E-003,6.43737E-002,-2.66438E-002,-9.00683E-001,6.46911E-002,1.06634E+000,-1.70165E-002,0.00000E+000,1.26328E-002,9.75027E-001,0.00000E+000,1.78913E-003,-5.32285E-002,1.00000E+000,10
1139,1307,1.68107E+001,-1.21446E+000,7.88082E-003,3.35599E+000,-7.88893E-002,2.40439E-002,3.35700E+000,7.75729E-003,3.73138E-001,0,5.05888E+001,-1.68951E+000,9.99840E-001,1.08029E+001,-3.27295E+001,9.98690E-001,6.50225E-002,-2.66165E-002,-1.32908E-003,6.50418E-002,-2.66357E-002,-8.30753E-001,6.53958E-002,1.06705E+000,-1.70085E-002,0.00000E+000,1.28476E-002,9.75030E-001,0.00000E+000,1.11829E-003,-5.32360E-002,1.00000E+000,10
1139,1337,1.68324E+001,6.90864E-001,-6.69958E-002,3.32066E+000,-1.25988E-001,-8.10817E-002,3.32403E+000,8.46096E-003,4.87853E-001,0,5.04460E+001,-2.26609E+000,9.99618E-001,1.12268E+001,-3.29779E+001,9.98380E-001,6.70482E-002,-2.65920E-002,-1.00449E-003,6.70589E-002,-2.66027E-002,-6.14526E-001,6.75342E-002,1.06921E+000,-1.69461E-002,0.00000E+000,1.34978E-002,9.75048E-001,0.00000E+000,-9.12103E-004,-5.32946E-002,1.00000E+000,10
1139,1347,1.68536E+001,1.33057E+000,-3.81391E-002,3.31073E+000,-1.44346E-001,-1.11009E-001,3.31573E+000,8.52601E-003,4.86659E-001,0,5.04021E+001,-2.49529E+000,9.99564E-001,1.16785E+001,-3.31322E+001,9.98159E-001,6.77267E-002,-2.65804E-002,-8.89530E-004,6.77351E-002,-2.65887E-002,-5.40365E-001,6.82546E-002,1.06994E+000,-1.69122E-002,0.00000E+000,1.37162E-002,9.75059E-001,0.00000E+000,-1.59433E-003,-5.33264E-002,1.00000E+000,10
1139,1327,1.68185E+001,4.88758E-002,-7.51672E-002,3.33408E+000,-1.11884E-001,-4.57728E-002,3.33627E+000,8.60298E-003,4.40498E-001,0,5.05219E+001,-2.09924E+000,9.99670E-001,1.09240E+001,-3.29321E+001,9.98079E-001,6.63700E-002,-2.66025E-002,-1.11741E-003,6.63834E-002,-2.66159E-002,-6.88489E-001,6.68162E-002,1.06849E+000,-1.69759E-002,0.00000E+000,1.32798E-002,9.75039E-001,0.00000E+000,-2.31262E-004,-5.32666E-002,1.00000E+000,10
1139,1317,1.68085E+001,-5.87013E-001,-5.22467E-002,3.34302E+000,-9.68414E-002,-1.30220E-002,3.34445E+000,9.08462E-003,4.13900E-001,0,5.05358E+001,-1.92079E+000,9.99804E-001,1.07358E+001,-3.28522E+001,9.98338E-001,6.56946E-002,-2.66106E-002,-1.22560E-003,6.57109E-002,-2.66269E-002,-7.60579E-001,6.61033E-002,1.06777E+000,-1.69966E-002,0.00000E+000,1.30630E-002,9.75033E-001,0.00000E+000,4.45673E-004,-5.32472E-002,1.00000E+000,10
709,1347,-1.31065E+001,7.84993E-001,-9.65882E-003,1.42143E+000,-4.08041E-001,9.32548E-003,1.47887E+000,6.35073E-003,5.68857E-001,0,2.21805E+001,-6.59562E+000,9.99578E-001,-2.07514E+001,-4.57618E+001,9.99416E-001,6.10855E-002,-2.58320E-002,-5.35831E-004,6.10888E-002,-2.58353E-002,-3.53201E-001,6.13303E-002,1.06299E+000,2.02968E-003,0.00000E+000,-2.83065E-003,9.76082E-001,0.00000E+000,-1.30839E-003,-5.71006E-002,1.00000E+000,10
709,1357,-1.30848E+001,1.41755E+000,9.98073E-003,1.42215E+000,-4.22713E-001,-2.32123E-002,1.48382E+000,4.89574E-003,5.61727E-001,0,2.22826E+001,-6.75703E+000,9.99711E-001,-2.02218E+001,-4.60832E+001,9.99753E-001,6.02911E-002,-2.58340E-002,-5.80376E-004,6.02950E-002,-2.58379E-002,-3.86079E-001,6.05000E-002,1.06215E+000,2.00257E-003,0.00000E+000,-2.83203E-003,9.76082E-001,0.00000E+000,-2.42582E-003,-5.71366E-002,1.00000E+000,10
709,1337,-1.31187E+001,1.57523E-001,1.17096E-002,1.42367E+000,-3.93696E-001,4.71821E-002,1.47785E+000,5.91504E-003,5.71748E-001,0,2.21070E+001,-6.45028E+000,9.99501E-001,-2.10230E+001,-4.54559E+001,9.99152E-001,6.18734E-002,-2.58307E-002,-4.95491E-004,6.18762E-002,-2.58335E-002,-3.23683E-001,6.21563E-002,1.06383E+000,2.04834E-003,0.00000E+000,-2.82928E-003,9.76082E-001,0.00000E+000,-1.97399E-004,-5.70758E-002,1.00000E+000,10
709,1317,-1.31338E+001,-1.07502E+000,1.37805E-001,1.42240E+000,-3.55447E-001,1.25073E-001,1.47147E+000,7.58263E-003,5.77498E-001,0,2.18580E+001,-6.00181E+000,9.99668E-001,-2.11936E+001,-4.46826E+001,9.99058E-001,6.34326E-002,-2.58296E-002,-4.24339E-004,6.34346E-002,-2.58316E-002,-2.72367E-001,6.37977E-002,1.06549E+000,2.06644E-003,0.00000E+000,-2.82656E-003,9.76082E-001,0.00000E+000,2.00902E-003,-5.70518E-002,1.00000E+000,10
709,1327,-1.31260E+001,-4.59665E-001,6.90845E-002,1.42445E+000,-3.74605E-001,8.70200E-002,1.47545E+000,7.61259E-003,5.89011E-001,0,2.20022E+001,-6.23469E+000,9.99699E-001,-2.11208E+001,-4.50637E+001,9.99203E-001,6.26546E-002,-2.58301E-002,-4.59157E-004,6.26570E-002,-2.58324E-002,-2.97304E-001,6.29776E-002,1.06466E+000,2.05893E-003,0.00000E+000,-2.82792E-003,9.76082E-001,0.00000E+000,9.06795E-004,-5.70617E-002,1.00000E+000,10
1149,1297,1.75155E+001,-1.82170E+000,7.12518E-002,3.40928E+000,-4.77603E-002,6.25901E-002,3.41019E+000,1.32599E-002,3.92250E-001,0,5.11994E+001,-1.27525E+000,9.99713E-001,1.18093E+001,-3.21850E+001,9.97287E-001,6.43981E-002,-2.66473E-002,-1.46187E-003,6.44216E-002,-2.66707E-002,-9.19652E-001,6.47384E-002,1.06640E+000,-1.63294E-002,0.00000E+000,1.20075E-002,9.75037E-001,0.00000E+000,5.53713E-004,-5.37266E-002,1.00000E+000,10
1149,1307,1.75175E+001,-1.19630E+000,6.39702E-003,3.40286E+000,-6.54652E-002,3.00075E-002,3.40363E+000,8.54399E-003,3.92263E-001,0,5.12298E+001,-1.51145E+000,9.99766E-001,1.18008E+001,-3.23470E+001,9.98423E-001,6.51454E-002,-2.66433E-002,-1.37816E-003,6.51661E-002,-2.66640E-002,-8.60008E-001,6.55236E-002,1.06719E+000,-1.63189E-002,0.00000E+000,1.21779E-002,9.75039E-001,0.00000E+000,1.83870E-005,-5.37337E-002,1.00000E+000,10
1149,1317,1.75192E+001,-5.68694E-001,-4.48860E-002,3.39156E+000,-8.49907E-002,-6.85632E-003,3.39263E+000,7.29313E-003,4.20030E-001,0,5.12016E+001,-1.75741E+000,9.99775E-001,1.18095E+001,-3.24910E+001,9.98468E-001,6.58956E-002,-2.66383E-002,-1.29154E-003,6.59137E-002,-2.66563E-002,-7.99498E-001,6.63140E-002,1.06799E+000,-1.63029E-002,0.00000E+000,1.23492E-002,9.75042E-001,0.00000E+000,-5.19683E-004,-5.37444E-002,1.00000E+000,10
1149,1327,1.75242E+001,6.44939E-002,-8.05286E-002,3.37914E+000,-9.98425E-002,-4.58494E-002,3.38093E+000,7.43126E-003,3.85124E-001,0,5.11609E+001,-1.92237E+000,9.99688E-001,1.18971E+001,-3.26149E+001,9.98228E-001,6.66451E-002,-2.66322E-002,-1.20247E-003,6.66606E-002,-2.66477E-002,-7.38455E-001,6.71057E-002,1.06879E+000,-1.62816E-002,0.00000E+000,1.25206E-002,9.75047E-001,0.00000E+000,-1.05790E-003,-5.37587E-002,1.00000E+000,10
1149,1337,1.75371E+001,7.02340E-001,-8.18680E-002,3.36620E+000,-1.19436E-001,-8.39647E-002,3.36936E+000,1.13499E-002,4.75178E-001,0,5.11066E+001,-2.15681E+000,9.99746E-001,1.21663E+001,-3.26809E+001,9.98548E-001,6.74029E-002,-2.66243E-002,-1.10769E-003,6.74159E-002,-2.66374E-002,-6.74848E-001,6.79085E-002,1.06960E+000,-1.62501E-002,0.00000E+000,1.26941E-002,9.75054E-001,0.00000E+000,-1.60281E-003,-5.37799E-002,1.00000E+000,10
1149,1347,1.75646E+001,1.34689E+000,-3.34568E-002,3.35847E+000,-1.36088E-001,-1.09440E-001,3.36301E+000,1.11313E-002,4.76877E-001,0,5.10769E+001,-2.36120E+000,9.99709E-001,1.27460E+001,-3.27999E+001,9.98477E-001,6.81622E-002,-2.66143E-002,-1.00751E-003,6.81729E-002,-2.66250E-002,-6.08982E-001,6.87152E-002,1.07042E+000,-1.62074E-002,0.00000E+000,1.28682E-002,9.75063E-001,0.00000E+000,-2.14958E-003,-5.38086E-002,1.00000E+000,10
699,1347,-1.37847E+001,7.83248E-001,2.14110E-003,1.38493E+000,-4.06021E-001,1.52412E-002,1.44330E+000,5.76264E-003,5.88012E-001,0,2.16085E+001,-6.56304E+000,9.99766E-001,-2.10995E+001,-4.59036E+001,9.99624E-001,6.05418E-002,-2.53806E-002,-4.93513E-004,6.05447E-002,-2.53834E-002,-3.29076E-001,6.08073E-002,1.06241E+000,2.94331E-003,0.00000E+000,-3.59832E-003,9.76470E-001,0.00000E+000,-1.13144E-003,-5.61836E-002,1.00000E+000,10
699,1357,-1.37648E+001,1.41260E+000,1.76879E-002,1.38437E+000,-4.23421E-001,-1.96531E-002,1.44781E+000,5.25927E-003,5.76209E-001,0,2.16979E+001,-6.75940E+000,9.99741E-001,-2.06071E+001,-4.62699E+001,9.99651E-001,5.96624E-002,-2.53796E-002,-4.88085E-004,5.96652E-002,-2.53824E-002,-3.28826E-001,5.98861E-002,1.06148E+000,2.91405E-003,0.00000E+000,-3.50623E-003,9.76473E-001,0.00000E+000,-2.17259E-003,-5.62163E-002,1.00000E+000,10
699,1337,-1.38027E+001,1.52205E-001,1.76781E-002,1.38150E+000,-3.94089E-001,4.82889E-002,1.43742E+000,5.03368E-003,5.48122E-001,0,2.14623E+001,-6.44112E+000,9.99686E-001,-2.14765E+001,-4.56602E+001,9.99437E-001,6.14164E-002,-2.53813E-002,-5.02918E-004,6.14193E-002,-2.53842E-002,-3.31965E-001,6.17264E-002,1.06334E+000,2.96407E-003,0.00000E+000,-3.69009E-003,9.76468E-001,0.00000E+000,-9.38720E-005,-5.61604E-002,1.00000E+000,10
699,1317,-1.38166E+001,-1.07367E+000,1.51483E-001,1.37901E+000,-3.52255E-001,1.21841E-001,1.42850E+000,8.47984E-003,6.23511E-001,0,2.12066E+001,-5.94744E+000,9.99683E-001,-2.16074E+001,-4.47619E+001,9.98974E-001,6.31413E-002,-2.53817E-002,-5.33030E-004,6.31445E-002,-2.53849E-002,-3.44983E-001,6.35474E-002,1.06518E+000,2.98072E-003,0.00000E+000,-3.87167E-003,9.76466E-001,0.00000E+000,1.95908E-003,-5.61418E-002,1.00000E+000,10
699,1327,-1.38112E+001,-4.58769E-001,7.22105E-002,1.38039E+000,-3.71876E-001,8.23606E-002,1.43198E+000,7.35293E-003,6.71116E-001,0,2.13443E+001,-6.17900E+000,9.99650E-001,-2.16001E+001,-4.51118E+001,9.98239E-001,6.22782E-002,-2.53815E-002,-5.16797E-004,6.22813E-002,-2.53846E-002,-3.37771E-001,6.26349E-002,1.06425E+000,2.97483E-003,0.00000E+000,-3.78072E-003,9.76467E-001,0.00000E+000,9.30789E-004,-5.61484E-002,1.00000E+000,10
1159,1307,1.82180E+001,-1.18604E+000,-1.06233E-002,3.44423E+000,-5.93029E-002,2.53154E-002,3.44484E+000,7.74115E-003,3.77760E-001,0,5.18313E+001,-1.40436E+000,9.99393E-001,1.26781E+001,-3.20715E+001,9.98467E-001,6.53783E-002,-2.67891E-002,-1.37090E-003,6.53987E-002,-2.68095E-002,-8.51965E-001,6.57514E-002,1.06745E+000,-1.56498E-002,0.00000E+000,1.16357E-002,9.74932E-001,0.00000E+000,-1.09332E-003,-5.42681E-002,1.00000E+000,10
1159,1317,1.82231E+001,-5.54593E-001,-5.88154E-002,3.43620E+000,-7.58195E-002,-8.55418E-003,3.43705E+000,7.37489E-003,4.23093E-001,0,5.18404E+001,-1.61060E+000,9.99560E-001,1.27449E+001,-3.21515E+001,9.99174E-001,6.61822E-002,-2.67872E-002,-1.33010E-003,6.62012E-002,-2.68063E-002,-8.19501E-001,6.65990E-002,1.06831E+000,-1.56325E-002,0.00000E+000,1.17146E-002,9.74934E-001,0.00000E+000,-1.59751E-003,-5.42783E-002,1.00000E+000,10
1159,1327,1.82337E+001,7.83270E-002,-8.14711E-002,3.42692E+000,-9.36546E-002,-4.39151E-002,3.42848E+000,5.52932E-003,4.13346E-001,0,5.18337E+001,-1.82510E+000,9.99799E-001,1.29410E+001,-3.22928E+001,9.99191E-001,6.69872E-002,-2.67848E-002,-1.28518E-003,6.70048E-002,-2.68025E-002,-7.85060E-001,6.74500E-002,1.06917E+000,-1.56064E-002,0.00000E+000,1.17937E-002,9.74936E-001,0.00000E+000,-2.10304E-003,-5.42936E-002,1.00000E+000,10
1159,1297,1.82167E+001,-1.81013E+000,5.36794E-002,3.45217E+000,-4.03446E-002,6.03655E-002,3.45294E+000,9.46164E-003,4.28279E-001,0,5.18134E+001,-1.16848E+000,9.99519E-001,1.26966E+001,-3.18645E+001,9.96548E-001,6.45788E-002,-2.67906E-002,-1.40918E-003,6.46006E-002,-2.68123E-002,-8.83385E-001,6.49106E-002,1.06660E+000,-1.56621E-002,0.00000E+000,1.15573E-002,9.74931E-001,0.00000E+000,-5.92494E-004,-5.42609E-002,1.00000E+000,10
1159,1337,1.82557E+001,7.17002E-001,-6.67608E-002,3.41935E+000,-1.12908E-001,-7.98725E-002,3.42215E+000,8.33626E-003,4.53217E-001,0,5.18511E+001,-2.06261E+000,9.99863E-001,1.33761E+001,-3.24040E+001,9.99567E-001,6.77982E-002,-2.67816E-002,-1.23422E-003,6.78143E-002,-2.67977E-002,-7.47510E-001,6.83094E-002,1.07004E+000,-1.55678E-002,0.00000E+000,1.18735E-002,9.74940E-001,0.00000E+000,-2.61298E-003,-5.43162E-002,1.00000E+000,10
1159,1347,1.82767E+001,1.36036E+000,-3.61791E-002,3.40766E+000,-1.27915E-001,-1.12368E-001,3.41191E+000,8.52203E-003,4.35740E-001,0,5.17898E+001,-2.23941E+000,9.99729E-001,1.38220E+001,-3.25109E+001,9.99259E-001,6.86081E-002,-2.67782E-002,-1.18147E-003,6.86228E-002,-2.67928E-002,-7.09527E-001,6.91697E-002,1.07091E+000,-1.55253E-002,0.00000E+000,1.19533E-002,9.74944E-001,0.00000E+000,-3.12288E-003,-5.43412E-002,1.00000E+000,10
689,1347,-1.44655E+001,7.78596E-001,6.03237E-003,1.34504E+000,-4.07021E-001,1.07482E-002,1.40532E+000,6.53599E-003,6.05710E-001,0,2.10137E+001,-6.55703E+000,9.99826E-001,-2.15042E+001,-4.60741E+001,9.99140E-001,5.99843E-002,-2.51546E-002,-4.86802E-004,5.99871E-002,-2.51574E-002,-3.27588E-001,6.02464E-002,1.06181E+000,3.87766E-003,0.00000E+000,-4.44603E-003,9.76641E-001,0.00000E+000,-1.11896E-003,-5.53312E-002,1.00000E+000,10
689,1357,-1.44478E+001,1.40608E+000,1.22307E-002,1.34468E+000,-4.23796E-001,-2.17348E-002,1.41005E+000,6.01447E-003,5.74162E-001,0,2.10991E+001,-6.74747E+000,9.99717E-001,-2.10687E+001,-4.64604E+001,9.99592E-001,5.90126E-002,-2.51541E-002,-4.89220E-004,5.90155E-002,-2.51570E-002,-3.33017E-001,5.92289E-002,1.06078E+000,3.84891E-003,0.00000E+000,-4.37707E-003,9.76643E-001,0.00000E+000,-2.05933E-003,-5.53575E-002,1.00000E+000,10
689,1337,-1.44828E+001,1.53743E-001,2.42840E-002,1.34311E+000,-3.87482E-001,5.18163E-002,1.39884E+000,6.57878E-003,5.90173E-001,0,2.08666E+001,-6.36024E+000,9.99732E-001,-2.18636E+001,-4.57273E+001,9.99588E-001,6.09554E-002,-2.51549E-002,-4.86517E-004,6.09582E-002,-2.51577E-002,-3.23703E-001,6.12671E-002,1.06284E+000,3.90201E-003,0.00000E+000,-4.51508E-003,9.76639E-001,0.00000E+000,-1.77246E-004,-5.53090E-002,1.00000E+000,10
1169,1327,1.89384E+001,9.13596E-002,-9.00492E-002,3.46992E+000,-8.62554E-002,-4.74764E-002,3.47132E+000,5.26241E-003,4.33412E-001,0,5.24545E+001,-1.71896E+000,9.99885E-001,1.38997E+001,-3.19713E+001,9.99423E-001,6.72883E-002,-2.69342E-002,-1.24425E-003,6.73048E-002,-2.69506E-002,-7.56443E-001,6.77482E-002,1.06951E+000,-1.48219E-002,0.00000E+000,1.12118E-002,9.74812E-001,0.00000E+000,-3.17662E-003,-5.45544E-002,1.00000E+000,10
1169,1337,1.89632E+001,7.32941E-001,-6.56663E-002,3.46311E+000,-1.02925E-001,-8.11916E-002,3.46559E+000,7.37164E-003,4.33114E-001,0,5.24734E+001,-1.91748E+000,9.99887E-001,1.43931E+001,-3.20769E+001,9.99444E-001,6.81223E-002,-2.69347E-002,-1.22336E-003,6.81380E-002,-2.69504E-002,-7.37219E-001,6.86320E-002,1.07040E+000,-1.47795E-002,0.00000E+000,1.12244E-002,9.74812E-001,0.00000E+000,-3.58442E-003,-5.45738E-002,1.00000E+000,10
1169,1347,1.89891E+001,1.37534E+000,-3.14041E-002,3.45424E+000,-1.20547E-001,-1.17494E-001,3.45834E+000,6.74090E-003,4.28794E-001,0,5.24701E+001,-2.12845E+000,9.99719E-001,1.49196E+001,-3.21983E+001,9.99367E-001,6.89570E-002,-2.69352E-002,-1.20056E-003,6.89720E-002,-2.69502E-002,-7.17187E-001,6.95187E-002,1.07130E+000,-1.47328E-002,0.00000E+000,1.12370E-002,9.74813E-001,0.00000E+000,-3.99303E-003,-5.45951E-002,1.00000E+000,10
689,1327,-1.44986E+001,-4.65021E-001,6.12093E-002,1.33695E+000,-3.70171E-001,8.05432E-002,1.38958E+000,7.59226E-003,6.41151E-001,0,2.06879E+001,-6.14658E+000,9.99574E-001,-2.21479E+001,-4.52959E+001,9.98901E-001,6.19145E-002,-2.51551E-002,-4.90361E-004,6.19173E-002,-2.51579E-002,-3.22666E-001,6.22786E-002,1.06386E+000,3.91736E-003,0.00000E+000,-4.58341E-003,9.76638E-001,0.00000E+000,7.54530E-004,-5.52950E-002,1.00000E+000,10
1169,1317,1.89263E+001,-5.46198E-001,-7.03838E-002,3.47749E+000,-7.06693E-002,-1.69034E-002,3.47825E+000,8.68150E-003,3.56974E-001,0,5.24540E+001,-1.52258E+000,9.99726E-001,1.36771E+001,-3.19403E+001,9.99456E-001,6.64576E-002,-2.69338E-002,-1.25779E-003,6.64745E-002,-2.69508E-002,-7.71468E-001,6.68697E-002,1.06862E+000,-1.48485E-002,0.00000E+000,1.11993E-002,9.74811E-001,0.00000E+000,-2.77089E-003,-5.45423E-002,1.00000E+000,10
1169,1307,1.89207E+001,-1.17587E+000,-2.76443E-002,3.48646E+000,-5.49358E-002,1.73752E-002,3.48694E+000,7.77683E-003,4.23658E-001,0,5.24576E+001,-1.32910E+000,9.99694E-001,1.35928E+001,-3.17670E+001,9.99153E-001,6.56348E-002,-2.69336E-002,-1.26820E-003,6.56522E-002,-2.69509E-002,-7.84763E-001,6.60018E-002,1.06774E+000,-1.48683E-002,0.00000E+000,1.11869E-002,9.74811E-001,0.00000E+000,-2.36951E-003,-5.45333E-002,1.00000E+000,10
1169,1297,1.89224E+001,-1.79881E+000,4.65955E-002,3.49662E+000,-3.37755E-002,5.86142E-002,3.49728E+000,8.05905E-003,4.51042E-001,0,5.24470E+001,-1.08220E+000,9.99716E-001,1.36757E+001,-3.15764E+001,9.97567E-001,6.48116E-002,-2.69334E-002,-1.27481E-003,6.48293E-002,-2.69511E-002,-7.95926E-001,6.51355E-002,1.06686E+000,-1.48799E-002,0.00000E+000,1.11745E-002,9.74811E-001,0.00000E+000,-1.96837E-003,-5.45280E-002,1.00000E+000,10
689,1317,-1.45050E+001,-1.07867E+000,1.40252E-001,1.33443E+000,-3.51107E-001,1.19095E-001,1.38498E+000,8.10909E-003,6.14783E-001,0,2.05362E+001,-5.90937E+000,9.99565E-001,-2.21696E+001,-4.49142E+001,9.98608E-001,6.28692E-002,-2.51552E-002,-4.98480E-004,6.28720E-002,-2.51580E-002,-3.24451E-001,6.32885E-002,1.06488E+000,3.92354E-003,0.00000E+000,-4.65154E-003,9.76638E-001,0.00000E+000,1.68371E-003,-5.52893E-002,1.00000E+000,10
679,1347,-1.51515E+001,7.71600E-001,1.88343E-003,1.30146E+000,-4.05586E-001,8.12656E-003,1.36322E+000,1.13188E-002,5.85289E-001,0,2.03547E+001,-6.54948E+000,9.99523E-001,-2.20063E+001,-4.62830E+001,9.98761E-001,5.94309E-002,-2.49540E-002,-5.29044E-004,5.94342E-002,-2.49573E-002,-3.59193E-001,5.96878E-002,1.06122E+000,4.83302E-003,0.00000E+000,-5.40468E-003,9.76789E-001,0.00000E+000,-1.20271E-003,-5.45367E-002,1.00000E+000,10
679,1357,-1.51289E+001,1.40187E+000,1.05476E-002,1.30752E+000,-4.20683E-001,-1.36919E-002,1.37359E+000,4.64347E-003,5.88430E-001,0,2.05094E+001,-6.71682E+000,9.99726E-001,-2.14882E+001,-4.66156E+001,9.99582E-001,5.83245E-002,-2.49555E-002,-5.77838E-004,5.83285E-002,-2.49595E-002,-3.97521E-001,5.85303E-002,1.06005E+000,4.80319E-003,0.00000E+000,-5.43193E-003,9.76788E-001,0.00000E+000,-2.05869E-003,-5.45585E-002,1.00000E+000,10
1179,1297,1.96215E+001,-1.79091E+000,2.34767E-002,3.53867E+000,-2.82685E-002,5.89511E-002,3.53927E+000,1.40692E-002,4.87252E-001,0,5.30378E+001,-1.02034E+000,9.99828E-001,1.45299E+001,-3.13014E+001,9.97693E-001,6.50188E-002,-2.70404E-002,-1.17766E-003,6.50339E-002,-2.70555E-002,-7.32789E-001,6.53389E-002,1.06709E+000,-1.41633E-002,0.00000E+000,1.07811E-002,9.74729E-001,0.00000E+000,-3.34574E-003,-5.48591E-002,1.00000E+000,10
1179,1307,1.96258E+001,-1.16802E+000,-3.82735E-002,3.53198E+000,-4.87917E-002,2.03148E-002,3.53237E+000,5.81996E-003,3.65296E-001,0,5.30901E+001,-1.25223E+000,9.99845E-001,1.45615E+001,-3.15641E+001,9.98969E-001,6.58351E-002,-2.70405E-002,-1.16656E-003,6.58497E-002,-2.70551E-002,-7.19513E-001,6.61976E-002,1.06796E+000,-1.41484E-002,0.00000E+000,1.07932E-002,9.74729E-001,0.00000E+000,-3.61832E-003,-5.48637E-002,1.00000E+000,10
1179,1317,1.96298E+001,-5.37598E-001,-9.84933E-002,3.52595E+000,-6.28462E-002,-1.27595E-002,3.52654E+000,1.36177E-002,3.44774E-001,0,5.31284E+001,-1.42262E+000,9.99853E-001,1.45905E+001,-3.16631E+001,9.99131E-001,6.66522E-002,-2.70405E-002,-1.15610E-003,6.66664E-002,-2.70548E-002,-7.06844E-001,6.70595E-002,1.06884E+000,-1.41348E-002,0.00000E+000,1.08052E-002,9.74729E-001,0.00000E+000,-3.89141E-003,-5.48680E-002,1.00000E+000,10
1179,1337,1.96722E+001,7.43222E-001,-7.59039E-002,3.50849E+000,-9.79614E-002,-9.14537E-002,3.51105E+000,6.38344E-003,4.11668E-001,0,5.31561E+001,-1.83402E+000,9.99835E-001,1.54178E+001,-3.18131E+001,9.98939E-001,6.83105E-002,-2.70407E-002,-1.11052E-003,6.83234E-002,-2.70536E-002,-6.67183E-001,6.88146E-002,1.07061E+000,-1.40548E-002,0.00000E+000,1.08298E-002,9.74730E-001,0.00000E+000,-4.44661E-003,-5.48930E-002,1.00000E+000,10
1179,1347,1.97042E+001,1.39042E+000,-3.18947E-002,3.50304E+000,-1.13634E-001,-1.27353E-001,3.50719E+000,6.32601E-003,4.36922E-001,0,5.32013E+001,-2.01225E+000,9.99820E-001,1.60525E+001,-3.18646E+001,9.99315E-001,6.91432E-002,-2.70408E-002,-1.08317E-003,6.91554E-002,-2.70530E-002,-6.45121E-001,6.96991E-002,1.07151E+000,-1.40049E-002,0.00000E+000,1.08421E-002,9.74731E-001,0.00000E+000,-4.72583E-003,-5.49086E-002,1.00000E+000,10
679,1327,-1.51815E+001,-4.69143E-001,6.58936E-002,1.29553E+000,-3.68541E-001,8.32510E-002,1.34950E+000,8.57645E-003,6.01583E-001,0,2.00490E+001,-6.11158E+000,9.99495E-001,-2.25792E+001,-4.54852E+001,9.98739E-001,6.16199E-002,-2.49519E-002,-4.39749E-004,6.16221E-002,-2.49542E-002,-2.91029E-001,6.19921E-002,1.06355E+000,4.87647E-003,0.00000E+000,-5.35062E-003,9.76790E-001,0.00000E+000,4.95433E-004,-5.45049E-002,1.00000E+000,10
679,1337,-1.51684E+001,1.50081E-001,2.05160E-002,1.29999E+000,-3.85383E-001,5.09328E-002,1.35686E+000,8.67047E-003,6.03505E-001,0,2.02108E+001,-6.32227E+000,9.99614E-001,-2.23586E+001,-4.58671E+001,9.99447E-001,6.05296E-002,-2.49526E-002,-4.81461E-004,6.05323E-002,-2.49553E-002,-3.22694E-001,6.08421E-002,1.06239E+000,4.86075E-003,0.00000E+000,-5.37757E-003,9.76790E-001,0.00000E+000,-3.51143E-004,-5.45164E-002,1.00000E+000,10
1179,1327,1.96465E+001,1.00268E-001,-1.01673E-001,3.51682E+000,-8.00460E-002,-5.06130E-002,3.51810E+000,9.78381E-003,3.83613E-001,0,5.31322E+001,-1.63568E+000,9.99827E-001,1.49105E+001,-3.17417E+001,9.98385E-001,6.74788E-002,-2.70406E-002,-1.13583E-003,6.74925E-002,-2.70543E-002,-6.88384E-001,6.79334E-002,1.06972E+000,-1.41003E-002,0.00000E+000,1.08175E-002,9.74730E-001,0.00000E+000,-4.16803E-003,-5.48788E-002,1.00000E+000,10
679,1317,-1.51886E+001,-1.08235E+000,1.39621E-001,1.29229E+000,-3.49320E-001,1.17149E-001,1.34379E+000,7.57018E-003,6.21230E-001,0,1.98998E+001,-5.88240E+000,9.99670E-001,-2.26276E+001,-4.50606E+001,9.98453E-001,6.27044E-002,-2.49518E-002,-4.02204E-004,6.27062E-002,-2.49537E-002,-2.62890E-001,6.31401E-002,1.06470E+000,4.88360E-003,0.00000E+000,-5.32377E-003,9.76790E-001,0.00000E+000,1.33899E-003,-5.44997E-002,1.00000E+000,10
669,1327,-1.58618E+001,-4.76159E-001,6.34245E-002,1.25710E+000,-3.68749E-001,8.27728E-002,1.31268E+000,8.10577E-003,5.68723E-001,0,1.94653E+001,-6.10995E+000,9.99793E-001,-2.29861E+001,-4.57001E+001,9.98880E-001,6.12493E-002,-2.47712E-002,-3.09401E-004,6.12504E-002,-2.47723E-002,-2.06080E-001,6.16221E-002,1.06315E+000,6.16230E-003,0.00000E+000,-6.27217E-003,9.76916E-001,0.00000E+000,4.11676E-004,-5.36414E-002,1.00000E+000,10
669,1337,-1.58499E+001,1.46416E-001,1.88922E-002,1.25988E+000,-3.84202E-001,4.89793E-002,1.31807E+000,5.56645E-003,6.03811E-001,0,1.96040E+001,-6.28323E+000,9.99724E-001,-2.27822E+001,-4.60177E+001,9.99496E-001,6.00157E-002,-2.47725E-002,-3.98180E-004,6.00175E-002,-2.47744E-002,-2.69063E-001,6.03211E-002,1.06184E+000,6.14384E-003,0.00000E+000,-6.38977E-003,9.76914E-001,0.00000E+000,-4.64873E-004,-5.36537E-002,1.00000E+000,10
669,1347,-1.58343E+001,7.68402E-001,-3.71090E-003,1.26362E+000,-4.01156E-001,2.06071E-002,1.32592E+000,4.81592E-003,5.85713E-001,0,1.97421E+001,-6.49056E+000,9.99736E-001,-2.24576E+001,-4.64195E+001,9.99417E-001,5.87797E-002,-2.47746E-002,-4.89747E-004,5.87826E-002,-2.47775E-002,-3.35819E-001,5.90235E-002,1.06053E+000,6.11952E-003,0.00000E+000,-6.50739E-003,9.76912E-001,0.00000E+000,-1.34148E-003,-5.36700E-002,1.00000E+000,10
669,1357,-1.58104E+001,1.40067E+000,1.13698E-002,1.26805E+000,-4.14296E-001,-1.20364E-002,1.33406E+000,4.99208E-003,5.72961E-001,0,1.98998E+001,-6.62975E+000,9.99660E-001,-2.19003E+001,-4.67450E+001,9.99512E-001,5.75330E-002,-2.47786E-002,-5.89033E-004,5.75373E-002,-2.47828E-002,-4.09988E-001,5.77210E-002,1.05921E+000,6.08006E-003,0.00000E+000,-6.62579E-003,9.76908E-001,0.00000E+000,-2.22392E-003,-5.36964E-002,1.00000E+000,10
1189,1337,2.03835E+001,7.55620E-001,-8.53644E-002,3.55522E+000,-9.31310E-002,-1.02623E-001,3.55792E+000,8.98792E-003,4.32572E-001,0,5.38618E+001,-1.74142E+000,9.99824E-001,1.64841E+001,-3.14969E+001,9.99020E-001,6.83517E-002,-2.71457E-002,-9.94531E-004,6.83620E-002,-2.71560E-002,-5.96605E-001,6.88416E-002,1.07067E+000,-1.33899E-002,0.00000E+000,1.04732E-002,9.74626E-001,0.00000E+000,-4.87583E-003,-5.47892E-002,1.00000E+000,10
669,1317,-1.58677E+001,-1.08612E+000,1.47094E-001,1.25378E+000,-3.46752E-001,1.19792E-001,1.30635E+000,1.03946E-002,5.81439E-001,0,1.93057E+001,-5.85195E+000,9.99816E-001,-2.29878E+001,-4.52484E+001,9.98539E-001,6.24724E-002,-2.47715E-002,-2.27255E-004,6.24730E-002,-2.47721E-002,-1.49244E-001,6.29174E-002,1.06445E+000,6.16778E-003,0.00000E+000,-6.15533E-003,9.76916E-001,0.00000E+000,1.28249E-003,-5.36377E-002,1.00000E+000,10
1189,1297,2.03363E+001,-1.77912E+000,4.07213E-002,3.58571E+000,-2.26450E-002,5.96324E-002,3.58628E+000,1.08770E-002,4.37512E-001,0,5.36964E+001,-9.44352E-001,9.99784E-001,1.56978E+001,-3.10934E+001,9.96996E-001,6.52764E-002,-2.71385E-002,-9.70680E-004,6.52866E-002,-2.71487E-002,-6.01718E-001,6.55942E-002,1.06738E+000,-1.34873E-002,0.00000E+000,1.06386E-002,9.74631E-001,0.00000E+000,-4.73600E-003,-5.47851E-002,1.00000E+000,10
1189,1307,2.03321E+001,-1.15567E+000,-4.44001E-002,3.57495E+000,-4.32767E-002,1.56270E-002,3.57525E+000,6.79261E-003,4.26708E-001,0,5.37118E+001,-1.17566E+000,9.99696E-001,1.55584E+001,-3.12414E+001,9.98746E-001,6.60400E-002,-2.71394E-002,-9.83921E-004,6.60503E-002,-2.71498E-002,-6.04921E-001,6.63979E-002,1.06819E+000,-1.34789E-002,0.00000E+000,1.05976E-002,9.74631E-001,0.00000E+000,-4.77067E-003,-5.47854E-002,1.00000E+000,10
1189,1317,2.03478E+001,-5.16336E-001,-7.52155E-002,3.57114E+000,-5.66741E-002,-2.45525E-002,3.57168E+000,7.26203E-003,4.38466E-001,0,5.38071E+001,-1.29430E+000,9.99818E-001,1.58180E+001,-3.12470E+001,9.99576E-001,6.68107E-002,-2.71412E-002,-9.89829E-004,6.68212E-002,-2.71517E-002,-6.03549E-001,6.72109E-002,1.06902E+000,-1.34544E-002,0.00000E+000,1.05562E-002,9.74630E-001,0.00000E+000,-4.80570E-003,-5.47865E-002,1.00000E+000,10
1189,1327,2.03628E+001,1.16727E-001,-8.74604E-002,3.56246E+000,-7.65285E-002,-6.22512E-002,3.56383E+000,9.79451E-003,4.39372E-001,0,5.38201E+001,-1.54672E+000,9.99845E-001,1.60941E+001,-3.13983E+001,9.99379E-001,6.75804E-002,-2.71433E-002,-9.93402E-004,6.75908E-002,-2.71537E-002,-6.00794E-001,6.80245E-002,1.06984E+000,-1.34249E-002,0.00000E+000,1.05148E-002,9.74628E-001,0.00000E+000,-4.84071E-003,-5.47877E-002,1.00000E+000,10
659,1327,-1.65409E+001,-4.71726E-001,7.00746E-002,1.21814E+000,-3.59778E-001,8.46868E-002,1.27298E+000,1.29942E-002,5.73473E-001,0,1.88632E+001,-5.96864E+000,9.99671E-001,-2.33438E+001,-4.57398E+001,9.97719E-001,6.07187E-002,-2.46471E-002,-2.82820E-004,6.07196E-002,-2.46481E-002,-1.89820E-001,6.10767E-002,1.06257E+000,7.45851E-003,0.00000E+000,-7.40466E-003,9.76996E-001,0.00000E+000,2.61665E-004,-5.30060E-002,1.00000E+000,10
659,1337,-1.65201E+001,1.41633E-001,3.49114E-002,1.22998E+000,-3.84383E-001,6.00568E-002,1.29004E+000,1.39065E-002,6.47661E-001,0,1.91195E+001,-6.32516E+000,9.99638E-001,-2.29778E+001,-4.62005E+001,9.99203E-001,5.94418E-002,-2.46485E-002,-3.89820E-004,5.94436E-002,-2.46503E-002,-2.65601E-001,5.97313E-002,1.06122E+000,7.43953E-003,0.00000E+000,-7.55979E-003,9.76994E-001,0.00000E+000,-6.13131E-004,-5.30182E-002,1.00000E+000,10
659,1347,-1.65060E+001,7.67750E-001,1.09129E-002,1.23203E+000,-3.96907E-001,2.93423E-002,1.29472E+000,6.72696E-003,6.37695E-001,0,1.92360E+001,-6.46555E+000,9.99858E-001,-2.26805E+001,-4.65341E+001,9.99666E-001,5.81629E-002,-2.46508E-002,-4.99759E-004,5.81660E-002,-2.46538E-002,-3.45748E-001,5.83904E-002,1.05986E+000,7.41429E-003,0.00000E+000,-7.71486E-003,9.76991E-001,0.00000E+000,-1.48757E-003,-5.30345E-002,1.00000E+000,10
659,1357,-1.64865E+001,1.40088E+000,1.64601E-002,1.23289E+000,-4.08377E-001,-9.63473E-003,1.29880E+000,4.45586E-003,5.92939E-001,0,1.93547E+001,-6.54943E+000,9.99747E-001,-2.22140E+001,-4.68440E+001,9.99751E-001,5.68738E-002,-2.46552E-002,-6.16951E-004,5.68784E-002,-2.46599E-002,-4.33539E-001,5.70456E-002,1.05850E+000,7.37504E-003,0.00000E+000,-7.87087E-003,9.76986E-001,0.00000E+000,-2.36734E-003,-5.30599E-002,1.00000E+000,10
1199,1307,2.10429E+001,-1.14172E+000,-4.34981E-002,3.61893E+000,-3.73804E-002,6.05073E-003,3.61913E+000,9.58141E-003,4.52490E-001,0,5.43652E+001,-1.07279E+000,9.99715E-001,1.66414E+001,-3.09262E+001,9.98367E-001,6.61587E-002,-2.71462E-002,-7.61130E-004,6.61649E-002,-2.71524E-002,-4.67346E-001,6.65183E-002,1.06833E+000,-1.27108E-002,0.00000E+000,1.03714E-002,9.74619E-001,0.00000E+000,-5.53034E-003,-5.46336E-002,1.00000E+000,10
1199,1317,2.10542E+001,-5.09285E-001,-8.08736E-002,3.61300E+000,-5.47893E-002,-3.13812E-002,3.61355E+000,8.21781E-003,4.49066E-001,0,5.44214E+001,-1.27910E+000,9.99476E-001,1.68199E+001,-3.10313E+001,9.98172E-001,6.68960E-002,-2.71488E-002,-7.82241E-004,6.69025E-002,-2.71554E-002,-4.76528E-001,6.72964E-002,1.06912E+000,-1.26900E-002,0.00000E+000,1.02934E-002,9.74617E-001,0.00000E+000,-5.35420E-003,-5.46290E-002,1.00000E+000,10
1199,1327,2.10690E+001,1.25945E-001,-1.09764E-001,3.60776E+000,-7.04857E-002,-7.10989E-002,3.60915E+000,8.57655E-003,4.11866E-001,0,5.44950E+001,-1.44669E+000,9.99640E-001,1.70661E+001,-3.11298E+001,9.98724E-001,6.76335E-002,-2.71518E-002,-8.01866E-004,6.76403E-002,-2.71585E-002,-4.84666E-001,6.80763E-002,1.06991E+000,-1.26660E-002,0.00000E+000,1.02153E-002,9.74614E-001,0.00000E+000,-5.17788E-003,-5.46236E-002,1.00000E+000,10
659,1317,-1.65537E+001,-1.08854E+000,1.30874E-001,1.21040E+000,-3.43699E-001,1.12839E-001,1.26330E+000,1.07106E-002,6.11394E-001,0,1.86624E+001,-5.78286E+000,9.99239E-001,-2.35159E+001,-4.53313E+001,9.95981E-001,6.19854E-002,-2.46470E-002,-1.80304E-004,6.19858E-002,-2.46473E-002,-1.19246E-001,6.24173E-002,1.06392E+000,7.46924E-003,0.00000E+000,-7.25047E-003,9.76997E-001,0.00000E+000,1.13117E-003,-5.29991E-002,1.00000E+000,10
1199,1337,2.10999E+001,7.70203E-001,-7.51948E-002,3.60391E+000,-8.70057E-002,-1.04446E-001,3.60648E+000,8.08494E-003,4.26201E-001,0,5.45574E+001,-1.64629E+000,9.99746E-001,1.76648E+001,-3.12035E+001,9.98473E-001,6.83789E-002,-2.71562E-002,-8.13644E-004,6.83858E-002,-2.71632E-002,-4.87924E-001,6.88659E-002,1.07071E+000,-1.26242E-002,0.00000E+000,1.01364E-002,9.74610E-001,0.00000E+000,-4.99948E-003,-5.46143E-002,1.00000E+000,10
1199,1297,2.10447E+001,-1.76499E+000,3.16064E-002,3.62793E+000,-1.59341E-002,4.26760E-002,3.62822E+000,7.20137E-003,4.51321E-001,0,5.43516E+001,-8.07302E-001,9.99672E-001,1.67260E+001,-3.07619E+001,9.98110E-001,6.54248E-002,-2.71447E-002,-7.34662E-004,6.54307E-002,-2.71505E-002,-4.54680E-001,6.57454E-002,1.06755E+000,-1.27196E-002,0.00000E+000,1.04489E-002,9.74620E-001,0.00000E+000,-5.70549E-003,-5.46356E-002,1.00000E+000,10
649,1347,-1.71893E+001,7.69764E-001,4.94040E-003,1.18887E+000,-3.90189E-001,1.90832E-002,1.25141E+000,7.12849E-003,6.56299E-001,0,1.86006E+001,-6.33361E+000,9.99784E-001,-2.31313E+001,-4.65812E+001,9.99053E-001,5.74679E-002,-2.44924E-002,-4.78804E-004,5.74707E-002,-2.44952E-002,-3.34700E-001,5.76789E-002,1.05912E+000,8.79185E-003,0.00000E+000,-8.94114E-003,9.77094E-001,0.00000E+000,-1.63639E-003,-5.22407E-002,1.00000E+000,10
649,1357,-1.71663E+001,1.39981E+000,1.81281E-002,1.19386E+000,-4.03689E-001,-9.72718E-003,1.26030E+000,4.76103E-003,5.82261E-001,0,1.87560E+001,-6.46524E+000,9.99806E-001,-2.25885E+001,-4.69710E+001,9.99540E-001,5.60860E-002,-2.44962E-002,-5.90593E-004,5.60903E-002,-2.45005E-002,-4.19895E-001,5.62394E-002,1.05766E+000,8.75119E-003,0.00000E+000,-9.09124E-003,9.77090E-001,0.00000E+000,-2.45950E-003,-5.22637E-002,1.00000E+000,10
649,1337,-1.72085E+001,1.45562E-001,2.79729E-002,1.18137E+000,-3.74230E-001,4.77897E-002,1.24014E+000,7.89657E-003,6.47528E-001,0,1.84042E+001,-6.15440E+000,9.99805E-001,-2.35110E+001,-4.62244E+001,9.99186E-001,5.88443E-002,-2.44906E-002,-3.73953E-004,5.88460E-002,-2.44923E-002,-2.57100E-001,5.91208E-002,1.06057E+000,8.81833E-003,0.00000E+000,-8.79136E-003,9.77097E-001,0.00000E+000,-8.15007E-004,-5.22258E-002,1.00000E+000,10
649,1327,-1.72230E+001,-4.68502E-001,7.09763E-002,1.17529E+000,-3.52737E-001,7.81512E-002,1.22957E+000,6.88556E-003,6.26449E-001,0,1.82233E+001,-5.85780E+000,9.99828E-001,-2.37600E+001,-4.57623E+001,9.99514E-001,6.02103E-002,-2.44897E-002,-2.73072E-004,6.02112E-002,-2.44906E-002,-1.84718E-001,6.05593E-002,1.06202E+000,8.83754E-003,0.00000E+000,-8.64242E-003,9.77099E-001,0.00000E+000,1.77649E-006,-5.22150E-002,1.00000E+000,10
1209,1307,2.17553E+001,-1.12753E+000,-4.45818E-002,3.66459E+000,-2.99975E-002,-2.90051E-003,3.66471E+000,7.35337E-003,4.65052E-001,0,5.50401E+001,-9.56091E-001,9.99728E-001,1.77481E+001,-3.06098E+001,9.98565E-001,6.61038E-002,-2.70210E-002,-5.03097E-004,6.61065E-002,-2.70237E-002,-3.09523E-001,6.64721E-002,1.06829E+000,-1.18552E-002,0.00000E+000,1.01159E-002,9.74722E-001,0.00000E+000,-5.90460E-003,-5.42372E-002,1.00000E+000,10
1209,1317,2.17649E+001,-4.98551E-001,-8.54697E-002,3.65869E+000,-5.00543E-002,-3.68141E-002,3.65922E+000,8.60592E-003,4.42481E-001,0,5.50858E+001,-1.20198E+000,9.99683E-001,1.78942E+001,-3.07690E+001,9.98034E-001,6.68815E-002,-2.70227E-002,-5.15342E-004,6.68843E-002,-2.70255E-002,-3.14424E-001,6.72935E-002,1.06912E+000,-1.18355E-002,0.00000E+000,1.00435E-002,9.74721E-001,0.00000E+000,-5.48615E-003,-5.42272E-002,1.00000E+000,10
1209,1327,2.17863E+001,1.39823E-001,-9.91894E-002,3.65536E+000,-6.48824E-002,-7.90166E-002,3.65679E+000,8.04338E-003,4.01763E-001,0,5.51960E+001,-1.35769E+000,9.99737E-001,1.82665E+001,-3.08514E+001,9.98772E-001,6.76616E-002,-2.70252E-002,-5.22296E-004,6.76645E-002,-2.70281E-002,-3.16033E-001,6.81191E-002,1.06995E+000,-1.18041E-002,0.00000E+000,9.97081E-003,9.74718E-001,0.00000E+000,-5.06591E-003,-5.42114E-002,1.00000E+000,10
1209,1337,2.18182E+001,7.83891E-001,-6.38208E-002,3.65197E+000,-8.30769E-002,-1.12582E-001,3.65465E+000,8.79771E-003,4.34702E-001,0,5.52672E+001,-1.57551E+000,9.99735E-001,1.88790E+001,-3.09193E+001,9.97877E-001,6.84498E-002,-2.70285E-002,-5.23292E-004,6.84527E-002,-2.70314E-002,-3.14011E-001,6.89550E-002,1.07079E+000,-1.17595E-002,0.00000E+000,9.89729E-003,9.74714E-001,0.00000E+000,-4.64085E-003,-5.41889E-002,1.00000E+000,10
1209,1297,2.17544E+001,-1.75257E+000,2.40597E-002,3.67288E+000,-8.59828E-003,3.41374E-002,3.67305E+000,7.24165E-003,4.26629E-001,0,5.50144E+001,-6.81348E-001,9.99694E-001,1.77826E+001,-3.04797E+001,9.97993E-001,6.53272E-002,-2.70197E-002,-4.87169E-004,6.53298E-002,-2.70223E-002,-3.02248E-001,6.56539E-002,1.06746E+000,-1.18669E-002,0.00000E+000,1.01880E-002,9.74723E-001,0.00000E+000,-6.32199E-003,-5.42431E-002,1.00000E+000,10
649,1317,-1.72319E+001,-1.08367E+000,1.47053E-001,1.17013E+000,-3.36237E-001,1.14113E-001,1.22281E+000,5.47226E-003,6.29590E-001,0,1.80413E+001,-5.66604E+000,9.99728E-001,-2.38279E+001,-4.53757E+001,9.99452E-001,6.15687E-002,-2.44902E-002,-1.77612E-004,6.15690E-002,-2.44906E-002,-1.18249E-001,6.19965E-002,1.06347E+000,8.84596E-003,0.00000E+000,-8.49402E-003,9.77100E-001,0.00000E+000,8.15538E-004,-5.22102E-002,1.00000E+000,10
639,1347,-1.78697E+001,7.72036E-001,1.22607E-003,1.14920E+000,-3.81684E-001,1.71317E-002,1.21105E+000,7.49773E-003,6.14656E-001,0,1.79959E+001,-6.17248E+000,9.99638E-001,-2.35280E+001,-4.66591E+001,9.98971E-001,5.68032E-002,-2.42691E-002,-4.91456E-004,5.68062E-002,-2.42721E-002,-3.47307E-001,5.70061E-002,1.05840E+000,1.02367E-002,0.00000E+000,-1.03035E-002,9.77254E-001,0.00000E+000,-1.67721E-003,-5.13605E-002,1.00000E+000,10
639,1357,-1.78451E+001,1.40287E+000,1.80263E-002,1.15581E+000,-3.95014E-001,-9.12549E-003,1.22148E+000,4.66294E-003,5.94104E-001,0,1.81689E+001,-6.32414E+000,9.99753E-001,-2.29483E+001,-4.70196E+001,9.99553E-001,5.53497E-002,-2.42726E-002,-6.01838E-004,5.53542E-002,-2.42771E-002,-4.33047E-001,5.54933E-002,1.05687E+000,1.01939E-002,0.00000E+000,-1.04534E-002,9.77250E-001,0.00000E+000,-2.47409E-003,-5.13827E-002,1.00000E+000,10
639,1317,-1.79095E+001,-1.08265E+000,1.63244E-001,1.13032E+000,-3.33850E-001,1.17106E-001,1.18439E+000,7.96625E-003,7.01319E-001,0,1.74235E+001,-5.63713E+000,9.99733E-001,-2.41276E+001,-4.54530E+001,9.98791E-001,6.11037E-002,-2.42686E-002,-2.00150E-004,6.11041E-002,-2.42690E-002,-1.34325E-001,6.15333E-002,1.06296E+000,1.02866E-002,0.00000E+000,-9.85810E-003,9.77259E-001,0.00000E+000,6.89790E-004,-5.13346E-002,1.00000E+000,10
639,1327,-1.79007E+001,-4.72499E-001,8.22430E-002,1.13695E+000,-3.51981E-001,8.39755E-002,1.19315E+000,6.11443E-003,6.32144E-001,0,1.76208E+001,-5.85982E+000,9.99794E-001,-2.40744E+001,-4.59411E+001,9.98971E-001,5.96828E-002,-2.42674E-002,-2.91351E-004,5.96838E-002,-2.42684E-002,-1.98843E-001,6.00297E-002,1.06145E+000,1.02812E-002,0.00000E+000,-1.00055E-002,9.77259E-001,0.00000E+000,-9.38259E-005,-5.13374E-002,1.00000E+000,10
639,1337,-1.78884E+001,1.48496E-001,2.27077E-002,1.14259E+000,-3.66769E-001,4.75069E-002,1.20095E+000,5.98739E-003,6.65002E-001,0,1.78097E+001,-6.01316E+000,9.99793E-001,-2.39058E+001,-4.62575E+001,9.99234E-001,5.82454E-002,-2.42674E-002,-3.88273E-004,5.82472E-002,-2.42693E-002,-2.69604E-001,5.85163E-002,1.05993E+000,1.02654E-002,0.00000E+000,-1.01544E-002,9.77257E-001,0.00000E+000,-8.84995E-004,-5.13456E-002,1.00000E+000,10
1219,1317,2.24819E+001,-4.83523E-001,-7.84328E-002,3.70654E+000,-4.53443E-002,-4.43559E-002,3.70709E+000,9.99953E-003,4.99107E-001,0,5.57882E+001,-1.11657E+000,9.99746E-001,1.90883E+001,-3.04334E+001,9.98028E-001,6.67706E-002,-2.70192E-002,-2.13964E-004,6.67711E-002,-2.70197E-002,-1.30708E-001,6.71745E-002,1.06901E+000,-1.09012E-002,0.00000E+000,9.76961E-003,9.74689E-001,0.00000E+000,-5.29569E-003,-5.35206E-002,1.00000E+000,10
1219,1327,2.25014E+001,1.53601E-001,-9.36903E-002,3.70332E+000,-5.93766E-002,-8.01195E-002,3.70467E+000,5.79095E-003,4.26643E-001,0,5.58759E+001,-1.27631E+000,9.99856E-001,1.94283E+001,-3.05465E+001,9.98892E-001,6.75210E-002,-2.70212E-002,-2.19756E-004,6.75215E-002,-2.70217E-002,-1.33179E-001,6.79684E-002,1.06981E+000,-1.08734E-002,0.00000E+000,9.69536E-003,9.74687E-001,0.00000E+000,-4.71705E-003,-5.35005E-002,1.00000E+000,10
1219,1337,2.25347E+001,7.98994E-001,-5.77301E-002,3.70039E+000,-7.68163E-002,-1.15638E-001,3.70300E+000,7.21005E-003,4.54731E-001,0,5.59617E+001,-1.47707E+000,9.99765E-001,2.00604E+001,-3.05960E+001,9.98680E-001,6.82814E-002,-2.70242E-002,-2.18214E-004,6.82819E-002,-2.70247E-002,-1.31185E-001,6.87745E-002,1.07062E+000,-1.08292E-002,0.00000E+000,9.62001E-003,9.74683E-001,0.00000E+000,-4.12984E-003,-5.34685E-002,1.00000E+000,10
1219,1297,2.24682E+001,-1.73962E+000,2.24005E-002,3.72021E+000,-2.72743E-003,2.73462E-002,3.72031E+000,8.08233E-003,4.06488E-001,0,5.57051E+001,-5.62712E-001,9.99649E-001,1.89142E+001,-3.01989E+001,9.97986E-001,6.52680E-002,-2.70164E-002,-1.92161E-004,6.52684E-002,-2.70168E-002,-1.19304E-001,6.55899E-002,1.06741E+000,-1.09348E-002,0.00000E+000,9.91801E-003,9.74692E-001,0.00000E+000,-6.45226E-003,-5.35449E-002,1.00000E+000,10
1219,1307,2.24732E+001,-1.11314E+000,-3.34744E-002,3.71357E+000,-2.43874E-002,-6.47516E-003,3.71366E+000,9.61489E-003,4.55591E-001,0,5.57426E+001,-8.52510E-001,9.99711E-001,1.89653E+001,-3.03271E+001,9.97798E-001,6.60187E-002,-2.70177E-002,-2.04141E-004,6.60192E-002,-2.70181E-002,-1.25718E-001,6.63807E-002,1.06821E+000,-1.09204E-002,0.00000E+000,9.84392E-003,9.74691E-001,0.00000E+000,-5.87479E-003,-5.35345E-002,1.00000E+000,10
629,1347,-1.85478E+001,7.70382E-001,-3.44668E-003,1.11189E+000,-3.76972E-001,1.68885E-002,1.17418E+000,6.61203E-003,5.93329E-001,0,1.74235E+001,-6.08156E+000,9.99528E-001,-2.38893E+001,-4.67849E+001,9.99117E-001,5.62473E-002,-2.44884E-002,-5.31397E-004,5.62508E-002,-2.44919E-002,-3.77095E-001,5.64071E-002,1.05780E+000,1.17309E-002,0.00000E+000,-1.17711E-002,9.76971E-001,0.00000E+000,-1.51823E-003,-5.03051E-002,1.00000E+000,10
629,1357,-1.85217E+001,1.40130E+000,1.65205E-002,1.11983E+000,-3.90313E-001,-8.03333E-003,1.18593E+000,5.34589E-003,5.90813E-001,0,1.76132E+001,-6.24504E+000,9.99603E-001,-2.32763E+001,-4.71437E+001,9.99386E-001,5.48807E-002,-2.44884E-002,-5.42391E-004,5.48844E-002,-2.44921E-002,-3.91522E-001,5.49900E-002,1.05635E+000,1.16905E-002,0.00000E+000,-1.17324E-002,9.76972E-001,0.00000E+000,-2.28614E-003,-5.03266E-002,1.00000E+000,10
629,1327,-1.85794E+001,-4.70895E-001,7.96603E-002,1.09845E+000,-3.44602E-001,8.37044E-002,1.15427E+000,5.76921E-003,6.02083E-001,0,1.70303E+001,-5.72491E+000,9.99707E-001,-2.44396E+001,-4.60224E+001,9.98989E-001,5.89549E-002,-2.44884E-002,-5.28379E-004,5.89583E-002,-2.44918E-002,-3.62788E-001,5.92389E-002,1.06066E+000,1.17714E-002,0.00000E+000,-1.18480E-002,9.76970E-001,0.00000E+000,7.52265E-006,-5.02836E-002,1.00000E+000,10
629,1337,-1.85647E+001,1.47850E-001,2.18935E-002,1.10654E+000,-3.61338E-001,4.85399E-002,1.16505E+000,5.76872E-003,6.34700E-001,0,1.72538E+001,-5.91428E+000,9.99620E-001,-2.42288E+001,-4.63786E+001,9.99390E-001,5.76034E-002,-2.44884E-002,-5.27321E-004,5.76068E-002,-2.44918E-002,-3.68022E-001,5.78215E-002,1.05923E+000,1.17566E-002,0.00000E+000,-1.18096E-002,9.76971E-001,0.00000E+000,-7.54801E-004,-5.02915E-002,1.00000E+000,10
1229,1317,2.31980E+001,-4.67529E-001,-7.82519E-002,3.75617E+000,-3.57309E-002,-4.70680E-002,3.75664E+000,8.88238E-003,4.88538E-001,0,5.64963E+001,-9.68557E-001,9.99725E-001,2.02629E+001,-3.01015E+001,9.99031E-001,6.66827E-002,-2.69051E-002,1.11180E-004,6.66828E-002,-2.69052E-002,6.80659E-002,6.70957E-002,1.06892E+000,-9.97954E-003,0.00000E+000,9.54383E-003,9.74765E-001,0.00000E+000,-4.90322E-003,-5.27983E-002,1.00000E+000,10
1229,1327,2.32152E+001,1.66953E-001,-9.57289E-002,3.75001E+000,-5.56940E-002,-8.63709E-002,3.75141E+000,6.90673E-003,5.13114E-001,0,5.65570E+001,-1.21559E+000,9.99772E-001,2.05605E+001,-3.02011E+001,9.98624E-001,6.73981E-002,-2.69061E-002,1.16074E-004,6.73982E-002,-2.69063E-002,7.05225E-002,6.78531E-002,1.06968E+000,-9.95241E-003,0.00000E+000,9.48525E-003,9.74763E-001,0.00000E+000,-4.18514E-003,-5.27727E-002,1.00000E+000,10
1229,1337,2.32469E+001,8.11113E-001,-7.18198E-002,3.74826E+000,-6.93570E-002,-1.22803E-001,3.75091E+000,7.01408E-003,4.46116E-001,0,5.66647E+001,-1.36539E+000,9.99719E-001,2.11474E+001,-3.02892E+001,9.98442E-001,6.81143E-002,-2.69075E-002,1.26346E-004,6.81144E-002,-2.69076E-002,7.61831E-002,6.86129E-002,1.07045E+000,-9.91364E-003,0.00000E+000,9.42652E-003,9.74760E-001,0.00000E+000,-3.46510E-003,-5.27362E-002,1.00000E+000,10
629,1317,-1.85903E+001,-1.08156E+000,1.62862E-001,1.08957E+000,-3.26800E-001,1.17928E-001,1.14363E+000,6.88275E-003,6.61189E-001,0,1.67959E+001,-5.51327E+000,9.99695E-001,-2.45169E+001,-4.55504E+001,9.98913E-001,6.02926E-002,-2.44884E-002,-5.34139E-004,6.02959E-002,-2.44918E-002,-3.60957E-001,6.06486E-002,1.06208E+000,1.17760E-002,0.00000E+000,-1.18861E-002,9.76970E-001,0.00000E+000,7.63376E-004,-5.02811E-002,1.00000E+000,10
1229,1297,2.31820E+001,-1.72523E+000,2.27627E-002,3.76709E+000,4.26756E-003,2.27065E-002,3.76716E+000,8.10136E-003,4.57591E-001,0,5.63790E+001,-4.61828E-001,9.99608E-001,2.00526E+001,-2.98650E+001,9.97542E-001,6.52575E-002,-2.69038E-002,1.11883E-004,6.52577E-002,-2.69039E-002,6.95563E-002,6.55916E-002,1.06741E+000,-1.00110E-002,0.00000E+000,9.66026E-003,9.74768E-001,0.00000E+000,-6.33051E-003,-5.28279E-002,1.00000E+000,10
1229,1307,2.31905E+001,-1.09632E+000,-3.36568E-002,3.76520E+000,-1.38841E-002,-6.36098E-003,3.76523E+000,1.10023E-002,4.83997E-001,0,5.64685E+001,-7.06435E-001,9.99613E-001,2.01564E+001,-2.99634E+001,9.98024E-001,6.59692E-002,-2.69043E-002,1.09884E-004,6.59693E-002,-2.69045E-002,6.77896E-002,6.63419E-002,1.06816E+000,-9.99883E-003,0.00000E+000,9.60216E-003,9.74767E-001,0.00000E+000,-5.61829E-003,-5.28165E-002,1.00000E+000,10
619,1327,-1.92591E+001,-4.70799E-001,7.74805E-002,1.05839E+000,-3.38973E-001,8.25154E-002,1.11441E+000,4.73547E-003,5.86824E-001,0,1.64177E+001,-5.62206E+000,9.99644E-001,-2.48137E+001,-4.61206E+001,9.99326E-001,5.84342E-002,-2.42807E-002,-6.57928E-004,5.84394E-002,-2.42860E-002,-4.55702E-001,5.87164E-002,1.06009E+000,1.33634E-002,0.00000E+000,-1.35789E-002,9.77112E-001,0.00000E+000,1.19103E-004,-4.94829E-002,1.00000E+000,10
619,1337,-1.92428E+001,1.49515E-001,2.69178E-002,1.06742E+000,-3.54533E-001,4.99491E-002,1.12586E+000,5.01205E-003,6.27684E-001,0,1.66476E+001,-5.80399E+000,9.99431E-001,-2.45565E+001,-4.64658E+001,9.99292E-001,5.70575E-002,-2.42809E-002,-6.15422E-004,5.70621E-002,-2.42856E-002,-4.33478E-001,5.72723E-002,1.05863E+000,1.33468E-002,0.00000E+000,-1.34605E-002,9.77113E-001,0.00000E+000,-6.45955E-004,-4.94916E-002,1.00000E+000,10
619,1347,-1.92239E+001,7.72441E-001,-2.56608E-003,1.07606E+000,-3.68574E-001,2.13702E-002,1.13764E+000,5.76749E-003,6.06160E-001,0,1.68598E+001,-5.96281E+000,9.99433E-001,-2.41986E+001,-4.68487E+001,9.99352E-001,5.56782E-002,-2.42807E-002,-5.75937E-004,5.56823E-002,-2.42848E-002,-4.12668E-001,5.58335E-002,1.05718E+000,1.33238E-002,0.00000E+000,-1.33422E-002,9.77115E-001,0.00000E+000,-1.41102E-003,-4.95037E-002,1.00000E+000,10
619,1357,-1.91983E+001,1.40244E+000,9.49162E-003,1.08466E+000,-3.81675E-001,-5.75559E-003,1.14987E+000,5.36115E-003,5.88501E-001,0,1.70655E+001,-6.11132E+000,9.99658E-001,-2.36144E+001,-4.72134E+001,9.99520E-001,5.42885E-002,-2.42796E-002,-5.43417E-004,5.42922E-002,-2.42834E-002,-3.96262E-001,5.43928E-002,1.05571E+000,1.32855E-002,0.00000E+000,-1.32232E-002,9.77118E-001,0.00000E+000,-2.18037E-003,-4.95238E-002,1.00000E+000,10
619,1317,-1.92678E+001,-1.07861E+000,1.65048E-001,1.05185E+000,-3.16875E-001,1.21609E-001,1.10525E+000,7.89497E-003,6.19770E-001,0,1.62062E+001,-5.36575E+000,9.99549E-001,-2.48429E+001,-4.56249E+001,9.99063E-001,5.97996E-002,-2.42799E-002,-7.05600E-004,5.98055E-002,-2.42859E-002,-4.80784E-001,6.01562E-002,1.06154E+000,1.33683E-002,0.00000E+000,-1.36965E-002,9.77111E-001,0.00000E+000,8.79336E-004,-4.94803E-002,1.00000E+000,10
1239,1307,2.38980E+001,-1.08820E+000,-4.96023E-002,3.80746E+000,-1.04783E-002,-1.90716E-002,3.80752E+000,1.11903E-002,4.59816E-001,0,5.71081E+001,-6.32935E-001,9.99587E-001,2.11761E+001,-2.97285E+001,9.98355E-001,6.57834E-002,-2.66799E-002,2.71361E-004,6.57842E-002,-2.66807E-002,1.68150E-001,6.61741E-002,1.06797E+000,-9.24578E-003,0.00000E+000,9.22744E-003,9.74949E-001,0.00000E+000,-5.54059E-003,-5.20319E-002,1.00000E+000,10
1239,1317,2.39115E+001,-4.53425E-001,-8.62865E-002,3.80470E+000,-2.55264E-002,-5.05660E-002,3.80512E+000,9.76444E-003,4.37386E-001,0,5.71906E+001,-8.11627E-001,9.99638E-001,2.13882E+001,-2.98018E+001,9.98922E-001,6.65225E-002,-2.66782E-002,3.09286E-004,6.65235E-002,-2.66792E-002,1.90133E-001,6.69563E-002,1.06875E+000,-9.22610E-003,0.00000E+000,9.22550E-003,9.74949E-001,0.00000E+000,-4.51970E-003,-5.20063E-002,1.00000E+000,10
1239,1327,2.39328E+001,1.83370E-001,-8.41241E-002,3.79781E+000,-4.81128E-002,-8.75558E-002,3.79913E+000,8.41693E-003,5.22642E-001,0,5.72309E+001,-1.10056E+000,9.99661E-001,2.17771E+001,-2.98764E+001,9.98737E-001,6.72685E-002,-2.66755E-002,3.54140E-004,6.72698E-002,-2.66769E-002,2.15983E-001,6.77479E-002,1.06955E+000,-9.19221E-003,0.00000E+000,9.22355E-003,9.74949E-001,0.00000E+000,-3.48685E-003,-5.19622E-002,1.00000E+000,10
1239,1337,2.39592E+001,8.26275E-001,-6.81985E-002,3.79422E+000,-6.02886E-002,-1.18077E-001,3.79654E+000,7.27719E-003,4.24722E-001,0,5.72890E+001,-1.24022E+000,9.99572E-001,2.22668E+001,-2.99811E+001,9.97972E-001,6.80076E-002,-2.66728E-002,3.99693E-004,6.80093E-002,-2.66745E-002,2.41868E-001,6.85340E-002,1.07034E+000,-9.15620E-003,0.00000E+000,9.22161E-003,9.74949E-001,0.00000E+000,-2.46125E-003,-5.19154E-002,1.00000E+000,10
1239,1297,2.38938E+001,-1.71361E+000,2.04456E-002,3.81271E+000,1.08090E-002,1.95951E-002,3.81278E+000,7.02136E-003,4.71958E-001,0,5.70277E+001,-3.79595E-001,9.99660E-001,2.11607E+001,-2.95869E+001,9.98373E-001,6.50450E-002,-2.66811E-002,2.37377E-004,6.50456E-002,-2.66817E-002,1.48274E-001,6.53944E-002,1.06719E+000,-9.25715E-003,0.00000E+000,9.22936E-003,9.74949E-001,0.00000E+000,-6.55837E-003,-5.20467E-002,1.00000E+000,10
609,1347,-1.98993E+001,7.74743E-001,-7.52136E-005,1.03965E+000,-3.61168E-001,2.20490E-002,1.10082E+000,7.75068E-003,6.25270E-001,0,1.62967E+001,-5.84728E+000,9.99372E-001,-2.44874E+001,-4.69092E+001,9.99111E-001,5.51639E-002,-2.37896E-002,-7.36221E-004,5.51707E-002,-2.37965E-002,-5.34206E-001,5.53439E-002,1.05661E+000,1.47435E-002,0.00000E+000,-1.49926E-002,9.77524E-001,0.00000E+000,-1.15876E-003,-4.85126E-002,1.00000E+000,10
609,1357,-1.98747E+001,1.40573E+000,4.97048E-003,1.04828E+000,-3.72170E-001,-6.73449E-003,1.11241E+000,6.30351E-003,6.01728E-001,0,1.65065E+001,-5.95776E+000,9.99600E-001,-2.39378E+001,-4.72484E+001,9.99326E-001,5.37819E-002,-2.37885E-002,-6.84212E-004,5.37880E-002,-2.37945E-002,-5.05326E-001,5.39069E-002,1.05516E+000,1.47079E-002,0.00000E+000,-1.48394E-002,9.77528E-001,0.00000E+000,-1.94658E-003,-4.85319E-002,1.00000E+000,10
609,1317,-1.99476E+001,-1.07776E+000,1.64739E-001,1.01074E+000,-3.10462E-001,1.19494E-001,1.06408E+000,9.84256E-003,6.10800E-001,0,1.55791E+001,-5.26189E+000,9.99559E-001,-2.52091E+001,-4.57108E+001,9.98312E-001,5.92689E-002,-2.37880E-002,-9.20823E-004,5.92791E-002,-2.37982E-002,-6.35115E-001,5.96616E-002,1.06096E+000,1.47872E-002,0.00000E+000,-1.54492E-002,9.77519E-001,0.00000E+000,1.19050E-003,-4.84890E-002,1.00000E+000,10
609,1327,-1.99369E+001,-4.70145E-001,7.63415E-002,1.01981E+000,-3.33803E-001,8.24640E-002,1.07621E+000,6.03602E-003,6.24854E-001,0,1.58243E+001,-5.54034E+000,9.99645E-001,-2.51523E+001,-4.61857E+001,9.98967E-001,5.79065E-002,-2.37894E-002,-8.54384E-004,5.79154E-002,-2.37983E-002,-5.99118E-001,5.82210E-002,1.05951E+000,1.47834E-002,0.00000E+000,-1.52974E-002,9.77520E-001,0.00000E+000,4.09289E-004,-4.84910E-002,1.00000E+000,10
609,1337,-1.99192E+001,1.50821E-001,2.71879E-002,1.03024E+000,-3.47012E-001,5.08346E-002,1.08830E+000,6.41181E-003,6.09709E-001,0,1.60724E+001,-5.68341E+000,9.99477E-001,-2.48692E+001,-4.65535E+001,9.99037E-001,5.65393E-002,-2.37898E-002,-7.93756E-004,5.65471E-002,-2.37976E-002,-5.66083E-001,5.67828E-002,1.05807E+000,1.47671E-002,0.00000E+000,-1.51453E-002,9.77522E-001,0.00000E+000,-3.73110E-004,-4.84999E-002,1.00000E+000,10
1249,1297,2.46082E+001,-1.69885E+000,2.46349E-002,3.85880E+000,1.84907E-002,1.73160E-002,3.85888E+000,8.54516E-003,5.05165E-001,0,5.76776E+001,-2.73058E-001,9.99641E-001,2.23210E+001,-2.92645E+001,9.98525E-001,6.46408E-002,-2.63403E-002,3.81704E-004,6.46424E-002,-2.63419E-002,2.40375E-001,6.50101E-002,1.06677E+000,-8.25918E-003,0.00000E+000,8.62116E-003,9.75263E-001,0.00000E+000,-6.88617E-003,-5.15807E-002,1.00000E+000,10
1249,1307,2.46084E+001,-1.07588E+000,-5.44019E-002,3.85202E+000,-3.57473E-003,-2.08944E-002,3.85208E+000,1.12090E-002,4.70878E-001,0,5.77358E+001,-5.37175E-001,9.99640E-001,2.22611E+001,-2.94347E+001,9.98107E-001,6.54634E-002,-2.63356E-002,5.13953E-004,6.54663E-002,-2.63384E-002,3.20767E-001,6.58814E-002,1.06764E+000,-8.24980E-003,0.00000E+000,8.79743E-003,9.75265E-001,0.00000E+000,-5.55294E-003,-5.15663E-002,1.00000E+000,10
1249,1317,2.46184E+001,-4.45625E-001,-9.65127E-002,3.84658E+000,-2.24575E-002,-5.39792E-002,3.84702E+000,9.23142E-003,4.24753E-001,0,5.77875E+001,-7.65061E-001,9.99484E-001,2.24081E+001,-2.95770E+001,9.98239E-001,6.62867E-002,-2.63276E-002,6.51972E-004,6.62913E-002,-2.63322E-002,4.03315E-001,6.67565E-002,1.06851E+000,-8.22910E-003,0.00000E+000,8.97442E-003,9.75269E-001,0.00000E+000,-4.21429E-003,-5.15346E-002,1.00000E+000,10
1249,1327,2.46400E+001,1.96576E-001,-1.02143E-001,3.84268E+000,-3.65046E-002,-8.85430E-002,3.84388E+000,8.26502E-003,4.61456E-001,0,5.78611E+001,-9.33917E-001,9.99482E-001,2.27910E+001,-2.95730E+001,9.98738E-001,6.71142E-002,-2.63156E-002,7.97315E-004,6.71210E-002,-2.63225E-002,4.88906E-001,6.76393E-002,1.06939E+000,-8.19479E-003,0.00000E+000,9.15286E-003,9.75276E-001,0.00000E+000,-2.86462E-003,-5.14820E-002,1.00000E+000,10
1249,1337,2.46681E+001,8.41408E-001,-7.79163E-002,3.83789E+000,-5.07349E-002,-1.20936E-001,3.84013E+000,6.41169E-003,4.27855E-001,0,5.79089E+001,-1.09801E+000,9.99709E-001,2.33181E+001,-2.96321E+001,9.99244E-001,6.79410E-002,-2.63009E-002,9.47408E-004,6.79505E-002,-2.63104E-002,5.75913E-001,6.85245E-002,1.07027E+000,-8.15064E-003,0.00000E+000,9.33173E-003,9.75285E-001,0.00000E+000,-1.51180E-003,-5.14143E-002,1.00000E+000,10
1259,1327,2.53511E+001,2.07061E-001,-1.09002E-001,3.88729E+000,-3.06453E-002,-9.19260E-002,3.88850E+000,7.30104E-003,4.37255E-001,0,5.84966E+001,-8.52447E-001,9.99752E-001,2.38844E+001,-2.93176E+001,9.99047E-001,6.70242E-002,-2.61792E-002,1.24988E-003,6.70410E-002,-2.61960E-002,7.68165E-001,6.75724E-002,1.06930E+000,-7.36154E-003,0.00000E+000,9.22626E-003,9.75367E-001,0.00000E+000,-1.82305E-003,-5.06238E-002,1.00000E+000,10
1259,1337,2.53806E+001,8.51207E-001,-8.21304E-002,3.88326E+000,-4.63435E-002,-1.23312E-001,3.88549E+000,6.67369E-003,4.06585E-001,0,5.85527E+001,-1.03846E+000,9.99844E-001,2.44352E+001,-2.93900E+001,9.99430E-001,6.78578E-002,-2.61572E-002,1.46052E-003,6.78805E-002,-2.61799E-002,8.89802E-001,6.84694E-002,1.07019E+000,-7.31606E-003,0.00000E+000,9.50769E-003,9.75381E-001,0.00000E+000,-1.39753E-004,-5.05379E-002,1.00000E+000,10
599,1347,-2.05714E+001,7.81963E-001,7.51097E-003,1.00557E+000,-3.48818E-001,2.48396E-002,1.06464E+000,7.19038E-003,6.37627E-001,0,1.57623E+001,-5.66339E+000,9.99606E-001,-2.47064E+001,-4.69084E+001,9.99536E-001,5.49167E-002,-2.39390E-002,-5.63360E-004,5.49207E-002,-2.39430E-002,-4.09304E-001,5.50706E-002,1.05633E+000,1.59840E-002,0.00000E+000,-1.58093E-002,9.77320E-001,0.00000E+000,-1.01372E-003,-4.75635E-002,1.00000E+000,10
599,1357,-2.05452E+001,1.40899E+000,1.10608E-002,1.01640E+000,-3.63454E-001,-2.64486E-003,1.07944E+000,5.23290E-003,6.26385E-001,0,1.60038E+001,-5.83570E+000,9.99705E-001,-2.41368E+001,-4.73007E+001,9.99469E-001,5.36210E-002,-2.39359E-002,-3.73615E-004,5.36228E-002,-2.39377E-002,-2.76002E-001,5.37254E-002,1.05497E+000,1.59519E-002,0.00000E+000,-1.53882E-002,9.77330E-001,0.00000E+000,-1.87143E-003,-4.75836E-002,1.00000E+000,10
1259,1287,2.53200E+001,-2.31227E+000,1.03350E-001,3.90732E+000,4.52588E-002,4.31908E-002,3.90782E+000,1.03301E-002,3.97350E-001,0,5.82440E+001,1.17701E-001,9.99483E-001,2.34995E+001,-2.89324E+001,9.95866E-001,6.36904E-002,-2.62197E-002,4.66731E-004,6.36928E-002,-2.62221E-002,2.97417E-001,6.40230E-002,1.06577E+000,-7.43099E-003,0.00000E+000,8.11290E-003,9.75345E-001,0.00000E+000,-8.48232E-003,-5.07549E-002,1.00000E+000,10
1259,1297,2.53159E+001,-1.69061E+000,4.49000E-003,3.90189E+000,2.30444E-002,6.34078E-003,3.90197E+000,8.14935E-003,4.54704E-001,0,5.83205E+001,-1.72913E-001,9.99497E-001,2.33451E+001,-2.90339E+001,9.97492E-001,6.45256E-002,-2.62161E-002,6.54575E-004,6.45303E-002,-2.62209E-002,4.13280E-001,6.49066E-002,1.06665E+000,-7.42906E-003,0.00000E+000,8.39003E-003,9.75345E-001,0.00000E+000,-6.82475E-003,-5.07513E-002,1.00000E+000,10
1259,1307,2.53198E+001,-1.06281E+000,-6.20912E-002,3.89745E+000,4.12828E-003,-2.40237E-002,3.89752E+000,8.29148E-003,4.54230E-001,0,5.83805E+001,-4.10373E-001,9.99578E-001,2.33603E+001,-2.91367E+001,9.98065E-001,6.53592E-002,-2.62086E-002,8.47209E-004,6.53671E-002,-2.62164E-002,5.30055E-001,6.57922E-002,1.06753E+000,-7.41781E-003,0.00000E+000,8.66783E-003,9.75349E-001,0.00000E+000,-5.16316E-003,-5.07300E-002,1.00000E+000,10
599,1327,-2.06118E+001,-4.59732E-001,8.50250E-002,9.82401E-001,-3.19311E-001,8.39769E-002,1.03640E+000,5.98179E-003,6.32865E-001,0,1.52417E+001,-5.31251E+000,9.99699E-001,-2.54099E+001,-4.61369E+001,9.99176E-001,5.74868E-002,-2.39370E-002,-9.53868E-004,5.74979E-002,-2.39482E-002,-6.71089E-001,5.77645E-002,1.05905E+000,1.60201E-002,0.00000E+000,-1.66472E-002,9.77309E-001,0.00000E+000,6.92841E-004,-4.75408E-002,1.00000E+000,10
599,1337,-2.05947E+001,1.56628E-001,2.80109E-002,9.93675E-001,-3.35581E-001,5.31162E-002,1.05015E+000,5.24112E-003,6.20620E-001,0,1.55016E+001,-5.50835E+000,9.99661E-001,-2.51614E+001,-4.65591E+001,9.99442E-001,5.62067E-002,-2.39397E-002,-7.56418E-004,5.62138E-002,-2.39468E-002,-5.40691E-001,5.64187E-002,1.05770E+000,1.60079E-002,0.00000E+000,-1.62295E-002,9.77313E-001,0.00000E+000,-1.58021E-004,-4.75484E-002,1.00000E+000,10
1259,1317,2.53308E+001,-4.31228E-001,-1.01103E-001,3.89268E+000,-1.44140E-002,-5.51500E-002,3.89310E+000,7.86803E-003,4.41166E-001,0,5.84347E+001,-6.44963E-001,9.99739E-001,2.35283E+001,-2.92470E+001,9.98611E-001,6.61919E-002,-2.61967E-002,1.04514E-003,6.62037E-002,-2.62086E-002,6.48042E-001,6.66805E-002,1.06841E+000,-7.39632E-003,0.00000E+000,8.94649E-003,9.75356E-001,0.00000E+000,-3.49642E-003,-5.06895E-002,1.00000E+000,10
599,1317,-2.06266E+001,-1.07341E+000,1.66458E-001,9.68967E-001,-3.02998E-001,1.13013E-001,1.02151E+000,7.84642E-003,6.17360E-001,0,1.49519E+001,-5.11562E+000,9.99678E-001,-2.55515E+001,-4.57394E+001,9.99179E-001,5.87626E-002,-2.39317E-002,-1.15526E-003,5.87787E-002,-2.39478E-002,-8.00228E-001,5.91136E-002,1.06040E+000,1.60231E-002,0.00000E+000,-1.70644E-002,9.77308E-001,0.00000E+000,1.54258E-003,-4.75389E-002,1.00000E+000,10
589,1347,-2.12470E+001,7.88324E-001,9.96081E-003,9.68380E-001,-3.36837E-001,2.70179E-002,1.02565E+000,5.18546E-003,6.29432E-001,0,1.51808E+001,-5.47027E+000,9.99719E-001,-2.49892E+001,-4.69206E+001,9.99533E-001,5.47159E-002,-2.38715E-002,-2.21745E-004,5.47166E-002,-2.38721E-002,-1.61666E-001,5.48644E-002,1.05610E+000,1.75396E-002,0.00000E+000,-1.65843E-002,9.77338E-001,0.00000E+000,-9.93605E-004,-4.67888E-002,1.00000E+000,10
589,1357,-2.12188E+001,1.41604E+000,1.60669E-002,9.80899E-001,-3.51793E-001,-1.22888E-003,1.04208E+000,3.98336E-003,6.43463E-001,0,1.54502E+001,-5.64768E+000,9.99788E-001,-2.43785E+001,-4.72969E+001,9.99652E-001,5.34375E-002,-2.38686E-002,-2.98735E-005,5.34375E-002,-2.38686E-002,-2.21409E-002,5.35388E-002,1.05475E+000,1.75072E-002,0.00000E+000,-1.61600E-002,9.77348E-001,0.00000E+000,-1.87193E-003,-4.68099E-002,1.00000E+000,10
589,1337,-2.12687E+001,1.62177E-001,3.38987E-002,9.57040E-001,-3.25126E-001,5.30007E-002,1.01215E+000,4.63333E-003,6.21844E-001,0,1.49353E+001,-5.34410E+000,9.99776E-001,-2.54104E+001,-4.65843E+001,9.99587E-001,5.59866E-002,-2.38711E-002,-4.17943E-004,5.59888E-002,-2.38733E-002,-2.99852E-001,5.61906E-002,1.05744E+000,1.75610E-002,0.00000E+000,-1.70069E-002,9.77331E-001,0.00000E+000,-1.18799E-004,-4.67748E-002,1.00000E+000,10
589,1327,-2.12827E+001,-4.47799E-001,9.33617E-002,9.48912E-001,-3.03280E-001,8.76489E-002,1.00005E+000,8.65438E-003,6.72729E-001,0,1.47140E+001,-5.07686E+000,9.99804E-001,-2.56045E+001,-4.60477E+001,9.99091E-001,5.72464E-002,-2.38680E-002,-6.17089E-004,5.72511E-002,-2.38727E-002,-4.35852E-001,5.75135E-002,1.05877E+000,1.75732E-002,0.00000E+000,-1.74268E-002,9.77327E-001,0.00000E+000,7.50290E-004,-4.67668E-002,1.00000E+000,10
1269,1327,2.60654E+001,2.19213E-001,-1.09644E-001,3.93420E+000,-2.52260E-002,-9.06316E-002,3.93533E+000,6.57625E-003,4.38247E-001,0,5.91463E+001,-7.72273E-001,9.99825E-001,2.50413E+001,-2.90373E+001,9.98977E-001,6.68833E-002,-2.59353E-002,1.63855E-003,6.69122E-002,-2.59642E-002,1.01104E+000,6.74691E-002,1.06915E+000,-6.50146E-003,0.00000E+000,9.17486E-003,9.75517E-001,0.00000E+000,-1.24330E-003,-4.87865E-002,1.00000E+000,10
1269,1337,2.60980E+001,8.60917E-001,-8.03506E-002,3.93210E+000,-4.34225E-002,-1.22909E-001,3.93426E+000,6.75734E-003,4.02487E-001,0,5.92358E+001,-1.00293E+000,9.99737E-001,2.56399E+001,-2.91538E+001,9.98702E-001,6.77171E-002,-2.59080E-002,1.88970E-003,6.77553E-002,-2.59461E-002,1.15581E+000,6.83714E-002,1.07005E+000,-6.45443E-003,0.00000E+000,9.53652E-003,9.75536E-001,0.00000E+000,4.66200E-004,-4.86965E-002,1.00000E+000,10
589,1317,-2.12991E+001,-1.06331E+000,1.77687E-001,9.33598E-001,-2.88802E-001,1.17848E-001,9.84327E-001,6.92292E-003,5.97407E-001,0,1.43927E+001,-4.88767E+000,9.99504E-001,-2.57611E+001,-4.57126E+001,9.98472E-001,5.85040E-002,-2.38620E-002,-8.20870E-004,5.85122E-002,-2.38702E-002,-5.70941E-001,5.88417E-002,1.06010E+000,1.75755E-002,0.00000E+000,-1.78467E-002,9.77326E-001,0.00000E+000,1.61967E-003,-4.67653E-002,1.00000E+000,10
1269,1317,2.60478E+001,-4.17910E-001,-9.80348E-002,3.94024E+000,-7.73572E-003,-5.84349E-002,3.94068E+000,7.02785E-003,4.29933E-001,0,5.91104E+001,-5.45270E-001,9.99770E-001,2.47338E+001,-2.89639E+001,9.98747E-001,6.60497E-002,-2.59549E-002,1.39529E-003,6.60709E-002,-2.59761E-002,8.68649E-001,6.65718E-002,1.06827E+000,-6.53354E-003,0.00000E+000,8.81500E-003,9.75504E-001,0.00000E+000,-2.94432E-003,-4.88479E-002,1.00000E+000,10
1269,1307,2.60353E+001,-1.05083E+000,-6.04055E-002,3.94368E+000,9.24851E-003,-2.86676E-002,3.94379E+000,7.33388E-003,4.40595E-001,0,5.90419E+001,-3.22757E-001,9.99588E-001,2.45422E+001,-2.88742E+001,9.98477E-001,6.52167E-002,-2.59692E-002,1.15790E-003,6.52314E-002,-2.59839E-002,7.27398E-001,6.56794E-002,1.06738E+000,-6.55521E-003,0.00000E+000,8.45696E-003,9.75495E-001,0.00000E+000,-4.63674E-003,-4.88894E-002,1.00000E+000,10
1269,1297,2.60272E+001,-1.68069E+000,-2.09224E-003,3.94635E+000,2.73507E-002,2.73771E-003,3.94645E+000,8.40974E-003,4.31973E-001,0,5.89523E+001,-9.03090E-002,9.99558E-001,2.44476E+001,-2.87923E+001,9.98002E-001,6.43813E-002,-2.59799E-002,9.23987E-004,6.43907E-002,-2.59893E-002,5.85796E-001,6.47883E-002,1.06650E+000,-6.56995E-003,0.00000E+000,8.09947E-003,9.75489E-001,0.00000E+000,-6.32658E-003,-4.89176E-002,1.00000E+000,10
1269,1287,2.60332E+001,-2.30263E+000,1.02184E-001,3.95160E+000,4.80376E-002,3.66841E-002,3.95206E+000,1.31320E-002,4.04593E-001,0,5.88835E+001,1.73463E-001,9.99651E-001,2.46406E+001,-2.86931E+001,9.96334E-001,6.35462E-002,-2.59824E-002,6.98589E-004,6.35517E-002,-2.59879E-002,4.47041E-001,6.39021E-002,1.06562E+000,-6.56887E-003,0.00000E+000,7.74373E-003,9.75490E-001,0.00000E+000,-8.00812E-003,-4.89156E-002,1.00000E+000,10
579,1347,-2.19191E+001,7.93956E-001,1.32774E-002,9.33576E-001,-3.26453E-001,2.58293E-002,9.89345E-001,4.55842E-003,6.36916E-001,0,1.46450E+001,-5.29917E+000,9.99691E-001,-2.52121E+001,-4.69377E+001,9.99628E-001,5.42160E-002,-2.37849E-002,1.01943E-004,5.42161E-002,-2.37851E-002,7.48824E-002,5.43518E-002,1.05554E+000,1.90391E-002,0.00000E+000,-1.73330E-002,9.77378E-001,0.00000E+000,-1.32502E-003,-4.61078E-002,1.00000E+000,10
579,1357,-2.18884E+001,1.42467E+000,2.41569E-002,9.48462E-001,-3.38741E-001,4.88807E-004,1.00714E+000,4.56584E-003,6.56363E-001,0,1.49428E+001,-5.44033E+000,9.99845E-001,-2.45465E+001,-4.72774E+001,9.99742E-001,5.28741E-002,-2.37823E-002,3.01093E-004,5.28753E-002,-2.37835E-002,2.25043E-001,5.29640E-002,1.05413E+000,1.90049E-002,0.00000E+000,-1.68889E-002,9.77389E-001,0.00000E+000,-2.36434E-003,-4.61330E-002,1.00000E+000,10
579,1337,-2.19435E+001,1.69425E-001,4.13906E-002,9.19527E-001,-3.13363E-001,5.59567E-002,9.73066E-001,4.56123E-003,6.20058E-001,0,1.43464E+001,-5.15521E+000,9.99617E-001,-2.56606E+001,-4.65887E+001,9.99588E-001,5.55486E-002,-2.37840E-002,-1.01885E-004,5.55487E-002,-2.37841E-002,-7.35836E-002,5.57395E-002,1.05695E+000,1.90612E-002,0.00000E+000,-1.77749E-002,9.77371E-001,0.00000E+000,-2.90492E-004,-4.60915E-002,1.00000E+000,10
579,1327,-2.19623E+001,-4.41451E-001,9.00976E-002,9.07063E-001,-2.92629E-001,8.35571E-002,9.56753E-001,6.57574E-003,6.74551E-001,0,1.40765E+001,-4.88246E+000,9.99754E-001,-2.59614E+001,-4.60398E+001,9.98866E-001,5.68691E-002,-2.37807E-002,-3.08087E-004,5.68702E-002,-2.37818E-002,-2.18869E-001,5.71235E-002,1.05835E+000,1.90751E-002,0.00000E+000,-1.82139E-002,9.77367E-001,0.00000E+000,7.36947E-004,-4.60813E-002,1.00000E+000,10
579,1317,-2.19751E+001,-1.05166E+000,1.77292E-001,8.95594E-001,-2.74370E-001,1.18244E-001,9.44113E-001,8.74366E-003,6.78464E-001,0,1.38034E+001,-4.66062E+000,9.99495E-001,-2.60527E+001,-4.55875E+001,9.98267E-001,5.81846E-002,-2.37741E-002,-5.19079E-004,5.81878E-002,-2.37774E-002,-3.62859E-001,5.85108E-002,1.05974E+000,1.90781E-002,0.00000E+000,-1.86522E-002,9.77366E-001,0.00000E+000,1.76290E-003,-4.60791E-002,1.00000E+000,10
1279,1317,2.67580E+001,-4.10015E-001,-1.04528E-001,3.98379E+000,-4.11926E-003,-5.87985E-002,3.98422E+000,6.61074E-003,4.03706E-001,0,5.97162E+001,-4.99900E-001,9.99626E-001,2.58215E+001,-2.87527E+001,9.98197E-001,6.57702E-002,-2.55883E-002,1.67966E-003,6.58011E-002,-2.56192E-002,1.05293E+000,6.63361E-002,1.06797E+000,-5.71593E-003,0.00000E+000,8.60274E-003,9.75782E-001,0.00000E+000,-2.45845E-003,-4.70764E-002,1.00000E+000,10
1279,1327,2.67829E+001,2.31999E-001,-1.04572E-001,3.98348E+000,-1.92032E-002,-8.48681E-002,3.98443E+000,9.12034E-003,4.31990E-001,0,5.98111E+001,-6.92005E-001,9.99689E-001,2.62593E+001,-2.87632E+001,9.98819E-001,6.66471E-002,-2.55635E-002,1.97240E-003,6.66893E-002,-2.56056E-002,1.22482E+000,6.72853E-002,1.06891E+000,-5.67990E-003,0.00000E+000,9.05225E-003,9.75799E-001,0.00000E+000,-6.07302E-004,-4.70051E-002,1.00000E+000,10
1279,1337,2.68157E+001,8.75334E-001,-7.45652E-002,3.98141E+000,-3.73233E-002,-1.15943E-001,3.98328E+000,6.86573E-003,4.28067E-001,0,5.98968E+001,-9.19187E-001,9.99751E-001,2.68591E+001,-2.88387E+001,9.99125E-001,6.75230E-002,-2.55306E-002,2.27224E-003,6.75785E-002,-2.55861E-002,1.39797E+000,6.82391E-002,1.06985E+000,-5.63041E-003,0.00000E+000,9.50355E-003,9.75823E-001,0.00000E+000,1.25120E-003,-4.69072E-002,1.00000E+000,10
1279,1307,2.67422E+001,-1.04160E+000,-7.20417E-002,3.98528E+000,1.42174E-002,-2.96610E-002,3.98541E+000,7.67931E-003,4.43425E-001,0,5.96207E+001,-2.55943E-001,9.99632E-001,2.55725E+001,-2.86186E+001,9.97729E-001,6.48966E-002,-2.56064E-002,1.39447E-003,6.49181E-002,-2.56278E-002,8.82537E-001,6.53956E-002,1.06704E+000,-5.74052E-003,0.00000E+000,8.15714E-003,9.75770E-001,0.00000E+000,-4.29346E-003,-4.71250E-002,1.00000E+000,10
1279,1297,2.67389E+001,-1.66940E+000,1.28070E-003,3.98942E+000,3.38844E-002,3.88801E-003,3.98957E+000,1.25015E-002,3.56179E-001,0,5.95411E+001,1.81197E-002,9.99656E-001,2.55753E+001,-2.85772E+001,9.98329E-001,6.40195E-002,-2.56162E-002,1.11596E-003,6.40334E-002,-2.56301E-002,7.13180E-001,6.44567E-002,1.06612E+000,-5.75120E-003,0.00000E+000,7.71198E-003,9.75765E-001,0.00000E+000,-6.12669E-003,-4.71461E-002,1.00000E+000,10
1279,1287,2.67398E+001,-2.29997E+000,8.44013E-002,3.99343E+000,4.77027E-002,3.12528E-002,3.99384E+000,1.15804E-002,3.24834E-001,0,5.94851E+001,2.00705E-001,9.99715E-001,2.56566E+001,-2.85713E+001,9.97596E-001,6.31412E-002,-2.56222E-002,8.41243E-004,6.31492E-002,-2.56302E-002,5.42947E-001,6.35212E-002,1.06519E+000,-5.75570E-003,0.00000E+000,7.26839E-003,9.75763E-001,0.00000E+000,-7.95349E-003,-4.71550E-002,1.00000E+000,10
569,1347,-2.25910E+001,8.04323E-001,1.80815E-002,8.98962E-001,-3.11429E-001,2.78040E-002,9.51784E-001,4.67198E-003,6.64896E-001,0,1.41022E+001,-5.06761E+000,9.99682E-001,-2.54204E+001,-4.68755E+001,9.99521E-001,5.39380E-002,-2.36452E-002,3.88314E-004,5.39400E-002,-2.36471E-002,2.86764E-001,5.40763E-002,1.05522E+000,2.05855E-002,0.00000E+000,-1.82145E-002,9.77462E-001,0.00000E+000,-1.25996E-003,-4.52757E-002,1.00000E+000,10
569,1357,-2.25616E+001,1.43043E+000,1.93055E-002,9.13915E-001,-3.25978E-001,4.70362E-004,9.70311E-001,4.83934E-003,6.66221E-001,0,1.44067E+001,-5.24623E+000,9.99789E-001,-2.48043E+001,-4.72758E+001,9.99445E-001,5.25767E-002,-2.36438E-002,6.16637E-004,5.25816E-002,-2.36488E-002,4.63493E-001,5.26701E-002,1.05379E+000,2.05539E-002,0.00000E+000,-1.77138E-002,9.77473E-001,0.00000E+000,-2.41834E-003,-4.53013E-002,1.00000E+000,10
569,1327,-2.26350E+001,-4.37287E-001,8.58097E-002,8.72437E-001,-2.83099E-001,8.26450E-002,9.20935E-001,9.22768E-003,6.81926E-001,0,1.35435E+001,-4.72379E+000,9.99830E-001,-2.62125E+001,-4.60597E+001,9.99375E-001,5.66371E-002,-2.36398E-002,-7.75062E-005,5.66371E-002,-2.36398E-002,-5.53182E-002,5.68942E-002,1.05807E+000,2.06238E-002,0.00000E+000,-1.92112E-002,9.77448E-001,0.00000E+000,1.04534E-003,-4.52447E-002,1.00000E+000,10
569,1337,-2.26149E+001,1.81070E-001,4.51731E-002,8.84551E-001,-2.98056E-001,5.31612E-002,9.34929E-001,4.22870E-003,6.45342E-001,0,1.38105E+001,-4.90322E+000,9.99726E-001,-2.58668E+001,-4.65039E+001,9.99612E-001,5.52920E-002,-2.36430E-002,1.55677E-004,5.52923E-002,-2.36433E-002,1.12999E-001,5.54851E-002,1.05665E+000,2.06064E-002,0.00000E+000,-1.87139E-002,9.77454E-001,0.00000E+000,-1.04925E-004,-4.52588E-002,1.00000E+000,10
1289,1327,2.74903E+001,2.39525E-001,-1.15699E-001,4.02508E+000,-1.61709E-002,-8.44796E-002,4.02600E+000,8.19984E-003,4.30137E-001,0,6.03851E+001,-6.57960E-001,9.99539E-001,2.72995E+001,-2.85342E+001,9.98474E-001,6.63480E-002,-2.50351E-002,2.25772E-003,6.64038E-002,-2.50909E-002,1.41440E+000,6.70610E-002,1.06859E+000,-4.78765E-003,0.00000E+000,8.78220E-003,9.76231E-001,0.00000E+000,-1.65476E-004,-4.50486E-002,1.00000E+000,10
1289,1337,2.75243E+001,8.85425E-001,-8.42114E-002,4.02418E+000,-3.21688E-002,-1.13393E-001,4.02591E+000,7.99002E-003,4.36542E-001,0,6.04790E+001,-8.58129E-001,9.99730E-001,2.79180E+001,-2.85663E+001,9.98700E-001,6.72935E-002,-2.49995E-002,2.58565E-003,6.73659E-002,-2.50719E-002,1.60350E+000,6.80958E-002,1.06961E+000,-4.73420E-003,0.00000E+000,9.28329E-003,9.76257E-001,0.00000E+000,1.82400E-003,-4.49438E-002,1.00000E+000,10
569,1317,-2.26506E+001,-1.04366E+000,1.78264E-001,8.56547E-001,-2.61342E-001,1.13341E-001,9.02673E-001,1.00145E-002,6.73327E-001,0,1.32108E+001,-4.45008E+000,9.99530E-001,-2.63305E+001,-4.55645E+001,9.98504E-001,5.79754E-002,-2.36307E-002,-3.18403E-004,5.79766E-002,-2.36319E-002,-2.23547E-001,5.83056E-002,1.05949E+000,2.06235E-002,0.00000E+000,-1.97072E-002,9.77448E-001,0.00000E+000,2.19284E-003,-4.52450E-002,1.00000E+000,10
1289,1317,2.74683E+001,-3.98514E-001,-1.06416E-001,4.02598E+000,-7.06007E-004,-5.80752E-002,4.02640E+000,1.08645E-002,4.77475E-001,0,6.02957E+001,-4.58824E-001,9.99651E-001,2.69214E+001,-2.84458E+001,9.97467E-001,6.54064E-002,-2.50599E-002,1.94079E-003,6.54480E-002,-2.51015E-002,1.22843E+000,6.60372E-002,1.06759E+000,-4.82292E-003,0.00000E+000,8.28582E-003,9.76213E-001,0.00000E+000,-2.13624E-003,-4.51177E-002,1.00000E+000,10
1289,1287,2.74483E+001,-2.28510E+000,7.53111E-002,4.03501E+000,5.69458E-002,2.82348E-002,4.03552E+000,1.14690E-002,3.93652E-001,0,6.00670E+001,3.23115E-001,9.99723E-001,2.67194E+001,-2.82039E+001,9.97716E-001,6.25643E-002,-2.50970E-002,1.02171E-003,6.25762E-002,-2.51089E-002,6.67671E-001,6.29817E-002,1.06459E+000,-4.86771E-003,0.00000E+000,6.80339E-003,9.76191E-001,0.00000E+000,-8.02193E-003,-4.52055E-002,1.00000E+000,10
1289,1297,2.74526E+001,-1.66032E+000,8.63070E-003,4.03275E+000,3.75470E-002,4.29789E-003,4.03293E+000,1.23293E-002,3.24251E-001,0,6.01361E+001,6.19550E-002,9.99777E-001,2.67430E+001,-2.83831E+001,9.98162E-001,6.35117E-002,-2.50875E-002,1.32444E-003,6.35315E-002,-2.51073E-002,8.56237E-001,6.39950E-002,1.06558E+000,-4.85746E-003,0.00000E+000,7.29499E-003,9.76196E-001,0.00000E+000,-6.07013E-003,-4.51854E-002,1.00000E+000,10
1289,1307,2.74554E+001,-1.03168E+000,-7.17735E-002,4.02920E+000,1.71644E-002,-3.18605E-002,4.02936E+000,1.03814E-002,4.66281E-001,0,6.02370E+001,-2.15129E-001,9.99802E-001,2.67226E+001,-2.83676E+001,9.97782E-001,6.44614E-002,-2.50782E-002,1.62916E-003,6.44910E-002,-2.51078E-002,1.04203E+000,6.50155E-002,1.06658E+000,-4.84759E-003,0.00000E+000,7.79033E-003,9.76201E-001,0.00000E+000,-4.10349E-003,-4.51661E-002,1.00000E+000,10
559,1327,-2.33013E+001,-4.26802E-001,8.32315E-002,8.42894E-001,-2.68869E-001,7.78292E-002,8.88154E-001,1.65666E-002,8.01419E-001,0,1.30979E+001,-4.52791E+000,9.99850E-001,-2.63557E+001,-4.59296E+001,9.99302E-001,5.64022E-002,-2.36190E-002,1.93836E-004,5.64027E-002,-2.36195E-002,1.38787E-001,5.66503E-002,1.05779E+000,2.21941E-002,0.00000E+000,-2.01461E-002,9.77404E-001,0.00000E+000,1.33874E-003,-4.41849E-002,1.00000E+000,10
559,1337,-2.32857E+001,1.90099E-001,4.04241E-002,8.50869E-001,-2.84129E-001,4.76714E-002,8.98321E-001,4.22342E-003,6.63734E-001,0,1.33016E+001,-4.66961E+000,9.99859E-001,-2.60841E+001,-4.64444E+001,9.99737E-001,5.50867E-002,-2.36225E-002,3.95470E-004,5.50886E-002,-2.36245E-002,2.87870E-001,5.52743E-002,1.05640E+000,2.21778E-002,0.00000E+000,-1.97117E-002,9.77409E-001,0.00000E+000,1.32493E-004,-4.41991E-002,1.00000E+000,10
559,1347,-2.32639E+001,8.12026E-001,1.45610E-002,8.63138E-001,-2.97071E-001,2.29288E-002,9.13118E-001,5.45492E-003,6.31957E-001,0,1.35576E+001,-4.82769E+000,9.99728E-001,-2.56664E+001,-4.68666E+001,9.99494E-001,5.37639E-002,-2.36249E-002,5.95905E-004,5.37684E-002,-2.36295E-002,4.41151E-001,5.38996E-002,1.05501E+000,2.21575E-002,0.00000E+000,-1.92761E-002,9.77415E-001,0.00000E+000,-1.07730E-003,-4.42167E-002,1.00000E+000,10
559,1357,-2.32346E+001,1.43748E+000,1.62346E-002,8.78760E-001,-3.11205E-001,-2.12908E-004,9.32238E-001,4.60384E-003,6.29269E-001,0,1.38616E+001,-5.01229E+000,9.99716E-001,-2.50493E+001,-4.72817E+001,9.99667E-001,5.24317E-002,-2.36247E-002,7.93103E-004,5.24400E-002,-2.36330E-002,5.97384E-001,5.25250E-002,1.05360E+000,2.21283E-002,0.00000E+000,-1.88384E-002,9.77424E-001,0.00000E+000,-2.29247E-003,-4.42420E-002,1.00000E+000,10
559,1317,-2.33213E+001,-1.03372E+000,1.74741E-001,8.22104E-001,-2.48275E-001,1.04849E-001,8.65152E-001,1.66384E-002,7.27948E-001,0,1.26986E+001,-4.23024E+000,9.99754E-001,-2.65432E+001,-4.54721E+001,9.98989E-001,5.77124E-002,-2.36105E-002,-1.57143E-005,5.77124E-002,-2.36105E-002,-1.10715E-002,5.80294E-002,1.05918E+000,2.21928E-002,0.00000E+000,-2.05799E-002,9.77404E-001,0.00000E+000,2.54334E-003,-4.41860E-002,1.00000E+000,10
1299,1327,2.82052E+001,2.51233E-001,-1.20584E-001,4.06958E+000,-1.18919E-002,-9.28170E-002,4.07065E+000,1.01862E-002,4.43762E-001,0,6.10347E+001,-5.82427E-001,9.99568E-001,2.84692E+001,-2.82457E+001,9.98927E-001,6.60898E-002,-2.44465E-002,2.50626E-003,6.61591E-002,-2.45158E-002,1.58446E+000,6.68941E-002,1.06832E+000,-3.74751E-003,0.00000E+000,8.30618E-003,9.76715E-001,0.00000E+000,2.84737E-004,-4.28099E-002,1.00000E+000,10
1299,1337,2.82442E+001,8.98098E-001,-7.91211E-002,4.07223E+000,-2.85833E-002,-1.16305E-001,4.07399E+000,9.95169E-003,4.72821E-001,0,6.11588E+001,-8.05729E-001,9.99518E-001,2.91770E+001,-2.82715E+001,9.98561E-001,6.71145E-002,-2.44075E-002,2.85759E-003,6.72036E-002,-2.44966E-002,1.78663E+000,6.80211E-002,1.06942E+000,-3.68717E-003,0.00000E+000,8.84451E-003,9.76744E-001,0.00000E+000,2.45580E-003,-4.26909E-002,1.00000E+000,10
1299,1287,2.81638E+001,-2.27387E+000,7.83059E-002,4.07882E+000,5.93509E-002,2.15294E-002,4.07931E+000,9.38154E-003,4.93734E-001,0,6.06971E+001,3.47786E-001,9.99752E-001,2.79118E+001,-2.79024E+001,9.97680E-001,6.19943E-002,-2.45091E-002,1.19128E-003,6.20107E-002,-2.45255E-002,7.88850E-001,6.24605E-002,1.06399E+000,-3.83189E-003,0.00000E+000,6.18546E-003,9.76674E-001,0.00000E+000,-8.26802E-003,-4.29763E-002,1.00000E+000,10
1299,1297,2.81672E+001,-1.65179E+000,5.32069E-003,4.07701E+000,3.74976E-002,-3.33447E-003,4.07718E+000,9.88045E-003,4.89035E-001,0,6.07790E+001,2.28583E-002,9.99774E-001,2.79113E+001,-2.80766E+001,9.98296E-001,6.30210E-002,-2.45009E-002,1.51259E-003,6.30471E-002,-2.45270E-002,9.89818E-001,6.35626E-002,1.06506E+000,-3.82313E-003,0.00000E+000,6.71258E-003,9.76678E-001,0.00000E+000,-6.14218E-003,-4.29590E-002,1.00000E+000,10
1299,1307,2.81788E+001,-1.01625E+000,-3.98939E-002,4.07798E+000,2.34803E-002,-1.96901E-002,4.07810E+000,1.74495E-002,5.20751E-001,0,6.08609E+001,-1.74699E-001,9.99751E-001,2.80757E+001,-2.80826E+001,9.98541E-001,6.40492E-002,-2.44873E-002,1.84027E-003,6.40874E-002,-2.45256E-002,1.19023E+000,6.46727E-002,1.06615E+000,-3.80547E-003,0.00000E+000,7.24347E-003,9.76686E-001,0.00000E+000,-4.00111E-003,-4.29242E-002,1.00000E+000,10
1299,1317,2.81890E+001,-3.84554E-001,-9.29257E-002,4.07268E+000,4.24190E-003,-6.17532E-002,4.07315E+000,1.36485E-002,4.91551E-001,0,6.09560E+001,-3.85714E-001,9.99645E-001,2.82078E+001,-2.81630E+001,9.98436E-001,6.50722E-002,-2.44689E-002,2.17180E-003,6.51249E-002,-2.45215E-002,1.38861E+000,6.57834E-002,1.06724E+000,-3.77973E-003,0.00000E+000,7.77473E-003,9.76699E-001,0.00000E+000,-1.85858E-003,-4.28734E-002,1.00000E+000,10
559,1307,-2.33375E+001,-1.64162E+000,2.81565E-001,8.03529E-001,-2.29814E-001,1.36136E-001,8.46762E-001,7.41959E-003,6.85006E-001,0,1.23232E+001,-3.99727E+000,9.99481E-001,-2.66239E+001,-4.50451E+001,9.98694E-001,5.90186E-002,-2.36009E-002,-2.26797E-004,5.90192E-002,-2.36015E-002,-1.57280E-001,5.94122E-002,1.06057E+000,2.21878E-002,0.00000E+000,-2.10135E-002,9.77406E-001,0.00000E+000,3.74729E-003,-4.41904E-002,1.00000E+000,10
549,1347,-2.39332E+001,8.22856E-001,1.43107E-002,8.30524E-001,-2.81873E-001,2.14760E-002,8.77316E-001,4.59495E-003,6.76304E-001,0,1.30537E+001,-4.58610E+000,9.99707E-001,-2.58429E+001,-4.67781E+001,9.99550E-001,5.35814E-002,-2.35694E-002,8.19540E-004,5.35901E-002,-2.35781E-002,6.08537E-001,5.37187E-002,1.05478E+000,2.36587E-002,0.00000E+000,-2.02482E-002,9.77404E-001,0.00000E+000,-7.47761E-004,-4.31332E-002,1.00000E+000,10
549,1357,-2.39034E+001,1.45134E+000,2.21107E-002,8.45941E-001,-2.93774E-001,-8.22249E-004,8.95499E-001,4.85264E-003,6.57188E-001,0,1.33514E+001,-4.72549E+000,9.99688E-001,-2.51971E+001,-4.71703E+001,9.99652E-001,5.22883E-002,-2.35693E-002,1.01064E-003,5.23018E-002,-2.35827E-002,7.63162E-001,5.23858E-002,1.05342E+000,2.36291E-002,0.00000E+000,-1.98234E-002,9.77414E-001,0.00000E+000,-1.98452E-003,-4.31602E-002,1.00000E+000,10
549,1327,-2.39833E+001,-4.15083E-001,9.82797E-002,7.95628E-001,-2.52768E-001,8.06596E-002,8.38702E-001,1.31375E-002,7.21371E-001,0,1.23537E+001,-4.24792E+000,9.99584E-001,-2.66791E+001,-4.59203E+001,9.98042E-001,5.61423E-002,-2.35616E-002,4.26703E-004,5.61446E-002,-2.35639E-002,3.06726E-001,5.63855E-002,1.05748E+000,2.36902E-002,0.00000E+000,-2.10928E-002,9.77394E-001,0.00000E+000,1.71134E-003,-4.31045E-002,1.00000E+000,10
549,1337,-2.39573E+001,2.00556E-001,4.32418E-002,8.15540E-001,-2.67391E-001,4.72522E-002,8.59556E-001,4.11188E-003,6.61438E-001,0,1.27523E+001,-4.41992E+000,9.99790E-001,-2.62872E+001,-4.63900E+001,9.99738E-001,5.48688E-002,-2.35664E-002,6.23725E-004,5.48737E-002,-2.35713E-002,4.55584E-001,5.50550E-002,1.05614E+000,2.36776E-002,0.00000E+000,-2.06722E-002,9.77398E-001,0.00000E+000,4.86782E-004,-4.31160E-002,1.00000E+000,10
1309,1317,2.88971E+001,-3.79500E-001,-1.11028E-001,4.11431E+000,5.49696E-003,-6.80439E-002,4.11488E+000,1.04439E-002,4.46435E-001,0,6.15565E+001,-3.49887E-001,9.99565E-001,2.92595E+001,-2.79808E+001,9.98664E-001,6.49164E-002,-2.39630E-002,2.43065E-003,6.49828E-002,-2.40294E-002,1.56535E+000,6.57133E-002,1.06707E+000,-2.57738E-003,0.00000E+000,7.17729E-003,9.77109E-001,0.00000E+000,-1.73016E-003,-4.06696E-002,1.00000E+000,10
1309,1327,2.89203E+001,2.60471E-001,-1.22600E-001,4.11529E+000,-8.42772E-003,-9.27587E-002,4.11635E+000,1.23132E-002,4.21914E-001,0,6.16675E+001,-5.33869E-001,9.99467E-001,2.96490E+001,-2.80197E+001,9.98436E-001,6.59995E-002,-2.39400E-002,2.74909E-003,6.60834E-002,-2.40239E-002,1.74913E+000,6.68988E-002,1.06823E+000,-2.53818E-003,0.00000E+000,7.67646E-003,9.77126E-001,0.00000E+000,4.24300E-004,-4.05966E-002,1.00000E+000,10
1309,1337,2.89574E+001,9.07957E-001,-8.55201E-002,4.11721E+000,-2.38318E-002,-1.15758E-001,4.11890E+000,1.12586E-002,4.49170E-001,0,6.17792E+001,-7.40884E-001,9.99629E-001,3.03194E+001,-2.80257E+001,9.99070E-001,6.70872E-002,-2.39050E-002,3.08086E-003,6.71914E-002,-2.40092E-002,1.93699E+000,6.80971E-002,1.06940E+000,-2.47606E-003,0.00000E+000,8.18060E-003,9.77153E-001,0.00000E+000,2.60024E-003,-4.04809E-002,1.00000E+000,10
549,1317,-2.39968E+001,-1.02380E+000,1.83414E-001,7.82521E-001,-2.34608E-001,1.08664E-001,8.24128E-001,1.09772E-002,7.33420E-001,0,1.20736E+001,-4.01194E+000,9.99694E-001,-2.67870E+001,-4.54311E+001,9.98769E-001,5.74110E-002,-2.35536E-002,2.24575E-004,5.74116E-002,-2.35542E-002,1.58922E-001,5.77189E-002,1.05883E+000,2.36913E-002,0.00000E+000,-2.15129E-002,9.77394E-001,0.00000E+000,2.93444E-003,-4.31036E-002,1.00000E+000,10
549,1307,-2.40106E+001,-1.63104E+000,2.74292E-001,7.67249E-001,-2.14849E-001,1.29639E-001,8.07241E-001,7.92500E-003,7.01269E-001,0,1.17765E+001,-3.74249E+000,9.99502E-001,-2.68790E+001,-4.49527E+001,9.98722E-001,5.86785E-002,-2.35444E-002,2.02929E-005,5.86785E-002,-2.35444E-002,1.41408E-002,5.90587E-002,1.06018E+000,2.36883E-002,0.00000E+000,-2.19337E-002,9.77395E-001,0.00000E+000,4.15960E-003,-4.31063E-002,1.00000E+000,10
1309,1287,2.88804E+001,-2.26789E+000,8.14119E-002,4.12226E+000,5.95169E-002,1.16142E-002,4.12270E+000,9.01241E-003,4.70787E-001,0,6.13347E+001,3.52055E-001,9.99715E-001,2.91232E+001,-2.77444E+001,9.97435E-001,6.16498E-002,-2.39932E-002,1.51404E-003,6.16766E-002,-2.40200E-002,1.01248E+000,6.21771E-002,1.06362E+000,-2.62119E-003,0.00000E+000,5.68835E-003,9.77090E-001,0.00000E+000,-8.15651E-003,-4.07512E-002,1.00000E+000,10
1309,1297,2.88810E+001,-1.64495E+000,-1.34144E-003,4.11935E+000,3.68253E-002,-1.62856E-002,4.11955E+000,1.10483E-002,4.89506E-001,0,6.14150E+001,4.58152E-002,9.99651E-001,2.90658E+001,-2.78715E+001,9.98013E-001,6.27431E-002,-2.39876E-002,1.81532E-003,6.27811E-002,-2.40256E-002,1.19853E+000,6.33544E-002,1.06477E+000,-2.61494E-003,0.00000E+000,6.18395E-003,9.77093E-001,0.00000E+000,-6.01747E-003,-4.07396E-002,1.00000E+000,10
1309,1307,2.88822E+001,-1.01413E+000,-7.74586E-002,4.11568E+000,2.36329E-002,-4.28053E-002,4.11597E+000,1.05793E-002,3.90186E-001,0,6.14732E+001,-9.58463E-002,9.99653E-001,2.90277E+001,-2.79487E+001,9.99119E-001,6.38273E-002,-2.39806E-002,2.11680E-003,6.38783E-002,-2.40316E-002,1.38017E+000,6.45275E-002,1.06592E+000,-2.60626E-003,0.00000E+000,6.67811E-003,9.77097E-001,0.00000E+000,-3.88463E-003,-4.07234E-002,1.00000E+000,10
539,1347,-2.46051E+001,8.34528E-001,1.63893E-002,7.94817E-001,-2.64468E-001,2.12641E-002,8.37932E-001,4.48182E-003,6.62149E-001,0,1.24970E+001,-4.30628E+000,9.99737E-001,-2.60462E+001,-4.67116E+001,9.99582E-001,5.34358E-002,-2.35165E-002,9.60615E-004,5.34478E-002,-2.35284E-002,7.15090E-001,5.35750E-002,1.05459E+000,2.50125E-002,0.00000E+000,-2.12430E-002,9.77389E-001,0.00000E+000,-4.53855E-004,-4.20208E-002,1.00000E+000,10
539,1357,-2.45752E+001,1.46298E+000,1.67871E-002,8.11440E-001,-2.75720E-001,-2.45174E-003,8.57007E-001,4.49398E-003,6.48717E-001,0,1.28169E+001,-4.42896E+000,9.99770E-001,-2.54201E+001,-4.70870E+001,9.99636E-001,5.22190E-002,-2.35174E-002,1.14973E-003,5.22365E-002,-2.35349E-002,8.69523E-001,5.23216E-002,1.05332E+000,2.49867E-002,0.00000E+000,-2.08268E-002,9.77398E-001,0.00000E+000,-1.69050E-003,-4.20457E-002,1.00000E+000,10
539,1327,-2.46524E+001,-4.04676E-001,9.25090E-002,7.62953E-001,-2.34850E-001,7.53491E-002,8.01829E-001,5.83371E-003,6.38402E-001,0,1.18582E+001,-3.94202E+000,9.99419E-001,-2.68658E+001,-4.58864E+001,9.98951E-001,5.58495E-002,-2.35081E-002,5.74091E-004,5.58536E-002,-2.35123E-002,4.14462E-001,5.60858E-002,1.05714E+000,2.50426E-002,0.00000E+000,-2.20717E-002,9.77379E-001,0.00000E+000,2.00913E-003,-4.19916E-002,1.00000E+000,10
539,1337,-2.46298E+001,2.13488E-001,4.46486E-002,7.79068E-001,-2.49002E-001,4.60013E-002,8.19186E-001,4.70493E-003,6.36001E-001,0,1.21863E+001,-4.11616E+000,9.99636E-001,-2.65021E+001,-4.63065E+001,9.99546E-001,5.46471E-002,-2.35130E-002,7.67932E-004,5.46546E-002,-2.35205E-002,5.62865E-001,5.48311E-002,1.05587E+000,2.50299E-002,0.00000E+000,-2.16583E-002,9.77384E-001,0.00000E+000,7.80611E-004,-4.20040E-002,1.00000E+000,10
1319,1297,2.95858E+001,-1.63922E+000,-1.89287E-002,4.15725E+000,4.04081E-002,-2.24633E-002,4.15751E+000,9.18240E-003,3.65622E-001,0,6.19567E+001,1.36975E-001,9.99644E-001,3.00713E+001,-2.77234E+001,9.98480E-001,6.24791E-002,-2.34343E-002,2.17092E-003,6.25340E-002,-2.34891E-002,1.44656E+000,6.31756E-002,1.06450E+000,-1.17292E-003,0.00000E+000,5.55345E-003,9.77539E-001,0.00000E+000,-6.21151E-003,-3.81493E-002,1.00000E+000,10
1319,1307,2.95935E+001,-1.00988E+000,-8.01029E-002,4.15676E+000,2.29332E-002,-4.56810E-002,4.15707E+000,1.00299E-002,3.51874E-001,0,6.20489E+001,-1.05866E-001,9.99620E-001,3.01532E+001,-2.78108E+001,9.99144E-001,6.36673E-002,-2.34250E-002,2.47086E-003,6.37374E-002,-2.34951E-002,1.62377E+000,6.44666E-002,1.06575E+000,-1.15709E-003,0.00000E+000,6.03875E-003,9.77545E-001,0.00000E+000,-3.91025E-003,-3.81202E-002,1.00000E+000,10
539,1307,-2.46818E+001,-1.62215E+000,2.70254E-001,7.31986E-001,-1.99972E-001,1.23170E-001,7.68741E-001,5.50502E-003,6.63577E-001,0,1.12447E+001,-3.49418E+000,9.99575E-001,-2.70917E+001,-4.49200E+001,9.99110E-001,5.82345E-002,-2.34901E-002,1.75061E-004,5.82349E-002,-2.34904E-002,1.22732E-001,5.85963E-002,1.05967E+000,2.50398E-002,0.00000E+000,-2.28950E-002,9.77380E-001,0.00000E+000,4.45590E-003,-4.19944E-002,1.00000E+000,10
539,1317,-2.46686E+001,-1.01712E+000,1.73001E-001,7.47509E-001,-2.19736E-001,1.00670E-001,7.85613E-001,5.66644E-003,6.71707E-001,0,1.15493E+001,-3.76839E+000,9.99527E-001,-2.70288E+001,-4.54326E+001,9.98987E-001,5.70448E-002,-2.35000E-002,3.75717E-004,5.70465E-002,-2.35017E-002,2.67260E-001,5.73405E-002,1.05841E+000,2.50442E-002,0.00000E+000,-2.24838E-002,9.77379E-001,0.00000E+000,3.23377E-003,-4.19901E-002,1.00000E+000,10
1319,1287,2.95895E+001,-2.26572E+000,7.12086E-002,4.16207E+000,5.68820E-002,4.18535E-003,4.16246E+000,9.96817E-003,4.39976E-001,0,6.19108E+001,3.30629E-001,9.99667E-001,3.02046E+001,-2.76223E+001,9.98424E-001,6.12886E-002,-2.34371E-002,1.87844E-003,6.13302E-002,-2.34787E-002,1.26947E+000,6.18891E-002,1.06325E+000,-1.17511E-003,0.00000E+000,5.06999E-003,9.77538E-001,0.00000E+000,-8.50405E-003,-3.81533E-002,1.00000E+000,10
529,1327,-2.53223E+001,-3.93525E-001,9.22869E-002,7.28316E-001,-2.18379E-001,7.00958E-002,7.63576E-001,5.15910E-003,6.38926E-001,0,1.13310E+001,-3.67948E+000,9.99406E-001,-2.70417E+001,-4.58117E+001,9.98867E-001,5.56274E-002,-2.33690E-002,7.31860E-004,5.56342E-002,-2.33757E-002,5.30755E-001,5.58700E-002,1.05688E+000,2.60498E-002,0.00000E+000,-2.27191E-002,9.77469E-001,0.00000E+000,2.47089E-003,-4.11856E-002,1.00000E+000,10
529,1307,-2.53518E+001,-1.61129E+000,2.76386E-001,6.96582E-001,-1.84492E-001,1.20798E-001,7.30654E-001,6.81965E-003,6.38001E-001,0,1.06993E+001,-3.24332E+000,9.99692E-001,-2.72498E+001,-4.48723E+001,9.99317E-001,5.77640E-002,-2.33546E-002,4.25156E-004,5.77663E-002,-2.33569E-002,3.00286E-001,5.81177E-002,1.05915E+000,2.60462E-002,0.00000E+000,-2.33561E-002,9.77470E-001,0.00000E+000,4.74365E-003,-4.11892E-002,1.00000E+000,10
529,1317,-2.53396E+001,-1.00565E+000,1.67976E-001,7.12566E-001,-2.02613E-001,9.63384E-002,7.47050E-001,5.61785E-003,6.29294E-001,0,1.10155E+001,-3.47132E+000,9.99695E-001,-2.72368E+001,-4.53624E+001,9.99193E-001,5.66983E-002,-2.33629E-002,5.80477E-004,5.67025E-002,-2.33672E-002,4.15389E-001,5.69938E-002,1.05802E+000,2.60527E-002,0.00000E+000,-2.30380E-002,9.77468E-001,0.00000E+000,3.60861E-003,-4.11827E-002,1.00000E+000,10
