Coordinates.Image X [Pixel],Coordinates.Image Y [Pixel],coor.X [mm],coor.Y [mm],coor.Z [mm],disp.Horizontal Displacement U [mm],disp.Vertical Displacement V [mm],disp.Out-Of-Plane: W [mm],disp.Displacement Magnitude [mm],stats.Sigma [mm],stats.Epipolar Distance [Pixel],stats.Shape Index [-],SameCamera.Horizontal: u [Pixel],SameCamera.Vertical: v [Pixel],SameCamera.Correlation Value 2D [-],CrossCamera.Horizontal: q [Pixel],CrossCamera.Vertical: r [Pixel],CrossCamera.Correlation Value Persp [-],strain.Strain-global frame: Exx [ ],strain.Strain-global frame: Eyy [ ],strain.Strain-global frame: Exy [ ],strain.Maximum Principal Strain: EI [ ],strain.Minimum Principal Strain: EII [ ],strain.Shear Angle Gamma [deg],strain.Von Mises Equivalent Strain [ ],defgradient.F[0,0] [-],defgradient.F[0,1] [-],defgradient.F[0,2] [-],defgradient.F[1,0] [-],defgradient.F[1,1] [-],defgradient.F[1,2] [-],defgradient.F[2,0] [-],defgradient.F[2,1] [-],defgradient.F[2,2] [-],ext.Current Image [#]
929,1317,7.33401E+000,-1.16293E+000,9.20245E-002,7.67008E+000,-5.46573E-001,1.78745E-001,7.69161E+000,1.62502E-002,4.87147E-001,0,1.16777E+002,-9.87060E+000,9.97870E-001,7.38640E+001,-4.32574E+001,9.96392E-001,2.07182E-001,-8.69481E-002,-4.25738E-004,2.07183E-001,-8.69487E-002,-8.29324E-002,2.08072E-001,1.23015E+000,-2.17482E-002,0.00000E+000,1.68127E-002,9.20957E-001,0.00000E+000,-1.65318E-002,-9.76584E-002,1.00000E+000,32
919,1307,6.53268E+000,-1.75925E+000,1.65655E-001,7.53530E+000,-4.93610E-001,2.57172E-001,7.55582E+000,1.87993E-002,5.26202E-001,0,1.14534E+002,-9.17453E+000,9.95808E-001,7.15183E+001,-4.27201E+001,9.93744E-001,2.11052E-001,-8.67110E-002,-1.09819E-003,2.11056E-001,-8.67150E-002,-2.11310E-001,2.12171E-001,1.23494E+000,-1.92689E-002,0.00000E+000,1.35374E-002,9.21307E-001,0.00000E+000,-1.49191E-002,-9.85837E-002,1.00000E+000,32
919,1317,6.51602E+000,-1.18552E+000,4.93125E-002,7.51583E+000,-5.54882E-001,1.91741E-001,7.53873E+000,2.32551E-002,4.85088E-001,0,1.14482E+002,-1.00189E+001,9.93241E-001,7.11087E+001,-4.36217E+001,9.91834E-001,2.08651E-001,-8.67185E-002,-1.31666E-003,2.08657E-001,-8.67244E-002,-2.55399E-001,2.09644E-001,1.23195E+000,-1.92819E-002,0.00000E+000,1.30368E-002,9.21305E-001,0.00000E+000,-1.33837E-002,-9.85770E-002,1.00000E+000,32
919,1327,6.52001E+000,-6.01513E-001,-4.09369E-003,7.50270E+000,-6.17944E-001,1.23204E-001,7.52911E+000,1.73159E-002,5.28605E-001,0,1.14521E+002,-1.08851E+001,9.96859E-001,7.11495E+001,-4.44536E+001,9.95302E-001,2.06218E-001,-8.67348E-002,-1.56339E-003,2.06226E-001,-8.67431E-002,-3.05757E-001,2.07091E-001,1.22894E+000,-1.93605E-002,0.00000E+000,1.25313E-002,9.21292E-001,0.00000E+000,-1.18334E-002,-9.85366E-002,1.00000E+000,32
929,1307,7.34581E+000,-1.73626E+000,1.92706E-001,7.68907E+000,-4.81627E-001,2.48406E-001,7.70814E+000,1.59942E-002,5.32550E-001,0,1.16808E+002,-8.98311E+000,9.98228E-001,7.41653E+001,-4.23159E+001,9.97008E-001,2.09643E-001,-8.69483E-002,-3.95662E-004,2.09643E-001,-8.69488E-002,-7.64343E-002,2.10657E-001,1.23322E+000,-2.17142E-002,0.00000E+000,1.69854E-002,9.20959E-001,0.00000E+000,-1.85621E-002,-9.76809E-002,1.00000E+000,32
929,1327,7.32884E+000,-5.74315E-001,2.22355E-002,7.65147E+000,-6.00299E-001,1.11136E-001,7.67579E+000,1.47749E-002,4.85055E-001,0,1.16732E+002,-1.06105E+001,9.98138E-001,7.37303E+001,-4.40056E+001,9.97298E-001,2.04706E-001,-8.69478E-002,-4.67848E-004,2.04706E-001,-8.69485E-002,-9.19092E-002,2.05478E-001,1.22707E+000,-2.18118E-002,0.00000E+000,1.66397E-002,9.20953E-001,0.00000E+000,-1.44970E-002,-9.76164E-002,1.00000E+000,32
939,1307,8.15076E+000,-1.71857E+000,1.74599E-001,7.83967E+000,-4.70837E-001,2.19906E-001,7.85688E+000,1.75308E-002,5.32763E-001,0,1.19108E+002,-8.77296E+000,9.98363E-001,7.65977E+001,-4.19016E+001,9.97233E-001,2.08006E-001,-8.62978E-002,7.08050E-005,2.08006E-001,-8.62978E-002,1.37845E-002,2.09009E-001,1.23120E+000,-2.47697E-002,0.00000E+000,2.03626E-002,9.21367E-001,0.00000E+000,-2.11466E-002,-9.61875E-002,1.00000E+000,32
939,1317,8.13703E+000,-1.14264E+000,8.15154E-002,7.81796E+000,-5.33130E-001,1.54420E-001,7.83764E+000,1.68837E-002,4.61678E-001,0,1.19021E+002,-9.62738E+000,9.97812E-001,7.62832E+001,-4.28302E+001,9.96265E-001,2.05785E-001,-8.62930E-002,1.07874E-004,2.05785E-001,-8.62930E-002,2.11612E-002,2.06676E-001,1.22841E+000,-2.48041E-002,0.00000E+000,2.02820E-002,9.21366E-001,0.00000E+000,-1.87007E-002,-9.61572E-002,1.00000E+000,32
939,1327,8.13480E+000,-5.46944E-001,1.73050E-002,7.80064E+000,-5.83044E-001,8.55917E-002,7.82287E+000,1.42487E-002,4.99486E-001,0,1.18998E+002,-1.02943E+001,9.97488E-001,7.62070E+001,-4.34587E+001,9.96598E-001,2.03538E-001,-8.62865E-002,1.32869E-004,2.03538E-001,-8.62866E-002,2.62671E-002,2.04322E-001,1.22560E+000,-2.48693E-002,0.00000E+000,2.02009E-002,9.21364E-001,0.00000E+000,-1.62376E-002,-9.61001E-002,1.00000E+000,32
919,1337,6.53161E+000,-3.42880E-003,-2.71135E-002,7.49225E+000,-6.68453E-001,6.19818E-002,7.52226E+000,1.65893E-002,5.01379E-001,0,1.14564E+002,-1.15670E+001,9.96452E-001,7.13733E+001,-4.51693E+001,9.95702E-001,2.03779E-001,-8.67541E-002,-1.81936E-003,2.03791E-001,-8.67655E-002,-3.58776E-001,2.04538E-001,1.22592E+000,-1.94616E-002,0.00000E+000,1.20262E-002,9.21275E-001,0.00000E+000,-1.02844E-002,-9.84846E-002,1.00000E+000,32
929,1337,7.33608E+000,1.57268E-002,-1.38431E-002,7.63910E+000,-6.58208E-001,4.89500E-002,7.66756E+000,1.48747E-002,4.79993E-001,0,1.16756E+002,-1.14033E+001,9.98429E-001,7.38575E+001,-4.48054E+001,9.97815E-001,2.02207E-001,-8.69474E-002,-5.22048E-004,2.02208E-001,-8.69483E-002,-1.03443E-001,2.02868E-001,1.22398E+000,-2.19046E-002,0.00000E+000,1.64658E-002,9.20948E-001,0.00000E+000,-1.24526E-002,-9.75550E-002,1.00000E+000,32
939,1337,8.13964E+000,4.31738E-002,-1.81173E-002,7.78673E+000,-6.39857E-001,2.86435E-002,7.81303E+000,1.32920E-002,5.01869E-001,0,1.18982E+002,-1.10946E+001,9.98325E-001,7.62977E+001,-4.42536E+001,9.97730E-001,2.01280E-001,-8.62793E-002,1.51134E-004,2.01281E-001,-8.62794E-002,3.01132E-002,2.01962E-001,1.22280E+000,-2.49502E-002,0.00000E+000,2.01197E-002,9.21362E-001,0.00000E+000,-1.37753E-002,-9.60291E-002,1.00000E+000,32
949,1317,8.94705E+000,-1.11340E+000,7.61702E-002,7.97104E+000,-5.13454E-001,1.29439E-001,7.98861E+000,2.55428E-002,4.87759E-001,0,1.21339E+002,-9.28411E+000,9.94361E-001,7.88276E+001,-4.22492E+001,9.92505E-001,2.04332E-001,-8.55436E-002,5.31187E-004,2.04333E-001,-8.55446E-002,1.04992E-001,2.05233E-001,1.22660E+000,-2.75515E-002,0.00000E+000,2.32783E-002,9.21815E-001,0.00000E+000,-2.04396E-002,-9.40967E-002,1.00000E+000,32
949,1327,8.93806E+000,-5.19032E-001,1.16784E-002,7.94803E+000,-5.62790E-001,6.56400E-002,7.96820E+000,2.18729E-002,4.90325E-001,0,1.21215E+002,-9.95649E+000,9.95764E-001,7.86460E+001,-4.29142E+001,9.94567E-001,2.02500E-001,-8.55323E-002,6.16648E-004,2.02502E-001,-8.55336E-002,1.22664E-001,2.03313E-001,1.22429E+000,-2.76015E-002,0.00000E+000,2.32611E-002,9.21815E-001,0.00000E+000,-1.75418E-002,-9.40340E-002,1.00000E+000,32
949,1337,8.94375E+000,6.94631E-002,-2.04551E-002,7.93546E+000,-6.21278E-001,1.49446E-002,7.95976E+000,1.61947E-002,5.09265E-001,0,1.21200E+002,-1.08016E+001,9.97475E-001,7.87550E+001,-4.37313E+001,9.96354E-001,2.00653E-001,-8.55192E-002,6.95917E-004,2.00654E-001,-8.55209E-002,1.39331E-001,2.01382E-001,1.22198E+000,-2.76666E-002,0.00000E+000,2.32440E-002,9.21814E-001,0.00000E+000,-1.46370E-002,-9.39522E-002,1.00000E+000,32
949,1307,8.96396E+000,-1.69679E+000,1.69908E-001,7.99563E+000,-4.57825E-001,1.93800E-001,8.01107E+000,2.10449E-002,5.18025E-001,0,1.21475E+002,-8.52242E+000,9.96472E-001,7.91911E+001,-4.14593E+001,9.95157E-001,2.06146E-001,-8.55524E-002,4.36879E-004,2.06147E-001,-8.55531E-002,8.58121E-002,2.07137E-001,1.22890E+000,-2.75241E-002,0.00000E+000,2.32953E-002,9.21816E-001,0.00000E+000,-2.33277E-002,-9.41312E-002,1.00000E+000,32
909,1317,5.71799E+000,-1.20079E+000,4.79241E-002,7.36951E+000,-5.62345E-001,1.92660E-001,7.39344E+000,2.15244E-002,4.71198E-001,0,1.12332E+002,-1.01405E+001,9.91381E-001,6.87526E+001,-4.39650E+001,9.90454E-001,2.10107E-001,-8.74216E-002,-2.28778E-003,2.10124E-001,-8.74392E-002,-4.40529E-001,2.11107E-001,1.23375E+000,-1.66291E-002,0.00000E+000,8.93658E-003,9.20703E-001,0.00000E+000,-1.00180E-002,-9.85837E-002,1.00000E+000,32
909,1327,5.72890E+000,-6.09860E-001,-6.40476E-003,7.36379E+000,-6.19030E-001,1.24970E-001,7.39082E+000,1.76106E-002,4.97270E-001,0,1.12478E+002,-1.08857E+001,9.94012E-001,6.89000E+001,-4.46975E+001,9.94600E-001,2.07751E-001,-8.74346E-002,-2.50568E-003,2.07772E-001,-8.74559E-002,-4.86307E-001,2.08637E-001,1.23084E+000,-1.67024E-002,0.00000E+000,8.52499E-003,9.20693E-001,0.00000E+000,-9.01277E-003,-9.85584E-002,1.00000E+000,32
909,1337,5.73729E+000,-8.63015E-003,-2.72906E-002,7.35002E+000,-6.69301E-001,6.49048E-002,7.38072E+000,1.93525E-002,5.55184E-001,0,1.12465E+002,-1.15618E+001,9.96470E-001,6.90798E+001,-4.53288E+001,9.96170E-001,2.05383E-001,-8.74507E-002,-2.73407E-003,2.05408E-001,-8.74762E-002,-5.34885E-001,2.06160E-001,1.22791E+000,-1.67999E-002,0.00000E+000,8.11235E-003,9.20679E-001,0.00000E+000,-8.00492E-003,-9.85248E-002,1.00000E+000,32
909,1307,5.72774E+000,-1.77406E+000,1.66557E-001,7.38104E+000,-5.00812E-001,2.55688E-001,7.40243E+000,2.05840E-002,4.61466E-001,0,1.12272E+002,-9.27171E+000,9.93410E-001,6.90618E+001,-4.30858E+001,9.88936E-001,2.12432E-001,-8.74165E-002,-2.09794E-003,2.12446E-001,-8.74312E-002,-4.00854E-001,2.13552E-001,1.23663E+000,-1.66210E-002,0.00000E+000,9.34379E-003,9.20704E-001,0.00000E+000,-1.10126E-002,-9.85865E-002,1.00000E+000,32
919,1347,6.55201E+000,6.04481E-001,-3.71317E-002,7.48735E+000,-7.13090E-001,-1.14805E-003,7.52123E+000,2.49376E-002,5.25776E-001,0,1.14692E+002,-1.21553E+001,9.98007E-001,7.17614E+001,-4.57369E+001,9.97320E-001,2.01322E-001,-8.67754E-002,-2.08268E-003,2.01337E-001,-8.67904E-002,-4.14168E-001,2.01974E-001,1.22290E+000,-1.95776E-002,0.00000E+000,1.15190E-002,9.21255E-001,0.00000E+000,-8.72908E-003,-9.84250E-002,1.00000E+000,32
929,1347,7.35209E+000,6.15729E-001,-2.52520E-002,7.63033E+000,-7.09758E-001,-1.23880E-002,7.66328E+000,1.39740E-002,4.89754E-001,0,1.16823E+002,-1.21073E+001,9.98359E-001,7.41722E+001,-4.54985E+001,9.97904E-001,1.99693E-001,-8.69470E-002,-5.86554E-004,1.99695E-001,-8.69482E-002,-1.17244E-001,2.00249E-001,1.22088E+000,-2.20219E-002,0.00000E+000,1.62916E-002,9.20942E-001,0.00000E+000,-1.04036E-002,-9.74776E-002,1.00000E+000,32
939,1347,8.15678E+000,6.42790E-001,-2.09061E-002,7.77939E+000,-6.91896E-001,-2.17648E-002,7.81013E+000,1.91718E-002,4.94533E-001,0,1.19035E+002,-1.18194E+001,9.98207E-001,7.66457E+001,-4.49784E+001,9.96637E-001,1.99004E-001,-8.62707E-002,1.59215E-004,1.99004E-001,-8.62708E-002,3.19775E-002,1.99589E-001,1.21998E+000,-2.50557E-002,0.00000E+000,2.00383E-002,9.21359E-001,0.00000E+000,-1.13040E-002,-9.59365E-002,1.00000E+000,32
949,1347,8.96422E+000,6.66440E-001,-1.62730E-002,7.92941E+000,-6.78331E-001,-3.68151E-002,7.95845E+000,1.63189E-002,5.22085E-001,0,1.21277E+002,-1.15973E+001,9.97042E-001,7.91662E+001,-4.45000E+001,9.95334E-001,1.98783E-001,-8.55029E-002,7.63507E-004,1.98785E-001,-8.55049E-002,1.53878E-001,1.99431E-001,1.21966E+000,-2.77611E-002,0.00000E+000,2.32267E-002,9.21814E-001,0.00000E+000,-1.17153E-002,-9.38335E-002,1.00000E+000,32
959,1317,9.74717E+000,-1.09055E+000,6.17762E-002,8.11566E+000,-4.97675E-001,1.04047E-001,8.13157E+000,2.36027E-002,4.80542E-001,0,1.23532E+002,-9.00266E+000,9.95136E-001,8.12053E+001,-4.17656E+001,9.94288E-001,2.02993E-001,-8.46705E-002,5.47320E-004,2.02994E-001,-8.46715E-002,1.09013E-001,2.03922E-001,1.22490E+000,-3.04735E-002,0.00000E+000,2.55631E-002,9.22353E-001,0.00000E+000,-2.12229E-002,-9.16020E-002,1.00000E+000,32
959,1327,9.74491E+000,-4.96676E-001,-3.60437E-003,8.10105E+000,-5.46745E-001,4.74333E-002,8.11962E+000,3.16250E-002,4.88394E-001,0,1.23513E+002,-9.68807E+000,9.97822E-001,8.11260E+001,-4.24309E+001,9.96957E-001,2.01500E-001,-8.46520E-002,7.19885E-004,2.01502E-001,-8.46538E-002,1.44140E-001,2.02357E-001,1.22301E+000,-3.05097E-002,0.00000E+000,2.56902E-002,9.22355E-001,0.00000E+000,-1.81974E-002,-9.15441E-002,1.00000E+000,32
959,1337,9.75103E+000,9.05580E-002,-1.99525E-002,8.08655E+000,-6.09025E-001,2.60142E-003,8.10945E+000,2.42026E-002,4.79697E-001,0,1.23447E+002,-1.05775E+001,9.96537E-001,8.12717E+001,-4.33137E+001,9.95683E-001,1.99988E-001,-8.46280E-002,8.83364E-004,1.99991E-001,-8.46308E-002,1.77827E-001,2.00776E-001,1.22111E+000,-3.05703E-002,0.00000E+000,2.58180E-002,9.22360E-001,0.00000E+000,-1.51564E-002,-9.14473E-002,1.00000E+000,32
959,1307,9.75967E+000,-1.67061E+000,1.55090E-001,8.13672E+000,-4.37089E-001,1.71520E-001,8.15026E+000,1.77601E-002,4.98112E-001,0,1.23600E+002,-8.17792E+000,9.96308E-001,8.14996E+001,-4.09323E+001,9.95168E-001,2.04473E-001,-8.46865E-002,3.70291E-004,2.04473E-001,-8.46870E-002,7.33715E-002,2.05475E-001,1.22679E+000,-3.04483E-002,0.00000E+000,2.54362E-002,9.22351E-001,0.00000E+000,-2.42445E-002,-9.16422E-002,1.00000E+000,32
959,1347,9.76564E+000,6.82858E-001,-2.56989E-002,8.07653E+000,-6.68516E-001,-4.97186E-002,8.10430E+000,1.78569E-002,4.80472E-001,0,1.23471E+002,-1.14207E+001,9.96356E-001,8.15703E+001,-4.41379E+001,9.95768E-001,1.98463E-001,-8.46014E-002,1.04179E-003,1.98467E-001,-8.46052E-002,2.10867E-001,1.99184E-001,1.21920E+000,-3.06426E-002,0.00000E+000,2.59459E-002,9.22364E-001,0.00000E+000,-1.21122E-002,-9.13318E-002,1.00000E+000,32
909,1347,5.75761E+000,5.94207E-001,-2.44669E-002,7.34315E+000,-7.18515E-001,4.62086E-003,7.37822E+000,2.18109E-002,5.38533E-001,0,1.12551E+002,-1.22325E+001,9.97894E-001,6.94944E+001,-4.60254E+001,9.96249E-001,2.03014E-001,-8.74694E-002,-2.97126E-003,2.03044E-001,-8.74998E-002,-5.85978E-001,2.03688E-001,1.22500E+000,-1.69196E-002,0.00000E+000,7.70067E-003,9.20662E-001,0.00000E+000,-6.99942E-003,-9.84835E-002,1.00000E+000,32
899,1327,4.93015E+000,-6.09246E-001,2.90733E-002,7.20871E+000,-6.18362E-001,1.26774E-001,7.23630E+000,1.32070E-002,5.14076E-001,0,1.10174E+002,-1.08536E+001,9.95956E-001,6.66182E+001,-4.48617E+001,9.96064E-001,2.08823E-001,-8.80260E-002,-3.29713E-003,2.08860E-001,-8.80626E-002,-6.36286E-001,2.09713E-001,1.23217E+000,-1.42733E-002,0.00000E+000,4.97484E-003,9.20224E-001,0.00000E+000,-6.05349E-003,-9.90957E-002,1.00000E+000,32
899,1337,4.94778E+000,-1.15415E-002,-1.34414E-002,7.20806E+000,-6.67763E-001,6.22736E-002,7.23920E+000,2.00633E-002,5.43869E-001,0,1.10379E+002,-1.15204E+001,9.98195E-001,6.68959E+001,-4.55157E+001,9.97887E-001,2.06709E-001,-8.80365E-002,-3.47683E-003,2.06750E-001,-8.80775E-002,-6.75739E-001,2.07503E-001,1.22957E+000,-1.43451E-002,0.00000E+000,4.68412E-003,9.20216E-001,0.00000E+000,-5.68187E-003,-9.90854E-002,1.00000E+000,32
899,1347,4.97978E+000,5.86721E-001,-9.89460E-003,7.21304E+000,-7.21727E-001,2.56794E-003,7.24906E+000,1.69234E-002,5.35099E-001,0,1.10645E+002,-1.22655E+001,9.98160E-001,6.74937E+001,-4.62810E+001,9.97396E-001,2.04584E-001,-8.80508E-002,-3.67084E-003,2.04630E-001,-8.80968E-002,-7.18573E-001,2.05288E-001,1.22695E+000,-1.44512E-002,0.00000E+000,4.39265E-003,9.20204E-001,0.00000E+000,-5.30929E-003,-9.90703E-002,1.00000E+000,32
899,1317,4.92774E+000,-1.19485E+000,1.04930E-001,7.21897E+000,-5.60670E-001,1.98183E-001,7.24342E+000,1.69638E-002,5.24215E-001,0,1.10082E+002,-1.00952E+001,9.95229E-001,6.66482E+001,-4.40713E+001,9.93408E-001,2.10928E-001,-8.80179E-002,-3.12676E-003,2.10960E-001,-8.80506E-002,-5.99186E-001,2.11918E-001,1.23477E+000,-1.42234E-002,0.00000E+000,5.26484E-003,9.20229E-001,0.00000E+000,-6.42419E-003,-9.91028E-002,1.00000E+000,32
899,1307,4.92738E+000,-1.76962E+000,2.01640E-001,7.22561E+000,-4.96503E-001,2.63858E-001,7.24745E+000,1.67874E-002,4.73519E-001,0,1.09945E+002,-9.18341E+000,9.95367E-001,6.67560E+001,-4.31875E+001,9.92084E-001,2.13021E-001,-8.80123E-002,-2.96585E-003,2.13050E-001,-8.80415E-002,-5.64419E-001,2.14117E-001,1.23736E+000,-1.41957E-002,0.00000E+000,5.55388E-003,9.20233E-001,0.00000E+000,-6.79366E-003,-9.91067E-002,1.00000E+000,32
889,1327,4.13313E+000,-6.15453E-001,4.35160E-002,7.05972E+000,-6.20871E-001,1.29650E-001,7.08815E+000,1.15478E-002,5.28862E-001,0,1.07963E+002,-1.08806E+001,9.97270E-001,6.43240E+001,-4.50869E+001,9.97121E-001,2.09933E-001,-8.73470E-002,-4.13122E-003,2.09990E-001,-8.74044E-002,-7.96020E-001,2.10970E-001,1.23355E+000,-1.23388E-002,0.00000E+000,1.69020E-003,9.20925E-001,0.00000E+000,-2.78092E-003,-9.97558E-002,1.00000E+000,32
889,1337,4.14419E+000,-1.75621E-002,-2.73408E-003,7.05378E+000,-6.68460E-001,6.66525E-002,7.08570E+000,1.83244E-002,5.46896E-001,0,1.08082E+002,-1.15257E+001,9.98058E-001,6.44930E+001,-4.57387E+001,9.97681E-001,2.07908E-001,-8.73450E-002,-4.13239E-003,2.07966E-001,-8.74029E-002,-8.01707E-001,2.08846E-001,1.23106E+000,-1.24028E-002,0.00000E+000,1.82592E-003,9.20929E-001,0.00000E+000,-3.55537E-003,-9.97757E-002,1.00000E+000,32
889,1347,4.17702E+000,5.77766E-001,-3.98854E-003,7.06037E+000,-7.24626E-001,4.79822E-003,7.09746E+000,1.48953E-002,5.19400E-001,0,1.08380E+002,-1.22924E+001,9.97772E-001,6.50946E+001,-4.65500E+001,9.97214E-001,2.05872E-001,-8.73422E-002,-4.14745E-003,2.05930E-001,-8.74009E-002,-8.10221E-001,2.06713E-001,1.22856E+000,-1.25013E-002,0.00000E+000,1.96215E-003,9.20934E-001,0.00000E+000,-4.33281E-003,-9.98063E-002,1.00000E+000,32
969,1297,1.05923E+001,-2.22146E+000,2.60561E-001,8.31469E+000,-3.58149E-001,2.06837E-001,8.32497E+000,2.26912E-002,4.97013E-001,0,1.26055E+002,-7.01872E+000,9.98164E-001,8.45385E+001,-3.95794E+001,9.96297E-001,2.03958E-001,-8.41923E-002,7.45563E-005,2.03958E-001,-8.41923E-002,1.48248E-002,2.04990E-001,1.22619E+000,-3.29412E-002,0.00000E+000,2.70034E-002,9.22553E-001,0.00000E+000,-2.77187E-002,-8.89947E-002,1.00000E+000,32
969,1307,1.05549E+001,-1.65896E+000,1.26078E-001,8.27531E+000,-4.33087E-001,1.28099E-001,8.28763E+000,4.24474E-002,4.83608E-001,0,1.25765E+002,-8.03055E+000,9.97286E-001,8.37772E+001,-4.05973E+001,9.94879E-001,2.02825E-001,-8.41780E-002,2.91741E-004,2.02825E-001,-8.41783E-002,5.82416E-002,2.03799E-001,1.22471E+000,-3.29459E-002,0.00000E+000,2.71801E-002,9.22554E-001,0.00000E+000,-2.45572E-002,-8.89848E-002,1.00000E+000,32
969,1317,1.05513E+001,-1.07678E+000,5.89059E-002,8.26207E+000,-4.91773E-001,8.23093E-002,8.27710E+000,1.47685E-002,4.53036E-001,0,1.25737E+002,-8.87725E+000,9.98663E-001,8.36721E+001,-4.14571E+001,9.97915E-001,2.01680E-001,-8.41580E-002,5.02030E-004,2.01681E-001,-8.41589E-002,1.00631E-001,2.02599E-001,1.22323E+000,-3.29681E-002,0.00000E+000,2.73570E-002,9.22557E-001,0.00000E+000,-2.13934E-002,-8.89374E-002,1.00000E+000,32
889,1317,4.12388E+000,-1.19951E+000,1.15153E-001,7.06256E+000,-5.62256E-001,1.94689E-001,7.08758E+000,1.56151E-002,5.56904E-001,0,1.07780E+002,-1.01008E+001,9.97344E-001,6.42396E+001,-4.42533E+001,9.96409E-001,2.11950E-001,-8.73485E-002,-4.13745E-003,2.12007E-001,-8.74057E-002,-7.91846E-001,2.13092E-001,1.23604E+000,-1.22932E-002,0.00000E+000,1.55469E-003,9.20923E-001,0.00000E+000,-2.00759E-003,-9.97417E-002,1.00000E+000,32
969,1327,1.05442E+001,-4.82549E-001,-6.98247E-003,8.24186E+000,-5.40999E-001,2.25179E-002,8.25963E+000,1.97116E-002,4.83047E-001,0,1.25645E+002,-9.57055E+000,9.98038E-001,8.35155E+001,-4.21034E+001,9.96920E-001,2.00522E-001,-8.41354E-002,7.09283E-004,2.00523E-001,-8.41372E-002,1.42763E-001,2.01386E-001,1.22175E+000,-3.29981E-002,0.00000E+000,2.75341E-002,9.22560E-001,0.00000E+000,-1.82235E-002,-8.88732E-002,1.00000E+000,32
889,1307,4.11810E+000,-1.77654E+000,2.09936E-001,7.06307E+000,-5.01153E-001,2.55437E-001,7.08543E+000,1.88044E-002,5.12490E-001,0,1.07569E+002,-9.22621E+000,9.96363E-001,6.42599E+001,-4.33959E+001,9.93690E-001,2.13955E-001,-8.73494E-002,-4.15230E-003,2.14012E-001,-8.74067E-002,-7.89397E-001,2.15205E-001,1.23852E+000,-1.22693E-002,0.00000E+000,1.41966E-003,9.20922E-001,0.00000E+000,-1.23705E-003,-9.97342E-002,1.00000E+000,32
969,1337,1.05476E+001,1.04409E-001,-3.45917E-002,8.22676E+000,-6.00603E-001,-2.38837E-002,8.24869E+000,2.02009E-002,4.21174E-001,0,1.25579E+002,-1.04166E+001,9.97310E-001,8.35974E+001,-4.29910E+001,9.96828E-001,1.99350E-001,-8.41086E-002,9.11360E-004,1.99353E-001,-8.41115E-002,1.84211E-001,2.00162E-001,1.22026E+000,-3.30410E-002,0.00000E+000,2.77116E-002,9.22565E-001,0.00000E+000,-1.50489E-002,-8.87818E-002,1.00000E+000,32
969,1347,1.05553E+001,7.17239E-001,-4.05669E-002,8.21105E+000,-6.40469E-001,-6.97840E-002,8.23628E+000,1.68402E-002,4.56871E-001,0,1.25489E+002,-1.09625E+001,9.97167E-001,8.37888E+001,-4.34787E+001,9.96328E-001,1.98159E-001,-8.40781E-002,1.10992E-003,1.98164E-001,-8.40824E-002,2.25316E-001,1.98919E-001,1.21876E+000,-3.30948E-002,0.00000E+000,2.78902E-002,9.22572E-001,0.00000E+000,-1.18531E-002,-8.86668E-002,1.00000E+000,32
879,1327,3.34133E+000,-6.15793E-001,6.33357E-002,6.91541E+000,-6.17326E-001,1.37220E-001,6.94426E+000,1.66558E-002,5.50319E-001,0,1.05802E+002,-1.08328E+001,9.97314E-001,6.21290E+001,-4.52292E+001,9.97071E-001,2.10809E-001,-8.76174E-002,-4.62120E-003,2.10880E-001,-8.76889E-002,-8.86955E-001,2.11874E-001,1.23465E+000,-1.06065E-002,0.00000E+000,-7.13702E-004,9.20630E-001,0.00000E+000,-5.32071E-004,-9.91827E-002,1.00000E+000,32
879,1337,3.35172E+000,-2.55724E-002,-1.81654E-004,6.90947E+000,-6.71695E-001,5.94017E-002,6.94230E+000,1.65290E-002,5.41541E-001,0,1.05973E+002,-1.15414E+001,9.96067E-001,6.22496E+001,-4.59776E+001,9.96041E-001,2.09025E-001,-8.76113E-002,-4.54450E-003,2.09094E-001,-8.76809E-002,-8.77504E-001,2.09999E-001,1.23245E+000,-1.06608E-002,0.00000E+000,-3.90885E-004,9.20638E-001,0.00000E+000,-1.90878E-003,-9.92167E-002,1.00000E+000,32
879,1347,3.37861E+000,5.76318E-001,9.70674E-004,6.91161E+000,-7.21557E-001,6.27472E-003,6.94917E+000,1.86729E-002,5.52691E-001,0,1.06172E+002,-1.22265E+001,9.96315E-001,6.27670E+001,-4.66762E+001,9.96331E-001,2.07224E-001,-8.76026E-002,-4.47843E-003,2.07292E-001,-8.76706E-002,-8.70057E-001,2.08111E-001,1.23024E+000,-1.07430E-002,0.00000E+000,-6.60751E-005,9.20650E-001,0.00000E+000,-3.29400E-003,-9.92681E-002,1.00000E+000,32
879,1307,3.31161E+000,-1.77524E+000,2.29401E-001,6.90238E+000,-4.97731E-001,2.55430E-001,6.92502E+000,2.15756E-002,5.17583E-001,0,1.05185E+002,-9.14924E+000,9.95315E-001,6.18385E+001,-4.35178E+001,9.93048E-001,2.14352E-001,-8.76245E-002,-4.79520E-003,2.14428E-001,-8.77006E-002,-9.09517E-001,2.15608E-001,1.23904E+000,-1.05506E-002,0.00000E+000,-1.35731E-003,9.20622E-001,0.00000E+000,2.21273E-003,-9.91478E-002,1.00000E+000,32
879,1317,3.32577E+000,-1.19791E+000,1.38942E-001,6.91166E+000,-5.56419E-001,2.05288E-001,6.93706E+000,1.60576E-002,4.77440E-001,0,1.05509E+002,-9.98371E+000,9.97610E-001,6.19568E+001,-4.44233E+001,9.96372E-001,2.12589E-001,-8.76220E-002,-4.70398E-003,2.12662E-001,-8.76957E-002,-8.97469E-001,2.13748E-001,1.23686E+000,-1.05671E-002,0.00000E+000,-1.03661E-003,9.20624E-001,0.00000E+000,8.45027E-004,-9.91581E-002,1.00000E+000,32
979,1307,1.13906E+001,-1.63817E+000,1.49703E-001,8.45060E+000,-4.21997E-001,1.23162E-001,8.46203E+000,2.42365E-002,4.49859E-001,0,1.28338E+002,-7.85096E+000,9.98645E-001,8.67888E+001,-4.02377E+001,9.98510E-001,2.01372E-001,-8.36116E-002,2.41490E-004,2.01372E-001,-8.36118E-002,4.85514E-002,2.02335E-001,1.22285E+000,-3.48296E-002,0.00000E+000,2.84102E-002,9.22790E-001,0.00000E+000,-2.35927E-002,-8.58797E-002,1.00000E+000,32
979,1317,1.13643E+001,-1.04925E+000,6.09399E-002,8.41620E+000,-4.73548E-001,6.29751E-002,8.42975E+000,1.42630E-002,4.62079E-001,0,1.28042E+002,-8.56992E+000,9.97927E-001,8.62914E+001,-4.09270E+001,9.97388E-001,2.00671E-001,-8.35889E-002,4.98277E-004,2.00672E-001,-8.35898E-002,1.00433E-001,2.01602E-001,1.22193E+000,-3.48414E-002,0.00000E+000,2.86760E-002,9.22793E-001,0.00000E+000,-2.05656E-002,-8.58415E-002,1.00000E+000,32
979,1327,1.13482E+001,-4.59732E-001,-7.34362E-003,8.38787E+000,-5.26708E-001,4.77914E-003,8.40439E+000,1.56306E-002,4.57092E-001,0,1.27826E+002,-9.31627E+000,9.96150E-001,8.59914E+001,-4.16579E+001,9.94956E-001,1.99960E-001,-8.35625E-002,7.52666E-004,1.99962E-001,-8.35645E-002,1.52101E-001,2.00859E-001,1.22100E+000,-3.48591E-002,0.00000E+000,2.89421E-002,9.22798E-001,0.00000E+000,-1.75355E-002,-8.57838E-002,1.00000E+000,32
979,1337,1.13458E+001,1.37658E-001,-4.37485E-002,8.36910E+000,-5.75045E-001,-4.00686E-002,8.38893E+000,2.12095E-002,4.47550E-001,0,1.27698E+002,-1.00112E+001,9.94102E-001,8.59661E+001,-4.23378E+001,9.93509E-001,1.99238E-001,-8.35325E-002,1.00487E-003,1.99242E-001,-8.35360E-002,2.03606E-001,2.00106E-001,1.22006E+000,-3.48828E-002,0.00000E+000,2.92088E-002,9.22805E-001,0.00000E+000,-1.44987E-002,-8.57065E-002,1.00000E+000,32
979,1347,1.13522E+001,7.47019E-001,-3.86237E-002,8.35063E+000,-6.18123E-001,-8.09706E-002,8.37387E+000,2.18736E-002,4.49994E-001,0,1.27548E+002,-1.06228E+001,9.91942E-001,8.61573E+001,-4.29186E+001,9.91319E-001,1.98503E-001,-8.34950E-002,1.25313E-003,1.98508E-001,-8.35005E-002,2.54601E-001,1.99340E-001,1.21913E+000,-3.49188E-002,0.00000E+000,2.94769E-002,9.22815E-001,0.00000E+000,-1.14455E-002,-8.55892E-002,1.00000E+000,32
979,1297,1.13936E+001,-2.20335E+000,2.38657E-001,8.46011E+000,-3.47259E-001,1.76361E-001,8.46907E+000,1.97953E-002,5.22882E-001,0,1.28271E+002,-6.80460E+000,9.98176E-001,8.69277E+001,-3.91411E+001,9.97490E-001,2.02062E-001,-8.36328E-002,-1.65084E-005,2.02062E-001,-8.36328E-002,-3.31074E-003,2.03059E-001,1.22378E+000,-3.48202E-002,0.00000E+000,2.81443E-002,9.22787E-001,0.00000E+000,-2.66201E-002,-8.59104E-002,1.00000E+000,32
869,1317,2.51455E+000,-1.19494E+000,1.31590E-001,6.74883E+000,-5.49433E-001,1.92462E-001,6.77389E+000,1.17020E-002,5.06267E-001,0,1.03132E+002,-9.83048E+000,9.98172E-001,5.94091E+001,-4.44533E+001,9.96835E-001,2.12809E-001,-8.80467E-002,-4.75851E-003,2.12884E-001,-8.81219E-002,-9.05922E-001,2.13933E-001,1.23715E+000,-8.57968E-003,0.00000E+000,-2.77853E-003,9.20158E-001,0.00000E+000,2.80722E-003,-9.83459E-002,1.00000E+000,32
869,1327,2.53287E+000,-6.12708E-001,6.11896E-002,6.75581E+000,-6.08784E-001,1.31240E-001,6.78445E+000,1.68635E-002,5.78287E-001,0,1.03450E+002,-1.06850E+001,9.96738E-001,5.96350E+001,-4.52704E+001,9.96139E-001,2.11406E-001,-8.80427E-002,-4.67473E-003,2.11479E-001,-8.81157E-002,-8.94160E-001,2.12456E-001,1.23541E+000,-8.60961E-003,0.00000E+000,-2.43048E-003,9.20164E-001,0.00000E+000,1.02024E-003,-9.83766E-002,1.00000E+000,32
869,1337,2.55023E+000,-2.71900E-002,1.52205E-002,6.75637E+000,-6.68616E-001,6.81247E-002,6.78971E+000,1.79606E-002,5.59938E-001,0,1.03670E+002,-1.14975E+001,9.95509E-001,5.99011E+001,-4.61354E+001,9.95025E-001,2.09995E-001,-8.80371E-002,-4.59647E-003,2.10066E-001,-8.81080E-002,-8.83378E-001,2.10973E-001,1.23366E+000,-8.65386E-003,0.00000E+000,-2.08151E-003,9.20173E-001,0.00000E+000,-7.71404E-004,-9.84220E-002,1.00000E+000,32
869,1347,2.57390E+000,5.77850E-001,5.60039E-003,6.75803E+000,-7.11994E-001,1.62327E-002,6.79546E+000,2.21894E-002,5.38205E-001,0,1.03857E+002,-1.20890E+001,9.96634E-001,6.03477E+001,-4.67806E+001,9.96168E-001,2.08576E-001,-8.80299E-002,-4.52360E-003,2.08645E-001,-8.80989E-002,-8.73560E-001,2.09484E-001,1.23191E+000,-8.71171E-003,0.00000E+000,-1.73196E-003,9.20184E-001,0.00000E+000,-2.56605E-003,-9.84814E-002,1.00000E+000,32
869,1307,2.50827E+000,-1.77048E+000,2.40594E-001,6.74689E+000,-4.88924E-001,2.58740E-001,6.76953E+000,1.78988E-002,5.33497E-001,0,1.02866E+002,-9.00680E+000,9.96011E-001,5.94544E+001,-4.35632E+001,9.94388E-001,2.14200E-001,-8.80486E-002,-4.84914E-003,2.14278E-001,-8.81263E-002,-9.18911E-001,2.15400E-001,1.23888E+000,-8.56803E-003,0.00000E+000,-3.12503E-003,9.20156E-001,0.00000E+000,4.58618E-003,-9.83339E-002,1.00000E+000,32
989,1307,1.21785E+001,-1.59946E+000,1.30592E-001,8.58177E+000,-3.90262E-001,9.34426E-002,8.59114E+000,1.86305E-002,5.07521E-001,0,1.30327E+002,-7.34306E+000,9.97245E-001,8.89863E+001,-3.94701E+001,9.96758E-001,2.00191E-001,-8.33616E-002,1.78054E-004,2.00191E-001,-8.33617E-002,3.59784E-002,2.01122E-001,1.22134E+000,-3.56879E-002,0.00000E+000,2.87710E-002,9.22776E-001,0.00000E+000,-2.16819E-002,-8.29413E-002,1.00000E+000,32
989,1317,1.21490E+001,-1.00809E+000,4.79030E-002,8.54529E+000,-4.40504E-001,4.48500E-002,8.55675E+000,1.95665E-002,5.63696E-001,0,1.29960E+002,-8.06246E+000,9.97629E-001,8.84509E+001,-4.01107E+001,9.96863E-001,1.99850E-001,-8.33357E-002,4.88952E-004,1.99851E-001,-8.33365E-002,9.89271E-002,2.00767E-001,1.22086E+000,-3.56931E-002,0.00000E+000,2.91388E-002,9.22780E-001,0.00000E+000,-1.87419E-002,-8.29095E-002,1.00000E+000,32
989,1327,1.21496E+001,-4.22583E-001,-6.27139E-003,8.53151E+000,-4.99982E-001,-7.82388E-003,8.54615E+000,2.29789E-002,5.41233E-001,0,1.29945E+002,-8.89902E+000,9.96536E-001,8.84348E+001,-4.09392E+001,9.94646E-001,1.99500E-001,-8.33023E-002,7.97733E-004,1.99502E-001,-8.33046E-002,1.61619E-001,2.00404E-001,1.22038E+000,-3.57038E-002,0.00000E+000,2.95070E-002,9.22789E-001,0.00000E+000,-1.57993E-002,-8.28443E-002,1.00000E+000,32
989,1297,1.22014E+001,-2.17945E+000,2.39838E-001,8.61033E+000,-3.30075E-001,1.63025E-001,8.61819E+000,1.75211E-002,5.02049E-001,0,1.30491E+002,-6.52825E+000,9.96945E-001,8.94692E+001,-3.86844E+001,9.95827E-001,2.00523E-001,-8.33860E-002,-1.33007E-004,2.00523E-001,-8.33861E-002,-2.68422E-002,2.01468E-001,1.22182E+000,-3.56837E-002,0.00000E+000,2.84038E-002,9.22773E-001,0.00000E+000,-2.46174E-002,-8.29673E-002,1.00000E+000,32
989,1337,1.21454E+001,1.68088E-001,-3.63119E-002,8.50806E+000,-5.54929E-001,-5.86371E-002,8.52634E+000,1.87212E-002,4.59795E-001,0,1.29768E+002,-9.67984E+000,9.93871E-001,8.83920E+001,-4.17715E+001,9.93512E-001,1.99142E-001,-8.32639E-002,1.10404E-003,1.99146E-001,-8.32682E-002,2.23987E-001,2.00034E-001,1.21990E+000,-3.57181E-002,0.00000E+000,2.98744E-002,9.22800E-001,0.00000E+000,-1.28626E-002,-8.27565E-002,1.00000E+000,32
989,1347,1.21522E+001,7.75266E-001,-3.49897E-002,8.49206E+000,-5.98028E-001,-9.33519E-002,8.51360E+000,2.04034E-002,4.65242E-001,0,1.29636E+002,-1.03225E+001,9.96580E-001,8.85796E+001,-4.23748E+001,9.96851E-001,1.98773E-001,-8.32218E-002,1.41042E-003,1.98780E-001,-8.32288E-002,2.86561E-001,1.99654E-001,1.21942E+000,-3.57350E-002,0.00000E+000,3.02437E-002,9.22813E-001,0.00000E+000,-9.91050E-003,-8.26528E-002,1.00000E+000,32
859,1327,1.72827E+000,-6.07947E-001,5.69196E-002,6.59945E+000,-5.99338E-001,1.22235E-001,6.62774E+000,1.56387E-002,5.64003E-001,0,1.01154E+002,-1.04860E+001,9.95709E-001,5.72018E+001,-4.53021E+001,9.95346E-001,2.11650E-001,-8.81701E-002,-4.48834E-003,2.11718E-001,-8.82373E-002,-8.57466E-001,2.12693E-001,1.23572E+000,-6.92140E-003,0.00000E+000,-3.39960E-003,9.19944E-001,0.00000E+000,1.81753E-003,-9.72767E-002,1.00000E+000,32
859,1337,1.75104E+000,-1.76691E-002,1.87137E-002,6.60572E+000,-6.53353E-001,6.75401E-002,6.63830E+000,1.80144E-002,5.63594E-001,0,1.01430E+002,-1.12476E+001,9.95474E-001,5.75699E+001,-4.61025E+001,9.94631E-001,2.10650E-001,-8.81680E-002,-4.46127E-003,2.10717E-001,-8.82346E-002,-8.55156E-001,2.11643E-001,1.23448E+000,-6.95230E-003,0.00000E+000,-3.14360E-003,9.19950E-001,0.00000E+000,-1.78765E-004,-9.73265E-002,1.00000E+000,32
859,1347,1.77496E+000,5.76382E-001,1.07573E-002,6.60717E+000,-7.07994E-001,1.42169E-002,6.64501E+000,2.37927E-002,5.24875E-001,0,1.01621E+002,-1.20008E+001,9.97377E-001,5.80236E+001,-4.69314E+001,9.96637E-001,2.09642E-001,-8.81651E-002,-4.43863E-003,2.09708E-001,-8.82312E-002,-8.53705E-001,2.10585E-001,1.23324E+000,-6.99429E-003,0.00000E+000,-2.88675E-003,9.19959E-001,0.00000E+000,-2.18168E-003,-9.73942E-002,1.00000E+000,32
859,1307,1.70291E+000,-1.76437E+000,2.42704E-001,6.58935E+000,-4.80374E-001,2.55044E-001,6.61176E+000,2.15987E-002,6.33252E-001,0,1.00536E+002,-8.86582E+000,9.96777E-001,5.70245E+001,-4.35270E+001,9.96290E-001,2.13626E-001,-8.81723E-002,-4.55534E-003,2.13694E-001,-8.82410E-002,-8.64560E-001,2.14772E-001,1.23819E+000,-6.89261E-003,0.00000E+000,-3.90903E-003,9.19938E-001,0.00000E+000,5.79008E-003,-9.72304E-002,1.00000E+000,32
859,1317,1.71727E+000,-1.19747E+000,1.30099E-001,6.59937E+000,-5.48932E-001,1.84864E-001,6.62474E+000,1.64316E-002,5.49451E-001,0,1.00941E+002,-9.78444E+000,9.96517E-001,5.70937E+001,-4.45719E+001,9.94655E-001,2.12642E-001,-8.81716E-002,-4.51947E-003,2.12710E-001,-8.82395E-002,-8.60561E-001,2.13736E-001,1.23696E+000,-6.90089E-003,0.00000E+000,-3.65470E-003,9.19940E-001,0.00000E+000,3.80686E-003,-9.72437E-002,1.00000E+000,32
999,1337,1.29410E+001,1.95042E-001,-3.51383E-002,8.64866E+000,-5.32411E-001,-5.67170E-002,8.66521E+000,1.46104E-002,4.16909E-001,0,1.31792E+002,-9.36074E+000,9.98771E-001,9.07486E+001,-4.12735E+001,9.97872E-001,1.98882E-001,-8.31406E-002,9.43521E-004,1.98885E-001,-8.31438E-002,1.91683E-001,1.99774E-001,1.21955E+000,-3.60515E-002,0.00000E+000,2.96434E-002,9.22689E-001,0.00000E+000,-1.06270E-002,-7.97391E-002,1.00000E+000,32
999,1347,1.29547E+001,8.03719E-001,-2.71123E-002,8.63713E+000,-5.77157E-001,-9.45099E-002,8.65691E+000,1.35584E-002,4.30019E-001,0,1.31737E+002,-1.00043E+001,9.98806E-001,9.10543E+001,-4.18621E+001,9.98298E-001,1.98839E-001,-8.30993E-002,1.23753E-003,1.98845E-001,-8.31048E-002,2.51485E-001,1.99735E-001,1.21947E+000,-3.60543E-002,0.00000E+000,2.99966E-002,9.22703E-001,0.00000E+000,-7.91699E-003,-7.96344E-002,1.00000E+000,32
999,1307,1.29766E+001,-1.56978E+000,1.20665E-001,8.72255E+000,-3.67613E-001,7.31319E-002,8.73060E+000,1.25721E-002,4.81788E-001,0,1.32428E+002,-6.95459E+000,9.98064E-001,9.13616E+001,-3.89021E+001,9.97626E-001,1.98966E-001,-8.32291E-002,6.52386E-005,1.98966E-001,-8.32291E-002,1.32458E-002,1.99849E-001,1.21977E+000,-3.60471E-002,0.00000E+000,2.85929E-002,9.22669E-001,0.00000E+000,-1.86867E-002,-7.98981E-002,1.00000E+000,32
999,1317,1.29539E+001,-9.82403E-001,3.26308E-002,8.69249E+000,-4.21479E-001,1.77057E-002,8.70272E+000,1.96132E-002,5.37762E-001,0,1.32185E+002,-7.72871E+000,9.96860E-001,9.09217E+001,-3.95905E+001,9.92892E-001,1.98945E-001,-8.32047E-002,3.58543E-004,1.98946E-001,-8.32051E-002,7.28086E-002,1.99830E-001,1.21970E+000,-3.60479E-002,0.00000E+000,2.89431E-002,9.22673E-001,0.00000E+000,-1.59999E-002,-7.98675E-002,1.00000E+000,32
999,1327,1.29510E+001,-4.01989E-001,-1.18501E-002,8.67675E+000,-4.84741E-001,-1.84538E-002,8.69030E+000,2.18039E-002,5.09229E-001,0,1.32085E+002,-8.66533E+000,9.97507E-001,9.08696E+001,-4.05204E+001,9.95109E-001,1.98917E-001,-8.31751E-002,6.51533E-004,1.98919E-001,-8.31766E-002,1.32332E-001,1.99805E-001,1.21962E+000,-3.60494E-002,0.00000E+000,2.92935E-002,9.22680E-001,0.00000E+000,-1.33114E-002,-7.98141E-002,1.00000E+000,32
999,1297,1.30027E+001,-2.15897E+000,2.31097E-001,8.75400E+000,-3.16834E-001,1.41997E-001,8.76088E+000,1.35747E-002,4.91205E-001,0,1.32639E+002,-6.28810E+000,9.96527E-001,9.18952E+001,-3.82555E+001,9.93983E-001,1.98979E-001,-8.32515E-002,-2.28140E-004,1.98979E-001,-8.32517E-002,-4.63149E-002,1.99861E-001,1.21984E+000,-3.60465E-002,0.00000E+000,2.82430E-002,9.22666E-001,0.00000E+000,-2.13714E-002,-7.99203E-002,1.00000E+000,32
849,1337,9.49071E-001,-1.73327E-002,1.92901E-002,6.45103E+000,-6.49723E-001,6.01646E-002,6.48394E+000,2.21376E-002,5.92873E-001,0,9.91492E+001,-1.11463E+001,9.96873E-001,5.51928E+001,-4.61930E+001,9.96003E-001,2.10936E-001,-8.79589E-002,-4.02061E-003,2.10990E-001,-8.80129E-002,-7.70532E-001,2.11954E-001,1.23484E+000,-5.51977E-003,0.00000E+000,-3.38414E-003,9.20014E-001,0.00000E+000,-1.73709E-004,-9.59254E-002,1.00000E+000,32
849,1347,9.67975E-001,5.71824E-001,5.92542E-003,6.45028E+000,-7.06047E-001,1.41069E-002,6.48883E+000,1.93894E-002,5.12558E-001,0,9.92851E+001,-1.19378E+001,9.97405E-001,5.55580E+001,-4.71089E+001,9.96999E-001,2.10410E-001,-8.79570E-002,-3.99887E-003,2.10463E-001,-8.80106E-002,-7.67725E-001,2.11400E-001,1.23419E+000,-5.53901E-003,0.00000E+000,-3.16177E-003,9.20021E-001,0.00000E+000,-2.06218E-003,-9.59814E-002,1.00000E+000,32
849,1357,1.00069E+000,1.17610E+000,3.55122E-002,6.45290E+000,-7.56841E-001,-3.96706E-002,6.49725E+000,1.63861E-002,5.29728E-001,0,9.94844E+001,-1.26453E+001,9.97685E-001,5.62346E+001,-4.78385E+001,9.97605E-001,2.09875E-001,-8.79543E-002,-3.98109E-003,2.09928E-001,-8.80075E-002,-7.65692E-001,2.10839E-001,1.23353E+000,-5.56843E-003,0.00000E+000,-2.93745E-003,9.20031E-001,0.00000E+000,-3.96725E-003,-9.60671E-002,1.00000E+000,32
849,1327,9.34622E-001,-6.00621E-001,6.11546E-002,6.45181E+000,-5.89133E-001,1.12932E-001,6.47964E+000,2.16997E-002,5.75388E-001,0,9.89851E+001,-1.02803E+001,9.97248E-001,5.49622E+001,-4.52985E+001,9.96876E-001,2.11459E-001,-8.79603E-002,-4.04415E-003,2.11513E-001,-8.80149E-002,-7.73686E-001,2.12503E-001,1.23549E+000,-5.50482E-003,0.00000E+000,-3.60653E-003,9.20009E-001,0.00000E+000,1.71503E-003,-9.58819E-002,1.00000E+000,32
1009,1337,1.37475E+001,2.38032E-001,-3.63397E-002,8.80136E+000,-4.96211E-001,-4.95169E-002,8.81548E+000,2.12097E-002,4.57279E-001,0,1.33972E+002,-8.83292E+000,9.98549E-001,9.32760E+001,-4.04792E+001,9.98464E-001,1.98628E-001,-8.29880E-002,6.20722E-004,1.98630E-001,-8.29893E-002,1.26287E-001,1.99522E-001,1.21922E+000,-3.59663E-002,0.00000E+000,2.88288E-002,9.22663E-001,0.00000E+000,-8.65146E-003,-7.71453E-002,1.00000E+000,32
1009,1347,1.37516E+001,8.18627E-001,-3.18446E-002,8.77800E+000,-5.68651E-001,-9.99503E-002,8.79697E+000,1.43720E-002,4.23200E-001,0,1.33794E+002,-9.88071E+000,9.99271E-001,9.34209E+001,-4.15178E+001,9.98960E-001,1.98843E-001,-8.29563E-002,8.45389E-004,1.98846E-001,-8.29588E-002,1.71883E-001,1.99753E-001,1.21947E+000,-3.59558E-002,0.00000E+000,2.90728E-002,9.22674E-001,0.00000E+000,-6.37148E-003,-7.70495E-002,1.00000E+000,32
1009,1297,1.37973E+001,-2.13811E+000,2.20464E-001,8.89213E+000,-3.01227E-001,1.25927E-001,8.89813E+000,1.73728E-002,4.19592E-001,0,1.34684E+002,-6.00759E+000,9.94755E-001,9.42201E+001,-3.78483E+001,9.93184E-001,1.97721E-001,-8.30675E-002,-2.64607E-004,1.97721E-001,-8.30677E-002,-5.39937E-002,1.98560E-001,1.21824E+000,-3.59818E-002,0.00000E+000,2.78590E-002,9.22648E-001,0.00000E+000,-1.77157E-002,-7.72884E-002,1.00000E+000,32
1009,1307,1.37776E+001,-1.54462E+000,1.16757E-001,8.86705E+000,-3.47167E-001,6.38340E-002,8.87407E+000,1.71448E-002,4.26802E-001,0,1.34543E+002,-6.63511E+000,9.97032E-001,9.37994E+001,-3.84313E+001,9.96985E-001,1.97955E-001,-8.30510E-002,-4.42676E-005,1.97955E-001,-8.30510E-002,-9.02595E-003,1.98808E-001,1.21848E+000,-3.59798E-002,0.00000E+000,2.81009E-002,9.22650E-001,0.00000E+000,-1.54552E-002,-7.72696E-002,1.00000E+000,32
1009,1317,1.37611E+001,-9.56329E-001,4.58948E-002,8.84280E+000,-4.00221E-001,2.43545E-002,8.85188E+000,1.77974E-002,4.75455E-001,0,1.34330E+002,-7.43362E+000,9.97223E-001,9.34868E+001,-3.91437E+001,9.97228E-001,1.98184E-001,-8.30329E-002,1.76618E-004,1.98185E-001,-8.30330E-002,3.59845E-002,1.99050E-001,1.21873E+000,-3.59769E-002,0.00000E+000,2.83431E-002,9.22653E-001,0.00000E+000,-1.31909E-002,-7.72426E-002,1.00000E+000,32
849,1317,9.13881E-001,-1.18321E+000,1.34650E-001,6.44325E+000,-5.30746E-001,1.82462E-001,6.46765E+000,2.12858E-002,6.20892E-001,0,9.86193E+001,-9.50460E+000,9.96817E-001,5.47054E+001,-4.44312E+001,9.95278E-001,2.11976E-001,-8.79615E-002,-4.06886E-003,2.12032E-001,-8.80167E-002,-7.77066E-001,2.13048E-001,1.23613E+000,-5.49286E-003,0.00000E+000,-3.82833E-003,9.20005E-001,0.00000E+000,3.59863E-003,-9.58471E-002,1.00000E+000,32
1009,1327,1.37543E+001,-3.65416E-001,-1.11865E-002,8.82145E+000,-4.54934E-001,-3.15872E-002,8.83323E+000,1.66795E-002,4.51048E-001,0,1.34214E+002,-8.18674E+000,9.98458E-001,9.33529E+001,-3.98807E+001,9.98276E-001,1.98409E-001,-8.30100E-002,3.98981E-004,1.98410E-001,-8.30105E-002,8.12307E-002,1.99289E-001,1.21898E+000,-3.59713E-002,0.00000E+000,2.85861E-002,9.22658E-001,0.00000E+000,-1.09205E-002,-7.71915E-002,1.00000E+000,32
849,1307,8.92250E-001,-1.76163E+000,2.37661E-001,6.42596E+000,-4.72956E-001,2.43199E-001,6.44793E+000,2.30242E-002,6.76378E-001,0,9.81404E+001,-8.73284E+000,9.96803E-001,5.45021E+001,-4.35571E+001,9.96260E-001,2.12489E-001,-8.79619E-002,-4.09653E-003,2.12545E-001,-8.80178E-002,-7.81011E-001,2.13587E-001,1.23678E+000,-5.48851E-003,0.00000E+000,-4.04950E-003,9.20004E-001,0.00000E+000,5.47699E-003,-9.58344E-002,1.00000E+000,32
839,1337,1.45533E-001,-2.69710E-002,4.63721E-002,6.29411E+000,-6.54328E-001,7.77789E-002,6.32851E+000,3.92208E-002,5.73032E-001,0,9.67506E+001,-1.12339E+001,9.97597E-001,5.28558E+001,-4.65201E+001,9.96720E-001,2.10902E-001,-8.80959E-002,-3.34084E-003,2.10939E-001,-8.81333E-002,-6.40085E-001,2.11887E-001,1.23480E+000,-4.24997E-003,0.00000E+000,-3.00192E-003,9.19731E-001,0.00000E+000,-8.17290E-004,-9.41604E-002,1.00000E+000,32
839,1347,1.64597E-001,5.65028E-001,7.01748E-003,6.29562E+000,-7.06561E-001,1.52346E-002,6.33516E+000,1.58990E-002,5.06377E-001,0,9.69755E+001,-1.19266E+001,9.97715E-001,5.31661E+001,-4.73306E+001,9.97397E-001,2.10634E-001,-8.80937E-002,-3.30351E-003,2.10671E-001,-8.81302E-002,-6.33508E-001,2.11605E-001,1.23447E+000,-4.25872E-003,0.00000E+000,-2.75984E-003,9.19737E-001,0.00000E+000,-2.74097E-003,-9.42118E-002,1.00000E+000,32
839,1357,1.99734E-001,1.17595E+000,3.44103E-002,6.30178E+000,-7.49732E-001,-3.64191E-002,6.34633E+000,1.33265E-002,5.24803E-001,0,9.72200E+001,-1.25231E+001,9.98186E-001,5.38786E+001,-4.79536E+001,9.98048E-001,2.10360E-001,-8.80900E-002,-3.26824E-003,2.10396E-001,-8.81258E-002,-6.27330E-001,2.11317E-001,1.23414E+000,-4.27313E-003,0.00000E+000,-2.51565E-003,9.19748E-001,0.00000E+000,-4.68139E-003,-9.42964E-002,1.00000E+000,32
1019,1337,1.45596E+001,2.64806E-001,-4.08007E-002,8.95315E+000,-4.79704E-001,-7.21752E-002,8.96628E+000,1.91686E-002,5.22380E-001,0,1.36244E+002,-8.56162E+000,9.98018E-001,9.58878E+001,-3.99158E+001,9.97937E-001,1.98369E-001,-8.28934E-002,2.98357E-004,1.98369E-001,-8.28937E-002,6.07779E-002,1.99259E-001,1.21890E+000,-3.58390E-002,0.00000E+000,2.80075E-002,9.22649E-001,0.00000E+000,-6.86387E-003,-7.54028E-002,1.00000E+000,32
1019,1347,1.45540E+001,8.48348E-001,-3.91369E-002,8.92572E+000,-5.46352E-001,-1.00255E-001,8.94299E+000,1.65453E-002,4.57607E-001,0,1.35928E+002,-9.54511E+000,9.98589E-001,9.58760E+001,-4.09174E+001,9.98499E-001,1.98736E-001,-8.28711E-002,4.84479E-004,1.98737E-001,-8.28719E-002,9.85716E-002,1.99648E-001,1.21934E+000,-3.58243E-002,0.00000E+000,2.82019E-002,9.22656E-001,0.00000E+000,-4.95843E-003,-7.53391E-002,1.00000E+000,32
839,1327,1.12069E-001,-5.97704E-001,6.30855E-002,6.28023E+000,-5.78822E-001,1.27483E-001,6.30814E+000,3.56984E-002,6.04532E-001,0,9.63728E+001,-1.01433E+001,9.98158E-001,5.22760E+001,-4.53533E+001,9.97339E-001,2.11167E-001,-8.80984E-002,-3.37795E-003,2.11205E-001,-8.81366E-002,-6.46616E-001,2.12166E-001,1.23512E+000,-4.24022E-003,0.00000E+000,-3.24448E-003,9.19724E-001,0.00000E+000,1.11016E-003,-9.41032E-002,1.00000E+000,32
1019,1327,1.45577E+001,-3.41276E-001,-1.76827E-002,8.96948E+000,-4.37052E-001,-3.50011E-002,8.98019E+000,1.83831E-002,4.75378E-001,0,1.36363E+002,-7.92588E+000,9.97606E-001,9.58254E+001,-3.93769E+001,9.97500E-001,1.97998E-001,-8.29137E-002,1.13008E-004,1.97998E-001,-8.29138E-002,2.30496E-002,1.98867E-001,1.21846E+000,-3.58513E-002,0.00000E+000,2.78132E-002,9.22644E-001,0.00000E+000,-8.76888E-003,-7.54561E-002,1.00000E+000,32
1019,1317,1.45659E+001,-9.37600E-001,3.71709E-002,8.98878E+000,-3.88757E-001,2.61054E-003,8.99719E+000,1.80992E-002,4.67967E-001,0,1.36514E+002,-7.23163E+000,9.98034E-001,9.59791E+001,-3.87364E+001,9.97707E-001,1.97624E-001,-8.29301E-002,-7.01567E-005,1.97624E-001,-8.29301E-002,-1.43277E-002,1.98473E-001,1.21802E+000,-3.58588E-002,0.00000E+000,2.76193E-002,9.22641E-001,0.00000E+000,-1.06694E-002,-7.54884E-002,1.00000E+000,32
839,1317,1.06772E-001,-1.17715E+000,1.34267E-001,6.28290E+000,-5.18929E-001,1.74407E-001,6.30671E+000,1.80171E-002,5.67026E-001,0,9.62503E+001,-9.27804E+000,9.96964E-001,5.22536E+001,-4.44702E+001,9.94471E-001,2.11427E-001,-8.80995E-002,-3.41724E-003,2.11466E-001,-8.81385E-002,-6.53564E-001,2.12439E-001,1.23545E+000,-4.23622E-003,0.00000E+000,-3.48609E-003,9.19721E-001,0.00000E+000,3.03007E-003,-9.40797E-002,1.00000E+000,32
1019,1297,1.45899E+001,-2.11090E+000,1.94931E-001,9.02907E+000,-2.78954E-001,1.01025E-001,9.03394E+000,1.70856E-002,4.25810E-001,0,1.36739E+002,-5.63653E+000,9.98116E-001,9.64907E+001,-3.72725E+001,9.97661E-001,1.96866E-001,-8.29596E-002,-4.34266E-004,1.96867E-001,-8.29603E-002,-8.89180E-002,1.97676E-001,1.21714E+000,-3.58698E-002,0.00000E+000,2.72327E-002,9.22636E-001,0.00000E+000,-1.44586E-002,-7.55362E-002,1.00000E+000,32
1019,1307,1.45705E+001,-1.52307E+000,1.02585E-001,9.00358E+000,-3.32840E-001,4.72034E-002,9.00986E+000,2.09498E-002,4.62450E-001,0,1.36565E+002,-6.39399E+000,9.98438E-001,9.60967E+001,-3.79506E+001,9.97986E-001,1.97247E-001,-8.29459E-002,-2.52436E-004,1.97248E-001,-8.29462E-002,-5.16197E-002,1.98077E-001,1.21758E+000,-3.58657E-002,0.00000E+000,2.74262E-002,9.22638E-001,0.00000E+000,-1.25614E-002,-7.55181E-002,1.00000E+000,32
839,1307,9.82155E-002,-1.75272E+000,2.39806E-001,6.27817E+000,-4.58452E-001,2.35349E-001,6.29929E+000,1.56657E-002,5.39156E-001,0,9.59633E+001,-8.43110E+000,9.95947E-001,5.22599E+001,-4.35952E+001,9.94035E-001,2.11682E-001,-8.81000E-002,-3.45725E-003,2.11722E-001,-8.81399E-002,-6.60648E-001,2.12709E-001,1.23578E+000,-4.23427E-003,0.00000E+000,-3.72703E-003,9.19719E-001,0.00000E+000,4.94474E-003,-9.40683E-002,1.00000E+000,32
829,1337,-6.57437E-001,-2.38653E-002,3.42792E-002,6.14057E+000,-6.43351E-001,7.20102E-002,6.17460E+000,2.83184E-002,5.60998E-001,0,9.44759E+001,-1.10411E+001,9.95973E-001,5.04464E+001,-4.65616E+001,9.94958E-001,2.10297E-001,-8.80482E-002,-2.64191E-003,2.10320E-001,-8.80716E-002,-5.07313E-001,2.11244E-001,1.23405E+000,-3.33849E-003,0.00000E+000,-2.31344E-003,9.19630E-001,0.00000E+000,-1.54564E-003,-9.24959E-002,1.00000E+000,32
829,1347,-6.35472E-001,5.67500E-001,1.63982E-002,6.14256E+000,-6.99354E-001,1.84055E-002,6.18227E+000,1.50192E-002,5.36255E-001,0,9.46761E+001,-1.18090E+001,9.95817E-001,5.08510E+001,-4.74093E+001,9.95744E-001,2.10226E-001,-8.80509E-002,-2.68623E-003,2.10250E-001,-8.80751E-002,-5.15941E-001,2.11170E-001,1.23397E+000,-3.34099E-003,0.00000E+000,-2.22800E-003,9.19633E-001,0.00000E+000,-3.50925E-003,-9.25557E-002,1.00000E+000,32
829,1357,-6.05503E-001,1.17394E+000,3.70317E-002,6.14521E+000,-7.45895E-001,-3.29812E-002,6.19040E+000,1.52077E-002,5.54128E-001,0,9.48680E+001,-1.24550E+001,9.97340E-001,5.14700E+001,-4.80897E+001,9.97521E-001,2.10151E-001,-8.80546E-002,-2.73129E-003,2.10176E-001,-8.80796E-002,-5.24717E-001,2.11092E-001,1.23388E+000,-3.34439E-003,0.00000E+000,-2.14218E-003,9.19636E-001,0.00000E+000,-5.48160E-003,-9.26375E-002,1.00000E+000,32
1029,1337,1.53432E+001,2.80841E-001,-5.10799E-002,9.08180E+000,-4.68155E-001,-7.53481E-002,9.09417E+000,1.61489E-002,4.83594E-001,0,1.38101E+002,-8.38761E+000,9.97107E-001,9.80496E+001,-3.95616E+001,9.96625E-001,1.98285E-001,-8.25780E-002,8.85125E-005,1.98285E-001,-8.25781E-002,1.80565E-002,1.99205E-001,1.21880E+000,-3.54998E-002,0.00000E+000,2.72319E-002,9.22852E-001,0.00000E+000,-4.90218E-003,-7.38374E-002,1.00000E+000,32
1029,1347,1.53425E+001,8.84659E-001,-4.40638E-002,9.05818E+000,-5.16334E-001,-1.01892E-001,9.07346E+000,1.58639E-002,4.89251E-001,0,1.37829E+002,-9.11034E+000,9.97795E-001,9.81234E+001,-4.02237E+001,9.97163E-001,1.98771E-001,-8.25559E-002,2.74491E-004,1.98771E-001,-8.25562E-002,5.59034E-002,1.99719E-001,1.21939E+000,-3.54792E-002,0.00000E+000,2.74305E-002,9.22859E-001,0.00000E+000,-3.13075E-003,-7.37756E-002,1.00000E+000,32
1029,1327,1.53538E+001,-3.18655E-001,-2.12847E-002,9.10819E+000,-4.19769E-001,-4.30731E-002,9.11796E+000,1.73073E-002,4.68280E-001,0,1.38384E+002,-7.67858E+000,9.97274E-001,9.81966E+001,-3.89197E+001,9.96854E-001,1.97796E-001,-8.25964E-002,-9.46732E-005,1.97796E-001,-8.25964E-002,-1.93457E-002,1.98689E-001,1.21821E+000,-3.55140E-002,0.00000E+000,2.70337E-002,9.22847E-001,0.00000E+000,-6.66937E-003,-7.38799E-002,1.00000E+000,32
829,1327,-6.84114E-001,-5.99278E-001,5.93437E-002,6.12948E+000,-5.75266E-001,1.11110E-001,6.15742E+000,2.95705E-002,6.08541E-001,0,9.41747E+001,-1.00545E+001,9.96873E-001,4.99885E+001,-4.54745E+001,9.96664E-001,2.10364E-001,-8.80461E-002,-2.59806E-003,2.10386E-001,-8.80687E-002,-4.98787E-001,2.11314E-001,1.23413E+000,-3.33655E-003,0.00000E+000,-2.39859E-003,9.19628E-001,0.00000E+000,4.11172E-004,-9.24491E-002,1.00000E+000,32
829,1307,-6.85609E-001,-1.76034E+000,2.63658E-001,6.14028E+000,-4.61195E-001,2.49707E-001,6.16264E+000,1.90891E-002,5.05658E-001,0,9.38672E+001,-8.48653E+000,9.96772E-001,5.02267E+001,-4.38818E+001,9.94372E-001,2.10486E-001,-8.80443E-002,-2.51177E-003,2.10507E-001,-8.80654E-002,-4.82029E-001,2.11440E-001,1.23429E+000,-3.33500E-003,0.00000E+000,-2.56825E-003,9.19627E-001,0.00000E+000,4.31023E-003,-9.24120E-002,1.00000E+000,32
829,1317,-6.91576E-001,-1.17892E+000,1.40626E-001,6.13126E+000,-5.15419E-001,1.74860E-001,6.15537E+000,2.26032E-002,5.42184E-001,0,9.39859E+001,-9.20346E+000,9.96184E-001,4.99563E+001,-4.46289E+001,9.95651E-001,2.10427E-001,-8.80448E-002,-2.55470E-003,2.10448E-001,-8.80666E-002,-4.90363E-001,2.11379E-001,1.23421E+000,-3.33539E-003,0.00000E+000,-2.48352E-003,9.19627E-001,0.00000E+000,2.36303E-003,-9.24213E-002,1.00000E+000,32
1029,1317,1.53629E+001,-9.19848E-001,2.70390E-002,9.12869E+000,-3.77794E-001,-1.07899E-002,9.13651E+000,1.79387E-002,4.77936E-001,0,1.38574E+002,-7.04976E+000,9.98278E-001,9.83519E+001,-3.83337E+001,9.97347E-001,1.97306E-001,-8.26123E-002,-2.75596E-004,1.97306E-001,-8.26126E-002,-5.64110E-002,1.98174E-001,1.21762E+000,-3.55242E-002,0.00000E+000,2.68365E-002,9.22844E-001,0.00000E+000,-8.42787E-003,-7.39107E-002,1.00000E+000,32
1029,1307,1.53764E+001,-1.50433E+000,1.14242E-001,9.15092E+000,-3.20978E-001,4.92442E-002,9.15668E+000,1.55869E-002,5.35056E-001,0,1.38676E+002,-6.27196E+000,9.98348E-001,9.86447E+001,-3.75488E+001,9.96438E-001,1.96813E-001,-8.26269E-002,-4.55481E-004,1.96814E-001,-8.26276E-002,-9.33904E-002,1.97656E-001,1.21704E+000,-3.55321E-002,0.00000E+000,2.66396E-002,9.22841E-001,0.00000E+000,-1.01838E-002,-7.39345E-002,1.00000E+000,32
1029,1297,1.53929E+001,-2.08592E+000,2.06737E-001,9.17410E+000,-2.60833E-001,1.04960E-001,9.17840E+000,1.51111E-002,4.92811E-001,0,1.38805E+002,-5.41118E+000,9.97829E-001,9.89962E+001,-3.67787E+001,9.96820E-001,1.96317E-001,-8.26403E-002,-6.35054E-004,1.96318E-001,-8.26417E-002,-1.30435E-001,1.97134E-001,1.21645E+000,-3.55381E-002,0.00000E+000,2.64423E-002,9.22839E-001,0.00000E+000,-1.19430E-002,-7.39525E-002,1.00000E+000,32
819,1317,-1.48567E+000,-1.18981E+000,1.50915E-001,5.98271E+000,-5.21815E-001,1.75601E-001,6.00799E+000,2.18320E-002,5.27422E-001,0,9.17673E+001,-9.28504E+000,9.95313E-001,4.77375E+001,-4.49312E+001,9.94063E-001,2.08987E-001,-8.77476E-002,-1.94047E-003,2.09000E-001,-8.77603E-002,-3.74659E-001,2.09892E-001,1.23243E+000,-3.17303E-003,0.00000E+000,-1.38535E-003,9.19735E-001,0.00000E+000,1.53637E-003,-9.04567E-002,1.00000E+000,32
819,1327,-1.48204E+000,-6.11043E-001,7.00003E-002,5.97941E+000,-5.80477E-001,1.23143E-001,6.00878E+000,2.14912E-002,5.32625E-001,0,9.18963E+001,-1.01156E+001,9.96535E-001,4.77114E+001,-4.58244E+001,9.95606E-001,2.09038E-001,-8.77504E-002,-2.06050E-003,2.09052E-001,-8.77647E-002,-3.97759E-001,2.09946E-001,1.23249E+000,-3.17238E-003,0.00000E+000,-1.46333E-003,9.19735E-001,0.00000E+000,-2.30138E-004,-9.04757E-002,1.00000E+000,32
819,1337,-1.46184E+000,-2.17864E-002,2.78356E-002,5.98482E+000,-6.34981E-001,7.03492E-002,6.01882E+000,1.84271E-002,5.58444E-001,0,9.21504E+001,-1.08815E+001,9.95836E-001,4.80327E+001,-4.66270E+001,9.95451E-001,2.09085E-001,-8.77562E-002,-2.18093E-003,2.09101E-001,-8.77722E-002,-4.20929E-001,2.09997E-001,1.23255E+000,-3.17098E-003,0.00000E+000,-1.54173E-003,9.19733E-001,0.00000E+000,-2.00616E-003,-9.05161E-002,1.00000E+000,32
819,1307,-1.49060E+000,-1.76750E+000,2.38356E-001,5.98168E+000,-4.65465E-001,2.19430E-001,6.00377E+000,2.11837E-002,5.47170E-001,0,9.15971E+001,-8.46400E+000,9.96152E-001,4.77591E+001,-4.40227E+001,9.94797E-001,2.08933E-001,-8.77458E-002,-1.82077E-003,2.08945E-001,-8.77570E-002,-3.51616E-001,2.09834E-001,1.23237E+000,-3.17341E-003,0.00000E+000,-1.30764E-003,9.19736E-001,0.00000E+000,3.29663E-003,-9.04460E-002,1.00000E+000,32
819,1347,-1.43328E+000,5.77080E-001,1.59762E-002,5.99318E+000,-6.83819E-001,2.08909E-002,6.03210E+000,1.75163E-002,5.39291E-001,0,9.24314E+001,-1.15460E+001,9.97395E-001,4.85554E+001,-4.73703E+001,9.97473E-001,2.09130E-001,-8.77640E-002,-2.30163E-003,2.09148E-001,-8.77818E-002,-4.44143E-001,2.10045E-001,1.23261E+000,-3.16908E-003,0.00000E+000,-1.62036E-003,9.19730E-001,0.00000E+000,-3.78755E-003,-9.05712E-002,1.00000E+000,32
819,1357,-1.40657E+000,1.16550E+000,4.52303E-002,5.99224E+000,-7.48352E-001,-2.46783E-002,6.03884E+000,2.17016E-002,5.59909E-001,0,9.25539E+001,-1.24882E+001,9.96491E-001,4.91430E+001,-4.83485E+001,9.96570E-001,2.09172E-001,-8.77745E-002,-2.42267E-003,2.09192E-001,-8.77943E-002,-4.67413E-001,2.10089E-001,1.23268E+000,-3.16648E-003,0.00000E+000,-1.69931E-003,9.19727E-001,0.00000E+000,-5.57584E-003,-9.06466E-002,1.00000E+000,32
1039,1337,1.61437E+001,3.05762E-001,-5.55152E-002,9.22531E+000,-4.50079E-001,-7.95271E-002,9.23663E+000,1.44704E-002,4.88151E-001,0,1.40178E+002,-8.11415E+000,9.97895E-001,1.00491E+002,-3.90590E+001,9.96594E-001,1.98326E-001,-8.21241E-002,-3.94967E-004,1.98327E-001,-8.21247E-002,-8.06913E-002,1.99300E-001,1.21885E+000,-3.53548E-002,0.00000E+000,2.60993E-002,9.23234E-001,0.00000E+000,-2.96182E-003,-7.28511E-002,1.00000E+000,32
1039,1347,1.61405E+001,8.92668E-001,-5.41365E-002,9.19948E+000,-5.13091E-001,-1.09934E-001,9.21443E+000,1.42270E-002,4.31819E-001,0,1.39894E+002,-9.05759E+000,9.98786E-001,1.00512E+002,-4.00000E+001,9.98126E-001,1.98907E-001,-8.21127E-002,-2.87130E-004,1.98908E-001,-8.21129E-002,-5.85415E-002,1.99913E-001,1.21956E+000,-3.53303E-002,0.00000E+000,2.61573E-002,9.23236E-001,0.00000E+000,-1.32619E-003,-7.27947E-002,1.00000E+000,32
1039,1317,1.61576E+001,-8.86219E-001,2.47668E-002,9.26746E+000,-3.48941E-001,-9.04855E-003,9.27403E+000,1.53471E-002,4.48089E-001,0,1.40552E+002,-6.62070E+000,9.97829E-001,1.00708E+002,-3.77222E+001,9.96754E-001,1.97155E-001,-8.21424E-002,-6.03682E-004,1.97156E-001,-8.21437E-002,-1.23840E-001,1.98067E-001,1.21743E+000,-3.53853E-002,0.00000E+000,2.59832E-002,9.23231E-001,0.00000E+000,-6.23121E-003,-7.29216E-002,1.00000E+000,32
1039,1327,1.61520E+001,-2.95291E-001,-2.08952E-002,9.24974E+000,-4.01546E-001,-4.17301E-002,9.25854E+000,1.31677E-002,4.26001E-001,0,1.40410E+002,-7.41193E+000,9.98160E-001,1.00612E+002,-3.84771E+001,9.97306E-001,1.97740E-001,-8.21338E-002,-5.00447E-004,1.97741E-001,-8.21347E-002,-1.02451E-001,1.98683E-001,1.21814E+000,-3.53721E-002,0.00000E+000,2.60410E-002,9.23232E-001,0.00000E+000,-4.60250E-003,-7.28911E-002,1.00000E+000,32
1039,1307,1.61727E+001,-1.48060E+000,9.11261E-002,9.29189E+000,-3.01223E-001,3.20259E-002,9.29682E+000,1.61001E-002,4.70550E-001,0,1.40762E+002,-5.92958E+000,9.97504E-001,1.00990E+002,-3.70647E+001,9.96548E-001,1.96567E-001,-8.21501E-002,-7.05744E-004,1.96569E-001,-8.21519E-002,-1.45078E-001,1.97450E-001,1.21672E+000,-3.53955E-002,0.00000E+000,2.59254E-002,9.23230E-001,0.00000E+000,-7.85883E-003,-7.29449E-002,1.00000E+000,32
1039,1297,1.61915E+001,-2.06821E+000,1.86074E-001,9.31682E+000,-2.47608E-001,8.77252E-002,9.32052E+000,1.65845E-002,4.57867E-001,0,1.40917E+002,-5.17803E+000,9.96200E-001,1.01379E+002,-3.63804E+001,9.96080E-001,1.95976E-001,-8.21570E-002,-8.06557E-004,1.95978E-001,-8.21594E-002,-1.66150E-001,1.96829E-001,1.21602E+000,-3.54021E-002,0.00000E+000,2.58676E-002,9.23230E-001,0.00000E+000,-9.48712E-003,-7.29602E-002,1.00000E+000,32
1049,1337,1.69525E+001,3.30059E-001,-6.39955E-002,9.37606E+000,-4.30599E-001,-9.07311E-002,9.38639E+000,1.99249E-002,4.59672E-001,0,1.42386E+002,-7.82675E+000,9.99000E-001,1.03059E+002,-3.85727E+001,9.97880E-001,1.98290E-001,-8.20296E-002,-1.07338E-003,1.98295E-001,-8.20337E-002,-2.19388E-001,1.99277E-001,1.21881E+000,-3.51032E-002,0.00000E+000,2.45650E-002,9.23262E-001,0.00000E+000,-1.72701E-003,-7.13470E-002,1.00000E+000,32
1049,1347,1.69590E+001,9.22678E-001,-4.58782E-002,9.35744E+000,-4.91828E-001,-1.13932E-001,9.37104E+000,1.58296E-002,4.72908E-001,0,1.42179E+002,-8.75947E+000,9.98657E-001,1.03258E+002,-3.94248E+001,9.97391E-001,1.98972E-001,-8.20304E-002,-1.05743E-003,1.98976E-001,-8.20344E-002,-2.15604E-001,1.99994E-001,1.21965E+000,-3.50715E-002,0.00000E+000,2.44757E-002,9.23259E-001,0.00000E+000,-5.51426E-004,-7.13023E-002,1.00000E+000,32
1049,1307,1.69782E+001,-1.45332E+000,1.00325E-001,9.43783E+000,-2.79555E-001,3.06733E-002,9.44202E+000,1.97338E-002,4.04933E-001,0,1.42853E+002,-5.60310E+000,9.97892E-001,1.03540E+002,-3.65946E+001,9.97207E-001,1.96248E-001,-8.20279E-002,-1.10175E-003,1.96252E-001,-8.20322E-002,-2.26841E-001,1.97130E-001,1.21633E+000,-3.51488E-002,0.00000E+000,2.48310E-002,9.23267E-001,0.00000E+000,-5.22862E-003,-7.14113E-002,1.00000E+000,32
1049,1317,1.69603E+001,-8.60960E-001,3.30724E-002,9.41015E+000,-3.30134E-001,-1.25778E-002,9.41595E+000,1.67477E-002,4.26976E-001,0,1.42605E+002,-6.34950E+000,9.97256E-001,1.03212E+002,-3.72580E+001,9.95722E-001,1.96930E-001,-8.20284E-002,-1.09338E-003,1.96934E-001,-8.20327E-002,-2.24567E-001,1.97846E-001,1.21715E+000,-3.51365E-002,0.00000E+000,2.47425E-002,9.23266E-001,0.00000E+000,-4.06340E-003,-7.13939E-002,1.00000E+000,32
1049,1327,1.69527E+001,-2.77104E-001,-2.50612E-002,9.39342E+000,-3.89462E-001,-4.41750E-002,9.40159E+000,1.10073E-002,4.09780E-001,0,1.42481E+002,-7.22884E+000,9.98339E-001,1.03060E+002,-3.80917E+001,9.96489E-001,1.97610E-001,-8.20289E-002,-1.08539E-003,1.97614E-001,-8.20331E-002,-2.22383E-001,1.98561E-001,1.21798E+000,-3.51249E-002,0.00000E+000,2.46539E-002,9.23265E-001,0.00000E+000,-2.89739E-003,-7.13776E-002,1.00000E+000,32
809,1347,-2.24615E+000,5.62697E-001,9.38536E-003,5.82864E+000,-6.90704E-001,1.87032E-002,5.86945E+000,1.41894E-002,5.31070E-001,0,8.99730E+001,-1.16339E+001,9.98437E-001,4.60143E+001,-4.76953E+001,9.98529E-001,2.07903E-001,-8.74199E-002,-1.95119E-003,2.07916E-001,-8.74328E-002,-3.78529E-001,2.08790E-001,1.23110E+000,-3.44262E-003,0.00000E+000,-7.55029E-004,9.19895E-001,0.00000E+000,-3.95933E-003,-8.87219E-002,1.00000E+000,32
809,1357,-2.21811E+000,1.15812E+000,5.03933E-002,5.82855E+000,-7.49097E-001,-1.86242E-002,5.87652E+000,1.72366E-002,5.36740E-001,0,9.00788E+001,-1.24824E+001,9.97786E-001,4.66539E+001,-4.86005E+001,9.97063E-001,2.08092E-001,-8.74408E-002,-2.18189E-003,2.08108E-001,-8.74569E-002,-4.22978E-001,2.08989E-001,1.23134E+000,-3.43216E-003,0.00000E+000,-1.05662E-003,9.19882E-001,0.00000E+000,-5.63046E-003,-8.87938E-002,1.00000E+000,32
809,1327,-2.28396E+000,-6.26035E-001,5.85389E-002,5.82490E+000,-5.91487E-001,1.13335E-001,5.85595E+000,1.36349E-002,5.79055E-001,0,8.96190E+001,-1.02395E+001,9.98307E-001,4.53250E+001,-4.61161E+001,9.96917E-001,2.07520E-001,-8.73939E-002,-1.49106E-003,2.07527E-001,-8.74014E-002,-2.89673E-001,2.08386E-001,1.23062E+000,-3.45529E-003,0.00000E+000,-1.57247E-004,9.19911E-001,0.00000E+000,-6.47049E-004,-8.86348E-002,1.00000E+000,32
809,1337,-2.26322E+000,-3.60545E-002,2.95373E-002,5.83055E+000,-6.43893E-001,7.13528E-002,5.86643E+000,1.25118E-002,5.55095E-001,0,8.98399E+001,-1.09942E+001,9.98101E-001,4.56867E+001,-4.69624E+001,9.98127E-001,2.07713E-001,-8.74055E-002,-1.72105E-003,2.07723E-001,-8.74156E-002,-3.34119E-001,2.08589E-001,1.23086E+000,-3.44967E-003,0.00000E+000,-4.55728E-004,9.19904E-001,0.00000E+000,-2.30092E-003,-8.86734E-002,1.00000E+000,32
809,1307,-2.29450E+000,-1.76830E+000,2.46984E-001,5.82516E+000,-4.61349E-001,2.29996E-001,5.84792E+000,2.47790E-002,6.26935E-001,0,8.92206E+001,-8.43564E+000,9.92116E-001,4.53930E+001,-4.41181E+001,9.90807E-001,2.07127E-001,-8.73843E-002,-1.03023E-003,2.07131E-001,-8.73879E-002,-2.00422E-001,2.07971E-001,1.23014E+000,-3.45933E-003,0.00000E+000,4.37253E-004,9.19916E-001,0.00000E+000,2.64705E-003,-8.86070E-002,1.00000E+000,32
809,1317,-2.28575E+000,-1.19555E+000,1.42142E-001,5.83023E+000,-5.23589E-001,1.69700E-001,5.85615E+000,2.19413E-002,5.94106E-001,0,8.95070E+001,-9.28564E+000,9.97221E-001,4.53880E+001,-4.50740E+001,9.95890E-001,2.07325E-001,-8.73879E-002,-1.26068E-003,2.07330E-001,-8.73933E-002,-2.45085E-001,2.08180E-001,1.23038E+000,-3.45795E-003,0.00000E+000,1.40275E-004,9.19914E-001,0.00000E+000,1.00151E-003,-8.86166E-002,1.00000E+000,32
1049,1297,1.69872E+001,-2.05255E+000,1.82102E-001,9.45536E+000,-2.36736E-001,8.34405E-002,9.45869E+000,1.69396E-002,3.98068E-001,0,1.42914E+002,-4.99974E+000,9.96508E-001,1.03752E+002,-3.60622E+001,9.95039E-001,1.95565E-001,-8.20274E-002,-1.10959E-003,1.95570E-001,-8.20318E-002,-2.29017E-001,1.96414E-001,1.21550E+000,-3.51596E-002,0.00000E+000,2.49194E-002,9.23268E-001,0.00000E+000,-6.39293E-003,-7.14266E-002,1.00000E+000,32
799,1337,-3.06566E+000,-4.42961E-002,2.62527E-002,5.67574E+000,-6.45556E-001,7.20050E-002,5.71278E+000,1.31148E-002,5.53396E-001,0,8.75171E+001,-1.10032E+001,9.98209E-001,4.33192E+001,-4.71937E+001,9.98267E-001,2.05898E-001,-8.70219E-002,-1.19887E-003,2.05903E-001,-8.70268E-002,-2.34498E-001,2.06722E-001,1.22863E+000,-3.82359E-003,0.00000E+000,8.18236E-004,9.20095E-001,0.00000E+000,-2.59838E-003,-8.66667E-002,1.00000E+000,32
799,1347,-3.04621E+000,5.51175E-001,1.43717E-002,5.67672E+000,-6.95530E-001,2.94270E-002,5.71925E+000,1.54139E-002,5.55427E-001,0,8.76629E+001,-1.17218E+001,9.97574E-001,4.37035E+001,-4.79837E+001,9.97342E-001,2.06151E-001,-8.70422E-002,-1.52412E-003,2.06159E-001,-8.70501E-002,-2.97833E-001,2.06988E-001,1.22894E+000,-3.81453E-003,0.00000E+000,3.19599E-004,9.20080E-001,0.00000E+000,-4.03359E-003,-8.67076E-002,1.00000E+000,32
799,1357,-3.01353E+000,1.15491E+000,5.04292E-002,5.68132E+000,-7.45284E-001,-1.37587E-002,5.73002E+000,1.59997E-002,5.52572E-001,0,8.78563E+001,-1.24225E+001,9.96983E-001,4.44070E+001,-4.87553E+001,9.96335E-001,2.06404E-001,-8.70721E-002,-1.84996E-003,2.06415E-001,-8.70838E-002,-3.61151E-001,2.07253E-001,1.22926E+000,-3.80078E-003,0.00000E+000,-1.82628E-004,9.20059E-001,0.00000E+000,-5.47913E-003,-8.67698E-002,1.00000E+000,32
799,1327,-3.07765E+000,-6.39908E-001,7.32641E-002,5.67828E+000,-5.98220E-001,1.29754E-001,5.71118E+000,2.13177E-002,5.52631E-001,0,8.73736E+001,-1.03685E+001,9.98574E-001,4.31333E+001,-4.64823E+001,9.97266E-001,2.05643E-001,-8.70054E-002,-8.73479E-004,2.05645E-001,-8.70080E-002,-1.71011E-001,2.06454E-001,1.22831E+000,-3.83072E-003,0.00000E+000,1.31602E-003,9.20106E-001,0.00000E+000,-1.16561E-003,-8.66344E-002,1.00000E+000,32
1059,1327,1.77552E+001,-2.62340E-001,-2.37981E-002,9.53772E+000,-3.81197E-001,-4.47568E-002,9.54544E+000,1.69734E-002,4.21941E-001,0,1.44550E+002,-7.12498E+000,9.98592E-001,1.05552E+002,-3.77570E+001,9.97181E-001,1.97721E-001,-8.23398E-002,-1.44069E-003,1.97729E-001,-8.23472E-002,-2.94731E-001,1.98647E-001,1.21814E+000,-3.42274E-002,0.00000E+000,2.32053E-002,9.22939E-001,0.00000E+000,-1.38686E-003,-7.02246E-002,1.00000E+000,32
1059,1337,1.77585E+001,3.50433E-001,-5.41288E-002,9.52330E+000,-4.17137E-001,-8.43321E-002,9.53280E+000,1.38915E-002,4.48812E-001,0,1.44471E+002,-7.64900E+000,9.99070E-001,1.05619E+002,-3.81794E+001,9.98513E-001,1.98437E-001,-8.23465E-002,-1.48389E-003,1.98445E-001,-8.23544E-002,-3.02786E-001,1.99398E-001,1.21902E+000,-3.42039E-002,0.00000E+000,2.30459E-002,9.22934E-001,0.00000E+000,-7.29721E-004,-7.02069E-002,1.00000E+000,32
1059,1347,1.77681E+001,9.45500E-001,-3.67111E-002,9.50738E+000,-4.75307E-001,-1.09258E-001,9.51988E+000,1.82519E-002,4.53543E-001,0,1.44311E+002,-8.54310E+000,9.98934E-001,1.05863E+002,-3.89945E+001,9.97708E-001,1.99154E-001,-8.23547E-002,-1.52311E-003,1.99162E-001,-8.23630E-002,-3.09987E-001,2.00152E-001,1.21990E+000,-3.41700E-002,0.00000E+000,2.28859E-002,9.22928E-001,0.00000E+000,-7.05687E-005,-7.01814E-002,1.00000E+000,32
1059,1297,1.77830E+001,-2.03098E+000,1.70487E-001,9.59560E+000,-2.18273E-001,8.00920E-002,9.59841E+000,1.62951E-002,3.40324E-001,0,1.44929E+002,-4.71567E+000,9.97110E-001,1.06119E+002,-3.56353E+001,9.94639E-001,1.95576E-001,-8.23239E-002,-1.29958E-003,1.95582E-001,-8.23299E-002,-2.67933E-001,1.96395E-001,1.21553E+000,-3.42675E-002,0.00000E+000,2.36820E-002,9.22946E-001,0.00000E+000,-3.35105E-003,-7.02547E-002,1.00000E+000,32
1059,1307,1.77751E+001,-1.43701E+000,9.33559E-002,9.57904E+000,-2.65659E-001,3.19340E-002,9.58277E+000,1.71835E-002,3.37708E-001,0,1.44868E+002,-5.40929E+000,9.98285E-001,1.05930E+002,-3.62618E+001,9.97526E-001,1.96290E-001,-8.23289E-002,-1.34718E-003,1.96296E-001,-8.23354E-002,-2.77029E-001,1.97144E-001,1.21640E+000,-3.42560E-002,0.00000E+000,2.35236E-002,9.22944E-001,0.00000E+000,-2.69840E-003,-7.02461E-002,1.00000E+000,32
1059,1317,1.77569E+001,-8.49086E-001,1.91279E-002,9.55158E+000,-3.21510E-001,-1.59503E-002,9.55701E+000,1.80751E-002,4.27219E-001,0,1.44645E+002,-6.24639E+000,9.97915E-001,1.05586E+002,-3.69435E+001,9.95940E-001,1.97005E-001,-8.23341E-002,-1.39463E-003,1.97012E-001,-8.23410E-002,-2.86046E-001,1.97894E-001,1.21727E+000,-3.42436E-002,0.00000E+000,2.33647E-002,9.22941E-001,0.00000E+000,-2.04350E-003,-7.02368E-002,1.00000E+000,32
799,1307,-3.08459E+000,-1.77713E+000,2.56363E-001,5.68085E+000,-4.64536E-001,2.35178E-001,5.70466E+000,3.16683E-002,6.09495E-001,0,8.70473E+001,-8.48666E+000,9.94506E-001,4.32465E+001,-4.43860E+001,9.94096E-001,2.05129E-001,-8.69921E-002,-2.23016E-004,2.05129E-001,-8.69922E-002,-4.37418E-002,2.05915E-001,1.22768E+000,-3.83541E-003,0.00000E+000,2.30538E-003,9.20113E-001,0.00000E+000,1.68201E-003,-8.66132E-002,1.00000E+000,32
799,1317,-3.08423E+000,-1.20628E+000,1.47369E-001,5.68023E+000,-5.26861E-001,1.84211E-001,5.70759E+000,2.63699E-002,6.29813E-001,0,8.72175E+001,-9.37919E+000,9.96682E-001,4.31005E+001,-4.53389E+001,9.95267E-001,2.05386E-001,-8.69950E-002,-5.48515E-004,2.05387E-001,-8.69960E-002,-1.07488E-001,2.06186E-001,1.22799E+000,-3.83491E-003,0.00000E+000,1.81142E-003,9.20112E-001,0.00000E+000,2.60268E-004,-8.66155E-002,1.00000E+000,32
789,1327,-3.87045E+000,-6.44999E-001,7.35738E-002,5.53281E+000,-5.96515E-001,1.35300E-001,5.56652E+000,1.98755E-002,5.71570E-001,0,8.51756E+001,-1.03525E+001,9.98009E-001,4.09280E+001,-4.66594E+001,9.97078E-001,2.03813E-001,-8.66093E-002,-5.21339E-004,2.03814E-001,-8.66103E-002,-1.02852E-001,2.04578E-001,1.22606E+000,-4.41979E-003,0.00000E+000,2.45290E-003,9.20334E-001,0.00000E+000,-1.65782E-003,-8.49285E-002,1.00000E+000,32
789,1337,-3.85697E+000,-4.48805E-002,3.04537E-002,5.53122E+000,-6.39605E-001,7.81088E-002,5.56863E+000,1.58854E-002,5.49973E-001,0,8.53290E+001,-1.09106E+001,9.97242E-001,4.11476E+001,-4.73227E+001,9.97340E-001,2.04186E-001,-8.66315E-002,-9.32991E-004,2.04189E-001,-8.66345E-002,-1.83812E-001,2.04968E-001,1.22652E+000,-4.40903E-003,0.00000E+000,1.77503E-003,9.20318E-001,0.00000E+000,-2.90854E-003,-8.49577E-002,1.00000E+000,32
789,1347,-3.83346E+000,5.49817E-001,1.86577E-002,5.53597E+000,-6.91384E-001,3.33991E-002,5.57908E+000,1.72596E-002,5.84526E-001,0,8.55389E+001,-1.16547E+001,9.96512E-001,4.15956E+001,-4.81099E+001,9.95896E-001,2.04558E-001,-8.66582E-002,-1.34491E-003,2.04564E-001,-8.66644E-002,-2.64599E-001,2.05357E-001,1.22699E+000,-4.39564E-003,0.00000E+000,1.09507E-003,9.20298E-001,0.00000E+000,-4.16311E-003,-8.49941E-002,1.00000E+000,32
789,1357,-3.80865E+000,1.14835E+000,4.72090E-002,5.53423E+000,-7.45150E-001,-1.07590E-002,5.58418E+000,1.57332E-002,5.84700E-001,0,8.56399E+001,-1.24159E+001,9.95925E-001,4.21617E+001,-4.89467E+001,9.95397E-001,2.04929E-001,-8.66948E-002,-1.75668E-003,2.04940E-001,-8.67053E-002,-3.45120E-001,2.05747E-001,1.22745E+000,-4.37670E-003,0.00000E+000,4.11840E-004,9.20271E-001,0.00000E+000,-5.42371E-003,-8.50455E-002,1.00000E+000,32
1069,1327,1.85591E+001,-2.46623E-001,-2.90782E-002,9.68390E+000,-3.72162E-001,-4.71913E-002,9.69116E+000,1.78531E-002,4.57223E-001,0,1.46653E+002,-7.00425E+000,9.98270E-001,1.08058E+002,-3.73817E+001,9.96584E-001,1.97918E-001,-8.23685E-002,-1.77607E-003,1.97929E-001,-8.23797E-002,-3.63041E-001,1.98853E-001,1.21841E+000,-3.34558E-002,0.00000E+000,2.19272E-002,9.22871E-001,0.00000E+000,-3.52953E-004,-6.91071E-002,1.00000E+000,32
1069,1337,1.85541E+001,3.60919E-001,-5.48656E-002,9.66204E+000,-4.11497E-001,-7.85636E-002,9.67111E+000,1.16696E-002,4.08996E-001,0,1.46434E+002,-7.58444E+000,9.98668E-001,1.08003E+002,-3.79319E+001,9.97814E-001,1.98583E-001,-8.23787E-002,-1.85688E-003,1.98595E-001,-8.23910E-002,-3.78647E-001,1.99552E-001,1.21922E+000,-3.34349E-002,0.00000E+000,2.17327E-002,9.22866E-001,0.00000E+000,-1.83307E-004,-6.91028E-002,1.00000E+000,32
1069,1347,1.85593E+001,9.59300E-001,-5.66698E-002,9.64333E+000,-4.66270E-001,-1.14948E-001,9.65528E+000,1.19445E-002,4.45563E-001,0,1.46278E+002,-8.40411E+000,9.98998E-001,1.08144E+002,-3.86360E+001,9.98117E-001,1.99251E-001,-8.23910E-002,-1.93481E-003,1.99265E-001,-8.24043E-002,-3.93582E-001,2.00255E-001,1.22004E+000,-3.34053E-002,0.00000E+000,2.15369E-002,9.22859E-001,0.00000E+000,-1.25777E-005,-6.90966E-002,1.00000E+000,32
789,1307,-3.86988E+000,-1.78754E+000,2.53515E-001,5.54308E+000,-4.68777E-001,2.39188E-001,5.56800E+000,2.09293E-002,5.68055E-001,0,8.49778E+001,-8.52460E+000,9.96453E-001,4.11500E+001,-4.46639E+001,9.93557E-001,2.03067E-001,-8.65907E-002,3.01962E-004,2.03067E-001,-8.65910E-002,5.97296E-002,2.03799E-001,1.22515E+000,-4.42675E-003,0.00000E+000,3.79914E-003,9.20344E-001,0.00000E+000,8.26086E-004,-8.49096E-002,1.00000E+000,32
789,1317,-3.87221E+000,-1.22084E+000,1.64148E-001,5.53699E+000,-5.36280E-001,1.93434E-001,5.56626E+000,2.19255E-002,5.99368E-001,0,8.50447E+001,-9.52603E+000,9.96642E-001,4.10078E+001,-4.57194E+001,9.93033E-001,2.03441E-001,-8.65987E-002,-1.09644E-004,2.03441E-001,-8.65988E-002,-2.16596E-002,2.04189E-001,1.22560E+000,-4.42404E-003,0.00000E+000,3.12661E-003,9.20340E-001,0.00000E+000,-4.14782E-004,-8.49170E-002,1.00000E+000,32
1069,1297,1.85666E+001,-2.01260E+000,1.50517E-001,9.72491E+000,-2.03207E-001,7.59447E-002,9.72733E+000,2.12339E-002,3.63966E-001,0,1.46783E+002,-4.50239E+000,9.95386E-001,1.08285E+002,-3.52010E+001,9.91769E-001,1.95920E-001,-8.23429E-002,-1.52508E-003,1.95928E-001,-8.23512E-002,-3.14010E-001,1.96756E-001,1.21597E+000,-3.34973E-002,0.00000E+000,2.25106E-002,9.22881E-001,0.00000E+000,-8.61818E-004,-6.91158E-002,1.00000E+000,32
1069,1307,1.85634E+001,-1.42160E+000,7.00394E-002,9.71418E+000,-2.52906E-001,2.93881E-002,9.71751E+000,1.47054E-002,3.36138E-001,0,1.46808E+002,-5.22637E+000,9.98098E-001,1.08165E+002,-3.58765E+001,9.96480E-001,1.96583E-001,-8.23503E-002,-1.61013E-003,1.96593E-001,-8.23596E-002,-3.30721E-001,1.97452E-001,1.21678E+000,-3.34880E-002,0.00000E+000,2.23171E-002,9.22879E-001,0.00000E+000,-6.93026E-004,-6.91139E-002,1.00000E+000,32
1069,1317,1.85633E+001,-8.26459E-001,1.80163E-002,9.70125E+000,-3.04732E-001,-1.08893E-002,9.70604E+000,1.54093E-002,4.71384E-001,0,1.46768E+002,-6.02920E+000,9.98699E-001,1.08140E+002,-3.64670E+001,9.96694E-001,1.97251E-001,-8.23594E-002,-1.69313E-003,1.97261E-001,-8.23696E-002,-3.46927E-001,1.98153E-001,1.21759E+000,-3.34720E-002,0.00000E+000,2.21222E-002,9.22875E-001,0.00000E+000,-5.23019E-004,-6.91105E-002,1.00000E+000,32
779,1327,-4.65510E+000,-6.44422E-001,8.07212E-002,5.39406E+000,-5.91762E-001,1.42820E-001,5.42831E+000,2.79346E-002,6.08272E-001,0,8.30701E+001,-1.02735E+001,9.97724E-001,3.88712E+001,-4.67542E+001,9.96383E-001,2.01887E-001,-8.59510E-002,-4.82272E-004,2.01888E-001,-8.59518E-002,-9.59987E-002,2.02629E-001,1.22370E+000,-5.29340E-003,0.00000E+000,3.21365E-003,9.20837E-001,0.00000E+000,-2.03226E-003,-8.36161E-002,1.00000E+000,32
779,1337,-4.64191E+000,-6.03801E-002,3.64050E-002,5.39267E+000,-6.49602E-001,8.60896E-002,5.43234E+000,1.54246E-002,5.54632E-001,0,8.32287E+001,-1.10593E+001,9.96384E-001,3.90811E+001,-4.76808E+001,9.96712E-001,2.02469E-001,-8.59795E-002,-1.00987E-003,2.02473E-001,-8.59831E-002,-2.00591E-001,2.03237E-001,1.22442E+000,-5.27717E-003,0.00000E+000,2.29580E-003,9.20816E-001,0.00000E+000,-3.05750E-003,-8.36393E-002,1.00000E+000,32
779,1347,-4.62551E+000,5.40148E-001,2.22396E-002,5.38992E+000,-6.94606E-001,3.60723E-002,5.43462E+000,1.92347E-002,5.72852E-001,0,8.33366E+001,-1.16942E+001,9.95167E-001,3.94164E+001,-4.83840E+001,9.94580E-001,2.03051E-001,-8.60152E-002,-1.53717E-003,2.03059E-001,-8.60234E-002,-3.04671E-001,2.03847E-001,1.22513E+000,-5.25589E-003,0.00000E+000,1.37498E-003,9.20789E-001,0.00000E+000,-4.08605E-003,-8.36697E-002,1.00000E+000,32
779,1357,-4.60395E+000,1.14255E+000,4.62251E-002,5.38588E+000,-7.44074E-001,-8.88365E-003,5.43704E+000,1.54793E-002,5.85617E-001,0,8.34034E+001,-1.23870E+001,9.95851E-001,3.99244E+001,-4.91472E+001,9.95682E-001,2.03635E-001,-8.60612E-002,-2.06505E-003,2.03650E-001,-8.60759E-002,-4.08395E-001,2.04460E-001,1.22586E+000,-5.22743E-003,0.00000E+000,4.48280E-004,9.20752E-001,0.00000E+000,-5.12116E-003,-8.37105E-002,1.00000E+000,32
779,1317,-4.65012E+000,-1.21327E+000,1.64630E-001,5.40480E+000,-5.22876E-001,1.93448E-001,5.43347E+000,2.73365E-002,5.73637E-001,0,8.30623E+001,-9.29663E+000,9.98251E-001,3.90409E+001,-4.57203E+001,9.96710E-001,2.01304E-001,-8.59368E-002,4.83992E-005,2.01304E-001,-8.59368E-002,9.65417E-003,2.02020E-001,1.22299E+000,-5.29982E-003,0.00000E+000,4.12997E-003,9.20845E-001,0.00000E+000,-1.00874E-003,-8.36069E-002,1.00000E+000,32
1079,1337,1.93561E+001,3.77366E-001,-7.31941E-002,9.80603E+000,-4.01466E-001,-9.32187E-002,9.81469E+000,1.85132E-002,4.16847E-001,0,1.48548E+002,-7.41451E+000,9.97656E-001,1.10462E+002,-3.75289E+001,9.97880E-001,1.99061E-001,-8.26451E-002,-2.17442E-003,1.99078E-001,-8.26619E-002,-4.42217E-001,2.00029E-001,1.21983E+000,-3.26352E-002,0.00000E+000,2.04844E-002,9.22626E-001,0.00000E+000,3.95769E-004,-6.87249E-002,1.00000E+000,32
1079,1347,1.93670E+001,9.76427E-001,-6.32228E-002,9.79273E+000,-4.55740E-001,-1.18224E-001,9.80405E+000,1.02851E-002,4.51002E-001,0,1.48430E+002,-8.25346E+000,9.99107E-001,1.10709E+002,-3.82471E+001,9.99046E-001,1.99676E-001,-8.26633E-002,-2.30190E-003,1.99695E-001,-8.26820E-002,-4.67088E-001,2.00676E-001,1.22058E+000,-3.26078E-002,0.00000E+000,2.02223E-002,9.22616E-001,0.00000E+000,2.03683E-004,-6.87319E-002,1.00000E+000,32
1079,1297,1.93715E+001,-1.98877E+000,1.54324E-001,9.87124E+000,-1.85292E-001,7.96206E-002,9.87330E+000,2.01347E-002,4.40852E-001,0,1.48853E+002,-4.28517E+000,9.96844E-001,1.10827E+002,-3.47038E+001,9.94549E-001,1.96611E-001,-8.25931E-002,-1.64665E-003,1.96620E-001,-8.26028E-002,-3.37896E-001,1.97455E-001,1.21684E+000,-3.26921E-002,0.00000E+000,2.15258E-002,9.22646E-001,0.00000E+000,1.15908E-003,-6.87104E-002,1.00000E+000,32
1079,1307,1.93613E+001,-1.40768E+000,6.25469E-002,9.85493E+000,-2.44920E-001,2.77677E-002,9.85801E+000,1.71628E-002,3.79503E-001,0,1.48822E+002,-5.12417E+000,9.98176E-001,1.10580E+002,-3.55246E+001,9.96720E-001,1.97221E-001,-8.26033E-002,-1.78088E-003,1.97233E-001,-8.26147E-002,-3.64626E-001,1.98096E-001,1.21758E+000,-3.26851E-002,0.00000E+000,2.12666E-002,9.22643E-001,0.00000E+000,9.69130E-004,-6.87122E-002,1.00000E+000,32
1079,1327,1.93593E+001,-2.30532E-001,-4.19692E-002,9.82572E+000,-3.62250E-001,-5.84954E-002,9.83257E+000,2.00887E-002,4.32899E-001,0,1.48720E+002,-6.83161E+000,9.98135E-001,1.10499E+002,-3.70143E+001,9.97580E-001,1.98449E-001,-8.26304E-002,-2.04429E-003,1.98464E-001,-8.26452E-002,-4.16683E-001,1.99386E-001,1.21908E+000,-3.26541E-002,0.00000E+000,2.07449E-002,9.22632E-001,0.00000E+000,5.86686E-004,-6.87201E-002,1.00000E+000,32
1079,1317,1.93571E+001,-8.08654E-001,2.77607E-003,9.83792E+000,-2.93224E-001,-1.95295E-002,9.84231E+000,1.62904E-002,4.44873E-001,0,1.48748E+002,-5.81927E+000,9.98151E-001,1.10478E+002,-3.60718E+001,9.97181E-001,1.97836E-001,-8.26165E-002,-1.91301E-003,1.97849E-001,-8.26296E-002,-3.90800E-001,1.98741E-001,1.21833E+000,-3.26705E-002,0.00000E+000,2.10056E-002,9.22638E-001,0.00000E+000,7.77810E-004,-6.87159E-002,1.00000E+000,32
779,1307,-4.66229E+000,-1.80261E+000,2.69755E-001,5.39612E+000,-4.79456E-001,2.53940E-001,5.42332E+000,1.95692E-002,6.00625E-001,0,8.27302E+001,-8.71315E+000,9.97714E-001,3.89942E+001,-4.50182E+001,9.95305E-001,2.00723E-001,-8.59260E-002,5.76617E-004,2.00724E-001,-8.59272E-002,1.15254E-001,2.01415E-001,1.22227E+000,-5.30373E-003,0.00000E+000,5.04027E-003,9.20850E-001,0.00000E+000,8.05792E-006,-8.36013E-002,1.00000E+000,32
1089,1337,2.01548E+001,3.98467E-001,-8.22864E-002,9.94631E+000,-3.87412E-001,-9.84053E-002,9.95434E+000,1.62835E-002,4.93336E-001,0,1.50565E+002,-7.22745E+000,9.97222E-001,1.12890E+002,-3.70404E+001,9.96987E-001,2.00072E-001,-8.30461E-002,-2.27211E-003,2.00090E-001,-8.30643E-002,-4.59777E-001,2.01048E-001,1.22110E+000,-3.14773E-002,0.00000E+000,1.93527E-002,9.22252E-001,0.00000E+000,1.13646E-003,-6.82812E-002,1.00000E+000,32
1089,1347,2.01646E+001,9.97355E-001,-7.18141E-002,9.93191E+000,-4.41029E-001,-1.22471E-001,9.94245E+000,1.14834E-002,4.53356E-001,0,1.50426E+002,-8.03725E+000,9.98646E-001,1.13120E+002,-3.77979E+001,9.97953E-001,2.00776E-001,-8.30685E-002,-2.43430E-003,2.00797E-001,-8.30894E-002,-4.91331E-001,2.01789E-001,1.22196E+000,-3.14458E-002,0.00000E+000,1.90323E-002,9.22240E-001,0.00000E+000,7.65483E-004,-6.82948E-002,1.00000E+000,32
769,1347,-5.41619E+000,5.29725E-001,2.54875E-002,5.24559E+000,-6.98722E-001,4.24385E-002,5.29209E+000,1.58293E-002,5.73788E-001,0,8.11470E+001,-1.17516E+001,9.95660E-001,3.72629E+001,-4.86627E+001,9.95636E-001,2.01051E-001,-8.53484E-002,-1.58304E-003,2.01059E-001,-8.53572E-002,-3.16684E-001,2.01821E-001,1.22268E+000,-5.93457E-003,0.00000E+000,1.77613E-003,9.21315E-001,0.00000E+000,-3.72823E-003,-8.25247E-002,1.00000E+000,32
769,1357,-5.39157E+000,1.13634E+000,4.81456E-002,5.24516E+000,-7.43567E-001,-2.07368E-003,5.29761E+000,1.52401E-002,5.94263E-001,0,8.12664E+001,-1.23762E+001,9.96813E-001,3.78176E+001,-4.93555E+001,9.96827E-001,2.01518E-001,-8.53932E-002,-2.10369E-003,2.01533E-001,-8.54086E-002,-4.20075E-001,2.02312E-001,1.22326E+000,-5.91235E-003,0.00000E+000,8.58733E-004,9.21280E-001,0.00000E+000,-4.66349E-003,-8.25607E-002,1.00000E+000,32
769,1327,-5.44206E+000,-6.52824E-001,9.73292E-002,5.25027E+000,-5.95186E-001,1.47544E-001,5.28596E+000,2.02839E-002,6.01197E-001,0,8.08929E+001,-1.03331E+001,9.97268E-001,3.68063E+001,-4.70301E+001,9.95702E-001,2.00119E-001,-8.52896E-002,-5.43041E-004,2.00120E-001,-8.52906E-002,-1.09015E-001,2.00845E-001,1.22154E+000,-5.96170E-003,0.00000E+000,3.59673E-003,9.21358E-001,0.00000E+000,-1.87218E-003,-8.24808E-002,1.00000E+000,32
769,1337,-5.43364E+000,-7.56560E-002,3.64066E-002,5.24666E+000,-6.59149E-001,8.68714E-002,5.28861E+000,1.42759E-002,5.51190E-001,0,8.10328E+001,-1.11866E+001,9.96524E-001,3.69010E+001,-4.80276E+001,9.96474E-001,2.00585E-001,-8.53139E-002,-1.06357E-003,2.00589E-001,-8.53179E-002,-2.13141E-001,2.01333E-001,1.22211E+000,-5.95101E-003,0.00000E+000,2.68753E-003,9.21341E-001,0.00000E+000,-2.79909E-003,-8.24981E-002,1.00000E+000,32
1089,1327,2.01555E+001,-2.02632E-001,-6.36110E-002,9.96525E+000,-3.37813E-001,-6.97058E-002,9.97122E+000,1.78009E-002,4.27389E-001,0,1.50747E+002,-6.46768E+000,9.97266E-001,1.12870E+002,-3.64360E+001,9.96245E-001,1.99367E-001,-8.30269E-002,-2.10686E-003,1.99382E-001,-8.30426E-002,-4.27435E-001,2.00307E-001,1.22023E+000,-3.15013E-002,0.00000E+000,1.96730E-002,9.22261E-001,0.00000E+000,1.50737E-003,-6.82709E-002,1.00000E+000,32
1089,1317,2.01600E+001,-8.00612E-001,-1.29300E-002,9.98280E+000,-2.90070E-001,-3.10183E-002,9.98706E+000,1.63944E-002,4.62374E-001,0,1.50861E+002,-5.78187E+000,9.98273E-001,1.12963E+002,-3.58040E+001,9.97637E-001,1.98665E-001,-8.30107E-002,-1.93971E-003,1.98678E-001,-8.30241E-002,-3.94532E-001,1.99569E-001,1.21938E+000,-3.15182E-002,0.00000E+000,1.99916E-002,9.22267E-001,0.00000E+000,1.87630E-003,-6.82636E-002,1.00000E+000,32
1089,1297,2.01767E+001,-1.96533E+000,1.59974E-001,1.00176E+001,-1.68456E-001,8.59577E-002,1.00194E+001,1.44688E-002,4.84223E-001,0,1.50909E+002,-4.06181E+000,9.98451E-001,1.13382E+002,-3.42333E+001,9.97888E-001,1.97261E-001,-8.29824E-002,-1.60212E-003,1.97270E-001,-8.29916E-002,-3.27539E-001,1.98096E-001,1.21767E+000,-3.15422E-002,0.00000E+000,2.06274E-002,9.22276E-001,0.00000E+000,2.61251E-003,-6.82533E-002,1.00000E+000,32
1089,1307,2.01662E+001,-1.38757E+000,5.81563E-002,1.00006E+001,-2.31951E-001,2.27261E-002,1.00033E+001,1.41457E-002,4.66073E-001,0,1.50915E+002,-4.95606E+000,9.98721E-001,1.13113E+002,-3.50612E+001,9.98432E-001,1.97962E-001,-8.29951E-002,-1.77196E-003,1.97973E-001,-8.30063E-002,-3.61338E-001,1.98831E-001,1.21852E+000,-3.15336E-002,0.00000E+000,2.03101E-002,9.22273E-001,0.00000E+000,2.24508E-003,-6.82570E-002,1.00000E+000,32
769,1317,-5.45121E+000,-1.22343E+000,1.68615E-001,5.24914E+000,-5.29970E-001,1.98027E-001,5.27954E+000,2.40605E-002,5.93930E-001,0,8.07077E+001,-9.37147E+000,9.98201E-001,3.67275E+001,-4.59825E+001,9.97624E-001,1.99654E-001,-8.52714E-002,-2.42804E-005,1.99654E-001,-8.52714E-002,-4.88256E-003,2.00360E-001,1.22097E+000,-5.96884E-003,0.00000E+000,4.50038E-003,9.21370E-001,0.00000E+000,-9.50943E-004,-8.24692E-002,1.00000E+000,32
1099,1327,2.09512E+001,-1.84539E-001,-6.55467E-002,1.01038E+001,-3.25020E-001,-6.15591E-002,1.01092E+001,1.98066E-002,4.65616E-001,0,1.52683E+002,-6.31937E+000,9.94627E-001,1.15270E+002,-3.60313E+001,9.92160E-001,2.00434E-001,-8.33500E-002,-2.24646E-003,2.00452E-001,-8.33678E-002,-4.53521E-001,2.01395E-001,1.22156E+000,-3.05978E-002,0.00000E+000,1.86707E-002,9.21985E-001,0.00000E+000,2.00271E-003,-6.82877E-002,1.00000E+000,32
1099,1337,2.09598E+001,4.20783E-001,-7.92366E-002,1.00922E+001,-3.70835E-001,-9.22113E-002,1.00994E+001,1.91698E-002,4.84123E-001,0,1.52616E+002,-7.00729E+000,9.95550E-001,1.15440E+002,-3.66021E+001,9.94948E-001,2.01291E-001,-8.33702E-002,-2.41058E-003,2.01311E-001,-8.33906E-002,-4.85149E-001,2.02296E-001,1.22261E+000,-3.05658E-002,0.00000E+000,1.83475E-002,9.21975E-001,0.00000E+000,1.56828E-003,-6.83010E-002,1.00000E+000,32
1099,1347,2.09714E+001,1.02534E+000,-6.58182E-002,1.00774E+001,-4.20613E-001,-1.21699E-001,1.00870E+001,1.52197E-002,4.81406E-001,0,1.52489E+002,-7.75971E+000,9.97132E-001,1.15701E+002,-3.72579E+001,9.96508E-001,2.02148E-001,-8.33940E-002,-2.57110E-003,2.02171E-001,-8.34171E-002,-5.15852E-001,2.03198E-001,1.22366E+000,-3.05239E-002,0.00000E+000,1.80235E-002,9.21962E-001,0.00000E+000,1.13286E-003,-6.83184E-002,1.00000E+000,32
759,1347,-6.19886E+000,5.26654E-001,2.48308E-002,5.10895E+000,-6.95758E-001,4.55094E-002,5.15631E+000,1.40583E-002,5.68005E-001,0,7.90810E+001,-1.16839E+001,9.95734E-001,3.52296E+001,-4.88220E+001,9.95701E-001,1.99077E-001,-8.47898E-002,-1.52127E-003,1.99086E-001,-8.47979E-002,-3.07041E-001,1.99812E-001,1.22027E+000,-6.40266E-003,0.00000E+000,2.21417E-003,9.21762E-001,0.00000E+000,-3.24643E-003,-8.16311E-002,1.00000E+000,32
759,1357,-6.17959E+000,1.12696E+000,4.44591E-002,5.10369E+000,-7.46335E-001,-4.81759E-004,5.15797E+000,1.54172E-002,5.99988E-001,0,7.91320E+001,-1.24009E+001,9.96280E-001,3.56956E+001,-4.96022E+001,9.95796E-001,1.99306E-001,-8.48224E-002,-1.90629E-003,1.99319E-001,-8.48352E-002,-3.84388E-001,2.00053E-001,1.22055E+000,-6.39196E-003,0.00000E+000,1.55167E-003,9.21737E-001,0.00000E+000,-4.09762E-003,-8.16631E-002,1.00000E+000,32
1099,1297,2.09740E+001,-1.95454E+000,1.35918E-001,1.01574E+001,-1.62769E-001,6.99034E-002,1.01590E+001,1.39071E-002,5.00574E-001,0,1.52958E+002,-3.95587E+000,9.97542E-001,1.15769E+002,-3.39106E+001,9.95999E-001,1.97876E-001,-8.33058E-002,-1.73887E-003,1.97887E-001,-8.33165E-002,-3.54308E-001,1.98708E-001,1.21844E+000,-3.06472E-002,0.00000E+000,1.96339E-002,9.22000E-001,0.00000E+000,3.29721E-003,-6.82672E-002,1.00000E+000,32
1099,1307,2.09692E+001,-1.36712E+000,5.11998E-002,1.01461E+001,-2.17221E-001,2.38813E-002,1.01484E+001,1.59716E-002,4.88918E-001,0,1.52979E+002,-4.74585E+000,9.98206E-001,1.15618E+002,-3.46190E+001,9.97257E-001,1.98728E-001,-8.33184E-002,-1.91014E-003,1.98741E-001,-8.33314E-002,-3.88007E-001,1.99602E-001,1.21948E+000,-3.06366E-002,0.00000E+000,1.93134E-002,9.21997E-001,0.00000E+000,2.86651E-003,-6.82716E-002,1.00000E+000,32
1099,1317,2.09588E+001,-7.78758E-001,-2.32006E-002,1.01252E+001,-2.72948E-001,-2.79313E-002,1.01289E+001,2.05228E-002,4.94383E-001,0,1.52874E+002,-5.55100E+000,9.96663E-001,1.15397E+002,-3.53272E+001,9.95237E-001,1.99581E-001,-8.33333E-002,-2.07920E-003,1.99596E-001,-8.33486E-002,-4.21049E-001,2.00498E-001,1.22052E+000,-3.06198E-002,0.00000E+000,1.89924E-002,9.21992E-001,0.00000E+000,2.43504E-003,-6.82786E-002,1.00000E+000,32
759,1327,-6.23575E+000,-6.66275E-001,9.35062E-002,5.10154E+000,-6.02700E-001,1.43197E-001,5.13901E+000,1.67319E-002,5.76897E-001,0,7.86680E+001,-1.04169E+001,9.97168E-001,3.45924E+001,-4.73495E+001,9.97541E-001,1.98620E-001,-8.47473E-002,-7.53214E-004,1.98622E-001,-8.47493E-002,-1.52295E-001,1.99332E-001,1.21970E+000,-6.41553E-003,0.00000E+000,3.53008E-003,9.21792E-001,0.00000E+000,-1.55573E-003,-8.15925E-002,1.00000E+000,32
759,1337,-6.21766E+000,-6.94152E-002,4.39304E-002,5.10741E+000,-6.47234E-001,9.23747E-002,5.14909E+000,1.39043E-002,5.81326E-001,0,7.89160E+001,-1.10139E+001,9.96053E-001,3.48676E+001,-4.80415E+001,9.96262E-001,1.98849E-001,-8.47656E-002,-1.13725E-003,1.98854E-001,-8.47702E-002,-2.29743E-001,1.99572E-001,1.21998E+000,-6.41019E-003,0.00000E+000,2.87285E-003,9.21779E-001,0.00000E+000,-2.40016E-003,-8.16085E-002,1.00000E+000,32
759,1317,-6.23896E+000,-1.24258E+000,1.75150E-001,5.10536E+000,-5.43569E-001,1.99233E-001,5.13808E+000,2.20936E-002,6.16499E-001,0,7.85440E+001,-9.59509E+000,9.97477E-001,3.46296E+001,-4.63860E+001,9.97299E-001,1.98392E-001,-8.47351E-002,-3.70756E-004,1.98392E-001,-8.47355E-002,-7.50290E-002,1.99093E-001,1.21942E+000,-6.41861E-003,0.00000E+000,4.18307E-003,9.21799E-001,0.00000E+000,-7.16767E-004,-8.15833E-002,1.00000E+000,32
749,1317,-7.01583E+000,-1.24566E+000,1.92961E-001,4.97083E+000,-5.43381E-001,2.05457E-001,5.00466E+000,1.63126E-002,6.30084E-001,0,7.64993E+001,-9.59005E+000,9.97698E-001,3.27359E+001,-4.65687E+001,9.96480E-001,1.97103E-001,-8.42734E-002,-6.03769E-004,1.97104E-001,-8.42747E-002,-1.22943E-001,1.97793E-001,1.21785E+000,-6.32438E-003,0.00000E+000,3.69238E-003,9.22175E-001,0.00000E+000,-7.99778E-004,-8.08837E-002,1.00000E+000,32
749,1327,-7.01248E+000,-6.66419E-001,9.17960E-002,4.96875E+000,-5.98817E-001,1.38015E-001,5.00661E+000,1.33256E-002,5.90947E-001,0,7.66842E+001,-1.03200E+001,9.96720E-001,3.26521E+001,-4.74473E+001,9.96664E-001,1.97122E-001,-8.42807E-002,-8.79452E-004,1.97125E-001,-8.42834E-002,-1.79061E-001,1.97813E-001,1.21788E+000,-6.32418E-003,0.00000E+000,3.22244E-003,9.22171E-001,0.00000E+000,-1.39134E-003,-8.08887E-002,1.00000E+000,32
749,1337,-7.00318E+000,-7.21976E-002,4.50221E-002,4.96618E+000,-6.44953E-001,9.10440E-002,5.00871E+000,1.33781E-002,6.04324E-001,0,7.67895E+001,-1.09637E+001,9.96524E-001,3.27992E+001,-4.81846E+001,9.96815E-001,1.97140E-001,-8.42935E-002,-1.15651E-003,1.97145E-001,-8.42982E-002,-2.35443E-001,1.97833E-001,1.21790E+000,-6.32373E-003,0.00000E+000,2.75000E-003,9.22162E-001,0.00000E+000,-1.98605E-003,-8.08997E-002,1.00000E+000,32
749,1347,-6.98832E+000,5.21055E-001,2.45518E-002,4.96464E+000,-6.95088E-001,4.64919E-002,5.01328E+000,1.48114E-002,5.73735E-001,0,7.69003E+001,-1.16614E+001,9.96806E-001,3.30978E+001,-4.90166E+001,9.96893E-001,1.97158E-001,-8.43100E-002,-1.43412E-003,1.97166E-001,-8.43173E-002,-2.91920E-001,1.97852E-001,1.21793E+000,-6.32313E-003,0.00000E+000,2.27651E-003,9.22150E-001,0.00000E+000,-2.58207E-003,-8.09148E-002,1.00000E+000,32
1109,1297,2.17768E+001,-1.93782E+000,1.29724E-001,1.03040E+001,-1.48973E-001,7.85857E-002,1.03054E+001,1.47209E-002,5.19514E-001,0,1.55007E+002,-3.79902E+000,9.96478E-001,1.18276E+002,-3.35319E+001,9.94004E-001,1.98667E-001,-8.38981E-002,-1.80005E-003,1.98679E-001,-8.39096E-002,-3.64976E-001,1.99476E-001,1.21945E+000,-2.91190E-002,0.00000E+000,1.83033E-002,9.21482E-001,0.00000E+000,3.88658E-003,-6.82796E-002,1.00000E+000,32
1109,1307,2.17684E+001,-1.34987E+000,3.86915E-002,1.02891E+001,-2.02825E-001,2.64516E-002,1.02911E+001,1.65311E-002,4.52639E-001,0,1.54999E+002,-4.54380E+000,9.97130E-001,1.18061E+002,-3.42450E+001,9.96359E-001,1.99593E-001,-8.39074E-002,-1.92733E-003,1.99606E-001,-8.39205E-002,-3.89492E-001,2.00447E-001,1.22058E+000,-2.91075E-002,0.00000E+000,1.80742E-002,9.21480E-001,0.00000E+000,3.28670E-003,-6.82858E-002,1.00000E+000,32
1109,1317,2.17583E+001,-7.60359E-001,-3.45558E-002,1.02686E+001,-2.57729E-001,-2.34753E-002,1.02719E+001,1.92420E-002,4.58159E-001,0,1.54894E+002,-5.33770E+000,9.95553E-001,1.17846E+002,-3.49358E+001,9.94714E-001,2.00520E-001,-8.39184E-002,-2.05232E-003,2.00535E-001,-8.39332E-002,-4.13381E-001,2.01420E-001,1.22171E+000,-2.90894E-002,0.00000E+000,1.78445E-002,9.21476E-001,0.00000E+000,2.68530E-003,-6.82954E-002,1.00000E+000,32
749,1357,-6.96406E+000,1.12009E+000,4.75557E-002,4.96488E+000,-7.46142E-001,5.38130E-003,5.02064E+000,1.80782E-002,5.96865E-001,0,7.70210E+001,-1.23984E+001,9.96821E-001,3.36509E+001,-4.98293E+001,9.96392E-001,1.97176E-001,-8.43330E-002,-1.71337E-003,1.97186E-001,-8.43435E-002,-3.48707E-001,1.97872E-001,1.21795E+000,-6.32223E-003,0.00000E+000,1.80007E-003,9.22133E-001,0.00000E+000,-3.18181E-003,-8.09369E-002,1.00000E+000,32
1109,1327,2.17534E+001,-1.67543E-001,-7.33858E-002,1.02485E+001,-3.12307E-001,-5.87403E-002,1.02534E+001,1.73086E-002,4.57686E-001,0,1.54729E+002,-6.15363E+000,9.94257E-001,1.17765E+002,-3.56530E+001,9.93157E-001,2.01448E-001,-8.39315E-002,-2.17434E-003,2.01464E-001,-8.39480E-002,-4.36511E-001,2.02394E-001,1.22284E+000,-2.90631E-002,0.00000E+000,1.76142E-002,9.21471E-001,0.00000E+000,2.08226E-003,-6.83094E-002,1.00000E+000,32
1109,1337,2.17562E+001,4.38321E-001,-9.11857E-002,1.02307E+001,-3.58199E-001,-9.47604E-002,1.02374E+001,1.80029E-002,5.03916E-001,0,1.54590E+002,-6.84120E+000,9.96734E-001,1.17837E+002,-3.61915E+001,9.96479E-001,2.02378E-001,-8.39468E-002,-2.29330E-003,2.02397E-001,-8.39652E-002,-4.58867E-001,2.03373E-001,1.22398E+000,-2.90276E-002,0.00000E+000,1.73829E-002,9.21463E-001,0.00000E+000,1.47644E-003,-6.83283E-002,1.00000E+000,32
1109,1347,2.17746E+001,1.04191E+000,-6.19093E-002,1.02191E+001,-4.11488E-001,-1.22301E-001,1.02281E+001,1.72151E-002,4.99567E-001,0,1.54500E+002,-7.64786E+000,9.97156E-001,1.18226E+002,-3.68960E+001,9.96143E-001,2.03311E-001,-8.39663E-002,-2.40634E-003,2.03332E-001,-8.39865E-002,-4.79884E-001,2.04354E-001,1.22512E+000,-2.89760E-002,0.00000E+000,1.71506E-002,9.21453E-001,0.00000E+000,8.68085E-004,-6.83558E-002,1.00000E+000,32
739,1337,-7.78507E+000,-8.60831E-002,4.49825E-002,4.82832E+000,-6.53078E-001,8.93325E-002,4.87311E+000,1.56336E-002,6.04839E-001,0,7.47164E+001,-1.10735E+001,9.96252E-001,3.07868E+001,-4.85072E+001,9.96123E-001,1.95353E-001,-8.35327E-002,-1.29443E-003,1.95359E-001,-8.35387E-002,-2.65928E-001,1.96040E-001,1.21573E+000,-6.32700E-003,0.00000E+000,2.48893E-003,9.22857E-001,0.00000E+000,-1.75038E-003,-8.07966E-002,1.00000E+000,32
739,1347,-7.77679E+000,5.11205E-001,2.58988E-002,4.82065E+000,-6.98855E-001,4.77496E-002,4.87128E+000,1.15286E-002,5.89619E-001,0,7.47216E+001,-1.17144E+001,9.98157E-001,3.09898E+001,-4.92751E+001,9.98281E-001,1.95131E-001,-8.35491E-002,-1.58093E-003,1.95140E-001,-8.35581E-002,-3.25021E-001,1.95810E-001,1.21546E+000,-6.33359E-003,0.00000E+000,2.00534E-003,9.22845E-001,0.00000E+000,-2.34795E-003,-8.08113E-002,1.00000E+000,32
739,1357,-7.75202E+000,1.11354E+000,4.66876E-002,4.82198E+000,-7.45964E-001,6.38326E-003,4.87934E+000,1.30794E-002,5.83322E-001,0,7.48585E+001,-1.23763E+001,9.97355E-001,3.15481E+001,-5.00488E+001,9.97646E-001,1.94908E-001,-8.35720E-002,-1.87034E-003,1.94920E-001,-8.35846E-002,-3.84789E-001,1.95578E-001,1.21519E+000,-6.34326E-003,0.00000E+000,1.51899E-003,9.22828E-001,0.00000E+000,-2.94894E-003,-8.08330E-002,1.00000E+000,32
739,1327,-7.79664E+000,-6.73897E-001,9.42324E-002,4.82849E+000,-6.00510E-001,1.38596E-001,4.86767E+000,1.43840E-002,5.69876E-001,0,7.45661E+001,-1.03280E+001,9.98221E-001,3.06123E+001,-4.76857E+001,9.97928E-001,1.95573E-001,-8.35199E-002,-1.00917E-003,1.95577E-001,-8.35236E-002,-2.07171E-001,1.96269E-001,1.21599E+000,-6.32215E-003,0.00000E+000,2.97166E-003,9.22866E-001,0.00000E+000,-1.15387E-003,-8.07858E-002,1.00000E+000,32
1119,1297,2.25748E+001,-1.92270E+000,1.17232E-001,1.04455E+001,-1.36982E-001,8.12509E-002,1.04467E+001,1.58493E-002,4.70590E-001,0,1.57000E+002,-3.61973E+000,9.97936E-001,1.20705E+002,-3.31994E+001,9.97070E-001,1.99747E-001,-8.38448E-002,-2.02547E-003,1.99762E-001,-8.38592E-002,-4.09189E-001,2.00617E-001,1.22080E+000,-2.78303E-002,0.00000E+000,1.69015E-002,9.21591E-001,0.00000E+000,3.69407E-003,-6.87751E-002,1.00000E+000,32
1119,1307,2.25671E+001,-1.33581E+000,3.44633E-002,1.04297E+001,-1.93000E-001,3.17355E-002,1.04316E+001,1.43751E-002,4.36446E-001,0,1.56969E+002,-4.41849E+000,9.97814E-001,1.20512E+002,-3.39283E+001,9.97717E-001,2.00593E-001,-8.38501E-002,-2.09017E-003,2.00608E-001,-8.38655E-002,-4.20997E-001,2.01504E-001,1.22183E+000,-2.78175E-002,0.00000E+000,1.67959E-002,9.21589E-001,0.00000E+000,3.01687E-003,-6.87835E-002,1.00000E+000,32
1119,1317,2.25653E+001,-7.43355E-001,-3.13853E-002,1.04167E+001,-2.45215E-001,-1.39297E-002,1.04196E+001,1.55868E-002,4.31553E-001,0,1.56958E+002,-5.18338E+000,9.96694E-001,1.20438E+002,-3.45920E+001,9.96863E-001,2.01438E-001,-8.38562E-002,-2.15299E-003,2.01454E-001,-8.38724E-002,-4.32354E-001,2.02392E-001,1.22286E+000,-2.77997E-002,0.00000E+000,1.66901E-002,9.21588E-001,0.00000E+000,2.33867E-003,-6.87952E-002,1.00000E+000,32
1119,1327,2.25617E+001,-1.49096E-001,-7.39772E-002,1.03970E+001,-2.98790E-001,-5.60243E-002,1.04014E+001,1.43011E-002,4.31355E-001,0,1.56826E+002,-5.97360E+000,9.96488E-001,1.20371E+002,-3.52768E+001,9.96715E-001,2.02285E-001,-8.38634E-002,-2.21301E-003,2.02302E-001,-8.38805E-002,-4.43078E-001,2.03282E-001,1.22389E+000,-2.77744E-002,0.00000E+000,1.65840E-002,9.21585E-001,0.00000E+000,1.65839E-003,-6.88119E-002,1.00000E+000,32
1119,1337,2.25637E+001,4.49362E-001,-9.10849E-002,1.03776E+001,-3.53018E-001,-9.39220E-002,1.03841E+001,1.29741E-002,4.84613E-001,0,1.56675E+002,-6.78395E+000,9.98008E-001,1.20431E+002,-3.59267E+001,9.97680E-001,2.03134E-001,-8.38719E-002,-2.27013E-003,2.03152E-001,-8.38899E-002,-4.53154E-001,2.04176E-001,1.22493E+000,-2.77408E-002,0.00000E+000,1.64774E-002,9.21582E-001,0.00000E+000,9.74392E-004,-6.88340E-002,1.00000E+000,32
1119,1347,2.25774E+001,1.05178E+000,-6.80322E-002,1.03619E+001,-4.06804E-001,-1.24776E-001,1.03706E+001,1.88558E-002,4.51929E-001,0,1.56537E+002,-7.58423E+000,9.97935E-001,1.20734E+002,-3.66485E+001,9.97035E-001,2.03985E-001,-8.38824E-002,-2.32238E-003,2.04004E-001,-8.39011E-002,-4.62196E-001,2.05071E-001,1.22597E+000,-2.76946E-002,0.00000E+000,1.63705E-002,9.21577E-001,0.00000E+000,2.88812E-004,-6.88644E-002,1.00000E+000,32
739,1317,-7.79480E+000,-1.24990E+000,1.85988E-001,4.83540E+000,-5.42589E-001,1.95125E-001,4.86966E+000,1.78603E-002,6.09879E-001,0,7.44897E+001,-9.53205E+000,9.97763E-001,3.07534E+001,-4.67342E+001,9.97254E-001,1.95792E-001,-8.35129E-002,-7.26818E-004,1.95794E-001,-8.35148E-002,-1.49096E-001,1.96497E-001,1.21626E+000,-6.32004E-003,0.00000E+000,3.45134E-003,9.22870E-001,0.00000E+000,-5.61129E-004,-8.07810E-002,1.00000E+000,32
1129,1297,2.33704E+001,-1.89846E+000,1.16168E-001,1.05829E+001,-1.16425E-001,9.05372E-002,1.05840E+001,1.53585E-002,4.32671E-001,0,1.58896E+002,-3.33018E+000,9.98753E-001,1.23118E+002,-3.27446E+001,9.97963E-001,2.00578E-001,-8.39857E-002,-2.33195E-003,2.00598E-001,-8.40048E-002,-4.69487E-001,2.01478E-001,1.22184E+000,-2.66537E-002,0.00000E+000,1.54610E-002,9.21519E-001,0.00000E+000,3.12394E-003,-6.92524E-002,1.00000E+000,32
1129,1307,2.33645E+001,-1.32251E+000,2.71495E-002,1.05687E+001,-1.83533E-001,3.40626E-002,1.05704E+001,2.17145E-002,3.92786E-001,0,1.58923E+002,-4.28514E+000,9.98414E-001,1.22944E+002,-3.36310E+001,9.95708E-001,2.01471E-001,-8.39861E-002,-2.32347E-003,2.01490E-001,-8.40050E-002,-4.66315E-001,2.02415E-001,1.22293E+000,-2.66398E-002,0.00000E+000,1.54968E-002,9.21519E-001,0.00000E+000,2.35724E-003,-6.92622E-002,1.00000E+000,32
1129,1317,2.33678E+001,-7.32646E-001,-3.43849E-002,1.05603E+001,-2.38751E-001,-8.86384E-003,1.05630E+001,1.29588E-002,3.87828E-001,0,1.58971E+002,-5.10367E+000,9.98416E-001,1.22955E+002,-3.43419E+001,9.96431E-001,2.02365E-001,-8.39865E-002,-2.31274E-003,2.02383E-001,-8.40052E-002,-4.62714E-001,2.03354E-001,1.22402E+000,-2.66202E-002,0.00000E+000,1.55326E-002,9.21520E-001,0.00000E+000,1.58911E-003,-6.92760E-002,1.00000E+000,32
729,1347,-8.54634E+000,4.94466E-001,3.55486E-002,4.69401E+000,-7.10931E-001,5.11826E-002,4.74781E+000,1.05615E-002,6.03150E-001,0,7.28027E+001,-1.18952E+001,9.98883E-001,2.91975E+001,-4.96565E+001,9.98742E-001,1.93041E-001,-8.28791E-002,-1.39582E-003,1.93048E-001,-8.28862E-002,-2.89836E-001,1.93689E-001,1.21292E+000,-5.64722E-003,0.00000E+000,1.84647E-003,9.23385E-001,0.00000E+000,-2.41660E-003,-7.97381E-002,1.00000E+000,32
729,1357,-8.53078E+000,1.10511E+000,5.11327E-002,4.68747E+000,-7.48791E-001,1.07146E-002,4.74692E+000,1.27537E-002,5.89454E-001,0,7.28132E+001,-1.24071E+001,9.97820E-001,2.96051E+001,-5.02978E+001,9.98101E-001,1.92504E-001,-8.28957E-002,-1.62524E-003,1.92514E-001,-8.29053E-002,-3.38108E-001,1.93130E-001,1.21228E+000,-5.66917E-003,0.00000E+000,1.50251E-003,9.23373E-001,0.00000E+000,-3.30031E-003,-7.97680E-002,1.00000E+000,32
1129,1327,2.33697E+001,-1.34101E-001,-7.29703E-002,1.05465E+001,-2.87396E-001,-4.47407E-002,1.05505E+001,1.56347E-002,4.02879E-001,0,1.58902E+002,-5.84941E+000,9.98072E-001,1.22979E+002,-3.49589E+001,9.97568E-001,2.03258E-001,-8.39870E-002,-2.29946E-003,2.03276E-001,-8.40054E-002,-4.58627E-001,2.04293E-001,1.22511E+000,-2.65942E-002,0.00000E+000,1.55685E-002,9.21521E-001,0.00000E+000,8.19610E-004,-6.92944E-002,1.00000E+000,32
729,1337,-8.56624E+000,-9.27436E-002,5.49112E-002,4.69110E+000,-6.53787E-001,9.92951E-002,4.73748E+000,1.39815E-002,5.96277E-001,0,7.26127E+001,-1.10887E+001,9.97395E-001,2.88180E+001,-4.87446E+001,9.96920E-001,1.93575E-001,-8.28660E-002,-1.16929E-003,1.93580E-001,-8.28709E-002,-2.42344E-001,1.94246E-001,1.21357E+000,-5.63033E-003,0.00000E+000,2.18922E-003,9.23394E-001,0.00000E+000,-1.53602E-003,-7.97150E-002,1.00000E+000,32
729,1327,-8.57610E+000,-6.78843E-001,1.02749E-001,4.69198E+000,-6.01455E-001,1.42547E-001,4.73252E+000,1.42866E-002,5.76888E-001,0,7.24918E+001,-1.03250E+001,9.97403E-001,2.86659E+001,-4.78836E+001,9.96952E-001,1.94104E-001,-8.28570E-002,-9.46578E-004,1.94108E-001,-8.28603E-002,-1.95818E-001,1.94798E-001,1.21421E+000,-5.61963E-003,0.00000E+000,2.53001E-003,9.23399E-001,0.00000E+000,-6.60445E-004,-7.97004E-002,1.00000E+000,32
1129,1337,2.33822E+001,4.64471E-001,-8.17192E-002,1.05316E+001,-3.46453E-001,-9.78137E-002,1.05377E+001,1.77587E-002,4.84355E-001,0,1.58873E+002,-6.69609E+000,9.97617E-001,1.23213E+002,-3.56086E+001,9.97376E-001,2.04160E-001,-8.39878E-002,-2.27846E-003,2.04178E-001,-8.40058E-002,-4.53015E-001,2.05243E-001,1.22621E+000,-2.65488E-002,0.00000E+000,1.56049E-002,9.21522E-001,0.00000E+000,4.10307E-005,-6.93263E-002,1.00000E+000,32
729,1317,-8.57836E+000,-1.25875E+000,1.80312E-001,4.69616E+000,-5.45909E-001,1.92473E-001,4.73170E+000,1.57984E-002,6.08114E-001,0,7.23967E+001,-9.55749E+000,9.97402E-001,2.87077E+001,-4.69650E+001,9.96764E-001,1.94632E-001,-8.28509E-002,-7.26106E-004,1.94634E-001,-8.28528E-002,-1.49928E-001,1.95349E-001,1.21485E+000,-5.61318E-003,0.00000E+000,2.87006E-003,9.23403E-001,0.00000E+000,2.13207E-004,-7.96916E-002,1.00000E+000,32
1129,1347,2.33872E+001,1.07341E+000,-6.64971E-002,1.05098E+001,-3.92419E-001,-1.24896E-001,1.05179E+001,2.10168E-002,4.91268E-001,0,1.58631E+002,-7.40171E+000,9.97021E-001,1.23367E+002,-3.61918E+001,9.96106E-001,2.05057E-001,-8.39885E-002,-2.25794E-003,2.05075E-001,-8.40061E-002,-4.47541E-001,2.06188E-001,1.22731E+000,-2.65044E-002,0.00000E+000,1.56410E-002,9.21524E-001,0.00000E+000,-7.34457E-004,-6.93576E-002,1.00000E+000,32
719,1347,-9.33140E+000,4.96044E-001,3.81177E-002,4.55290E+000,-7.03215E-001,5.52469E-002,4.60722E+000,1.59622E-002,6.23320E-001,0,7.06508E+001,-1.17760E+001,9.97647E-001,2.71585E+001,-4.97397E+001,9.97929E-001,1.91420E-001,-8.25006E-002,-1.26261E-003,1.91426E-001,-8.25064E-002,-2.64092E-001,1.92032E-001,1.21096E+000,-4.71993E-003,0.00000E+000,1.38397E-003,9.23630E-001,0.00000E+000,-2.23110E-003,-7.82910E-002,1.00000E+000,32
719,1357,-9.31923E+000,1.09471E+000,5.20030E-002,4.54333E+000,-7.53335E-001,1.39170E-002,4.60538E+000,1.43042E-002,6.12826E-001,0,7.06200E+001,-1.24680E+001,9.97700E-001,2.75093E+001,-5.05623E+001,9.97967E-001,1.90590E-001,-8.25104E-002,-1.41279E-003,1.90597E-001,-8.25177E-002,-2.96388E-001,1.91168E-001,1.20996E+000,-4.75330E-003,0.00000E+000,1.21525E-003,9.23624E-001,0.00000E+000,-3.38216E-003,-7.83294E-002,1.00000E+000,32
719,1337,-9.34831E+000,-9.47946E-002,5.49774E-002,4.55203E+000,-6.50910E-001,9.65991E-002,4.59935E+000,1.77357E-002,6.19069E-001,0,7.05142E+001,-1.10259E+001,9.95853E-001,2.68165E+001,-4.88745E+001,9.95494E-001,1.92243E-001,-8.24930E-002,-1.11684E-003,1.92248E-001,-8.24976E-002,-2.32911E-001,1.92891E-001,1.21196E+000,-4.69531E-003,0.00000E+000,1.55176E-003,9.23634E-001,0.00000E+000,-1.08639E-003,-7.82627E-002,1.00000E+000,32
719,1327,-9.35442E+000,-6.79983E-001,1.08309E-001,4.55624E+000,-5.98209E-001,1.43689E-001,4.59759E+000,1.30082E-002,6.03530E-001,0,7.04338E+001,-1.02664E+001,9.95669E-001,2.67358E+001,-4.80069E+001,9.95558E-001,1.93061E-001,-8.24879E-002,-9.75365E-004,1.93064E-001,-8.24914E-002,-2.02807E-001,1.93744E-001,1.21295E+000,-4.67943E-003,0.00000E+000,1.71873E-003,9.23636E-001,0.00000E+000,5.26516E-005,-7.82445E-002,1.00000E+000,32
719,1317,-9.35839E+000,-1.26171E+000,1.92359E-001,4.55758E+000,-5.45028E-001,1.94330E-001,4.59417E+000,1.71572E-002,5.92229E-001,0,7.02937E+001,-9.52340E+000,9.95573E-001,2.67684E+001,-4.71496E+001,9.94926E-001,1.93875E-001,-8.24848E-002,-8.37283E-004,1.93877E-001,-8.24874E-002,-1.73586E-001,1.94594E-001,1.21394E+000,-4.67122E-003,0.00000E+000,1.88539E-003,9.23638E-001,0.00000E+000,1.18966E-003,-7.82350E-002,1.00000E+000,32
1139,1297,2.41892E+001,-1.89007E+000,1.14319E-001,1.07417E+001,-1.11387E-001,9.31982E-002,1.07426E+001,1.02446E-002,3.83392E-001,0,1.61138E+002,-3.27993E+000,9.99269E-001,1.25895E+002,-3.25372E+001,9.98578E-001,2.01269E-001,-8.42372E-002,-2.56961E-003,2.01292E-001,-8.42603E-002,-5.15619E-001,2.02179E-001,1.22270E+000,-2.54424E-002,0.00000E+000,1.41596E-002,9.21349E-001,0.00000E+000,2.02511E-003,-6.98549E-002,1.00000E+000,32
1139,1307,2.41797E+001,-1.31546E+000,1.19833E-002,1.07250E+001,-1.79886E-001,2.81464E-002,1.07265E+001,1.47983E-002,3.43097E-001,0,1.61166E+002,-4.23052E+000,9.98714E-001,1.25646E+002,-3.34148E+001,9.97612E-001,2.02291E-001,-8.42350E-002,-2.51734E-003,2.02313E-001,-8.42571E-002,-5.03333E-001,2.03252E-001,1.22395E+000,-2.54285E-002,0.00000E+000,1.42730E-002,9.21351E-001,0.00000E+000,1.30045E-003,-6.98630E-002,1.00000E+000,32
1139,1337,2.41887E+001,4.89163E-001,-7.87140E-002,1.06769E+001,-3.27690E-001,-9.27999E-002,1.06823E+001,1.78419E-002,5.20022E-001,0,1.60902E+002,-6.46374E+000,9.96765E-001,1.25804E+002,-3.51116E+001,9.95926E-001,2.05371E-001,-8.42241E-002,-2.33303E-003,2.05390E-001,-8.42429E-002,-4.61544E-001,2.06492E-001,1.22773E+000,-2.53199E-002,0.00000E+000,1.46159E-002,9.21360E-001,0.00000E+000,-8.90162E-004,-6.99260E-002,1.00000E+000,32
1139,1347,2.42083E+001,1.09021E+000,-5.33426E-002,1.06654E+001,-3.84714E-001,-1.26212E-001,1.06731E+001,1.84023E-002,5.23279E-001,0,1.60839E+002,-7.31770E+000,9.96389E-001,1.26197E+002,-3.58385E+001,9.95232E-001,2.06401E-001,-8.42191E-002,-2.26231E-003,2.06419E-001,-8.42367E-002,-4.45978E-001,2.07578E-001,1.22899E+000,-2.52608E-002,0.00000E+000,1.47310E-002,9.21366E-001,0.00000E+000,-1.62532E-003,-6.99603E-002,1.00000E+000,32
1139,1327,2.41829E+001,-1.19838E-001,-7.98202E-002,1.06984E+001,-2.80597E-001,-5.04258E-002,1.07022E+001,1.73057E-002,4.57315E-001,0,1.61077E+002,-5.76139E+000,9.97405E-001,1.25661E+002,-3.45934E+001,9.95939E-001,2.04341E-001,-8.42287E-002,-2.40091E-003,2.04361E-001,-8.42486E-002,-4.76660E-001,2.05407E-001,1.22646E+000,-2.53718E-002,0.00000E+000,1.45010E-002,9.21356E-001,0.00000E+000,-1.56213E-004,-6.98959E-002,1.00000E+000,32
1139,1317,2.41698E+001,-7.24068E-001,-5.65416E-002,1.07043E+001,-2.33896E-001,-1.73170E-002,1.07069E+001,1.54756E-002,3.98696E-001,0,1.61044E+002,-5.04259E+000,9.98863E-001,1.25440E+002,-3.40562E+001,9.97200E-001,2.03314E-001,-8.42323E-002,-2.46233E-003,2.03335E-001,-8.42534E-002,-4.90589E-001,2.04327E-001,1.22520E+000,-2.54079E-002,0.00000E+000,1.43867E-002,9.21352E-001,0.00000E+000,5.74146E-004,-6.98750E-002,1.00000E+000,32
709,1347,-1.01209E+001,4.97037E-001,3.51059E-002,4.40707E+000,-6.95997E-001,5.40902E-002,4.46202E+000,1.55555E-002,6.05991E-001,0,6.84385E+001,-1.16339E+001,9.97096E-001,2.50433E+001,-4.98392E+001,9.97317E-001,1.89889E-001,-8.12579E-002,-1.41739E-003,1.89897E-001,-8.12653E-002,-2.99495E-001,1.90553E-001,1.20911E+000,-3.86296E-003,0.00000E+000,4.37945E-004,9.24697E-001,0.00000E+000,-2.07048E-003,-7.71417E-002,1.00000E+000,32
709,1357,-1.01039E+001,1.09666E+000,4.99473E-002,4.40303E+000,-7.43601E-001,1.67543E-002,4.46541E+000,1.48566E-002,5.89967E-001,0,6.84807E+001,-1.23072E+001,9.97745E-001,2.54719E+001,-5.06531E+001,9.97952E-001,1.88926E-001,-8.12733E-002,-1.65750E-003,1.88936E-001,-8.12835E-002,-3.51456E-001,1.89549E-001,1.20795E+000,-3.90025E-003,0.00000E+000,1.10941E-004,9.24687E-001,0.00000E+000,-3.33427E-003,-7.71823E-002,1.00000E+000,32
709,1337,-1.01240E+001,-1.01820E-001,6.50206E-002,4.41828E+000,-6.53039E-001,1.00493E-001,4.46741E+000,1.44046E-002,6.16922E-001,0,6.84761E+001,-1.10515E+001,9.96745E-001,2.49426E+001,-4.91144E+001,9.96487E-001,1.90845E-001,-8.12469E-002,-1.18319E-003,1.90851E-001,-8.12521E-002,-2.49143E-001,1.91551E-001,1.21027E+000,-3.83731E-003,0.00000E+000,7.63422E-004,9.24704E-001,0.00000E+000,-8.12599E-004,-7.71137E-002,1.00000E+000,32
709,1317,-1.01322E+001,-1.26229E+000,2.14604E-001,4.42404E+000,-5.42714E-001,2.01872E-001,4.46178E+000,1.82767E-002,6.03742E-001,0,6.82478E+001,-9.48938E+000,9.96984E-001,2.49580E+001,-4.73047E+001,9.97063E-001,1.92739E-001,-8.12352E-002,-7.28372E-004,1.92741E-001,-8.12371E-002,-1.52322E-001,1.93531E-001,1.21256E+000,-3.81248E-003,0.00000E+000,1.41064E-003,9.24711E-001,0.00000E+000,1.68873E-003,-7.70866E-002,1.00000E+000,32
709,1327,-1.01252E+001,-6.81740E-001,1.30138E-001,4.42531E+000,-5.96681E-001,1.48073E-001,4.46781E+000,1.97312E-002,6.50598E-001,0,6.84361E+001,-1.02650E+001,9.97159E-001,2.49700E+001,-4.81635E+001,9.96860E-001,1.91794E-001,-8.12403E-002,-9.54729E-004,1.91797E-001,-8.12436E-002,-2.00345E-001,1.92542E-001,1.21142E+000,-3.82277E-003,0.00000E+000,1.08725E-003,9.24709E-001,0.00000E+000,4.38926E-004,-7.70979E-002,1.00000E+000,32
1149,1297,2.49946E+001,-1.88200E+000,9.98594E-002,1.08884E+001,-1.08065E-001,9.11977E-002,1.08894E+001,2.53033E-002,4.20494E-001,0,1.63219E+002,-3.24927E+000,9.98020E-001,1.28448E+002,-3.22668E+001,9.94995E-001,2.01856E-001,-8.43882E-002,-2.76674E-003,2.01882E-001,-8.44150E-002,-5.53734E-001,2.02782E-001,1.22344E+000,-2.42617E-002,0.00000E+000,1.29834E-002,9.21270E-001,0.00000E+000,6.09430E-004,-7.04753E-002,1.00000E+000,32
1149,1307,2.49999E+001,-1.28882E+000,1.87587E-002,1.08853E+001,-1.57984E-001,4.23692E-002,1.08865E+001,1.64649E-002,4.12812E-001,0,1.63375E+002,-3.98245E+000,9.98504E-001,1.28463E+002,-3.28816E+001,9.96676E-001,2.03010E-001,-8.43861E-002,-2.71476E-003,2.03036E-001,-8.44117E-002,-5.41154E-001,2.03994E-001,1.22485E+000,-2.42432E-002,0.00000E+000,1.30850E-002,9.21271E-001,0.00000E+000,-1.19699E-005,-7.04834E-002,1.00000E+000,32
1149,1317,2.49946E+001,-6.98979E-001,-4.19043E-002,1.08670E+001,-2.15276E-001,-3.87456E-003,1.08691E+001,1.50714E-002,4.34246E-001,0,1.63291E+002,-4.82351E+000,9.98312E-001,1.28341E+002,-3.35793E+001,9.96410E-001,2.04168E-001,-8.43834E-002,-2.65877E-003,2.04192E-001,-8.44079E-002,-5.27875E-001,2.05211E-001,1.22627E+000,-2.42150E-002,0.00000E+000,1.31871E-002,9.21273E-001,0.00000E+000,-6.36265E-004,-7.04958E-002,1.00000E+000,32
1149,1327,2.49912E+001,-9.82951E-002,-8.99990E-002,1.08461E+001,-2.62632E-001,-5.53197E-002,1.08495E+001,1.58055E-002,4.03862E-001,0,1.63179E+002,-5.50112E+000,9.97823E-001,1.28267E+002,-3.41622E+001,9.95996E-001,2.05323E-001,-8.43803E-002,-2.59910E-003,2.05347E-001,-8.44036E-002,-5.13979E-001,2.06428E-001,1.22769E+000,-2.41775E-002,0.00000E+000,1.32892E-002,9.21276E-001,0.00000E+000,-1.26045E-003,-7.05123E-002,1.00000E+000,32
1149,1337,2.50024E+001,4.98253E-001,-8.96475E-002,1.08314E+001,-3.23523E-001,-9.17442E-002,1.08366E+001,2.36725E-002,4.93371E-001,0,1.63090E+002,-6.41064E+000,9.97570E-001,1.28490E+002,-3.48562E+001,9.96899E-001,2.06491E-001,-8.43763E-002,-2.53175E-003,2.06513E-001,-8.43983E-002,-4.98662E-001,2.07657E-001,1.22913E+000,-2.41218E-002,0.00000E+000,1.33925E-002,9.21280E-001,0.00000E+000,-1.89185E-003,-7.05369E-002,1.00000E+000,32
1149,1347,2.50301E+001,1.10210E+000,-5.07056E-002,1.08240E+001,-3.80884E-001,-1.26689E-001,1.08314E+001,2.23459E-002,4.89820E-001,0,1.63089E+002,-7.25374E+000,9.97731E-001,1.29027E+002,-3.55706E+001,9.96790E-001,2.07659E-001,-8.43713E-002,-2.45652E-003,2.07679E-001,-8.43919E-002,-4.81921E-001,2.08890E-001,1.23056E+000,-2.40463E-002,0.00000E+000,1.34960E-002,9.21286E-001,0.00000E+000,-2.52482E-003,-7.05701E-002,1.00000E+000,32
699,1347,-1.08880E+001,4.91092E-001,4.52034E-002,4.28168E+000,-6.98177E-001,5.83035E-002,4.33862E+000,1.59231E-002,6.33939E-001,0,6.65254E+001,-1.16559E+001,9.97988E-001,2.33082E+001,-5.00485E+001,9.97948E-001,1.88218E-001,-8.01311E-002,-1.22272E-003,1.88224E-001,-8.01367E-002,-2.61058E-001,1.88914E-001,1.20710E+000,-2.31375E-003,0.00000E+000,-3.94279E-004,9.25648E-001,0.00000E+000,-1.80374E-003,-7.58511E-002,1.00000E+000,32
699,1357,-1.08733E+001,1.08344E+000,5.42524E-002,4.27587E+000,-7.52580E-001,1.69115E-002,4.34163E+000,1.60743E-002,6.29646E-001,0,6.65537E+001,-1.24317E+001,9.97746E-001,2.36869E+001,-5.09582E+001,9.97608E-001,1.87225E-001,-8.01432E-002,-1.42453E-003,1.87233E-001,-8.01508E-002,-3.05257E-001,1.87878E-001,1.20590E+000,-2.35118E-003,0.00000E+000,-6.64822E-004,9.25640E-001,0.00000E+000,-2.89005E-003,-7.58852E-002,1.00000E+000,32
699,1337,-1.09029E+001,-1.12209E-001,6.95953E-002,4.28130E+000,-6.58503E-001,1.00206E-001,4.33281E+000,1.18493E-002,6.05908E-001,0,6.63989E+001,-1.11128E+001,9.97900E-001,2.30125E+001,-4.93991E+001,9.98012E-001,1.89206E-001,-8.01224E-002,-1.02592E-003,1.89210E-001,-8.01263E-002,-2.18245E-001,1.89947E-001,1.20829E+000,-2.28722E-003,0.00000E+000,-1.24395E-004,9.25654E-001,0.00000E+000,-7.20074E-004,-7.58270E-002,1.00000E+000,32
699,1317,-1.09138E+001,-1.26374E+000,2.28292E-001,4.28182E+000,-5.42329E-001,1.98650E-001,4.32060E+000,1.70166E-002,6.67932E-001,0,6.60966E+001,-9.47606E+000,9.98017E-001,2.30100E+001,-4.74301E+001,9.97756E-001,1.91158E-001,-8.01149E-002,-6.48939E-004,1.91160E-001,-8.01164E-002,-1.37062E-001,1.91992E-001,1.21065E+000,-2.26599E-003,0.00000E+000,4.10384E-004,9.25659E-001,0.00000E+000,1.42723E-003,-7.58077E-002,1.00000E+000,32
699,1327,-1.09080E+001,-6.84630E-001,1.33307E-001,4.28365E+000,-5.97737E-001,1.43457E-001,4.32753E+000,1.30055E-002,7.40109E-001,0,6.62983E+001,-1.02601E+001,9.98045E-001,2.29757E+001,-4.82783E+001,9.97166E-001,1.90181E-001,-8.01177E-002,-8.36514E-004,1.90184E-001,-8.01203E-002,-1.77315E-001,1.90968E-001,1.20947E+000,-2.27349E-003,0.00000E+000,1.42442E-004,9.25657E-001,0.00000E+000,3.51361E-004,-7.58145E-002,1.00000E+000,32
1159,1307,2.57992E+001,-1.28138E+000,-3.93869E-003,1.10255E+001,-1.54637E-001,3.20000E-002,1.10266E+001,1.96408E-002,3.98803E-001,0,1.65390E+002,-3.92197E+000,9.95578E-001,1.30916E+002,-3.26276E+001,9.93274E-001,2.03815E-001,-8.48083E-002,-2.79845E-003,2.03843E-001,-8.48355E-002,-5.55462E-001,2.04795E-001,1.22586E+000,-2.32086E-002,0.00000E+000,1.22259E-002,9.20935E-001,0.00000E+000,-1.41903E-003,-7.10915E-002,1.00000E+000,32
1159,1317,2.58046E+001,-6.81045E-001,-5.70420E-002,1.10177E+001,-2.02272E-001,-6.78071E-003,1.10196E+001,2.01894E-002,4.54942E-001,0,1.65430E+002,-4.64103E+000,9.96187E-001,1.30972E+002,-3.31580E+001,9.95716E-001,2.05062E-001,-8.48117E-002,-2.82203E-003,2.05090E-001,-8.48392E-002,-5.57724E-001,2.06106E-001,1.22739E+000,-2.31779E-002,0.00000E+000,1.21788E-002,9.20934E-001,0.00000E+000,-2.06248E-003,-7.11044E-002,1.00000E+000,32
1159,1327,2.58145E+001,-8.52739E-002,-8.26236E-002,1.10077E+001,-2.57256E-001,-4.50675E-002,1.10108E+001,1.38386E-002,4.33697E-001,0,1.65426E+002,-5.45324E+000,9.98045E-001,1.31136E+002,-3.38586E+001,9.97284E-001,2.06309E-001,-8.48161E-002,-2.83949E-003,2.06337E-001,-8.48438E-002,-5.58764E-001,2.07419E-001,1.22892E+000,-2.31316E-002,0.00000E+000,1.21315E-002,9.20933E-001,0.00000E+000,-2.70719E-003,-7.11238E-002,1.00000E+000,32
1159,1297,2.57986E+001,-1.86893E+000,7.68554E-002,1.10341E+001,-9.91467E-002,8.35416E-002,1.10349E+001,1.89822E-002,4.52624E-001,0,1.65302E+002,-3.12149E+000,9.96565E-001,1.30973E+002,-3.19031E+001,9.92193E-001,2.02575E-001,-8.48055E-002,-2.77162E-003,2.02601E-001,-8.48322E-002,-5.52517E-001,2.03492E-001,1.22434E+000,-2.32304E-002,0.00000E+000,1.22728E-002,9.20936E-001,0.00000E+000,-7.79629E-004,-7.10823E-002,1.00000E+000,32
1159,1337,2.58369E+001,5.10199E-001,-7.62671E-002,1.10005E+001,-3.19711E-001,-8.93788E-002,1.10055E+001,1.81757E-002,4.71557E-001,0,1.65478E+002,-6.37312E+000,9.99063E-001,1.31541E+002,-3.46056E+001,9.98881E-001,2.07563E-001,-8.48217E-002,-2.84848E-003,2.07591E-001,-8.48495E-002,-5.58117E-001,2.08741E-001,1.23047E+000,-2.30632E-002,0.00000E+000,1.20839E-002,9.20931E-001,0.00000E+000,-3.35690E-003,-7.11526E-002,1.00000E+000,32
1159,1347,2.58534E+001,1.11588E+000,-5.14367E-002,1.09844E+001,-3.72389E-001,-1.27626E-001,1.09915E+001,1.97292E-002,4.35282E-001,0,1.65364E+002,-7.14355E+000,9.98150E-001,1.31881E+002,-3.52764E+001,9.97521E-001,2.08815E-001,-8.48278E-002,-2.85474E-003,2.08843E-001,-8.48556E-002,-5.56949E-001,2.10061E-001,1.23202E+000,-2.29876E-002,0.00000E+000,1.20363E-002,9.20929E-001,0.00000E+000,-4.00635E-003,-7.11843E-002,1.00000E+000,32
689,1347,-1.16616E+001,4.78293E-001,4.34295E-002,4.14895E+000,-7.07324E-001,4.81454E-002,4.20908E+000,1.36707E-002,6.52844E-001,0,6.45395E+001,-1.17529E+001,9.98548E-001,2.14462E+001,-5.03430E+001,9.97894E-001,1.86419E-001,-7.91937E-002,-1.19877E-003,1.86425E-001,-7.91991E-002,-2.58580E-001,1.87126E-001,1.20493E+000,-9.90490E-004,0.00000E+000,-1.36032E-003,9.26470E-001,0.00000E+000,-1.78240E-003,-7.52087E-002,1.00000E+000,32
689,1357,-1.16512E+001,1.06889E+000,4.58410E-002,4.14126E+000,-7.60982E-001,1.18755E-002,4.21061E+000,1.49484E-002,6.18577E-001,0,6.45246E+001,-1.25213E+001,9.98193E-001,2.17442E+001,-5.12823E+001,9.98161E-001,1.85220E-001,-7.92060E-002,-1.43543E-003,1.85228E-001,-7.92138E-002,-3.11016E-001,1.85873E-001,1.20349E+000,-1.03064E-003,0.00000E+000,-1.70539E-003,9.26461E-001,0.00000E+000,-2.72602E-003,-7.52350E-002,1.00000E+000,32
689,1337,-1.16710E+001,-1.05707E-001,7.08416E-002,4.15495E+000,-6.46932E-001,9.83739E-002,4.20616E+000,1.44415E-002,6.08100E-001,0,6.44832E+001,-1.09112E+001,9.98608E-001,2.12467E+001,-4.94089E+001,9.98727E-001,1.87619E-001,-7.91833E-002,-9.64317E-004,1.87622E-001,-7.91868E-002,-2.07084E-001,1.88380E-001,1.20637E+000,-9.56517E-004,0.00000E+000,-1.01459E-003,9.26479E-001,0.00000E+000,-8.36969E-004,-7.51864E-002,1.00000E+000,32
1169,1327,2.66217E+001,-7.53399E-002,-9.71713E-002,1.11532E+001,-2.52955E-001,-5.45985E-002,1.11562E+001,1.29358E-002,4.39176E-001,0,1.67511E+002,-5.39096E+000,9.98662E-001,1.33727E+002,-3.35693E+001,9.98222E-001,2.06956E-001,-8.51560E-002,-2.80503E-003,2.06983E-001,-8.51829E-002,-5.50121E-001,2.08060E-001,1.22975E+000,-2.19519E-002,0.00000E+000,1.14052E-002,9.20647E-001,0.00000E+000,-4.29204E-003,-7.13794E-002,1.00000E+000,32
1169,1337,2.66487E+001,5.30633E-001,-7.57200E-002,1.11486E+001,-3.05233E-001,-9.12454E-002,1.11532E+001,1.67280E-002,4.43100E-001,0,1.67564E+002,-6.17117E+000,9.98943E-001,1.34224E+002,-3.42012E+001,9.98493E-001,2.08194E-001,-8.51664E-002,-2.84922E-003,2.08222E-001,-8.51941E-002,-5.56407E-001,2.09365E-001,1.23127E+000,-2.18795E-002,0.00000E+000,1.12898E-002,9.20642E-001,0.00000E+000,-4.92955E-003,-7.14096E-002,1.00000E+000,32
1169,1347,2.66766E+001,1.13165E+000,-4.22024E-002,1.11418E+001,-3.64230E-001,-1.28293E-001,1.11485E+001,1.68048E-002,4.14604E-001,0,1.67583E+002,-7.04218E+000,9.97742E-001,1.34751E+002,-3.49570E+001,9.97774E-001,2.09433E-001,-8.51776E-002,-2.89078E-003,2.09461E-001,-8.52060E-002,-5.62126E-001,2.10671E-001,1.23281E+000,-2.17999E-002,0.00000E+000,1.11743E-002,9.20636E-001,0.00000E+000,-5.56812E-003,-7.14428E-002,1.00000E+000,32
689,1327,-1.16930E+001,-6.93938E-001,1.21267E-001,4.14260E+000,-5.99089E-001,1.40601E-001,4.18805E+000,1.56858E-002,6.85222E-001,0,6.41643E+001,-1.02486E+001,9.97428E-001,2.09129E+001,-4.85318E+001,9.97214E-001,1.88804E-001,-7.91767E-002,-7.37220E-004,1.88806E-001,-7.91787E-002,-1.57620E-001,1.89622E-001,1.20780E+000,-9.35110E-004,0.00000E+000,-6.72171E-004,9.26484E-001,0.00000E+000,9.93845E-005,-7.51724E-002,1.00000E+000,32
1169,1317,2.66150E+001,-6.70722E-001,-5.78147E-002,1.11662E+001,-1.95193E-001,-4.33425E-003,1.11679E+001,2.43442E-002,3.58124E-001,0,1.67507E+002,-4.54852E+000,9.97585E-001,1.33633E+002,-3.29452E+001,9.97343E-001,2.05720E-001,-8.51484E-002,-2.75038E-003,2.05746E-001,-8.51745E-002,-5.41710E-001,2.06758E-001,1.22822E+000,-2.19971E-002,0.00000E+000,1.15201E-002,9.20650E-001,0.00000E+000,-3.65700E-003,-7.13605E-002,1.00000E+000,32
1169,1307,2.66084E+001,-1.26873E+000,-1.07414E-002,1.11742E+001,-1.47792E-001,3.42781E-002,1.11752E+001,1.98457E-002,4.04026E-001,0,1.67474E+002,-3.82680E+000,9.97537E-001,1.33549E+002,-3.23165E+001,9.96141E-001,2.04495E-001,-8.51422E-002,-2.69192E-003,2.04520E-001,-8.51672E-002,-5.32453E-001,2.05470E-001,1.22672E+000,-2.20308E-002,0.00000E+000,1.16338E-002,9.20653E-001,0.00000E+000,-3.02847E-003,-7.13465E-002,1.00000E+000,32
1169,1297,2.66116E+001,-1.85848E+000,7.26513E-002,1.11858E+001,-9.34410E-002,8.46699E-002,1.11865E+001,1.60089E-002,4.77515E-001,0,1.67433E+002,-3.07145E+000,9.97744E-001,1.33669E+002,-3.16230E+001,9.94975E-001,2.03267E-001,-8.51375E-002,-2.62789E-003,2.03291E-001,-8.51614E-002,-5.22012E-001,2.04180E-001,1.22521E+000,-2.20506E-002,0.00000E+000,1.17475E-002,9.20654E-001,0.00000E+000,-2.39992E-003,-7.13382E-002,1.00000E+000,32
689,1317,-1.16981E+001,-1.27247E+000,2.13931E-001,4.14131E+000,-5.44908E-001,1.92774E-001,4.18145E+000,1.83395E-002,6.45937E-001,0,6.39814E+001,-9.47133E+000,9.97130E-001,2.09532E+001,-4.76516E+001,9.95301E-001,1.89984E-001,-7.91739E-002,-5.15812E-004,1.89985E-001,-7.91749E-002,-1.09800E-001,1.90861E-001,1.20923E+000,-9.26522E-004,0.00000E+000,-3.30363E-004,9.26486E-001,0.00000E+000,1.03408E-003,-7.51668E-002,1.00000E+000,32
679,1347,-1.24451E+001,4.72692E-001,3.97322E-002,4.00789E+000,-7.04494E-001,4.59754E-002,4.06959E+000,2.19436E-002,6.62134E-001,0,6.23957E+001,-1.17272E+001,9.97529E-001,1.94357E+001,-5.05290E+001,9.97005E-001,1.84542E-001,-7.83501E-002,-1.22449E-003,1.84548E-001,-7.83558E-002,-2.66863E-001,1.85246E-001,1.20267E+000,4.37486E-004,0.00000E+000,-2.50254E-003,9.27201E-001,0.00000E+000,-1.79761E-003,-7.45014E-002,1.00000E+000,32
679,1357,-1.24162E+001,1.06335E+000,4.01092E-002,4.02027E+000,-7.59199E-001,1.58697E-002,4.09135E+000,1.10747E-002,6.59686E-001,0,6.26752E+001,-1.25051E+001,9.98320E-001,2.00128E+001,-5.14461E+001,9.98233E-001,1.83024E-001,-7.83678E-002,-1.60923E-003,1.83034E-001,-7.83777E-002,-3.52718E-001,1.83662E-001,1.20085E+000,3.91256E-004,0.00000E+000,-3.12736E-003,9.27185E-001,0.00000E+000,-2.66243E-003,-7.45233E-002,1.00000E+000,32
1179,1297,2.74120E+001,-1.85309E+000,3.95721E-002,1.13292E+001,-9.04541E-002,7.50464E-002,1.13298E+001,2.62011E-002,5.28638E-001,0,1.69488E+002,-3.04971E+000,9.98509E-001,1.36135E+002,-3.13487E+001,9.96207E-001,2.03783E-001,-8.52976E-002,-2.64693E-003,2.03807E-001,-8.53218E-002,-5.24563E-001,2.04704E-001,1.22586E+000,-2.12260E-002,0.00000E+000,1.11935E-002,9.20556E-001,0.00000E+000,-4.02941E-003,-7.19612E-002,1.00000E+000,32
1179,1307,2.74212E+001,-1.26249E+000,-2.47482E-002,1.13273E+001,-1.43261E-001,3.38401E-002,1.13283E+001,1.23389E-002,3.69825E-001,0,1.69633E+002,-3.79586E+000,9.98947E-001,1.36234E+002,-3.21088E+001,9.97390E-001,2.04905E-001,-8.52983E-002,-2.64012E-003,2.04929E-001,-8.53223E-002,-5.21190E-001,2.05883E-001,1.22724E+000,-2.12027E-002,0.00000E+000,1.12009E-002,9.20556E-001,0.00000E+000,-4.49203E-003,-7.19690E-002,1.00000E+000,32
1179,1317,2.74241E+001,-6.62803E-001,-1.03559E-001,1.13203E+001,-1.88052E-001,-1.78253E-002,1.13218E+001,2.61037E-002,3.73322E-001,0,1.69741E+002,-4.45143E+000,9.98988E-001,1.36217E+002,-3.26161E+001,9.98366E-001,2.06028E-001,-8.52989E-002,-2.63419E-003,2.06052E-001,-8.53228E-002,-5.18015E-001,2.07063E-001,1.22862E+000,-2.11814E-002,0.00000E+000,1.12084E-002,9.20556E-001,0.00000E+000,-4.95557E-003,-7.19762E-002,1.00000E+000,32
1179,1337,2.74652E+001,5.37238E-001,-9.23433E-002,1.13015E+001,-3.03946E-001,-1.07893E-001,1.13061E+001,1.40047E-002,4.29036E-001,0,1.69786E+002,-6.15143E+000,9.98551E-001,1.36960E+002,-3.39659E+001,9.97399E-001,2.08301E-001,-8.53016E-002,-2.58942E-003,2.08324E-001,-8.53244E-002,-5.05267E-001,2.09456E-001,1.23142E+000,-2.10556E-002,0.00000E+000,1.12235E-002,9.20557E-001,0.00000E+000,-5.89607E-003,-7.20184E-002,1.00000E+000,32
1179,1347,2.75069E+001,1.14623E+000,-4.84688E-002,1.13058E+001,-3.57830E-001,-1.43927E-001,1.13124E+001,1.40302E-002,4.37071E-001,0,1.69960E+002,-6.94756E+000,9.98624E-001,1.37714E+002,-3.45993E+001,9.98179E-001,2.09440E-001,-8.53031E-002,-2.56098E-003,2.09463E-001,-8.53254E-002,-4.97783E-001,2.10658E-001,1.23283E+000,-2.09771E-002,0.00000E+000,1.12311E-002,9.20557E-001,0.00000E+000,-6.36873E-003,-7.20447E-002,1.00000E+000,32
679,1327,-1.24682E+001,-7.00705E-001,1.29365E-001,4.00885E+000,-6.00103E-001,1.46722E-001,4.05617E+000,1.90702E-002,6.44666E-001,0,6.21124E+001,-1.02508E+001,9.96844E-001,1.90589E+001,-4.87810E+001,9.95791E-001,1.87545E-001,-7.83244E-002,-4.71186E-004,1.87546E-001,-7.83252E-002,-1.01542E-001,1.88392E-001,1.20628E+000,5.04786E-004,0.00000E+000,-1.26201E-003,9.27224E-001,0.00000E+000,-8.06143E-005,-7.44694E-002,1.00000E+000,32
679,1337,-1.24543E+001,-1.12103E-001,7.16412E-002,4.01407E+000,-6.47567E-001,1.02058E-001,4.06725E+000,2.25485E-002,6.47310E-001,0,6.23274E+001,-1.09270E+001,9.97535E-001,1.92491E+001,-4.96001E+001,9.97116E-001,1.86049E-001,-7.83336E-002,-8.43088E-004,1.86051E-001,-7.83363E-002,-1.82708E-001,1.86823E-001,1.20448E+000,4.80450E-004,0.00000E+000,-1.88081E-003,9.27216E-001,0.00000E+000,-9.37090E-004,-7.44809E-002,1.00000E+000,32
1179,1327,2.74358E+001,-7.19891E-002,-1.08632E-001,1.13061E+001,-2.52303E-001,-5.75720E-002,1.13091E+001,1.83611E-002,4.15442E-001,0,1.69679E+002,-5.42310E+000,9.98858E-001,1.36434E+002,-3.34029E+001,9.96682E-001,2.07162E-001,-8.53001E-002,-2.61516E-003,2.07185E-001,-8.53235E-002,-5.12277E-001,2.08256E-001,1.23002E+000,-2.11270E-002,0.00000E+000,1.12159E-002,9.20557E-001,0.00000E+000,-5.42435E-003,-7.19944E-002,1.00000E+000,32
679,1317,-1.24741E+001,-1.27912E+000,2.26071E-001,4.00686E+000,-5.46095E-001,2.03599E-001,4.04903E+000,1.58062E-002,6.86672E-001,0,6.19063E+001,-9.52523E+000,9.97460E-001,1.90987E+001,-4.78651E+001,9.96067E-001,1.89034E-001,-7.83204E-002,-1.05856E-004,1.89034E-001,-7.83205E-002,-2.26857E-002,1.89957E-001,1.20808E+000,5.15776E-004,0.00000E+000,-6.44904E-004,9.27228E-001,0.00000E+000,7.73524E-004,-7.44642E-002,1.00000E+000,32
669,1327,-1.32373E+001,-7.16705E-001,1.37061E-001,3.88157E+000,-6.09294E-001,1.56409E-001,3.93221E+000,1.31819E-002,6.34161E-001,0,6.01510E+001,-1.04127E+001,9.98891E-001,1.73016E+001,-4.91556E+001,9.98586E-001,1.86174E-001,-7.76155E-002,-1.38258E-004,1.86174E-001,-7.76156E-002,-3.00301E-002,1.87029E-001,1.20463E+000,2.83324E-003,0.00000E+000,-2.40987E-003,9.27817E-001,0.00000E+000,-2.86112E-004,-7.35622E-002,1.00000E+000,32
669,1337,-1.32273E+001,-1.20474E-001,7.45750E-002,3.88247E+000,-6.51092E-001,1.04662E-001,3.93807E+000,1.34590E-002,6.55432E-001,0,6.03163E+001,-1.09643E+001,9.98060E-001,1.74199E+001,-4.98405E+001,9.98029E-001,1.84286E-001,-7.76258E-002,-5.99658E-004,1.84288E-001,-7.76272E-002,-1.31180E-001,1.85048E-001,1.20236E+000,2.80142E-003,0.00000E+000,-3.19671E-003,9.27806E-001,0.00000E+000,-1.11720E-003,-7.35739E-002,1.00000E+000,32
669,1347,-1.32130E+001,4.65688E-001,3.98353E-002,3.88487E+000,-7.03870E-001,6.41533E-002,3.94864E+000,1.20680E-002,6.38467E-001,0,6.04734E+001,-1.17177E+001,9.97805E-001,1.76790E+001,-5.07593E+001,9.97648E-001,1.82395E-001,-7.76399E-002,-1.06523E-003,1.82399E-001,-7.76443E-002,-2.34706E-001,1.83070E-001,1.20009E+000,2.75948E-003,0.00000E+000,-3.98320E-003,9.27792E-001,0.00000E+000,-1.94791E-003,-7.35892E-002,1.00000E+000,32
669,1357,-1.31877E+001,1.06600E+000,4.43146E-002,3.89072E+000,-7.48963E-001,2.09084E-002,3.96220E+000,1.25098E-002,6.34521E-001,0,6.06838E+001,-1.23490E+001,9.97625E-001,1.82149E+001,-5.15402E+001,9.97894E-001,1.80489E-001,-7.76642E-002,-1.54424E-003,1.80498E-001,-7.76734E-002,-3.42720E-001,1.81082E-001,1.19781E+000,2.69137E-003,0.00000E+000,-4.77390E-003,9.27768E-001,0.00000E+000,-2.78308E-003,-7.36142E-002,1.00000E+000,32
1189,1337,2.82876E+001,5.47563E-001,-1.06979E-001,1.14593E+001,-3.01188E-001,-1.24238E-001,1.14639E+001,1.79827E-002,4.40654E-001,0,1.72073E+002,-6.09309E+000,9.98806E-001,1.39795E+002,-3.36639E+001,9.97894E-001,2.07879E-001,-8.55761E-002,-2.31883E-003,2.07897E-001,-8.55944E-002,-4.52704E-001,2.08974E-001,1.23092E+000,-2.02936E-002,0.00000E+000,1.12078E-002,9.20304E-001,0.00000E+000,-6.55491E-003,-7.20278E-002,1.00000E+000,32
669,1317,-1.32388E+001,-1.28881E+000,2.40853E-001,3.88269E+000,-5.49435E-001,2.13551E-001,3.92718E+000,1.62687E-002,6.57280E-001,0,5.99912E+001,-9.59840E+000,9.98635E-001,1.74297E+001,-4.81644E+001,9.98617E-001,1.88046E-001,-7.76138E-002,3.11337E-004,1.88046E-001,-7.76141E-002,6.71471E-002,1.88999E-001,1.20689E+000,2.84264E-003,0.00000E+000,-1.62729E-003,9.27820E-001,0.00000E+000,5.40472E-004,-7.35588E-002,1.00000E+000,32
1189,1297,2.82360E+001,-1.84502E+000,5.18396E-002,1.14854E+001,-8.85434E-002,7.07507E-002,1.14860E+001,1.72557E-002,4.87585E-001,0,1.71693E+002,-3.04041E+000,9.98501E-001,1.39035E+002,-3.11729E+001,9.96200E-001,2.04170E-001,-8.55697E-002,-2.32600E-003,2.04189E-001,-8.55883E-002,-4.59926E-001,2.05076E-001,1.22636E+000,-2.04279E-002,0.00000E+000,1.13076E-002,9.20307E-001,0.00000E+000,-5.87733E-003,-7.20079E-002,1.00000E+000,32
1189,1307,2.82304E+001,-1.25725E+000,-3.63679E-002,1.14733E+001,-1.44856E-001,2.36592E-002,1.14742E+001,1.42397E-002,4.57271E-001,0,1.71720E+002,-3.84495E+000,9.97634E-001,1.38872E+002,-3.18618E+001,9.97213E-001,2.05092E-001,-8.55706E-002,-2.33290E-003,2.05111E-001,-8.55893E-002,-4.59824E-001,2.06045E-001,1.22749E+000,-2.04164E-002,0.00000E+000,1.12828E-002,9.20307E-001,0.00000E+000,-6.04555E-003,-7.20096E-002,1.00000E+000,32
1189,1317,2.82495E+001,-6.45710E-001,-8.47646E-002,1.14728E+001,-1.86048E-001,-3.41016E-002,1.14743E+001,1.70491E-002,4.63999E-001,0,1.71936E+002,-4.39267E+000,9.98753E-001,1.39147E+002,-3.22457E+001,9.98718E-001,2.06022E-001,-8.55722E-002,-2.33101E-003,2.06041E-001,-8.55908E-002,-4.57986E-001,2.07021E-001,1.22863E+000,-2.03826E-002,0.00000E+000,1.12578E-002,9.20306E-001,0.00000E+000,-6.21531E-003,-7.20146E-002,1.00000E+000,32
1189,1327,2.82653E+001,-5.59539E-002,-1.13344E-001,1.14650E+001,-2.49209E-001,-8.81350E-002,1.14680E+001,2.00031E-002,4.30808E-001,0,1.72032E+002,-5.29772E+000,9.98989E-001,1.39397E+002,-3.30332E+001,9.98656E-001,2.06950E-001,-8.55740E-002,-2.32638E-003,2.06968E-001,-8.55925E-002,-4.55622E-001,2.07997E-001,1.22977E+000,-2.03418E-002,0.00000E+000,1.12328E-002,9.20305E-001,0.00000E+000,-6.38490E-003,-7.20207E-002,1.00000E+000,32
659,1327,-1.40033E+001,-7.02336E-001,1.37354E-001,3.75575E+000,-5.90388E-001,1.51966E-001,3.80491E+000,2.09259E-002,6.35616E-001,0,5.82414E+001,-1.00900E+001,9.98540E-001,1.55839E+001,-4.90413E+001,9.96962E-001,1.84483E-001,-7.71243E-002,-8.91205E-005,1.84483E-001,-7.71243E-002,-1.95187E-002,1.85307E-001,1.20259E+000,5.21860E-003,0.00000E+000,-4.13710E-003,9.28235E-001,0.00000E+000,-5.40208E-004,-7.30931E-002,1.00000E+000,32
659,1337,-1.39719E+001,-1.36914E-001,9.95003E-002,3.77811E+000,-6.62931E-001,1.24646E-001,3.83785E+000,3.03492E-002,7.08699E-001,0,5.86781E+001,-1.12040E+001,9.98120E-001,1.60897E+001,-5.02260E+001,9.97955E-001,1.82417E-001,-7.71329E-002,-5.57537E-004,1.82418E-001,-7.71341E-002,-1.23076E-001,1.83141E-001,1.20011E+000,5.18405E-003,0.00000E+000,-4.94307E-003,9.28224E-001,0.00000E+000,-1.32114E-003,-7.31040E-002,1.00000E+000,32
659,1347,-1.39630E+001,4.61416E-001,6.43104E-002,3.77508E+000,-7.03241E-001,8.27399E-002,3.84091E+000,1.74651E-002,6.77875E-001,0,5.87503E+001,-1.17552E+001,9.98735E-001,1.62686E+001,-5.09668E+001,9.98772E-001,1.80347E-001,-7.71455E-002,-1.03046E-003,1.80351E-001,-7.71496E-002,-2.29287E-001,1.80977E-001,1.19763E+000,5.13807E-003,0.00000E+000,-5.74828E-003,9.28209E-001,0.00000E+000,-2.10132E-003,-7.31185E-002,1.00000E+000,32
659,1357,-1.39498E+001,1.06719E+000,5.85080E-002,3.76960E+000,-7.42064E-001,3.24132E-002,3.84208E+000,1.24960E-002,6.50567E-001,0,5.88029E+001,-1.22610E+001,9.98173E-001,1.65945E+001,-5.16570E+001,9.98404E-001,1.78262E-001,-7.71673E-002,-1.51645E-003,1.78271E-001,-7.71763E-002,-3.40143E-001,1.78805E-001,1.19514E+000,5.06653E-003,0.00000E+000,-6.55745E-003,9.28186E-001,0.00000E+000,-2.88534E-003,-7.31410E-002,1.00000E+000,32
1199,1307,2.90463E+001,-1.24705E+000,-3.40886E-002,1.16223E+001,-1.42717E-001,1.54602E-002,1.16231E+001,1.92310E-002,4.63374E-001,0,1.73833E+002,-3.80901E+000,9.97695E-001,1.41635E+002,-3.16077E+001,9.96677E-001,2.05053E-001,-8.55059E-002,-1.89915E-003,2.05065E-001,-8.55183E-002,-3.74475E-001,2.06004E-001,1.22746E+000,-1.93473E-002,0.00000E+000,1.13588E-002,9.20352E-001,0.00000E+000,-7.03844E-003,-7.18277E-002,1.00000E+000,32
1199,1317,2.90570E+001,-6.49324E-001,-8.80742E-002,1.16158E+001,-1.94828E-001,-3.85818E-002,1.16175E+001,1.66872E-002,4.44804E-001,0,1.73955E+002,-4.54668E+000,9.96958E-001,1.41773E+002,-3.22063E+001,9.95397E-001,2.05849E-001,-8.55079E-002,-1.90761E-003,2.05861E-001,-8.55204E-002,-3.75112E-001,2.06841E-001,1.22844E+000,-1.93216E-002,0.00000E+000,1.13077E-002,9.20351E-001,0.00000E+000,-6.97076E-003,-7.18259E-002,1.00000E+000,32
1199,1327,2.90749E+001,-4.76466E-002,-1.29097E-001,1.16137E+001,-2.44077E-001,-9.04317E-002,1.16166E+001,1.71258E-002,4.31929E-001,0,1.74128E+002,-5.25699E+000,9.97967E-001,1.42039E+002,-3.27690E+001,9.96643E-001,2.06645E-001,-8.55101E-002,-1.91447E-003,2.06657E-001,-8.55226E-002,-3.75434E-001,2.07677E-001,1.22942E+000,-1.92920E-002,0.00000E+000,1.12566E-002,9.20349E-001,0.00000E+000,-6.90302E-003,-7.18238E-002,1.00000E+000,32
659,1317,-1.40167E+001,-1.29064E+000,2.13895E-001,3.74735E+000,-5.45800E-001,1.95860E-001,3.79195E+000,1.56887E-002,6.56874E-001,0,5.79790E+001,-9.47067E+000,9.97493E-001,1.54519E+001,-4.82421E+001,9.94828E-001,1.86533E-001,-7.71209E-002,3.70481E-004,1.86534E-001,-7.71214E-002,8.05104E-002,1.87463E-001,1.20505E+000,5.23810E-003,0.00000E+000,-3.33544E-003,9.28241E-001,0.00000E+000,2.36536E-004,-7.30870E-002,1.00000E+000,32
1199,1337,2.91095E+001,5.59521E-001,-1.04247E-001,1.16135E+001,-2.97688E-001,-1.33499E-001,1.16181E+001,1.38593E-002,4.63232E-001,0,1.74271E+002,-6.05340E+000,9.98645E-001,1.42652E+002,-3.33701E+001,9.97508E-001,2.07448E-001,-8.55133E-002,-1.91284E-003,2.07460E-001,-8.55258E-002,-3.74082E-001,2.08522E-001,1.23041E+000,-1.92405E-002,0.00000E+000,1.12050E-002,9.20347E-001,0.00000E+000,-6.83458E-003,-7.18203E-002,1.00000E+000,32
1199,1297,2.90510E+001,-1.82738E+000,4.96815E-002,1.16343E+001,-7.83283E-002,6.07511E-002,1.16347E+001,1.46645E-002,4.57489E-001,0,1.73809E+002,-2.85910E+000,9.97466E-001,1.41780E+002,-3.08134E+001,9.95839E-001,2.04260E-001,-8.55047E-002,-1.88493E-003,2.04272E-001,-8.55169E-002,-3.72690E-001,2.05172E-001,1.22649E+000,-1.93582E-002,0.00000E+000,1.14097E-002,9.20353E-001,0.00000E+000,-7.10582E-003,-7.18284E-002,1.00000E+000,32
649,1347,-1.47408E+001,4.66224E-001,5.40869E-002,3.63734E+000,-6.93729E-001,6.82297E-002,3.70353E+000,1.78428E-002,7.02832E-001,0,5.66822E+001,-1.15615E+001,9.97800E-001,1.43453E+001,-5.09706E+001,9.96896E-001,1.78119E-001,-7.64557E-002,-9.01944E-004,1.78122E-001,-7.64589E-002,-2.02993E-001,1.78715E-001,1.19495E+000,7.82175E-003,0.00000E+000,-7.57162E-003,9.28792E-001,0.00000E+000,-2.47176E-003,-7.24682E-002,1.00000E+000,32
649,1357,-1.47202E+001,1.06324E+000,6.10477E-002,3.63991E+000,-7.40259E-001,3.31924E-002,3.71457E+000,1.21313E-002,6.63491E-001,0,5.68184E+001,-1.22242E+001,9.98409E-001,1.48194E+001,-5.18301E+001,9.98024E-001,1.75725E-001,-7.64742E-002,-1.37847E-003,1.75733E-001,-7.64817E-002,-3.13155E-001,1.76224E-001,1.19210E+000,7.74258E-003,0.00000E+000,-8.35869E-003,9.28770E-001,0.00000E+000,-3.33473E-003,-7.24922E-002,1.00000E+000,32
649,1337,-1.47613E+001,-1.25400E-001,8.98550E-002,3.62857E+000,-6.45191E-001,1.09672E-001,3.68711E+000,1.89039E-002,6.53167E-001,0,5.64262E+001,-1.08682E+001,9.98138E-001,1.39929E+001,-5.01680E+001,9.97731E-001,1.80503E-001,-7.64457E-002,-4.37609E-004,1.80504E-001,-7.64465E-002,-9.75800E-002,1.81206E-001,1.19780E+000,7.87326E-003,0.00000E+000,-6.78531E-003,9.28806E-001,0.00000E+000,-1.60963E-003,-7.24526E-002,1.00000E+000,32
649,1327,-1.47834E+001,-6.95762E-001,1.29773E-001,3.61498E+000,-5.79998E-001,1.36948E-001,3.66377E+000,1.47264E-002,6.26844E-001,0,5.61280E+001,-9.86479E+000,9.98936E-001,1.36326E+001,-4.90373E+001,9.98765E-001,1.82868E-001,-7.64399E-002,1.84015E-005,1.82868E-001,-7.64399E-002,4.06593E-003,1.83686E-001,1.20063E+000,7.91060E-003,0.00000E+000,-6.00295E-003,9.28816E-001,0.00000E+000,-7.51822E-004,-7.24413E-002,1.00000E+000,32
1209,1307,2.98612E+001,-1.23202E+000,-4.19966E-002,1.17706E+001,-1.34487E-001,-3.15307E-004,1.17713E+001,1.45061E-002,4.68410E-001,0,1.75963E+002,-3.67716E+000,9.98220E-001,1.44377E+002,-3.12574E+001,9.96825E-001,2.04567E-001,-8.50545E-002,-1.40752E-003,2.04574E-001,-8.50614E-002,-2.78440E-001,2.05538E-001,1.22689E+000,-1.81411E-002,0.00000E+000,1.14007E-002,9.20728E-001,0.00000E+000,-7.30509E-003,-7.12584E-002,1.00000E+000,32
1209,1317,2.98716E+001,-6.41563E-001,-9.23786E-002,1.17654E+001,-1.93067E-001,-4.37230E-002,1.17671E+001,1.61730E-002,4.28791E-001,0,1.76066E+002,-4.52749E+000,9.98267E-001,1.44512E+002,-3.19857E+001,9.95641E-001,2.05392E-001,-8.50551E-002,-1.40003E-003,2.05399E-001,-8.50618E-002,-2.76172E-001,2.06406E-001,1.22790E+000,-1.81171E-002,0.00000E+000,1.13694E-002,9.20727E-001,0.00000E+000,-7.06068E-003,-7.12526E-002,1.00000E+000,32
1209,1327,2.99019E+001,-3.18025E-002,-1.15850E-001,1.17710E+001,-2.36508E-001,-9.56775E-002,1.17738E+001,1.56603E-002,4.07493E-001,0,1.76345E+002,-5.15434E+000,9.98558E-001,1.44994E+002,-3.24625E+001,9.97170E-001,2.06220E-001,-8.50559E-002,-1.38695E-003,2.06227E-001,-8.50625E-002,-2.72814E-001,2.07277E-001,1.22891E+000,-1.80791E-002,0.00000E+000,1.13379E-002,9.20726E-001,0.00000E+000,-6.81544E-003,-7.12434E-002,1.00000E+000,32
1209,1337,2.99338E+001,5.72233E-001,-9.01898E-002,1.17676E+001,-2.94735E-001,-1.38951E-001,1.17721E+001,1.61519E-002,4.55947E-001,0,1.76442E+002,-6.01304E+000,9.98168E-001,1.45563E+002,-3.31045E+001,9.96194E-001,2.07055E-001,-8.50569E-002,-1.36744E-003,2.07062E-001,-8.50633E-002,-2.68206E-001,2.08157E-001,1.22994E+000,-1.80249E-002,0.00000E+000,1.13061E-002,9.20725E-001,0.00000E+000,-6.56765E-003,-7.12303E-002,1.00000E+000,32
1209,1297,2.98675E+001,-1.81479E+000,4.11974E-002,1.17859E+001,-7.08138E-002,5.12752E-002,1.17863E+001,1.33351E-002,4.48750E-001,0,1.75964E+002,-2.75260E+000,9.98150E-001,1.44544E+002,-3.05082E+001,9.96177E-001,2.03742E-001,-8.50541E-002,-1.41112E-003,2.03749E-001,-8.50610E-002,-2.79950E-001,2.04672E-001,1.22588E+000,-1.81553E-002,0.00000E+000,1.14320E-002,9.20729E-001,0.00000E+000,-7.54904E-003,-7.12618E-002,1.00000E+000,32
649,1317,-1.47875E+001,-1.28558E+000,2.17721E-001,3.61447E+000,-5.38147E-001,1.84781E-001,3.65898E+000,1.24907E-002,6.55884E-001,0,5.59781E+001,-9.30315E+000,9.98419E-001,1.36739E+001,-4.82784E+001,9.98033E-001,1.85220E-001,-7.64405E-002,4.64305E-004,1.85221E-001,-7.64413E-002,1.01669E-001,1.86159E-001,1.20346E+000,7.92692E-003,0.00000E+000,-5.22280E-003,9.28821E-001,0.00000E+000,1.03560E-004,-7.24364E-002,1.00000E+000,32
639,1347,-1.55137E+001,4.72763E-001,5.13433E-002,3.50525E+000,-6.80957E-001,6.72490E-002,3.57141E+000,1.81200E-002,6.74523E-001,0,5.46606E+001,-1.13312E+001,9.96999E-001,1.25246E+001,-5.09903E+001,9.96486E-001,1.76100E-001,-7.55731E-002,-7.82818E-004,1.76102E-001,-7.55756E-002,-1.78214E-001,1.76691E-001,1.19252E+000,1.08874E-002,0.00000E+000,-9.71794E-003,9.29536E-001,0.00000E+000,-2.90455E-003,-7.16379E-002,1.00000E+000,32
639,1357,-1.54908E+001,1.07360E+000,6.20968E-002,3.51009E+000,-7.24282E-001,3.49450E-002,3.58420E+000,1.21645E-002,6.51842E-001,0,5.48230E+001,-1.19479E+001,9.98100E-001,1.30470E+001,-5.17926E+001,9.97930E-001,1.73498E-001,-7.55889E-002,-1.24454E-003,1.73504E-001,-7.55951E-002,-2.86265E-001,1.73982E-001,1.18942E+000,1.08016E-002,0.00000E+000,-1.04715E-002,9.29515E-001,0.00000E+000,-3.90485E-003,-7.16656E-002,1.00000E+000,32
639,1317,-1.55493E+001,-1.29605E+000,2.38610E-001,3.49057E+000,-5.47252E-001,1.92471E-001,3.53845E+000,1.61983E-002,7.04449E-001,0,5.40661E+001,-9.44281E+000,9.98328E-001,1.20837E+001,-4.85640E+001,9.97249E-001,1.83796E-001,-7.55689E-002,5.25399E-004,1.83797E-001,-7.55699E-002,1.16064E-001,1.84762E-001,1.20172E+000,1.09875E-002,0.00000E+000,-7.47520E-003,9.29560E-001,0.00000E+000,7.26811E-005,-7.16055E-002,1.00000E+000,32
639,1327,-1.55426E+001,-7.16627E-001,1.48445E-001,3.49506E+000,-5.96109E-001,1.50177E-001,3.54871E+000,1.22605E-002,6.40286E-001,0,5.42642E+001,-1.01413E+001,9.98569E-001,1.20723E+001,-4.94974E+001,9.97874E-001,1.81254E-001,-7.55642E-002,1.01351E-004,1.81254E-001,-7.55643E-002,2.26112E-002,1.82087E-001,1.19867E+000,1.09767E-002,0.00000E+000,-8.21833E-003,9.29557E-001,0.00000E+000,-9.13818E-004,-7.16090E-002,1.00000E+000,32
639,1337,-1.55328E+001,-1.20357E-001,8.16950E-002,3.49818E+000,-6.35621E-001,1.06494E-001,3.55705E+000,1.52558E-002,6.87933E-001,0,5.44391E+001,-1.06852E+001,9.97795E-001,1.21756E+001,-5.01654E+001,9.97331E-001,1.78681E-001,-7.55651E-002,-3.35150E-004,1.78682E-001,-7.55656E-002,-7.55276E-002,1.79388E-001,1.19559E+000,1.09451E-002,0.00000E+000,-8.96802E-003,9.29550E-001,0.00000E+000,-1.90903E-003,-7.16192E-002,1.00000E+000,32
1219,1317,3.06943E+001,-6.29930E-001,-9.16657E-002,1.19189E+001,-1.91751E-001,-5.75887E-002,1.19206E+001,1.98655E-002,4.88836E-001,0,1.78264E+002,-4.49874E+000,9.98134E-001,1.47388E+002,-3.16772E+001,9.95809E-001,2.04732E-001,-8.50397E-002,-8.18907E-004,2.04734E-001,-8.50421E-002,-1.61919E-001,2.05709E-001,1.22710E+000,-1.66716E-002,0.00000E+000,1.13650E-002,9.20696E-001,0.00000E+000,-6.85882E-003,-7.05710E-002,1.00000E+000,32
1219,1327,3.07203E+001,-2.12025E-002,-1.15369E-001,1.19222E+001,-2.34180E-001,-1.01798E-001,1.19249E+001,9.90748E-003,4.17369E-001,0,1.78478E+002,-5.12008E+000,9.99205E-001,1.47802E+002,-3.21935E+001,9.98318E-001,2.05510E-001,-8.50389E-002,-7.91879E-004,2.05513E-001,-8.50410E-002,-1.56156E-001,2.06528E-001,1.22806E+000,-1.66386E-002,0.00000E+000,1.13499E-002,9.20695E-001,0.00000E+000,-6.38031E-003,-7.05544E-002,1.00000E+000,32
1219,1337,3.07564E+001,5.88872E-001,-8.80955E-002,1.19222E+001,-2.86939E-001,-1.46003E-001,1.19265E+001,1.46895E-002,4.76369E-001,0,1.78627E+002,-5.90028E+000,9.98483E-001,1.48437E+002,-3.27381E+001,9.97024E-001,2.06298E-001,-8.50377E-002,-7.56916E-004,2.06300E-001,-8.50396E-002,-1.48858E-001,2.07358E-001,1.22902E+000,-1.65861E-002,0.00000E+000,1.13346E-002,9.20694E-001,0.00000E+000,-5.89535E-003,-7.05281E-002,1.00000E+000,32
1219,1297,3.06878E+001,-1.80319E+000,3.40993E-002,1.19399E+001,-6.62982E-002,3.90449E-002,1.19401E+001,1.43784E-002,4.12895E-001,0,1.78160E+002,-2.65180E+000,9.98217E-001,1.47375E+002,-3.02347E+001,9.96249E-001,2.03171E-001,-8.50410E-002,-8.62555E-004,2.03174E-001,-8.50435E-002,-1.71472E-001,2.04070E-001,1.22520E+000,-1.67115E-002,0.00000E+000,1.13953E-002,9.20696E-001,0.00000E+000,-7.81615E-003,-7.05910E-002,1.00000E+000,32
1219,1307,3.06885E+001,-1.21765E+000,-3.35174E-002,1.19288E+001,-1.28894E-001,-6.51822E-003,1.19295E+001,1.83550E-002,4.26169E-001,0,1.78195E+002,-3.56914E+000,9.98243E-001,1.47336E+002,-3.09751E+001,9.95621E-001,2.03951E-001,-8.50404E-002,-8.41872E-004,2.03953E-001,-8.50429E-002,-1.66909E-001,2.04888E-001,1.22615E+000,-1.66944E-002,0.00000E+000,1.13802E-002,9.20696E-001,0.00000E+000,-7.33807E-003,-7.05825E-002,1.00000E+000,32
629,1347,-1.62787E+001,4.65526E-001,4.45712E-002,3.38103E+000,-6.81827E-001,6.49064E-002,3.44971E+000,1.65176E-002,6.60486E-001,0,5.27665E+001,-1.13159E+001,9.96482E-001,1.08142E+001,-5.12048E+001,9.95972E-001,1.74390E-001,-7.58968E-002,-7.58534E-004,1.74392E-001,-7.58991E-002,-1.73642E-001,1.74879E-001,1.19045E+000,1.40672E-002,0.00000E+000,-1.21509E-002,9.29187E-001,0.00000E+000,-2.94969E-003,-7.13528E-002,1.00000E+000,32
629,1357,-1.62494E+001,1.06753E+000,5.89578E-002,3.39218E+000,-7.24082E-001,3.44040E-002,3.46877E+000,1.39231E-002,6.58827E-001,0,5.30212E+001,-1.19304E+001,9.96949E-001,1.14472E+001,-5.19876E+001,9.96737E-001,1.71894E-001,-7.59039E-002,-1.00890E-003,1.71898E-001,-7.59080E-002,-2.33274E-001,1.72288E-001,1.18748E+000,1.39848E-002,0.00000E+000,-1.25259E-002,9.29176E-001,0.00000E+000,-3.80731E-003,-7.13766E-002,1.00000E+000,32
629,1327,-1.63061E+001,-7.15059E-001,1.48110E-001,3.37175E+000,-5.88765E-001,1.52154E-001,3.42615E+000,1.28017E-002,6.33315E-001,0,5.23713E+001,-1.00139E+001,9.97818E-001,1.04037E+001,-4.95830E+001,9.97246E-001,1.79335E-001,-7.58952E-002,-2.94561E-004,1.79336E-001,-7.58955E-002,-6.61249E-002,1.80039E-001,1.19634E+000,1.41496E-002,0.00000E+000,-1.14045E-002,9.29197E-001,0.00000E+000,-1.24272E-003,-7.13289E-002,1.00000E+000,32
629,1337,-1.62922E+001,-1.27058E-001,7.97022E-002,3.37903E+000,-6.36245E-001,1.06349E-001,3.44005E+000,1.52816E-002,6.75892E-001,0,5.26181E+001,-1.06778E+001,9.97471E-001,1.05639E+001,-5.03784E+001,9.96924E-001,1.76867E-001,-7.58943E-002,-5.21817E-004,1.76868E-001,-7.58954E-002,-1.18285E-001,1.77459E-001,1.19339E+000,1.41196E-002,0.00000E+000,-1.17776E-002,9.29193E-001,0.00000E+000,-2.09599E-003,-7.13376E-002,1.00000E+000,32
1229,1317,3.15175E+001,-6.07154E-001,-1.07479E-001,1.20756E+001,-1.75356E-001,-7.62948E-002,1.20771E+001,2.08909E-002,4.67931E-001,0,1.80522E+002,-4.22508E+000,9.98089E-001,1.50258E+002,-3.11998E+001,9.96698E-001,2.04330E-001,-8.46041E-002,-1.50588E-004,2.04330E-001,-8.46042E-002,-2.98617E-002,2.05334E-001,1.22663E+000,-1.52099E-002,0.00000E+000,1.14749E-002,9.21042E-001,0.00000E+000,-6.09548E-003,-6.97632E-002,1.00000E+000,32
1229,1327,3.15367E+001,-1.31342E-002,-1.18665E-001,1.20715E+001,-2.35781E-001,-1.09307E-001,1.20743E+001,1.30319E-002,4.92009E-001,0,1.80587E+002,-5.14805E+000,9.98489E-001,1.50578E+002,-3.19238E+001,9.97584E-001,2.05023E-001,-8.46002E-002,-9.37566E-005,2.05023E-001,-8.46002E-002,-1.85477E-002,2.06064E-001,1.22747E+000,-1.51798E-002,0.00000E+000,1.15120E-002,9.21044E-001,0.00000E+000,-5.49497E-003,-6.97418E-002,1.00000E+000,32
1229,1337,3.15748E+001,6.01243E-001,-9.99470E-002,1.20762E+001,-2.79228E-001,-1.50930E-001,1.20804E+001,1.39266E-002,4.43281E-001,0,1.80796E+002,-5.79570E+000,9.97887E-001,1.51232E+002,-3.24344E+001,9.96738E-001,2.05717E-001,-8.45950E-002,-3.17134E-005,2.05717E-001,-8.45950E-002,-6.25894E-003,2.06795E-001,1.22832E+000,-1.51368E-002,0.00000E+000,1.15491E-002,9.21046E-001,0.00000E+000,-4.89341E-003,-6.97114E-002,1.00000E+000,32
629,1317,-1.63197E+001,-1.29297E+000,2.44769E-001,3.36019E+000,-5.38209E-001,1.99835E-001,3.40889E+000,1.42363E-002,6.99187E-001,0,5.20486E+001,-9.30961E+000,9.98117E-001,1.03298E+001,-4.86384E+001,9.97289E-001,1.81778E-001,-7.58992E-002,-7.75864E-005,1.81778E-001,-7.58993E-002,-1.72517E-002,1.82600E-001,1.19927E+000,1.41589E-002,0.00000E+000,-1.10342E-002,9.29198E-001,0.00000E+000,-3.95948E-004,-7.13262E-002,1.00000E+000,32
1229,1297,3.15094E+001,-1.78690E+000,3.28126E-002,1.20945E+001,-5.74018E-002,3.27564E-002,1.20947E+001,1.65147E-002,4.71252E-001,0,1.80336E+002,-2.53840E+000,9.97159E-001,1.50236E+002,-2.98537E+001,9.94385E-001,2.02948E-001,-8.46095E-002,-2.53721E-004,2.02948E-001,-8.46097E-002,-5.05540E-002,2.03880E-001,1.22494E+000,-1.52448E-002,0.00000E+000,1.14012E-002,9.21041E-001,0.00000E+000,-7.29026E-003,-6.97879E-002,1.00000E+000,32
1229,1307,3.15210E+001,-1.19368E+000,-3.29185E-002,1.20957E+001,-1.11242E-001,-5.62277E-003,1.20962E+001,2.41044E-002,4.46355E-001,0,1.80521E+002,-3.32947E+000,9.96657E-001,1.50371E+002,-3.04949E+001,9.95088E-001,2.03638E-001,-8.46072E-002,-2.03810E-004,2.03638E-001,-8.46073E-002,-4.05122E-002,2.04606E-001,1.22578E+000,-1.52313E-002,0.00000E+000,1.14380E-002,9.21041E-001,0.00000E+000,-6.69388E-003,-6.97783E-002,1.00000E+000,32
619,1327,-1.70736E+001,-7.15629E-001,1.48656E-001,3.24388E+000,-5.83803E-001,1.53691E-001,3.29957E+000,1.04969E-002,6.28377E-001,0,5.04064E+001,-9.92257E+000,9.97802E-001,8.68243E+000,-4.97031E+001,9.97919E-001,1.77853E-001,-7.52354E-002,-5.58995E-004,1.77854E-001,-7.52367E-002,-1.26548E-001,1.78555E-001,1.19453E+000,1.74618E-002,0.00000E+000,-1.44731E-002,9.29754E-001,0.00000E+000,-1.48984E-003,-7.11295E-002,1.00000E+000,32
619,1337,-1.70556E+001,-1.26672E-001,8.39967E-002,3.25461E+000,-6.30719E-001,1.07028E-001,3.31689E+000,1.29996E-002,6.82111E-001,0,5.07077E+001,-1.05824E+001,9.96218E-001,8.91690E+000,-5.04877E+001,9.96091E-001,1.75254E-001,-7.52344E-002,-6.83245E-004,1.75256E-001,-7.52363E-002,-1.56281E-001,1.75839E-001,1.19143E+000,1.74271E-002,0.00000E+000,-1.46658E-002,9.29752E-001,0.00000E+000,-2.22164E-003,-7.11377E-002,1.00000E+000,32
619,1347,-1.70359E+001,4.69426E-001,4.34170E-002,3.26410E+000,-6.71589E-001,6.73533E-002,3.33316E+000,1.56594E-002,6.71169E-001,0,5.09668E+001,-1.11528E+001,9.95967E-001,9.24696E+000,-5.12472E+001,9.95480E-001,1.72650E-001,-7.52345E-002,-8.13089E-004,1.72653E-001,-7.52371E-002,-1.87934E-001,1.73127E-001,1.18833E+000,1.73788E-002,0.00000E+000,-1.48584E-002,9.29749E-001,0.00000E+000,-2.95301E-003,-7.11491E-002,1.00000E+000,32
619,1357,-1.70077E+001,1.07119E+000,4.91974E-002,3.27531E+000,-7.12929E-001,3.39502E-002,3.35217E+000,1.40142E-002,6.68494E-001,0,5.12306E+001,-1.17471E+001,9.97539E-001,9.84059E+000,-5.20174E+001,9.97319E-001,1.70027E-001,-7.52372E-002,-9.56935E-004,1.70031E-001,-7.52410E-002,-2.23544E-001,1.70405E-001,1.18522E+000,1.72983E-002,0.00000E+000,-1.50519E-002,9.29744E-001,0.00000E+000,-3.68750E-003,-7.11681E-002,1.00000E+000,32
619,1317,-1.70837E+001,-1.28912E+000,2.48415E-001,3.23593E+000,-5.27386E-001,2.04976E-001,3.28503E+000,1.77171E-002,6.74668E-001,0,5.01296E+001,-9.15004E+000,9.97177E-001,8.67335E+000,-4.87045E+001,9.96502E-001,1.80430E-001,-7.52385E-002,-4.45516E-004,1.80431E-001,-7.52392E-002,-9.98407E-002,1.81257E-001,1.19761E+000,1.74718E-002,0.00000E+000,-1.42813E-002,9.29755E-001,0.00000E+000,-7.61906E-004,-7.11271E-002,1.00000E+000,32
1239,1307,3.23285E+001,-1.18508E+000,-5.51385E-002,1.22380E+001,-1.07360E-001,-2.46077E-002,1.22385E+001,2.48480E-002,4.44410E-001,0,1.82570E+002,-3.26213E+000,9.96312E-001,1.52992E+002,-3.02187E+001,9.94414E-001,2.02980E-001,-8.38425E-002,9.51418E-005,2.02980E-001,-8.38426E-002,1.90056E-002,2.04000E-001,1.22499E+000,-1.41465E-002,0.00000E+000,1.11866E-002,9.21708E-001,0.00000E+000,-6.54857E-003,-6.91361E-002,1.00000E+000,32
1239,1317,3.23386E+001,-5.83737E-001,-1.19718E-001,1.22317E+001,-1.55839E-001,-8.39977E-002,1.22330E+001,2.43089E-002,4.38974E-001,0,1.82723E+002,-3.94554E+000,9.96997E-001,1.53105E+002,-3.07248E+001,9.95559E-001,2.03759E-001,-8.38323E-002,2.46310E-004,2.03759E-001,-8.38326E-002,4.90714E-002,2.04822E-001,1.22593E+000,-1.41228E-002,0.00000E+000,1.13753E-002,9.21713E-001,0.00000E+000,-5.48933E-003,-6.91096E-002,1.00000E+000,32
1239,1327,3.23609E+001,9.20083E-003,-1.08827E-001,1.22258E+001,-2.22281E-001,-1.12259E-001,1.22284E+001,1.82356E-002,5.10819E-001,0,1.82738E+002,-4.96088E+000,9.97576E-001,1.53497E+002,-3.14884E+001,9.96542E-001,2.04544E-001,-8.38171E-002,4.05757E-004,2.04545E-001,-8.38177E-002,8.06213E-002,2.05652E-001,1.22689E+000,-1.40819E-002,0.00000E+000,1.15659E-002,9.21721E-001,0.00000E+000,-4.41891E-003,-6.90640E-002,1.00000E+000,32
1239,1337,3.23849E+001,6.20941E-001,-9.85821E-002,1.22200E+001,-2.65622E-001,-1.48461E-001,1.22238E+001,1.54941E-002,4.35092E-001,0,1.82774E+002,-5.61959E+000,9.96890E-001,1.53918E+002,-3.20350E+001,9.94751E-001,2.05322E-001,-8.38011E-002,5.65072E-004,2.05324E-001,-8.38023E-002,1.11980E-001,2.06475E-001,1.22785E+000,-1.40385E-002,0.00000E+000,1.17551E-002,9.21729E-001,0.00000E+000,-3.35622E-003,-6.90155E-002,1.00000E+000,32
1239,1297,3.23258E+001,-1.77480E+000,2.94711E-002,1.22446E+001,-5.03813E-002,2.86206E-002,1.22448E+001,1.55699E-002,4.81759E-001,0,1.82434E+002,-2.46070E+000,9.97169E-001,1.53018E+002,-2.95582E+001,9.95268E-001,2.02201E-001,-8.38497E-002,-5.17372E-005,2.02201E-001,-8.38498E-002,-1.03629E-002,2.03180E-001,1.22404E+000,-1.41602E-002,0.00000E+000,1.09985E-002,9.21705E-001,0.00000E+000,-7.60532E-003,-6.91514E-002,1.00000E+000,32
609,1347,-1.77937E+001,4.67840E-001,4.80354E-002,3.14527E+000,-6.68070E-001,7.01596E-002,3.21620E+000,1.95966E-002,6.98714E-001,0,4.91352E+001,-1.10972E+001,9.95610E-001,7.69136E+000,-5.13784E+001,9.95314E-001,1.70995E-001,-7.37444E-002,-1.07217E-003,1.71000E-001,-7.37491E-002,-2.50998E-001,1.71537E-001,1.18632E+000,2.04736E-002,0.00000E+000,-1.78314E-002,9.31011E-001,0.00000E+000,-2.62076E-003,-7.00301E-002,1.00000E+000,32
609,1357,-1.77673E+001,1.07624E+000,4.51178E-002,3.15564E+000,-7.01663E-001,3.34129E-002,3.23288E+000,1.52976E-002,6.84332E-001,0,4.93933E+001,-1.15579E+001,9.97366E-001,8.23421E+000,-5.20357E+001,9.97057E-001,1.68308E-001,-7.37454E-002,-1.16478E-003,1.68314E-001,-7.37510E-002,-2.75703E-001,1.68742E-001,1.18314E+000,2.03966E-002,0.00000E+000,-1.79308E-002,9.31008E-001,0.00000E+000,-3.49072E-003,-7.00511E-002,1.00000E+000,32
609,1317,-1.78532E+001,-1.29341E+000,2.45134E-001,3.10516E+000,-5.26104E-001,1.99889E-001,3.15575E+000,1.73706E-002,6.98097E-001,0,4.81366E+001,-9.12647E+000,9.97738E-001,6.91593E+000,-4.88579E+001,9.96545E-001,1.78973E-001,-7.37485E-002,-8.52313E-004,1.78976E-001,-7.37514E-002,-1.93229E-001,1.79896E-001,1.19581E+000,2.05676E-002,0.00000E+000,-1.75342E-002,9.31013E-001,0.00000E+000,-2.16696E-005,-7.00043E-002,1.00000E+000,32
609,1327,-1.78380E+001,-7.22038E-001,1.47062E-001,3.11875E+000,-5.85696E-001,1.53185E-001,3.17696E+000,1.24211E-002,6.75848E-001,0,4.84890E+001,-9.94526E+000,9.97974E-001,7.00688E+000,-4.98820E+001,9.97580E-001,1.76326E-001,-7.37459E-002,-9.15821E-004,1.76329E-001,-7.37492E-002,-2.09827E-001,1.77113E-001,1.19265E+000,2.05597E-002,0.00000E+000,-1.76331E-002,9.31013E-001,0.00000E+000,-8.86802E-004,-7.00065E-002,1.00000E+000,32
609,1337,-1.78164E+001,-1.25698E-001,8.60750E-002,3.13307E+000,-6.23530E-001,1.09722E-001,3.19640E+000,1.59584E-002,6.62279E-001,0,4.88343E+001,-1.04601E+001,9.96081E-001,7.30829E+000,-5.05961E+001,9.95847E-001,1.73669E-001,-7.37447E-002,-9.90651E-004,1.73673E-001,-7.37487E-002,-2.29409E-001,1.74329E-001,1.18949E+000,2.05245E-002,0.00000E+000,-1.77321E-002,9.31012E-001,0.00000E+000,-1.75226E-003,-7.00161E-002,1.00000E+000,32
1249,1297,3.31465E+001,-1.75616E+000,3.40902E-002,1.23971E+001,-3.88219E-002,2.67713E-002,1.23971E+001,1.78117E-002,5.00861E-001,0,1.84547E+002,-2.30533E+000,9.97422E-001,1.55881E+002,-2.91735E+001,9.95976E-001,2.01052E-001,-8.29951E-002,1.70239E-004,2.01052E-001,-8.29952E-002,3.43394E-002,2.02068E-001,1.22266E+000,-1.25375E-002,0.00000E+000,1.02493E-002,9.22476E-001,0.00000E+000,-8.17973E-003,-6.87380E-002,1.00000E+000,32
1249,1307,3.31422E+001,-1.17246E+000,-6.01913E-002,1.23858E+001,-1.00159E-001,-2.66838E-002,1.23863E+001,2.21619E-002,4.62135E-001,0,1.84624E+002,-3.18091E+000,9.97393E-001,1.55734E+002,-2.99068E+001,9.95264E-001,2.02049E-001,-8.29803E-002,5.25474E-004,2.02050E-001,-8.29812E-002,1.05629E-001,2.03122E-001,1.22387E+000,-1.25245E-002,0.00000E+000,1.07896E-002,9.22482E-001,0.00000E+000,-6.54310E-003,-6.87204E-002,1.00000E+000,32
1249,1317,3.31494E+001,-5.77932E-001,-1.14310E-001,1.23776E+001,-1.54764E-001,-7.17765E-002,1.23788E+001,2.16329E-002,4.26868E-001,0,1.84693E+002,-3.97989E+000,9.95511E-001,1.55814E+002,-3.05553E+001,9.93717E-001,2.03046E-001,-8.29562E-002,8.87978E-004,2.03049E-001,-8.29589E-002,1.77889E-001,2.04177E-001,1.22508E+000,-1.24958E-002,0.00000E+000,1.13316E-002,9.22494E-001,0.00000E+000,-4.90119E-003,-6.86816E-002,1.00000E+000,32
1249,1327,3.31656E+001,3.19381E-002,-1.28406E-001,1.23682E+001,-2.01142E-001,-1.14806E-001,1.23704E+001,2.05742E-002,4.74697E-001,0,1.84715E+002,-4.67458E+000,9.95674E-001,1.56081E+002,-3.10118E+001,9.94872E-001,2.04046E-001,-8.29210E-002,1.26035E-003,2.04052E-001,-8.29265E-002,2.51634E-001,2.05240E-001,1.22630E+000,-1.24483E-002,0.00000E+000,1.18776E-002,9.22516E-001,0.00000E+000,-3.24739E-003,-6.86172E-002,1.00000E+000,32
1249,1337,3.31929E+001,6.43753E-001,-1.08438E-001,1.23627E+001,-2.48390E-001,-1.51457E-001,1.23661E+001,1.62340E-002,4.42499E-001,0,1.84755E+002,-5.37928E+000,9.97651E-001,1.56562E+002,-3.15550E+001,9.97210E-001,2.05044E-001,-8.28778E-002,1.63843E-003,2.05053E-001,-8.28872E-002,3.26029E-001,2.06303E-001,1.22752E+000,-1.23872E-002,0.00000E+000,1.24244E-002,9.22543E-001,0.00000E+000,-1.59091E-003,-6.85343E-002,1.00000E+000,32
1259,1327,3.39780E+001,4.47450E-002,-1.34403E-001,1.25142E+001,-1.92962E-001,-1.17328E-001,1.25162E+001,1.60571E-002,4.48129E-001,0,1.86741E+002,-4.57538E+000,9.98002E-001,1.58805E+002,-3.07141E+001,9.97688E-001,2.03814E-001,-8.24300E-002,1.96790E-003,2.03827E-001,-8.24436E-002,3.93879E-001,2.05063E-001,1.22602E+000,-1.15655E-002,0.00000E+000,1.24276E-002,9.22934E-001,0.00000E+000,-1.39388E-003,-6.81678E-002,1.00000E+000,32
1259,1337,3.40081E+001,6.54777E-001,-1.12408E-001,1.25108E+001,-2.42774E-001,-1.53589E-001,1.25141E+001,1.49665E-002,4.24293E-001,0,1.86812E+002,-5.32055E+000,9.98648E-001,1.59329E+002,-3.12834E+001,9.98614E-001,2.04884E-001,-8.23690E-002,2.48515E-003,2.04906E-001,-8.23905E-002,4.95641E-001,2.06211E-001,1.22734E+000,-1.14982E-002,0.00000E+000,1.31887E-002,9.22973E-001,0.00000E+000,9.42677E-004,-6.80485E-002,1.00000E+000,32
599,1347,-1.85428E+001,4.80350E-001,5.90032E-002,3.03420E+000,-6.50430E-001,7.63318E-002,3.10407E+000,1.93939E-002,7.12091E-001,0,4.74094E+001,-1.08292E+001,9.97285E-001,6.29529E+000,-5.13129E+001,9.97572E-001,1.70136E-001,-7.37155E-002,-8.15916E-004,1.70139E-001,-7.37182E-002,-1.91706E-001,1.70643E-001,1.18525E+000,2.28639E-002,0.00000E+000,-1.92581E-002,9.30909E-001,0.00000E+000,-2.31653E-003,-6.84791E-002,1.00000E+000,32
599,1357,-1.85122E+001,1.07496E+000,5.39453E-002,3.04946E+000,-6.97485E-001,4.02396E-002,3.12846E+000,1.27291E-002,7.00252E-001,0,4.77453E+001,-1.14996E+001,9.97846E-001,6.89487E+000,-5.21774E+001,9.97769E-001,1.67624E-001,-7.37140E-002,-6.02587E-004,1.67625E-001,-7.37155E-002,-1.43059E-001,1.68030E-001,1.18228E+000,2.27949E-002,0.00000E+000,-1.87914E-002,9.30920E-001,0.00000E+000,-3.21586E-003,-6.85000E-002,1.00000E+000,32
1259,1287,3.39641E+001,-2.32963E+000,1.19722E-001,1.25515E+001,2.78924E-002,5.95630E-002,1.25517E+001,1.81743E-002,4.35886E-001,0,1.86524E+002,-1.30896E+000,9.96488E-001,1.58764E+002,-2.82211E+001,9.92808E-001,1.99500E-001,-8.25467E-002,-2.10359E-005,1.99500E-001,-8.25467E-002,-4.27329E-003,2.00487E-001,1.22080E+000,-1.16682E-002,0.00000E+000,9.41041E-003,9.22875E-001,0.00000E+000,-1.06566E-002,-6.83499E-002,1.00000E+000,32
1259,1297,3.39565E+001,-1.74669E+000,2.61253E-003,1.25425E+001,-3.30407E-002,4.46331E-003,1.25425E+001,1.64188E-002,4.59601E-001,0,1.86651E+002,-2.18306E+000,9.96910E-001,1.58540E+002,-2.88856E+001,9.94276E-001,2.00586E-001,-8.25351E-002,4.65834E-004,2.00586E-001,-8.25359E-002,9.42715E-002,2.01632E-001,1.22210E+000,-1.16653E-002,0.00000E+000,1.01623E-002,9.22877E-001,0.00000E+000,-8.34834E-003,-6.83449E-002,1.00000E+000,32
1259,1307,3.39558E+001,-1.15644E+000,-7.83619E-002,1.25335E+001,-8.95084E-002,-4.02944E-002,1.25339E+001,1.63609E-002,4.50440E-001,0,1.86720E+002,-3.00566E+000,9.97407E-001,1.58465E+002,-2.95285E+001,9.95847E-001,2.01666E-001,-8.25129E-002,9.58922E-004,2.01669E-001,-8.25161E-002,1.93334E-001,2.02775E-001,1.22340E+000,-1.16487E-002,0.00000E+000,1.09155E-002,9.22886E-001,0.00000E+000,-6.03610E-003,-6.83154E-002,1.00000E+000,32
599,1327,-1.85978E+001,-7.02398E-001,1.57794E-001,2.99636E+000,-5.61977E-001,1.56746E-001,3.05264E+000,1.38757E-002,6.78320E-001,0,4.65932E+001,-9.56477E+000,9.98059E-001,5.44795E+000,-4.97091E+001,9.97241E-001,1.75118E-001,-7.37094E-002,-1.26552E-003,1.75125E-001,-7.37158E-002,-2.91392E-001,1.75853E-001,1.19117E+000,2.29414E-002,0.00000E+000,-2.01877E-002,9.30897E-001,0.00000E+000,-5.24798E-004,-6.84557E-002,1.00000E+000,32
599,1337,-1.85742E+001,-1.16367E-001,8.72833E-002,3.01422E+000,-6.08576E-001,1.12389E-001,3.07710E+000,1.31651E-002,6.76382E-001,0,4.69985E+001,-1.02227E+001,9.97601E-001,5.74971E+000,-5.05571E+001,9.97633E-001,1.72636E-001,-7.37143E-002,-1.03602E-003,1.72641E-001,-7.37187E-002,-2.40951E-001,1.73253E-001,1.18822E+000,2.29155E-002,0.00000E+000,-1.97240E-002,9.30901E-001,0.00000E+000,-1.41862E-003,-6.84635E-002,1.00000E+000,32
1259,1317,3.39628E+001,-5.59351E-001,-1.20604E-001,1.25246E+001,-1.42537E-001,-7.46514E-002,1.25257E+001,1.67418E-002,4.60790E-001,0,1.86733E+002,-3.81747E+000,9.97876E-001,1.58554E+002,-3.01385E+001,9.96741E-001,2.02742E-001,-8.24790E-002,1.45895E-003,2.02749E-001,-8.24864E-002,2.93067E-001,2.03919E-001,1.22471E+000,-1.16169E-002,0.00000E+000,1.16704E-002,9.22905E-001,0.00000E+000,-3.71846E-003,-6.82590E-002,1.00000E+000,32
599,1317,-1.86222E+001,-1.28844E+000,2.50707E-001,2.97335E+000,-5.18030E-001,1.97262E-001,3.02457E+000,1.74541E-002,6.65067E-001,0,4.61154E+001,-8.94885E+000,9.97780E-001,5.19916E+000,-4.89162E+001,9.97475E-001,1.77591E-001,-7.37014E-002,-1.50281E-003,1.77600E-001,-7.37104E-002,-3.42631E-001,1.78453E-001,1.19412E+000,2.29478E-002,0.00000E+000,-2.06513E-002,9.30896E-001,0.00000E+000,3.68614E-004,-6.84537E-002,1.00000E+000,32
589,1347,-1.93019E+001,4.93197E-001,6.36139E-002,2.91348E+000,-6.31964E-001,8.06709E-002,2.98233E+000,1.38423E-002,6.94975E-001,0,4.55361E+001,-1.05247E+001,9.97767E-001,4.73399E+000,-5.12455E+001,9.97678E-001,1.69367E-001,-7.33479E-002,-1.11190E-004,1.69367E-001,-7.33479E-002,-2.62477E-002,1.69872E-001,1.18427E+000,2.62387E-002,0.00000E+000,-2.06083E-002,9.31134E-001,0.00000E+000,-2.22391E-003,-6.70902E-002,1.00000E+000,32
589,1357,-1.92663E+001,1.08652E+000,6.09073E-002,2.93334E+000,-6.81320E-001,4.36115E-002,3.01174E+000,1.11680E-002,6.97166E-001,0,4.59464E+001,-1.12252E+001,9.98015E-001,5.41782E+000,-5.21293E+001,9.98350E-001,1.66807E-001,-7.33471E-002,1.09700E-004,1.66807E-001,-7.33472E-002,2.61722E-002,1.67211E-001,1.18125E+000,2.61667E-002,0.00000E+000,-2.01456E-002,9.31145E-001,0.00000E+000,-2.93856E-003,-6.71072E-002,1.00000E+000,32
589,1337,-1.93286E+001,-1.09560E-001,9.50226E-002,2.89720E+000,-5.96862E-001,1.14125E-001,2.96024E+000,9.75077E-003,6.76438E-001,0,4.51914E+001,-1.00328E+001,9.98757E-001,4.26786E+000,-5.05778E+001,9.98736E-001,1.71913E-001,-7.33449E-002,-3.41396E-004,1.71913E-001,-7.33454E-002,-7.97550E-002,1.72529E-001,1.18729E+000,2.62862E-002,0.00000E+000,-2.10697E-002,9.31127E-001,0.00000E+000,-1.51140E-003,-6.70790E-002,1.00000E+000,32
589,1327,-1.93445E+001,-6.80226E-001,1.69715E-001,2.88711E+000,-5.35707E-001,1.64002E-001,2.94096E+000,1.79105E-002,7.38304E-001,0,4.48898E+001,-9.17817E+000,9.98791E-001,4.09834E+000,-4.94697E+001,9.97669E-001,1.74436E-001,-7.33389E-002,-5.78524E-004,1.74437E-001,-7.33403E-002,-1.33778E-001,1.75172E-001,1.19029E+000,2.63131E-002,0.00000E+000,-2.15284E-002,9.31123E-001,0.00000E+000,-8.02932E-004,-6.70726E-002,1.00000E+000,32
1269,1327,3.47996E+001,6.15965E-002,-1.32157E-001,1.26683E+001,-1.82843E-001,-1.13145E-001,1.26702E+001,1.42450E-002,4.33302E-001,0,1.88853E+002,-4.43990E+000,9.98334E-001,1.61685E+002,-3.03650E+001,9.97687E-001,2.03651E-001,-8.16770E-002,2.58799E-003,2.03674E-001,-8.17005E-002,5.19629E-001,2.04997E-001,1.22583E+000,-1.05087E-002,0.00000E+000,1.27545E-002,9.23480E-001,0.00000E+000,-6.06023E-004,-6.57626E-002,1.00000E+000,32
1269,1337,3.48360E+001,6.62481E-001,-1.10232E-001,1.26701E+001,-2.41859E-001,-1.52790E-001,1.26734E+001,1.39332E-002,4.29294E-001,0,1.89018E+002,-5.33934E+000,9.98227E-001,1.62305E+002,-3.10645E+001,9.96903E-001,2.04834E-001,-8.16000E-002,3.22252E-003,2.04870E-001,-8.16363E-002,6.44496E-001,2.06273E-001,1.22729E+000,-1.04318E-002,0.00000E+000,1.37257E-002,9.23531E-001,0.00000E+000,1.86066E-003,-6.56325E-002,1.00000E+000,32
589,1317,-1.93747E+001,-1.26769E+000,2.66216E-001,2.85804E+000,-4.93177E-001,2.06376E-001,2.90761E+000,1.44413E-002,6.53270E-001,0,4.43136E+001,-8.55835E+000,9.96981E-001,3.77340E+000,-4.87406E+001,9.95914E-001,1.76955E-001,-7.33296E-002,-8.24820E-004,1.76958E-001,-7.33323E-002,-1.88817E-001,1.77820E-001,1.19329E+000,2.63181E-002,0.00000E+000,-2.19877E-002,9.31122E-001,0.00000E+000,-9.35685E-005,-6.70715E-002,1.00000E+000,32
1269,1317,3.47890E+001,-5.40826E-001,-1.17749E-001,1.26814E+001,-1.30651E-001,-7.81495E-002,1.26823E+001,1.45005E-002,4.30849E-001,0,1.88912E+002,-3.64657E+000,9.98142E-001,1.61510E+002,-2.97731E+001,9.97296E-001,2.02464E-001,-8.17331E-002,1.96489E-003,2.02478E-001,-8.17467E-002,3.96108E-001,2.03725E-001,1.22438E+000,-1.05612E-002,0.00000E+000,1.17870E-002,9.23445E-001,0.00000E+000,-3.06311E-003,-6.58513E-002,1.00000E+000,32
1269,1307,3.47794E+001,-1.13930E+000,-6.87224E-002,1.26877E+001,-7.92230E-002,-3.69845E-002,1.26881E+001,1.52937E-002,4.47203E-001,0,1.88832E+002,-2.87843E+000,9.97307E-001,1.61387E+002,-2.91876E+001,9.96213E-001,2.01274E-001,-8.17746E-002,1.35071E-003,2.01281E-001,-8.17810E-002,2.73407E-001,2.02455E-001,1.22293E+000,-1.05967E-002,0.00000E+000,1.08237E-002,9.23421E-001,0.00000E+000,-5.50962E-003,-6.59112E-002,1.00000E+000,32
1269,1297,3.47700E+001,-1.73527E+000,-4.65088E-003,1.26891E+001,-2.72304E-002,1.79076E-004,1.26892E+001,1.60736E-002,4.52208E-001,0,1.88689E+002,-2.09956E+000,9.96969E-001,1.61284E+002,-2.86023E+001,9.95652E-001,2.00078E-001,-8.18061E-002,7.41315E-004,2.00080E-001,-8.18080E-002,1.50678E-001,2.01184E-001,1.22149E+000,-1.06208E-002,0.00000E+000,9.86140E-003,9.23405E-001,0.00000E+000,-7.95365E-003,-6.59520E-002,1.00000E+000,32
1269,1287,3.47805E+001,-2.32265E+000,1.13734E-001,1.26988E+001,2.80226E-002,4.82339E-002,1.26990E+001,2.08206E-002,4.28342E-001,0,1.88600E+002,-1.29177E+000,9.97452E-001,1.61554E+002,-2.80110E+001,9.95122E-001,1.98877E-001,-8.18155E-002,1.44399E-004,1.98877E-001,-8.18155E-002,2.94752E-002,1.99916E-001,1.22004E+000,-1.06190E-002,0.00000E+000,8.90269E-003,9.23406E-001,0.00000E+000,-1.03885E-002,-6.59490E-002,1.00000E+000,32
579,1347,-2.00536E+001,4.99995E-001,6.97950E-002,2.79908E+000,-6.20414E-001,8.23469E-002,2.86819E+000,1.19482E-002,7.16686E-001,0,4.37675E+001,-1.03395E+001,9.97793E-001,3.29421E+000,-5.12541E+001,9.98069E-001,1.67932E-001,-7.27604E-002,6.64061E-004,1.67933E-001,-7.27623E-002,1.58076E-001,1.68431E-001,1.18250E+000,2.96985E-002,0.00000E+000,-2.18715E-002,9.31612E-001,0.00000E+000,-2.85997E-003,-6.64425E-002,1.00000E+000,32
579,1357,-2.00118E+001,1.10460E+000,7.48725E-002,2.82503E+000,-6.58814E-001,5.12044E-002,2.90129E+000,1.22207E-002,7.30225E-001,0,4.42541E+001,-1.08840E+001,9.98634E-001,4.10019E+000,-5.19773E+001,9.98825E-001,1.65160E-001,-7.27607E-002,9.47824E-004,1.65164E-001,-7.27645E-002,2.28249E-001,1.65553E-001,1.17923E+000,2.96204E-002,0.00000E+000,-2.12882E-002,9.31626E-001,0.00000E+000,-3.73833E-003,-6.64636E-002,1.00000E+000,32
579,1337,-2.00872E+001,-9.89538E-002,1.06704E-001,2.77576E+000,-5.81742E-001,1.21270E-001,2.83866E+000,1.19810E-002,6.94895E-001,0,4.32979E+001,-9.80098E+000,9.97377E-001,2.73910E+000,-5.05403E+001,9.97843E-001,1.70684E-001,-7.27552E-002,3.70075E-004,1.70684E-001,-7.27558E-002,8.71004E-002,1.71302E-001,1.18575E+000,2.97490E-002,0.00000E+000,-2.24527E-002,9.31603E-001,0.00000E+000,-1.98472E-003,-6.64290E-002,1.00000E+000,32
579,1327,-2.01152E+001,-6.73575E-001,1.66323E-001,2.75416E+000,-5.24753E-001,1.59783E-001,2.80826E+000,1.22574E-002,7.54815E-001,0,4.28491E+001,-8.97568E+000,9.98670E-001,2.34135E+000,-4.94613E+001,9.97754E-001,1.73411E-001,-7.27467E-002,7.04106E-005,1.73411E-001,-7.27467E-002,1.63888E-002,1.74158E-001,1.18899E+000,2.97805E-002,0.00000E+000,-2.30303E-002,9.31598E-001,0.00000E+000,-1.11482E-003,-6.64205E-002,1.00000E+000,32
579,1317,-2.01353E+001,-1.25204E+000,2.62741E-001,2.73538E+000,-4.74756E-001,2.03693E-001,2.78374E+000,1.79171E-002,7.28826E-001,0,4.24288E+001,-8.24975E+000,9.97045E-001,2.17272E+000,-4.85611E+001,9.95524E-001,1.76127E-001,-7.27337E-002,-2.39236E-004,1.76127E-001,-7.27340E-002,-5.50797E-002,1.77015E-001,1.19222E+000,2.97869E-002,0.00000E+000,-2.36077E-002,9.31596E-001,0.00000E+000,-2.45303E-004,-6.64188E-002,1.00000E+000,32
1279,1317,3.56018E+001,-5.33646E-001,-1.20506E-001,1.28276E+001,-1.27751E-001,-7.47764E-002,1.28284E+001,1.24002E-002,4.06901E-001,0,1.90910E+002,-3.63788E+000,9.97945E-001,1.64252E+002,-2.95708E+001,9.96381E-001,2.02002E-001,-8.06588E-002,2.39021E-003,2.02023E-001,-8.06790E-002,4.84453E-001,2.03382E-001,1.22382E+000,-9.34081E-003,0.00000E+000,1.16290E-002,9.24284E-001,0.00000E+000,-2.29194E-003,-6.32108E-002,1.00000E+000,32
1279,1327,3.56291E+001,7.58185E-002,-1.27936E-001,1.28297E+001,-1.75384E-001,-1.08232E-001,1.28313E+001,2.12685E-002,4.43943E-001,0,1.91063E+002,-4.36283E+000,9.96726E-001,1.64696E+002,-3.00478E+001,9.96590E-001,2.03366E-001,-8.05902E-002,3.12343E-003,2.03400E-001,-8.06245E-002,6.30135E-001,2.04851E-001,1.22550E+000,-9.27634E-003,0.00000E+000,1.27918E-002,9.24329E-001,0.00000E+000,3.12873E-004,-6.31104E-002,1.00000E+000,32
1279,1337,3.56625E+001,6.76298E-001,-1.05266E-001,1.28282E+001,-2.36359E-001,-1.46645E-001,1.28313E+001,1.67278E-002,4.51829E-001,0,1.91178E+002,-5.27993E+000,9.97674E-001,1.65267E+002,-3.07483E+001,9.97300E-001,2.04724E-001,-8.05004E-002,3.86761E-003,2.04776E-001,-8.05529E-002,7.76733E-001,2.06323E-001,1.22717E+000,-9.18778E-003,0.00000E+000,1.39583E-002,9.24391E-001,0.00000E+000,2.92569E-003,-6.29725E-002,1.00000E+000,32
1279,1307,3.55832E+001,-1.13127E+000,-7.89145E-002,1.28263E+001,-7.54527E-002,-3.65338E-002,1.28266E+001,1.39302E-002,4.54572E-001,0,1.90732E+002,-2.85073E+000,9.97787E-001,1.63982E+002,-2.89430E+001,9.95810E-001,2.00640E-001,-8.07092E-002,1.67020E-003,2.00650E-001,-8.07191E-002,3.40114E-001,2.01923E-001,1.22216E+000,-9.38479E-003,0.00000E+000,1.04754E-002,9.24254E-001,0.00000E+000,-4.87601E-003,-6.32792E-002,1.00000E+000,32
1279,1297,3.55837E+001,-1.71732E+000,4.54599E-003,1.28342E+001,-1.40393E-002,7.15330E-003,1.28342E+001,2.58068E-002,3.85858E-001,0,1.90645E+002,-1.92261E+000,9.96643E-001,1.64055E+002,-2.82821E+001,9.95487E-001,1.99268E-001,-8.07378E-002,9.59752E-004,1.99272E-001,-8.07411E-002,1.96384E-001,2.00463E-001,1.22050E+000,-9.40388E-003,0.00000E+000,9.32185E-003,9.24240E-001,0.00000E+000,-7.46001E-003,-6.33090E-002,1.00000E+000,32
1279,1287,3.55881E+001,-2.32675E+000,9.57642E-002,1.28418E+001,2.09282E-002,4.26156E-002,1.28419E+001,2.39068E-002,3.15180E-001,0,1.90595E+002,-1.36600E+000,9.97045E-001,1.64199E+002,-2.80018E+001,9.94683E-001,1.97892E-001,-8.07562E-002,2.55639E-004,1.97892E-001,-8.07564E-002,5.25646E-002,1.99003E-001,1.21885E+000,-9.41190E-003,0.00000E+000,8.17186E-003,9.24235E-001,0.00000E+000,-1.00360E-002,-6.33215E-002,1.00000E+000,32
569,1347,-2.08048E+001,5.18171E-001,7.99844E-002,2.68511E+000,-5.97581E-001,8.97070E-002,2.75227E+000,1.27696E-002,7.39603E-001,0,4.19860E+001,-9.98559E+000,9.97490E-001,1.88326E+000,-5.10964E+001,9.97318E-001,1.66996E-001,-7.20579E-002,1.32081E-003,1.67004E-001,-7.20652E-002,3.16554E-001,1.67525E-001,1.18130E+000,3.33040E-002,0.00000E+000,-2.34990E-002,9.32196E-001,0.00000E+000,-3.04651E-003,-6.59216E-002,1.00000E+000,32
569,1357,-2.07657E+001,1.11336E+000,7.27984E-002,2.70974E+000,-6.43046E-001,5.39633E-002,2.78552E+000,1.17212E-002,7.32623E-001,0,4.24664E+001,-1.06355E+001,9.98274E-001,2.61012E+000,-5.19500E+001,9.98058E-001,1.64056E-001,-7.20622E-002,1.74170E-003,1.64069E-001,-7.20750E-002,4.22605E-001,1.64472E-001,1.17784E+000,3.32287E-002,0.00000E+000,-2.26561E-002,9.32215E-001,0.00000E+000,-4.20415E-003,-6.59468E-002,1.00000E+000,32
569,1327,-2.08684E+001,-6.70802E-001,1.65029E-001,2.63901E+000,-5.16613E-001,1.61864E-001,2.69397E+000,1.91425E-002,7.54837E-001,0,4.10684E+001,-8.83269E+000,9.98781E-001,8.61502E-001,-4.95228E+001,9.98203E-001,1.72822E-001,-7.20344E-002,4.58767E-004,1.72823E-001,-7.20353E-002,1.07350E-001,1.73618E-001,1.18819E+000,3.33951E-002,0.00000E+000,-2.51784E-002,9.32174E-001,0.00000E+000,-7.40084E-004,-6.58911E-002,1.00000E+000,32
569,1337,-2.08390E+001,-7.83971E-002,1.11476E-001,2.66051E+000,-5.57523E-001,1.19464E-001,2.72092E+000,1.17077E-002,7.11447E-001,0,4.15202E+001,-9.39765E+000,9.97815E-001,1.30384E+000,-5.03354E+001,9.97850E-001,1.69920E-001,-7.20472E-002,8.90423E-004,1.69923E-001,-7.20505E-002,2.10841E-001,1.70576E-001,1.18475E+000,3.33536E-002,0.00000E+000,-2.43403E-002,9.32184E-001,0.00000E+000,-1.89109E-003,-6.59050E-002,1.00000E+000,32
1289,1327,3.64369E+001,8.07483E-002,-1.39704E-001,1.29716E+001,-1.74947E-001,-1.08484E-001,1.29733E+001,1.90877E-002,4.32532E-001,0,1.93015E+002,-4.37890E+000,9.96115E-001,1.67353E+002,-2.98537E+001,9.95253E-001,2.03099E-001,-7.91619E-002,3.67424E-003,2.03147E-001,-7.92097E-002,7.45661E-001,2.04782E-001,1.22519E+000,-7.64489E-003,0.00000E+000,1.25605E-002,9.25495E-001,0.00000E+000,1.31899E-003,-6.02629E-002,1.00000E+000,32
1289,1337,3.64748E+001,6.90831E-001,-1.11164E-001,1.29747E+001,-2.26762E-001,-1.40346E-001,1.29775E+001,1.81369E-002,4.44232E-001,0,1.93163E+002,-5.16932E+000,9.97438E-001,1.67998E+002,-3.04137E+001,9.96715E-001,2.04731E-001,-7.90628E-002,4.50934E-003,2.04803E-001,-7.91345E-002,9.10095E-001,2.06557E-001,1.22721E+000,-7.53823E-003,0.00000E+000,1.38802E-002,9.25565E-001,0.00000E+000,4.15564E-003,-6.01130E-002,1.00000E+000,32
569,1317,-2.08967E+001,-1.23987E+000,2.64901E-001,2.61049E+000,-4.57555E-001,1.99978E-001,2.65782E+000,2.05118E-002,7.13160E-001,0,4.05086E+001,-7.96136E+000,9.97278E-001,5.81322E-001,-4.84927E+001,9.95707E-001,1.75711E-001,-7.20112E-002,1.02520E-005,1.75711E-001,-7.20112E-002,2.37119E-003,1.76661E-001,1.19163E+000,3.33939E-002,0.00000E+000,-2.60159E-002,9.32174E-001,0.00000E+000,4.10043E-004,-6.58915E-002,1.00000E+000,32
1289,1317,3.64118E+001,-5.26662E-001,-1.20747E-001,1.29695E+001,-1.28854E-001,-7.24066E-002,1.29704E+001,1.92602E-002,4.92998E-001,0,1.92845E+002,-3.69122E+000,9.98001E-001,1.66957E+002,-2.93228E+001,9.95297E-001,2.01469E-001,-7.92314E-002,2.85918E-003,2.01498E-001,-7.92606E-002,5.83528E-001,2.03020E-001,1.22318E+000,-7.71526E-003,0.00000E+000,1.12518E-002,9.25449E-001,0.00000E+000,-1.49406E-003,-6.03617E-002,1.00000E+000,32
1289,1287,3.63971E+001,-2.30235E+000,8.67649E-002,1.29838E+001,3.96896E-002,3.96885E-002,1.29840E+001,2.45591E-002,3.92895E-001,0,1.92544E+002,-1.11853E+000,9.97165E-001,1.66878E+002,-2.74729E+001,9.94250E-001,1.96523E-001,-7.93384E-002,4.66873E-004,1.96524E-001,-7.93392E-002,9.69679E-002,1.97735E-001,1.21719E+000,-7.80445E-003,0.00000E+000,7.33839E-003,9.25391E-001,0.00000E+000,-9.90572E-003,-6.04870E-002,1.00000E+000,32
1289,1297,3.63936E+001,-1.70782E+000,5.12570E-003,1.29737E+001,-9.95586E-003,7.92878E-004,1.29737E+001,2.70053E-002,3.19205E-001,0,1.92574E+002,-1.85605E+000,9.97225E-001,1.66760E+002,-2.80760E+001,9.95424E-001,1.98175E-001,-7.93111E-002,1.25720E-003,1.98181E-001,-7.93168E-002,2.59580E-001,1.99492E-001,1.21918E+000,-7.78406E-003,0.00000E+000,8.63651E-003,9.25404E-001,0.00000E+000,-7.11548E-003,-6.04583E-002,1.00000E+000,32
1289,1307,3.64009E+001,-1.12292E+000,-7.85386E-002,1.29746E+001,-7.40767E-002,-3.86256E-002,1.29749E+001,1.65759E-002,4.63584E-001,0,1.92776E+002,-2.84372E+000,9.98845E-001,1.66808E+002,-2.87142E+001,9.96955E-001,1.99829E-001,-7.92834E-002,2.05275E-003,1.99844E-001,-7.92985E-002,4.21357E-001,2.01257E-001,1.22118E+000,-7.76445E-003,0.00000E+000,9.94456E-003,9.25417E-001,0.00000E+000,-4.30391E-003,-6.04308E-002,1.00000E+000,32
559,1327,-2.16111E+001,-6.61654E-001,1.61824E-001,2.53305E+000,-5.03720E-001,1.56422E-001,2.58738E+000,3.27788E-002,8.70095E-001,0,3.94469E+001,-8.64554E+000,9.98998E-001,-4.57638E-001,-4.94238E+001,9.98160E-001,1.72186E-001,-7.18225E-002,1.10804E-003,1.72191E-001,-7.18275E-002,2.60173E-001,1.72978E-001,1.18732E+000,3.72644E-002,0.00000E+000,-2.70293E-002,9.32255E-001,0.00000E+000,-3.90423E-004,-6.47884E-002,1.00000E+000,32
559,1337,-2.15907E+001,-6.57726E-002,1.07928E-001,2.54580E+000,-5.40001E-001,1.15175E-001,2.60499E+000,1.01047E-002,7.30843E-001,0,3.97572E+001,-9.10135E+000,9.99089E-001,-1.53175E-001,-5.02334E+001,9.98953E-001,1.69354E-001,-7.18341E-002,1.44079E-003,1.69363E-001,-7.18428E-002,3.42253E-001,1.70010E-001,1.18397E+000,3.72258E-002,0.00000E+000,-2.63717E-002,9.32262E-001,0.00000E+000,-1.80370E-003,-6.48046E-002,1.00000E+000,32
559,1347,-2.15618E+001,5.31077E-001,7.37284E-002,2.56527E+000,-5.78020E-001,8.20962E-002,2.63086E+000,1.50309E-002,6.92251E-001,0,4.01505E+001,-9.64032E+000,9.97695E-001,3.40463E-001,-5.10201E+001,9.97226E-001,1.66504E-001,-7.18440E-002,1.77086E-003,1.66517E-001,-7.18571E-002,4.25661E-001,1.67037E-001,1.18060E+000,3.71779E-002,0.00000E+000,-2.57124E-002,9.32272E-001,0.00000E+000,-3.22061E-003,-6.48249E-002,1.00000E+000,32
559,1357,-2.15190E+001,1.12632E+000,6.77851E-002,2.59441E+000,-6.22359E-001,5.13376E-002,2.66850E+000,1.32174E-002,6.93051E-001,0,4.06882E+001,-1.02931E+001,9.97689E-001,1.12914E+000,-5.18730E+001,9.97663E-001,1.63633E-001,-7.18498E-002,2.09362E-003,1.63652E-001,-7.18684E-002,5.09350E-001,1.64055E-001,1.17723E+000,3.71087E-002,0.00000E+000,-2.50508E-002,9.32285E-001,0.00000E+000,-4.64259E-003,-6.48540E-002,1.00000E+000,32
559,1317,-2.16476E+001,-1.21976E+000,2.77395E-001,2.49580E+000,-4.34318E-001,2.07503E-001,2.54179E+000,3.15013E-002,7.59616E-001,0,3.87147E+001,-7.60410E+000,9.98473E-001,-8.12613E-001,-4.82923E+001,9.97423E-001,1.75008E-001,-7.18030E-002,7.58175E-004,1.75011E-001,-7.18053E-002,1.76004E-001,1.75947E-001,1.19067E+000,3.72609E-002,0.00000E+000,-2.76871E-002,9.32255E-001,0.00000E+000,1.02336E-003,-6.47899E-002,1.00000E+000,32
1299,1327,3.72516E+001,9.60176E-002,-1.36959E-001,1.31159E+001,-1.67107E-001,-1.09191E-001,1.31174E+001,2.41605E-002,4.47104E-001,0,1.94988E+002,-4.28304E+000,9.96232E-001,1.70137E+002,-2.95173E+001,9.95067E-001,2.02957E-001,-7.75324E-002,4.22955E-003,2.03021E-001,-7.75961E-002,8.63712E-001,2.04890E-001,1.22503E+000,-5.30234E-003,0.00000E+000,1.18165E-002,9.26844E-001,0.00000E+000,2.15089E-003,-5.70297E-002,1.00000E+000,32
1299,1337,3.73052E+001,7.03240E-001,-1.04767E-001,1.31333E+001,-2.23442E-001,-1.41951E-001,1.31359E+001,2.24636E-002,4.74562E-001,0,1.95351E+002,-5.13955E+000,9.95799E-001,1.71030E+002,-3.01189E+001,9.94712E-001,2.04917E-001,-7.74221E-002,5.15362E-003,2.05011E-001,-7.75162E-002,1.04537E+000,2.07032E-001,1.22746E+000,-5.16876E-003,0.00000E+000,1.32815E-002,9.26924E-001,0.00000E+000,5.25351E-003,-5.68590E-002,1.00000E+000,32
1299,1287,3.72145E+001,-2.29344E+000,9.13314E-002,1.31295E+001,3.97769E-002,3.45549E-002,1.31296E+001,1.75593E-002,4.77913E-001,0,1.94555E+002,-1.14027E+000,9.97795E-001,1.69708E+002,-2.72094E+001,9.96101E-001,1.95071E-001,-7.77116E-002,7.08198E-004,1.95073E-001,-7.77135E-002,1.48750E-001,1.96411E-001,1.21544E+000,-5.48883E-003,0.00000E+000,6.03281E-003,9.26731E-001,0.00000E+000,-1.00979E-002,-5.72680E-002,1.00000E+000,32
1299,1297,3.72186E+001,-1.70542E+000,1.77308E-002,1.31284E+001,-1.61275E-002,9.07559E-003,1.31284E+001,1.84445E-002,4.83941E-001,0,1.94664E+002,-2.03821E+000,9.98544E-001,1.69717E+002,-2.78892E+001,9.96623E-001,1.97054E-001,-7.76883E-002,1.57407E-003,1.97063E-001,-7.76973E-002,3.28248E-001,1.98526E-001,1.21783E+000,-5.46953E-003,0.00000E+000,7.47137E-003,9.26743E-001,0.00000E+000,-7.05131E-003,-5.72434E-002,1.00000E+000,32
1299,1307,3.72422E+001,-1.10299E+000,-3.49696E-002,1.31413E+001,-6.32562E-002,-1.47658E-002,1.31415E+001,3.64790E-002,5.13268E-001,0,1.94962E+002,-2.77533E+000,9.97926E-001,1.70053E+002,-2.83760E+001,9.96247E-001,1.99036E-001,-7.76495E-002,2.45313E-003,1.99058E-001,-7.76712E-002,5.07939E-001,2.00652E-001,1.22023E+000,-5.43051E-003,0.00000E+000,8.91953E-003,9.26767E-001,0.00000E+000,-3.98439E-003,-5.71935E-002,1.00000E+000,32
1299,1317,3.72479E+001,-5.05631E-001,-1.00142E-001,1.31316E+001,-1.16834E-001,-6.89697E-002,1.31323E+001,3.06051E-002,5.03376E-001,0,1.95054E+002,-3.54245E+000,9.96527E-001,1.70097E+002,-2.89368E+001,9.94684E-001,2.01004E-001,-7.75966E-002,3.33889E-003,2.01044E-001,-7.76366E-002,6.86530E-001,2.02773E-001,1.22263E+000,-5.37360E-003,0.00000E+000,1.03680E-002,9.26801E-001,0.00000E+000,-9.16757E-004,-5.71208E-002,1.00000E+000,32
559,1307,-2.16788E+001,-1.79835E+000,3.87596E-001,2.46213E+000,-3.86543E-001,2.42167E-001,2.50403E+000,1.54586E-002,7.42258E-001,0,3.80855E+001,-6.91922E+000,9.97108E-001,-1.10772E+000,-4.74146E+001,9.96135E-001,1.77819E-001,-7.17818E-002,4.05215E-004,1.77820E-001,-7.17825E-002,9.30166E-002,1.78916E-001,1.19403E+000,3.72485E-002,0.00000E+000,-2.83449E-002,9.32258E-001,0.00000E+000,2.43690E-003,-6.47951E-002,1.00000E+000,32
549,1347,-2.23056E+001,5.48186E-001,7.43871E-002,2.45816E+000,-5.56542E-001,8.15523E-002,2.52169E+000,1.35307E-002,7.32005E-001,0,3.84930E+001,-9.29103E+000,9.97438E-001,-9.75722E-001,-5.08492E+001,9.97025E-001,1.66049E-001,-7.15270E-002,2.29512E-003,1.66071E-001,-7.15491E-002,5.53441E-001,1.66600E-001,1.17995E+000,4.08299E-002,0.00000E+000,-2.76349E-002,9.32430E-001,0.00000E+000,-3.14556E-003,-6.34100E-002,1.00000E+000,32
549,1357,-2.22633E+001,1.15232E+000,7.04655E-002,2.48609E+000,-5.92800E-001,4.75326E-002,2.55623E+000,1.46332E-002,7.15294E-001,0,3.90175E+001,-9.79657E+000,9.97538E-001,-1.85043E-001,-5.15813E+001,9.97357E-001,1.63298E-001,-7.15337E-002,2.60936E-003,1.63327E-001,-7.15626E-002,6.36543E-001,1.63743E-001,1.17672E+000,4.07606E-002,0.00000E+000,-2.69872E-002,9.32444E-001,0.00000E+000,-4.70528E-003,-6.34435E-002,1.00000E+000,32
549,1327,-2.23920E+001,-6.34118E-001,1.87770E-001,2.38696E+000,-4.71802E-001,1.70150E-001,2.43908E+000,2.53732E-002,8.31924E-001,0,3.71394E+001,-8.15133E+000,9.97786E-001,-2.25927E+000,-4.91870E+001,9.96270E-001,1.71493E-001,-7.15012E-002,1.64330E-003,1.71504E-001,-7.15123E-002,3.87452E-001,1.72290E-001,1.18638E+000,4.09030E-002,0.00000E+000,-2.89244E-002,9.32415E-001,0.00000E+000,-3.99726E-005,-6.33746E-002,1.00000E+000,32
549,1337,-2.23404E+001,-4.47614E-002,1.13729E-001,2.43241E+000,-5.12708E-001,1.17740E-001,2.48865E+000,1.06491E-002,7.17438E-001,0,3.79921E+001,-8.67795E+000,9.98460E-001,-1.54287E+000,-5.00390E+001,9.98618E-001,1.68786E-001,-7.15154E-002,1.97077E-003,1.68802E-001,-7.15316E-002,4.69854E-001,1.69455E-001,1.18317E+000,4.08737E-002,0.00000E+000,-2.82820E-002,9.32421E-001,0.00000E+000,-1.58694E-003,-6.33888E-002,1.00000E+000,32
1309,1317,3.80478E+001,-5.04980E-001,-1.26373E-001,1.32650E+001,-1.19983E-001,-8.33889E-002,1.32658E+001,2.48791E-002,4.64589E-001,0,1.96934E+002,-3.57458E+000,9.96178E-001,1.72625E+002,-2.87945E+001,9.94743E-001,2.01002E-001,-7.62571E-002,3.96703E-003,2.01059E-001,-7.63138E-002,8.19565E-001,2.02994E-001,1.22264E+000,-2.19871E-003,0.00000E+000,9.13967E-003,9.27891E-001,0.00000E+000,-5.98289E-004,-5.37951E-002,1.00000E+000,32
1309,1327,3.80745E+001,1.04461E-001,-1.44562E-001,1.32695E+001,-1.64437E-001,-1.14720E-001,1.32710E+001,2.91417E-002,4.43105E-001,0,1.97121E+002,-4.26124E+000,9.95364E-001,1.73044E+002,-2.92727E+001,9.93649E-001,2.03283E-001,-7.61940E-002,4.80465E-003,2.03366E-001,-7.62765E-002,9.84616E-001,2.05471E-001,1.22545E+000,-2.10349E-003,0.00000E+000,1.04810E-002,9.27936E-001,0.00000E+000,2.57485E-003,-5.36873E-002,1.00000E+000,32
1309,1337,3.81217E+001,7.17271E-001,-1.14056E-001,1.32816E+001,-2.14517E-001,-1.44294E-001,1.32841E+001,2.95207E-002,4.64794E-001,0,1.97390E+002,-5.02958E+000,9.96696E-001,1.73833E+002,-2.97857E+001,9.95971E-001,2.05568E-001,-7.60981E-002,5.67028E-003,2.05682E-001,-7.62122E-002,1.15281E+000,2.07968E-001,1.22827E+000,-1.95252E-003,0.00000E+000,1.18342E-002,9.28008E-001,0.00000E+000,5.77594E-003,-5.35165E-002,1.00000E+000,32
549,1317,-2.24048E+001,-1.20548E+000,2.91128E-001,2.37459E+000,-4.16295E-001,2.16378E-001,2.42049E+000,2.22053E-002,8.48818E-001,0,3.68145E+001,-7.36222E+000,9.98246E-001,-2.29239E+000,-4.81638E+001,9.97165E-001,1.74189E-001,-7.14819E-002,1.30502E-003,1.74196E-001,-7.14888E-002,3.04348E-001,1.75126E-001,1.18958E+000,4.09051E-002,0.00000E+000,-2.95667E-002,9.32415E-001,0.00000E+000,1.50696E-003,-6.33736E-002,1.00000E+000,32
549,1307,-2.24305E+001,-1.78279E+000,3.80112E-001,2.34735E+000,-3.66603E-001,2.35459E-001,2.38745E+000,1.53562E-002,7.50464E-001,0,3.63270E+001,-6.57340E+000,9.97613E-001,-2.56522E+000,-4.72593E+001,9.96975E-001,1.76880E-001,-7.14606E-002,9.62575E-004,1.76884E-001,-7.14643E-002,2.22075E-001,1.77967E-001,1.19279E+000,4.08977E-002,0.00000E+000,-3.02104E-002,9.32417E-001,0.00000E+000,3.05716E-003,-6.33772E-002,1.00000E+000,32
1309,1287,3.80315E+001,-2.29200E+000,8.73762E-002,1.32734E+001,3.54053E-002,1.75785E-002,1.32735E+001,1.57438E-002,4.80153E-001,0,1.96589E+002,-1.21760E+000,9.98005E-001,1.72526E+002,-2.70859E+001,9.95772E-001,1.94090E-001,-7.63378E-002,1.53258E-003,1.94098E-001,-7.63465E-002,3.24696E-001,1.95565E-001,1.21427E+000,-2.30486E-003,0.00000E+000,5.13357E-003,9.27840E-001,0.00000E+000,-1.00751E-002,-5.39152E-002,1.00000E+000,32
1309,1297,3.80331E+001,-1.70928E+000,-1.42571E-003,1.32715E+001,-2.74964E-002,-1.63699E-002,1.32715E+001,2.15593E-002,4.62502E-001,0,1.96732E+002,-2.15659E+000,9.97571E-001,1.72481E+002,-2.78261E+001,9.95196E-001,1.96408E-001,-7.63235E-002,2.33559E-003,1.96428E-001,-7.63435E-002,4.90615E-001,1.98045E-001,1.21705E+000,-2.28979E-003,0.00000E+000,6.46760E-003,9.27847E-001,0.00000E+000,-6.91934E-003,-5.38981E-002,1.00000E+000,32
1309,1307,3.80352E+001,-1.10210E+000,-8.37550E-002,1.32688E+001,-6.43430E-002,-4.91017E-002,1.32690E+001,2.38204E-002,3.83104E-001,0,1.96842E+002,-2.70679E+000,9.97403E-001,1.72452E+002,-2.82294E+001,9.96513E-001,1.98703E-001,-7.63049E-002,3.13810E-003,1.98738E-001,-7.63407E-002,6.53687E-001,2.00510E-001,1.21984E+000,-2.26882E-003,0.00000E+000,7.79758E-003,9.27857E-001,0.00000E+000,-3.77313E-003,-5.38744E-002,1.00000E+000,32
539,1347,-2.30555E+001,5.69333E-001,7.48079E-002,2.34443E+000,-5.29662E-001,7.96828E-002,2.40484E+000,1.20881E-002,7.14504E-001,0,3.67315E+001,-8.84763E+000,9.97805E-001,-2.37854E+000,-5.06457E+001,9.97938E-001,1.65665E-001,-7.10443E-002,2.48378E-003,1.65692E-001,-7.10704E-002,6.01114E-001,1.66249E-001,1.17938E+000,4.40427E-002,0.00000E+000,-2.98619E-002,9.32731E-001,0.00000E+000,-2.84200E-003,-6.20013E-002,1.00000E+000,32
539,1357,-2.30122E+001,1.17651E+000,6.55810E-002,2.37441E+000,-5.62189E-001,4.63421E-002,2.44050E+000,1.09695E-002,7.30448E-001,0,3.72859E+001,-9.30661E+000,9.98525E-001,-1.58750E+000,-5.13051E+001,9.98428E-001,1.63117E-001,-7.10522E-002,2.75777E-003,1.63150E-001,-7.10847E-002,6.74638E-001,1.63599E-001,1.17639E+000,4.39835E-002,0.00000E+000,-2.92995E-002,9.32742E-001,0.00000E+000,-4.40375E-003,-6.20323E-002,1.00000E+000,32
539,1327,-2.31267E+001,-6.09940E-001,1.66530E-001,2.28873E+000,-4.40114E-001,1.49370E-001,2.33545E+000,1.37296E-002,7.28566E-001,0,3.56696E+001,-7.57711E+000,9.95751E-001,-3.49486E+000,-4.89274E+001,9.96047E-001,1.70718E-001,-7.10199E-002,1.91785E-003,1.70734E-001,-7.10352E-002,4.54523E-001,1.71534E-001,1.18534E+000,4.41117E-002,0.00000E+000,-3.09832E-002,9.32718E-001,0.00000E+000,2.72092E-004,-6.19654E-002,1.00000E+000,32
539,1337,-2.30906E+001,-1.89838E-002,1.12572E-001,2.31823E+000,-4.81473E-001,1.13925E-001,2.37044E+000,1.27047E-002,7.09030E-001,0,3.62277E+001,-8.16636E+000,9.97261E-001,-2.95418E+000,-4.97546E+001,9.97465E-001,1.68202E-001,-7.10331E-002,2.20223E-003,1.68222E-001,-7.10533E-002,5.27366E-001,1.68897E-001,1.18237E+000,4.40825E-002,0.00000E+000,-3.04237E-002,9.32723E-001,0.00000E+000,-1.28158E-003,-6.19805E-002,1.00000E+000,32
1319,1297,3.88268E+001,-1.70111E+000,-3.10170E-002,1.33983E+001,-2.14828E-002,-3.45515E-002,1.33983E+001,1.90485E-002,3.63437E-001,0,1.98524E+002,-2.02977E+000,9.97893E-001,1.74915E+002,-2.75946E+001,9.96088E-001,1.95827E-001,-7.49261E-002,3.34775E-003,1.95868E-001,-7.49675E-002,7.08294E-001,1.97655E-001,1.21636E+000,1.76213E-003,0.00000E+000,5.28665E-003,9.28982E-001,0.00000E+000,-7.31541E-003,-5.02516E-002,1.00000E+000,32
1319,1307,3.88414E+001,-1.10369E+000,-9.43013E-002,1.34047E+001,-7.08793E-002,-5.98794E-002,1.34051E+001,2.31337E-002,3.40982E-001,0,1.98738E+002,-2.80198E+000,9.97423E-001,1.75100E+002,-2.81592E+001,9.97044E-001,1.98495E-001,-7.49040E-002,4.13220E-003,1.98557E-001,-7.49665E-002,8.65716E-001,2.00532E-001,1.21959E+000,1.80282E-003,0.00000E+000,6.57802E-003,9.28998E-001,0.00000E+000,-3.95348E-003,-5.02092E-002,1.00000E+000,32
539,1307,-2.31841E+001,-1.77035E+000,3.66200E-001,2.22963E+000,-3.48171E-001,2.19116E-001,2.26726E+000,1.05622E-002,7.09819E-001,0,3.45443E+001,-6.23718E+000,9.98225E-001,-4.06915E+000,-4.71634E+001,9.97766E-001,1.75709E-001,-7.09825E-002,1.32479E-003,1.75716E-001,-7.09896E-002,3.07680E-001,1.76793E-001,1.19128E+000,4.41044E-002,0.00000E+000,-3.20991E-002,9.32719E-001,0.00000E+000,3.37119E-003,-6.19692E-002,1.00000E+000,32
539,1317,-2.31567E+001,-1.19791E+000,2.57803E-001,2.25946E+000,-4.00522E-001,1.85472E-001,2.30217E+000,1.27578E-002,7.49765E-001,0,3.51105E+001,-7.02611E+000,9.96993E-001,-3.82964E+000,-4.81320E+001,9.96476E-001,1.73220E-001,-7.10024E-002,1.62373E-003,1.73231E-001,-7.10132E-002,3.80913E-001,1.74165E-001,1.18831E+000,4.41149E-002,0.00000E+000,-3.15415E-002,9.32717E-001,0.00000E+000,1.82273E-003,-6.19637E-002,1.00000E+000,32
1319,1287,3.88360E+001,-2.29938E+000,6.58381E-002,1.34086E+001,2.32236E-002,-1.18510E-003,1.34086E+001,1.96553E-002,4.30675E-001,0,1.98510E+002,-1.36581E+000,9.97535E-001,1.75135E+002,-2.70898E+001,9.96648E-001,1.93148E-001,-7.49303E-002,2.57957E-003,1.93173E-001,-7.49551E-002,5.51257E-001,1.94781E-001,1.21314E+000,1.75660E-003,0.00000E+000,3.99935E-003,9.28980E-001,0.00000E+000,-1.06667E-002,-5.02573E-002,1.00000E+000,32
529,1327,-2.38735E+001,-5.91365E-001,1.71727E-001,2.17711E+000,-4.16220E-001,1.49536E-001,2.22158E+000,1.23568E-002,7.19443E-001,0,3.39351E+001,-7.19626E+000,9.95497E-001,-4.83160E+000,-4.87652E+001,9.95755E-001,1.70118E-001,-7.00090E-002,2.29367E-003,1.70140E-001,-7.00309E-002,5.47217E-001,1.71024E-001,1.18455E+000,4.62669E-002,0.00000E+000,-3.20688E-002,9.33565E-001,0.00000E+000,1.08198E-003,-6.08380E-002,1.00000E+000,32
529,1307,-2.39314E+001,-1.75003E+000,3.67071E-001,2.11694E+000,-3.23232E-001,2.11483E-001,2.15189E+000,1.45184E-002,6.93666E-001,0,3.28134E+001,-5.82255E+000,9.98378E-001,-5.42414E+000,-4.69647E+001,9.97627E-001,1.74419E-001,-7.00008E-002,2.10706E-003,1.74437E-001,-7.00189E-002,4.93879E-001,1.75564E-001,1.18966E+000,4.62583E-002,0.00000E+000,-3.24327E-002,9.33565E-001,0.00000E+000,4.19549E-003,-6.08433E-002,1.00000E+000,32
529,1317,-2.39049E+001,-1.17657E+000,2.56598E-001,2.14726E+000,-3.73534E-001,1.84961E-001,2.18734E+000,1.21511E-002,6.91842E-001,0,3.33690E+001,-6.56593E+000,9.98010E-001,-5.20620E+000,-4.79362E+001,9.97560E-001,1.72274E-001,-7.00053E-002,2.20448E-003,1.72294E-001,-7.00254E-002,5.21274E-001,1.73296E-001,1.18711E+000,4.62730E-002,0.00000E+000,-3.22509E-002,9.33564E-001,0.00000E+000,2.63968E-003,-6.08343E-002,1.00000E+000,32
