Coordinates.Image X [Pixel],Coordinates.Image Y [Pixel],coor.X [mm],coor.Y [mm],coor.Z [mm],disp.Horizontal Displacement U [mm],disp.Vertical Displacement V [mm],disp.Out-Of-Plane: W [mm],disp.Displacement Magnitude [mm],stats.Sigma [mm],stats.Epipolar Distance [Pixel],stats.Shape Index [-],SameCamera.Horizontal: u [Pixel],SameCamera.Vertical: v [Pixel],SameCamera.Correlation Value 2D [-],CrossCamera.Horizontal: q [Pixel],CrossCamera.Vertical: r [Pixel],CrossCamera.Correlation Value Persp [-],strain.Strain-global frame: Exx [ ],strain.Strain-global frame: Eyy [ ],strain.Strain-global frame: Exy [ ],strain.Maximum Principal Strain: EI [ ],strain.Minimum Principal Strain: EII [ ],strain.Shear Angle Gamma [deg],strain.Von Mises Equivalent Strain [ ],defgradient.F[0,0] [-],defgradient.F[0,1] [-],defgradient.F[0,2] [-],defgradient.F[1,0] [-],defgradient.F[1,1] [-],defgradient.F[1,2] [-],defgradient.F[2,0] [-],defgradient.F[2,1] [-],defgradient.F[2,2] [-],ext.Current Image [#]
929,1317,2.78765E+000,-1.02684E+000,5.24819E-002,3.12372E+000,-4.10483E-001,1.39203E-001,3.15365E+000,9.06351E-003,4.92003E-001,0,4.75182E+001,-7.07964E+000,9.99520E-001,3.48285E+000,-4.16582E+001,9.98268E-001,8.75334E-002,-3.61114E-002,3.32082E-004,8.75343E-002,-3.61122E-002,1.53882E-001,8.79794E-002,1.09145E+000,-1.53037E-002,0.00000E+000,1.51158E-002,9.67283E-001,0.00000E+000,-1.33536E-002,-7.69789E-002,1.00000E+000,13
919,1307,2.07219E+000,-1.65799E+000,1.08100E-001,3.07481E+000,-3.92359E-001,1.99618E-001,3.10616E+000,1.09146E-002,5.23858E-001,0,4.66032E+001,-6.91623E+000,9.99139E-001,2.44705E+000,-4.16054E+001,9.96623E-001,8.94943E-002,-3.58476E-002,-6.84349E-006,8.94943E-002,-3.58476E-002,-3.12827E-003,9.00824E-002,1.09360E+000,-1.37465E-002,0.00000E+000,1.30022E-002,9.67656E-001,0.00000E+000,-1.22933E-002,-7.81827E-002,1.00000E+000,13
919,1317,2.06313E+000,-1.04965E+000,8.88214E-003,3.06294E+000,-4.19016E-001,1.51311E-001,3.09517E+000,1.20140E-002,4.87660E-001,0,4.65904E+001,-7.24097E+000,9.98831E-001,2.19141E+000,-4.20146E+001,9.96342E-001,8.79733E-002,-3.58542E-002,-2.12548E-004,8.79737E-002,-3.58545E-002,-9.83471E-002,8.84734E-002,1.09192E+000,-1.37539E-002,0.00000E+000,1.25165E-002,9.67653E-001,0.00000E+000,-1.07978E-002,-7.81760E-002,1.00000E+000,13
919,1327,2.07108E+000,-4.30555E-001,-3.29111E-002,3.05377E+000,-4.46986E-001,9.43866E-002,3.08775E+000,1.00959E-002,5.18281E-001,0,4.66412E+001,-7.56008E+000,9.99374E-001,2.32706E+000,-4.23454E+001,9.97409E-001,8.64300E-002,-3.58693E-002,-4.37580E-004,8.64316E-002,-3.58708E-002,-2.04997E-001,8.68467E-002,1.09023E+000,-1.37987E-002,0.00000E+000,1.20250E-002,9.67640E-001,0.00000E+000,-9.28472E-003,-7.81362E-002,1.00000E+000,13
929,1307,2.79263E+000,-1.63694E+000,1.34920E-001,3.13588E+000,-3.82299E-001,1.90620E-001,3.16485E+000,9.02052E-003,5.33442E-001,0,4.75252E+001,-6.74325E+000,9.99574E-001,3.63766E+000,-4.12391E+001,9.98530E-001,8.90841E-002,-3.61075E-002,4.27054E-004,8.90856E-002,-3.61090E-002,1.95444E-001,8.96163E-002,1.09317E+000,-1.52844E-002,0.00000E+000,1.53952E-002,9.67286E-001,0.00000E+000,-1.51481E-002,-7.69991E-002,1.00000E+000,13
929,1327,2.78967E+000,-4.08587E-001,-3.79465E-003,3.11230E+000,-4.34571E-001,8.51054E-002,3.14365E+000,8.13592E-003,4.68423E-001,0,4.75268E+001,-7.35666E+000,9.99583E-001,3.49461E+000,-4.19977E+001,9.98743E-001,8.59723E-002,-3.61167E-002,2.29124E-004,8.59727E-002,-3.61171E-002,1.07526E-001,8.63378E-002,1.08973E+000,-1.53398E-002,0.00000E+000,1.48356E-002,9.67277E-001,0.00000E+000,-1.15533E-002,-7.69413E-002,1.00000E+000,13
939,1307,3.50606E+000,-1.61882E+000,1.22897E-001,3.19497E+000,-3.71091E-001,1.68204E-001,3.22085E+000,9.73993E-003,5.22746E-001,0,4.84639E+001,-6.52136E+000,9.99634E-001,4.63842E+000,-4.08471E+001,9.98591E-001,8.85922E-002,-3.58296E-002,7.82780E-004,8.85971E-002,-3.58346E-002,3.60448E-001,8.91346E-002,1.09265E+000,-1.69650E-002,0.00000E+000,1.77226E-002,9.67422E-001,0.00000E+000,-1.74281E-002,-7.56607E-002,1.00000E+000,13
939,1317,3.50178E+000,-1.00910E+000,4.58146E-002,3.18271E+000,-3.99587E-001,1.18720E-001,3.20989E+000,9.94047E-003,4.58933E-001,0,4.84497E+001,-6.86763E+000,9.99504E-001,4.50630E+000,-4.12925E+001,9.97888E-001,8.71718E-002,-3.58325E-002,7.11700E-004,8.71759E-002,-3.58367E-002,3.31497E-001,8.76342E-002,1.09106E+000,-1.69848E-002,0.00000E+000,1.74735E-002,9.67419E-001,0.00000E+000,-1.53771E-002,-7.56350E-002,1.00000E+000,13
939,1327,3.50532E+000,-3.85392E-001,-1.84434E-003,3.17116E+000,-4.21492E-001,6.64424E-002,3.19974E+000,7.37406E-003,4.88240E-001,0,4.84499E+001,-7.10950E+000,9.99466E-001,4.56055E+000,-4.15380E+001,9.98550E-001,8.57338E-002,-3.58366E-002,6.32014E-004,8.57371E-002,-3.58399E-002,2.97856E-001,8.61204E-002,1.08946E+000,-1.70223E-002,0.00000E+000,1.72224E-002,9.67413E-001,0.00000E+000,-1.33097E-002,-7.55865E-002,1.00000E+000,13
919,1337,2.08514E+000,1.96243E-001,-4.77764E-002,3.04578E+000,-4.68781E-001,4.13189E-002,3.08192E+000,7.99676E-003,5.09150E-001,0,4.66925E+001,-7.80206E+000,9.99313E-001,2.61811E+000,-4.26365E+001,9.98425E-001,8.48822E-002,-3.58873E-002,-6.68614E-004,8.48859E-002,-3.58910E-002,-3.17192E-001,8.52224E-002,1.08853E+000,-1.38563E-002,0.00000E+000,1.15335E-002,9.67624E-001,0.00000E+000,-7.77174E-003,-7.80849E-002,1.00000E+000,13
929,1337,2.79950E+000,2.14545E-001,-3.39569E-002,3.10252E+000,-4.59390E-001,2.88362E-002,3.13648E+000,7.22921E-003,4.80057E-001,0,4.75650E+001,-7.63584E+000,9.99684E-001,3.68489E+000,-4.23012E+001,9.99255E-001,8.43968E-002,-3.61235E-002,1.17976E-004,8.43969E-002,-3.61236E-002,5.60861E-002,8.46879E-002,1.08799E+000,-1.53925E-002,0.00000E+000,1.45537E-002,9.67268E-001,0.00000E+000,-9.74294E-003,-7.68864E-002,1.00000E+000,13
939,1337,3.51402E+000,2.37878E-001,-2.98096E-002,3.16111E+000,-4.45152E-001,1.69511E-002,3.19235E+000,6.22306E-003,4.85475E-001,0,4.84622E+001,-7.38784E+000,9.99641E-001,4.73731E+000,-4.18500E+001,9.99305E-001,8.42893E-002,-3.58413E-002,5.47963E-004,8.42918E-002,-3.58438E-002,2.61341E-001,8.46053E-002,1.08786E+000,-1.70689E-002,0.00000E+000,1.69713E-002,9.67406E-001,0.00000E+000,-1.12417E-002,-7.55263E-002,1.00000E+000,13
949,1317,4.22046E+000,-9.84043E-001,4.83951E-002,3.24444E+000,-3.84095E-001,1.01664E-001,3.26868E+000,1.24402E-002,4.92392E-001,0,4.94085E+001,-6.59669E+000,9.99027E-001,5.62509E+000,-4.08000E+001,9.97653E-001,8.67579E-002,-3.55191E-002,1.03965E-003,8.67667E-002,-3.55280E-002,4.87106E-001,8.72396E-002,1.09061E+000,-1.84908E-002,0.00000E+000,1.95339E-002,9.67572E-001,0.00000E+000,-1.68722E-002,-7.40286E-002,1.00000E+000,13
949,1327,4.22057E+000,-3.62765E-001,-1.53715E-003,3.23055E+000,-4.06522E-001,5.24244E-002,3.25644E+000,1.11300E-002,4.78158E-001,0,4.93645E+001,-6.85286E+000,9.99182E-001,5.62086E+000,-4.10986E+001,9.98352E-001,8.55281E-002,-3.55210E-002,9.91746E-004,8.55363E-002,-3.55291E-002,4.69378E-001,8.59437E-002,1.08923E+000,-1.85210E-002,0.00000E+000,1.93181E-002,9.67567E-001,0.00000E+000,-1.45078E-002,-7.39769E-002,1.00000E+000,13
949,1337,4.22732E+000,2.59241E-001,-3.10389E-002,3.21903E+000,-4.31500E-001,4.36083E-003,3.24783E+000,8.46371E-003,4.85875E-001,0,4.93515E+001,-7.15622E+000,9.99413E-001,5.76283E+000,-4.14201E+001,9.98692E-001,8.42876E-002,-3.55232E-002,9.39355E-004,8.42950E-002,-3.55305E-002,4.49181E-001,8.46406E-002,1.08785E+000,-1.85603E-002,0.00000E+000,1.91015E-002,9.67561E-001,0.00000E+000,-1.21362E-002,-7.39095E-002,1.00000E+000,13
949,1307,4.22650E+000,-1.59782E+000,1.27676E-001,3.25817E+000,-3.58857E-001,1.51568E-001,3.28138E+000,9.90150E-003,5.39812E-001,0,4.94434E+001,-6.30624E+000,9.99350E-001,5.78849E+000,-4.04314E+001,9.98402E-001,8.79756E-002,-3.55177E-002,1.08113E-003,8.79851E-002,-3.55272E-002,5.01547E-001,8.85264E-002,1.09198E+000,-1.84743E-002,0.00000E+000,1.97489E-002,9.67574E-001,0.00000E+000,-1.92267E-002,-7.40570E-002,1.00000E+000,13
909,1317,1.35447E+000,-1.06602E+000,3.17829E-003,3.00600E+000,-4.27581E-001,1.47915E-001,3.03985E+000,1.16294E-002,4.59297E-001,0,4.57665E+001,-7.37542E+000,9.98386E-001,1.23304E+000,-4.23628E+001,9.95990E-001,8.84742E-002,-3.61220E-002,-8.07993E-004,8.84795E-002,-3.61273E-002,-3.71536E-001,8.89740E-002,1.09247E+000,-1.20776E-002,0.00000E+000,9.67376E-003,9.67452E-001,0.00000E+000,-8.02425E-003,-7.85567E-002,1.00000E+000,13
909,1327,1.36551E+000,-4.42757E-001,-3.51164E-002,3.00040E+000,-4.51927E-001,9.62580E-002,3.03577E+000,8.79844E-003,4.94011E-001,0,4.58523E+001,-7.63610E+000,9.98897E-001,1.42542E+000,-4.26358E+001,9.97936E-001,8.69785E-002,-3.61355E-002,-1.02287E-003,8.69870E-002,-3.61440E-002,-4.75990E-001,8.74000E-002,1.09083E+000,-1.21193E-002,0.00000E+000,9.23321E-003,9.67441E-001,0.00000E+000,-6.99955E-003,-7.85306E-002,1.00000E+000,13
909,1337,1.37924E+000,1.88194E-001,-4.80061E-002,2.99197E+000,-4.72477E-001,4.41893E-002,3.02937E+000,9.50760E-003,5.63748E-001,0,4.58918E+001,-7.85385E+000,9.99269E-001,1.71724E+000,-4.28295E+001,9.98474E-001,8.54744E-002,-3.61520E-002,-1.24482E-003,8.54871E-002,-3.61648E-002,-5.86327E-001,8.58240E-002,1.08918E+000,-1.21747E-002,0.00000E+000,8.79118E-003,9.67426E-001,0.00000E+000,-5.97140E-003,-7.84960E-002,1.00000E+000,13
909,1307,1.36027E+000,-1.67333E+000,1.07282E-001,3.01357E+000,-4.00085E-001,1.96412E-001,3.04635E+000,1.16278E-002,4.44970E-001,0,4.57134E+001,-7.02318E+000,9.98683E-001,1.45033E+000,-4.19720E+001,9.94917E-001,8.99480E-002,-3.61171E-002,-6.12441E-004,8.99510E-002,-3.61201E-002,-2.78342E-001,9.05303E-002,1.09409E+000,-1.20729E-002,0.00000E+000,1.01087E-002,9.67453E-001,0.00000E+000,-9.03589E-003,-7.85596E-002,1.00000E+000,13
919,1347,2.10646E+000,8.31931E-001,-4.87034E-002,3.04180E+000,-4.85641E-001,-1.27198E-002,3.08035E+000,1.23527E-002,5.24055E-001,0,4.68051E+001,-7.95355E+000,9.99617E-001,3.05346E+000,-4.28108E+001,9.99031E-001,8.33226E-002,-3.59073E-002,-9.04682E-004,8.33295E-002,-3.59141E-002,-4.34710E-001,8.35936E-002,1.08682E+000,-1.39223E-002,0.00000E+000,1.10398E-002,9.67605E-001,0.00000E+000,-6.25189E-003,-7.80261E-002,1.00000E+000,13
929,1347,2.81708E+000,8.45629E-001,-3.44268E-002,3.09532E+000,-4.79858E-001,-2.15629E-002,3.13237E+000,6.84409E-003,4.75697E-001,0,4.76186E+001,-7.85360E+000,9.99629E-001,4.06130E+000,-4.25563E+001,9.99338E-001,8.28109E-002,-3.61315E-002,4.12100E-009,8.28109E-002,-3.61315E-002,1.98513E-006,8.30345E-002,1.08625E+000,-1.54590E-002,0.00000E+000,1.42711E-002,9.67258E-001,0.00000E+000,-7.92718E-003,-7.68170E-002,1.00000E+000,13
939,1347,3.53116E+000,8.69023E-001,-2.77522E-002,3.15378E+000,-4.65663E-001,-2.86110E-002,3.18810E+000,1.00417E-002,5.05835E-001,0,4.84985E+001,-7.62663E+000,9.99583E-001,5.11055E+000,-4.20959E+001,9.98783E-001,8.28320E-002,-3.58469E-002,4.56899E-004,8.28338E-002,-3.58486E-002,2.20577E-001,8.30829E-002,1.08626E+000,-1.71297E-002,0.00000E+000,1.67190E-002,9.67396E-001,0.00000E+000,-9.16454E-003,-7.54477E-002,1.00000E+000,13
949,1347,4.24835E+000,8.90794E-001,-1.68637E-002,3.21354E+000,-4.53977E-001,-3.74058E-002,3.24566E+000,8.64403E-003,5.08325E-001,0,4.94035E+001,-7.42120E+000,9.99148E-001,6.22045E+000,-4.16835E+001,9.98379E-001,8.30315E-002,-3.55260E-002,8.78358E-004,8.30380E-002,-3.55325E-002,4.24456E-001,8.33253E-002,1.08646E+000,-1.86174E-002,0.00000E+000,1.88835E-002,9.67552E-001,0.00000E+000,-9.74826E-003,-7.38115E-002,1.00000E+000,13
959,1317,4.93281E+000,-9.64245E-001,4.13449E-002,3.30129E+000,-3.71365E-001,8.36157E-002,3.32317E+000,1.08628E-002,4.82563E-001,0,5.02975E+001,-6.36424E+000,9.99203E-001,6.62907E+000,-4.03904E+001,9.98453E-001,8.64323E-002,-3.51589E-002,1.15105E-003,8.64432E-002,-3.51698E-002,5.42331E-001,8.69417E-002,1.09024E+000,-2.00602E-002,0.00000E+000,2.11671E-002,9.67753E-001,0.00000E+000,-1.75587E-002,-7.21003E-002,1.00000E+000,13
959,1327,4.93315E+000,-3.43338E-001,-1.59282E-002,3.28929E+000,-3.93407E-001,3.51095E-002,3.31292E+000,1.50508E-002,5.01232E-001,0,5.02817E+001,-6.63015E+000,9.99630E-001,6.61193E+000,-4.06607E+001,9.98947E-001,8.53464E-002,-3.51577E-002,1.14522E-003,8.53573E-002,-3.51686E-002,5.44447E-001,8.57967E-002,1.08901E+000,-2.00839E-002,0.00000E+000,2.10256E-002,9.67750E-001,0.00000E+000,-1.51260E-002,-7.20533E-002,1.00000E+000,13
959,1337,4.94318E+000,2.79954E-001,-3.12747E-002,3.27869E+000,-4.19629E-001,-8.72078E-003,3.30545E+000,1.18956E-002,4.93311E-001,0,5.02684E+001,-6.94114E+000,9.99301E-001,6.83396E+000,-4.09988E+001,9.98610E-001,8.42470E-002,-3.51561E-002,1.13202E-003,8.42577E-002,-3.51669E-002,5.43138E-001,8.46403E-002,1.08778E+000,-2.01234E-002,0.00000E+000,2.08832E-002,9.67746E-001,0.00000E+000,-1.26781E-002,-7.19747E-002,1.00000E+000,13
959,1307,4.93736E+000,-1.57769E+000,1.17004E-001,3.31442E+000,-3.44169E-001,1.33435E-001,3.33491E+000,8.46994E-003,5.09293E-001,0,5.03219E+001,-6.04655E+000,9.99265E-001,6.76173E+000,-4.00215E+001,9.98658E-001,8.75092E-002,-3.51599E-002,1.15346E-003,8.75200E-002,-3.51707E-002,5.38688E-001,8.80802E-002,1.09146E+000,-2.00438E-002,0.00000E+000,2.13083E-002,9.67755E-001,0.00000E+000,-1.99871E-002,-7.21329E-002,1.00000E+000,13
959,1347,4.96019E+000,9.07944E-001,-2.89947E-002,3.27108E+000,-4.43430E-001,-5.30143E-002,3.30143E+000,8.67721E-003,4.97357E-001,0,5.02992E+001,-7.22877E+000,9.99222E-001,7.20197E+000,-4.12989E+001,9.98744E-001,8.31386E-002,-3.51544E-002,1.11502E-003,8.31491E-002,-3.51649E-002,5.40002E-001,8.34778E-002,1.08655E+000,-2.01707E-002,0.00000E+000,2.07406E-002,9.67740E-001,0.00000E+000,-1.02264E-002,-7.18807E-002,1.00000E+000,13
909,1347,1.40162E+000,8.21564E-001,-3.69644E-002,2.98716E+000,-4.91158E-001,-7.87664E-003,3.02728E+000,1.13373E-002,5.31865E-001,0,4.59835E+001,-8.04100E+000,9.99582E-001,2.19718E+000,-4.30908E+001,9.98304E-001,8.39694E-002,-3.61714E-002,-1.47234E-003,8.39874E-002,-3.61895E-002,-7.02027E-001,8.42544E-002,1.08754E+000,-1.22427E-002,0.00000E+000,8.34986E-003,9.67408E-001,0.00000E+000,-4.94489E-003,-7.84535E-002,1.00000E+000,13
899,1327,6.62680E-001,-4.45181E-001,-2.06685E-003,2.94124E+000,-4.54297E-001,9.56336E-002,2.97766E+000,5.95891E-003,5.11135E-001,0,4.49768E+001,-7.65935E+000,9.99187E-001,6.50979E-001,-4.28308E+001,9.98996E-001,8.74044E-002,-3.63421E-002,-1.55497E-003,8.74240E-002,-3.63616E-002,-7.19816E-001,8.78350E-002,1.09130E+000,-1.05317E-002,0.00000E+000,6.62294E-003,9.67303E-001,0.00000E+000,-4.63712E-003,-7.90820E-002,1.00000E+000,13
899,1337,6.77387E-001,1.81092E-001,-3.41311E-002,2.93768E+000,-4.75129E-001,4.15839E-002,2.97614E+000,9.32742E-003,5.31004E-001,0,4.50982E+001,-7.87919E+000,9.99646E-001,9.15471E-001,-4.30819E+001,9.99407E-001,8.60263E-002,-3.63528E-002,-1.72784E-003,8.60507E-002,-3.63771E-002,-8.08731E-001,8.63925E-002,1.08979E+000,-1.05735E-002,0.00000E+000,6.30353E-003,9.67294E-001,0.00000E+000,-4.17782E-003,-7.90692E-002,1.00000E+000,13
899,1347,7.02787E-001,8.13610E-001,-2.04195E-002,2.93605E+000,-4.94838E-001,-7.95693E-003,2.97747E+000,7.80988E-003,5.16492E-001,0,4.52297E+001,-8.09124E+000,9.99610E-001,1.44958E+000,-4.33552E+001,9.99259E-001,8.46409E-002,-3.63673E-002,-1.91046E-003,8.46711E-002,-3.63975E-002,-9.04277E-001,8.49482E-002,1.08828E+000,-1.06352E-002,0.00000E+000,5.98289E-003,9.67281E-001,0.00000E+000,-3.71675E-003,-7.90504E-002,1.00000E+000,13
899,1317,6.56612E-001,-1.06314E+000,5.66913E-002,2.94783E+000,-4.28958E-001,1.49944E-001,2.98265E+000,8.25005E-003,5.13042E-001,0,4.48965E+001,-7.38287E+000,9.99060E-001,5.81481E-001,-4.24981E+001,9.97987E-001,8.87759E-002,-3.63339E-002,-1.38849E-003,8.87913E-002,-3.63493E-002,-6.35776E-001,8.92761E-002,1.09280E+000,-1.05026E-002,0.00000E+000,6.94129E-003,9.67309E-001,0.00000E+000,-5.09491E-003,-7.90909E-002,1.00000E+000,13
899,1307,6.55608E-001,-1.67303E+000,1.42770E-001,2.95383E+000,-3.99912E-001,2.04989E-001,2.98782E+000,8.76466E-003,4.55927E-001,0,4.48007E+001,-7.01192E+000,9.99059E-001,6.53729E-001,-4.21284E+001,9.96953E-001,9.01397E-002,-3.63283E-002,-1.22855E-003,9.01517E-002,-3.63402E-002,-5.56520E-001,9.07142E-002,1.09429E+000,-1.04864E-002,0.00000E+000,7.25833E-003,9.67313E-001,0.00000E+000,-5.55081E-003,-7.90958E-002,1.00000E+000,13
889,1327,-4.34982E-002,-4.52419E-001,7.43129E-003,2.88309E+000,-4.57838E-001,9.35654E-002,2.92072E+000,5.05163E-003,5.26677E-001,0,4.41229E+001,-7.70453E+000,9.99446E-001,-2.23974E-001,-4.30504E+001,9.99312E-001,8.78818E-002,-3.58270E-002,-2.09803E-003,8.79173E-002,-3.58625E-002,-9.71330E-001,8.84130E-002,1.09183E+000,-9.12426E-003,0.00000E+000,4.14811E-003,9.67880E-001,0.00000E+000,-2.20957E-003,-7.99160E-002,1.00000E+000,13
889,1337,-3.28717E-002,1.73533E-001,-2.91067E-002,2.87672E+000,-4.77365E-001,4.02799E-002,2.91633E+000,8.26575E-003,5.22179E-001,0,4.41978E+001,-7.90303E+000,9.99614E-001,-3.16652E-002,-4.33114E+001,9.99394E-001,8.65442E-002,-3.58277E-002,-2.13003E-003,8.65812E-002,-3.58647E-002,-9.96900E-001,8.70048E-002,1.09037E+000,-9.16192E-003,0.00000E+000,4.16370E-003,9.67880E-001,0.00000E+000,-2.64263E-003,-7.99272E-002,1.00000E+000,13
889,1347,-7.15982E-003,8.03764E-001,-1.76555E-002,2.87619E+000,-4.98627E-001,-8.86876E-003,2.91910E+000,7.13954E-003,4.99894E-001,0,4.43447E+001,-8.13805E+000,9.99474E-001,5.03639E-001,-4.36205E+001,9.99204E-001,8.51978E-002,-3.58287E-002,-2.17144E-003,8.52367E-002,-3.58676E-002,-1.02755E+000,8.55924E-002,1.08890E+000,-9.21983E-003,0.00000E+000,4.17937E-003,9.67881E-001,0.00000E+000,-3.07793E-003,-7.99443E-002,1.00000E+000,13
969,1297,5.66916E+000,-2.16541E+000,2.09106E-001,3.39155E+000,-3.02097E-001,1.55382E-001,3.40852E+000,1.26140E-002,4.86122E-001,0,5.13706E+001,-5.42966E+000,9.99515E-001,8.18322E+000,-3.92225E+001,9.98355E-001,8.79426E-002,-3.49771E-002,1.13240E-003,8.79530E-002,-3.49876E-002,5.27781E-001,8.85634E-002,1.09196E+000,-2.14275E-002,0.00000E+000,2.26181E-002,9.67757E-001,0.00000E+000,-2.25329E-002,-6.99464E-002,1.00000E+000,13
969,1307,5.65328E+000,-1.55958E+000,1.12269E-001,3.37366E+000,-3.33712E-001,1.14290E-001,3.39205E+000,1.90273E-002,4.88561E-001,0,5.12497E+001,-5.83704E+000,9.99310E-001,7.82962E+000,-3.96500E+001,9.97673E-001,8.70249E-002,-3.49755E-002,1.15661E-003,8.70359E-002,-3.49864E-002,5.43121E-001,8.75916E-002,1.09090E+000,-2.14307E-002,0.00000E+000,2.25200E-002,9.67757E-001,0.00000E+000,-2.01003E-002,-6.99389E-002,1.00000E+000,13
969,1317,5.64936E+000,-9.46242E-001,4.21942E-002,3.36011E+000,-3.61233E-001,6.55976E-002,3.38011E+000,7.99201E-003,4.64825E-001,0,5.12157E+001,-6.17373E+000,9.99674E-001,7.71851E+000,-4.00292E+001,9.99084E-001,8.60991E-002,-3.49729E-002,1.17514E-003,8.61105E-002,-3.49843E-002,5.56049E-001,8.66134E-002,1.08985E+000,-2.14467E-002,0.00000E+000,2.24218E-002,9.67755E-001,0.00000E+000,-1.76638E-002,-6.99021E-002,1.00000E+000,13
889,1317,-5.14261E-002,-1.06856E+000,7.06184E-002,2.88726E+000,-4.31314E-001,1.50154E-001,2.92315E+000,7.32835E-003,5.50921E-001,0,4.39984E+001,-7.42400E+000,9.99438E-001,-3.12131E-001,-4.26866E+001,9.98945E-001,8.92146E-002,-3.58264E-002,-2.07101E-003,8.92489E-002,-3.58607E-002,-9.48623E-001,8.98208E-002,1.09328E+000,-9.09736E-003,0.00000E+000,4.13256E-003,9.67879E-001,0.00000E+000,-1.77744E-003,-7.99080E-002,1.00000E+000,13
969,1327,5.64924E+000,-3.23280E-001,-8.37287E-003,3.34695E+000,-3.81731E-001,2.11275E-002,3.36871E+000,8.79295E-003,4.81111E-001,0,5.11684E+001,-6.42513E+000,9.99611E-001,7.70825E+000,-4.02819E+001,9.99270E-001,8.51643E-002,-3.49700E-002,1.19098E-003,8.51761E-002,-3.49819E-002,5.67940E-001,8.56277E-002,1.08879E+000,-2.14683E-002,0.00000E+000,2.23234E-002,9.67753E-001,0.00000E+000,-1.52214E-002,-6.98522E-002,1.00000E+000,13
889,1307,-5.53170E-002,-1.67952E+000,1.58665E-001,2.88966E+000,-4.04132E-001,2.04167E-001,2.92492E+000,1.01169E-002,4.97288E-001,0,4.38525E+001,-7.07863E+000,9.99190E-001,-2.79738E-001,-4.23340E+001,9.97456E-001,9.05396E-002,-3.58261E-002,-2.04989E-003,9.05729E-002,-3.58593E-002,-9.29118E-001,9.12247E-002,1.09473E+000,-9.08316E-003,0.00000E+000,4.11707E-003,9.67879E-001,0.00000E+000,-1.34723E-003,-7.99038E-002,1.00000E+000,13
969,1337,5.65773E+000,2.96812E-001,-3.30055E-002,3.33686E+000,-4.08200E-001,-2.22975E-002,3.36181E+000,9.36814E-003,4.37495E-001,0,5.11637E+001,-6.75097E+000,9.99426E-001,7.88553E+000,-4.06657E+001,9.99102E-001,8.42207E-002,-3.49666E-002,1.20250E-003,8.42329E-002,-3.49787E-002,5.77987E-001,8.46351E-002,1.08773E+000,-2.14992E-002,0.00000E+000,2.22248E-002,9.67750E-001,0.00000E+000,-1.27736E-002,-6.97811E-002,1.00000E+000,13
969,1347,5.66939E+000,9.32526E-001,-3.72592E-002,3.32516E+000,-4.25182E-001,-6.64764E-002,3.35289E+000,8.36189E-003,4.69239E-001,0,5.11310E+001,-6.92130E+000,9.99372E-001,8.15645E+000,-4.08173E+001,9.98803E-001,8.32635E-002,-3.49625E-002,1.21028E-003,8.32759E-002,-3.49749E-002,5.86456E-001,8.36305E-002,1.08666E+000,-2.15380E-002,0.00000E+000,2.21254E-002,9.67747E-001,0.00000E+000,-1.03082E-002,-6.96915E-002,1.00000E+000,13
879,1327,-7.47525E-001,-4.55847E-001,2.51320E-002,2.82656E+000,-4.57379E-001,9.90163E-002,2.86503E+000,7.02492E-003,5.25309E-001,0,4.32665E+001,-7.70057E+000,9.99521E-001,-1.04149E+000,-4.32374E+001,9.99289E-001,8.83858E-002,-3.59897E-002,-2.40805E-003,8.84324E-002,-3.60363E-002,-1.10876E+000,8.89354E-002,1.09239E+000,-7.88720E-003,0.00000E+000,2.31275E-003,9.67688E-001,0.00000E+000,-3.61601E-004,-7.93835E-002,1.00000E+000,13
879,1337,-7.37441E-001,1.66295E-001,-1.99184E-002,2.82031E+000,-4.79828E-001,3.96650E-002,2.86111E+000,6.81382E-003,5.01833E-001,0,4.33633E+001,-7.92640E+000,9.99289E-001,-8.76955E-001,-4.35502E+001,9.99159E-001,8.71376E-002,-3.59884E-002,-2.40525E-003,8.71846E-002,-3.60354E-002,-1.11870E+000,8.76202E-002,1.09102E+000,-7.92101E-003,0.00000E+000,2.42571E-003,9.67691E-001,0.00000E+000,-1.26305E-003,-7.94058E-002,1.00000E+000,13
879,1347,-7.14817E-001,7.98535E-001,-1.53491E-002,2.81819E+000,-4.99341E-001,-1.00451E-002,2.86210E+000,8.68716E-003,5.23088E-001,0,4.34867E+001,-8.13267E+000,9.99177E-001,-4.03213E-001,-4.37938E+001,9.99051E-001,8.58780E-002,-3.59866E-002,-2.41024E-003,8.59256E-002,-3.60343E-002,-1.13261E+000,8.62973E-002,1.08965E+000,-7.97201E-003,0.00000E+000,2.53951E-003,9.67695E-001,0.00000E+000,-2.17113E-003,-7.94396E-002,1.00000E+000,13
879,1307,-7.64871E-001,-1.68155E+000,1.73591E-001,2.82590E+000,-4.04035E-001,1.99620E-001,2.86161E+000,1.05507E-002,5.05603E-001,0,4.29199E+001,-7.05769E+000,9.98999E-001,-1.18835E+000,-4.24851E+001,9.97737E-001,9.08645E-002,-3.59912E-002,-2.42853E-003,9.09110E-002,-3.60376E-002,-1.09634E+000,9.15591E-002,1.09510E+000,-7.85227E-003,0.00000E+000,2.08780E-003,9.67685E-001,0.00000E+000,1.43358E-003,-7.93603E-002,1.00000E+000,13
879,1317,-7.56949E-001,-1.07243E+000,8.76810E-002,2.82894E+000,-4.30941E-001,1.54028E-001,2.86572E+000,7.28905E-003,4.85940E-001,0,4.31211E+001,-7.39667E+000,9.99484E-001,-1.15397E+000,-4.29088E+001,9.98977E-001,8.96311E-002,-3.59906E-002,-2.41512E-003,8.96776E-002,-3.60370E-002,-1.10099E+000,9.02516E-002,1.09375E+000,-7.86266E-003,0.00000E+000,2.19984E-003,9.67686E-001,0.00000E+000,5.39506E-004,-7.93672E-002,1.00000E+000,13
979,1307,6.38328E+000,-1.53872E+000,1.22403E-001,3.44332E+000,-3.22552E-001,9.58627E-002,3.45972E+000,1.22526E-002,4.72602E-001,0,5.23310E+001,-5.62152E+000,9.99768E-001,9.15089E+000,-3.92635E+001,9.99427E-001,8.65834E-002,-3.47885E-002,1.10634E-003,8.65935E-002,-3.47986E-002,5.22208E-001,8.71477E-002,1.09038E+000,-2.25845E-002,0.00000E+000,2.33607E-002,9.67760E-001,0.00000E+000,-1.93133E-002,-6.75709E-002,1.00000E+000,13
979,1317,6.37074E+000,-9.22302E-001,4.61790E-002,3.42267E+000,-3.46595E-001,4.82142E-002,3.44051E+000,6.44932E-003,4.83217E-001,0,5.21859E+001,-5.91723E+000,9.99645E-001,8.89385E+000,-3.95644E+001,9.99200E-001,8.58853E-002,-3.47842E-002,1.15758E-003,8.58964E-002,-3.47953E-002,5.49572E-001,8.64107E-002,1.08958E+000,-2.25947E-002,0.00000E+000,2.33282E-002,9.67759E-001,0.00000E+000,-1.69572E-002,-6.75410E-002,1.00000E+000,13
979,1327,6.36659E+000,-3.01714E-001,-5.48595E-003,3.40628E+000,-3.68690E-001,6.63681E-003,3.42618E+000,7.27799E-003,4.82064E-001,0,5.20815E+001,-6.19763E+000,9.99237E-001,8.81822E+000,-3.98591E+001,9.98550E-001,8.51801E-002,-3.47790E-002,1.20641E-003,8.51922E-002,-3.47911E-002,5.76136E-001,8.56676E-002,1.08877E+000,-2.26101E-002,0.00000E+000,2.32956E-002,9.67759E-001,0.00000E+000,-1.45976E-002,-6.74957E-002,1.00000E+000,13
979,1337,6.37029E+000,3.22771E-001,-3.87842E-002,3.39357E+000,-3.89932E-001,-3.51044E-002,3.41608E+000,9.81975E-003,4.64620E-001,0,5.20312E+001,-6.45271E+000,9.98861E-001,8.90281E+000,-4.01419E+001,9.98178E-001,8.44670E-002,-3.47729E-002,1.25280E-003,8.44801E-002,-3.47861E-002,6.01892E-001,8.49175E-002,1.08797E+000,-2.26309E-002,0.00000E+000,2.32630E-002,9.67758E-001,0.00000E+000,-1.22315E-002,-6.74349E-002,1.00000E+000,13
979,1347,6.38184E+000,9.57050E-001,-3.58400E-002,3.38024E+000,-4.08092E-001,-7.81869E-002,3.40568E+000,1.02865E-002,4.60628E-001,0,5.19705E+001,-6.64719E+000,9.98444E-001,9.18535E+000,-4.03478E+001,9.97545E-001,8.37433E-002,-3.47652E-002,1.29446E-003,8.37575E-002,-3.47793E-002,6.25737E-001,8.41577E-002,1.08715E+000,-2.26624E-002,0.00000E+000,2.32301E-002,9.67757E-001,0.00000E+000,-9.85028E-003,-6.73427E-002,1.00000E+000,13
979,1297,6.38577E+000,-2.14548E+000,1.98870E-001,3.45233E+000,-2.89387E-001,1.36574E-001,3.46713E+000,1.05414E-002,4.66491E-001,0,5.23187E+001,-5.17752E+000,9.99657E-001,9.25438E+000,-3.88125E+001,9.98835E-001,8.72755E-002,-3.47926E-002,1.05403E-003,8.72846E-002,-3.48017E-002,4.94689E-001,8.78795E-002,1.09119E+000,-2.25763E-002,0.00000E+000,2.33932E-002,9.67760E-001,0.00000E+000,-2.16691E-002,-6.75949E-002,1.00000E+000,13
869,1317,-1.47082E+000,-1.07455E+000,8.57620E-002,2.76346E+000,-4.29036E-001,1.46635E-001,2.80040E+000,6.41593E-003,4.79874E-001,0,4.21695E+001,-7.32929E+000,9.99549E-001,-2.16376E+000,-4.30352E+001,9.98597E-001,8.98564E-002,-3.61704E-002,-2.49605E-003,8.99058E-002,-3.62198E-002,-1.13419E+000,9.04695E-002,1.09401E+000,-6.51967E-003,0.00000E+000,7.33646E-004,9.67470E-001,0.00000E+000,2.22850E-003,-7.87791E-002,1.00000E+000,13
869,1327,-1.46031E+000,-4.58394E-001,2.66093E-002,2.76263E+000,-4.54471E-001,9.66598E-002,2.80143E+000,7.40907E-003,5.28301E-001,0,4.23210E+001,-7.64844E+000,9.99388E-001,-2.02669E+000,-4.33748E+001,9.98980E-001,8.87750E-002,-3.61695E-002,-2.48698E-003,8.88244E-002,-3.62190E-002,-1.13985E+000,8.93268E-002,1.09282E+000,-6.54022E-003,0.00000E+000,8.72569E-004,9.67473E-001,0.00000E+000,9.48848E-004,-7.88013E-002,1.00000E+000,13
869,1337,-1.44561E+000,1.61389E-001,-1.15071E-002,2.76053E+000,-4.80037E-001,4.13972E-002,2.80226E+000,8.01905E-003,5.27836E-001,0,4.24676E+001,-7.93489E+000,9.98973E-001,-1.77486E+000,-4.37288E+001,9.98832E-001,8.76871E-002,-3.61683E-002,-2.48235E-003,8.77368E-002,-3.62181E-002,-1.14772E+000,8.81804E-002,1.09163E+000,-6.57049E-003,0.00000E+000,1.01196E-003,9.67476E-001,0.00000E+000,-3.35142E-004,-7.88340E-002,1.00000E+000,13
869,1347,-1.42504E+000,7.93339E-001,-1.50620E-002,2.75909E+000,-4.96505E-001,-4.42966E-003,2.80341E+000,1.07722E-002,5.05750E-001,0,4.25882E+001,-8.10179E+000,9.99212E-001,-1.34978E+000,-4.39828E+001,9.98990E-001,8.65938E-002,-3.61668E-002,-2.48198E-003,8.66440E-002,-3.62170E-002,-1.15778E+000,8.70316E-002,1.09044E+000,-6.61003E-003,0.00000E+000,1.15169E-003,9.67481E-001,0.00000E+000,-1.62223E-003,-7.88767E-002,1.00000E+000,13
869,1307,-1.47435E+000,-1.68284E+000,1.79731E-001,2.76426E+000,-4.01279E-001,1.97877E-001,2.80024E+000,8.70869E-003,5.19178E-001,0,4.20093E+001,-7.00908E+000,9.99106E-001,-2.11130E+000,-4.26037E+001,9.98237E-001,9.09291E-002,-3.61708E-002,-2.51070E-003,9.09787E-002,-3.62204E-002,-1.13122E+000,9.16061E-002,1.09519E+000,-6.51158E-003,0.00000E+000,5.95486E-004,9.67469E-001,0.00000E+000,3.50114E-003,-7.87704E-002,1.00000E+000,13
989,1307,7.09437E+000,-1.51116E+000,1.09837E-001,3.49760E+000,-3.01957E-001,7.26882E-002,3.51136E+000,9.52900E-003,4.92886E-001,0,5.31926E+001,-5.26938E+000,9.99410E-001,1.01373E+001,-3.87094E+001,9.98754E-001,8.61585E-002,-3.47696E-002,9.77504E-004,8.61664E-002,-3.47775E-002,4.63102E-001,8.66985E-002,1.08988E+000,-2.33297E-002,0.00000E+000,2.36464E-002,9.67632E-001,0.00000E+000,-1.77958E-002,-6.54517E-002,1.00000E+000,13
989,1317,7.07917E+000,-8.92454E-001,3.38350E-002,3.47542E+000,-3.24868E-001,3.07820E-002,3.49070E+000,9.23523E-003,5.52018E-001,0,5.30055E+001,-5.55768E+000,9.99615E-001,9.83955E+000,-3.89497E+001,9.98915E-001,8.56679E-002,-3.47630E-002,1.06834E-003,8.56774E-002,-3.47724E-002,5.08219E-001,8.61822E-002,1.08930E+000,-2.33359E-002,0.00000E+000,2.36947E-002,9.67633E-001,0.00000E+000,-1.55414E-002,-6.54272E-002,1.00000E+000,13
989,1327,7.08278E+000,-2.72698E-001,-4.86422E-003,3.46472E+000,-3.50096E-001,-6.41670E-003,3.48237E+000,1.25168E-002,5.48029E-001,0,5.29735E+001,-5.88277E+000,9.99184E-001,9.91004E+000,-3.92840E+001,9.98057E-001,8.51713E-002,-3.47541E-002,1.15630E-003,8.51825E-002,-3.47652E-002,5.52370E-001,8.56605E-002,1.08873E+000,-2.33487E-002,0.00000E+000,2.37430E-002,9.67634E-001,0.00000E+000,-1.32831E-002,-6.53768E-002,1.00000E+000,13
989,1297,7.10630E+000,-2.12357E+000,1.97495E-001,3.51524E+000,-2.74196E-001,1.20681E-001,3.52798E+000,9.17199E-003,4.73527E-001,0,5.32866E+001,-4.92788E+000,9.99289E-001,1.04089E+001,-3.83769E+001,9.98377E-001,8.66429E-002,-3.47757E-002,8.86172E-004,8.66493E-002,-3.47822E-002,4.18143E-001,8.72090E-002,1.09045E+000,-2.33246E-002,0.00000E+000,2.35982E-002,9.67632E-001,0.00000E+000,-2.00465E-002,-6.54718E-002,1.00000E+000,13
989,1337,7.08689E+000,3.49337E-001,-2.82638E-002,3.44955E+000,-3.73680E-001,-5.05890E-002,3.47010E+000,9.23513E-003,4.71467E-001,0,5.28947E+001,-6.17198E+000,9.98646E-001,1.00204E+001,-3.96543E+001,9.98140E-001,8.46702E-002,-3.47437E-002,1.24194E-003,8.46831E-002,-3.47566E-002,5.95807E-001,8.51348E-002,1.08816E+000,-2.33659E-002,0.00000E+000,2.37913E-002,9.67635E-001,0.00000E+000,-1.10280E-002,-6.53088E-002,1.00000E+000,13
989,1347,7.09695E+000,9.81855E-001,-2.81649E-002,3.43682E+000,-3.91439E-001,-8.65272E-002,3.46013E+000,9.16733E-003,4.61242E-001,0,5.28200E+001,-6.38818E+000,9.99382E-001,1.02720E+001,-3.98831E+001,9.99220E-001,8.41608E-002,-3.47321E-002,1.32642E-003,8.41756E-002,-3.47469E-002,6.39108E-001,8.46014E-002,1.08758E+000,-2.33863E-002,0.00000E+000,2.38399E-002,9.67637E-001,0.00000E+000,-8.76015E-003,-6.52285E-002,1.00000E+000,13
859,1327,-2.16940E+000,-4.59058E-001,2.35047E-002,2.70179E+000,-4.50449E-001,8.88204E-002,2.74052E+000,7.26771E-003,5.45647E-001,0,4.14386E+001,-7.56485E+000,9.99071E-001,-2.96097E+000,-4.34658E+001,9.98758E-001,8.90232E-002,-3.62753E-002,-2.47079E-003,8.90719E-002,-3.63240E-002,-1.12924E+000,8.95752E-002,1.09310E+000,-5.39789E-003,0.00000E+000,-1.48723E-004,9.67322E-001,0.00000E+000,1.57616E-003,-7.81586E-002,1.00000E+000,13
859,1337,-2.15272E+000,1.61286E-001,-1.22752E-002,2.70196E+000,-4.74398E-001,3.65511E-002,2.74353E+000,8.24301E-003,5.48695E-001,0,4.16087E+001,-7.84606E+000,9.99027E-001,-2.67252E+000,-4.38160E+001,9.98686E-001,8.81395E-002,-3.62753E-002,-2.48255E-003,8.81891E-002,-3.63248E-002,-1.14266E+000,8.86442E-002,1.09213E+000,-5.42211E-003,0.00000E+000,-3.36349E-005,9.67325E-001,0.00000E+000,8.36208E-005,-7.81960E-002,1.00000E+000,13
859,1347,-2.13130E+000,7.87621E-001,-1.32180E-002,2.70091E+000,-4.96755E-001,-9.75842E-003,2.74623E+000,1.14730E-002,5.13499E-001,0,4.17376E+001,-8.09593E+000,9.99420E-001,-2.22765E+000,-4.41704E+001,9.99114E-001,8.72493E-002,-3.62752E-002,-2.49835E-003,8.72998E-002,-3.63258E-002,-1.15820E+000,8.77085E-002,1.09116E+000,-5.45496E-003,0.00000E+000,8.19308E-005,9.67329E-001,0.00000E+000,-1.41510E-003,-7.82467E-002,1.00000E+000,13
859,1307,-2.18505E+000,-1.68276E+000,1.82927E-001,2.70139E+000,-3.98766E-001,1.95267E-001,2.73764E+000,1.11195E-002,6.05952E-001,0,4.10814E+001,-6.96976E+000,9.99184E-001,-3.05553E+000,-4.26588E+001,9.98591E-001,9.07705E-002,-3.62753E-002,-2.45911E-003,9.08181E-002,-3.63229E-002,-1.10847E+000,9.14221E-002,1.09502E+000,-5.37518E-003,0.00000E+000,-3.77462E-004,9.67320E-001,0.00000E+000,4.54257E-003,-7.81236E-002,1.00000E+000,13
859,1317,-2.17833E+000,-1.07758E+000,8.53250E-002,2.70377E+000,-4.29044E-001,1.40090E-001,2.74118E+000,8.44076E-003,5.29016E-001,0,4.13029E+001,-7.30829E+000,9.99166E-001,-3.06836E+000,-4.31506E+001,9.98089E-001,8.99001E-002,-3.62753E-002,-2.46277E-003,8.99481E-002,-3.63233E-002,-1.11777E+000,9.05011E-002,1.09406E+000,-5.38177E-003,0.00000E+000,-2.63321E-004,9.67320E-001,0.00000E+000,3.06233E-003,-7.81338E-002,1.00000E+000,13
999,1337,7.79923E+000,3.70232E-001,-3.10040E-002,3.50690E+000,-3.57221E-001,-5.25827E-002,3.52544E+000,8.83564E-003,4.21065E-001,0,5.37336E+001,-5.92085E+000,9.99574E-001,1.10481E+001,-3.92545E+001,9.98959E-001,8.47058E-002,-3.47430E-002,1.09961E-003,8.47159E-002,-3.47531E-002,5.27389E-001,8.51698E-002,1.08817E+000,-2.38054E-002,0.00000E+000,2.37859E-002,9.67494E-001,0.00000E+000,-9.42818E-003,-6.30674E-002,1.00000E+000,13
999,1347,7.81281E+000,1.00562E+000,-2.34024E-002,3.49524E+000,-3.75254E-001,-9.08001E-002,3.51650E+000,7.13679E-003,3.99183E-001,0,5.36831E+001,-6.10797E+000,9.99746E-001,1.13682E+001,-3.94592E+001,9.99224E-001,8.43892E-002,-3.47301E-002,1.19340E-003,8.44011E-002,-3.47421E-002,5.73942E-001,8.48394E-002,1.08781E+000,-2.38194E-002,0.00000E+000,2.38626E-002,9.67497E-001,0.00000E+000,-7.39859E-003,-6.29885E-002,1.00000E+000,13
999,1307,7.80861E+000,-1.48731E+000,1.02682E-001,3.55460E+000,-2.85137E-001,5.51482E-002,3.56644E+000,6.62138E-003,4.86303E-001,0,5.40767E+001,-4.97377E+000,9.99504E-001,1.11875E+001,-3.82372E+001,9.99061E-001,8.56217E-002,-3.47692E-002,8.10943E-004,8.56272E-002,-3.47747E-002,3.85916E-001,8.61289E-002,1.08924E+000,-2.37842E-002,0.00000E+000,2.35581E-002,9.67490E-001,0.00000E+000,-1.54562E-002,-6.31871E-002,1.00000E+000,13
999,1317,7.79853E+000,-8.69820E-001,3.51991E-002,3.53716E+000,-3.08896E-001,2.02741E-002,3.55068E+000,1.09019E-002,5.17782E-001,0,5.39381E+001,-5.29007E+000,9.99030E-001,1.09864E+001,-3.85261E+001,9.96959E-001,8.53206E-002,-3.47622E-002,9.08574E-004,8.53275E-002,-3.47691E-002,4.33480E-001,8.58131E-002,1.08889E+000,-2.37883E-002,0.00000E+000,2.36340E-002,9.67491E-001,0.00000E+000,-1.34478E-002,-6.31641E-002,1.00000E+000,13
999,1327,7.79826E+000,-2.55012E-001,-1.06023E-002,3.52402E+000,-3.37764E-001,-1.72060E-002,3.54021E+000,1.31607E-002,5.23936E-001,0,5.38730E+001,-5.68443E+000,9.99191E-001,1.09808E+001,-3.89153E+001,9.97757E-001,8.50151E-002,-3.47534E-002,1.00486E-003,8.50236E-002,-3.47619E-002,4.80668E-001,8.54932E-002,1.08853E+000,-2.37954E-002,0.00000E+000,2.37100E-002,9.67492E-001,0.00000E+000,-1.14371E-002,-6.31239E-002,1.00000E+000,13
999,1297,7.82257E+000,-2.10336E+000,1.92646E-001,3.57389E+000,-2.61232E-001,1.03546E-001,3.58492E+000,7.00442E-003,4.88831E-001,0,5.41943E+001,-4.70120E+000,9.99218E-001,1.14942E+001,-3.79566E+001,9.97736E-001,8.59184E-002,-3.47756E-002,7.12812E-004,8.59226E-002,-3.47798E-002,3.38370E-001,8.64404E-002,1.08960E+000,-2.37812E-002,0.00000E+000,2.34823E-002,9.67489E-001,0.00000E+000,-1.74624E-002,-6.32038E-002,1.00000E+000,13
849,1337,-2.86131E+000,1.59134E-001,-7.74273E-003,2.64065E+000,-4.73256E-001,3.31317E-002,2.68293E+000,1.01846E-002,5.73905E-001,0,4.07030E+001,-7.80309E+000,9.99342E-001,-3.57652E+000,-4.39445E+001,9.99048E-001,8.84340E-002,-3.62101E-002,-2.29065E-003,8.84761E-002,-3.62522E-002,-1.05248E+000,8.89553E-002,1.09246E+000,-4.37665E-003,0.00000E+000,-5.77021E-004,9.67313E-001,0.00000E+000,-6.99189E-006,-7.71991E-002,1.00000E+000,13
849,1347,-2.84379E+000,7.81721E-001,-1.73925E-002,2.63852E+000,-4.96151E-001,-9.21104E-003,2.68478E+000,9.14434E-003,5.15977E-001,0,4.08031E+001,-8.07598E+000,9.99440E-001,-3.21132E+000,-4.43514E+001,9.99266E-001,8.77889E-002,-3.62101E-002,-2.30066E-003,8.78315E-002,-3.62527E-002,-1.06257E+000,8.82761E-002,1.09175E+000,-4.39757E-003,0.00000E+000,-4.65908E-004,9.67316E-001,0.00000E+000,-1.48061E-003,-7.72429E-002,1.00000E+000,13
849,1357,-2.81412E+000,1.41742E+000,2.17282E-002,2.63809E+000,-5.15522E-001,-5.34546E-002,2.68852E+000,7.46518E-003,5.08535E-001,0,4.09294E+001,-8.28616E+000,9.99528E-001,-2.54129E+000,-4.46402E+001,9.99399E-001,8.71346E-002,-3.62101E-002,-2.31581E-003,8.71780E-002,-3.62535E-002,-1.07523E+000,8.75885E-002,1.09104E+000,-4.42950E-003,0.00000E+000,-3.53659E-004,9.67321E-001,0.00000E+000,-2.96927E-003,-7.73098E-002,1.00000E+000,13
849,1327,-2.87459E+000,-4.58806E-001,2.83841E-002,2.64260E+000,-4.47317E-001,8.01612E-002,2.68139E+000,9.98531E-003,5.63946E-001,0,4.05820E+001,-7.48576E+000,9.99428E-001,-3.81218E+000,-4.35592E+001,9.99145E-001,8.90762E-002,-3.62101E-002,-2.28283E-003,8.91178E-002,-3.62517E-002,-1.04352E+000,8.96326E-002,1.09316E+000,-4.36038E-003,0.00000E+000,-6.88083E-004,9.67310E-001,0.00000E+000,1.46592E-003,-7.71651E-002,1.00000E+000,13
1009,1337,8.51553E+000,3.99451E-001,-4.19081E-002,3.56942E+000,-3.34792E-001,-5.50853E-002,3.58551E+000,1.12171E-002,4.60413E-001,0,5.46503E+001,-5.56874E+000,9.99643E-001,1.21255E+001,-3.86629E+001,9.99275E-001,8.46626E-002,-3.47248E-002,8.74268E-004,8.46690E-002,-3.47312E-002,4.19544E-001,8.51229E-002,1.08811E+000,-2.40267E-002,0.00000E+000,2.34407E-002,9.67405E-001,0.00000E+000,-7.87668E-003,-6.11933E-002,1.00000E+000,13
1009,1347,8.52654E+000,1.02223E+000,-2.66557E-002,3.55297E+000,-3.65046E-001,-9.47614E-002,3.57293E+000,7.54309E-003,4.21825E-001,0,5.45362E+001,-5.96281E+000,9.99833E-001,1.24175E+001,-3.90864E+001,9.99549E-001,8.44991E-002,-3.47143E-002,9.49817E-004,8.45067E-002,-3.47219E-002,4.56458E-001,8.49530E-002,1.08792E+000,-2.40347E-002,0.00000E+000,2.34999E-002,9.67407E-001,0.00000E+000,-6.22791E-003,-6.11237E-002,1.00000E+000,13
1009,1297,8.53512E+000,-2.08370E+000,1.84908E-001,3.62993E+000,-2.46817E-001,9.03708E-002,3.63944E+000,8.62727E-003,4.35105E-001,0,5.50478E+001,-4.44212E+000,9.98860E-001,1.25205E+001,-3.75738E+001,9.97578E-001,8.52844E-002,-3.47497E-002,5.64670E-004,8.52871E-002,-3.47523E-002,2.69525E-001,8.57725E-002,1.08885E+000,-2.40149E-002,0.00000E+000,2.32060E-002,9.67401E-001,0.00000E+000,-1.44196E-002,-6.12972E-002,1.00000E+000,13
1009,1307,8.52349E+000,-1.46634E+000,1.00337E-001,3.61295E+000,-2.68888E-001,4.74143E-002,3.62325E+000,8.74391E-003,4.45559E-001,0,5.49464E+001,-4.71656E+000,9.99251E-001,1.22613E+001,-3.78371E+001,9.98957E-001,8.51335E-002,-3.47447E-002,6.42575E-004,8.51369E-002,-3.47482E-002,3.07107E-001,8.56144E-002,1.08867E+000,-2.40164E-002,0.00000E+000,2.32645E-002,9.67402E-001,0.00000E+000,-1.27887E-002,-6.12836E-002,1.00000E+000,13
1009,1317,8.51815E+000,-8.48432E-001,3.50857E-002,3.59989E+000,-2.92324E-001,1.35454E-002,3.61177E+000,9.24484E-003,4.61467E-001,0,5.48717E+001,-5.02787E+000,9.99349E-001,1.21380E+001,-3.81298E+001,9.99022E-001,8.49795E-002,-3.47391E-002,7.20262E-004,8.49838E-002,-3.47435E-002,3.44691E-001,8.54535E-002,1.08848E+000,-2.40187E-002,0.00000E+000,2.33231E-002,9.67402E-001,0.00000E+000,-1.11547E-002,-6.12640E-002,1.00000E+000,13
849,1317,-2.88735E+000,-1.07138E+000,9.00902E-002,2.64202E+000,-4.18915E-001,1.37902E-001,2.67857E+000,1.13368E-002,6.32370E-001,0,4.03854E+001,-7.18228E+000,9.99208E-001,-3.97835E+000,-4.31081E+001,9.98336E-001,8.97139E-002,-3.62101E-002,-2.27653E-003,8.97551E-002,-3.62512E-002,-1.03538E+000,9.03061E-002,1.09386E+000,-4.34733E-003,0.00000E+000,-7.98795E-004,9.67308E-001,0.00000E+000,2.93421E-003,-7.71378E-002,1.00000E+000,13
1009,1327,8.51510E+000,-2.27535E-001,-9.03552E-003,3.58221E+000,-3.17053E-001,-2.94361E-002,3.59633E+000,8.94768E-003,4.57659E-001,0,5.47556E+001,-5.33032E+000,9.99613E-001,1.20931E+001,-3.84322E+001,9.99325E-001,8.48223E-002,-3.47318E-002,7.97265E-004,8.48276E-002,-3.47371E-002,3.82063E-001,8.52895E-002,1.08830E+000,-2.40229E-002,0.00000E+000,2.33819E-002,9.67404E-001,0.00000E+000,-9.51509E-003,-6.12269E-002,1.00000E+000,13
849,1307,-2.89737E+000,-1.68210E+000,1.86536E-001,2.63634E+000,-3.93426E-001,1.92074E-001,2.67245E+000,1.29388E-002,5.87797E-001,0,4.01195E+001,-6.86938E+000,9.99189E-001,-4.01857E+000,-4.27586E+001,9.98145E-001,9.03466E-002,-3.62101E-002,-2.27399E-003,9.03875E-002,-3.62509E-002,-1.02906E+000,9.09754E-002,1.09456E+000,-4.34253E-003,0.00000E+000,-9.09078E-004,9.67307E-001,0.00000E+000,4.39681E-003,-7.71277E-002,1.00000E+000,13
839,1337,-3.57024E+000,1.52072E-001,1.26491E-002,2.57834E+000,-4.75284E-001,4.40560E-002,2.62215E+000,2.04147E-002,5.65476E-001,0,3.97354E+001,-7.85497E+000,9.99394E-001,-4.44402E+000,-4.42003E+001,9.98857E-001,8.85532E-002,-3.62380E-002,-1.99860E-003,8.85852E-002,-3.62700E-002,-9.17310E-001,8.90682E-002,1.09259E+000,-3.54264E-003,0.00000E+000,-7.12371E-004,9.67187E-001,0.00000E+000,-4.73149E-004,-7.58785E-002,1.00000E+000,13
839,1347,-3.55362E+000,7.75658E-001,-1.21379E-002,2.57740E+000,-4.95930E-001,-3.92078E-003,2.62468E+000,7.92394E-003,5.09853E-001,0,3.98712E+001,-8.07611E+000,9.99467E-001,-4.12745E+000,-4.45596E+001,9.99147E-001,8.80378E-002,-3.62382E-002,-2.00995E-003,8.80703E-002,-3.62707E-002,-9.26339E-001,8.85254E-002,1.09203E+000,-3.55766E-003,0.00000E+000,-6.07312E-004,9.67190E-001,0.00000E+000,-2.00842E-003,-7.59196E-002,1.00000E+000,13
839,1357,-3.52307E+000,1.41336E+000,2.27869E-002,2.57898E+000,-5.12325E-001,-4.80426E-002,2.62981E+000,6.31087E-003,5.00262E-001,0,4.00267E+001,-8.24112E+000,9.99601E-001,-3.45111E+000,-4.48111E+001,9.99366E-001,8.75144E-002,-3.62386E-002,-2.02588E-003,8.75476E-002,-3.62718E-002,-9.37617E-001,8.79751E-002,1.09146E+000,-3.58237E-003,0.00000E+000,-5.01176E-004,9.67194E-001,0.00000E+000,-3.55942E-003,-7.59872E-002,1.00000E+000,13
1019,1337,9.23544E+000,4.25701E-001,-3.30217E-002,3.62899E+000,-3.18809E-001,-6.43962E-002,3.64353E+000,9.20714E-003,5.23601E-001,0,5.55441E+001,-5.31939E+000,9.99549E-001,1.33016E+001,-3.81483E+001,9.99386E-001,8.45900E-002,-3.47228E-002,6.33839E-004,8.45934E-002,-3.47262E-002,3.04367E-001,8.50439E-002,1.08802E+000,-2.42033E-002,0.00000E+000,2.30346E-002,9.67339E-001,0.00000E+000,-6.31002E-003,-5.99147E-002,1.00000E+000,13
1019,1347,9.24019E+000,1.04723E+000,-3.18843E-002,3.61187E+000,-3.47475E-001,-9.30025E-002,3.62974E+000,8.32832E-003,4.76810E-001,0,5.53837E+001,-5.70033E+000,9.99644E-001,1.34665E+001,-3.85635E+001,9.99557E-001,8.45413E-002,-3.47145E-002,7.06236E-004,8.45455E-002,-3.47187E-002,3.39291E-001,8.49942E-002,1.08796E+000,-2.42053E-002,0.00000E+000,2.30976E-002,9.67341E-001,0.00000E+000,-4.92859E-003,-5.98683E-002,1.00000E+000,13
839,1327,-3.59178E+000,-4.59389E-001,3.62947E-002,2.57639E+000,-4.40506E-001,1.00692E-001,2.61572E+000,1.80672E-002,5.84957E-001,0,3.95240E+001,-7.42627E+000,9.99577E-001,-4.83630E+000,-4.36724E+001,9.98978E-001,8.90671E-002,-3.62377E-002,-1.98653E-003,8.90986E-002,-3.62692E-002,-9.08038E-001,8.96101E-002,1.09315E+000,-3.52589E-003,0.00000E+000,-8.17665E-004,9.67184E-001,0.00000E+000,1.06554E-003,-7.58327E-002,1.00000E+000,13
1019,1327,9.23017E+000,-2.05634E-001,-1.57133E-002,3.64199E+000,-3.01410E-001,-3.30316E-002,3.65459E+000,8.99454E-003,4.70305E-001,0,5.56343E+001,-5.08393E+000,9.99532E-001,1.31642E+001,-3.79783E+001,9.99172E-001,8.46369E-002,-3.47303E-002,5.61244E-004,8.46395E-002,-3.47330E-002,2.69387E-001,8.50917E-002,1.08807E+000,-2.42017E-002,0.00000E+000,2.29716E-002,9.67337E-001,0.00000E+000,-7.69062E-003,-5.99535E-002,1.00000E+000,13
1019,1317,9.23374E+000,-8.28922E-001,3.60511E-002,3.65661E+000,-2.80078E-001,1.49079E-003,3.66733E+000,1.03836E-002,4.49952E-001,0,5.57324E+001,-4.81937E+000,9.99516E-001,1.32327E+001,-3.77431E+001,9.98925E-001,8.46817E-002,-3.47362E-002,4.88518E-004,8.46837E-002,-3.47382E-002,2.34382E-001,8.51376E-002,1.08813E+000,-2.42006E-002,0.00000E+000,2.29088E-002,9.67336E-001,0.00000E+000,-9.06698E-003,-5.99770E-002,1.00000E+000,13
839,1317,-3.59980E+000,-1.07316E+000,9.35036E-002,2.57633E+000,-4.14931E-001,1.33643E-001,2.61295E+000,9.66151E-003,5.57148E-001,0,3.94148E+001,-7.08719E+000,9.99261E-001,-4.94011E+000,-4.32757E+001,9.97728E-001,8.95757E-002,-3.62376E-002,-1.97901E-003,8.96068E-002,-3.62687E-002,-9.00948E-001,9.01471E-002,1.09371E+000,-3.51900E-003,0.00000E+000,-9.22380E-004,9.67183E-001,0.00000E+000,2.59578E-003,-7.58139E-002,1.00000E+000,13
1019,1297,9.24606E+000,-2.06190E+000,1.72015E-001,3.68528E+000,-2.29954E-001,7.81088E-002,3.69327E+000,9.40466E-003,4.39609E-001,0,5.58864E+001,-4.16842E+000,9.99536E-001,1.35159E+001,-3.71182E+001,9.98819E-001,8.47653E-002,-3.47466E-002,3.43158E-004,8.47663E-002,-3.47476E-002,1.64513E-001,8.52236E-002,1.08825E+000,-2.41991E-002,0.00000E+000,2.27836E-002,9.67335E-001,0.00000E+000,-1.18102E-002,-6.00118E-002,1.00000E+000,13
1019,1307,9.23454E+000,-1.44505E+000,8.89545E-002,3.66759E+000,-2.54819E-001,3.35728E-002,3.67658E+000,1.26882E-002,4.90593E-001,0,5.57818E+001,-4.47778E+000,9.99572E-001,1.32613E+001,-3.73705E+001,9.98840E-001,8.47244E-002,-3.47418E-002,4.16027E-004,8.47258E-002,-3.47433E-002,1.99522E-001,8.51814E-002,1.08819E+000,-2.41997E-002,0.00000E+000,2.28463E-002,9.67335E-001,0.00000E+000,-1.04370E-002,-5.99986E-002,1.00000E+000,13
839,1307,-3.60432E+000,-1.68032E+000,1.86315E-001,2.57564E+000,-3.86059E-001,1.81858E-001,2.61075E+000,8.04789E-003,5.26053E-001,0,3.92443E+001,-6.72217E+000,9.99175E-001,-4.90308E+000,-4.28544E+001,9.97692E-001,9.00800E-002,-3.62376E-002,-1.97311E-003,9.01108E-002,-3.62684E-002,-8.94681E-001,9.06802E-002,1.09427E+000,-3.51561E-003,0.00000E+000,-1.02675E-003,9.67182E-001,0.00000E+000,4.12097E-003,-7.58046E-002,1.00000E+000,13
829,1337,-4.28172E+000,1.49831E-001,1.85478E-003,2.51629E+000,-4.69654E-001,3.95858E-002,2.56005E+000,1.44245E-002,5.64248E-001,0,3.88186E+001,-7.76589E+000,9.99065E-001,-5.42014E+000,-4.43108E+001,9.98390E-001,8.83826E-002,-3.62329E-002,-1.68921E-003,8.84055E-002,-3.62558E-002,-7.76476E-001,8.88805E-002,1.09241E+000,-2.89962E-003,0.00000E+000,-6.37117E-004,9.67104E-001,0.00000E+000,-1.06857E-003,-7.46757E-002,1.00000E+000,13
829,1347,-4.26049E+000,7.74618E-001,-2.59006E-003,2.51754E+000,-4.92237E-001,-5.82772E-004,2.56521E+000,6.83057E-003,5.30022E-001,0,3.89620E+001,-8.02159E+000,9.99120E-001,-4.98229E+000,-4.46866E+001,9.98862E-001,8.79498E-002,-3.62364E-002,-1.75019E-003,8.79744E-002,-3.62610E-002,-8.07273E-001,8.84256E-002,1.09194E+000,-2.91396E-003,0.00000E+000,-6.21945E-004,9.67104E-001,0.00000E+000,-2.72808E-003,-7.47264E-002,1.00000E+000,13
829,1357,-4.23236E+000,1.40998E+000,2.73038E-002,2.51835E+000,-5.09848E-001,-4.27091E-002,2.56979E+000,6.70792E-003,5.33155E-001,0,3.90996E+001,-8.21413E+000,9.99512E-001,-4.35362E+000,-4.49588E+001,9.99345E-001,8.75116E-002,-3.62410E-002,-1.81398E-003,8.75382E-002,-3.62676E-002,-8.39610E-001,8.79657E-002,1.09146E+000,-2.93352E-003,0.00000E+000,-6.06691E-004,9.67105E-001,0.00000E+000,-4.39661E-003,-7.47955E-002,1.00000E+000,13
1029,1337,9.94178E+000,4.41754E-001,-4.29024E-002,3.68041E+000,-3.07242E-001,-6.71706E-002,3.69382E+000,8.46094E-003,4.78687E-001,0,5.62945E+001,-5.13042E+000,9.99344E-001,1.42334E+001,-3.78060E+001,9.98858E-001,8.46000E-002,-3.45853E-002,4.32972E-004,8.46015E-002,-3.45869E-002,2.08138E-001,8.50691E-002,1.08802E+000,-2.42288E-002,0.00000E+000,2.25720E-002,9.67423E-001,0.00000E+000,-4.65173E-003,-5.89163E-002,1.00000E+000,13
1029,1347,9.94759E+000,1.07341E+000,-4.12211E-002,3.66328E+000,-3.27583E-001,-9.90497E-002,3.67923E+000,8.12382E-003,4.95322E-001,0,5.61426E+001,-5.39161E+000,9.99464E-001,1.44151E+001,-3.80323E+001,9.98923E-001,8.46471E-002,-3.45762E-002,5.12892E-004,8.46493E-002,-3.45785E-002,2.46477E-001,8.51206E-002,1.08807E+000,-2.42271E-002,0.00000E+000,2.26536E-002,9.67426E-001,0.00000E+000,-3.40804E-003,-5.88727E-002,1.00000E+000,13
1029,1327,9.94351E+000,-1.84811E-001,-1.20801E-002,3.69788E+000,-2.85925E-001,-3.38685E-002,3.70907E+000,9.10414E-003,4.58093E-001,0,5.64417E+001,-4.86465E+000,9.99400E-001,1.42326E+001,-3.75762E+001,9.98901E-001,8.45514E-002,-3.45927E-002,3.53459E-004,8.45525E-002,-3.45937E-002,1.69974E-001,8.50166E-002,1.08797E+000,-2.42299E-002,0.00000E+000,2.24906E-002,9.67421E-001,0.00000E+000,-5.89158E-003,-5.89462E-002,1.00000E+000,13
829,1327,-4.30006E+000,-4.63050E-001,3.08506E-002,2.51354E+000,-4.39038E-001,8.26168E-002,2.55293E+000,1.30277E-002,5.81308E-001,0,3.86387E+001,-7.37411E+000,9.99424E-001,-5.75148E+000,-4.38156E+001,9.99154E-001,8.88108E-002,-3.62302E-002,-1.62997E-003,8.88321E-002,-3.62515E-002,-7.46707E-001,8.93309E-002,1.09287E+000,-2.88842E-003,0.00000E+000,-6.52227E-004,9.67103E-001,0.00000E+000,5.84216E-004,-7.46361E-002,1.00000E+000,13
829,1307,-4.30548E+000,-1.68599E+000,2.04077E-001,2.52042E+000,-3.86841E-001,1.90126E-001,2.55701E+000,9.81251E-003,4.66247E-001,0,3.83960E+001,-6.73158E+000,9.99273E-001,-5.65218E+000,-4.31013E+001,9.97718E-001,8.96543E-002,-3.62279E-002,-1.51827E-003,8.96726E-002,-3.62462E-002,-6.90913E-001,9.02195E-002,1.09380E+000,-2.87948E-003,0.00000E+000,-6.82296E-004,9.67103E-001,0.00000E+000,3.87326E-003,-7.46045E-002,1.00000E+000,13
829,1317,-4.30729E+000,-1.07592E+000,9.90215E-002,2.51554E+000,-4.12420E-001,1.33256E-001,2.55260E+000,1.09331E-002,5.10990E-001,0,3.85063E+001,-7.02755E+000,9.99256E-001,-5.81640E+000,-4.34479E+001,9.98700E-001,8.92347E-002,-3.62286E-002,-1.57302E-003,8.92544E-002,-3.62483E-002,-7.18208E-001,8.97772E-002,1.09334E+000,-2.88175E-003,0.00000E+000,-6.67286E-004,9.67103E-001,0.00000E+000,2.23140E-003,-7.46125E-002,1.00000E+000,13
1029,1317,9.94685E+000,-8.09695E-001,3.19444E-002,3.71261E+000,-2.67641E-001,-5.88452E-003,3.72225E+000,1.01793E-002,4.65191E-001,0,5.65654E+001,-4.61764E+000,9.99564E-001,1.42827E+001,-3.73369E+001,9.98899E-001,8.45016E-002,-3.45989E-002,2.74453E-004,8.45022E-002,-3.45996E-002,1.32030E-001,8.49629E-002,1.08792E+000,-2.42307E-002,0.00000E+000,2.24097E-002,9.67420E-001,0.00000E+000,-7.12479E-003,-5.89679E-002,1.00000E+000,13
1029,1307,9.95394E+000,-1.42610E+000,1.00139E-001,3.72849E+000,-2.42743E-001,3.51412E-002,3.73655E+000,9.66820E-003,5.12012E-001,0,5.66556E+001,-4.31343E+000,9.99566E-001,1.44388E+001,-3.69990E+001,9.97872E-001,8.44503E-002,-3.46046E-002,1.95619E-004,8.44506E-002,-3.46049E-002,9.41424E-002,8.49078E-002,1.08788E+000,-2.42314E-002,0.00000E+000,2.23290E-002,9.67419E-001,0.00000E+000,-8.35588E-003,-5.89847E-002,1.00000E+000,13
1029,1297,9.96402E+000,-2.04011E+000,1.78031E-001,3.74520E+000,-2.15013E-001,7.62544E-002,3.75214E+000,8.64825E-003,4.84113E-001,0,5.67556E+001,-3.95620E+000,9.99537E-001,1.46611E+001,-3.66818E+001,9.98175E-001,8.43974E-002,-3.46097E-002,1.16683E-004,8.43976E-002,-3.46098E-002,5.61766E-002,8.48513E-002,1.08783E+000,-2.42319E-002,0.00000E+000,2.22480E-002,9.67418E-001,0.00000E+000,-9.58905E-003,-5.89974E-002,1.00000E+000,13
819,1317,-5.01181E+000,-1.08428E+000,1.08564E-001,2.45658E+000,-4.16294E-001,1.33251E-001,2.49517E+000,1.08361E-002,4.85735E-001,0,3.76253E+001,-7.07490E+000,9.99103E-001,-6.63368E+000,-4.37044E+001,9.98028E-001,8.86003E-002,-3.60937E-002,-1.23076E-003,8.86124E-002,-3.61058E-002,-5.65450E-001,8.91169E-002,1.09264E+000,-2.47817E-003,0.00000E+000,-3.14576E-004,9.67134E-001,0.00000E+000,1.64632E-003,-7.32235E-002,1.00000E+000,13
819,1327,-5.00704E+000,-4.72943E-001,3.38692E-002,2.45441E+000,-4.42376E-001,8.70123E-002,2.49548E+000,1.11640E-002,5.05267E-001,0,3.77409E+001,-7.40150E+000,9.99340E-001,-6.62258E+000,-4.41093E+001,9.98255E-001,8.82463E-002,-3.60958E-002,-1.32374E-003,8.82604E-002,-3.61099E-002,-6.09877E-001,8.87449E-002,1.09226E+000,-2.48238E-003,0.00000E+000,-3.80351E-004,9.67133E-001,0.00000E+000,9.10811E-005,-7.32403E-002,1.00000E+000,13
819,1337,-4.99052E+000,1.47549E-001,2.61858E-003,2.45613E+000,-4.65645E-001,4.51322E-002,2.50029E+000,8.39093E-003,5.48880E-001,0,3.78985E+001,-7.69659E+000,9.99166E-001,-6.32287E+000,-4.44540E+001,9.98787E-001,8.78874E-002,-3.61002E-002,-1.41950E-003,8.79037E-002,-3.61164E-002,-6.55848E-001,8.83681E-002,1.09187E+000,-2.49129E-003,0.00000E+000,-4.46548E-004,9.67132E-001,0.00000E+000,-1.47416E-003,-7.32760E-002,1.00000E+000,13
819,1307,-5.01607E+000,-1.69116E+000,1.94578E-001,2.45620E+000,-3.89123E-001,1.75652E-001,2.49303E+000,1.06374E-002,5.26974E-001,0,3.74806E+001,-6.73405E+000,9.99270E-001,-6.60868E+000,-4.32242E+001,9.97958E-001,8.89504E-002,-3.60923E-002,-1.13899E-003,8.89607E-002,-3.61027E-002,-5.21838E-001,8.94852E-002,1.09303E+000,-2.47579E-003,0.00000E+000,-2.49061E-004,9.67134E-001,0.00000E+000,3.19543E-003,-7.32139E-002,1.00000E+000,13
819,1347,-4.96750E+000,7.75349E-001,-4.00717E-004,2.45896E+000,-4.85550E-001,4.51397E-003,2.50644E+000,7.49878E-003,5.64276E-001,0,3.80657E+001,-7.93034E+000,9.99462E-001,-5.85232E+000,-4.47632E+001,9.99419E-001,8.75247E-002,-3.61061E-002,-1.51715E-003,8.75433E-002,-3.61247E-002,-7.02973E-001,8.79875E-002,1.09147E+000,-2.50344E-003,0.00000E+000,-5.12994E-004,9.67130E-001,0.00000E+000,-3.04527E-003,-7.33247E-002,1.00000E+000,13
819,1357,-4.93972E+000,1.40269E+000,2.95362E-002,2.45910E+000,-5.11159E-001,-4.03725E-002,2.51198E+000,8.87087E-003,5.42964E-001,0,3.82033E+001,-8.23171E+000,9.99392E-001,-5.22792E+000,-4.51733E+001,9.99260E-001,8.71575E-002,-3.61140E-002,-1.61742E-003,8.71787E-002,-3.61352E-002,-7.51592E-001,8.76026E-002,1.09108E+000,-2.52005E-003,0.00000E+000,-5.79761E-004,9.67127E-001,0.00000E+000,-4.62399E-003,-7.33912E-002,1.00000E+000,13
1039,1337,1.06566E+001,4.62777E-001,-4.78981E-002,3.73825E+000,-2.93065E-001,-7.19101E-002,3.75041E+000,7.78830E-003,4.92508E-001,0,5.71462E+001,-4.90648E+000,9.99533E-001,1.53108E+001,-3.73673E+001,9.98569E-001,8.46043E-002,-3.43827E-002,1.24804E-004,8.46044E-002,-3.43828E-002,6.00968E-002,8.50972E-002,1.08802E+000,-2.42221E-002,0.00000E+000,2.18837E-002,9.67594E-001,0.00000E+000,-3.08767E-003,-5.82227E-002,1.00000E+000,13
1039,1347,1.06606E+001,1.08654E+000,-4.54934E-002,3.71957E+000,-3.19221E-001,-1.01291E-001,3.73462E+000,7.71999E-003,4.40170E-001,0,5.69650E+001,-5.26018E+000,9.99727E-001,1.54629E+001,-3.77503E+001,9.99190E-001,8.47394E-002,-3.43769E-002,1.78880E-004,8.47397E-002,-3.43772E-002,8.60420E-002,8.52408E-002,1.08816E+000,-2.42171E-002,0.00000E+000,2.19193E-002,9.67595E-001,0.00000E+000,-1.98797E-003,-5.81847E-002,1.00000E+000,13
1039,1317,1.06586E+001,-7.85686E-001,2.67656E-002,3.76850E+000,-2.48408E-001,-7.04969E-003,3.77669E+000,7.52028E-003,4.63692E-001,0,5.73718E+001,-4.33152E+000,9.99517E-001,1.53143E+001,-3.68630E+001,9.98974E-001,8.43307E-002,-3.43915E-002,1.83439E-005,8.43307E-002,-3.43915E-002,8.85285E-003,8.48071E-002,1.08773E+000,-2.42284E-002,0.00000E+000,2.18125E-002,9.67592E-001,0.00000E+000,-5.28399E-003,-5.82703E-002,1.00000E+000,13
1039,1327,1.06569E+001,-1.65630E-001,-1.73096E-002,3.75462E+000,-2.71885E-001,-3.81445E-002,3.76465E+000,7.52111E-003,4.41286E-001,0,5.72745E+001,-4.64934E+000,9.99537E-001,1.52885E+001,-3.71827E+001,9.98724E-001,8.44676E-002,-3.43874E-002,7.12040E-005,8.44676E-002,-3.43874E-002,3.43249E-002,8.49521E-002,1.08787E+000,-2.42257E-002,0.00000E+000,2.18479E-002,9.67593E-001,0.00000E+000,-4.19005E-003,-5.82497E-002,1.00000E+000,13
1039,1307,1.06663E+001,-1.40677E+000,8.43775E-002,3.78551E+000,-2.27396E-001,2.52773E-002,3.79242E+000,8.18543E-003,4.77989E-001,0,5.75112E+001,-4.05696E+000,9.99483E-001,1.54589E+001,-3.65929E+001,9.98693E-001,8.41926E-002,-3.43952E-002,-3.42194E-005,8.41927E-002,-3.43952E-002,-1.65331E-002,8.46610E-002,1.08758E+000,-2.42305E-002,0.00000E+000,2.17770E-002,9.67592E-001,0.00000E+000,-6.37688E-003,-5.82860E-002,1.00000E+000,13
1039,1297,1.06773E+001,-2.02366E+000,1.65400E-001,3.80265E+000,-2.03054E-001,6.70512E-002,3.80865E+000,8.02056E-003,4.60719E-001,0,5.76152E+001,-3.75287E+000,9.99244E-001,1.57014E+001,-3.63234E+001,9.98632E-001,8.40534E-002,-3.43984E-002,-8.64936E-005,8.40535E-002,-3.43984E-002,-4.18374E-002,8.45137E-002,1.08744E+000,-2.42319E-002,0.00000E+000,2.17416E-002,9.67591E-001,0.00000E+000,-7.46988E-003,-5.82964E-002,1.00000E+000,13
1049,1337,1.13763E+001,4.83104E-001,-4.69898E-002,3.79983E+000,-2.77555E-001,-7.37254E-002,3.81066E+000,1.08111E-002,4.57443E-001,0,5.80417E+001,-4.68311E+000,9.99785E-001,1.64786E+001,-3.69763E+001,9.99153E-001,8.45753E-002,-3.43384E-002,-2.78974E-004,8.45760E-002,-3.43391E-002,-1.34416E-001,8.50726E-002,1.08799E+000,-2.41989E-002,0.00000E+000,2.10111E-002,9.67601E-001,0.00000E+000,-1.82265E-003,-5.72613E-002,1.00000E+000,13
1049,1347,1.13856E+001,1.11199E+000,-3.24457E-002,3.78402E+000,-3.02518E-001,-1.00499E-001,3.79743E+000,9.56168E-003,4.72018E-001,0,5.78935E+001,-5.02295E+000,9.99703E-001,1.67353E+001,-3.72714E+001,9.98663E-001,8.48211E-002,-3.43365E-002,-2.55612E-004,8.48217E-002,-3.43371E-002,-1.22908E-001,8.53325E-002,1.08825E+000,-2.41887E-002,0.00000E+000,2.10016E-002,9.67600E-001,0.00000E+000,-1.09074E-003,-5.72334E-002,1.00000E+000,13
1049,1307,1.13856E+001,-1.38488E+000,9.50385E-002,3.84524E+000,-2.11108E-001,2.53868E-002,3.85112E+000,1.10550E-002,4.18065E-001,0,5.83680E+001,-3.80616E+000,9.99552E-001,1.66430E+001,-3.62156E+001,9.98720E-001,8.38402E-002,-3.43423E-002,-3.41491E-004,8.38412E-002,-3.43433E-002,-1.65556E-001,8.42965E-002,1.08719E+000,-2.42135E-002,0.00000E+000,2.10392E-002,9.67601E-001,0.00000E+000,-4.00009E-003,-5.73014E-002,1.00000E+000,13
1049,1317,1.13764E+001,-7.63509E-001,3.83938E-002,3.82627E+000,-2.32683E-001,-7.25640E-003,3.83334E+000,9.97382E-003,4.20915E-001,0,5.82007E+001,-4.09091E+000,9.99288E-001,1.64754E+001,-3.64738E+001,9.97794E-001,8.40854E-002,-3.43411E-002,-3.21088E-004,8.40862E-002,-3.43420E-002,-1.55344E-001,8.45551E-002,1.08745E+000,-2.42096E-002,0.00000E+000,2.10299E-002,9.67601E-001,0.00000E+000,-3.27566E-003,-5.72906E-002,1.00000E+000,13
1049,1327,1.13718E+001,-1.46761E-001,-2.02287E-002,3.81254E+000,-2.59119E-001,-3.93425E-002,3.82154E+000,6.28908E-003,4.35576E-001,0,5.81132E+001,-4.45006E+000,9.99596E-001,1.63756E+001,-3.67934E+001,9.98309E-001,8.43301E-002,-3.43400E-002,-3.00804E-004,8.43309E-002,-3.43407E-002,-1.45232E-001,8.48135E-002,1.08772E+000,-2.42058E-002,0.00000E+000,2.10205E-002,9.67601E-001,0.00000E+000,-2.55078E-003,-5.72804E-002,1.00000E+000,13
809,1347,-5.68041E+000,7.64029E-001,-4.44502E-003,2.39439E+000,-4.89372E-001,4.87284E-003,2.44389E+000,6.65716E-003,5.61985E-001,0,3.70942E+001,-7.99340E+000,9.99678E-001,-6.82604E+000,-4.50312E+001,9.99530E-001,8.70431E-002,-3.59446E-002,-1.27857E-003,8.70564E-002,-3.59579E-002,-5.95556E-001,8.74941E-002,1.09095E+000,-2.27000E-003,0.00000E+000,-2.50127E-004,9.67179E-001,0.00000E+000,-3.19591E-003,-7.18020E-002,1.00000E+000,13
809,1357,-5.65308E+000,1.39513E+000,3.14382E-002,2.39357E+000,-5.12082E-001,-3.75792E-002,2.44803E+000,7.96454E-003,5.40150E-001,0,3.72077E+001,-8.24574E+000,9.99572E-001,-6.19109E+000,-4.53984E+001,9.99157E-001,8.67782E-002,-3.59573E-002,-1.42921E-003,8.67949E-002,-3.59740E-002,-6.67066E-001,8.72171E-002,1.09067E+000,-2.28215E-003,0.00000E+000,-4.29164E-004,9.67171E-001,0.00000E+000,-4.65469E-003,-7.18647E-002,1.00000E+000,13
809,1327,-5.71652E+000,-4.83443E-001,2.18926E-002,2.39234E+000,-4.48895E-001,7.66889E-002,2.43530E+000,8.26424E-003,5.31063E-001,0,3.68436E+001,-7.45655E+000,9.99542E-001,-7.56556E+000,-4.43296E+001,9.98074E-001,8.75607E-002,-3.59289E-002,-9.84967E-004,8.75685E-002,-3.59368E-002,-4.56959E-001,8.80361E-002,1.09151E+000,-2.25527E-003,0.00000E+000,1.04228E-004,9.67188E-001,0.00000E+000,-3.08669E-004,-7.17259E-002,1.00000E+000,13
809,1337,-5.69837E+000,1.37668E-001,2.94175E-003,2.39539E+000,-4.70170E-001,4.47573E-002,2.44151E+000,5.65441E-003,5.53768E-001,0,3.69890E+001,-7.75511E+000,9.99620E-001,-7.20933E+000,-4.47034E+001,9.99476E-001,8.73034E-002,-3.59359E-002,-1.13112E-003,8.73138E-002,-3.59463E-002,-5.25815E-001,8.77665E-002,1.09123E+000,-2.26180E-003,0.00000E+000,-7.26610E-005,9.67184E-001,0.00000E+000,-1.74994E-003,-7.17596E-002,1.00000E+000,13
809,1307,-5.72802E+000,-1.69651E+000,1.91577E-001,2.39164E+000,-3.89559E-001,1.74589E-001,2.42944E+000,1.25530E-002,5.77293E-001,0,3.65158E+001,-6.74816E+000,9.98189E-001,-7.56601E+000,-4.33692E+001,9.96569E-001,8.80661E-002,-3.59234E-002,-6.98124E-004,8.80700E-002,-3.59273E-002,-3.22591E-001,8.85662E-002,1.09206E+000,-2.25056E-003,0.00000E+000,4.56094E-004,9.67191E-001,0.00000E+000,2.55830E-003,-7.17016E-002,1.00000E+000,13
809,1317,-5.72062E+000,-1.09028E+000,1.02901E-001,2.39535E+000,-4.18315E-001,1.30459E-001,2.43510E+000,1.22063E-002,5.54196E-001,0,3.67170E+001,-7.09903E+000,9.99347E-001,-7.55007E+000,-4.38459E+001,9.98002E-001,8.78147E-002,-3.59254E-002,-8.41036E-004,8.78205E-002,-3.59311E-002,-3.89404E-001,8.83024E-002,1.09179E+000,-2.25218E-003,0.00000E+000,2.80362E-004,9.67190E-001,0.00000E+000,1.12645E-003,-7.17099E-002,1.00000E+000,13
1049,1297,1.13901E+001,-2.00741E+000,1.61993E-001,3.85825E+000,-1.91592E-001,6.33314E-002,3.86353E+000,9.09013E-003,4.14339E-001,0,5.84255E+001,-3.56109E+000,9.99257E-001,1.67558E+001,-3.59992E+001,9.97734E-001,8.35947E-002,-3.43434E-002,-3.61681E-004,8.35958E-002,-3.43445E-002,-1.75707E-001,8.40376E-002,1.08692E+000,-2.42170E-002,0.00000E+000,2.10486E-002,9.67601E-001,0.00000E+000,-4.72387E-003,-5.73110E-002,1.00000E+000,13
799,1337,-6.40736E+000,1.29972E-001,-1.46730E-003,2.33404E+000,-4.71288E-001,4.42851E-002,2.38155E+000,5.82306E-003,5.45505E-001,0,3.60681E+001,-7.76259E+000,9.99688E-001,-8.12015E+000,-4.49156E+001,9.99508E-001,8.64960E-002,-3.57604E-002,-8.08638E-004,8.65014E-002,-3.57657E-002,-3.78948E-001,8.69321E-002,1.09035E+000,-2.06406E-003,0.00000E+000,3.94689E-004,9.67247E-001,0.00000E+000,-2.02717E-003,-7.02115E-002,1.00000E+000,13
799,1347,-6.38870E+000,7.55429E-001,-6.89551E-003,2.33423E+000,-4.91276E-001,8.15972E-003,2.38538E+000,7.20284E-003,5.46861E-001,0,3.61800E+001,-8.01223E+000,9.99490E-001,-7.72008E+000,-4.52665E+001,9.99245E-001,8.63032E-002,-3.57716E-002,-1.00090E-003,8.63114E-002,-3.57798E-002,-4.69730E-001,8.67306E-002,1.09014E+000,-2.06996E-003,0.00000E+000,1.15797E-004,9.67239E-001,0.00000E+000,-3.32002E-003,-7.02485E-002,1.00000E+000,13
799,1357,-6.35920E+000,1.38949E+000,3.04502E-002,2.33566E+000,-5.10707E-001,-3.37378E-002,2.39108E+000,7.15739E-003,5.32888E-001,0,3.63244E+001,-8.22243E+000,9.99423E-001,-7.04513E+000,-4.55890E+001,9.99011E-001,8.61069E-002,-3.57884E-002,-1.19625E-003,8.61186E-002,-3.58001E-002,-5.62216E-001,8.65256E-002,1.08993E+000,-2.07891E-003,0.00000E+000,-1.65445E-004,9.67227E-001,0.00000E+000,-4.62376E-003,-7.03046E-002,1.00000E+000,13
799,1327,-6.42162E+000,-4.93372E-001,2.78318E-002,2.33432E+000,-4.51684E-001,8.43218E-002,2.37911E+000,1.32577E-002,5.60263E-001,0,3.59498E+001,-7.54488E+000,9.99674E-001,-8.39271E+000,-4.45776E+001,9.98251E-001,8.66867E-002,-3.57514E-002,-6.17422E-004,8.66898E-002,-3.57545E-002,-2.88917E-001,8.71318E-002,1.09055E+000,-2.05942E-003,0.00000E+000,6.72964E-004,9.67254E-001,0.00000E+000,-7.37187E-004,-7.01825E-002,1.00000E+000,13
1059,1327,1.20869E+001,-1.29191E-001,-1.84356E-002,3.86935E+000,-2.48049E-001,-3.93942E-002,3.87749E+000,9.53684E-003,4.38008E-001,0,5.89295E+001,-4.28564E+000,9.99665E-001,1.74781E+001,-3.64306E+001,9.98670E-001,8.42663E-002,-3.44500E-002,-5.47550E-004,8.42688E-002,-3.44525E-002,-2.64255E-001,8.47344E-002,1.08766E+000,-2.38533E-002,0.00000E+000,2.01521E-002,9.67466E-001,0.00000E+000,-1.15443E-003,-5.64483E-002,1.00000E+000,13
1059,1337,1.20931E+001,5.02994E-001,-4.37201E-002,3.85786E+000,-2.64576E-001,-7.39234E-002,3.86763E+000,7.57015E-003,4.57363E-001,0,5.88769E+001,-4.48912E+000,9.99792E-001,1.76102E+001,-3.65803E+001,9.99316E-001,8.45895E-002,-3.44497E-002,-5.37377E-004,8.45919E-002,-3.44522E-002,-2.58642E-001,8.50754E-002,1.08801E+000,-2.38438E-002,0.00000E+000,2.01357E-002,9.67465E-001,0.00000E+000,-7.71607E-004,-5.64380E-002,1.00000E+000,13
1059,1347,1.21048E+001,1.13119E+000,-2.97364E-002,3.84406E+000,-2.89614E-001,-1.02283E-001,3.85632E+000,1.09991E-002,4.45750E-001,0,5.87655E+001,-4.82964E+000,9.99735E-001,1.79012E+001,-3.68961E+001,9.98791E-001,8.49136E-002,-3.44494E-002,-5.25289E-004,8.49159E-002,-3.44518E-002,-2.52139E-001,8.54176E-002,1.08836E+000,-2.38302E-002,0.00000E+000,2.01193E-002,9.67465E-001,0.00000E+000,-3.87342E-004,-5.64231E-002,1.00000E+000,13
1059,1297,1.21022E+001,-1.98949E+000,1.53968E-001,3.91478E+000,-1.76781E-001,6.35734E-002,3.91928E+000,8.50916E-003,3.71042E-001,0,5.92338E+001,-3.33544E+000,9.99424E-001,1.77952E+001,-3.56380E+001,9.97794E-001,8.32991E-002,-3.44505E-002,-5.72447E-004,8.33019E-002,-3.44533E-002,-2.78538E-001,8.37155E-002,1.08661E+000,-2.38696E-002,0.00000E+000,2.02011E-002,9.67467E-001,0.00000E+000,-2.29790E-003,-5.64659E-002,1.00000E+000,13
1059,1307,1.20975E+001,-1.36982E+000,8.60868E-002,3.90145E+000,-1.98469E-001,2.46648E-002,3.90658E+000,1.04548E-002,3.61079E-001,0,5.91768E+001,-3.61956E+000,9.99607E-001,1.76764E+001,-3.59019E+001,9.98626E-001,8.36207E-002,-3.44503E-002,-5.64504E-004,8.36234E-002,-3.44530E-002,-2.73926E-001,8.40540E-002,1.08696E+000,-2.38649E-002,0.00000E+000,2.01848E-002,9.67466E-001,0.00000E+000,-1.91800E-003,-5.64609E-002,1.00000E+000,13
1059,1317,1.20884E+001,-7.50561E-001,2.19458E-002,3.88307E+000,-2.22985E-001,-1.31324E-002,3.88949E+000,1.08791E-002,4.04228E-001,0,5.90398E+001,-3.94437E+000,9.99464E-001,1.74960E+001,-3.61545E+001,9.97851E-001,8.39432E-002,-3.44502E-002,-5.56386E-004,8.39458E-002,-3.44528E-002,-2.69252E-001,8.43937E-002,1.08731E+000,-2.38599E-002,0.00000E+000,2.01685E-002,9.67466E-001,0.00000E+000,-1.53678E-003,-5.64554E-002,1.00000E+000,13
799,1307,-6.43078E+000,-1.70504E+000,2.01749E-001,2.33466E+000,-3.92445E-001,1.80564E-001,2.37429E+000,1.60612E-002,5.43506E-001,0,3.56453E+001,-6.79929E+000,9.98697E-001,-8.34505E+000,-4.36319E+001,9.98138E-001,8.70600E-002,-3.57447E-002,-2.40764E-004,8.70605E-002,-3.57451E-002,-1.12331E-001,8.75233E-002,1.09096E+000,-2.05636E-003,0.00000E+000,1.22533E-003,9.67258E-001,0.00000E+000,1.82341E-003,-7.01633E-002,1.00000E+000,13
799,1317,-6.43046E+000,-1.09952E+000,9.22024E-002,2.33401E+000,-4.20105E-001,1.29045E-001,2.37502E+000,1.43064E-002,5.73593E-001,0,3.58016E+001,-7.13814E+000,9.99235E-001,-8.49092E+000,-4.40515E+001,9.97748E-001,8.68746E-002,-3.57458E-002,-4.28174E-004,8.68761E-002,-3.57473E-002,-2.00066E-001,8.73288E-002,1.09076E+000,-2.05669E-003,0.00000E+000,9.49686E-004,9.67257E-001,0.00000E+000,5.45605E-004,-7.01653E-002,1.00000E+000,13
789,1327,-7.12639E+000,-4.98589E-001,3.19802E-002,2.27687E+000,-4.50106E-001,9.37069E-002,2.32282E+000,1.04116E-002,5.69225E-001,0,3.50576E+001,-7.54585E+000,9.99619E-001,-9.21371E+000,-4.47594E+001,9.98749E-001,8.58295E-002,-3.55695E-002,-3.61497E-004,8.58305E-002,-3.55706E-002,-1.70611E-001,8.62485E-002,1.08962E+000,-1.94799E-003,0.00000E+000,1.09621E-003,9.67344E-001,0.00000E+000,-1.12188E-003,-6.89096E-002,1.00000E+000,13
789,1337,-7.11167E+000,1.26277E-001,1.20777E-003,2.27652E+000,-4.68447E-001,4.88629E-002,2.32473E+000,6.75075E-003,5.50286E-001,0,3.51882E+001,-7.73099E+000,9.99476E-001,-8.93656E+000,-4.50745E+001,9.99446E-001,8.57107E-002,-3.55808E-002,-5.91154E-004,8.57136E-002,-3.55837E-002,-2.79241E-001,8.61240E-002,1.08949E+000,-1.95097E-003,0.00000E+000,7.29748E-004,9.67335E-001,0.00000E+000,-2.25248E-003,-6.89360E-002,1.00000E+000,13
789,1347,-7.09124E+000,7.51507E-001,-3.93630E-003,2.27820E+000,-4.89693E-001,1.08051E-002,2.33026E+000,7.66955E-003,5.70648E-001,0,3.53285E+001,-7.99105E+000,9.99311E-001,-8.50721E+000,-4.54218E+001,9.99036E-001,8.55901E-002,-3.55946E-002,-8.22002E-004,8.55957E-002,-3.56002E-002,-3.88616E-001,8.59982E-002,1.08936E+000,-1.95468E-003,0.00000E+000,3.61989E-004,9.67325E-001,0.00000E+000,-3.38709E-003,-6.89690E-002,1.00000E+000,13
789,1357,-7.06548E+000,1.38287E+000,2.85252E-002,2.27739E+000,-5.10621E-001,-2.94427E-002,2.33412E+000,6.83790E-003,5.52033E-001,0,3.54338E+001,-8.22555E+000,9.99254E-001,-7.90022E+000,-4.57795E+001,9.98960E-001,8.54674E-002,-3.56138E-002,-1.05495E-003,8.54766E-002,-3.56230E-002,-4.99154E-001,8.58706E-002,1.08924E+000,-1.95992E-003,0.00000E+000,-7.89945E-006,9.67310E-001,0.00000E+000,-4.52827E-003,-6.90155E-002,1.00000E+000,13
1069,1327,1.28035E+001,-1.13731E-001,-2.68250E-002,3.92831E+000,-2.39270E-001,-4.49381E-002,3.93584E+000,1.07347E-002,4.77987E-001,0,5.97987E+001,-4.15075E+000,9.99576E-001,1.85886E+001,-3.60594E+001,9.98128E-001,8.42186E-002,-3.44158E-002,-7.76676E-004,8.42237E-002,-3.44209E-002,-3.75083E-001,8.46906E-002,1.08761E+000,-2.35070E-002,0.00000E+000,1.93519E-002,9.67483E-001,0.00000E+000,-2.05478E-004,-5.58740E-002,1.00000E+000,13
1069,1337,1.28046E+001,5.17035E-001,-4.97084E-002,3.91252E+000,-2.55380E-001,-7.34063E-002,3.92153E+000,6.87798E-003,4.34493E-001,0,5.96598E+001,-4.35308E+000,9.99642E-001,1.86453E+001,-3.62666E+001,9.98833E-001,8.45596E-002,-3.44157E-002,-7.67314E-004,8.45646E-002,-3.44206E-002,-3.69500E-001,8.50504E-002,1.08799E+000,-2.34974E-002,0.00000E+000,1.93516E-002,9.67483E-001,0.00000E+000,-1.53903E-004,-5.58727E-002,1.00000E+000,13
1069,1347,1.28141E+001,1.14622E+000,-4.88054E-002,3.89817E+000,-2.79347E-001,-1.07084E-001,3.90963E+000,7.01813E-003,4.32780E-001,0,5.95610E+001,-4.65745E+000,9.99701E-001,1.88762E+001,-3.65317E+001,9.99051E-001,8.49028E-002,-3.44155E-002,-7.56129E-004,8.49076E-002,-3.44203E-002,-3.63068E-001,8.54128E-002,1.08836E+000,-2.34839E-002,0.00000E+000,1.93513E-002,9.67483E-001,0.00000E+000,-1.01968E-004,-5.58708E-002,1.00000E+000,13
789,1307,-7.13161E+000,-1.71129E+000,2.00237E-001,2.28135E+000,-3.92526E-001,1.85911E-001,2.32233E+000,1.20241E-002,5.47336E-001,0,3.48323E+001,-6.80894E+000,9.99133E-001,-9.11899E+000,-4.38159E+001,9.96885E-001,8.60609E-002,-3.55611E-002,9.21098E-005,8.60610E-002,-3.55611E-002,4.33926E-002,8.64921E-002,1.08987E+000,-1.94607E-003,0.00000E+000,1.82304E-003,9.67349E-001,0.00000E+000,1.12053E-003,-6.88925E-002,1.00000E+000,13
789,1317,-7.12963E+000,-1.10782E+000,1.13243E-001,2.27958E+000,-4.23263E-001,1.42530E-001,2.32291E+000,1.33634E-002,5.47503E-001,0,3.49449E+001,-7.21074E+000,9.99183E-001,-9.18377E+000,-4.43317E+001,9.96019E-001,8.59460E-002,-3.55645E-002,-1.34359E-004,8.59461E-002,-3.55647E-002,-6.33540E-002,8.63708E-002,1.08975E+000,-1.94682E-003,0.00000E+000,1.45999E-003,9.67347E-001,0.00000E+000,4.60530E-007,-6.88991E-002,1.00000E+000,13
1069,1297,1.28075E+001,-1.97398E+000,1.33731E-001,3.96577E+000,-1.64589E-001,5.91582E-002,3.96962E+000,1.08001E-002,3.81380E-001,0,5.99761E+001,-3.14743E+000,9.99083E-001,1.87089E+001,-3.52625E+001,9.97148E-001,8.31953E-002,-3.44161E-002,-8.00337E-004,8.32008E-002,-3.44216E-002,-3.89869E-001,8.36127E-002,1.08650E+000,-2.35261E-002,0.00000E+000,1.93527E-002,9.67483E-001,0.00000E+000,-3.60105E-004,-5.58767E-002,1.00000E+000,13
1069,1307,1.28040E+001,-1.35586E+000,6.04608E-002,3.95484E+000,-1.87165E-001,1.98096E-002,3.95931E+000,8.33431E-003,3.65865E-001,0,5.99589E+001,-3.44457E+000,9.99637E-001,1.85998E+001,-3.55393E+001,9.98173E-001,8.35348E-002,-3.44160E-002,-7.93412E-004,8.35401E-002,-3.44214E-002,-3.85385E-001,8.39700E-002,1.08687E+000,-2.35218E-002,0.00000E+000,1.93525E-002,9.67483E-001,0.00000E+000,-3.08831E-004,-5.58761E-002,1.00000E+000,13
1069,1317,1.28043E+001,-7.31468E-001,1.63755E-002,3.94220E+000,-2.09741E-001,-1.25301E-002,3.94780E+000,9.73699E-003,4.55132E-001,0,5.98869E+001,-3.76121E+000,9.99632E-001,1.86016E+001,-3.57296E+001,9.98045E-001,8.38767E-002,-3.44159E-002,-7.85071E-004,8.38819E-002,-3.44211E-002,-3.80232E-001,8.43301E-002,1.08724E+000,-2.35145E-002,0.00000E+000,1.93522E-002,9.67483E-001,0.00000E+000,-2.57164E-004,-5.58751E-002,1.00000E+000,13
779,1327,-7.82465E+000,-4.99977E-001,4.24326E-002,2.22451E+000,-4.47318E-001,1.04531E-001,2.27145E+000,1.52736E-002,5.91441E-001,0,3.42382E+001,-7.50885E+000,9.99595E-001,-9.91336E+000,-4.48884E+001,9.98377E-001,8.49130E-002,-3.52970E-002,-2.76952E-004,8.49137E-002,-3.52976E-002,-1.32003E-001,8.53151E-002,1.08862E+000,-2.02995E-003,0.00000E+000,1.33915E-003,9.67530E-001,0.00000E+000,-1.21424E-003,-6.77435E-002,1.00000E+000,13
779,1337,-7.81178E+000,1.16462E-001,5.96951E-003,2.22279E+000,-4.72760E-001,5.56541E-002,2.27319E+000,6.45878E-003,5.62158E-001,0,3.43613E+001,-7.80372E+000,9.99370E-001,-9.67992E+000,-4.53284E+001,9.99268E-001,8.49214E-002,-3.53102E-002,-5.48784E-004,8.49239E-002,-3.53127E-002,-2.61513E-001,8.53242E-002,1.08863E+000,-2.02971E-003,0.00000E+000,8.75059E-004,9.67520E-001,0.00000E+000,-2.16729E-003,-6.77651E-002,1.00000E+000,13
779,1347,-7.79448E+000,7.43964E-001,-5.39587E-004,2.22095E+000,-4.90791E-001,1.32931E-002,2.27457E+000,8.23057E-003,5.47417E-001,0,3.44585E+001,-8.00365E+000,9.99105E-001,-9.30010E+000,-4.56574E+001,9.98818E-001,8.49287E-002,-3.53270E-002,-8.21652E-004,8.49343E-002,-3.53326E-002,-3.91451E-001,8.53329E-002,1.08864E+000,-2.02938E-003,0.00000E+000,4.09195E-004,9.67506E-001,0.00000E+000,-3.12398E-003,-6.77935E-002,1.00000E+000,13
779,1357,-7.77066E+000,1.37599E+000,2.70913E-002,2.21917E+000,-5.10631E-001,-2.80174E-002,2.27733E+000,6.35712E-003,5.45900E-001,0,3.45512E+001,-8.22173E+000,9.99206E-001,-8.73268E+000,-4.59878E+001,9.99135E-001,8.49350E-002,-3.53493E-002,-1.09649E-003,8.49450E-002,-3.53592E-002,-5.22238E-001,8.53412E-002,1.08865E+000,-2.02894E-003,0.00000E+000,-6.00181E-005,9.67488E-001,0.00000E+000,-4.08755E-003,-6.78315E-002,1.00000E+000,13
779,1317,-7.82956E+000,-1.10784E+000,1.18302E-001,2.22536E+000,-4.17453E-001,1.47120E-001,2.26895E+000,1.66555E-002,5.27934E-001,0,3.41159E+001,-7.12251E+000,9.99621E-001,-9.92198E+000,-4.44473E+001,9.98103E-001,8.49037E-002,-3.52912E-002,-5.83329E-006,8.49037E-002,-3.52912E-002,-2.78068E-003,8.53053E-002,1.08861E+000,-2.03005E-003,0.00000E+000,1.80195E-003,9.67535E-001,0.00000E+000,-2.63844E-004,-6.77349E-002,1.00000E+000,13
1079,1337,1.35209E+001,5.34249E-001,-6.07351E-002,3.97084E+000,-2.44583E-001,-8.07597E-002,3.97919E+000,8.09001E-003,4.35354E-001,0,6.05250E+001,-4.16993E+000,9.99563E-001,1.97505E+001,-3.58804E+001,9.99397E-001,8.46843E-002,-3.44576E-002,-9.65065E-004,8.46921E-002,-3.44654E-002,-4.64063E-001,8.51796E-002,1.08813E+000,-2.30938E-002,0.00000E+000,1.85760E-002,9.67445E-001,0.00000E+000,4.38178E-004,-5.56383E-002,1.00000E+000,13
1079,1347,1.35317E+001,1.16532E+000,-5.33762E-002,3.95749E+000,-2.66844E-001,-1.08377E-001,3.96796E+000,5.05922E-003,4.67003E-001,0,6.04187E+001,-4.48013E+000,9.99789E-001,2.00110E+001,-3.61120E+001,9.99684E-001,8.50492E-002,-3.44581E-002,-9.59478E-004,8.50569E-002,-3.44658E-002,-4.59966E-001,8.55649E-002,1.08853E+000,-2.30793E-002,0.00000E+000,1.85757E-002,9.67445E-001,0.00000E+000,2.65826E-004,-5.56446E-002,1.00000E+000,13
1079,1297,1.35245E+001,-1.95264E+000,1.40922E-001,4.02429E+000,-1.49159E-001,6.62189E-002,4.02759E+000,1.09094E-002,4.19412E-001,0,6.07850E+001,-2.94328E+000,9.99255E-001,1.98609E+001,-3.48396E+001,9.97775E-001,8.32337E-002,-3.44561E-002,-9.74734E-004,8.32417E-002,-3.44642E-002,-4.74493E-001,8.36509E-002,1.08655E+000,-2.31239E-002,0.00000E+000,1.85772E-002,9.67445E-001,0.00000E+000,1.12240E-003,-5.56252E-002,1.00000E+000,13
1079,1307,1.35170E+001,-1.33867E+000,5.57547E-002,4.01062E+000,-1.75911E-001,2.09756E-002,4.01453E+000,9.72396E-003,3.98416E-001,0,6.07518E+001,-3.27978E+000,9.99617E-001,1.96660E+001,-3.51571E+001,9.98173E-001,8.35948E-002,-3.44564E-002,-9.74033E-004,8.36028E-002,-3.44644E-002,-4.72701E-001,8.40310E-002,1.08695E+000,-2.31202E-002,0.00000E+000,1.85769E-002,9.67445E-001,0.00000E+000,9.52223E-004,-5.56269E-002,1.00000E+000,13
1079,1327,1.35193E+001,-9.68714E-002,-3.28949E-002,3.98577E+000,-2.28590E-001,-4.94211E-002,3.99262E+000,9.98421E-003,4.75617E-001,0,6.06391E+001,-3.97853E+000,9.99663E-001,1.96962E+001,-3.56929E+001,9.99125E-001,8.43216E-002,-3.44572E-002,-9.68588E-004,8.43295E-002,-3.44651E-002,-4.67180E-001,8.47969E-002,1.08774E+000,-2.31038E-002,0.00000E+000,1.85763E-002,9.67445E-001,0.00000E+000,6.09373E-004,-5.56340E-002,1.00000E+000,13
1079,1317,1.35173E+001,-7.13892E-001,5.93550E-003,3.99808E+000,-1.98462E-001,-1.63701E-002,4.00304E+000,8.75734E-003,4.58649E-001,0,6.07008E+001,-3.56728E+000,9.99654E-001,1.96575E+001,-3.53417E+001,9.98743E-001,8.39585E-002,-3.44568E-002,-9.71522E-004,8.39664E-002,-3.44647E-002,-4.70034E-001,8.44140E-002,1.08734E+000,-2.31124E-002,0.00000E+000,1.85766E-002,9.67445E-001,0.00000E+000,7.80721E-004,-5.56302E-002,1.00000E+000,13
779,1307,-7.83499E+000,-1.72123E+000,2.05179E-001,2.22342E+000,-3.98081E-001,1.89365E-001,2.26669E+000,1.14124E-002,5.57376E-001,0,3.39537E+001,-6.89326E+000,9.99467E-001,-9.91224E+000,-4.40679E+001,9.97637E-001,8.48934E-002,-3.52871E-002,2.63434E-004,8.48939E-002,-3.52877E-002,1.25591E-001,8.52955E-002,1.08860E+000,-2.03011E-003,0.00000E+000,2.26157E-003,9.67537E-001,0.00000E+000,6.80026E-004,-6.77297E-002,1.00000E+000,13
1089,1337,1.42356E+001,5.53326E-001,-6.51852E-002,4.02706E+000,-2.32553E-001,-8.13041E-002,4.03459E+000,7.24231E-003,4.77001E-001,0,6.13313E+001,-3.99305E+000,9.99467E-001,2.08455E+001,-3.54598E+001,9.99231E-001,8.50831E-002,-3.45289E-002,-1.07473E-003,8.50927E-002,-3.45385E-002,-5.14754E-001,8.55937E-002,1.08858E+000,-2.25302E-002,0.00000E+000,1.78258E-002,9.67379E-001,0.00000E+000,9.86825E-004,-5.54281E-002,1.00000E+000,13
1089,1347,1.42467E+001,1.18421E+000,-5.90805E-002,4.01401E+000,-2.54175E-001,-1.09737E-001,4.02355E+000,6.32562E-003,4.60130E-001,0,6.12329E+001,-4.28313E+000,9.99680E-001,2.11074E+001,-3.57142E+001,9.99068E-001,8.55419E-002,-3.45301E-002,-1.07262E-003,8.55515E-002,-3.45397E-002,-5.11778E-001,8.60784E-002,1.08908E+000,-2.25119E-002,0.00000E+000,1.78200E-002,9.67379E-001,0.00000E+000,6.95656E-004,-5.54388E-002,1.00000E+000,13
769,1347,-8.49743E+000,7.36238E-001,8.48620E-004,2.16435E+000,-4.92209E-001,1.77995E-002,2.21969E+000,6.71335E-003,5.42628E-001,0,3.35916E+001,-8.02412E+000,9.99186E-001,-1.00891E+001,-4.58825E+001,9.98927E-001,8.40693E-002,-3.50527E-002,-7.62341E-004,8.40741E-002,-3.50575E-002,-3.66654E-001,8.44595E-002,1.08771E+000,-1.96089E-003,0.00000E+000,4.37134E-004,9.67692E-001,0.00000E+000,-2.74332E-003,-6.65705E-002,1.00000E+000,13
769,1357,-8.47252E+000,1.36901E+000,2.45344E-002,2.16422E+000,-5.10899E-001,-2.56849E-002,2.22385E+000,6.45460E-003,5.54017E-001,0,3.37154E+001,-8.22465E+000,9.99342E-001,-9.51287E+000,-4.61877E+001,9.99281E-001,8.40564E-002,-3.50730E-002,-1.01986E-003,8.40651E-002,-3.50817E-002,-4.90460E-001,8.44474E-002,1.08770E+000,-1.96130E-003,0.00000E+000,-5.86944E-006,9.67675E-001,0.00000E+000,-3.60064E-003,-6.66035E-002,1.00000E+000,13
769,1327,-8.52649E+000,-5.07810E-001,4.72548E-002,2.16584E+000,-4.50172E-001,9.74698E-002,2.21428E+000,1.21007E-002,5.66494E-001,0,3.33755E+001,-7.53575E+000,9.99375E-001,-1.06786E+001,-4.51288E+001,9.97618E-001,8.40922E-002,-3.50271E-002,-2.52169E-004,8.40928E-002,-3.50276E-002,-1.21291E-001,8.44824E-002,1.08773E+000,-1.96039E-003,0.00000E+000,1.31519E-003,9.67713E-001,0.00000E+000,-1.04406E-003,-6.65301E-002,1.00000E+000,13
769,1337,-8.51506E+000,1.06699E-001,7.43114E-003,2.16524E+000,-4.76794E-001,5.78960E-002,2.21787E+000,6.44319E-003,5.53184E-001,0,3.34880E+001,-7.85760E+000,9.99324E-001,-1.04757E+001,-4.55853E+001,9.98984E-001,8.40812E-002,-3.50374E-002,-5.06804E-004,8.40833E-002,-3.50395E-002,-2.43766E-001,8.44712E-002,1.08772E+000,-1.96058E-003,0.00000E+000,8.76874E-004,9.67705E-001,0.00000E+000,-1.89231E-003,-6.65460E-002,1.00000E+000,13
1089,1327,1.42318E+001,-7.57381E-002,-4.95475E-002,4.04164E+000,-2.10920E-001,-5.56423E-002,4.04752E+000,8.87835E-003,4.34951E-001,0,6.14594E+001,-3.69809E+000,9.99499E-001,2.07381E+001,-3.52568E+001,9.98667E-001,8.46242E-002,-3.45278E-002,-1.07483E-003,8.46339E-002,-3.45375E-002,-5.16791E-001,8.51093E-002,1.08808E+000,-2.25441E-002,0.00000E+000,1.78316E-002,9.67379E-001,0.00000E+000,1.27780E-003,-5.54200E-002,1.00000E+000,13
1089,1317,1.42334E+001,-7.00079E-001,-1.47038E-003,4.05613E+000,-1.89536E-001,-1.95587E-002,4.06060E+000,8.84746E-003,4.66478E-001,0,6.15443E+001,-3.44089E+000,9.99592E-001,2.07714E+001,-3.50162E+001,9.99034E-001,8.41676E-002,-3.45270E-002,-1.07314E-003,8.41773E-002,-3.45367E-002,-5.17965E-001,8.46278E-002,1.08758E+000,-2.25540E-002,0.00000E+000,1.78374E-002,9.67379E-001,0.00000E+000,1.56710E-003,-5.54143E-002,1.00000E+000,13
1089,1297,1.42418E+001,-1.93239E+000,1.40311E-001,4.08276E+000,-1.35516E-001,6.62946E-002,4.08555E+000,8.06245E-003,4.58705E-001,0,6.16184E+001,-2.74049E+000,9.99623E-001,2.10059E+001,-3.44165E+001,9.99017E-001,8.32558E-002,-3.45255E-002,-1.06716E-003,8.32655E-002,-3.45352E-002,-5.19072E-001,8.36679E-002,1.08659E+000,-2.25679E-002,0.00000E+000,1.78489E-002,9.67379E-001,0.00000E+000,2.14422E-003,-5.54062E-002,1.00000E+000,13
1089,1307,1.42350E+001,-1.32032E+000,5.40949E-002,4.06946E+000,-1.64696E-001,1.86646E-002,4.07283E+000,8.48098E-003,4.70181E-001,0,6.16015E+001,-3.12391E+000,9.99658E-001,2.08207E+001,-3.47432E+001,9.99078E-001,8.37110E-002,-3.45262E-002,-1.07102E-003,8.37207E-002,-3.45359E-002,-5.18942E-001,8.41468E-002,1.08709E+000,-2.25629E-002,0.00000E+000,1.78432E-002,9.67379E-001,0.00000E+000,1.85625E-003,-5.54091E-002,1.00000E+000,13
769,1317,-8.53381E+000,-1.11542E+000,1.15261E-001,2.16655E+000,-4.21961E-001,1.44673E-001,2.21199E+000,1.38418E-002,5.42533E-001,0,3.32395E+001,-7.15134E+000,9.99631E-001,-1.07445E+001,-4.46456E+001,9.98784E-001,8.41024E-002,-3.50199E-002,7.32608E-007,8.41024E-002,-3.50199E-002,3.52372E-004,8.44934E-002,1.08774E+000,-1.96025E-003,0.00000E+000,1.75061E-003,9.67719E-001,0.00000E+000,-2.01424E-004,-6.65195E-002,1.00000E+000,13
1099,1327,1.49449E+001,-6.00376E-002,-6.00552E-002,4.09750E+000,-2.00519E-001,-5.60676E-002,4.10279E+000,9.67257E-003,4.62581E-001,0,6.22593E+001,-3.54930E+000,9.98995E-001,2.18030E+001,-3.48843E+001,9.97520E-001,8.49002E-002,-3.46104E-002,-1.20214E-003,8.49123E-002,-3.46224E-002,-5.76254E-001,8.53927E-002,1.08839E+000,-2.20278E-002,0.00000E+000,1.71057E-002,9.67318E-001,0.00000E+000,1.55363E-003,-5.55235E-002,1.00000E+000,13
1099,1337,1.49539E+001,5.72766E-001,-6.78358E-002,4.08631E+000,-2.18853E-001,-8.08105E-002,4.09296E+000,8.88171E-003,4.78483E-001,0,6.21771E+001,-3.79551E+000,9.99126E-001,2.20042E+001,-3.50573E+001,9.98529E-001,8.54842E-002,-3.46110E-002,-1.19368E-003,8.54961E-002,-3.46228E-002,-5.69412E-001,8.60094E-002,1.08903E+000,-2.20084E-002,0.00000E+000,1.71104E-002,9.67318E-001,0.00000E+000,1.23535E-003,-5.55332E-002,1.00000E+000,13
1099,1347,1.49678E+001,1.20699E+000,-5.17070E-002,4.07382E+000,-2.38966E-001,-1.07587E-001,4.08224E+000,7.56198E-003,4.72478E-001,0,6.20799E+001,-4.06627E+000,9.99408E-001,2.23257E+001,-3.52750E+001,9.98760E-001,8.60694E-002,-3.46117E-002,-1.18249E-003,8.60809E-002,-3.46232E-002,-5.61338E-001,8.66279E-002,1.08966E+000,-2.19830E-002,0.00000E+000,1.71152E-002,9.67318E-001,0.00000E+000,9.16178E-004,-5.55459E-002,1.00000E+000,13
759,1347,-9.19733E+000,7.31371E-001,5.43980E-004,2.11048E+000,-4.91041E-001,2.12226E-002,2.16696E+000,6.23097E-003,5.52077E-001,0,3.27685E+001,-8.00410E+000,9.99150E-001,-1.08310E+001,-4.60524E+001,9.98887E-001,8.31976E-002,-3.48213E-002,-6.70430E-004,8.32014E-002,-3.48251E-002,-3.25466E-001,8.35684E-002,1.08676E+000,-1.77148E-003,0.00000E+000,4.25373E-004,9.67856E-001,0.00000E+000,-2.41021E-003,-6.56344E-002,1.00000E+000,13
759,1357,-9.17499E+000,1.36200E+000,2.43757E-002,2.10829E+000,-5.11295E-001,-2.05652E-002,2.16950E+000,6.62119E-003,5.63863E-001,0,3.28551E+001,-8.23460E+000,9.99255E-001,-1.02922E+001,-4.63928E+001,9.99066E-001,8.30799E-002,-3.48355E-002,-8.57381E-004,8.30861E-002,-3.48418E-002,-4.16577E-001,8.34456E-002,1.08663E+000,-1.77621E-003,0.00000E+000,1.18083E-004,9.67845E-001,0.00000E+000,-3.20363E-003,-6.56643E-002,1.00000E+000,13
1099,1297,1.49560E+001,-1.91941E+000,1.25053E-001,4.13947E+000,-1.27632E-001,5.90384E-002,4.14185E+000,7.58975E-003,5.08815E-001,0,6.24543E+001,-2.62386E+000,9.99361E-001,2.20794E+001,-3.40699E+001,9.98403E-001,8.31582E-002,-3.46091E-002,-1.21476E-003,8.31707E-002,-3.46216E-002,-5.90916E-001,8.35585E-002,1.08650E+000,-2.20579E-002,0.00000E+000,1.70915E-002,9.67318E-001,0.00000E+000,2.50129E-003,-5.55084E-002,1.00000E+000,13
1099,1307,1.49516E+001,-1.30173E+000,4.97849E-002,4.12845E+000,-1.51840E-001,2.24664E-002,4.13130E+000,8.59909E-003,4.80958E-001,0,6.24297E+001,-2.92877E+000,9.99589E-001,2.19513E+001,-3.43508E+001,9.98840E-001,8.37381E-002,-3.46095E-002,-1.21217E-003,8.37505E-002,-3.46219E-002,-5.86768E-001,8.41683E-002,1.08713E+000,-2.20514E-002,0.00000E+000,1.70962E-002,9.67318E-001,0.00000E+000,2.18608E-003,-5.55116E-002,1.00000E+000,13
1099,1317,1.49471E+001,-6.82288E-001,-1.38204E-002,4.11351E+000,-1.76478E-001,-1.85511E-002,4.11733E+000,1.02809E-002,4.78723E-001,0,6.23602E+001,-3.24461E+000,9.99359E-001,2.18435E+001,-3.46167E+001,9.98423E-001,8.43187E-002,-3.46099E-002,-1.20789E-003,8.43310E-002,-3.46221E-002,-5.81838E-001,8.47796E-002,1.08776E+000,-2.20412E-002,0.00000E+000,1.71009E-002,9.67318E-001,0.00000E+000,1.87022E-003,-5.55167E-002,1.00000E+000,13
759,1327,-9.23017E+000,-5.16011E-001,4.81063E-002,2.10712E+000,-4.52436E-001,9.77976E-002,2.15737E+000,8.13791E-003,5.31539E-001,0,3.24889E+001,-7.55448E+000,9.99318E-001,-1.14779E+001,-4.53717E+001,9.99257E-001,8.34290E-002,-3.48036E-002,-3.01344E-004,8.34298E-002,-3.48044E-002,-1.46031E-001,8.38105E-002,1.08701E+000,-1.76580E-003,0.00000E+000,1.03496E-003,9.67870E-001,0.00000E+000,-8.36268E-004,-6.55984E-002,1.00000E+000,13
759,1337,-9.21518E+000,1.06625E-001,1.25060E-002,2.10990E+000,-4.71194E-001,6.09504E-002,2.16273E+000,6.51159E-003,5.55901E-001,0,3.26421E+001,-7.77505E+000,9.99091E-001,-1.12073E+001,-4.56947E+001,9.98928E-001,8.33138E-002,-3.48110E-002,-4.85392E-004,8.33158E-002,-3.48130E-002,-2.35431E-001,8.36898E-002,1.08688E+000,-1.76815E-003,0.00000E+000,7.30603E-004,9.67865E-001,0.00000E+000,-1.62212E-003,-6.56133E-002,1.00000E+000,13
759,1317,-9.23647E+000,-1.12533E+000,1.22611E-001,2.10785E+000,-4.26314E-001,1.46695E-001,2.15553E+000,1.16113E-002,5.82721E-001,0,3.23493E+001,-7.25270E+000,9.99453E-001,-1.15121E+001,-4.48892E+001,9.98943E-001,8.35427E-002,-3.47991E-002,-1.19071E-004,8.35428E-002,-3.47992E-002,-5.76485E-002,8.39298E-002,1.08713E+000,-1.76444E-003,0.00000E+000,1.33716E-003,9.67874E-001,0.00000E+000,-5.60169E-005,-6.55898E-002,1.00000E+000,13
749,1317,-9.93133E+000,-1.12866E+000,1.36105E-001,2.05533E+000,-4.26385E-001,1.48601E-001,2.10435E+000,8.89867E-003,5.79653E-001,0,3.15523E+001,-7.24427E+000,9.99409E-001,-1.21378E+001,-4.50652E+001,9.98608E-001,8.30489E-002,-3.46508E-002,-2.33434E-004,8.30493E-002,-3.46512E-002,-1.13634E-001,8.34277E-002,1.08659E+000,-1.37933E-003,0.00000E+000,7.62507E-004,9.67963E-001,0.00000E+000,1.45844E-004,-6.47213E-002,1.00000E+000,13
749,1327,-9.92629E+000,-5.18757E-001,5.30408E-002,2.05495E+000,-4.51155E-001,9.92593E-002,2.10623E+000,6.52749E-003,5.53916E-001,0,3.16977E+001,-7.52735E+000,9.99238E-001,-1.21454E+001,-4.55099E+001,9.98943E-001,8.28352E-002,-3.46530E-002,-3.51982E-004,8.28362E-002,-3.46541E-002,-1.71650E-001,8.32036E-002,1.08636E+000,-1.38131E-003,0.00000E+000,5.76929E-004,9.67962E-001,0.00000E+000,-5.26515E-004,-6.47271E-002,1.00000E+000,13
749,1337,-9.91495E+000,1.02650E-001,1.39908E-002,2.05441E+000,-4.70105E-001,6.00127E-002,2.10836E+000,6.08985E-003,5.79586E-001,0,3.18062E+001,-7.75608E+000,9.99286E-001,-1.19393E+001,-4.58461E+001,9.99158E-001,8.26196E-002,-3.46576E-002,-4.72339E-004,8.26215E-002,-3.46595E-002,-2.30756E-001,8.29777E-002,1.08613E+000,-1.38563E-003,0.00000E+000,3.90203E-004,9.67958E-001,0.00000E+000,-1.20303E-003,-6.47396E-002,1.00000E+000,13
749,1347,-9.89913E+000,7.24878E-001,-3.18226E-003,2.05383E+000,-4.91265E-001,1.87578E-002,2.11185E+000,6.27853E-003,5.53023E-001,0,3.19190E+001,-7.99737E+000,9.99394E-001,-1.16068E+001,-4.62445E+001,9.99266E-001,8.24030E-002,-3.46638E-002,-5.93795E-004,8.24060E-002,-3.46668E-002,-2.90610E-001,8.27509E-002,1.08589E+000,-1.39159E-003,0.00000E+000,2.02953E-004,9.67954E-001,0.00000E+000,-1.88145E-003,-6.47568E-002,1.00000E+000,13
1109,1297,1.56696E+001,-1.90570E+000,1.14213E-001,4.19686E+000,-1.16857E-001,6.30754E-002,4.19896E+000,7.68402E-003,4.72841E-001,0,6.32568E+001,-2.46292E+000,9.99241E-001,2.31569E+001,-3.37648E+001,9.97621E-001,8.32401E-002,-3.48063E-002,-1.27958E-003,8.32540E-002,-3.48201E-002,-6.20968E-001,8.36242E-002,1.08661E+000,-2.12279E-002,0.00000E+000,1.61964E-002,9.67157E-001,0.00000E+000,3.00732E-003,-5.57878E-002,1.00000E+000,13
1109,1307,1.56643E+001,-1.28668E+000,3.89837E-002,4.18500E+000,-1.39634E-001,2.67439E-002,4.18742E+000,8.48813E-003,4.34916E-001,0,6.32189E+001,-2.74576E+000,9.99447E-001,2.30160E+001,-3.40282E+001,9.98569E-001,8.38767E-002,-3.48054E-002,-1.25496E-003,8.38900E-002,-3.48187E-002,-6.05765E-001,8.42926E-002,1.08730E+000,-2.12208E-002,0.00000E+000,1.62512E-002,9.67158E-001,0.00000E+000,2.53244E-003,-5.57926E-002,1.00000E+000,13
1109,1317,1.56603E+001,-6.66745E-001,-2.48452E-002,4.17056E+000,-1.64116E-001,-1.37647E-002,4.17381E+000,8.97550E-003,4.44459E-001,0,6.31561E+001,-3.06310E+000,9.99270E-001,2.29140E+001,-3.42782E+001,9.98373E-001,8.45144E-002,-3.48043E-002,-1.22848E-003,8.45270E-002,-3.48170E-002,-5.89821E-001,8.49632E-002,1.08799E+000,-2.12097E-002,0.00000E+000,1.63062E-002,9.67159E-001,0.00000E+000,2.05620E-003,-5.58003E-002,1.00000E+000,13
749,1357,-9.87481E+000,1.35462E+000,2.24371E-002,2.05412E+000,-5.11613E-001,-1.97372E-002,2.11697E+000,7.59153E-003,5.55234E-001,0,3.20338E+001,-8.23759E+000,9.99379E-001,-1.10311E+001,-4.66088E+001,9.99272E-001,8.21842E-002,-3.46728E-002,-7.17400E-004,8.21886E-002,-3.46772E-002,-3.51728E-001,8.25219E-002,1.08566E+000,-1.40030E-003,0.00000E+000,1.43507E-005,9.67947E-001,0.00000E+000,-2.56476E-003,-6.47821E-002,1.00000E+000,13
1109,1327,1.56609E+001,-4.47368E-002,-6.58938E-002,4.15600E+000,-1.89501E-001,-5.12483E-002,4.16063E+000,7.75584E-003,4.47969E-001,0,6.30776E+001,-3.39671E+000,9.99017E-001,2.29257E+001,-3.45489E+001,9.98150E-001,8.51533E-002,-3.48030E-002,-1.19964E-003,8.51653E-002,-3.48150E-002,-5.72917E-001,8.56363E-002,1.08868E+000,-2.11936E-002,0.00000E+000,1.63613E-002,9.67160E-001,0.00000E+000,1.57849E-003,-5.58114E-002,1.00000E+000,13
1109,1337,1.56684E+001,5.88366E-001,-7.58652E-002,4.14284E+000,-2.08153E-001,-7.94399E-002,4.14882E+000,8.17827E-003,4.89177E-001,0,6.29792E+001,-3.64957E+000,9.99446E-001,2.30979E+001,-3.46984E+001,9.98925E-001,8.57947E-002,-3.48015E-002,-1.16815E-003,8.58061E-002,-3.48128E-002,-5.54924E-001,8.63131E-002,1.08938E+000,-2.11718E-002,0.00000E+000,1.64167E-002,9.67162E-001,0.00000E+000,1.09836E-003,-5.58264E-002,1.00000E+000,13
1109,1347,1.56862E+001,1.22444E+000,-4.78021E-002,4.13068E+000,-2.28957E-001,-1.08194E-001,4.13844E+000,8.86570E-003,4.85632E-001,0,6.28933E+001,-3.92413E+000,9.99377E-001,2.34996E+001,-3.49107E+001,9.98549E-001,8.64385E-002,-3.47995E-002,-1.13209E-003,8.64491E-002,-3.48100E-002,-5.34951E-001,8.69934E-002,1.09008E+000,-2.11402E-002,0.00000E+000,1.64724E-002,9.67164E-001,0.00000E+000,6.15876E-004,-5.58481E-002,1.00000E+000,13
739,1337,-1.06135E+001,9.37586E-002,1.46608E-002,1.99987E+000,-4.73236E-001,5.90108E-002,2.05595E+000,6.84634E-003,5.73780E-001,0,3.09853E+001,-7.79752E+000,9.99265E-001,-1.26515E+001,-4.60860E+001,9.99037E-001,8.18745E-002,-3.44083E-002,-5.44956E-004,8.18771E-002,-3.44108E-002,-2.68507E-001,8.22233E-002,1.08532E+000,-1.04351E-003,0.00000E+000,-6.20616E-005,9.68163E-001,0.00000E+000,-1.07206E-003,-6.41487E-002,1.00000E+000,13
739,1347,-1.05999E+001,7.17447E-001,-2.06017E-003,1.99755E+000,-4.92613E-001,1.97906E-002,2.05749E+000,5.26737E-003,5.58558E-001,0,3.10638E+001,-8.01890E+000,9.99613E-001,-1.23500E+001,-4.64593E+001,9.99498E-001,8.15293E-002,-3.44135E-002,-6.54450E-004,8.15330E-002,-3.44172E-002,-3.23398E-001,8.18619E-002,1.08495E+000,-1.05274E-003,0.00000E+000,-2.22545E-004,9.68159E-001,0.00000E+000,-1.76738E-003,-6.41658E-002,1.00000E+000,13
739,1357,-1.05765E+001,1.34860E+000,2.48558E-002,1.99753E+000,-5.10901E-001,-1.54486E-002,2.06188E+000,5.52081E-003,5.46166E-001,0,3.11630E+001,-8.22885E+000,9.99489E-001,-1.17822E+001,-4.68141E+001,9.99489E-001,8.11811E-002,-3.44213E-002,-7.66662E-004,8.11862E-002,-3.44263E-002,-3.79957E-001,8.14979E-002,1.08457E+000,-1.06629E-003,0.00000E+000,-3.84107E-004,9.68153E-001,0.00000E+000,-2.46738E-003,-6.41911E-002,1.00000E+000,13
739,1327,-1.06255E+001,-5.24477E-001,5.60261E-002,1.99961E+000,-4.51090E-001,1.00390E-001,2.05232E+000,7.19336E-003,5.21482E-001,0,3.08580E+001,-7.51442E+000,9.99590E-001,-1.28613E+001,-4.57175E+001,9.99254E-001,8.22183E-002,-3.44043E-002,-4.36844E-004,8.22200E-002,-3.44060E-002,-2.14614E-001,8.25836E-002,1.08569E+000,-1.03671E-003,0.00000E+000,9.80419E-005,9.68166E-001,0.00000E+000,-3.78388E-004,-6.41360E-002,1.00000E+000,13
1119,1297,1.63811E+001,-1.89089E+000,1.04535E-001,4.25181E+000,-1.05171E-001,6.85545E-002,4.25367E+000,8.02384E-003,4.34177E-001,0,6.40150E+001,-2.28616E+000,9.99605E-001,2.42081E+001,-3.34468E+001,9.98816E-001,8.34532E-002,-3.46798E-002,-1.39435E-003,8.34696E-002,-3.46962E-002,-6.76149E-001,8.38644E-002,1.08685E+000,-2.04322E-002,0.00000E+000,1.52648E-002,9.67324E-001,0.00000E+000,2.99617E-003,-5.63149E-002,1.00000E+000,13
1119,1307,1.63781E+001,-1.27295E+000,3.40126E-002,4.24075E+000,-1.30144E-001,3.12848E-002,4.24286E+000,6.69778E-003,4.20979E-001,0,6.39936E+001,-2.61199E+000,9.99579E-001,2.41102E+001,-3.37225E+001,9.99322E-001,8.40817E-002,-3.46770E-002,-1.33942E-003,8.40968E-002,-3.46922E-002,-6.46101E-001,8.45247E-002,1.08753E+000,-2.04237E-002,0.00000E+000,1.53832E-002,9.67325E-001,0.00000E+000,2.42397E-003,-5.63221E-002,1.00000E+000,13
1119,1317,1.63776E+001,-6.51789E-001,-2.53386E-002,4.22897E+000,-1.53650E-001,-7.88308E-003,4.23177E+000,7.01272E-003,4.21362E-001,0,6.39661E+001,-2.91992E+000,9.99336E-001,2.40707E+001,-3.39657E+001,9.99208E-001,8.47106E-002,-3.46739E-002,-1.28292E-003,8.47244E-002,-3.46876E-002,-6.15612E-001,8.51866E-002,1.08822E+000,-2.04119E-002,0.00000E+000,1.55018E-002,9.67327E-001,0.00000E+000,1.85077E-003,-5.63320E-002,1.00000E+000,13
1119,1327,1.63793E+001,-2.73921E-002,-6.37975E-002,4.21462E+000,-1.77087E-001,-4.58445E-002,4.21858E+000,6.43305E-003,4.11153E-001,0,6.38922E+001,-3.21962E+000,9.99304E-001,2.41031E+001,-3.42103E+001,9.99081E-001,8.53408E-002,-3.46700E-002,-1.22399E-003,8.53533E-002,-3.46825E-002,-5.84278E-001,8.58510E-002,1.08890E+000,-2.03951E-002,0.00000E+000,1.56208E-002,9.67330E-001,0.00000E+000,1.27561E-003,-5.63461E-002,1.00000E+000,13
1119,1337,1.63871E+001,6.02225E-001,-7.66270E-002,4.20101E+000,-2.00155E-001,-7.94641E-002,4.20652E+000,6.28247E-003,4.76541E-001,0,6.38096E+001,-3.53588E+000,9.99636E-001,2.42737E+001,-3.43938E+001,9.99062E-001,8.59740E-002,-3.46654E-002,-1.16231E-003,8.59852E-002,-3.46766E-002,-5.51952E-001,8.65197E-002,1.08959E+000,-2.03728E-002,0.00000E+000,1.57405E-002,9.67334E-001,0.00000E+000,6.97058E-004,-5.63648E-002,1.00000E+000,13
1119,1347,1.64030E+001,1.23795E+000,-5.11428E-002,4.18744E+000,-2.20632E-001,-1.07886E-001,4.19464E+000,9.74074E-003,4.69992E-001,0,6.37021E+001,-3.81209E+000,9.99548E-001,2.46385E+001,-3.46059E+001,9.98871E-001,8.66081E-002,-3.46597E-002,-1.09672E-003,8.66180E-002,-3.46696E-002,-5.18113E-001,8.71905E-002,1.09028E+000,-2.03422E-002,0.00000E+000,1.58606E-002,9.67339E-001,0.00000E+000,1.16806E-004,-5.63905E-002,1.00000E+000,13
739,1317,-1.06286E+001,-1.13337E+000,1.33562E-001,2.00159E+000,-4.26055E-001,1.42699E-001,2.05140E+000,8.89108E-003,5.58860E-001,0,3.07591E+001,-7.21302E+000,9.99507E-001,-1.28379E+001,-4.52377E+001,9.99003E-001,8.25590E-002,-3.44025E-002,-3.31266E-004,8.25600E-002,-3.44035E-002,-1.62275E-001,8.29409E-002,1.08606E+000,-1.03375E-003,0.00000E+000,2.56989E-004,9.68167E-001,0.00000E+000,3.10277E-004,-6.41305E-002,1.00000E+000,13
1129,1297,1.70934E+001,-1.87328E+000,9.63637E-002,4.30589E+000,-9.12466E-002,7.07329E-002,4.30744E+000,9.23243E-003,4.31078E-001,0,6.47694E+001,-2.08766E+000,9.99740E-001,2.52776E+001,-3.30707E+001,9.98696E-001,8.35508E-002,-3.46424E-002,-1.53192E-003,8.35706E-002,-3.46623E-002,-7.42454E-001,8.39744E-002,1.08697E+000,-1.96403E-002,0.00000E+000,1.43329E-002,9.67393E-001,0.00000E+000,2.27137E-003,-5.66441E-002,1.00000E+000,13
1129,1307,1.70901E+001,-1.26013E+000,2.36672E-002,4.29428E+000,-1.21148E-001,3.05803E-002,4.29609E+000,1.37491E-002,3.94134E-001,0,6.47536E+001,-2.47434E+000,9.99582E-001,2.51709E+001,-3.34262E+001,9.97328E-001,8.42442E-002,-3.46376E-002,-1.44148E-003,8.42617E-002,-3.46551E-002,-6.94593E-001,8.47027E-002,1.08772E+000,-1.96306E-002,0.00000E+000,1.45161E-002,9.67396E-001,0.00000E+000,1.74365E-003,-5.66509E-002,1.00000E+000,13
1129,1317,1.70935E+001,-6.39975E-001,-3.21566E-002,4.28598E+000,-1.46080E-001,-6.63557E-003,4.28848E+000,8.16159E-003,3.82679E-001,0,6.47723E+001,-2.80378E+000,9.99603E-001,2.51987E+001,-3.36963E+001,9.97676E-001,8.49383E-002,-3.46320E-002,-1.34910E-003,8.49535E-002,-3.46473E-002,-6.46352E-001,8.54332E-002,1.08848E+000,-1.96170E-002,0.00000E+000,1.46998E-002,9.67399E-001,0.00000E+000,1.21482E-003,-5.66605E-002,1.00000E+000,13
729,1347,-1.12928E+001,7.08335E-001,6.35915E-003,1.94750E+000,-4.97063E-001,2.19932E-002,2.01005E+000,4.84184E-003,5.61896E-001,0,3.03011E+001,-8.08331E+000,9.99774E-001,-1.29502E+001,-4.67163E+001,9.99645E-001,8.05975E-002,-3.41390E-002,-5.61437E-004,8.06003E-002,-3.41418E-002,-2.80355E-001,8.09134E-002,1.08394E+000,-3.82260E-004,0.00000E+000,-6.35332E-004,9.68373E-001,0.00000E+000,-1.83555E-003,-6.33172E-002,1.00000E+000,13
729,1357,-1.12732E+001,1.34300E+000,2.94094E-002,1.94508E+000,-5.10901E-001,-1.10087E-002,2.01109E+000,5.36171E-003,5.60023E-001,0,3.03551E+001,-8.23117E+000,9.99598E-001,-1.24471E+001,-4.70057E+001,9.99601E-001,8.00481E-002,-3.41446E-002,-6.53208E-004,8.00518E-002,-3.41483E-002,-3.27731E-001,8.03390E-002,1.08334E+000,-4.02391E-004,0.00000E+000,-7.40862E-004,9.68369E-001,0.00000E+000,-2.72019E-003,-6.33473E-002,1.00000E+000,13
1129,1327,1.70973E+001,-1.27686E-002,-6.58114E-002,4.27413E+000,-1.66064E-001,-3.75818E-002,4.27752E+000,8.87615E-003,3.97064E-001,0,6.47091E+001,-3.08710E+000,9.99509E-001,2.52708E+001,-3.38936E+001,9.98828E-001,8.56329E-002,-3.46255E-002,-1.25454E-003,8.56460E-002,-3.46386E-002,-5.97623E-001,8.61658E-002,1.08923E+000,-1.95989E-002,0.00000E+000,1.48838E-002,9.67403E-001,0.00000E+000,6.84878E-004,-5.66731E-002,1.00000E+000,13
729,1337,-1.13114E+001,8.82212E-002,1.85895E-002,1.94590E+000,-4.72822E-001,6.29733E-002,2.00351E+000,6.19611E-003,5.61733E-001,0,3.01564E+001,-7.79103E+000,9.99473E-001,-1.33399E+001,-4.62846E+001,9.99255E-001,8.11436E-002,-3.41347E-002,-4.72186E-004,8.11455E-002,-3.41366E-002,-2.34681E-001,8.14851E-002,1.08453E+000,-3.66761E-004,0.00000E+000,-5.30249E-004,9.68375E-001,0.00000E+000,-9.54656E-004,-6.32941E-002,1.00000E+000,13
729,1327,-1.13226E+001,-5.27906E-001,6.18023E-002,1.94543E+000,-4.50519E-001,1.01600E-001,1.99950E+000,7.04106E-003,5.52535E-001,0,3.00344E+001,-7.50448E+000,9.99352E-001,-1.35331E+001,-4.58642E+001,9.99053E-001,8.16850E-002,-3.41320E-002,-3.86109E-004,8.16863E-002,-3.41333E-002,-1.91009E-001,8.20529E-002,1.08511E+000,-3.56943E-004,0.00000E+000,-4.25851E-004,9.68377E-001,0.00000E+000,-7.95081E-005,-6.32795E-002,1.00000E+000,13
1129,1337,1.71128E+001,6.20638E-001,-6.13796E-002,4.26220E+000,-1.90286E-001,-7.74740E-002,4.26715E+000,8.45798E-003,4.94929E-001,0,6.46735E+001,-3.40439E+000,9.99487E-001,2.55894E+001,-3.40379E+001,9.99203E-001,8.63354E-002,-3.46160E-002,-1.15284E-003,8.63464E-002,-3.46270E-002,-5.46044E-001,8.69085E-002,1.09000E+000,-1.95675E-002,0.00000E+000,1.50701E-002,9.67411E-001,0.00000E+000,1.48200E-004,-5.66952E-002,1.00000E+000,13
729,1317,-1.13290E+001,-1.13899E+000,1.28975E-001,1.94550E+000,-4.26144E-001,1.41136E-001,1.99662E+000,8.45397E-003,5.76693E-001,0,2.99158E+001,-7.21079E+000,9.99411E-001,-1.35876E+001,-4.54011E+001,9.98581E-001,8.22238E-002,-3.41303E-002,-3.02067E-004,8.22246E-002,-3.41311E-002,-1.48744E-001,8.26188E-002,1.08570E+000,-3.51023E-004,0.00000E+000,-3.21744E-004,9.68378E-001,0.00000E+000,7.93201E-004,-6.32706E-002,1.00000E+000,13
1129,1347,1.71239E+001,1.25690E+000,-4.98924E-002,4.24655E+000,-2.08930E-001,-1.08292E-001,4.25306E+000,1.06437E-002,4.99958E-001,0,6.45452E+001,-3.65049E+000,9.99387E-001,2.58540E+001,-3.42040E+001,9.98706E-001,8.70343E-002,-3.46067E-002,-1.05184E-003,8.70434E-002,-3.46158E-002,-4.95394E-001,8.76488E-002,1.09076E+000,-1.95368E-002,0.00000E+000,1.52557E-002,9.67418E-001,0.00000E+000,-3.86328E-004,-5.67167E-002,1.00000E+000,13
719,1347,-1.19923E+001,7.06577E-001,6.03471E-003,1.89202E+000,-4.92681E-001,2.31639E-002,1.95525E+000,7.90705E-003,5.72190E-001,0,2.94542E+001,-8.01603E+000,9.99486E-001,-1.36668E+001,-4.68385E+001,9.99328E-001,7.99483E-002,-3.40064E-002,-5.45807E-004,7.99509E-002,-3.40090E-002,-2.74420E-001,8.02472E-002,1.08323E+000,3.30046E-004,0.00000E+000,-1.25200E-003,9.68437E-001,0.00000E+000,-1.65341E-003,-6.22768E-002,1.00000E+000,13
719,1357,-1.19727E+001,1.33594E+000,2.72030E-002,1.88989E+000,-5.12110E-001,-1.08830E-002,1.95808E+000,6.37623E-003,5.85931E-001,0,2.95169E+001,-8.24664E+000,9.99496E-001,-1.31686E+001,-4.71993E+001,9.99502E-001,7.92074E-002,-3.40099E-002,-6.12332E-004,7.92108E-002,-3.40132E-002,-3.09870E-001,7.94735E-002,1.08243E+000,3.03365E-004,0.00000E+000,-1.29112E-003,9.68436E-001,0.00000E+000,-2.75311E-003,-6.23135E-002,1.00000E+000,13
719,1337,-1.20094E+001,8.57730E-002,2.11703E-002,1.89095E+000,-4.70343E-001,6.27920E-002,1.94958E+000,8.10880E-003,5.84025E-001,0,2.93227E+001,-7.75083E+000,9.99223E-001,-1.40273E+001,-4.64158E+001,9.98685E-001,8.06828E-002,-3.40038E-002,-4.82896E-004,8.06848E-002,-3.40058E-002,-2.41242E-001,8.10159E-002,1.08403E+000,3.49736E-004,0.00000E+000,-1.21312E-003,9.68438E-001,0.00000E+000,-5.60624E-004,-6.22497E-002,1.00000E+000,13
719,1327,-1.20195E+001,-5.29997E-001,6.60865E-002,1.89116E+000,-4.48224E-001,1.01467E-001,1.94619E+000,6.05687E-003,5.92727E-001,0,2.92117E+001,-7.47519E+000,9.99079E-001,-1.41999E+001,-4.59826E+001,9.98762E-001,8.14113E-002,-3.40021E-002,-4.23540E-004,8.14128E-002,-3.40037E-002,-2.10258E-001,8.17799E-002,1.08482E+000,3.62444E-004,0.00000E+000,-1.17447E-003,9.68439E-001,0.00000E+000,5.25929E-004,-6.22322E-002,1.00000E+000,13
719,1317,-1.20259E+001,-1.14088E+000,1.41750E-001,1.89008E+000,-4.24193E-001,1.43721E-001,1.94242E+000,8.16128E-003,5.86729E-001,0,2.90680E+001,-7.18515E+000,9.99088E-001,-1.42317E+001,-4.55476E+001,9.98407E-001,8.21363E-002,-3.40013E-002,-3.67148E-004,8.21375E-002,-3.40025E-002,-1.81128E-001,8.25418E-002,1.08561E+000,3.69031E-004,0.00000E+000,-1.13591E-003,9.68439E-001,0.00000E+000,1.60980E-003,-6.22232E-002,1.00000E+000,13
1139,1297,1.78162E+001,-1.86318E+000,9.68171E-002,4.36865E+000,-8.44976E-002,7.56967E-002,4.37012E+000,7.09264E-003,3.67825E-001,0,6.56443E+001,-1.99481E+000,9.99846E-001,2.65294E+001,-3.28583E+001,9.98681E-001,8.36369E-002,-3.47027E-002,-1.60302E-003,8.36586E-002,-3.47244E-002,-7.75934E-001,8.40599E-002,1.08708E+000,-1.88091E-002,0.00000E+000,1.35070E-002,9.67370E-001,0.00000E+000,1.31403E-003,-5.70483E-002,1.00000E+000,13
1139,1307,1.78114E+001,-1.25091E+000,1.28037E-002,4.35660E+000,-1.15336E-001,2.89668E-002,4.35823E+000,8.69758E-003,3.49554E-001,0,6.56493E+001,-2.38390E+000,9.99726E-001,2.63796E+001,-3.31925E+001,9.98586E-001,8.44203E-002,-3.46979E-002,-1.50521E-003,8.44393E-002,-3.47170E-002,-7.23850E-001,8.48826E-002,1.08793E+000,-1.87995E-002,0.00000E+000,1.37018E-002,9.67372E-001,0.00000E+000,8.22910E-004,-5.70538E-002,1.00000E+000,13
1139,1337,1.78305E+001,6.40266E-001,-6.38652E-002,4.31870E+000,-1.76587E-001,-7.79511E-002,4.32301E+000,9.58059E-003,5.09748E-001,0,6.54753E+001,-3.21237E+000,9.99365E-001,2.67539E+001,-3.36269E+001,9.98232E-001,8.67847E-002,-3.46743E-002,-1.18883E-003,8.67964E-002,-3.46859E-002,-5.60736E-001,8.73774E-002,1.09050E+000,-1.87253E-002,0.00000E+000,1.42912E-002,9.67389E-001,0.00000E+000,-6.63089E-004,-5.70967E-002,1.00000E+000,13
1139,1347,1.78514E+001,1.27486E+000,-3.62639E-002,4.30846E+000,-2.00061E-001,-1.09133E-001,4.31448E+000,9.86657E-003,5.01045E-001,0,6.54300E+001,-3.51872E+000,9.99290E-001,2.71948E+001,-3.38590E+001,9.97834E-001,8.75770E-002,-3.46632E-002,-1.07566E-003,8.75864E-002,-3.46726E-002,-5.04125E-001,8.82173E-002,1.09137E+000,-1.86850E-002,0.00000E+000,1.44892E-002,9.67399E-001,0.00000E+000,-1.16225E-003,-5.71199E-002,1.00000E+000,13
1139,1327,1.78175E+001,2.80964E-003,-7.36907E-002,4.33308E+000,-1.57950E-001,-4.42963E-002,4.33618E+000,9.65217E-003,4.49976E-001,0,6.55730E+001,-2.96091E+000,9.99453E-001,2.64664E+001,-3.35158E+001,9.97918E-001,8.59931E-002,-3.46844E-002,-1.29966E-003,8.60071E-002,-3.46984E-002,-6.16965E-001,8.65401E-002,1.08964E+000,-1.87608E-002,0.00000E+000,1.40936E-002,9.67381E-001,0.00000E+000,-1.64894E-004,-5.70762E-002,1.00000E+000,13
1139,1317,1.78074E+001,-6.28691E-001,-4.95223E-002,4.34196E+000,-1.38520E-001,-1.02977E-002,4.34418E+000,1.00767E-002,3.98500E-001,0,6.55812E+001,-2.70006E+000,9.99692E-001,2.62817E+001,-3.33854E+001,9.98165E-001,8.52048E-002,-3.46923E-002,-1.40511E-003,8.52212E-002,-3.47087E-002,-6.71346E-001,8.57083E-002,1.08878E+000,-1.87854E-002,0.00000E+000,1.38971E-002,9.67376E-001,0.00000E+000,3.30541E-004,-5.70620E-002,1.00000E+000,13
709,1347,-1.26945E+001,7.04615E-001,4.11960E-003,1.83344E+000,-4.88419E-001,2.31039E-002,1.89752E+000,7.43626E-003,5.71566E-001,0,2.85617E+001,-7.94254E+000,9.99413E-001,-1.44253E+001,-4.69665E+001,9.99226E-001,7.93402E-002,-3.34552E-002,-6.05201E-004,7.93435E-002,-3.34584E-002,-3.07407E-001,7.96672E-002,1.08257E+000,1.14388E-003,0.00000E+000,-2.10483E-003,9.68917E-001,0.00000E+000,-1.48810E-003,-6.13890E-002,1.00000E+000,13
709,1357,-1.26735E+001,1.33251E+000,2.08425E-002,1.83344E+000,-5.07758E-001,-1.23505E-002,1.90249E+000,6.36195E-003,5.70239E-001,0,2.86611E+001,-8.17493E+000,9.99552E-001,-1.39167E+001,-4.73491E+001,9.99559E-001,7.84804E-002,-3.34597E-002,-6.91625E-004,7.84847E-002,-3.34639E-002,-3.53986E-001,7.87678E-002,1.08165E+000,1.11402E-003,0.00000E+000,-2.18063E-003,9.68914E-001,0.00000E+000,-2.59852E-003,-6.14248E-002,1.00000E+000,13
709,1337,-1.27053E+001,8.09418E-002,2.54658E-002,1.83705E+000,-4.70277E-001,6.09382E-002,1.89727E+000,6.81749E-003,5.63977E-001,0,2.85096E+001,-7.73065E+000,9.99379E-001,-1.46742E+001,-4.66084E+001,9.98872E-001,8.01933E-002,-3.34522E-002,-5.23529E-004,8.01957E-002,-3.34546E-002,-2.63936E-001,8.05618E-002,1.08350E+000,1.16443E-003,0.00000E+000,-2.02945E-003,9.68918E-001,0.00000E+000,-3.83828E-004,-6.13644E-002,1.00000E+000,13
709,1317,-1.27187E+001,-1.14120E+000,1.55212E-001,1.83751E+000,-4.21619E-001,1.42480E-001,1.89063E+000,8.86183E-003,5.93020E-001,0,2.82740E+001,-7.13521E+000,9.99455E-001,-1.48063E+001,-4.56729E+001,9.98891E-001,8.18821E-002,-3.34495E-002,-3.70989E-004,8.18833E-002,-3.34507E-002,-1.84301E-001,8.23389E-002,1.08533E+000,1.18437E-003,0.00000E+000,-1.87970E-003,9.68920E-001,0.00000E+000,1.80985E-003,-6.13406E-002,1.00000E+000,13
709,1327,-1.27113E+001,-5.31350E-001,8.18631E-002,1.83914E+000,-4.46290E-001,9.97987E-002,1.89514E+000,9.42509E-003,5.95989E-001,0,2.84267E+001,-7.44191E+000,9.99508E-001,-1.47535E+001,-4.61323E+001,9.98862E-001,8.10394E-002,-3.34506E-002,-4.46407E-004,8.10412E-002,-3.34523E-002,-2.23397E-001,8.14511E-002,1.08441E+000,1.17610E-003,0.00000E+000,-1.95451E-003,9.68919E-001,0.00000E+000,7.13943E-004,-6.13505E-002,1.00000E+000,13
1149,1297,1.85314E+001,-1.85228E+000,8.04080E-002,4.42524E+000,-7.83418E-002,7.17463E-002,4.42651E+000,1.48975E-002,4.06233E-001,0,6.64604E+001,-1.90365E+000,9.99559E-001,2.76375E+001,-3.25481E+001,9.96935E-001,8.37684E-002,-3.47712E-002,-1.67138E-003,8.37920E-002,-3.47948E-002,-8.07644E-001,8.41922E-002,1.08723E+000,-1.80093E-002,0.00000E+000,1.27300E-002,9.67342E-001,0.00000E+000,7.17509E-005,-5.75321E-002,1.00000E+000,13
1149,1307,1.85336E+001,-1.23133E+000,1.18965E-002,4.41894E+000,-1.00497E-001,3.55069E-002,4.42023E+000,9.55456E-003,3.90492E-001,0,6.65082E+001,-2.19830E+000,9.99676E-001,2.76243E+001,-3.27769E+001,9.98178E-001,8.46270E-002,-3.47672E-002,-1.58797E-003,8.46481E-002,-3.47883E-002,-7.61869E-001,8.50942E-002,1.08816E+000,-1.79969E-002,0.00000E+000,1.28905E-002,9.67344E-001,0.00000E+000,-3.56057E-004,-5.75377E-002,1.00000E+000,13
1149,1317,1.85333E+001,-6.08983E-001,-4.15168E-002,4.40565E+000,-1.25280E-001,-3.48714E-003,4.40743E+000,8.50794E-003,4.24108E-001,0,6.64597E+001,-2.52857E+000,9.99600E-001,2.75973E+001,-3.29929E+001,9.98204E-001,8.54888E-002,-3.47622E-002,-1.50130E-003,8.55076E-002,-3.47809E-002,-7.15173E-001,8.60017E-002,1.08910E+000,-1.79782E-002,0.00000E+000,1.30519E-002,9.67348E-001,0.00000E+000,-7.86010E-004,-5.75463E-002,1.00000E+000,13
1149,1327,1.85370E+001,1.94937E-002,-7.84365E-002,4.39199E+000,-1.44843E-001,-4.37573E-002,4.39459E+000,8.51775E-003,3.91628E-001,0,6.64057E+001,-2.76969E+000,9.99511E-001,2.76615E+001,-3.31834E+001,9.97965E-001,8.63498E-002,-3.47562E-002,-1.41182E-003,8.63663E-002,-3.47726E-002,-6.67819E-001,8.69106E-002,1.09004E+000,-1.79533E-002,0.00000E+000,1.32132E-002,9.67352E-001,0.00000E+000,-1.21604E-003,-5.75577E-002,1.00000E+000,13
1149,1337,1.85505E+001,6.52418E-001,-7.51842E-002,4.37956E+000,-1.69358E-001,-7.72809E-002,4.38352E+000,1.32342E-002,4.89209E-001,0,6.63409E+001,-3.09903E+000,9.99574E-001,2.79434E+001,-3.33296E+001,9.98310E-001,8.72202E-002,-3.47483E-002,-1.31597E-003,8.72344E-002,-3.47625E-002,-6.18093E-001,8.78315E-002,1.09099E+000,-1.79164E-002,0.00000E+000,1.33766E-002,9.67358E-001,0.00000E+000,-1.65132E-003,-5.75746E-002,1.00000E+000,13
1149,1347,1.85774E+001,1.29068E+000,-3.29853E-002,4.37128E+000,-1.92298E-001,-1.08969E-001,4.37686E+000,1.28784E-002,4.97270E-001,0,6.63250E+001,-3.39440E+000,9.99546E-001,2.84994E+001,-3.35267E+001,9.98169E-001,8.80922E-002,-3.47385E-002,-1.21399E-003,8.81042E-002,-3.47505E-002,-5.66206E-001,8.87564E-002,1.09194E+000,-1.78665E-002,0.00000E+000,1.35405E-002,9.67367E-001,0.00000E+000,-2.08800E-003,-5.75975E-002,1.00000E+000,13
699,1347,-1.33850E+001,7.01856E-001,1.48376E-002,1.78472E+000,-4.87413E-001,2.79376E-002,1.85029E+000,7.08079E-003,6.08322E-001,0,2.78075E+001,-7.93087E+000,9.99615E-001,-1.49663E+001,-4.71142E+001,9.99497E-001,7.86503E-002,-3.28690E-002,-5.44028E-004,7.86530E-002,-3.28717E-002,-2.79499E-001,7.90053E-002,1.08183E+000,2.19738E-003,0.00000E+000,-2.93860E-003,9.69418E-001,0.00000E+000,-1.34622E-003,-6.02870E-002,1.00000E+000,13
699,1357,-1.33660E+001,1.32584E+000,2.85863E-002,1.78325E+000,-5.10180E-001,-8.75461E-003,1.85482E+000,6.71550E-003,5.84547E-001,0,2.78881E+001,-8.20260E+000,9.99580E-001,-1.44949E+001,-4.75638E+001,9.99456E-001,7.76943E-002,-3.28701E-002,-5.76329E-004,7.76973E-002,-3.28731E-002,-2.98649E-001,7.80031E-002,1.08079E+000,2.16501E-003,0.00000E+000,-2.91719E-003,9.69418E-001,0.00000E+000,-2.32326E-003,-6.03177E-002,1.00000E+000,13
699,1337,-1.34019E+001,7.54189E-002,3.10744E-002,1.78226E+000,-4.70876E-001,6.16852E-002,1.84444E+000,6.04237E-003,5.68782E-001,0,2.76740E+001,-7.73694E+000,9.99468E-001,-1.53247E+001,-4.68023E+001,9.99314E-001,7.96014E-002,-3.28683E-002,-5.16170E-004,7.96037E-002,-3.28707E-002,-2.62947E-001,8.00051E-002,1.08285E+000,2.22033E-003,0.00000E+000,-2.95994E-003,9.69417E-001,0.00000E+000,-3.72329E-004,-6.02653E-002,1.00000E+000,13
699,1317,-1.34156E+001,-1.14091E+000,1.69388E-001,1.78005E+000,-4.19502E-001,1.39746E-001,1.83414E+000,9.54314E-003,6.24286E-001,0,2.74073E+001,-7.08982E+000,9.99536E-001,-1.54367E+001,-4.57786E+001,9.98873E-001,8.14782E-002,-3.28678E-002,-4.73531E-004,8.14802E-002,-3.28698E-002,-2.37268E-001,8.19854E-002,1.08489E+000,2.23875E-003,0.00000E+000,-3.00218E-003,9.69417E-001,0.00000E+000,1.55521E-003,-6.02479E-002,1.00000E+000,13
699,1327,-1.34098E+001,-5.30890E-001,8.81505E-002,1.78182E+000,-4.43997E-001,9.83007E-002,1.83893E+000,8.24560E-003,6.82969E-001,0,2.75582E+001,-7.40112E+000,9.99488E-001,-1.54298E+001,-4.61929E+001,9.98035E-001,8.05390E-002,-3.28680E-002,-4.93639E-004,8.05411E-002,-3.28701E-002,-2.49392E-001,8.09932E-002,1.08387E+000,2.23223E-003,0.00000E+000,-2.98102E-003,9.69417E-001,0.00000E+000,5.89680E-004,-6.02540E-002,1.00000E+000,13
1159,1307,1.92480E+001,-1.22097E+000,-3.32419E-003,4.47418E+000,-9.42316E-002,3.26145E-002,4.47529E+000,9.36699E-003,3.80365E-001,0,6.72995E+001,-2.09766E+000,9.98992E-001,2.87260E+001,-3.25001E+001,9.97997E-001,8.49606E-002,-3.49495E-002,-1.59306E-003,8.49818E-002,-3.49707E-002,-7.61019E-001,8.54243E-002,1.08854E+000,-1.72431E-002,0.00000E+000,1.22653E-002,9.67200E-001,0.00000E+000,-1.43288E-003,-5.79577E-002,1.00000E+000,13
1159,1317,1.92515E+001,-5.93964E-001,-5.59012E-002,4.46460E+000,-1.15191E-001,-5.63999E-003,4.46609E+000,9.19429E-003,4.40804E-001,0,6.73032E+001,-2.37561E+000,9.99179E-001,2.87602E+001,-3.26298E+001,9.98934E-001,8.58725E-002,-3.49480E-002,-1.55606E-003,8.58925E-002,-3.49681E-002,-7.37755E-001,8.63851E-002,1.08953E+000,-1.72231E-002,0.00000E+000,1.23312E-002,9.67202E-001,0.00000E+000,-1.89727E-003,-5.79670E-002,1.00000E+000,13
1159,1327,1.92618E+001,3.38634E-002,-7.63750E-002,4.45502E+000,-1.38118E-001,-3.88190E-002,4.45733E+000,6.39558E-003,4.28835E-001,0,6.72838E+001,-2.67743E+000,9.99643E-001,2.89530E+001,-3.28537E+001,9.99124E-001,8.67854E-002,-3.49461E-002,-1.51441E-003,8.68042E-002,-3.49650E-002,-7.12646E-001,8.73492E-002,1.09053E+000,-1.71930E-002,0.00000E+000,1.23973E-002,9.67204E-001,0.00000E+000,-2.36282E-003,-5.79811E-002,1.00000E+000,13
1159,1297,1.92468E+001,-1.83988E+000,6.27389E-002,4.48229E+000,-7.00950E-002,6.94251E-002,4.48337E+000,1.10869E-002,4.41176E-001,0,6.72755E+001,-1.78536E+000,9.99171E-001,2.87507E+001,-3.22136E+001,9.95817E-001,8.40537E-002,-3.49507E-002,-1.62728E-003,8.40759E-002,-3.49730E-002,-7.83273E-001,8.44708E-002,1.08755E+000,-1.72574E-002,0.00000E+000,1.21999E-002,9.67199E-001,0.00000E+000,-9.71551E-004,-5.79510E-002,1.00000E+000,13
1159,1337,1.92841E+001,6.67142E-001,-5.95182E-002,4.44773E+000,-1.62768E-001,-7.26299E-002,4.45130E+000,9.31589E-003,4.64617E-001,0,6.72959E+001,-3.00606E+000,9.99805E-001,2.93924E+001,-3.30528E+001,9.99524E-001,8.77048E-002,-3.49436E-002,-1.46603E-003,8.77223E-002,-3.49611E-002,-6.84731E-001,8.83223E-002,1.09154E+000,-1.71484E-002,0.00000E+000,1.24638E-002,9.67207E-001,0.00000E+000,-2.83233E-003,-5.80019E-002,1.00000E+000,13
1159,1347,1.93041E+001,1.30527E+000,-3.32473E-002,4.43509E+000,-1.82996E-001,-1.09436E-001,4.44021E+000,9.91022E-003,4.65216E-001,0,6.72356E+001,-3.26762E+000,9.99599E-001,2.98124E+001,-3.32197E+001,9.99093E-001,8.86230E-002,-3.49409E-002,-1.41562E-003,8.86392E-002,-3.49571E-002,-6.56299E-001,8.92960E-002,1.09254E+000,-1.70993E-002,0.00000E+000,1.25304E-002,9.67210E-001,0.00000E+000,-3.30176E-003,-5.80249E-002,1.00000E+000,13
689,1347,-1.40776E+001,6.95847E-001,1.36638E-002,1.73294E+000,-4.89770E-001,1.83797E-002,1.80092E+000,7.46269E-003,6.26232E-001,0,2.70468E+001,-7.93345E+000,9.99683E-001,-1.55695E+001,-4.72957E+001,9.99097E-001,7.79264E-002,-3.25462E-002,-5.42462E-004,7.79291E-002,-3.25489E-002,-2.81335E-001,7.82804E-002,1.08104E+000,3.23024E-003,0.00000E+000,-3.86368E-003,9.69683E-001,0.00000E+000,-1.32026E-003,-5.95116E-002,1.00000E+000,13
689,1357,-1.40612E+001,1.31851E+000,2.34215E-002,1.73126E+000,-5.11368E-001,-1.05439E-002,1.80523E+000,7.09458E-003,6.05179E-001,0,2.71016E+001,-8.21412E+000,9.99566E-001,-1.51467E+001,-4.77576E+001,9.99502E-001,7.68578E-002,-3.25479E-002,-5.88730E-004,7.68610E-002,-3.25510E-002,-3.08306E-001,7.71602E-002,1.07989E+000,3.19806E-003,0.00000E+000,-3.87467E-003,9.69682E-001,0.00000E+000,-2.24120E-003,-5.95373E-002,1.00000E+000,13
689,1337,-1.40933E+001,7.70351E-002,3.48668E-002,1.73263E+000,-4.64190E-001,6.23991E-002,1.79482E+000,8.24614E-003,5.87292E-001,0,2.69159E+001,-7.63542E+000,9.99526E-001,-1.58937E+001,-4.68751E+001,9.99449E-001,7.89947E-002,-3.25449E-002,-4.98475E-004,7.89969E-002,-3.25471E-002,-2.56050E-001,7.94037E-002,1.08219E+000,3.25747E-003,0.00000E+000,-3.85267E-003,9.69683E-001,0.00000E+000,-3.97901E-004,-5.94898E-002,1.00000E+000,13
1169,1327,1.99796E+001,4.64282E-002,-8.78197E-002,4.51114E+000,-1.31187E-001,-4.52469E-002,4.51327E+000,6.14295E-003,4.65095E-001,0,6.81010E+001,-2.58219E+000,9.99758E-001,3.01167E+001,-3.25238E+001,9.99392E-001,8.71438E-002,-3.51085E-002,-1.45187E-003,8.71610E-002,-3.51257E-002,-6.80317E-001,8.77061E-002,1.09094E+000,-1.63191E-002,0.00000E+000,1.17997E-002,9.67062E-001,0.00000E+000,-3.44531E-003,-5.81203E-002,1.00000E+000,13
1169,1337,2.00050E+001,6.83252E-001,-6.34224E-002,4.50491E+000,-1.52614E-001,-7.89477E-002,4.50818E+000,8.65037E-003,4.64569E-001,0,6.81267E+001,-2.85923E+000,9.99789E-001,3.06153E+001,-3.27007E+001,9.99367E-001,8.80739E-002,-3.51096E-002,-1.43305E-003,8.80905E-002,-3.51263E-002,-6.66429E-001,8.86905E-002,1.09195E+000,-1.62709E-002,0.00000E+000,1.18023E-002,9.67062E-001,0.00000E+000,-3.84358E-003,-5.81392E-002,1.00000E+000,13
1169,1347,2.00313E+001,1.31960E+000,-2.71852E-002,4.49644E+000,-1.76283E-001,-1.13275E-001,4.50132E+000,7.74996E-003,4.41215E-001,0,6.81203E+001,-3.16343E+000,9.99573E-001,3.11471E+001,-3.29271E+001,9.99282E-001,8.90047E-002,-3.51109E-002,-1.41213E-003,8.90207E-002,-3.51269E-002,-6.51772E-001,8.96777E-002,1.09297E+000,-1.62178E-002,0.00000E+000,1.18050E-002,9.67063E-001,0.00000E+000,-4.24262E-003,-5.81600E-002,1.00000E+000,13
689,1327,-1.41106E+001,-5.38037E-001,7.58268E-002,1.72497E+000,-4.43187E-001,9.51608E-002,1.78353E+000,9.20216E-003,6.41586E-001,0,2.67018E+001,-7.37255E+000,9.99283E-001,-1.61888E+001,-4.63952E+001,9.98578E-001,8.00499E-002,-3.25441E-002,-4.59480E-004,8.00518E-002,-3.25460E-002,-2.33810E-001,8.05164E-002,1.08334E+000,3.27464E-003,0.00000E+000,-3.84178E-003,9.69683E-001,0.00000E+000,5.14907E-004,-5.94761E-002,1.00000E+000,13
1169,1317,1.99686E+001,-5.84896E-001,-6.40255E-002,4.51980E+000,-1.09368E-001,-1.05450E-002,4.52114E+000,1.07066E-002,3.96499E-001,0,6.81001E+001,-2.29757E+000,9.99508E-001,2.99201E+001,-3.24035E+001,9.99309E-001,8.62169E-002,-3.51077E-002,-1.46251E-003,8.62346E-002,-3.51253E-002,-6.90542E-001,8.67269E-002,1.08992E+000,-1.63493E-002,0.00000E+000,1.17970E-002,9.67062E-001,0.00000E+000,-3.04895E-003,-5.81085E-002,1.00000E+000,13
1169,1307,1.99636E+001,-1.20928E+000,-1.87062E-002,4.52940E+000,-8.83467E-002,2.63133E-002,4.53034E+000,9.47923E-003,4.36470E-001,0,6.81022E+001,-2.00955E+000,9.99485E-001,2.98515E+001,-3.21692E+001,9.98892E-001,8.52988E-002,-3.51070E-002,-1.46973E-003,8.53168E-002,-3.51249E-002,-6.99243E-001,8.57591E-002,1.08892E+000,-1.63718E-002,0.00000E+000,1.17943E-002,9.67062E-001,0.00000E+000,-2.65680E-003,-5.80997E-002,1.00000E+000,13
1169,1297,1.99663E+001,-1.82737E+000,5.67174E-002,4.54053E+000,-6.23371E-002,6.87361E-002,4.54148E+000,9.27870E-003,4.71574E-001,0,6.80994E+001,-1.68876E+000,9.99480E-001,2.99517E+001,-3.19042E+001,9.97227E-001,8.43801E-002,-3.51065E-002,-1.47272E-003,8.43982E-002,-3.51246E-002,-7.06052E-001,8.47926E-002,1.08792E+000,-1.63850E-002,0.00000E+000,1.17917E-002,9.67062E-001,0.00000E+000,-2.26484E-003,-5.80945E-002,1.00000E+000,13
689,1317,-1.41163E+001,-1.14629E+000,1.57963E-001,1.72305E+000,-4.18724E-001,1.36806E-001,1.77846E+000,9.60382E-003,6.13337E-001,0,2.65490E+001,-7.05471E+000,9.99431E-001,-1.61917E+001,-4.59388E+001,9.98037E-001,8.11005E-002,-3.25440E-002,-4.25298E-004,8.11021E-002,-3.25456E-002,-2.14417E-001,8.16272E-002,1.08448E+000,3.28156E-003,0.00000E+000,-3.83091E-003,9.69683E-001,0.00000E+000,1.42537E-003,-5.94706E-002,1.00000E+000,13
679,1347,-1.47780E+001,6.89420E-001,6.21235E-003,1.67502E+000,-4.87766E-001,1.24555E-002,1.74463E+000,1.19109E-002,6.22590E-001,0,2.61778E+001,-7.91642E+000,9.99308E-001,-1.63025E+001,-4.74820E+001,9.98904E-001,7.71812E-002,-3.22446E-002,-6.01310E-004,7.71845E-002,-3.22479E-002,-3.14836E-001,7.75314E-002,1.08023E+000,4.28186E-003,0.00000E+000,-4.92075E-003,9.69928E-001,0.00000E+000,-1.36358E-003,-5.87699E-002,1.00000E+000,13
679,1357,-1.47531E+001,1.31333E+000,1.61024E-002,1.68333E+000,-5.09215E-001,-8.13708E-003,1.75869E+000,5.60991E-003,6.23762E-001,0,2.63648E+001,-8.18673E+000,9.99526E-001,-1.57488E+001,-4.79141E+001,9.99485E-001,7.59542E-002,-3.22484E-002,-7.04894E-004,7.59588E-002,-3.22530E-002,-3.73237E-001,7.62461E-002,1.07891E+000,4.24820E-003,0.00000E+000,-5.04540E-003,9.69925E-001,0.00000E+000,-2.25724E-003,-5.87926E-002,1.00000E+000,13
1179,1297,2.06793E+001,-1.81921E+000,3.58636E-002,4.59645E+000,-5.65657E-002,7.13379E-002,4.59735E+000,1.56873E-002,5.07492E-001,0,6.88777E+001,-1.62945E+000,9.99712E-001,3.10316E+001,-3.16287E+001,9.97505E-001,8.46782E-002,-3.52262E-002,-1.36051E-003,8.46937E-002,-3.52416E-002,-6.50002E-001,8.50901E-002,1.08826E+000,-1.56025E-002,0.00000E+000,1.13861E-002,9.66970E-001,0.00000E+000,-3.60710E-003,-5.84201E-002,1.00000E+000,13
1179,1307,2.06832E+001,-1.20207E+000,-2.97271E-002,4.58931E+000,-8.28392E-002,2.88611E-002,4.59015E+000,6.86246E-003,3.88102E-001,0,6.89402E+001,-1.94862E+000,9.99734E-001,3.10492E+001,-3.19690E+001,9.98750E-001,8.55655E-002,-3.52261E-002,-1.34605E-003,8.55805E-002,-3.52411E-002,-6.38372E-001,8.60233E-002,1.08923E+000,-1.55860E-002,0.00000E+000,1.14029E-002,9.66970E-001,0.00000E+000,-3.88601E-003,-5.84248E-002,1.00000E+000,13
1179,1317,2.06866E+001,-5.76005E-001,-9.94964E-002,4.58277E+000,-1.01254E-001,-1.37625E-002,4.58391E+000,1.53214E-002,3.62961E-001,0,6.90094E+001,-2.16883E+000,9.99791E-001,3.10542E+001,-3.21150E+001,9.98969E-001,8.64536E-002,-3.52261E-002,-1.33226E-003,8.64682E-002,-3.52406E-002,-6.27225E-001,8.69594E-002,1.09020E+000,-1.55710E-002,0.00000E+000,1.14198E-002,9.66971E-001,0.00000E+000,-4.16545E-003,-5.84292E-002,1.00000E+000,13
1179,1337,2.07273E+001,6.93944E-001,-7.52550E-002,4.56364E+000,-1.47239E-001,-9.08049E-002,4.56692E+000,7.68413E-003,4.45784E-001,0,6.90038E+001,-2.76937E+000,9.99674E-001,3.18513E+001,-3.24243E+001,9.98742E-001,8.82550E-002,-3.52258E-002,-1.27790E-003,8.82682E-002,-3.52390E-002,-5.92867E-001,8.88638E-002,1.09217E+000,-1.54824E-002,0.00000E+000,1.14540E-002,9.66972E-001,0.00000E+000,-4.73332E-003,-5.84547E-002,1.00000E+000,13
1179,1347,2.07622E+001,1.33478E+000,-2.75385E-002,4.56107E+000,-1.69277E-001,-1.22997E-001,4.56587E+000,7.42151E-003,4.38051E-001,0,6.90758E+001,-3.04311E+000,9.99687E-001,3.25322E+001,-3.25962E+001,9.99207E-001,8.91594E-002,-3.52256E-002,-1.24576E-003,8.91719E-002,-3.52381E-002,-5.73761E-001,8.98228E-002,1.09316E+000,-1.54271E-002,0.00000E+000,1.14712E-002,9.66973E-001,0.00000E+000,-5.01887E-003,-5.84706E-002,1.00000E+000,13
679,1327,-1.48058E+001,-5.42545E-001,7.95717E-002,1.67120E+000,-4.41944E-001,9.69291E-002,1.73136E+000,9.80180E-003,6.10093E-001,0,2.58776E+001,-7.34437E+000,9.99280E-001,-1.68140E+001,-4.65858E+001,9.98474E-001,7.96090E-002,-3.22395E-002,-4.04128E-004,7.96104E-002,-3.22410E-002,-2.07016E-001,8.00882E-002,1.08286E+000,4.33088E-003,0.00000E+000,-4.67342E-003,9.69932E-001,0.00000E+000,4.09607E-004,-5.87368E-002,1.00000E+000,13
679,1337,-1.47926E+001,7.24853E-002,2.92008E-002,1.67575E+000,-4.62979E-001,5.96176E-002,1.73955E+000,1.04719E-002,6.04513E-001,0,2.60556E+001,-7.60756E+000,9.99422E-001,-1.66071E+001,-4.70241E+001,9.99242E-001,7.83997E-002,-3.22411E-002,-4.99330E-004,7.84019E-002,-3.22434E-002,-2.58573E-001,7.88125E-002,1.08155E+000,4.31314E-003,0.00000E+000,-4.79674E-003,9.69931E-001,0.00000E+000,-4.74493E-004,-5.87488E-002,1.00000E+000,13
1179,1327,2.07026E+001,5.53126E-002,-9.79053E-002,4.57294E+000,-1.25002E-001,-4.68449E-002,4.57489E+000,1.15348E-002,4.31472E-001,0,6.89841E+001,-2.51293E+000,9.99632E-001,3.13677E+001,-3.22884E+001,9.98122E-001,8.73517E-002,-3.52259E-002,-1.30781E-003,8.73657E-002,-3.52399E-002,-6.11211E-001,8.79079E-002,1.09118E+000,-1.55327E-002,0.00000E+000,1.14368E-002,9.66971E-001,0.00000E+000,-4.44840E-003,-5.84402E-002,1.00000E+000,13
679,1317,-1.48125E+001,-1.15003E+000,1.59548E-001,1.66844E+000,-4.17009E-001,1.37075E-001,1.72522E+000,8.53034E-003,6.32717E-001,0,2.57166E+001,-7.03901E+000,9.99545E-001,-1.68366E+001,-4.60860E+001,9.98143E-001,8.08119E-002,-3.22392E-002,-3.13710E-004,8.08128E-002,-3.22400E-002,-1.58991E-001,8.13611E-002,1.08416E+000,4.33891E-003,0.00000E+000,-4.55052E-003,9.69933E-001,0.00000E+000,1.29071E-003,-5.87313E-002,1.00000E+000,13
669,1327,-1.54977E+001,-5.50227E-001,8.48799E-002,1.62117E+000,-4.42817E-001,1.04228E-001,1.68378E+000,8.49004E-003,5.92080E-001,0,2.50956E+001,-7.37680E+000,9.99695E-001,-1.73791E+001,-4.68215E+001,9.98966E-001,7.90934E-002,-3.19712E-002,-2.79751E-004,7.90941E-002,-3.19719E-002,-1.44316E-001,7.95763E-002,1.08229E+000,5.80199E-003,0.00000E+000,-5.73853E-003,9.70135E-001,0.00000E+000,2.16436E-004,-5.78088E-002,1.00000E+000,13
669,1337,-1.54867E+001,6.86137E-002,3.46221E-002,1.62314E+000,-4.62005E-001,6.47092E-002,1.68885E+000,6.17033E-003,6.28977E-001,0,2.52383E+001,-7.59847E+000,9.99588E-001,-1.72047E+001,-4.71826E+001,9.99483E-001,7.76969E-002,-3.19734E-002,-4.15088E-004,7.76985E-002,-3.19749E-002,-2.16853E-001,7.81029E-002,1.08078E+000,5.78073E-003,0.00000E+000,-5.94348E-003,9.70132E-001,0.00000E+000,-6.04953E-004,-5.78203E-002,1.00000E+000,13
669,1347,-1.54709E+001,6.85284E-001,5.37357E-003,1.62693E+000,-4.84274E-001,2.96916E-002,1.69774E+000,5.76035E-003,6.07878E-001,0,2.53966E+001,-7.87418E+000,9.99512E-001,-1.68996E+001,-4.76521E+001,9.99329E-001,7.62978E-002,-3.19767E-002,-5.53573E-004,7.63006E-002,-3.19795E-002,-2.92925E-001,7.66326E-002,1.07927E+000,5.75273E-003,0.00000E+000,-6.14841E-003,9.70128E-001,0.00000E+000,-1.42631E-003,-5.78356E-002,1.00000E+000,13
669,1357,-1.54464E+001,1.31319E+000,2.02282E-002,1.63211E+000,-5.01772E-001,-3.17796E-003,1.70750E+000,6.12719E-003,6.00225E-001,0,2.55665E+001,-8.08525E+000,9.99415E-001,-1.63335E+001,-4.80401E+001,9.99363E-001,7.48869E-002,-3.19830E-002,-7.00994E-004,7.48915E-002,-3.19875E-002,-3.75800E-001,7.51563E-002,1.07775E+000,5.70730E-003,0.00000E+000,-6.35465E-003,9.70122E-001,0.00000E+000,-2.25291E-003,-5.78603E-002,1.00000E+000,13
1189,1337,2.14549E+001,7.05638E-001,-8.13146E-002,4.62656E+000,-1.43113E-001,-9.85737E-002,4.62983E+000,1.00275E-002,4.41472E-001,0,6.99266E+001,-2.68515E+000,9.99729E-001,3.31808E+001,-3.21375E+001,9.98956E-001,8.82294E-002,-3.53381E-002,-1.12921E-003,8.82397E-002,-3.53484E-002,-5.23534E-001,8.88191E-002,1.09215E+000,-1.47483E-002,0.00000E+000,1.11247E-002,9.66860E-001,0.00000E+000,-5.30372E-003,-5.83237E-002,1.00000E+000,13
669,1317,-1.55034E+001,-1.15444E+000,1.72385E-001,1.61805E+000,-4.15067E-001,1.45082E-001,1.67672E+000,1.11043E-002,5.90348E-001,0,2.49268E+001,-7.02780E+000,9.99689E-001,-1.73657E+001,-4.62973E+001,9.98610E-001,8.04784E-002,-3.19715E-002,-1.52120E-004,8.04786E-002,-3.19718E-002,-7.75082E-002,8.10428E-002,1.08379E+000,5.80829E-003,0.00000E+000,-5.53488E-003,9.70135E-001,0.00000E+000,1.03264E-003,-5.78053E-002,1.00000E+000,13
1189,1297,2.14085E+001,-1.80763E+000,5.14007E-002,4.65792E+000,-5.11598E-002,7.03118E-002,4.65873E+000,1.14761E-002,4.77342E-001,0,6.97459E+001,-1.56484E+000,9.99662E-001,3.24259E+001,-3.14093E+001,9.97045E-001,8.49465E-002,-3.53322E-002,-1.12819E-003,8.49571E-002,-3.53428E-002,-5.37362E-001,8.53557E-002,1.08857E+000,-1.48542E-002,0.00000E+000,1.12500E-002,9.66864E-001,0.00000E+000,-5.06319E-003,-5.83166E-002,1.00000E+000,13
1189,1307,2.14032E+001,-1.19060E+000,-3.68323E-002,4.64601E+000,-7.82013E-002,2.31947E-002,4.64672E+000,7.68135E-003,4.40939E-001,0,6.97592E+001,-1.88119E+000,9.99517E-001,3.22636E+001,-3.16607E+001,9.98624E-001,8.57619E-002,-3.53330E-002,-1.13625E-003,8.57726E-002,-3.53437E-002,-5.37550E-001,8.62136E-002,1.08946E+000,-1.48451E-002,0.00000E+000,1.12189E-002,9.66863E-001,0.00000E+000,-5.12285E-003,-5.83172E-002,1.00000E+000,13
1189,1317,2.14188E+001,-5.54139E-001,-7.12994E-002,4.64215E+000,-9.44768E-002,-2.06365E-002,4.64316E+000,8.22048E-003,4.51456E-001,0,6.98678E+001,-2.04132E+000,9.99747E-001,3.25152E+001,-3.17014E+001,9.99511E-001,8.65847E-002,-3.53345E-002,-1.13643E-003,8.65953E-002,-3.53451E-002,-5.34001E-001,8.70809E-002,1.09035E+000,-1.48185E-002,0.00000E+000,1.11876E-002,9.66862E-001,0.00000E+000,-5.18311E-003,-5.83190E-002,1.00000E+000,13
1189,1327,2.14342E+001,7.14756E-002,-9.29924E-002,4.63390E+000,-1.21780E-001,-6.77832E-002,4.63600E+000,1.07999E-002,4.35162E-001,0,6.99254E+001,-2.38479E+000,9.99781E-001,3.27806E+001,-3.19534E+001,9.99320E-001,8.74063E-002,-3.53362E-002,-1.13413E-003,8.74167E-002,-3.53466E-002,-5.29347E-001,8.79484E-002,1.09125E+000,-1.47863E-002,0.00000E+000,1.11562E-002,9.66861E-001,0.00000E+000,-5.24333E-003,-5.83211E-002,1.00000E+000,13
659,1327,-1.61889E+001,-5.43994E-001,9.27817E-002,1.57013E+000,-4.32046E-001,1.07394E-001,1.63202E+000,1.36569E-002,5.81441E-001,0,2.43053E+001,-7.20107E+000,9.99507E-001,-1.79194E+001,-4.68453E+001,9.97919E-001,7.84145E-002,-3.18038E-002,-2.80342E-004,7.84152E-002,-3.18045E-002,-1.45732E-001,7.88797E-002,1.08155E+000,7.28926E-003,0.00000E+000,-7.06385E-003,9.70249E-001,0.00000E+000,3.09607E-005,-5.71006E-002,1.00000E+000,13
659,1337,-1.61650E+001,6.21790E-002,5.20651E-002,1.58509E+000,-4.63838E-001,7.72106E-002,1.65336E+000,1.55206E-002,6.96068E-001,0,2.46268E+001,-7.68053E+000,9.99445E-001,-1.75238E+001,-4.73830E+001,9.99245E-001,7.69503E-002,-3.18058E-002,-4.25195E-004,7.69519E-002,-3.18074E-002,-2.24000E-001,7.73362E-002,1.07996E+000,7.26713E-003,0.00000E+000,-7.29113E-003,9.70246E-001,0.00000E+000,-7.58428E-004,-5.71117E-002,1.00000E+000,13
659,1347,-1.61531E+001,6.84833E-001,2.35569E-002,1.58493E+000,-4.79824E-001,4.19864E-002,1.65650E+000,8.03264E-003,6.35672E-001,0,2.47218E+001,-7.84066E+000,9.99719E-001,-1.72739E+001,-4.77845E+001,9.99652E-001,7.54840E-002,-3.18090E-002,-5.73395E-004,7.54871E-002,-3.18120E-002,-3.06189E-001,7.57971E-002,1.07838E+000,7.23770E-003,0.00000E+000,-7.51829E-003,9.70241E-001,0.00000E+000,-1.54740E-003,-5.71264E-002,1.00000E+000,13
659,1357,-1.61344E+001,1.31333E+000,2.88633E-002,1.58498E+000,-4.95924E-001,2.76841E-003,1.66076E+000,5.58347E-003,5.93696E-001,0,2.48289E+001,-7.99938E+000,9.99615E-001,-1.68223E+001,-4.81626E+001,9.99614E-001,7.40062E-002,-3.18150E-002,-7.30013E-004,7.40112E-002,-3.18201E-002,-3.95233E-001,7.42530E-002,1.07679E+000,7.19194E-003,0.00000E+000,-7.74677E-003,9.70235E-001,0.00000E+000,-2.34101E-003,-5.71492E-002,1.00000E+000,13
1199,1307,2.21276E+001,-1.17769E+000,-3.97611E-002,4.70363E+000,-7.33591E-002,9.78772E-003,4.70422E+000,1.03634E-002,4.42470E-001,0,7.06197E+001,-1.77619E+000,9.99604E-001,3.35588E+001,-3.13645E+001,9.98257E-001,8.58743E-002,-3.52908E-002,-8.78282E-004,8.58806E-002,-3.52971E-002,-4.15287E-001,8.63329E-002,1.08959E+000,-1.40004E-002,0.00000E+000,1.10094E-002,9.66890E-001,0.00000E+000,-5.84727E-003,-5.80271E-002,1.00000E+000,13
1199,1317,2.21390E+001,-5.49816E-001,-8.07475E-002,4.69776E+000,-9.53202E-002,-3.12550E-002,4.69883E+000,8.90234E-003,4.39669E-001,0,7.06917E+001,-2.05081E+000,9.99306E-001,3.37311E+001,-3.15296E+001,9.98087E-001,8.66439E-002,-3.52932E-002,-8.94889E-004,8.66504E-002,-3.52997E-002,-4.20460E-001,8.71446E-002,1.09043E+000,-1.39783E-002,0.00000E+000,1.09421E-002,9.66888E-001,0.00000E+000,-5.73830E-003,-5.80242E-002,1.00000E+000,13
1199,1327,2.21545E+001,8.16720E-002,-1.07022E-001,4.69331E+000,-1.14759E-001,-6.83564E-002,4.69521E+000,9.78226E-003,4.32692E-001,0,7.07664E+001,-2.30242E+000,9.99465E-001,3.39915E+001,-3.16741E+001,9.98496E-001,8.74136E-002,-3.52958E-002,-9.09941E-004,8.74203E-002,-3.53026E-002,-4.24841E-001,8.79577E-002,1.09127E+000,-1.39528E-002,0.00000E+000,1.08746E-002,9.66886E-001,0.00000E+000,-5.62922E-003,-5.80209E-002,1.00000E+000,13
659,1317,-1.62023E+001,-1.15758E+000,1.55712E-001,1.56179E+000,-4.12739E-001,1.37676E-001,1.62126E+000,1.17226E-002,6.11549E-001,0,2.40885E+001,-6.96332E+000,9.98830E-001,-1.80938E+001,-4.63963E+001,9.95730E-001,7.98672E-002,-3.18036E-002,-1.40748E-004,7.98673E-002,-3.18037E-002,-7.22145E-002,8.04172E-002,1.08312E+000,7.30177E-003,0.00000E+000,-6.83792E-003,9.70251E-001,0.00000E+000,8.15683E-004,-5.70944E-002,1.00000E+000,13
1199,1337,2.21854E+001,7.19771E-001,-7.65032E-002,4.68938E+000,-1.37438E-001,-1.05755E-001,4.69259E+000,8.68907E-003,4.57205E-001,0,7.08419E+001,-2.59822E+000,9.99684E-001,3.45782E+001,-3.18268E+001,9.98344E-001,8.81913E-002,-3.52999E-002,-9.16754E-004,8.81981E-002,-3.53067E-002,-4.25312E-001,8.87805E-002,1.09212E+000,-1.39084E-002,0.00000E+000,1.08064E-002,9.66883E-001,0.00000E+000,-5.51889E-003,-5.80151E-002,1.00000E+000,13
1199,1297,2.21309E+001,-1.79269E+000,4.08684E-002,4.71413E+000,-4.36366E-002,5.19380E-002,4.71462E+000,7.88590E-003,4.31070E-001,0,7.06031E+001,-1.38457E+000,9.99535E-001,3.36758E+001,-3.10908E+001,9.97948E-001,8.51081E-002,-3.52893E-002,-8.56064E-004,8.51142E-002,-3.52954E-002,-4.07364E-001,8.55262E-002,1.08876E+000,-1.40099E-002,0.00000E+000,1.10764E-002,9.66891E-001,0.00000E+000,-5.95565E-003,-5.80283E-002,1.00000E+000,13
649,1347,-1.68490E+001,6.87417E-001,1.92230E-002,1.52911E+000,-4.72536E-001,3.33658E-002,1.60081E+000,8.29997E-003,6.57329E-001,0,2.38884E+001,-7.70370E+000,9.99637E-001,-1.79152E+001,-4.78265E+001,9.98906E-001,7.45807E-002,-3.15970E-002,-5.63712E-004,7.45837E-002,-3.16000E-002,-3.04180E-001,7.48728E-002,1.07740E+000,8.84716E-003,0.00000E+000,-8.94071E-003,9.70397E-001,0.00000E+000,-1.77610E-003,-5.64414E-002,1.00000E+000,13
649,1357,-1.68268E+001,1.31239E+000,3.27758E-002,1.53332E+000,-4.91105E-001,4.92050E-003,1.61005E+000,5.88692E-003,5.92005E-001,0,2.40306E+001,-7.92135E+000,9.99688E-001,-1.73857E+001,-4.82897E+001,9.99343E-001,7.29777E-002,-3.16023E-002,-7.16389E-004,7.29826E-002,-3.16072E-002,-3.92460E-001,7.32002E-002,1.07568E+000,8.79920E-003,0.00000E+000,-9.16200E-003,9.70391E-001,0.00000E+000,-2.59205E-003,-5.64642E-002,1.00000E+000,13
649,1337,-1.68689E+001,6.84164E-002,4.59490E-002,1.52098E+000,-4.51375E-001,6.57658E-002,1.58790E+000,8.77521E-003,6.33787E-001,0,2.36712E+001,-7.44213E+000,9.99698E-001,-1.82923E+001,-4.74062E+001,9.99141E-001,7.61774E-002,-3.15944E-002,-4.19103E-004,7.61790E-002,-3.15960E-002,-2.22807E-001,7.65471E-002,1.07912E+000,8.87838E-003,0.00000E+000,-8.71983E-003,9.70401E-001,0.00000E+000,-9.61674E-004,-5.64267E-002,1.00000E+000,13
649,1327,-1.68853E+001,-5.39892E-001,8.76170E-002,1.51304E+000,-4.24127E-001,9.47919E-002,1.57422E+000,7.49705E-003,6.03221E-001,0,2.34638E+001,-7.04554E+000,9.99767E-001,-1.85718E+001,-4.68586E+001,9.99493E-001,7.77620E-002,-3.15931E-002,-2.79215E-004,7.77627E-002,-3.15939E-002,-1.46291E-001,7.82166E-002,1.08083E+000,8.90103E-003,0.00000E+000,-8.50017E-003,9.70404E-001,0.00000E+000,-1.51712E-004,-5.64159E-002,1.00000E+000,13
1209,1307,2.28539E+001,-1.16240E+000,-3.80445E-002,4.76328E+000,-6.48617E-002,3.63671E-003,4.76372E+000,8.22714E-003,4.58315E-001,0,7.14794E+001,-1.65204E+000,9.99610E-001,3.48933E+001,-3.10339E+001,9.98356E-001,8.57812E-002,-3.50672E-002,-5.79367E-004,8.57840E-002,-3.50699E-002,-2.74677E-001,8.62582E-002,1.08951E+000,-1.30701E-002,0.00000E+000,1.07816E-002,9.67083E-001,0.00000E+000,-6.12334E-003,-5.75639E-002,1.00000E+000,13
1209,1317,2.28631E+001,-5.39541E-001,-8.48484E-002,4.75688E+000,-9.10440E-002,-3.61928E-002,4.75789E+000,9.21902E-003,4.39403E-001,0,7.15423E+001,-1.98689E+000,9.99573E-001,3.50209E+001,-3.12711E+001,9.97938E-001,8.65814E-002,-3.50688E-002,-5.87983E-004,8.65843E-002,-3.50716E-002,-2.76924E-001,8.71030E-002,1.09038E+000,-1.30493E-002,0.00000E+000,1.07203E-002,9.67081E-001,0.00000E+000,-5.81794E-003,-5.75566E-002,1.00000E+000,13
1209,1327,2.28861E+001,9.53760E-002,-9.75597E-002,4.75525E+000,-1.09330E-001,-7.73869E-002,4.75714E+000,8.87135E-003,4.10024E-001,0,7.16730E+001,-2.20958E+000,9.99624E-001,3.54189E+001,-3.14009E+001,9.98662E-001,8.73841E-002,-3.50710E-002,-5.91146E-004,8.73869E-002,-3.50738E-002,-2.76584E-001,8.79519E-002,1.09125E+000,-1.30165E-002,0.00000E+000,1.06588E-002,9.67079E-001,0.00000E+000,-5.51128E-003,-5.75451E-002,1.00000E+000,13
1209,1337,2.29179E+001,7.33967E-001,-6.56777E-002,4.75172E+000,-1.33001E-001,-1.14439E-001,4.75496E+000,9.40033E-003,4.62033E-001,0,7.17538E+001,-2.51881E+000,9.99673E-001,3.60194E+001,-3.15339E+001,9.97768E-001,8.81949E-002,-3.50740E-002,-5.88140E-004,8.81977E-002,-3.50768E-002,-2.73361E-001,8.88108E-002,1.09214E+000,-1.29696E-002,0.00000E+000,1.05965E-002,9.67076E-001,0.00000E+000,-5.20117E-003,-5.75287E-002,1.00000E+000,13
1209,1297,2.28546E+001,-1.78011E+000,3.45351E-002,4.77310E+000,-3.61308E-002,4.46129E-002,4.77345E+000,7.92592E-003,4.27655E-001,0,7.14578E+001,-1.27114E+000,9.99598E-001,3.49582E+001,-3.07966E+001,9.97747E-001,8.49821E-002,-3.50660E-002,-5.66956E-004,8.49847E-002,-3.50687E-002,-2.70585E-001,8.54160E-002,1.08864E+000,-1.30823E-002,0.00000E+000,1.08428E-002,9.67084E-001,0.00000E+000,-6.42801E-003,-5.75682E-002,1.00000E+000,13
649,1317,-1.68931E+001,-1.15239E+000,1.65090E-001,1.50892E+000,-4.04959E-001,1.32150E-001,1.56790E+000,6.50452E-003,6.11068E-001,0,2.32936E+001,-6.81572E+000,9.99536E-001,-1.86192E+001,-4.64323E+001,9.99353E-001,7.93377E-002,-3.15938E-002,-1.45676E-004,7.93379E-002,-3.15940E-002,-7.52408E-002,7.98839E-002,1.08253E+000,8.91095E-003,0.00000E+000,-8.28127E-003,9.70405E-001,0.00000E+000,6.55401E-004,-5.64112E-002,1.00000E+000,13
639,1347,-1.75422E+001,6.90153E-001,1.48721E-002,1.47676E+000,-4.63568E-001,3.07778E-002,1.54811E+000,8.54278E-003,6.16005E-001,0,2.30909E+001,-7.53281E+000,9.99446E-001,-1.85094E+001,-4.78972E+001,9.98847E-001,7.37094E-002,-3.12858E-002,-5.62531E-004,7.37124E-002,-3.12888E-002,-3.06961E-001,7.39922E-002,1.07645E+000,1.06115E-002,0.00000E+000,-1.05258E-002,9.70632E-001,0.00000E+000,-1.96817E-003,-5.55076E-002,1.00000E+000,13
639,1357,-1.75176E+001,1.31689E+000,2.94780E-002,1.48327E+000,-4.80990E-001,2.32624E-003,1.55931E+000,5.56851E-003,6.08926E-001,0,2.32683E+001,-7.75167E+000,9.99594E-001,-1.79394E+001,-4.83080E+001,9.99452E-001,7.20041E-002,-3.12905E-002,-7.13420E-004,7.20090E-002,-3.12955E-002,-3.95697E-001,7.22140E-002,1.07461E+000,1.05605E-002,0.00000E+000,-1.07430E-002,9.70626E-001,0.00000E+000,-2.82423E-003,-5.55315E-002,1.00000E+000,13
639,1317,-1.75824E+001,-1.15343E+000,1.82031E-001,1.45748E+000,-4.04626E-001,1.35892E-001,1.51870E+000,9.06144E-003,6.67005E-001,0,2.24965E+001,-6.81149E+000,9.99544E-001,-1.90968E+001,-4.65518E+001,9.98688E-001,7.87546E-002,-3.12852E-002,-1.57068E-004,7.87548E-002,-3.12854E-002,-8.17823E-002,7.93071E-002,1.08189E+000,1.06710E-002,0.00000E+000,-9.88034E-003,9.70639E-001,0.00000E+000,5.75663E-004,-5.54798E-002,1.00000E+000,13
639,1327,-1.75736E+001,-5.47036E-001,1.02221E-001,1.46408E+000,-4.26518E-001,1.03953E-001,1.52848E+000,6.57754E-003,6.12795E-001,0,2.26908E+001,-7.10518E+000,9.99712E-001,-1.90418E+001,-4.70922E+001,9.98965E-001,7.70877E-002,-3.12835E-002,-2.85183E-004,7.70885E-002,-3.12842E-002,-1.50775E-001,7.75429E-002,1.08008E+000,1.06645E-002,0.00000E+000,-1.00941E-002,9.70639E-001,0.00000E+000,-2.66645E-004,-5.54828E-002,1.00000E+000,13
639,1337,-1.75615E+001,7.10193E-002,4.14029E-002,1.46953E+000,-4.44245E-001,6.62020E-002,1.53663E+000,6.74170E-003,6.62610E-001,0,2.28808E+001,-7.31218E+000,9.99677E-001,-1.88806E+001,-4.74417E+001,9.99175E-001,7.54014E-002,-3.12835E-002,-4.20187E-004,7.54030E-002,-3.12852E-002,-2.25659E-001,7.57662E-002,1.07827E+000,1.06457E-002,0.00000E+000,-1.03098E-002,9.70636E-001,0.00000E+000,-1.11693E-003,-5.54916E-002,1.00000E+000,13
1219,1317,2.35946E+001,-5.23942E-001,-7.78048E-002,4.81930E+000,-8.57629E-002,-4.37278E-002,4.82026E+000,1.09902E-002,4.90612E-001,0,7.24488E+001,-1.89228E+000,9.99608E-001,3.64477E+001,-3.09278E+001,9.97924E-001,8.63988E-002,-3.50622E-002,-2.44656E-004,8.63993E-002,-3.50626E-002,-1.15409E-001,8.69087E-002,1.09019E+000,-1.20401E-002,0.00000E+000,1.04823E-002,9.67060E-001,0.00000E+000,-5.63958E-003,-5.70230E-002,1.00000E+000,13
1219,1327,2.36148E+001,1.08910E-001,-9.45633E-002,4.81672E+000,-1.04068E-001,-8.09924E-002,4.81852E+000,5.84045E-003,4.08450E-001,0,7.25514E+001,-2.11550E+000,9.99803E-001,3.67930E+001,-3.11062E+001,9.99050E-001,8.71695E-002,-3.50635E-002,-2.42172E-004,8.71700E-002,-3.50640E-002,-1.13516E-001,8.77235E-002,1.09103E+000,-1.20109E-002,0.00000E+000,1.04286E-002,9.67058E-001,0.00000E+000,-5.19532E-003,-5.70076E-002,1.00000E+000,13
1219,1337,2.36482E+001,7.49405E-001,-6.28303E-002,4.81391E+000,-1.26406E-001,-1.20738E-001,4.81708E+000,7.81743E-003,4.64248E-001,0,7.26536E+001,-2.40145E+000,9.99668E-001,3.74162E+001,-3.12058E+001,9.98666E-001,8.79504E-002,-3.50655E-002,-2.32039E-004,8.79509E-002,-3.50659E-002,-1.08074E-001,8.85505E-002,1.09188E+000,-1.19646E-002,0.00000E+000,1.03741E-002,9.67055E-001,0.00000E+000,-4.74461E-003,-5.69830E-002,1.00000E+000,13
1219,1297,2.35828E+001,-1.76777E+000,3.11734E-002,4.83490E+000,-3.08827E-002,3.61191E-002,4.83513E+000,9.03487E-003,4.04778E-001,0,7.23586E+001,-1.15912E+000,9.99536E-001,3.63183E+001,-3.05219E+001,9.97622E-001,8.48554E-002,-3.50602E-002,-2.39130E-004,8.48559E-002,-3.50607E-002,-1.14256E-001,8.52812E-002,1.08851E+000,-1.20753E-002,0.00000E+000,1.05896E-002,9.67063E-001,0.00000E+000,-6.52772E-003,-5.70417E-002,1.00000E+000,13
1219,1307,2.35873E+001,-1.14714E+000,-2.75417E-002,4.82765E+000,-5.83869E-002,-5.42496E-004,4.82800E+000,1.07506E-002,4.38839E-001,0,7.24001E+001,-1.53126E+000,9.99580E-001,3.63547E+001,-3.07399E+001,9.97487E-001,8.56265E-002,-3.50611E-002,-2.43012E-004,8.56269E-002,-3.50616E-002,-1.15368E-001,8.60935E-002,1.08935E+000,-1.20602E-002,0.00000E+000,1.05360E-002,9.67062E-001,0.00000E+000,-6.08426E-003,-5.70337E-002,1.00000E+000,13
629,1347,-1.82319E+001,6.87755E-001,9.78962E-003,1.42783E+000,-4.59598E-001,3.01248E-002,1.50028E+000,7.72123E-003,5.97199E-001,0,2.23420E+001,-7.45260E+000,9.99273E-001,-1.90513E+001,-4.80336E+001,9.98935E-001,7.29948E-002,-3.15537E-002,-5.75582E-004,7.29980E-002,-3.15569E-002,-3.15424E-001,7.32207E-002,1.07566E+000,1.24493E-002,0.00000E+000,-1.22155E-002,9.70314E-001,0.00000E+000,-1.86050E-003,-5.47898E-002,1.00000E+000,13
629,1357,-1.82052E+001,1.31454E+000,2.67157E-002,1.43629E+000,-4.77067E-001,2.16188E-003,1.51345E+000,6.55015E-003,5.90165E-001,0,2.25479E+001,-7.67288E+000,9.99348E-001,-1.84410E+001,-4.84502E+001,9.99163E-001,7.13742E-002,-3.15542E-002,-6.03756E-004,7.13777E-002,-3.15577E-002,-3.36070E-001,7.15369E-002,1.07392E+000,1.24007E-002,0.00000E+000,-1.22018E-002,9.70315E-001,0.00000E+000,-2.66437E-003,-5.48123E-002,1.00000E+000,13
629,1327,-1.82641E+001,-5.45212E-001,9.78100E-002,1.41376E+000,-4.18919E-001,1.01854E-001,1.47803E+000,6.66753E-003,5.95122E-001,0,2.19244E+001,-6.96793E+000,9.99505E-001,-1.95943E+001,-4.71613E+001,9.98895E-001,7.62059E-002,-3.15536E-002,-5.41886E-004,7.62086E-002,-3.15563E-002,-2.88111E-001,7.65828E-002,1.07911E+000,1.24980E-002,0.00000E+000,-1.22426E-002,9.70314E-001,0.00000E+000,-2.62702E-004,-5.47673E-002,1.00000E+000,13
629,1337,-1.82489E+001,6.94452E-002,4.02683E-002,1.42232E+000,-4.39742E-001,6.69147E-002,1.49025E+000,7.04202E-003,6.39760E-001,0,2.21554E+001,-7.22976E+000,9.99375E-001,-1.93769E+001,-4.75741E+001,9.99209E-001,7.46031E-002,-3.15535E-002,-5.55686E-004,7.46060E-002,-3.15564E-002,-2.99909E-001,7.49005E-002,1.07739E+000,1.24802E-002,0.00000E+000,-1.22291E-002,9.70314E-001,0.00000E+000,-1.06110E-003,-5.47755E-002,1.00000E+000,13
1229,1317,2.43258E+001,-5.06370E-001,-7.56252E-002,4.88394E+000,-7.45724E-002,-4.44413E-002,4.88472E+000,9.99475E-003,4.74989E-001,0,7.33589E+001,-1.72413E+000,9.99591E-001,3.78651E+001,-3.05770E+001,9.98947E-001,8.62737E-002,-3.49318E-002,1.37371E-004,8.62739E-002,-3.49319E-002,6.49375E-002,8.67925E-002,1.09006E+000,-1.10370E-002,0.00000E+000,1.03083E-002,9.67154E-001,0.00000E+000,-5.16071E-003,-5.64068E-002,1.00000E+000,13
1229,1327,2.43426E+001,1.22095E-001,-9.47843E-002,4.87738E+000,-1.00552E-001,-8.54263E-002,4.87917E+000,7.37768E-003,4.99405E-001,0,7.34208E+001,-2.06563E+000,9.99690E-001,3.81516E+001,-3.07639E+001,9.98626E-001,8.70091E-002,-3.49317E-002,1.55471E-004,8.70093E-002,-3.49319E-002,7.30502E-002,8.75706E-002,1.09086E+000,-1.10085E-002,0.00000E+000,1.02784E-002,9.67153E-001,0.00000E+000,-4.56302E-003,-5.63856E-002,1.00000E+000,13
1229,1337,2.43749E+001,7.62155E-001,-7.41347E-002,4.87627E+000,-1.18315E-001,-1.25118E-001,4.87931E+000,7.92694E-003,4.37010E-001,0,7.35488E+001,-2.27942E+000,9.99525E-001,3.87397E+001,-3.09032E+001,9.98325E-001,8.77454E-002,-3.49315E-002,1.79127E-004,8.77456E-002,-3.49318E-002,8.36603E-002,8.83509E-002,1.09166E+000,-1.09679E-002,0.00000E+000,1.02485E-002,9.67152E-001,0.00000E+000,-3.96383E-003,-5.63552E-002,1.00000E+000,13
629,1317,-1.82757E+001,-1.15134E+000,1.81892E-001,1.40421E+000,-3.96577E-001,1.36958E-001,1.46555E+000,7.63784E-003,6.62655E-001,0,2.16758E+001,-6.68953E+000,9.99599E-001,-1.96786E+001,-4.66179E+001,9.98777E-001,7.77922E-002,-3.15538E-002,-5.33773E-004,7.77948E-002,-3.15565E-002,-2.79680E-001,7.82552E-002,1.08083E+000,1.25036E-002,0.00000E+000,-1.22561E-002,9.70314E-001,0.00000E+000,5.29070E-004,-5.47647E-002,1.00000E+000,13
1229,1297,2.43110E+001,-1.75330E+000,2.87943E-002,4.89615E+000,-2.38024E-002,2.87382E-002,4.89630E+000,9.18493E-003,4.53785E-001,0,7.32446E+001,-1.05218E+000,9.99388E-001,3.76824E+001,-3.01804E+001,9.97175E-001,8.48088E-002,-3.49319E-002,1.12105E-004,8.48089E-002,-3.49320E-002,5.36421E-002,8.52467E-002,1.08847E+000,-1.10699E-002,0.00000E+000,1.03677E-002,9.67155E-001,0.00000E+000,-6.34895E-003,-5.64315E-002,1.00000E+000,13
1229,1307,2.43202E+001,-1.12907E+000,-2.58456E-002,4.89492E+000,-4.66329E-002,1.45017E-003,4.89515E+000,1.25429E-002,4.60199E-001,0,7.33380E+001,-1.36877E+000,9.99363E-001,3.77982E+001,-3.03629E+001,9.97799E-001,8.55403E-002,-3.49319E-002,1.23021E-004,8.55404E-002,-3.49320E-002,5.85080E-002,8.60179E-002,1.08926E+000,-1.10572E-002,0.00000E+000,1.03381E-002,9.67155E-001,0.00000E+000,-5.75598E-003,-5.64219E-002,1.00000E+000,13
619,1327,-1.89552E+001,-5.44977E-001,9.44026E-002,1.36229E+000,-4.13151E-001,9.94375E-002,1.42703E+000,5.34974E-003,5.84087E-001,0,2.11402E+001,-6.86127E+000,9.99494E-001,-2.01479E+001,-4.72539E+001,9.99240E-001,7.55383E-002,-3.13247E-002,-7.15612E-004,7.55431E-002,-3.13295E-002,-3.83660E-001,7.59084E-002,1.07837E+000,1.43905E-002,0.00000E+000,-1.42893E-002,9.70476E-001,0.00000E+000,-2.54557E-004,-5.41543E-002,1.00000E+000,13
619,1337,-1.89382E+001,7.09167E-002,4.27628E-002,1.37197E+000,-4.33130E-001,6.57941E-002,1.44022E+000,6.13679E-003,6.37495E-001,0,2.13840E+001,-7.11817E+000,9.99069E-001,-1.98851E+001,-4.76576E+001,9.99059E-001,7.39087E-002,-3.13249E-002,-6.71519E-004,7.39130E-002,-3.13292E-002,-3.65597E-001,7.41980E-002,1.07661E+000,1.43706E-002,0.00000E+000,-1.41648E-002,9.70477E-001,0.00000E+000,-1.05459E-003,-5.41633E-002,1.00000E+000,13
619,1347,-1.89194E+001,6.90507E-001,1.11399E-002,1.38062E+000,-4.50508E-001,3.50762E-002,1.45269E+000,7.10792E-003,6.20265E-001,0,2.16024E+001,-7.32809E+000,9.99112E-001,-1.95346E+001,-4.80841E+001,9.99058E-001,7.22759E-002,-3.13248E-002,-6.30995E-004,7.22797E-002,-3.13286E-002,-3.48951E-001,7.24929E-002,1.07486E+000,1.43430E-002,0.00000E+000,-1.40404E-002,9.70479E-001,0.00000E+000,-1.85452E-003,-5.41759E-002,1.00000E+000,13
619,1357,-1.88930E+001,1.31613E+000,1.87622E-002,1.39001E+000,-4.67983E-001,3.51497E-003,1.46667E+000,6.26549E-003,5.98234E-001,0,2.18323E+001,-7.53416E+000,9.99497E-001,-1.89532E+001,-4.85073E+001,9.99399E-001,7.06308E-002,-3.13238E-002,-5.98740E-004,7.06343E-002,-3.13273E-002,-3.36461E-001,7.07844E-002,1.07310E+000,1.42970E-002,0.00000E+000,-1.39153E-002,9.70482E-001,0.00000E+000,-2.65871E-003,-5.41969E-002,1.00000E+000,13
619,1317,-1.89645E+001,-1.14787E+000,1.83316E-001,1.35512E+000,-3.86129E-001,1.39878E-001,1.41598E+000,9.03987E-003,6.23967E-001,0,2.09139E+001,-6.53243E+000,9.99407E-001,-2.01817E+001,-4.66827E+001,9.98793E-001,7.71545E-002,-3.13238E-002,-7.65842E-004,7.71600E-002,-3.13292E-002,-4.04473E-001,7.76129E-002,1.08011E+000,1.43963E-002,0.00000E+000,-1.44130E-002,9.70475E-001,0.00000E+000,5.40605E-004,-5.41516E-002,1.00000E+000,13
1239,1307,2.50417E+001,-1.11937E+000,-3.99452E-002,4.95112E+000,-4.16530E-002,-9.41445E-003,4.95130E+000,1.25380E-002,4.56895E-001,0,7.41642E+001,-1.28750E+000,9.99319E-001,3.90440E+001,-3.00958E+001,9.98235E-001,8.52980E-002,-3.46711E-002,3.03581E-004,8.52988E-002,-3.46719E-002,1.44985E-001,8.57947E-002,1.08901E+000,-1.02443E-002,0.00000E+000,9.96116E-003,9.67377E-001,0.00000E+000,-5.59725E-003,-5.57840E-002,1.00000E+000,13
1239,1317,2.50539E+001,-4.89677E-001,-8.13680E-002,4.94706E+000,-6.17788E-002,-4.56475E-002,4.94766E+000,1.12060E-002,4.39163E-001,0,7.42472E+001,-1.54234E+000,9.99409E-001,3.92273E+001,-3.02331E+001,9.98805E-001,8.60622E-002,-3.46673E-002,3.71202E-004,8.60634E-002,-3.46685E-002,1.76163E-001,8.66035E-002,1.08984E+000,-1.02235E-002,0.00000E+000,1.00147E-002,9.67378E-001,0.00000E+000,-4.63031E-003,-5.57598E-002,1.00000E+000,13
1239,1327,2.50755E+001,1.40971E-001,-8.15643E-002,4.94054E+000,-9.05115E-002,-8.49961E-002,4.94210E+000,9.36236E-003,5.29904E-001,0,7.43019E+001,-1.92911E+000,9.99486E-001,3.96151E+001,-3.03926E+001,9.98653E-001,8.68335E-002,-3.46616E-002,4.46294E-004,8.68352E-002,-3.46632E-002,2.10464E-001,8.74216E-002,1.09067E+000,-1.01878E-002,0.00000E+000,1.00689E-002,9.67380E-001,0.00000E+000,-3.65228E-003,-5.57180E-002,1.00000E+000,13
1239,1337,2.51004E+001,7.78622E-001,-6.99270E-002,4.93542E+000,-1.07942E-001,-1.19806E-001,4.93805E+000,8.20999E-003,4.25047E-001,0,7.43532E+001,-2.14230E+000,9.99316E-001,4.00711E+001,-3.05703E+001,9.97777E-001,8.75978E-002,-3.46555E-002,5.21905E-004,8.76001E-002,-3.46577E-002,2.44592E-001,8.82339E-002,1.09150E+000,-1.01498E-002,0.00000E+000,1.01226E-002,9.67383E-001,0.00000E+000,-2.68117E-003,-5.56737E-002,1.00000E+000,13
1239,1297,2.50366E+001,-1.74133E+000,2.38556E-002,4.95545E+000,-1.69129E-002,2.30051E-002,4.95553E+000,8.18444E-003,4.57655E-001,0,7.40942E+001,-9.55857E-001,9.99437E-001,3.90056E+001,-2.98953E+001,9.98021E-001,8.45344E-002,-3.46737E-002,2.40103E-004,8.45349E-002,-3.46742E-002,1.15401E-001,8.49884E-002,1.08818E+000,-1.02563E-002,0.00000E+000,9.90777E-003,9.67376E-001,0.00000E+000,-6.56140E-003,-5.57980E-002,1.00000E+000,13
609,1347,-1.96055E+001,6.91876E-001,1.17647E-002,1.33347E+000,-4.44034E-001,3.38890E-002,1.40586E+000,8.99564E-003,6.39894E-001,0,2.08796E+001,-7.22214E+000,9.99140E-001,-1.99948E+001,-4.81558E+001,9.98828E-001,7.15984E-002,-3.07187E-002,-8.14737E-004,7.16049E-002,-3.07252E-002,-4.56200E-001,7.18445E-002,1.07411E+000,1.60682E-002,0.00000E+000,-1.59874E-002,9.70987E-001,0.00000E+000,-1.56099E-003,-5.31897E-002,1.00000E+000,13
609,1357,-1.95806E+001,1.32036E+000,1.55953E-002,1.34241E+000,-4.57545E-001,3.89036E-003,1.41824E+000,6.97833E-003,6.11329E-001,0,2.10973E+001,-7.36781E+000,9.99474E-001,-1.94453E+001,-4.85323E+001,9.99249E-001,6.99540E-002,-3.07176E-002,-7.58764E-004,6.99597E-002,-3.07233E-002,-4.31807E-001,7.01321E-002,1.07235E+000,1.60252E-002,0.00000E+000,-1.58182E-002,9.70991E-001,0.00000E+000,-2.44090E-003,-5.32112E-002,1.00000E+000,13
609,1317,-1.96559E+001,-1.14737E+000,1.81906E-001,1.30247E+000,-3.80071E-001,1.36660E-001,1.36365E+000,1.08490E-002,6.37129E-001,0,2.01127E+001,-6.44198E+000,9.99394E-001,-2.07291E+001,-4.67620E+001,9.98138E-001,7.64823E-002,-3.07165E-002,-1.01674E-003,7.64920E-002,-3.07262E-002,-5.43363E-001,7.69832E-002,1.07936E+000,1.61209E-002,0.00000E+000,-1.64920E-002,9.70981E-001,0.00000E+000,1.06395E-003,-5.31634E-002,1.00000E+000,13
609,1327,-1.96441E+001,-5.44455E-001,9.40740E-002,1.31261E+000,-4.08113E-001,1.00197E-001,1.37824E+000,7.11309E-003,6.44552E-001,0,2.03744E+001,-6.79378E+000,9.99434E-001,-2.06552E+001,-4.73129E+001,9.98732E-001,7.48615E-002,-3.07182E-002,-9.43564E-004,7.48699E-002,-3.07266E-002,-5.11997E-001,7.52696E-002,1.07762E+000,1.61164E-002,0.00000E+000,-1.63242E-002,9.70982E-001,0.00000E+000,1.90881E-004,-5.31656E-002,1.00000E+000,13
609,1337,-1.96259E+001,7.26182E-002,4.20779E-002,1.32359E+000,-4.25215E-001,6.57246E-002,1.39176E+000,7.83004E-003,6.28590E-001,0,2.06394E+001,-6.99276E+000,9.99154E-001,-2.03732E+001,-4.77340E+001,9.98698E-001,7.32350E-002,-3.07187E-002,-8.77301E-004,7.32424E-002,-3.07261E-002,-4.83493E-001,7.35580E-002,1.07586E+000,1.60967E-002,0.00000E+000,-1.61561E-002,9.70984E-001,0.00000E+000,-6.83300E-004,-5.31755E-002,1.00000E+000,13
1249,1297,2.57656E+001,-1.72475E+000,3.08886E-002,5.01618E+000,-7.40719E-003,2.35698E-002,5.01624E+000,1.02145E-002,4.96311E-001,0,7.49360E+001,-8.32173E-001,9.99452E-001,4.04038E+001,-2.95465E+001,9.98016E-001,8.39840E-002,-3.42076E-002,3.96255E-004,8.39853E-002,-3.42089E-002,1.92090E-001,8.44649E-002,1.08760E+000,-9.14202E-003,0.00000E+000,9.25342E-003,9.67812E-001,0.00000E+000,-7.01690E-003,-5.54053E-002,1.00000E+000,13
1249,1307,2.57650E+001,-1.10743E+000,-4.90537E-002,5.00862E+000,-3.51266E-002,-1.55462E-002,5.00877E+000,1.26792E-002,4.64278E-001,0,7.49887E+001,-1.18842E+000,9.99446E-001,4.03303E+001,-2.97992E+001,9.97844E-001,8.48599E-002,-3.42008E-002,5.78597E-004,8.48627E-002,-3.42036E-002,2.78431E-001,8.53928E-002,1.08854E+000,-9.13184E-003,0.00000E+000,9.51762E-003,9.67815E-001,0.00000E+000,-5.65390E-003,-5.53906E-002,1.00000E+000,13
1249,1317,2.57743E+001,-4.82754E-001,-9.79128E-002,5.00252E+000,-5.95862E-002,-5.53793E-002,5.00318E+000,1.07080E-002,4.26096E-001,0,7.50592E+001,-1.49733E+000,9.99139E-001,4.04559E+001,-3.00071E+001,9.97971E-001,8.57364E-002,-3.41894E-002,7.67196E-004,8.57413E-002,-3.41943E-002,3.66516E-001,8.63246E-002,1.08949E+000,-9.10937E-003,0.00000E+000,9.78284E-003,9.67821E-001,0.00000E+000,-4.28562E-003,-5.53582E-002,1.00000E+000,13
1249,1327,2.57954E+001,1.54939E-001,-1.03031E-001,4.99809E+000,-7.81415E-002,-8.94313E-002,4.99950E+000,9.54791E-003,4.66734E-001,0,7.51218E+001,-1.74439E+000,9.99272E-001,4.08283E+001,-3.00696E+001,9.98425E-001,8.66171E-002,-3.41725E-002,9.63871E-004,8.66247E-002,-3.41802E-002,4.57167E-001,8.72642E-002,1.09045E+000,-9.07211E-003,0.00000E+000,1.00502E-002,9.67832E-001,0.00000E+000,-2.90637E-003,-5.53044E-002,1.00000E+000,13
1249,1337,2.58228E+001,7.95056E-001,-8.01837E-002,4.99259E+000,-9.70871E-002,-1.23203E-001,4.99506E+000,7.20355E-003,4.38992E-001,0,7.51627E+001,-1.98652E+000,9.99628E-001,4.13384E+001,-3.01932E+001,9.99103E-001,8.74968E-002,-3.41516E-002,1.16565E-003,8.75080E-002,-3.41628E-002,5.48946E-001,8.82060E-002,1.09140E+000,-9.02419E-003,0.00000E+000,1.03181E-002,9.67845E-001,0.00000E+000,-1.52413E-003,-5.52353E-002,1.00000E+000,13
1259,1327,2.65194E+001,1.66203E-001,-1.11081E-001,5.05561E+000,-7.15038E-002,-9.40051E-002,5.05698E+000,8.08267E-003,4.13545E-001,0,7.59406E+001,-1.63619E+000,9.99666E-001,4.21279E+001,-2.98128E+001,9.98934E-001,8.64992E-002,-3.39535E-002,1.47755E-003,8.65173E-002,-3.39716E-002,7.02688E-001,8.71794E-002,1.09032E+000,-8.20063E-003,0.00000E+000,1.02088E-002,9.68004E-001,0.00000E+000,-1.63887E-003,-5.45688E-002,1.00000E+000,13
1259,1337,2.65484E+001,8.04876E-001,-8.61206E-002,5.05101E+000,-9.26753E-002,-1.27302E-001,5.05346E+000,7.09239E-003,4.06866E-001,0,7.59941E+001,-1.91964E+000,9.99796E-001,4.26626E+001,-2.99513E+001,9.99429E-001,8.73931E-002,-3.39234E-002,1.75483E-003,8.74185E-002,-3.39488E-002,8.28545E-001,8.81420E-002,1.09130E+000,-8.15082E-003,0.00000E+000,1.06013E-002,9.68024E-001,0.00000E+000,1.59991E-004,-5.44770E-002,1.00000E+000,13
599,1347,-2.02875E+001,6.99903E-001,1.85833E-002,1.28950E+000,-4.30878E-001,3.59119E-002,1.36006E+000,8.37437E-003,6.34502E-001,0,2.01955E+001,-7.01374E+000,9.99508E-001,-2.03683E+001,-4.81510E+001,9.99369E-001,7.12739E-002,-3.08794E-002,-6.05653E-004,7.12775E-002,-3.08830E-002,-3.39683E-001,7.14887E-002,1.07373E+000,1.75561E-002,0.00000E+000,-1.69466E-002,9.70756E-001,0.00000E+000,-1.18131E-003,-5.20401E-002,1.00000E+000,13
599,1357,-2.02609E+001,1.32312E+000,2.22397E-002,1.30072E+000,-4.49328E-001,8.53409E-003,1.37617E+000,5.83465E-003,6.33736E-001,0,2.04428E+001,-7.25275E+000,9.99567E-001,-1.97941E+001,-4.85957E+001,9.99436E-001,6.97298E-002,-3.08764E-002,-3.81052E-004,6.97312E-002,-3.08778E-002,-2.17007E-001,6.98831E-002,1.07208E+000,1.75173E-002,0.00000E+000,-1.64531E-002,9.70767E-001,0.00000E+000,-2.10873E-003,-5.20618E-002,1.00000E+000,13
1259,1287,2.64904E+001,-2.33301E+000,1.10494E-001,5.07779E+000,2.45123E-002,5.03343E-002,5.07810E+000,1.16201E-002,4.30874E-001,0,7.56772E+001,-3.80589E-001,9.99207E-001,4.17932E+001,-2.91164E+001,9.95158E-001,8.29195E-002,-3.40095E-002,4.33659E-004,8.29212E-002,-3.40111E-002,2.12491E-001,8.33661E-002,1.08646E+000,-8.27666E-003,0.00000E+000,8.65528E-003,9.67973E-001,0.00000E+000,-8.75865E-003,-5.47090E-002,1.00000E+000,13
1259,1297,2.64864E+001,-1.71636E+000,9.86343E-003,5.07240E+000,-2.71086E-003,1.17142E-002,5.07241E+000,9.59263E-003,4.53427E-001,0,7.57646E+001,-7.33629E-001,9.99240E-001,4.16378E+001,-2.93069E+001,9.96801E-001,8.38170E-002,-3.40044E-002,6.85991E-004,8.38210E-002,-3.40083E-002,3.33578E-001,8.43162E-002,1.08742E+000,-8.27455E-003,0.00000E+000,9.04207E-003,9.67974E-001,0.00000E+000,-6.98599E-003,-5.47051E-002,1.00000E+000,13
1259,1307,2.64897E+001,-1.09400E+000,-6.14212E-002,5.06742E+000,-2.70623E-002,-2.33537E-002,5.06755E+000,9.29203E-003,4.49121E-001,0,7.58380E+001,-1.04886E+000,9.99415E-001,4.16377E+001,-2.94836E+001,9.97797E-001,8.47124E-002,-3.39939E-002,9.43527E-004,8.47199E-002,-3.40014E-002,4.55372E-001,8.52679E-002,1.08839E+000,-8.26224E-003,0.00000E+000,9.42974E-003,9.67979E-001,0.00000E+000,-5.20931E-003,-5.46824E-002,1.00000E+000,13
599,1327,-2.03307E+001,-5.33069E-001,1.03638E-001,1.26347E+000,-3.92648E-001,1.02590E-001,1.32704E+000,7.27855E-003,6.57279E-001,0,1.96088E+001,-6.55389E+000,9.99477E-001,-2.10906E+001,-4.72500E+001,9.98940E-001,7.43366E-002,-3.08759E-002,-1.06808E-003,7.43474E-002,-3.08868E-002,-5.81566E-001,7.47010E-002,1.07703E+000,1.75997E-002,0.00000E+000,-1.79289E-002,9.70742E-001,0.00000E+000,6.64472E-004,-5.20156E-002,1.00000E+000,13
599,1337,-2.03124E+001,7.93594E-002,4.32234E-002,1.27599E+000,-4.12850E-001,6.83287E-002,1.34286E+000,6.51678E-003,6.28223E-001,0,1.98980E+001,-6.79692E+000,9.99452E-001,-2.08341E+001,-4.77328E+001,9.99200E-001,7.28111E-002,-3.08797E-002,-8.34228E-004,7.28178E-002,-3.08864E-002,-4.60924E-001,7.30965E-002,1.07538E+000,1.75851E-002,0.00000E+000,-1.74391E-002,9.70747E-001,0.00000E+000,-2.55910E-004,-5.20238E-002,1.00000E+000,13
1259,1317,2.65005E+001,-4.66920E-001,-9.90837E-002,5.06234E+000,-5.01060E-002,-5.31310E-002,5.06286E+000,8.87834E-003,4.49057E-001,0,7.58824E+001,-1.36799E+000,9.99609E-001,4.18009E+001,-2.96577E+001,9.98441E-001,8.56062E-002,-3.39775E-002,1.20683E-003,8.56184E-002,-3.39897E-002,5.78146E-001,8.62219E-002,1.08935E+000,-8.23871E-003,0.00000E+000,9.81854E-003,9.67988E-001,0.00000E+000,-3.42744E-003,-5.46390E-002,1.00000E+000,13
599,1317,-2.03474E+001,-1.14166E+000,1.89450E-001,1.24819E+000,-3.71251E-001,1.36005E-001,1.30932E+000,9.35771E-003,6.44317E-001,0,1.92773E+001,-6.28642E+000,9.99455E-001,-2.12462E+001,-4.67832E+001,9.99001E-001,7.58568E-002,-3.08690E-002,-1.30665E-003,7.58728E-002,-3.08850E-002,-7.01333E-001,7.63084E-002,1.07867E+000,1.76034E-002,0.00000E+000,-1.84181E-002,9.70741E-001,0.00000E+000,1.58381E-003,-5.20136E-002,1.00000E+000,13
589,1347,-2.09748E+001,7.07668E-001,2.20190E-002,1.24058E+000,-4.17493E-001,3.90761E-002,1.30953E+000,6.14319E-003,6.42220E-001,0,1.94304E+001,-6.80779E+000,9.99561E-001,-2.08283E+001,-4.81372E+001,9.99428E-001,7.09829E-002,-3.07939E-002,-1.95396E-004,7.09833E-002,-3.07943E-002,-1.09999E-001,7.11902E-002,1.07339E+000,1.94293E-002,0.00000E+000,-1.78526E-002,9.70771E-001,0.00000E+000,-1.07830E-003,-5.10072E-002,1.00000E+000,13
589,1357,-2.09457E+001,1.33109E+000,2.71449E-002,1.25399E+000,-4.36745E-001,9.84911E-003,1.32791E+000,5.02129E-003,6.42586E-001,0,1.97164E+001,-7.04462E+000,9.99537E-001,-2.02087E+001,-4.85830E+001,9.99608E-001,6.94452E-002,-3.07911E-002,3.58497E-005,6.94452E-002,-3.07911E-002,2.04919E-002,6.95934E-002,1.07174E+000,1.93897E-002,0.00000E+000,-1.73519E-002,9.70783E-001,0.00000E+000,-1.94488E-003,-5.10280E-002,1.00000E+000,13
589,1337,-2.09977E+001,8.59864E-002,4.95573E-002,1.22805E+000,-4.01316E-001,6.86593E-002,1.29378E+000,5.57739E-003,6.22967E-001,0,1.91562E+001,-6.61230E+000,9.99600E-001,-2.12554E+001,-4.77470E+001,9.99504E-001,7.25113E-002,-3.07927E-002,-4.31874E-004,7.25131E-002,-3.07945E-002,-2.39525E-001,7.27869E-002,1.07503E+000,1.94554E-002,0.00000E+000,-1.83514E-002,9.70763E-001,0.00000E+000,-2.15011E-004,-5.09934E-002,1.00000E+000,13
589,1327,-2.10122E+001,-5.18362E-001,1.11270E-001,1.21949E+000,-3.73843E-001,1.05557E-001,1.27986E+000,9.97826E-003,6.89638E-001,0,1.89210E+001,-6.26827E+000,9.99664E-001,-2.14480E+001,-4.71217E+001,9.98991E-001,7.40267E-002,-3.07883E-002,-6.71914E-004,7.40311E-002,-3.07926E-002,-3.67273E-001,7.43790E-002,1.07666E+000,1.94703E-002,0.00000E+000,-1.88471E-002,9.70758E-001,0.00000E+000,6.42790E-004,-5.09856E-002,1.00000E+000,13
1269,1327,2.72483E+001,1.79508E-001,-1.08400E-001,5.11709E+000,-6.49317E-002,-8.93879E-002,5.11829E+000,7.31807E-003,4.36028E-001,0,7.67788E+001,-1.55850E+000,9.99698E-001,4.35225E+001,-2.95098E+001,9.98948E-001,8.63518E-002,-3.35883E-002,1.91443E-003,8.63824E-002,-3.36189E-002,9.14218E-001,8.70867E-002,1.09017E+000,-7.28962E-003,0.00000E+000,1.02175E-002,9.68257E-001,0.00000E+000,-9.75433E-004,-5.26042E-002,1.00000E+000,13
1269,1337,2.72812E+001,8.15048E-001,-8.12700E-002,5.11536E+000,-8.92912E-002,-1.23828E-001,5.11764E+000,7.69166E-003,4.07435E-001,0,7.68810E+001,-1.88861E+000,9.99598E-001,4.41195E+001,-2.97108E+001,9.98499E-001,8.72625E-002,-3.35516E-002,2.24188E-003,8.73040E-002,-3.35931E-002,1.06272E+000,8.80733E-002,1.09116E+000,-7.23715E-003,0.00000E+000,1.07073E-002,9.68283E-001,0.00000E+000,8.61090E-004,-5.25074E-002,1.00000E+000,13
589,1317,-2.10311E+001,-1.13036E+000,1.97200E-001,1.20159E+000,-3.55851E-001,1.37360E-001,1.26068E+000,8.00860E-003,6.20336E-001,0,1.85542E+001,-6.02875E+000,9.99211E-001,-2.16385E+001,-4.67339E+001,9.98228E-001,7.55396E-002,-3.07804E-002,-9.17551E-004,7.55475E-002,-3.07883E-002,-4.94419E-001,7.59769E-002,1.07829E+000,1.94732E-002,0.00000E+000,-1.93430E-002,9.70757E-001,0.00000E+000,1.50104E-003,-5.09841E-002,1.00000E+000,13
1269,1317,2.72314E+001,-4.53255E-001,-9.77878E-002,5.12380E+000,-4.30807E-002,-5.81879E-002,5.12431E+000,7.70732E-003,4.21365E-001,0,7.67577E+001,-1.25323E+000,9.99660E-001,4.32268E+001,-2.93723E+001,9.98687E-001,8.54410E-002,-3.36149E-002,1.59573E-003,8.54624E-002,-3.36363E-002,7.67764E-001,8.61053E-002,1.08918E+000,-7.32541E-003,0.00000E+000,9.72996E-003,9.68239E-001,0.00000E+000,-2.80329E-003,-5.26702E-002,1.00000E+000,13
1269,1307,2.72194E+001,-1.08072E+000,-5.68134E-002,5.12777E+000,-2.06441E-002,-2.50756E-002,5.12787E+000,8.16124E-003,4.42248E-001,0,7.66826E+001,-9.53063E-001,9.99446E-001,4.30497E+001,-2.92025E+001,9.98264E-001,8.45303E-002,-3.36343E-002,1.28363E-003,8.45443E-002,-3.36482E-002,6.22312E-001,8.51287E-002,1.08819E+000,-7.34958E-003,0.00000E+000,9.24483E-003,9.68227E-001,0.00000E+000,-4.62220E-003,-5.27148E-002,1.00000E+000,13
1269,1297,2.72118E+001,-1.70641E+000,3.26983E-003,5.13103E+000,1.63285E-003,8.09978E-003,5.13104E+000,9.40736E-003,4.42813E-001,0,7.65933E+001,-6.58523E-001,9.99337E-001,4.29675E+001,-2.90574E+001,9.97773E-001,8.36165E-002,-3.36489E-002,9.75361E-004,8.36246E-002,-3.36570E-002,4.76517E-001,8.41532E-002,1.08721E+000,-7.36603E-003,0.00000E+000,8.76039E-003,9.68219E-001,0.00000E+000,-6.43856E-003,-5.27451E-002,1.00000E+000,13
1269,1287,2.72184E+001,-2.32351E+000,1.10664E-001,5.13681E+000,2.71674E-002,4.51644E-002,5.13708E+000,1.42895E-002,4.31089E-001,0,7.65163E+001,-3.28156E-001,9.99471E-001,4.31718E+001,-2.88841E+001,9.96077E-001,8.27026E-002,-3.36526E-002,6.76548E-004,8.27065E-002,-3.36565E-002,3.33131E-001,8.31827E-002,1.08623E+000,-7.36481E-003,0.00000E+000,8.27821E-003,9.68220E-001,0.00000E+000,-8.24646E-003,-5.27429E-002,1.00000E+000,13
579,1347,-2.16582E+001,7.14647E-001,2.61921E-002,1.19450E+000,-4.05762E-001,3.87440E-002,1.26213E+000,5.31146E-003,6.50369E-001,0,1.87181E+001,-6.61661E+000,9.99530E-001,-2.12218E+001,-4.81366E+001,9.99563E-001,7.03186E-002,-3.06858E-002,2.12552E-004,7.03190E-002,-3.06862E-002,1.20572E-001,7.05085E-002,1.07264E+000,2.12750E-002,0.00000E+000,-1.87227E-002,9.70819E-001,0.00000E+000,-1.46686E-003,-5.01923E-002,1.00000E+000,13
579,1357,-2.16251E+001,1.34186E+000,3.66387E-002,1.21170E+000,-4.21550E-001,1.29706E-002,1.28300E+000,5.30390E-003,6.61900E-001,0,1.90533E+001,-6.80910E+000,9.99709E-001,-2.05238E+001,-4.85318E+001,9.99750E-001,6.86913E-002,-3.06834E-002,4.59829E-004,6.86935E-002,-3.06856E-002,2.65113E-001,6.88234E-002,1.07090E+000,2.12329E-002,0.00000E+000,-1.81884E-002,9.70832E-001,0.00000E+000,-2.43878E-003,-5.02158E-002,1.00000E+000,13
579,1337,-2.16840E+001,9.47823E-002,5.70147E-002,1.17896E+000,-3.88006E-001,7.15808E-002,1.24323E+000,5.35317E-003,6.26846E-001,0,1.83886E+001,-6.40074E+000,9.99391E-001,-2.16833E+001,-4.77261E+001,9.99537E-001,7.19347E-002,-3.06837E-002,-4.03946E-005,7.19347E-002,-3.06838E-002,-2.25538E-002,7.21930E-002,1.07438E+000,2.13022E-002,0.00000E+000,-1.92547E-002,9.70810E-001,0.00000E+000,-4.99207E-004,-5.01771E-002,1.00000E+000,13
579,1327,-2.17039E+001,-5.11222E-001,1.09229E-001,1.16545E+000,-3.62399E-001,1.02689E-001,1.22481E+000,7.26250E-003,6.99845E-001,0,1.80922E+001,-6.06727E+000,9.99646E-001,-2.19882E+001,-4.71015E+001,9.98823E-001,7.35362E-002,-3.06788E-002,-2.96189E-004,7.35371E-002,-3.06796E-002,-1.62838E-001,7.38724E-002,1.07610E+000,2.13193E-002,0.00000E+000,-1.97831E-002,9.70805E-001,0.00000E+000,4.61955E-004,-5.01676E-002,1.00000E+000,13
579,1317,-2.17186E+001,-1.11762E+000,1.95849E-001,1.15203E+000,-3.40331E-001,1.36800E-001,1.20901E+000,1.00098E-002,6.98277E-001,0,1.77890E+001,-5.77976E+000,9.99274E-001,-2.21101E+001,-4.65930E+001,9.97950E-001,7.51319E-002,-3.06698E-002,-5.57800E-004,7.51348E-002,-3.06727E-002,-3.02059E-001,7.55554E-002,1.07782E+000,2.13228E-002,0.00000E+000,-2.03108E-002,9.70804E-001,0.00000E+000,1.42192E-003,-5.01656E-002,1.00000E+000,13
1279,1317,2.79556E+001,-4.44846E-001,-1.01594E-001,5.18147E+000,-3.89510E-002,-5.58645E-002,5.18192E+000,6.92114E-003,3.92303E-001,0,7.75481E+001,-1.20658E+000,9.99558E-001,4.45446E+001,-2.91591E+001,9.98174E-001,8.51285E-002,-3.31053E-002,1.90709E-003,8.51593E-002,-3.31361E-002,9.23849E-001,8.58546E-002,1.08884E+000,-6.42928E-003,0.00000E+000,9.51512E-003,9.68641E-001,0.00000E+000,-2.27530E-003,-5.07802E-002,1.00000E+000,13
1279,1327,2.79810E+001,1.92832E-001,-1.03310E-001,5.18152E+000,-5.83708E-002,-8.36057E-002,5.18253E+000,1.04759E-002,4.49179E-001,0,7.76540E+001,-1.48201E+000,9.99458E-001,4.49826E+001,-2.92163E+001,9.98677E-001,8.61078E-002,-3.30725E-002,2.28300E-003,8.61515E-002,-3.31162E-002,1.09701E+000,8.69157E-002,1.08991E+000,-6.38819E-003,0.00000E+000,1.01039E-002,9.68664E-001,0.00000E+000,-2.63017E-004,-5.07027E-002,1.00000E+000,13
1279,1337,2.80136E+001,8.29397E-001,-7.78038E-002,5.17938E+000,-8.32596E-002,-1.19182E-001,5.18142E+000,8.03831E-003,4.49688E-001,0,7.77557E+001,-1.81136E+000,9.99572E-001,4.55706E+001,-2.93819E+001,9.98991E-001,8.70854E-002,-3.30293E-002,2.66691E-003,8.71446E-002,-3.30885E-002,1.27130E+000,8.79814E-002,1.09098E+000,-6.33174E-003,0.00000E+000,1.06948E-002,9.68695E-001,0.00000E+000,1.75685E-003,-5.05962E-002,1.00000E+000,13
1279,1307,2.79395E+001,-1.07145E+000,-6.78063E-002,5.18261E+000,-1.56333E-002,-2.54257E-002,5.18270E+000,8.30240E-003,4.41283E-001,0,7.74418E+001,-8.87119E-001,9.99526E-001,4.42939E+001,-2.89484E+001,9.97523E-001,8.41523E-002,-3.31292E-002,1.53994E-003,8.41725E-002,-3.31494E-002,7.52138E-001,8.48027E-002,1.08779E+000,-6.45732E-003,0.00000E+000,8.93140E-003,9.68626E-001,0.00000E+000,-4.27040E-003,-5.08331E-002,1.00000E+000,13
1279,1297,2.79377E+001,-1.69407E+000,6.79026E-003,5.18822E+000,9.21234E-003,9.39757E-003,5.18824E+000,1.43365E-002,3.79651E-001,0,7.73765E+001,-5.42683E-001,9.99364E-001,4.43212E+001,-2.88187E+001,9.98118E-001,8.31716E-002,-3.31423E-002,1.18018E-003,8.31836E-002,-3.31543E-002,5.81271E-001,8.37522E-002,1.08673E+000,-6.46950E-003,0.00000E+000,8.34812E-003,9.68619E-001,0.00000E+000,-6.26398E-003,-5.08561E-002,1.00000E+000,13
1279,1287,2.79388E+001,-2.32193E+000,9.37480E-002,5.19247E+000,2.57400E-002,4.05994E-002,5.19270E+000,1.34536E-002,3.36097E-001,0,7.73068E+001,-3.13918E-001,9.99435E-001,4.44114E+001,-2.87874E+001,9.97288E-001,8.21891E-002,-3.31506E-002,8.24780E-004,8.21950E-002,-3.31564E-002,4.09687E-001,8.27049E-002,1.08568E+000,-6.47461E-003,0.00000E+000,7.76683E-003,9.68616E-001,0.00000E+000,-8.25077E-003,-5.08657E-002,1.00000E+000,13
569,1347,-2.23400E+001,7.27254E-001,3.20820E-002,1.14991E+000,-3.88498E-001,4.18046E-002,1.21449E+000,5.54237E-003,6.70551E-001,0,1.80184E+001,-6.34744E+000,9.99511E-001,-2.15796E+001,-4.80474E+001,9.99394E-001,6.99509E-002,-3.04958E-002,5.50753E-004,6.99540E-002,-3.04988E-002,3.14142E-001,7.01448E-002,1.07221E+000,2.31741E-002,0.00000E+000,-1.97889E-002,9.70946E-001,0.00000E+000,-1.56628E-003,-4.94506E-002,1.00000E+000,13
569,1357,-2.23087E+001,1.34888E+000,3.31155E-002,1.16678E+000,-4.07529E-001,1.42804E-002,1.23599E+000,5.39615E-003,6.67066E-001,0,1.83537E+001,-6.59492E+000,9.99694E-001,-2.09366E+001,-4.85173E+001,9.99396E-001,6.82800E-002,-3.04952E-002,8.42296E-004,6.82872E-002,-3.05024E-002,4.88537E-001,6.84165E-002,1.07042E+000,2.31349E-002,0.00000E+000,-1.91663E-002,9.70960E-001,0.00000E+000,-2.73010E-003,-4.94762E-002,1.00000E+000,13
569,1327,-2.23881E+001,-5.07888E-001,1.01797E-001,1.11936E+000,-3.53699E-001,9.86323E-002,1.17805E+000,1.01451E-002,6.81228E-001,0,1.73907E+001,-5.90025E+000,9.99797E-001,-2.24248E+001,-4.71418E+001,9.99251E-001,7.32636E-002,-3.04866E-002,-4.35091E-005,7.32637E-002,-3.04866E-002,-2.40278E-002,7.36065E-002,1.07576E+000,2.32219E-002,0.00000E+000,-2.10283E-002,9.70930E-001,0.00000E+000,7.50382E-004,-4.94195E-002,1.00000E+000,13
569,1337,-2.23659E+001,1.07410E-001,6.15101E-002,1.13361E+000,-3.71716E-001,6.94981E-002,1.19502E+000,5.18015E-003,6.54763E-001,0,1.76906E+001,-6.13524E+000,9.99538E-001,-2.20466E+001,-4.76277E+001,9.99504E-001,7.16128E-002,-3.04919E-002,2.53928E-004,7.16135E-002,-3.04925E-002,1.42490E-001,7.18759E-002,1.07399E+000,2.32001E-002,0.00000E+000,-2.04099E-002,9.70937E-001,0.00000E+000,-4.05588E-004,-4.94337E-002,1.00000E+000,13
1289,1327,2.87021E+001,2.00409E-001,-1.15989E-001,5.23690E+000,-5.52870E-002,-8.47697E-002,5.23787E+000,9.45762E-003,4.34537E-001,0,7.84250E+001,-1.43967E+000,9.99309E-001,4.62421E+001,-2.89882E+001,9.98153E-001,8.57980E-002,-3.23883E-002,2.60398E-003,8.58554E-002,-3.24457E-002,1.26157E+000,8.67043E-002,1.08958E+000,-5.36844E-003,0.00000E+000,9.80545E-003,9.69229E-001,0.00000E+000,2.67518E-004,-4.85646E-002,1.00000E+000,13
1289,1337,2.87358E+001,8.40579E-001,-8.83054E-002,5.23577E+000,-7.70146E-002,-1.17487E-001,5.23765E+000,9.23972E-003,4.49100E-001,0,7.85292E+001,-1.72948E+000,9.99546E-001,4.68475E+001,-2.90940E+001,9.98516E-001,8.68821E-002,-3.23420E-002,3.02042E-003,8.69586E-002,-3.24185E-002,1.45029E+000,8.78915E-002,1.09077E+000,-5.30580E-003,0.00000E+000,1.04531E-002,9.69263E-001,0.00000E+000,2.41511E-003,-4.84514E-002,1.00000E+000,13
569,1317,-2.24065E+001,-1.10776E+000,1.97609E-001,1.10072E+000,-3.25446E-001,1.32686E-001,1.15547E+000,1.11304E-002,6.84025E-001,0,1.70046E+001,-5.53599E+000,9.99400E-001,-2.25730E+001,-4.65492E+001,9.98233E-001,7.49064E-002,-3.04738E-002,-3.50424E-004,7.49075E-002,-3.04750E-002,-1.90525E-001,7.53397E-002,1.07753E+000,2.32214E-002,0.00000E+000,-2.16455E-002,9.70930E-001,0.00000E+000,1.90395E-003,-4.94199E-002,1.00000E+000,13
1289,1317,2.86800E+001,-4.33289E-001,-1.02225E-001,5.23776E+000,-3.54805E-002,-5.38839E-002,5.23815E+000,1.14589E-002,4.71592E-001,0,7.83173E+001,-1.17220E+000,9.99585E-001,4.58721E+001,-2.88500E+001,9.97302E-001,8.47177E-002,-3.24206E-002,2.20040E-003,8.47590E-002,-3.24619E-002,1.07578E+000,8.55291E-002,1.08840E+000,-5.40978E-003,0.00000E+000,9.16369E-003,9.69206E-001,0.00000E+000,-1.86042E-003,-4.86393E-002,1.00000E+000,13
1289,1287,2.86605E+001,-2.30437E+000,8.72893E-002,5.24730E+000,3.76737E-002,4.02130E-002,5.24759E+000,1.35778E-002,4.20909E-001,0,7.80590E+001,-1.65645E-001,9.99442E-001,4.56904E+001,-2.83746E+001,9.97318E-001,8.14543E-002,-3.24694E-002,1.02605E-003,8.14636E-002,-3.24786E-002,5.15979E-001,8.20191E-002,1.08489E+000,-5.46222E-003,0.00000E+000,7.24654E-003,9.69178E-001,0.00000E+000,-8.21729E-003,-4.87341E-002,1.00000E+000,13
1289,1297,2.86644E+001,-1.68462E+000,1.45742E-002,5.24456E+000,1.32495E-002,1.02414E-002,5.24458E+000,1.44551E-002,3.40785E-001,0,7.81479E+001,-4.92490E-001,9.99513E-001,4.56981E+001,-2.86221E+001,9.97970E-001,8.25425E-002,-3.24569E-002,1.41318E-003,8.25599E-002,-3.24743E-002,7.03940E-001,8.31837E-002,1.08605E+000,-5.45022E-003,0.00000E+000,7.88234E-003,9.69184E-001,0.00000E+000,-6.10911E-003,-4.87124E-002,1.00000E+000,13
1289,1307,2.86669E+001,-1.06149E+000,-6.85045E-002,5.24069E+000,-1.26391E-002,-2.85915E-002,5.24079E+000,1.05718E-002,4.65683E-001,0,7.82579E+001,-8.46400E-001,9.99776E-001,4.56695E+001,-2.86925E+001,9.97858E-001,8.36331E-002,-3.24445E-002,1.80288E-003,8.36611E-002,-3.24725E-002,8.89612E-001,8.43560E-002,1.08723E+000,-5.43868E-003,0.00000E+000,8.52299E-003,9.69191E-001,0.00000E+000,-3.98486E-003,-4.86915E-002,1.00000E+000,13
559,1327,-2.30654E+001,-4.97071E-001,9.51119E-002,1.07871E+000,-3.39137E-001,8.97096E-002,1.13432E+000,1.93755E-002,8.00803E-001,0,1.67839E+001,-5.68889E+000,9.99783E-001,-2.27507E+001,-4.69991E+001,9.99066E-001,7.29879E-002,-3.04857E-002,3.02390E-004,7.29888E-002,-3.04865E-002,1.67439E-001,7.33177E-002,1.07542E+000,2.51820E-002,0.00000E+000,-2.21373E-002,9.70853E-001,0.00000E+000,9.53154E-004,-4.82958E-002,1.00000E+000,13
559,1337,-2.30481E+001,1.17412E-001,5.77159E-002,1.08840E+000,-3.56817E-001,6.49632E-002,1.14724E+000,4.93350E-003,6.75835E-001,0,1.70010E+001,-5.88875E+000,9.99812E-001,-2.24375E+001,-4.75554E+001,9.99650E-001,7.13673E-002,-3.04911E-002,5.50444E-004,7.13703E-002,-3.04940E-002,3.09615E-001,7.16215E-002,1.07368E+000,2.51616E-002,0.00000E+000,-2.16153E-002,9.70859E-001,0.00000E+000,-2.92844E-004,-4.83104E-002,1.00000E+000,13
559,1347,-2.30248E+001,7.36156E-001,3.01778E-002,1.10221E+000,-3.72941E-001,3.85456E-002,1.16423E+000,6.70118E-003,6.45769E-001,0,1.72857E+001,-6.09524E+000,9.99590E-001,-2.20027E+001,-4.80211E+001,9.99261E-001,6.97376E-002,-3.04951E-002,7.97034E-004,6.97440E-002,-3.05014E-002,4.55568E-001,6.99263E-002,1.07194E+000,2.51363E-002,0.00000E+000,-2.10919E-002,9.70867E-001,0.00000E+000,-1.54241E-003,-4.83285E-002,1.00000E+000,13
559,1357,-2.29925E+001,1.35739E+000,2.98047E-002,1.12088E+000,-3.91293E-001,1.33572E-002,1.18730E+000,5.51079E-003,6.39500E-001,0,1.76430E+001,-6.34103E+000,9.99597E-001,-2.13469E+001,-4.84970E+001,9.99533E-001,6.80964E-002,-3.04959E-002,1.03963E-003,6.81074E-002,-3.05069E-002,6.04080E-001,6.82304E-002,1.07018E+000,2.50999E-002,0.00000E+000,-2.05663E-002,9.70878E-001,0.00000E+000,-2.79732E-003,-4.83545E-002,1.00000E+000,13
559,1317,-2.30881E+001,-1.09599E+000,2.01168E-001,1.05530E+000,-3.10544E-001,1.31276E-001,1.10785E+000,1.88597E-002,7.08361E-001,0,1.63046E+001,-5.28644E+000,9.99604E-001,-2.29319E+001,-4.64600E+001,9.98820E-001,7.46021E-002,-3.04741E-002,4.45611E-005,7.46021E-002,-3.04741E-002,2.42982E-002,7.50175E-002,1.07716E+000,2.51803E-002,0.00000E+000,-2.26586E-002,9.70854E-001,0.00000E+000,2.19788E-003,-4.82970E-002,1.00000E+000,13
1299,1327,2.94307E+001,2.12841E-001,-1.15629E-001,5.29504E+000,-5.02834E-002,-8.78617E-002,5.29601E+000,1.18617E-002,4.46874E-001,0,7.92402E+001,-1.36610E+000,9.99390E-001,4.76378E+001,-2.86994E+001,9.98551E-001,8.55157E-002,-3.16484E-002,2.88608E-003,8.55868E-002,-3.17194E-002,1.41022E+000,8.65367E-002,1.08928E+000,-4.13195E-003,0.00000E+000,9.24942E-003,9.69847E-001,0.00000E+000,5.98985E-004,-4.62553E-002,1.00000E+000,13
1299,1337,2.94703E+001,8.53734E-001,-8.07845E-002,5.29837E+000,-7.29475E-002,-1.17968E-001,5.30019E+000,1.13576E-002,4.74929E-001,0,7.93998E+001,-1.67230E+000,9.99314E-001,4.83429E+001,-2.88010E+001,9.98211E-001,8.67059E-002,-3.15984E-002,3.32866E-003,8.67994E-002,-3.16919E-002,1.61040E+000,8.78459E-002,1.09058E+000,-4.06035E-003,0.00000E+000,9.94123E-003,9.69885E-001,0.00000E+000,2.85501E-003,-4.61315E-002,1.00000E+000,13
1299,1287,2.93897E+001,-2.29261E+000,9.07336E-002,5.30468E+000,4.06058E-002,3.39571E-002,5.30495E+000,1.03361E-002,5.08581E-001,0,7.88733E+001,-1.29629E-001,9.99583E-001,4.71009E+001,-2.80709E+001,9.97618E-001,8.07574E-002,-3.17294E-002,1.22182E-003,8.07707E-002,-3.17426E-002,6.22244E-001,8.13848E-002,1.08414E+000,-4.23201E-003,0.00000E+000,6.52278E-003,9.69794E-001,0.00000E+000,-8.29270E-003,-4.64283E-002,1.00000E+000,13
1299,1297,2.93927E+001,-1.67571E+000,1.51479E-002,5.30250E+000,1.35812E-002,6.49270E-003,5.30252E+000,1.16439E-002,5.15028E-001,0,7.89627E+001,-5.40557E-001,9.99622E-001,4.70910E+001,-2.83121E+001,9.97877E-001,8.19503E-002,-3.17187E-002,1.62915E-003,8.19736E-002,-3.17420E-002,8.20960E-001,8.26658E-002,1.08542E+000,-4.22164E-003,0.00000E+000,7.20060E-003,9.69800E-001,0.00000E+000,-6.08228E-003,-4.64104E-002,1.00000E+000,13
1299,1307,2.94058E+001,-1.04514E+000,-3.94063E-002,5.30501E+000,-5.41116E-003,-1.92026E-002,5.30505E+000,1.96043E-002,5.06109E-001,0,7.91075E+001,-7.81463E-001,9.99674E-001,4.72664E+001,-2.83928E+001,9.98255E-001,8.31449E-002,-3.17011E-002,2.04405E-003,8.31813E-002,-3.17375E-002,1.01933E+000,8.39558E-002,1.08670E+000,-4.20069E-003,0.00000E+000,7.88321E-003,9.69811E-001,0.00000E+000,-3.85627E-003,-4.63741E-002,1.00000E+000,13
1299,1317,2.94158E+001,-4.17913E-001,-8.59653E-002,5.29951E+000,-2.91162E-002,-5.47927E-002,5.29988E+000,1.51371E-002,4.92732E-001,0,7.91734E+001,-1.08918E+000,9.99515E-001,4.74025E+001,-2.85464E+001,9.98153E-001,8.43335E-002,-3.16773E-002,2.46338E-003,8.43858E-002,-3.17296E-002,1.21589E+000,8.52463E-002,1.08799E+000,-4.17016E-003,0.00000E+000,8.56622E-003,9.69827E-001,0.00000E+000,-1.62896E-003,-4.63214E-002,1.00000E+000,13
559,1307,-2.31065E+001,-1.69869E+000,3.11585E-001,1.03444E+000,-2.86886E-001,1.66157E-001,1.08626E+000,8.18542E-003,6.89830E-001,0,1.58827E+001,-4.99028E+000,9.99273E-001,-2.30356E+001,-4.59492E+001,9.98602E-001,7.62112E-002,-3.04612E-002,-2.15137E-004,7.62116E-002,-3.04617E-002,-1.15554E-001,7.67211E-002,1.07890E+000,2.51740E-002,0.00000E+000,-2.31798E-002,9.70855E-001,0.00000E+000,3.44203E-003,-4.83015E-002,1.00000E+000,13
549,1347,-2.37043E+001,7.49017E-001,3.14380E-002,1.05941E+000,-3.55712E-001,3.86033E-002,1.11820E+000,5.67846E-003,6.84893E-001,0,1.66203E+001,-5.82158E+000,9.99575E-001,-2.23302E+001,-4.79086E+001,9.99311E-001,6.95262E-002,-3.04253E-002,1.07638E-003,6.95378E-002,-3.04369E-002,6.16926E-001,6.97175E-002,1.07166E+000,2.70190E-002,0.00000E+000,-2.22690E-002,9.70854E-001,0.00000E+000,-1.35149E-003,-4.71389E-002,1.00000E+000,13
549,1357,-2.36720E+001,1.37312E+000,3.53325E-002,1.07739E+000,-3.72001E-001,1.23996E-002,1.13987E+000,5.97825E-003,6.73330E-001,0,1.69682E+001,-6.02619E+000,9.99552E-001,-2.16592E+001,-4.83545E+001,9.99475E-001,6.79194E-002,-3.04264E-002,1.30718E-003,6.79368E-002,-3.04437E-002,7.61379E-001,6.80586E-002,1.06995E+000,2.69817E-002,0.00000E+000,-2.17666E-002,9.70865E-001,0.00000E+000,-2.65705E-003,-4.71673E-002,1.00000E+000,13
549,1327,-2.37592E+001,-4.80866E-001,1.17854E-001,1.01970E+000,-3.18550E-001,1.00234E-001,1.07299E+000,1.46108E-002,7.65203E-001,0,1.58372E+001,-5.37719E+000,9.99464E-001,-2.32299E+001,-4.69167E+001,9.97767E-001,7.27083E-002,-3.04136E-002,6.01492E-004,7.27118E-002,-3.04171E-002,3.34181E-001,7.30345E-002,1.07508E+000,2.70585E-002,0.00000E+000,-2.32684E-002,9.70842E-001,0.00000E+000,1.24514E-003,-4.71088E-002,1.00000E+000,13
549,1337,-2.37301E+001,1.30982E-001,6.14801E-002,1.04271E+000,-3.36965E-001,6.54905E-002,1.09776E+000,4.77033E-003,6.62479E-001,0,1.62884E+001,-5.58562E+000,9.99749E-001,-2.27959E+001,-4.74620E+001,9.99622E-001,7.11259E-002,-3.04205E-002,8.39709E-004,7.11328E-002,-3.04274E-002,4.73748E-001,7.13799E-002,1.07338E+000,2.70427E-002,0.00000E+000,-2.27707E-002,9.70847E-001,0.00000E+000,-4.79823E-005,-4.71209E-002,1.00000E+000,13
1309,1317,3.01357E+001,-4.13270E-001,-1.05401E-001,5.35293E+000,-2.82730E-002,-6.24172E-002,5.35337E+000,1.21269E-002,4.48324E-001,0,7.99401E+001,-1.05905E+000,9.99416E-001,4.86431E+001,-2.83662E+001,9.98161E-001,8.41833E-002,-3.10555E-002,2.75336E-003,8.42490E-002,-3.11212E-002,1.36791E+000,8.52017E-002,1.08783E+000,-2.70736E-003,0.00000E+000,7.82049E-003,9.70337E-001,0.00000E+000,-1.40887E-003,-4.40071E-002,1.00000E+000,13
1309,1327,3.01596E+001,2.21788E-001,-1.19462E-001,5.35458E+000,-4.71099E-002,-8.96213E-002,5.35554E+000,1.44669E-002,4.40703E-001,0,8.00709E+001,-1.32788E+000,9.99256E-001,4.90370E+001,-2.84649E+001,9.97821E-001,8.54591E-002,-3.10262E-002,3.15241E-003,8.55443E-002,-3.11114E-002,1.54907E+000,8.65975E-002,1.08922E+000,-2.66020E-003,0.00000E+000,8.45582E-003,9.70358E-001,0.00000E+000,8.35578E-004,-4.39310E-002,1.00000E+000,13
1309,1337,3.01973E+001,8.64109E-001,-8.58996E-002,5.35712E+000,-6.76798E-002,-1.16138E-001,5.35880E+000,1.35053E-002,4.68077E-001,0,8.02039E+001,-1.61288E+000,9.99446E-001,4.97080E+001,-2.85405E+001,9.98754E-001,8.67401E-002,-3.09818E-002,3.56727E-003,8.68481E-002,-3.10898E-002,1.73409E+000,8.80081E-002,1.09063E+000,-2.58545E-003,0.00000E+000,9.09732E-003,9.70393E-001,0.00000E+000,3.10181E-003,-4.38103E-002,1.00000E+000,13
549,1317,-2.37734E+001,-1.08411E+000,2.07759E-001,1.00597E+000,-2.94924E-001,1.33009E-001,1.05671E+000,1.21333E-002,7.47080E-001,0,1.55340E+001,-5.04897E+000,9.99550E-001,-2.33312E+001,-4.63692E+001,9.98597E-001,7.42846E-002,-3.04028E-002,3.56923E-004,7.42858E-002,-3.04040E-002,1.95342E-001,7.46923E-002,1.07677E+000,2.70599E-002,0.00000E+000,-2.37656E-002,9.70842E-001,0.00000E+000,2.53701E-003,-4.71078E-002,1.00000E+000,13
549,1307,-2.37903E+001,-1.68669E+000,3.02788E-001,9.87455E-001,-2.70507E-001,1.58135E-001,1.03598E+000,8.82886E-003,7.05998E-001,0,1.51744E+001,-4.70895E+000,9.99263E-001,-2.34587E+001,-4.58332E+001,9.98614E-001,7.58593E-002,-3.03905E-002,1.09710E-004,7.58594E-002,-3.03907E-002,5.91614E-002,7.63573E-002,1.07848E+000,2.70560E-002,0.00000E+000,-2.42637E-002,9.70843E-001,0.00000E+000,3.83118E-003,-4.71107E-002,1.00000E+000,13
1309,1287,3.01195E+001,-2.28766E+000,9.17988E-002,5.36139E+000,3.97434E-002,2.20011E-002,5.36158E+000,9.74089E-003,4.77299E-001,0,7.97014E+001,-1.34555E-001,9.99571E-001,4.85225E+001,-2.79276E+001,9.97321E-001,8.03351E-002,-3.10940E-002,1.60184E-003,8.03581E-002,-3.11171E-002,8.23424E-001,8.10366E-002,1.08368E+000,-2.76001E-003,0.00000E+000,5.92488E-003,9.70313E-001,0.00000E+000,-8.10551E-003,-4.40920E-002,1.00000E+000,13
1309,1297,3.01206E+001,-1.67098E+000,5.41074E-003,5.35897E+000,1.08020E-002,-9.53344E-003,5.35899E+000,1.26410E-002,4.89819E-001,0,7.98072E+001,-5.32726E-001,9.99463E-001,4.84683E+001,-2.81447E+001,9.97600E-001,8.16230E-002,-3.10869E-002,1.98068E-003,8.16578E-002,-3.11217E-002,1.00646E+000,8.24235E-002,1.08507E+000,-2.75251E-003,0.00000E+000,6.55590E-003,9.70316E-001,0.00000E+000,-5.87628E-003,-4.40799E-002,1.00000E+000,13
1309,1307,3.01213E+001,-1.04290E+000,-7.10596E-002,5.35480E+000,-5.14283E-003,-3.64063E-002,5.35493E+000,1.23703E-002,3.86874E-001,0,7.98608E+001,-7.20961E-001,9.99476E-001,4.84221E+001,-2.82633E+001,9.98859E-001,8.29003E-002,-3.10779E-002,2.35967E-003,8.29492E-002,-3.11267E-002,1.18551E+000,8.38053E-002,1.08644E+000,-2.74209E-003,0.00000E+000,7.18508E-003,9.70321E-001,0.00000E+000,-3.65359E-003,-4.40631E-002,1.00000E+000,13
539,1347,-2.43865E+001,7.62812E-001,3.16333E-002,1.01344E+000,-3.36184E-001,3.65081E-002,1.06836E+000,5.12887E-003,6.79417E-001,0,1.59089E+001,-5.50751E+000,9.99655E-001,-2.26963E+001,-4.78023E+001,9.99470E-001,6.93741E-002,-3.03132E-002,1.24056E-003,6.93896E-002,-3.03287E-002,7.12871E-001,6.95725E-002,1.07146E+000,2.87230E-002,0.00000E+000,-2.35099E-002,9.70878E-001,0.00000E+000,-1.13068E-003,-4.58870E-002,1.00000E+000,13
539,1357,-2.43543E+001,1.38790E+000,2.98536E-002,1.03231E+000,-3.50796E-001,1.06148E-002,1.09034E+000,5.21909E-003,6.78298E-001,0,1.62698E+001,-5.68556E+000,9.99671E-001,-2.20440E+001,-4.82173E+001,9.99548E-001,6.78575E-002,-3.03156E-002,1.45798E-003,6.78792E-002,-3.03372E-002,8.50655E-001,6.80065E-002,1.06984E+000,2.86905E-002,0.00000E+000,-2.30374E-002,9.70887E-001,0.00000E+000,-2.48267E-003,-4.59142E-002,1.00000E+000,13
539,1327,-2.44382E+001,-4.68237E-001,1.06386E-001,9.77216E-001,-2.98411E-001,8.92258E-002,1.02565E+000,6.74159E-003,6.51467E-001,0,1.52040E+001,-5.00704E+000,9.99115E-001,-2.35835E+001,-4.68530E+001,9.98778E-001,7.23822E-002,-3.03013E-002,7.95257E-004,7.23884E-002,-3.03074E-002,4.43706E-001,7.27068E-002,1.07468E+000,2.87610E-002,0.00000E+000,-2.44512E-002,9.70867E-001,0.00000E+000,1.56267E-003,-4.58553E-002,1.00000E+000,13
539,1337,-2.44128E+001,1.46494E-001,6.09016E-002,9.96088E-001,-3.15996E-001,6.22544E-002,1.04686E+000,5.62923E-003,6.54437E-001,0,1.55699E+001,-5.24480E+000,9.99499E-001,-2.31718E+001,-4.73271E+001,9.99354E-001,7.08839E-002,-3.03080E-002,1.01867E-003,7.08941E-002,-3.03183E-002,5.76701E-001,7.11410E-002,1.07307E+000,2.87449E-002,0.00000E+000,-2.39817E-002,9.70871E-001,0.00000E+000,2.19176E-004,-4.58687E-002,1.00000E+000,13
1319,1297,3.08363E+001,-1.66510E+000,-1.51009E-002,5.40774E+000,1.45268E-002,-1.86355E-002,5.40779E+000,1.05752E-002,3.64363E-001,0,8.05077E+001,-4.34105E-001,9.99430E-001,4.96464E+001,-2.79881E+001,9.98260E-001,8.13353E-002,-3.03507E-002,2.44956E-003,8.13890E-002,-3.04044E-002,1.25584E+000,8.22518E-002,1.08476E+000,-9.48511E-004,0.00000E+000,5.84748E-003,9.70912E-001,0.00000E+000,-5.96404E-003,-4.10457E-002,1.00000E+000,13
1319,1307,3.08443E+001,-1.04054E+000,-8.00334E-002,5.40764E+000,-7.73079E-003,-4.56116E-002,5.40784E+000,1.19554E-002,3.43599E-001,0,8.06233E+001,-7.45639E-001,9.99419E-001,4.97292E+001,-2.81425E+001,9.98919E-001,8.27603E-002,-3.03388E-002,2.83236E-003,8.28311E-002,-3.04097E-002,1.43367E+000,8.38004E-002,1.08630E+000,-9.29147E-004,0.00000E+000,6.47359E-003,9.70920E-001,0.00000E+000,-3.45432E-003,-4.10141E-002,1.00000E+000,13
539,1307,-2.44730E+001,-1.67676E+000,2.94543E-001,9.40790E-001,-2.54578E-001,1.47459E-001,9.85718E-001,6.24262E-003,6.72346E-001,0,1.44765E+001,-4.43588E+000,9.99358E-001,-2.38583E+001,-4.57749E+001,9.99033E-001,7.53541E-002,-3.02783E-002,3.34156E-004,7.53551E-002,-3.02793E-002,1.81246E-001,7.58378E-002,1.07789E+000,2.87574E-002,0.00000E+000,-2.53866E-002,9.70868E-001,0.00000E+000,4.23923E-003,-4.58583E-002,1.00000E+000,13
539,1317,-2.44570E+001,-1.07656E+000,1.92603E-001,9.59123E-001,-2.79172E-001,1.20273E-001,1.00614E+000,6.46202E-003,6.82717E-001,0,1.48382E+001,-4.77866E+000,9.99339E-001,-2.37681E+001,-4.63499E+001,9.98789E-001,7.38717E-002,-3.02908E-002,5.66139E-004,7.38748E-002,-3.02939E-002,3.11399E-001,7.42720E-002,1.07629E+000,2.87629E-002,0.00000E+000,-2.49194E-002,9.70866E-001,0.00000E+000,2.90224E-003,-4.58537E-002,1.00000E+000,13
1319,1287,3.08410E+001,-2.28754E+000,7.65877E-002,5.41359E+000,3.50624E-002,9.56447E-003,5.41371E+000,1.11049E-002,4.40023E-001,0,8.04683E+001,-1.75379E-001,9.99456E-001,4.97972E+001,-2.78288E+001,9.98370E-001,7.99070E-002,-3.03541E-002,2.07575E-003,7.99461E-002,-3.03932E-002,1.07813E+000,8.07078E-002,1.08323E+000,-9.51154E-004,0.00000E+000,5.22364E-003,9.70911E-001,0.00000E+000,-8.46461E-003,-4.10501E-002,1.00000E+000,13
529,1327,-2.51185E+001,-4.55037E-001,1.09364E-001,9.32060E-001,-2.79891E-001,8.71729E-002,9.77074E-001,5.98527E-003,6.60016E-001,0,1.45053E+001,-4.72251E+000,9.99091E-001,-2.39101E+001,-4.67510E+001,9.98664E-001,7.20858E-002,-3.00122E-002,9.95178E-004,7.20955E-002,-3.00219E-002,5.58408E-001,7.24304E-002,1.07433E+000,3.00011E-002,0.00000E+000,-2.52230E-002,9.71081E-001,0.00000E+000,2.19024E-003,-4.47567E-002,1.00000E+000,13
529,1307,-2.51541E+001,-1.66439E+000,2.96445E-001,8.94251E-001,-2.37593E-001,1.40857E-001,9.35936E-001,7.99717E-003,6.56362E-001,0,1.37687E+001,-4.15597E+000,9.99493E-001,-2.41993E+001,-4.56917E+001,9.99203E-001,7.47176E-002,-2.99965E-002,6.84088E-004,7.47220E-002,-3.00009E-002,3.74287E-001,7.52038E-002,1.07717E+000,2.99966E-002,0.00000E+000,-2.58701E-002,9.71082E-001,0.00000E+000,4.89097E-003,-4.47609E-002,1.00000E+000,13
529,1317,-2.51386E+001,-1.06316E+000,1.88793E-001,9.13533E-001,-2.60125E-001,1.17155E-001,9.57044E-001,6.17137E-003,6.48518E-001,0,1.41361E+001,-4.45719E+000,9.99584E-001,-2.41348E+001,-4.62499E+001,9.99123E-001,7.34050E-002,-3.00054E-002,8.42093E-004,7.34119E-002,-3.00123E-002,4.66530E-001,7.38176E-002,1.07575E+000,3.00047E-002,0.00000E+000,-2.55469E-002,9.71080E-001,0.00000E+000,3.54204E-003,-4.47532E-002,1.00000E+000,13
