Coordinates.Image X [Pixel],Coordinates.Image Y [Pixel],coor.X [mm],coor.Y [mm],coor.Z [mm],disp.Horizontal Displacement U [mm],disp.Vertical Displacement V [mm],disp.Out-Of-Plane: W [mm],disp.Displacement Magnitude [mm],stats.Sigma [mm],stats.Epipolar Distance [Pixel],stats.Shape Index [-],SameCamera.Horizontal: u [Pixel],SameCamera.Vertical: v [Pixel],SameCamera.Correlation Value 2D [-],CrossCamera.Horizontal: q [Pixel],CrossCamera.Vertical: r [Pixel],CrossCamera.Correlation Value Persp [-],strain.Strain-global frame: Exx [ ],strain.Strain-global frame: Eyy [ ],strain.Strain-global frame: Exy [ ],strain.Maximum Principal Strain: EI [ ],strain.Minimum Principal Strain: EII [ ],strain.Shear Angle Gamma [deg],strain.Von Mises Equivalent Strain [ ],defgradient.F[0,0] [-],defgradient.F[0,1] [-],defgradient.F[0,2] [-],defgradient.F[1,0] [-],defgradient.F[1,1] [-],defgradient.F[1,2] [-],defgradient.F[2,0] [-],defgradient.F[2,1] [-],defgradient.F[2,2] [-],ext.Current Image [#]
929,1317,4.45684E+000,-1.11622E+000,7.21914E-002,4.79291E+000,-4.99859E-001,1.58912E-001,4.82152E+000,1.10727E-002,4.72451E-001,0,7.29815E+001,-8.71802E+000,9.99084E-001,2.93095E+001,-4.28729E+001,9.97969E-001,1.32948E-001,-5.53952E-002,7.90054E-006,1.32948E-001,-5.53952E-002,2.40342E-003,1.33562E-001,1.14214E+000,-1.82064E-002,0.00000E+000,1.62338E-002,9.49546E-001,0.00000E+000,-1.45856E-002,-8.67620E-002,1.00000E+000,20
919,1307,3.71103E+000,-1.73333E+000,1.36826E-001,4.71365E+000,-4.67696E-001,2.28343E-001,4.74230E+000,1.35968E-002,5.09756E-001,0,7.15876E+001,-8.34643E+000,9.98286E-001,2.78178E+001,-4.26266E+001,9.95727E-001,1.35694E-001,-5.51260E-002,-4.69755E-004,1.35695E-001,-5.51272E-002,-1.41048E-001,1.36488E-001,1.14530E+000,-1.62178E-002,0.00000E+000,1.35575E-002,9.49907E-001,0.00000E+000,-1.33419E-002,-8.75829E-002,1.00000E+000,20
919,1317,3.69887E+000,-1.13878E+000,2.97085E-002,4.69868E+000,-5.08138E-001,1.72137E-001,4.72921E+000,1.54586E-002,4.68355E-001,0,7.15609E+001,-8.87378E+000,9.97487E-001,2.74966E+001,-4.32314E+001,9.95237E-001,1.33760E-001,-5.51333E-002,-6.87624E-004,1.33763E-001,-5.51358E-002,-2.08568E-001,1.34449E-001,1.14307E+000,-1.62276E-002,0.00000E+000,1.30485E-002,9.49904E-001,0.00000E+000,-1.17933E-002,-8.75760E-002,1.00000E+000,20
919,1327,3.70480E+000,-5.33088E-001,-1.90311E-002,4.68748E+000,-5.49520E-001,1.08267E-001,4.72082E+000,1.23740E-002,4.94884E-001,0,7.16072E+001,-9.39175E+000,9.98752E-001,2.75822E+001,-4.37528E+001,9.96909E-001,1.31800E-001,-5.51495E-002,-9.29202E-004,1.31805E-001,-5.51541E-002,-2.84770E-001,1.32388E-001,1.14081E+000,-1.62869E-002,0.00000E+000,1.25340E-002,9.49891E-001,0.00000E+000,-1.02279E-002,-8.75349E-002,1.00000E+000,20
929,1307,4.46508E+000,-1.71129E+000,1.64185E-001,4.80833E+000,-4.56655E-001,2.19885E-001,4.83497E+000,1.12061E-002,5.14103E-001,0,7.29996E+001,-8.16098E+000,9.99134E-001,2.95369E+001,-4.22452E+001,9.98249E-001,1.34928E-001,-5.53926E-002,8.30808E-005,1.34928E-001,-5.53926E-002,2.50114E-002,1.35646E-001,1.14444E+000,-1.81808E-002,0.00000E+000,1.64828E-002,9.49548E-001,0.00000E+000,-1.64935E-002,-8.67834E-002,1.00000E+000,20
929,1327,4.45614E+000,-5.08978E-001,8.23517E-003,4.77877E+000,-5.34962E-001,9.71352E-002,4.80960E+000,1.04426E-002,4.34975E-001,0,7.29780E+001,-9.15043E+000,9.99140E-001,2.92605E+001,-4.33693E+001,9.98344E-001,1.30955E-001,-5.53988E-002,-7.72462E-005,1.30955E-001,-5.53988E-002,-2.37499E-002,1.31471E-001,1.13984E+000,-1.82544E-002,0.00000E+000,1.59841E-002,9.49540E-001,0.00000E+000,-1.26724E-002,-8.67222E-002,1.00000E+000,20
939,1307,5.21194E+000,-1.69305E+000,1.49133E-001,4.90085E+000,-4.45317E-001,1.94440E-001,4.92488E+000,1.23407E-002,5.02943E-001,0,7.44397E+001,-7.93484E+000,9.99140E-001,3.10582E+001,-4.18412E+001,9.98416E-001,1.34019E-001,-5.49699E-002,5.15915E-004,1.34021E-001,-5.49714E-002,1.56408E-001,1.34740E-001,1.14340E+000,-2.04359E-002,0.00000E+000,1.93639E-002,9.49797E-001,0.00000E+000,-1.88962E-002,-8.54855E-002,1.00000E+000,20
939,1317,5.20400E+000,-1.09621E+000,6.51097E-002,4.88494E+000,-4.86696E-001,1.38015E-001,4.91106E+000,1.22614E-002,4.42319E-001,0,7.43986E+001,-8.47592E+000,9.98877E-001,3.08533E+001,-4.24662E+001,9.97668E-001,1.32207E-001,-5.49711E-002,4.69849E-004,1.32208E-001,-5.49723E-002,1.43821E-001,1.32831E-001,1.14129E+000,-2.04622E-002,0.00000E+000,1.91540E-002,9.49795E-001,0.00000E+000,-1.67462E-002,-8.54588E-002,1.00000E+000,20
939,1327,5.20427E+000,-4.83815E-001,7.80191E-003,4.87011E+000,-5.19915E-001,7.60886E-002,4.89837E+000,9.62139E-003,4.62512E-001,0,7.43847E+001,-8.87586E+000,9.98901E-001,3.08334E+001,-4.28666E+001,9.97997E-001,1.30373E-001,-5.49726E-002,4.13253E-004,1.30374E-001,-5.49736E-002,1.27748E-001,1.30906E-001,1.13916E+000,-2.05119E-002,0.00000E+000,1.89425E-002,9.49790E-001,0.00000E+000,-1.45800E-002,-8.54082E-002,1.00000E+000,20
919,1337,3.71797E+000,8.24479E-002,-3.87668E-002,4.67861E+000,-5.82576E-001,5.03285E-002,4.71501E+000,1.06306E-002,4.75789E-001,0,7.16621E+001,-9.80069E+000,9.98500E-001,2.78444E+001,-4.42082E+001,9.97849E-001,1.29834E-001,-5.51687E-002,-1.17833E-003,1.29842E-001,-5.51762E-002,-3.64911E-001,1.30328E-001,1.13855E+000,-1.63631E-002,0.00000E+000,1.20198E-002,9.49873E-001,0.00000E+000,-8.66323E-003,-8.74821E-002,1.00000E+000,20
929,1337,4.46474E+000,1.01381E-001,-2.34678E-002,4.76776E+000,-5.72553E-001,3.93252E-002,4.80217E+000,1.03772E-002,4.71499E-001,0,7.30044E+001,-9.64480E+000,9.99203E-001,2.94240E+001,-4.38503E+001,9.98776E-001,1.28944E-001,-5.54034E-002,-1.72516E-004,1.28944E-001,-5.54035E-002,-5.36185E-002,1.29369E-001,1.13753E+000,-1.83243E-002,0.00000E+000,1.57330E-002,9.49533E-001,0.00000E+000,-1.07493E-002,-8.66641E-002,1.00000E+000,20
939,1337,5.21177E+000,1.26578E-001,-2.06862E-002,4.85886E+000,-5.56452E-001,2.60745E-002,4.89068E+000,8.83975E-003,4.79951E-001,0,7.43821E+001,-9.37106E+000,9.99186E-001,3.09859E+001,-4.33621E+001,9.98853E-001,1.28531E-001,-5.49744E-002,3.51138E-004,1.28531E-001,-5.49751E-002,1.09635E-001,1.28978E-001,1.13704E+000,-2.05737E-002,0.00000E+000,1.87311E-002,9.49784E-001,0.00000E+000,-1.24139E-002,-8.53453E-002,1.00000E+000,20
949,1317,5.95699E+000,-1.06846E+000,6.87263E-002,4.98098E+000,-4.68510E-001,1.21995E-001,5.00445E+000,1.72300E-002,4.77998E-001,0,7.58556E+001,-8.17133E+000,9.97813E-001,3.25148E+001,-4.19292E+001,9.96101E-001,1.31416E-001,-5.45051E-002,8.42324E-004,1.31420E-001,-5.45089E-002,2.59574E-001,1.32055E-001,1.14038E+000,-2.24919E-002,0.00000E+000,2.16781E-002,9.50049E-001,0.00000E+000,-1.84857E-002,-8.36988E-002,1.00000E+000,20
949,1327,5.95383E+000,-4.58968E-001,5.82873E-003,4.96380E+000,-5.02726E-001,5.97903E-002,4.98955E+000,1.51232E-002,4.63560E-001,0,7.58096E+001,-8.59025E+000,9.98294E-001,3.24297E+001,-4.23785E+001,9.97262E-001,1.29874E-001,-5.45034E-002,8.29578E-004,1.29877E-001,-5.45071E-002,2.57787E-001,1.30435E-001,1.13858E+000,-2.25312E-002,0.00000E+000,2.15119E-002,9.50045E-001,0.00000E+000,-1.59341E-002,-8.36431E-002,1.00000E+000,20
949,1337,5.95856E+000,1.50677E-001,-2.51005E-002,4.95027E+000,-5.40065E-001,1.02992E-002,4.97966E+000,1.13856E-002,4.54187E-001,0,7.57725E+001,-9.08173E+000,9.98743E-001,3.25334E+001,-4.28923E+001,9.97979E-001,1.28318E-001,-5.45015E-002,8.11376E-004,1.28322E-001,-5.45051E-002,2.54279E-001,1.28805E-001,1.13677E+000,-2.25824E-002,0.00000E+000,2.13453E-002,9.50041E-001,0.00000E+000,-1.33754E-002,-8.35707E-002,1.00000E+000,20
949,1307,5.96697E+000,-1.67089E+000,1.52270E-001,4.99865E+000,-4.31926E-001,1.76163E-001,5.02036E+000,1.37340E-002,4.98701E-001,0,7.59312E+001,-7.69212E+000,9.98560E-001,3.27495E+001,-4.14110E+001,9.97469E-001,1.32944E-001,-5.45063E-002,8.47261E-004,1.32948E-001,-5.45102E-002,2.58965E-001,1.33664E-001,1.14218E+000,-2.24703E-002,0.00000E+000,2.18437E-002,9.50051E-001,0.00000E+000,-2.10277E-002,-8.37293E-002,1.00000E+000,20
909,1317,2.95777E+000,-1.15447E+000,2.62590E-002,4.60929E+000,-5.16022E-001,1.70995E-001,4.64124E+000,1.51432E-002,4.41146E-001,0,7.02521E+001,-8.99890E+000,9.96491E-001,2.60331E+001,-4.35769E+001,9.94287E-001,1.34606E-001,-5.55567E-002,-1.44151E-003,1.34617E-001,-5.55676E-002,-4.34292E-001,1.35298E-001,1.14403E+000,-1.41382E-002,0.00000E+000,9.61560E-003,9.49555E-001,0.00000E+000,-8.63021E-003,-8.77691E-002,1.00000E+000,20
909,1327,2.96803E+000,-5.43600E-001,-1.95558E-002,4.60292E+000,-5.52770E-001,1.11819E-001,4.63734E+000,1.16346E-002,4.70265E-001,0,7.03536E+001,-9.44095E+000,9.97612E-001,2.61933E+001,-4.40245E+001,9.97162E-001,1.32712E-001,-5.55710E-002,-1.67213E-003,1.32727E-001,-5.55859E-002,-5.08785E-001,1.33309E-001,1.14186E+000,-1.41932E-002,0.00000E+000,9.16459E-003,9.49544E-001,0.00000E+000,-7.66756E-003,-8.77447E-002,1.00000E+000,20
909,1337,2.98035E+000,7.57370E-002,-3.60438E-002,4.59309E+000,-5.84934E-001,5.61516E-002,4.63052E+000,1.23507E-002,5.35491E-001,0,7.03843E+001,-9.83647E+000,9.98521E-001,2.64507E+001,-4.43880E+001,9.98018E-001,1.30808E-001,-5.55887E-002,-1.91146E-003,1.30827E-001,-5.56083E-002,-5.87475E-001,1.31316E-001,1.13968E+000,-1.42665E-002,0.00000E+000,8.71222E-003,9.49529E-001,0.00000E+000,-6.70202E-003,-8.77123E-002,1.00000E+000,20
909,1307,2.96550E+000,-1.74917E+000,1.37234E-001,4.61880E+000,-4.75921E-001,2.26364E-001,4.64877E+000,1.51471E-002,4.22286E-001,0,7.01992E+001,-8.45517E+000,9.97109E-001,2.62955E+001,-4.30116E+001,9.92563E-001,1.36474E-001,-5.55512E-002,-1.23454E-003,1.36482E-001,-5.55592E-002,-3.68338E-001,1.37265E-001,1.14618E+000,-1.41321E-002,0.00000E+000,1.00613E-002,9.49556E-001,0.00000E+000,-9.58153E-003,-8.77718E-002,1.00000E+000,20
919,1347,3.73870E+000,7.06629E-001,-4.79987E-002,4.67404E+000,-6.10943E-001,-1.20151E-002,4.71382E+000,1.66404E-002,5.00749E-001,0,7.17934E+001,-1.01249E+001,9.99109E-001,2.82471E+001,-4.45326E+001,9.98615E-001,1.27854E-001,-5.51900E-002,-1.43361E-003,1.27865E-001,-5.52012E-002,-4.48709E-001,1.28262E-001,1.13629E+000,-1.64505E-002,0.00000E+000,1.15032E-002,9.49854E-001,0.00000E+000,-7.09175E-003,-8.74215E-002,1.00000E+000,20
929,1347,4.48216E+000,7.20246E-001,-3.09971E-002,4.76040E+000,-6.05241E-001,-1.81332E-002,4.79876E+000,9.71190E-003,4.62465E-001,0,7.30797E+001,-1.00419E+001,9.99176E-001,2.97772E+001,-4.42766E+001,9.98865E-001,1.26920E-001,-5.54087E-002,-2.76308E-004,1.26921E-001,-5.54092E-002,-8.68279E-002,1.27261E-001,1.13521E+000,-1.84127E-002,0.00000E+000,1.54813E-002,9.49523E-001,0.00000E+000,-8.82120E-003,-8.65906E-002,1.00000E+000,20
939,1347,5.22979E+000,7.46767E-001,-1.98343E-002,4.85241E+000,-5.87918E-001,-2.06930E-002,4.88794E+000,1.30020E-002,4.70183E-001,0,7.44354E+001,-9.77015E+000,9.99109E-001,3.13648E+001,-4.37851E+001,9.98330E-001,1.26673E-001,-5.49766E-002,2.80349E-004,1.26674E-001,-5.49770E-002,8.84270E-002,1.27041E-001,1.13490E+000,-2.06542E-002,0.00000E+000,1.85188E-002,9.49776E-001,0.00000E+000,-1.02389E-002,-8.52633E-002,1.00000E+000,20
949,1347,5.97891E+000,7.69106E-001,-1.13588E-002,4.94410E+000,-5.75665E-001,-3.19008E-002,4.97760E+000,1.10552E-002,4.64384E-001,0,7.58149E+001,-9.55108E+000,9.98586E-001,3.29729E+001,-4.33590E+001,9.97591E-001,1.26744E-001,-5.44991E-002,7.82777E-004,1.26748E-001,-5.45024E-002,2.47450E-001,1.27161E-001,1.13495E+000,-2.26568E-002,0.00000E+000,2.11775E-002,9.50034E-001,0.00000E+000,-1.08005E-002,-8.34655E-002,1.00000E+000,20
959,1317,6.70126E+000,-1.04736E+000,5.55724E-002,5.06975E+000,-4.54486E-001,9.78432E-002,5.09102E+000,1.55379E-002,4.72115E-001,0,7.72317E+001,-7.91196E+000,9.98173E-001,3.40104E+001,-4.14811E+001,9.97199E-001,1.30713E-001,-5.39507E-002,9.26151E-004,1.30717E-001,-5.39554E-002,2.87349E-001,1.31379E-001,1.13955E+000,-2.46275E-002,0.00000E+000,2.36614E-002,9.50377E-001,0.00000E+000,-1.92613E-002,-8.17102E-002,1.00000E+000,20
959,1327,6.70004E+000,-4.37836E-001,-9.99103E-003,5.05618E+000,-4.87905E-001,4.10466E-002,5.07983E+000,2.10193E-002,4.67370E-001,0,7.72243E+001,-8.33317E+000,9.99177E-001,3.39496E+001,-4.19170E+001,9.98348E-001,1.29395E-001,-5.39443E-002,9.74877E-004,1.29401E-001,-5.39495E-002,3.04649E-001,1.29995E-001,1.13800E+000,-2.46574E-002,0.00000E+000,2.35984E-002,9.50376E-001,0.00000E+000,-1.65946E-002,-8.16589E-002,1.00000E+000,20
959,1337,6.70809E+000,1.72210E-001,-2.56575E-002,5.04360E+000,-5.27373E-001,-3.10361E-003,5.07110E+000,1.69351E-002,4.76778E-001,0,7.71831E+001,-8.86565E+000,9.98320E-001,3.41350E+001,-4.24462E+001,9.97704E-001,1.28062E-001,-5.39360E-002,1.01504E-003,1.28068E-001,-5.39416E-002,3.19536E-001,1.28597E-001,1.13644E+000,-2.47072E-002,0.00000E+000,2.35351E-002,9.50374E-001,0.00000E+000,-1.39128E-002,-8.15731E-002,1.00000E+000,20
959,1307,6.70902E+000,-1.64759E+000,1.40859E-001,5.08607E+000,-4.14071E-001,1.57289E-001,5.10533E+000,1.19593E-002,4.93260E-001,0,7.72662E+001,-7.39863E+000,9.98467E-001,3.42142E+001,-4.09347E+001,9.97530E-001,1.32019E-001,-5.39562E-002,8.73353E-004,1.32023E-001,-5.39603E-002,2.69058E-001,1.32754E-001,1.14110E+000,-2.46068E-002,0.00000E+000,2.37243E-002,9.50378E-001,0.00000E+000,-2.19239E-002,-8.17459E-002,1.00000E+000,20
959,1347,6.72383E+000,7.86843E-001,-2.38004E-002,5.03473E+000,-5.64531E-001,-4.78200E-002,5.06650E+000,1.18011E-002,4.74575E-001,0,7.71961E+001,-9.36430E+000,9.98411E-001,3.44763E+001,-4.29505E+001,9.97969E-001,1.26718E-001,-5.39267E-002,1.05066E-003,1.26725E-001,-5.39328E-002,3.33226E-001,1.27191E-001,1.13488E+000,-2.47668E-002,0.00000E+000,2.34717E-002,9.50371E-001,0.00000E+000,-1.12275E-002,-8.14706E-002,1.00000E+000,20
909,1347,3.00171E+000,6.97444E-001,-2.94755E-002,4.58725E+000,-6.15278E-001,-3.87773E-004,4.62833E+000,1.42784E-002,5.27291E-001,0,7.04746E+001,-1.02140E+001,9.99150E-001,2.68988E+001,-4.48036E+001,9.97857E-001,1.28903E-001,-5.56093E-002,-2.15785E-003,1.28928E-001,-5.56345E-002,-6.69948E-001,1.29330E-001,1.13751E+000,-1.43563E-002,0.00000E+000,8.26072E-003,9.49510E-001,0.00000E+000,-5.73834E-003,-8.76725E-002,1.00000E+000,20
899,1327,2.23056E+000,-5.44991E-001,1.61318E-002,4.50912E+000,-5.54107E-001,1.13832E-001,4.54447E+000,8.50105E-003,4.94413E-001,0,6.89553E+001,-9.45281E+000,9.98334E-001,2.48790E+001,-4.42094E+001,9.98165E-001,1.33365E-001,-5.58960E-002,-2.33430E-003,1.33394E-001,-5.59248E-002,-7.06527E-001,1.33973E-001,1.14262E+000,-1.22795E-002,0.00000E+000,6.09769E-003,9.49318E-001,0.00000E+000,-4.99317E-003,-8.84538E-002,1.00000E+000,20
899,1337,2.24606E+000,6.96005E-002,-2.41302E-002,4.50635E+000,-5.86621E-001,5.15848E-002,4.54466E+000,1.28203E-002,5.12761E-001,0,6.91179E+001,-9.84310E+000,9.99320E-001,2.51337E+001,-4.46199E+001,9.98976E-001,1.31642E-001,-5.59078E-002,-2.52703E-003,1.31676E-001,-5.59419E-002,-7.71811E-001,1.32171E-001,1.14065E+000,-1.23341E-002,0.00000E+000,5.76694E-003,9.49309E-001,0.00000E+000,-4.66898E-003,-8.84448E-002,1.00000E+000,20
899,1347,2.27373E+000,6.89074E-001,-1.60337E-002,4.50700E+000,-6.19375E-001,-3.57120E-003,4.54936E+000,1.09488E-002,4.99641E-001,0,6.93024E+001,-1.02536E+001,9.99275E-001,2.56841E+001,-4.50768E+001,9.98639E-001,1.29910E-001,-5.59239E-002,-2.73175E-003,1.29951E-001,-5.59641E-002,-8.42002E-001,1.30366E-001,1.13867E+000,-1.24147E-002,0.00000E+000,5.43511E-003,9.49296E-001,0.00000E+000,-4.34374E-003,-8.84316E-002,1.00000E+000,20
899,1317,2.22650E+000,-1.15040E+000,8.20352E-002,4.51772E+000,-5.16217E-001,1.75288E-001,4.55050E+000,1.13361E-002,4.92051E-001,0,6.88783E+001,-8.98701E+000,9.98047E-001,2.48589E+001,-4.37039E+001,9.96633E-001,1.35081E-001,-5.58869E-002,-2.14941E-003,1.35105E-001,-5.59111E-002,-6.44776E-001,1.35772E-001,1.14458E+000,-1.22416E-002,0.00000E+000,6.42747E-003,9.49325E-001,0.00000E+000,-5.31641E-003,-8.84601E-002,1.00000E+000,20
899,1307,2.22574E+000,-1.74755E+000,1.72653E-001,4.52396E+000,-4.74433E-001,2.34871E-001,4.55483E+000,1.18859E-002,4.29261E-001,0,6.87660E+001,-8.41701E+000,9.97960E-001,2.49463E+001,-4.31533E+001,9.95176E-001,1.36786E-001,-5.58806E-002,-1.97252E-003,1.36807E-001,-5.59008E-002,-5.86511E-001,1.37566E-001,1.14653E+000,-1.22205E-002,0.00000E+000,6.75602E-003,9.49328E-001,0.00000E+000,-5.63844E-003,-8.84636E-002,1.00000E+000,20
889,1327,1.49080E+000,-5.51679E-001,2.55211E-002,4.41739E+000,-5.57098E-001,1.11655E-001,4.45378E+000,7.49773E-003,5.15032E-001,0,6.76048E+001,-9.48736E+000,9.98743E-001,2.34760E+001,-4.44216E+001,9.98681E-001,1.34067E-001,-5.52965E-002,-2.99437E-003,1.34115E-001,-5.53438E-002,-9.05706E-001,1.34795E-001,1.14343E+000,-1.05838E-002,0.00000E+000,3.21315E-003,9.49963E-001,0.00000E+000,-2.26329E-003,-8.91588E-002,1.00000E+000,20
889,1337,1.50176E+000,6.26467E-002,-1.78259E-002,4.41135E+000,-5.88251E-001,5.15607E-002,4.45070E+000,1.17945E-002,5.19402E-001,0,6.77093E+001,-9.86357E+000,9.99182E-001,2.36545E+001,-4.48390E+001,9.98930E-001,1.32423E-001,-5.52972E-002,-3.03091E-003,1.32472E-001,-5.53461E-002,-9.24771E-001,1.33067E-001,1.14155E+000,-1.06322E-002,0.00000E+000,3.25409E-003,9.49964E-001,0.00000E+000,-2.92457E-003,-8.91758E-002,1.00000E+000,20
889,1347,1.53049E+000,6.79879E-001,-1.04263E-002,4.41384E+000,-6.22513E-001,-1.63957E-003,4.45752E+000,9.66319E-003,4.95924E-001,0,6.79154E+001,-1.02985E+001,9.99012E-001,2.42211E+001,-4.53358E+001,9.98692E-001,1.30768E-001,-5.52982E-002,-3.07897E-003,1.30819E-001,-5.53491E-002,-9.47771E-001,1.31333E-001,1.13967E+000,-1.07066E-002,0.00000E+000,3.29521E-003,9.49965E-001,0.00000E+000,-3.58887E-003,-8.92021E-002,1.00000E+000,20
969,1297,7.47783E+000,-2.22125E+000,2.37081E-001,5.20022E+000,-3.57937E-001,1.83357E-001,5.21575E+000,1.63335E-002,4.65237E-001,0,7.88360E+001,-6.56568E+000,9.99078E-001,3.62277E+001,-3.99291E+001,9.97697E-001,1.32154E-001,-5.36443E-002,7.50852E-004,1.32157E-001,-5.36473E-002,2.31541E-001,1.32934E-001,1.14128E+000,-2.64662E-002,0.00000E+000,2.52132E-002,9.50461E-001,0.00000E+000,-2.48857E-002,-7.93515E-002,1.00000E+000,20
969,1307,7.45551E+000,-1.63157E+000,1.27882E-001,5.17589E+000,-4.05693E-001,1.29903E-001,5.19339E+000,2.63486E-002,4.56545E-001,0,7.86684E+001,-7.19975E+000,9.98639E-001,3.57484E+001,-4.05825E+001,9.96705E-001,1.31081E-001,-5.36387E-002,8.40268E-004,1.31085E-001,-5.36425E-002,2.60624E-001,1.31804E-001,1.13999E+000,-2.64702E-002,0.00000E+000,2.52042E-002,9.50461E-001,0.00000E+000,-2.21547E-002,-7.93429E-002,1.00000E+000,20
969,1317,7.44984E+000,-1.03050E+000,5.57793E-002,5.16059E+000,-4.45491E-001,7.91827E-002,5.18039E+000,1.01707E-002,4.42987E-001,0,7.86192E+001,-7.73633E+000,9.99403E-001,3.56041E+001,-4.11383E+001,9.98741E-001,1.30000E-001,-5.36305E-002,9.23121E-004,1.30004E-001,-5.36351E-002,2.88020E-001,1.30665E-001,1.13870E+000,-2.64897E-002,0.00000E+000,2.51951E-002,9.50460E-001,0.00000E+000,-1.94203E-002,-7.93018E-002,1.00000E+000,20
889,1317,1.48303E+000,-1.15548E+000,9.39964E-002,4.42171E+000,-5.18229E-001,1.73532E-001,4.45536E+000,1.03350E-002,5.30427E-001,0,6.74616E+001,-9.01426E+000,9.98749E-001,2.34045E+001,-4.38864E+001,9.98257E-001,1.35706E-001,-5.52960E-002,-2.96396E-003,1.35752E-001,-5.53419E-002,-8.88831E-001,1.36521E-001,1.14531E+000,-1.05493E-002,0.00000E+000,3.17228E-003,9.49962E-001,0.00000E+000,-1.60322E-003,-8.91466E-002,1.00000E+000,20
969,1327,7.44609E+000,-4.18759E-001,-2.27183E-003,5.14380E+000,-4.77210E-001,2.72285E-002,5.16596E+000,1.30169E-002,4.79712E-001,0,7.85459E+001,-8.16414E+000,9.98968E-001,3.55195E+001,-4.15342E+001,9.98733E-001,1.28907E-001,-5.36212E-002,1.00294E-003,1.28912E-001,-5.36267E-002,3.14812E-001,1.29518E-001,1.13740E+000,-2.65161E-002,0.00000E+000,2.51861E-002,9.50460E-001,0.00000E+000,-1.66800E-002,-7.92460E-002,1.00000E+000,20
889,1307,1.47905E+000,-1.75388E+000,1.85173E-001,4.42403E+000,-4.78499E-001,2.30675E-001,4.45580E+000,1.32990E-002,4.71586E-001,0,6.72990E+001,-8.46996E+000,9.98284E-001,2.34437E+001,-4.33528E+001,9.96352E-001,1.37335E-001,-5.52956E-002,-2.94076E-003,1.37379E-001,-5.53405E-002,-8.74427E-001,1.38241E-001,1.14717E+000,-1.05311E-002,0.00000E+000,3.13158E-003,9.49962E-001,0.00000E+000,-9.45826E-004,-8.91402E-002,1.00000E+000,20
969,1337,7.45230E+000,1.88262E-001,-3.22519E-002,5.13143E+000,-5.16750E-001,-2.15440E-002,5.15743E+000,1.34260E-002,4.30265E-001,0,7.85269E+001,-8.68617E+000,9.98789E-001,3.56459E+001,-4.21070E+001,9.98382E-001,1.27804E-001,-5.36101E-002,1.07780E-003,1.27810E-001,-5.36165E-002,3.40385E-001,1.28361E-001,1.13610E+000,-2.65536E-002,0.00000E+000,2.51770E-002,9.50460E-001,0.00000E+000,-1.39348E-002,-7.91665E-002,1.00000E+000,20
969,1347,7.46223E+000,8.15972E-001,-3.51133E-002,5.11799E+000,-5.41736E-001,-6.43304E-002,5.14699E+000,1.15184E-002,4.74770E-001,0,7.84614E+001,-8.99836E+000,9.98725E-001,3.58875E+001,-4.23744E+001,9.98025E-001,1.26684E-001,-5.35974E-002,1.14868E-003,1.26691E-001,-5.36047E-002,3.65046E-001,1.27190E-001,1.13480E+000,-2.66009E-002,0.00000E+000,2.51679E-002,9.50460E-001,0.00000E+000,-1.11704E-002,-7.90665E-002,1.00000E+000,20
879,1327,7.55415E-001,-5.54310E-001,4.04802E-002,4.32950E+000,-5.55843E-001,1.14365E-001,4.36653E+000,1.08126E-002,5.12063E-001,0,6.62931E+001,-9.46014E+000,9.98760E-001,2.21588E+001,-4.45945E+001,9.98612E-001,1.34700E-001,-5.54986E-002,-3.39492E-003,1.34761E-001,-5.55592E-002,-1.02226E+000,1.35450E-001,1.14417E+000,-9.12487E-003,0.00000E+000,1.07648E-003,9.49731E-001,0.00000E+000,-2.81870E-004,-8.85942E-002,1.00000E+000,20
879,1337,7.65476E-001,5.60545E-002,-8.20170E-003,4.32322E+000,-5.90068E-001,5.13817E-002,4.36361E+000,1.04336E-002,5.00051E-001,0,6.64038E+001,-9.87418E+000,9.98261E-001,2.23114E+001,-4.50717E+001,9.98288E-001,1.33215E-001,-5.54963E-002,-3.37762E-003,1.33276E-001,-5.55567E-002,-1.02506E+000,1.33888E-001,1.14247E+000,-9.16693E-003,0.00000E+000,1.25180E-003,9.49735E-001,0.00000E+000,-1.43063E-003,-8.86226E-002,1.00000E+000,20
879,1347,7.90209E-001,6.76462E-001,-4.98740E-003,4.32321E+000,-6.21413E-001,3.16650E-004,4.36764E+000,1.21970E-002,5.15070E-001,0,6.65636E+001,-1.02656E+001,9.98399E-001,2.28090E+001,-4.54937E+001,9.98264E-001,1.31717E-001,-5.54930E-002,-3.36951E-003,1.31777E-001,-5.55536E-002,-1.03080E+000,1.32316E-001,1.14076E+000,-9.23044E-003,0.00000E+000,1.42831E-003,9.49741E-001,0.00000E+000,-2.58722E-003,-8.86656E-002,1.00000E+000,20
879,1307,7.34254E-001,-1.75441E+000,2.01133E-001,4.32503E+000,-4.76897E-001,2.27161E-001,4.35716E+000,1.44610E-002,4.85711E-001,0,6.58393E+001,-8.42649E+000,9.97871E-001,2.19845E+001,-4.34838E+001,9.96370E-001,1.37649E-001,-5.55013E-002,-3.44712E-003,1.37711E-001,-5.55628E-002,-1.02211E+000,1.38563E-001,1.14755E+000,-9.08152E-003,0.00000E+000,7.27153E-004,9.49726E-001,0.00000E+000,2.00704E-003,-8.85648E-002,1.00000E+000,20
879,1317,7.43741E-001,-1.15699E+000,1.11110E-001,4.32963E+000,-5.15498E-001,1.77456E-001,4.36382E+000,1.03077E-002,4.53251E-001,0,6.60825E+001,-8.93997E+000,9.98903E-001,2.20327E+001,-4.40822E+001,9.98292E-001,1.36182E-001,-5.55004E-002,-3.41731E-003,1.36243E-001,-5.55613E-002,-1.02104E+000,1.37013E-001,1.14587E+000,-9.09437E-003,0.00000E+000,9.01172E-004,9.49727E-001,0.00000E+000,8.66810E-004,-8.85735E-002,1.00000E+000,20
979,1307,8.22270E+000,-1.61136E+000,1.34629E-001,5.28274E+000,-3.95188E-001,1.08089E-001,5.29860E+000,1.62092E-002,4.56722E-001,0,8.03052E+001,-7.00002E+000,9.99475E-001,3.76482E+001,-4.01868E+001,9.99204E-001,1.30235E-001,-5.33034E-002,7.82504E-004,1.30239E-001,-5.33067E-002,2.44271E-001,1.30951E-001,1.13897E+000,-2.79311E-002,0.00000E+000,2.62214E-002,9.50548E-001,0.00000E+000,-2.13385E-002,-7.65940E-002,1.00000E+000,20
979,1317,8.20472E+000,-1.00564E+000,5.49763E-002,5.25665E+000,-4.29929E-001,5.70115E-002,5.27451E+000,9.21501E-003,4.41280E-001,0,8.00941E+001,-7.44977E+000,9.99192E-001,3.72988E+001,-4.06552E+001,9.98624E-001,1.29475E-001,-5.32927E-002,9.09013E-004,1.29479E-001,-5.32972E-002,2.84957E-001,1.30152E-001,1.13805E+000,-2.79427E-002,0.00000E+000,2.62971E-002,9.50549E-001,0.00000E+000,-1.86963E-002,-7.65605E-002,1.00000E+000,20
979,1327,8.19540E+000,-3.96746E-001,-2.11257E-003,5.23509E+000,-4.63722E-001,1.00102E-002,5.25560E+000,1.05250E-002,4.48055E-001,0,7.99335E+001,-7.91202E+000,9.98207E-001,3.71293E+001,-4.11113E+001,9.97440E-001,1.28706E-001,-5.32801E-002,1.03292E-003,1.28712E-001,-5.32859E-002,3.25186E-001,1.29345E-001,1.13713E+000,-2.79604E-002,0.00000E+000,2.63728E-002,9.50550E-001,0.00000E+000,-1.60509E-002,-7.65099E-002,1.00000E+000,20
979,1337,8.19664E+000,2.17572E-001,-3.68313E-002,5.21992E+000,-4.95130E-001,-3.31514E-002,5.24345E+000,1.39090E-002,4.44697E-001,0,7.98519E+001,-8.33701E+000,9.97427E-001,3.71690E+001,-4.15369E+001,9.96872E-001,1.27927E-001,-5.32656E-002,1.15429E-003,1.27935E-001,-5.32729E-002,3.64982E-001,1.28529E-001,1.13620E+000,-2.79840E-002,0.00000E+000,2.64488E-002,9.50552E-001,0.00000E+000,-1.33989E-002,-7.64421E-002,1.00000E+000,20
979,1347,8.20563E+000,8.42657E-001,-3.36700E-002,5.20402E+000,-5.22485E-001,-7.60169E-002,5.23074E+000,1.42933E-002,4.52558E-001,0,7.97499E+001,-8.68876E+000,9.96711E-001,3.74063E+001,-4.18750E+001,9.95844E-001,1.27137E-001,-5.32473E-002,1.27082E-003,1.27146E-001,-5.32562E-002,4.03628E-001,1.27703E-001,1.13527E+000,-2.80199E-002,0.00000E+000,2.65251E-002,9.50555E-001,0.00000E+000,-1.07313E-002,-7.63391E-002,1.00000E+000,20
979,1297,8.22517E+000,-2.20081E+000,2.21792E-001,5.29172E+000,-3.44720E-001,1.59497E-001,5.30533E+000,1.34796E-002,4.94028E-001,0,8.02480E+001,-6.32326E+000,9.99162E-001,3.77746E+001,-3.94732E+001,9.98619E-001,1.30988E-001,-5.33134E-002,6.54801E-004,1.30991E-001,-5.33157E-002,2.03561E-001,1.31743E-001,1.13989E+000,-2.79217E-002,0.00000E+000,2.61458E-002,9.50547E-001,0.00000E+000,-2.39806E-002,-7.66210E-002,1.00000E+000,20
869,1317,-5.26492E-003,-1.15739E+000,1.06136E-001,4.22901E+000,-5.11882E-001,1.67009E-001,4.26315E+000,8.12514E-003,4.68399E-001,0,6.46190E+001,-8.84573E+000,9.99083E-001,2.04656E+001,-4.41690E+001,9.98257E-001,1.36377E-001,-5.57622E-002,-3.48839E-003,1.36441E-001,-5.58255E-002,-1.03978E+000,1.37189E-001,1.14611E+000,-7.45211E-003,0.00000E+000,-7.28060E-004,9.49426E-001,0.00000E+000,2.59294E-003,-8.79278E-002,1.00000E+000,20
869,1327,7.73842E-003,-5.54662E-001,3.90244E-002,4.23068E+000,-5.50738E-001,1.09075E-001,4.26777E+000,1.12251E-002,5.33027E-001,0,6.48385E+001,-9.37200E+000,9.98520E-001,2.06201E+001,-4.46867E+001,9.97989E-001,1.35153E-001,-5.57604E-002,-3.45800E-003,1.35216E-001,-5.58230E-002,-1.03734E+000,1.35899E-001,1.14470E+000,-7.47641E-003,0.00000E+000,-5.17949E-004,9.49430E-001,0.00000E+000,1.09266E-003,-8.79537E-002,1.00000E+000,20
869,1337,2.35030E-002,5.23853E-002,1.83412E-003,4.22964E+000,-5.89041E-001,5.47384E-002,4.27081E+000,1.17649E-002,5.16502E-001,0,6.50005E+001,-9.85773E+000,9.97927E-001,2.08868E+001,-4.52435E+001,9.97610E-001,1.33922E-001,-5.57579E-002,-3.43255E-003,1.33984E-001,-5.58200E-002,-1.03641E+000,1.34603E-001,1.14329E+000,-7.51226E-003,0.00000E+000,-3.07202E-004,9.49435E-001,0.00000E+000,-4.12153E-004,-8.79920E-002,1.00000E+000,20
869,1347,4.52145E-002,6.73513E-001,-6.84185E-003,4.22935E+000,-6.16331E-001,3.79045E-003,4.27402E+000,1.49767E-002,5.00179E-001,0,6.51552E+001,-1.01915E+001,9.98468E-001,2.13127E+001,-4.56462E+001,9.98168E-001,1.32684E-001,-5.57548E-002,-3.41191E-003,1.32745E-001,-5.58165E-002,-1.03696E+000,1.33304E-001,1.14188E+000,-7.55912E-003,0.00000E+000,-9.60192E-005,9.49442E-001,0.00000E+000,-1.92007E-003,-8.80419E-002,1.00000E+000,20
869,1307,-1.01359E-002,-1.75348E+000,2.08523E-001,4.22848E+000,-4.71919E-001,2.26670E-001,4.26077E+000,1.17176E-002,5.02416E-001,0,6.44056E+001,-8.34338E+000,9.98211E-001,2.05176E+001,-4.35731E+001,9.97293E-001,1.37592E-001,-5.57630E-002,-3.52500E-003,1.37656E-001,-5.58273E-002,-1.04408E+000,1.38472E-001,1.14751E+000,-7.44260E-003,0.00000E+000,-9.37118E-004,9.49425E-001,0.00000E+000,4.08568E-003,-8.79177E-002,1.00000E+000,20
989,1307,8.96207E+000,-1.57862E+000,1.22092E-001,5.36530E+000,-3.69416E-001,8.49427E-002,5.37867E+000,1.28565E-002,4.79350E-001,0,8.15739E+001,-6.57313E+000,9.98758E-001,3.90845E+001,-3.95484E+001,9.98114E-001,1.29510E-001,-5.32066E-002,6.67073E-004,1.29513E-001,-5.32090E-002,2.09175E-001,1.30197E-001,1.13809E+000,-2.87720E-002,0.00000E+000,2.65515E-002,9.50448E-001,0.00000E+000,-1.96112E-002,-7.40831E-002,1.00000E+000,20
989,1317,8.94045E+000,-9.70590E-001,4.00432E-002,5.33670E+000,-4.03003E-001,3.69902E-002,5.35202E+000,1.27260E-002,5.27612E-001,0,8.13154E+001,-7.01710E+000,9.99105E-001,3.86740E+001,-3.99428E+001,9.98336E-001,1.29032E-001,-5.31927E-002,8.45701E-004,1.29036E-001,-5.31967E-002,2.65901E-001,1.29696E-001,1.13749E+000,-2.87784E-002,0.00000E+000,2.67262E-002,9.50450E-001,0.00000E+000,-1.70213E-002,-7.40549E-002,1.00000E+000,20
989,1327,8.94240E+000,-3.64378E-001,-4.55229E-003,5.32433E+000,-4.41776E-001,-6.10478E-003,5.34263E+000,1.64603E-002,5.16954E-001,0,8.12819E+001,-7.54458E+000,9.98338E-001,3.87031E+001,-4.04727E+001,9.97014E-001,1.28546E-001,-5.31745E-002,1.02151E-003,1.28552E-001,-5.31803E-002,3.22065E-001,1.29189E-001,1.13690E+000,-2.87916E-002,0.00000E+000,2.69011E-002,9.50454E-001,0.00000E+000,-1.44279E-002,-7.39972E-002,1.00000E+000,20
989,1297,8.97859E+000,-2.17797E+000,2.19370E-001,5.38753E+000,-3.28597E-001,1.42557E-001,5.39943E+000,1.18925E-002,4.71186E-001,0,8.16972E+001,-6.04653E+000,9.98597E-001,3.94471E+001,-3.90323E+001,9.97749E-001,1.29981E-001,-5.32196E-002,4.88036E-004,1.29982E-001,-5.32209E-002,1.52631E-001,1.30691E-001,1.13868E+000,-2.87667E-002,0.00000E+000,2.63770E-002,9.50446E-001,0.00000E+000,-2.21970E-002,-7.41061E-002,1.00000E+000,20
989,1337,8.94315E+000,2.46318E-001,-2.73449E-002,5.30581E+000,-4.76700E-001,-4.96701E-002,5.32741E+000,1.24815E-002,4.42606E-001,0,8.11509E+001,-8.02040E+000,9.97239E-001,3.87580E+001,-4.10144E+001,9.96973E-001,1.28054E-001,-5.31534E-002,1.19476E-003,1.28062E-001,-5.31612E-002,3.77748E-001,1.28676E-001,1.13631E+000,-2.88094E-002,0.00000E+000,2.70758E-002,9.50459E-001,0.00000E+000,-1.18389E-002,-7.39195E-002,1.00000E+000,20
989,1347,8.95136E+000,8.69708E-001,-2.72903E-002,5.29123E+000,-5.03586E-001,-8.56525E-002,5.31583E+000,1.29037E-002,4.39838E-001,0,8.10468E+001,-8.39020E+000,9.98633E-001,3.89750E+001,-4.13758E+001,9.98621E-001,1.27553E-001,-5.31301E-002,1.36723E-003,1.27563E-001,-5.31404E-002,4.33524E-001,1.28153E-001,1.13571E+000,-2.88305E-002,0.00000E+000,2.72514E-002,9.50465E-001,0.00000E+000,-9.23591E-003,-7.38276E-002,1.00000E+000,20
859,1327,-7.35843E-001,-5.52920E-001,3.92456E-002,4.13534E+000,-5.44311E-001,1.04561E-001,4.17232E+000,1.05543E-002,5.42283E-001,0,6.34316E+001,-9.24987E+000,9.98068E-001,1.91535E+001,-4.47558E+001,9.97518E-001,1.35413E-001,-5.58788E-002,-3.37309E-003,1.35473E-001,-5.59383E-002,-1.00989E+000,1.36156E-001,1.14501E+000,-6.10400E-003,0.00000E+000,-1.53769E-003,9.49264E-001,0.00000E+000,1.71725E-003,-8.73326E-002,1.00000E+000,20
859,1337,-7.16794E-001,5.61418E-002,1.31910E-003,4.13788E+000,-5.79542E-001,5.01454E-002,4.17857E+000,1.20238E-002,5.37694E-001,0,6.36468E+001,-9.70543E+000,9.98072E-001,1.94701E+001,-4.52752E+001,9.97269E-001,1.34463E-001,-5.58782E-002,-3.37556E-003,1.34523E-001,-5.59381E-002,-1.01567E+000,1.35157E-001,1.14392E+000,-6.13124E-003,0.00000E+000,-1.37451E-003,9.49269E-001,0.00000E+000,1.20818E-005,-8.73752E-002,1.00000E+000,20
859,1347,-6.94744E-001,6.69504E-001,-6.65735E-003,4.13747E+000,-6.14873E-001,-3.19776E-003,4.18291E+000,1.62508E-002,4.89717E-001,0,6.38088E+001,-1.01417E+001,9.98830E-001,1.99031E+001,-4.58168E+001,9.98311E-001,1.33506E-001,-5.58775E-002,-3.38232E-003,1.33566E-001,-5.59379E-002,-1.02285E+000,1.34152E-001,1.14282E+000,-6.16822E-003,0.00000E+000,-1.21072E-003,9.49274E-001,0.00000E+000,-1.69947E-003,-8.74330E-002,1.00000E+000,20
859,1307,-7.55089E-001,-1.75007E+000,2.10459E-001,4.13136E+000,-4.66078E-001,2.22799E-001,4.16353E+000,1.44699E-002,5.83653E-001,0,6.29718E+001,-8.24267E+000,9.98537E-001,1.90345E+001,-4.35807E+001,9.98014E-001,1.37292E-001,-5.58794E-002,-3.38077E-003,1.37351E-001,-5.59385E-002,-1.00235E+000,1.38136E-001,1.14718E+000,-6.07853E-003,0.00000E+000,-1.86220E-003,9.49261E-001,0.00000E+000,5.10829E-003,-8.72927E-002,1.00000E+000,20
859,1317,-7.45409E-001,-1.15978E+000,1.06846E-001,4.13669E+000,-5.11245E-001,1.61612E-001,4.17130E+000,1.16850E-002,5.07247E-001,0,6.32643E+001,-8.80792E+000,9.98271E-001,1.90522E+001,-4.42858E+001,9.96864E-001,1.36356E-001,-5.58792E-002,-3.37461E-003,1.36415E-001,-5.59384E-002,-1.00539E+000,1.37149E-001,1.14609E+000,-6.08589E-003,0.00000E+000,-1.70024E-003,9.49262E-001,0.00000E+000,3.41578E-003,-8.73042E-002,1.00000E+000,20
999,1337,9.68550E+000,2.69962E-001,-3.46886E-002,5.39317E+000,-4.57491E-001,-5.62672E-002,5.41283E+000,1.05951E-002,3.96798E-001,0,8.24397E+001,-7.72341E+000,9.99344E-001,4.02528E+001,-4.05564E+001,9.98709E-001,1.28000E-001,-5.30979E-002,1.04408E-003,1.28006E-001,-5.31039E-002,3.30311E-001,1.28623E-001,1.13622E+000,-2.92284E-002,0.00000E+000,2.69855E-002,9.50317E-001,0.00000E+000,-9.94216E-003,-7.11083E-002,1.00000E+000,20
999,1347,9.69864E+000,8.95095E-001,-2.53541E-002,5.38108E+000,-4.85781E-001,-9.27517E-002,5.40376E+000,9.34826E-003,4.03816E-001,0,8.23746E+001,-8.09649E+000,9.99461E-001,4.05630E+001,-4.09041E+001,9.98959E-001,1.27763E-001,-5.30742E-002,1.21604E-003,1.27772E-001,-5.30824E-002,3.85262E-001,1.28379E-001,1.13593E+000,-2.92395E-002,0.00000E+000,2.71684E-002,9.50324E-001,0.00000E+000,-7.57078E-003,-7.10164E-002,1.00000E+000,20
999,1307,9.70703E+000,-1.55091E+000,1.16685E-001,5.45302E+000,-3.48746E-001,6.91519E-002,5.46460E+000,8.44079E-003,4.64151E-001,0,8.28951E+001,-6.22184E+000,9.99125E-001,4.06256E+001,-3.90214E+001,9.98726E-001,1.28670E-001,-5.31475E-002,5.24555E-004,1.28672E-001,-5.31490E-002,1.65300E-001,1.29319E-001,1.13707E+000,-2.92114E-002,0.00000E+000,2.64417E-002,9.50306E-001,0.00000E+000,-1.69899E-002,-7.12479E-002,1.00000E+000,20
999,1317,9.69085E+000,-9.45426E-001,3.67872E-002,5.42948E+000,-3.84502E-001,2.18621E-002,5.44312E+000,1.44481E-002,5.15128E-001,0,8.27129E+001,-6.71561E+000,9.98335E-001,4.03034E+001,-3.94559E+001,9.95262E-001,1.28453E-001,-5.31340E-002,6.98893E-004,1.28455E-001,-5.31367E-002,2.20516E-001,1.29092E-001,1.13679E+000,-2.92147E-002,0.00000E+000,2.66229E-002,9.50308E-001,0.00000E+000,-1.46412E-002,-7.12210E-002,1.00000E+000,20
999,1327,9.68891E+000,-3.44869E-001,-1.09834E-002,5.41467E+000,-4.27621E-001,-1.75871E-002,5.43156E+000,1.61131E-002,5.09213E-001,0,8.26332E+001,-7.32925E+000,9.98628E-001,4.02646E+001,-4.00629E+001,9.96979E-001,1.28229E-001,-5.31174E-002,8.72196E-004,1.28233E-001,-5.31216E-002,2.75559E-001,1.28860E-001,1.13650E+000,-2.92204E-002,0.00000E+000,2.68043E-002,9.50312E-001,0.00000E+000,-1.22903E-002,-7.11742E-002,1.00000E+000,20
999,1297,9.72649E+000,-2.15715E+000,2.17635E-001,5.47781E+000,-3.15013E-001,1.28535E-001,5.48837E+000,9.34571E-003,4.58483E-001,0,8.30516E+001,-5.80711E+000,9.98344E-001,4.10393E+001,-3.86197E+001,9.96726E-001,1.28882E-001,-5.31598E-002,3.49847E-004,1.28883E-001,-5.31605E-002,1.10110E-001,1.29540E-001,1.13735E+000,-2.92091E-002,0.00000E+000,2.62606E-002,9.50304E-001,0.00000E+000,-1.93365E-002,-7.12674E-002,1.00000E+000,20
849,1337,-1.45928E+000,5.58709E-002,7.33639E-003,4.04268E+000,-5.76519E-001,4.82108E-002,4.08386E+000,1.43807E-002,5.63048E-001,0,6.22309E+001,-9.63207E+000,9.98722E-001,1.80387E+001,-4.53818E+001,9.98139E-001,1.34773E-001,-5.57402E-002,-3.07703E-003,1.34823E-001,-5.57898E-002,-9.25077E-001,1.35489E-001,1.14428E+000,-4.92631E-003,0.00000E+000,-1.79344E-003,9.49295E-001,0.00000E+000,-6.78173E-005,-8.61357E-002,1.00000E+000,20
849,1347,-1.44177E+000,6.65172E-001,-6.65919E-003,4.04054E+000,-6.12700E-001,1.52227E-003,4.08673E+000,1.29303E-002,4.83116E-001,0,6.23460E+001,-1.00975E+001,9.98864E-001,1.83885E+001,-4.59913E+001,9.98607E-001,1.34156E-001,-5.57398E-002,-3.08108E-003,1.34206E-001,-5.57898E-002,-9.29307E-001,1.34840E-001,1.14357E+000,-4.94726E-003,0.00000E+000,-1.64599E-003,9.49300E-001,0.00000E+000,-1.73247E-003,-8.61852E-002,1.00000E+000,20
849,1357,-1.41029E+000,1.28832E+000,2.99765E-002,4.04192E+000,-6.44627E-001,-4.52062E-002,4.09325E+000,1.07762E-002,4.87352E-001,0,6.25064E+001,-1.05098E+001,9.98970E-001,1.90734E+001,-4.64582E+001,9.98885E-001,1.33529E-001,-5.57393E-002,-3.09001E-003,1.33580E-001,-5.57897E-002,-9.35084E-001,1.34182E-001,1.14286E+000,-4.97926E-003,0.00000E+000,-1.49713E-003,9.49307E-001,0.00000E+000,-3.41299E-003,-8.62607E-002,1.00000E+000,20
849,1327,-1.47220E+000,-5.49308E-001,4.32357E-002,4.04499E+000,-5.37820E-001,9.50127E-002,4.08169E+000,1.45551E-002,5.39961E-001,0,6.21142E+001,-9.10231E+000,9.98706E-001,1.78120E+001,-4.48092E+001,9.98407E-001,1.35388E-001,-5.57404E-002,-3.07508E-003,1.35437E-001,-5.57899E-002,-9.21521E-001,1.36136E-001,1.14498E+000,-4.91003E-003,0.00000E+000,-1.94087E-003,9.49292E-001,0.00000E+000,1.59653E-003,-8.60973E-002,1.00000E+000,20
1009,1337,1.04347E+001,3.04343E-001,-4.53138E-002,5.48857E+000,-4.29900E-001,-5.84910E-002,5.50569E+000,1.47423E-002,4.27374E-001,0,8.38310E+001,-7.29298E+000,9.99232E-001,4.18527E+001,-3.98861E+001,9.99092E-001,1.27889E-001,-5.30232E-002,7.77930E-004,1.27893E-001,-5.30266E-002,2.46368E-001,1.28513E-001,1.13607E+000,-2.93638E-002,0.00000E+000,2.64558E-002,9.50240E-001,0.00000E+000,-8.08192E-003,-6.87192E-002,1.00000E+000,20
1009,1347,1.04428E+001,9.11127E-001,-3.05710E-002,5.46924E+000,-4.76151E-001,-9.86767E-002,5.49081E+000,9.49062E-003,3.88049E-001,0,8.36751E+001,-7.94135E+000,9.99707E-001,4.20913E+001,-4.05517E+001,9.99419E-001,1.27867E-001,-5.30041E-002,9.15579E-004,1.27871E-001,-5.30087E-002,2.90025E-001,1.28492E-001,1.13603E+000,-2.93654E-002,0.00000E+000,2.65887E-002,9.50245E-001,0.00000E+000,-6.06355E-003,-6.86342E-002,1.00000E+000,20
1009,1297,1.04690E+001,-2.13564E+000,2.07215E-001,5.56385E+000,-2.98759E-001,1.12678E-001,5.57300E+000,1.19916E-002,4.01643E-001,0,8.43469E+001,-5.51658E+000,9.97456E-001,4.25363E+001,-3.82011E+001,9.96175E-001,1.27939E-001,-5.30698E-002,2.27901E-004,1.27940E-001,-5.30701E-002,7.21386E-002,1.28557E-001,1.13622E+000,-2.93614E-002,0.00000E+000,2.59280E-002,9.50231E-001,0.00000E+000,-1.60984E-002,-6.88462E-002,1.00000E+000,20
1009,1307,1.04536E+001,-1.52744E+000,1.13567E-001,5.54307E+000,-3.29994E-001,6.06446E-002,5.55322E+000,1.21534E-002,4.19205E-001,0,8.42254E+001,-5.92680E+000,9.98449E-001,4.22003E+001,-3.85796E+001,9.98270E-001,1.27933E-001,-5.30603E-002,3.65338E-004,1.27934E-001,-5.30610E-002,1.15652E-001,1.28552E-001,1.13618E+000,-2.93617E-002,0.00000E+000,2.60596E-002,9.50233E-001,0.00000E+000,-1.40997E-002,-6.88295E-002,1.00000E+000,20
1009,1317,1.04432E+001,-9.21423E-001,4.04697E-002,5.52492E+000,-3.65314E-001,1.89293E-002,5.53702E+000,1.19949E-002,4.47272E-001,0,8.41057E+001,-6.42028E+000,9.98781E-001,4.19806E+001,-3.90294E+001,9.98587E-001,1.27922E-001,-5.30498E-002,5.02852E-004,1.27924E-001,-5.30512E-002,1.59201E-001,1.28543E-001,1.13615E+000,-2.93622E-002,0.00000E+000,2.61914E-002,9.50234E-001,0.00000E+000,-1.20975E-002,-6.88056E-002,1.00000E+000,20
849,1317,-1.48913E+000,-1.15044E+000,1.13666E-001,4.04024E+000,-4.97976E-001,1.61479E-001,4.07401E+000,1.54944E-002,5.87404E-001,0,6.18222E+001,-8.62158E+000,9.98324E-001,1.76043E+001,-4.42147E+001,9.97296E-001,1.35997E-001,-5.57406E-002,-3.07458E-003,1.36046E-001,-5.57899E-002,-9.18443E-001,1.36778E-001,1.14568E+000,-4.89698E-003,0.00000E+000,-2.08787E-003,9.49289E-001,0.00000E+000,3.25599E-003,-8.60665E-002,1.00000E+000,20
1009,1327,1.04374E+001,-3.12896E-001,-9.39577E-003,5.50449E+000,-4.02414E-001,-2.97964E-002,5.51926E+000,1.15837E-002,4.40792E-001,0,8.39716E+001,-6.90945E+000,9.99270E-001,4.18784E+001,-3.95078E+001,9.99068E-001,1.27908E-001,-5.30362E-002,6.40519E-004,1.27910E-001,-5.30385E-002,2.02816E-001,1.28530E-001,1.13611E+000,-2.93630E-002,0.00000E+000,2.63237E-002,9.50237E-001,0.00000E+000,-1.00890E-002,-6.87602E-002,1.00000E+000,20
849,1307,-1.50275E+000,-1.74783E+000,2.12030E-001,4.03096E+000,-4.59155E-001,2.17568E-001,4.06285E+000,1.66385E-002,5.78976E-001,0,6.14895E+001,-8.11586E+000,9.98394E-001,1.75139E+001,-4.36490E+001,9.97606E-001,1.36601E-001,-5.57407E-002,-3.07764E-003,1.36650E-001,-5.57900E-002,-9.16471E-001,1.37415E-001,1.14639E+000,-4.89221E-003,0.00000E+000,-2.23437E-003,9.49288E-001,0.00000E+000,4.90989E-003,-8.60553E-002,1.00000E+000,20
839,1337,-2.20201E+000,4.78696E-002,3.32983E-002,3.94656E+000,-5.79487E-001,6.47051E-002,3.98941E+000,2.75318E-002,5.47391E-001,0,6.07411E+001,-9.70267E+000,9.98821E-001,1.66541E+001,-4.56718E+001,9.98155E-001,1.34850E-001,-5.57855E-002,-2.61576E-003,1.34886E-001,-5.58214E-002,-7.85970E-001,1.35552E-001,1.14437E+000,-3.91642E-003,0.00000E+000,-1.70561E-003,9.49119E-001,0.00000E+000,-5.88982E-004,-8.45107E-002,1.00000E+000,20
839,1347,-2.18554E+000,6.58859E-001,-1.51822E-003,3.94548E+000,-6.12729E-001,6.69894E-003,3.99278E+000,1.05273E-002,4.92636E-001,0,6.09084E+001,-1.01045E+001,9.98965E-001,1.69404E+001,-4.61994E+001,9.98724E-001,1.34422E-001,-5.57847E-002,-2.60724E-003,1.34458E-001,-5.58204E-002,-7.85181E-001,1.35102E-001,1.14388E+000,-3.92947E-003,0.00000E+000,-1.54397E-003,9.49123E-001,0.00000E+000,-2.26031E-003,-8.45554E-002,1.00000E+000,20
839,1357,-2.15358E+000,1.28589E+000,2.80993E-002,3.94847E+000,-6.39798E-001,-4.27302E-002,4.00020E+000,8.62678E-003,4.81126E-001,0,6.11006E+001,-1.04291E+001,9.99198E-001,1.76195E+001,-4.66005E+001,9.99018E-001,1.33987E-001,-5.57834E-002,-2.60238E-003,1.34022E-001,-5.58191E-002,-7.85519E-001,1.34644E-001,1.14339E+000,-3.95093E-003,0.00000E+000,-1.38078E-003,9.49130E-001,0.00000E+000,-3.94754E-003,-8.46289E-002,1.00000E+000,20
1019,1337,1.11892E+001,3.32359E-001,-3.46075E-002,5.58273E+000,-4.12151E-001,-6.59821E-002,5.59831E+000,1.25867E-002,4.89112E-001,0,8.52187E+001,-7.02485E+000,9.99110E-001,4.35793E+001,-3.93451E+001,9.99013E-001,1.27768E-001,-5.29895E-002,5.07903E-004,1.27770E-001,-5.29910E-002,1.60991E-001,1.28388E-001,1.13592E+000,-2.94374E-002,0.00000E+000,2.58824E-002,9.50184E-001,0.00000E+000,-6.28455E-003,-6.71631E-002,1.00000E+000,20
1019,1347,1.11892E+001,9.39006E-001,-3.36915E-002,5.56089E+000,-4.55695E-001,-9.48098E-002,5.58034E+000,1.09278E-002,4.28218E-001,0,8.49884E+001,-7.63677E+000,9.99426E-001,4.36639E+001,-3.99926E+001,9.99285E-001,1.27896E-001,-5.29748E-002,6.33767E-004,1.27899E-001,-5.29771E-002,2.00759E-001,1.28525E-001,1.13606E+000,-2.94327E-002,0.00000E+000,2.60022E-002,9.50188E-001,0.00000E+000,-4.50450E-003,-6.71034E-002,1.00000E+000,20
839,1327,-2.22861E+000,-5.49182E-001,4.56217E-002,3.93955E+000,-5.30299E-001,1.10019E-001,3.97660E+000,2.55416E-002,5.58901E-001,0,6.04864E+001,-9.01349E+000,9.99042E-001,1.61618E+001,-4.49052E+001,9.98339E-001,1.35277E-001,-5.57864E-002,-2.62373E-003,1.35313E-001,-5.58224E-002,-7.86603E-001,1.36001E-001,1.14486E+000,-3.90187E-003,0.00000E+000,-1.86760E-003,9.49114E-001,0.00000E+000,1.08586E-003,-8.44609E-002,1.00000E+000,20
1019,1327,1.11859E+001,-2.89035E-001,-1.47692E-002,5.59772E+000,-3.84811E-001,-3.20875E-002,5.61103E+000,1.25004E-002,4.48033E-001,0,8.53300E+001,-6.63797E+000,9.98947E-001,4.34826E+001,-3.90254E+001,9.98672E-001,1.27637E-001,-5.30029E-002,3.82246E-004,1.27638E-001,-5.30037E-002,1.21241E-001,1.28248E-001,1.13578E+000,-2.94413E-002,0.00000E+000,2.57626E-002,9.50180E-001,0.00000E+000,-8.06384E-003,-6.72130E-002,1.00000E+000,20
1019,1317,1.11912E+001,-9.01910E-001,3.47789E-002,5.61404E+000,-3.53066E-001,2.18605E-004,5.62513E+000,1.33344E-002,4.38244E-001,0,8.54591E+001,-6.20314E+000,9.99078E-001,4.35757E+001,-3.86236E+001,9.98473E-001,1.27503E-001,-5.30134E-002,2.57465E-004,1.27504E-001,-5.30138E-002,8.17190E-002,1.28105E-001,1.13564E+000,-2.94436E-002,0.00000E+000,2.56431E-002,9.50178E-001,0.00000E+000,-9.83829E-003,-6.72432E-002,1.00000E+000,20
839,1317,-2.23565E+000,-1.14912E+000,1.11398E-001,3.94048E+000,-4.90896E-001,1.51538E-001,3.97383E+000,1.28117E-002,5.41559E-001,0,6.03612E+001,-8.47662E+000,9.98365E-001,1.60965E+001,-4.43116E+001,9.96770E-001,1.35698E-001,-5.57868E-002,-2.63539E-003,1.35734E-001,-5.58231E-002,-7.88358E-001,1.36445E-001,1.14534E+000,-3.89590E-003,0.00000E+000,-2.02882E-003,9.49112E-001,0.00000E+000,2.75275E-003,-8.44404E-002,1.00000E+000,20
1019,1297,1.12101E+001,-2.11166E+000,1.87406E-001,5.64935E+000,-2.79712E-001,9.35002E-002,5.65704E+000,1.26583E-002,4.19850E-001,0,8.56448E+001,-5.20546E+000,9.99032E-001,4.39975E+001,-3.76871E+001,9.98315E-001,1.27227E-001,-5.30323E-002,8.91534E-006,1.27227E-001,-5.30323E-002,2.83377E-003,1.27812E-001,1.13537E+000,-2.94471E-002,0.00000E+000,2.54049E-002,9.50175E-001,0.00000E+000,-1.33755E-002,-6.72880E-002,1.00000E+000,20
1019,1307,1.11951E+001,-1.50594E+000,9.73756E-002,5.62819E+000,-3.15709E-001,4.19940E-002,5.63720E+000,1.65763E-002,4.73827E-001,0,8.55182E+001,-5.68348E+000,9.99142E-001,4.36749E+001,-3.80913E+001,9.98443E-001,1.27367E-001,-5.30236E-002,1.33207E-004,1.27367E-001,-5.30237E-002,4.23094E-002,1.27960E-001,1.13551E+000,-2.94458E-002,0.00000E+000,2.55242E-002,9.50176E-001,0.00000E+000,-1.16046E-002,-6.72711E-002,1.00000E+000,20
839,1307,-2.24172E+000,-1.74414E+000,2.10919E-001,3.93823E+000,-4.49874E-001,2.06462E-001,3.96922E+000,1.09342E-002,5.07554E-001,0,6.01404E+001,-7.92829E+000,9.98235E-001,1.61264E+001,-4.37217E+001,9.96377E-001,1.36115E-001,-5.57870E-002,-2.64834E-003,1.36152E-001,-5.58235E-002,-7.90508E-001,1.36885E-001,1.14583E+000,-3.89297E-003,0.00000E+000,-2.18955E-003,9.49111E-001,0.00000E+000,4.41461E-003,-8.44304E-002,1.00000E+000,20
829,1337,-2.94762E+000,4.75002E-002,1.60941E-002,3.85039E+000,-5.71985E-001,5.38251E-002,3.89302E+000,2.00339E-002,5.45205E-001,0,5.93354E+001,-9.56543E+000,9.98002E-001,1.51301E+001,-4.57440E+001,9.97192E-001,1.34531E-001,-5.57666E-002,-2.13760E-003,1.34555E-001,-5.57906E-002,-6.43492E-001,1.35207E-001,1.14400E+000,-3.17092E-003,0.00000E+000,-1.35561E-003,9.49025E-001,0.00000E+000,-1.27300E-003,-8.31210E-002,1.00000E+000,20
829,1347,-2.92618E+000,6.58901E-001,6.66057E-003,3.85185E+000,-6.07953E-001,8.66785E-003,3.89954E+000,9.91552E-003,5.08949E-001,0,5.94987E+001,-1.00236E+001,9.97966E-001,1.55539E+001,-4.63126E+001,9.97997E-001,1.34241E-001,-5.57697E-002,-2.19142E-003,1.34266E-001,-5.57950E-002,-6.60683E-001,1.34903E-001,1.14367E+000,-3.18094E-003,0.00000E+000,-1.31025E-003,9.49027E-001,0.00000E+000,-3.04114E-003,-8.31749E-002,1.00000E+000,20
829,1357,-2.89770E+000,1.28327E+000,2.99645E-002,3.85301E+000,-6.36561E-001,-4.00484E-002,3.90545E+000,9.61736E-003,5.13921E-001,0,5.96614E+001,-1.03794E+001,9.98787E-001,1.61661E+001,-4.67348E+001,9.98957E-001,1.33945E-001,-5.57739E-002,-2.24720E-003,1.33972E-001,-5.58006E-002,-6.78535E-001,1.34593E-001,1.14334E+000,-3.19462E-003,0.00000E+000,-1.26468E-003,9.49028E-001,0.00000E+000,-4.81806E-003,-8.32486E-002,1.00000E+000,20
1029,1337,1.19235E+001,3.49590E-001,-4.43946E-002,5.66212E+000,-3.99406E-001,-6.86628E-002,5.67660E+000,1.11366E-002,4.69651E-001,0,8.63699E+001,-6.83496E+000,9.98626E-001,4.49566E+001,-3.89691E+001,9.98295E-001,1.27763E-001,-5.27851E-002,3.04467E-004,1.27763E-001,-5.27856E-002,9.66206E-002,1.28404E-001,1.13591E+000,-2.93059E-002,0.00000E+000,2.52725E-002,9.50313E-001,0.00000E+000,-4.48536E-003,-6.59199E-002,1.00000E+000,20
1029,1347,1.19257E+001,9.69426E-001,-4.48766E-002,5.64140E+000,-4.31567E-001,-1.02705E-001,5.65881E+000,1.04132E-002,4.85547E-001,0,8.61712E+001,-7.28257E+000,9.99029E-001,4.50722E+001,-3.93692E+001,9.98518E-001,1.28007E-001,-5.27704E-002,4.31542E-004,1.28008E-001,-5.27714E-002,1.36772E-001,1.28664E-001,1.13618E+000,-2.92962E-002,0.00000E+000,2.54000E-002,9.50317E-001,0.00000E+000,-2.86604E-003,-6.58632E-002,1.00000E+000,20
1029,1327,1.19294E+001,-2.66467E-001,-1.24718E-002,5.68375E+000,-3.67581E-001,-3.42602E-002,5.69573E+000,1.22690E-002,4.40502E-001,0,8.65751E+001,-6.39558E+000,9.98723E-001,4.50268E+001,-3.85879E+001,9.98244E-001,1.27516E-001,-5.27971E-002,1.78889E-004,1.27516E-001,-5.27973E-002,5.68432E-002,1.28142E-001,1.13564E+000,-2.93125E-002,0.00000E+000,2.51454E-002,9.50310E-001,0.00000E+000,-6.10019E-003,-6.59588E-002,1.00000E+000,20
829,1327,-2.96932E+000,-5.51016E-001,4.23114E-002,3.84428E+000,-5.27004E-001,9.40776E-002,3.88138E+000,1.90601E-002,5.76075E-001,0,5.91103E+001,-8.94404E+000,9.98737E-001,1.47446E+001,-4.50182E+001,9.98353E-001,1.34818E-001,-5.57642E-002,-2.08503E-003,1.34840E-001,-5.57870E-002,-6.26734E-001,1.35508E-001,1.14433E+000,-3.16310E-003,0.00000E+000,-1.40079E-003,9.49024E-001,0.00000E+000,4.88475E-004,-8.30788E-002,1.00000E+000,20
829,1307,-2.97258E+000,-1.75104E+000,2.32696E-001,3.85331E+000,-4.51891E-001,2.18746E-001,3.88588E+000,1.33033E-002,4.55338E-001,0,5.88375E+001,-7.96569E+000,9.98549E-001,1.49208E+001,-4.39958E+001,9.96398E-001,1.35379E-001,-5.57621E-002,-1.98451E-003,1.35399E-001,-5.57827E-002,-5.94785E-001,1.36097E-001,1.14498E+000,-3.15686E-003,0.00000E+000,-1.49076E-003,9.49023E-001,0.00000E+000,3.99595E-003,-8.30453E-002,1.00000E+000,20
829,1317,-2.97595E+000,-1.15170E+000,1.18547E-001,3.84688E+000,-4.88199E-001,1.52781E-001,3.88074E+000,1.52768E-002,5.01186E-001,0,5.89578E+001,-8.41645E+000,9.98408E-001,1.47105E+001,-4.44853E+001,9.97747E-001,1.35100E-001,-5.57627E-002,-2.03402E-003,1.35122E-001,-5.57844E-002,-6.10508E-001,1.35804E-001,1.14465E+000,-3.15844E-003,0.00000E+000,-1.44584E-003,9.49023E-001,0.00000E+000,2.24470E-003,-8.30537E-002,1.00000E+000,20
1029,1317,1.19355E+001,-8.82859E-001,3.18478E-002,5.70123E+000,-3.40805E-001,-5.98115E-003,5.71142E+000,1.28894E-002,4.36843E-001,0,8.67380E+001,-6.00292E+000,9.99256E-001,4.51233E+001,-3.82277E+001,9.98372E-001,1.27267E-001,-5.28075E-002,5.46138E-005,1.27267E-001,-5.28075E-002,1.73769E-002,1.27880E-001,1.13536E+000,-2.93173E-002,0.00000E+000,2.50189E-002,9.50307E-001,0.00000E+000,-7.70671E-003,-6.59870E-002,1.00000E+000,20
1029,1307,1.19457E+001,-1.48610E+000,1.11308E-001,5.72024E+000,-3.02739E-001,4.63097E-002,5.72843E+000,1.12785E-002,4.95863E-001,0,8.68292E+001,-5.51581E+000,9.99351E-001,4.53509E+001,-3.77083E+001,9.97507E-001,1.27017E-001,-5.28169E-002,-6.90963E-005,1.27017E-001,-5.28169E-002,-2.20144E-002,1.27615E-001,1.13509E+000,-2.93210E-002,0.00000E+000,2.48926E-002,9.50306E-001,0.00000E+000,-9.31066E-003,-6.60089E-002,1.00000E+000,20
1029,1297,1.19585E+001,-2.08817E+000,1.95566E-001,5.73965E+000,-2.63078E-001,9.37893E-002,5.74644E+000,1.07428E-002,4.64863E-001,0,8.69418E+001,-4.97618E+000,9.99100E-001,4.56284E+001,-3.72255E+001,9.97741E-001,1.26763E-001,-5.28255E-002,-1.92717E-004,1.26763E-001,-5.28257E-002,-6.14842E-002,1.27348E-001,1.13482E+000,-2.93238E-002,0.00000E+000,2.47661E-002,9.50304E-001,0.00000E+000,-1.09175E-002,-6.60253E-002,1.00000E+000,20
819,1317,-3.71338E+000,-1.16066E+000,1.30198E-001,3.75500E+000,-4.92674E-001,1.54885E-001,3.79035E+000,1.47898E-002,4.86336E-001,0,5.75781E+001,-8.47878E+000,9.98130E-001,1.33831E+001,-4.47542E+001,9.96806E-001,1.34144E-001,-5.55643E-002,-1.56359E-003,1.34157E-001,-5.55771E-002,-4.72193E-001,1.34813E-001,1.14356E+000,-2.84735E-003,0.00000E+000,-7.47262E-004,9.49074E-001,0.00000E+000,1.55151E-003,-8.12888E-002,1.00000E+000,20
819,1327,-3.70935E+000,-5.61556E-001,5.03170E-002,3.75210E+000,-5.30990E-001,1.03460E-001,3.79090E+000,1.47243E-002,5.06680E-001,0,5.77028E+001,-8.99159E+000,9.98607E-001,1.33684E+001,-4.53332E+001,9.97476E-001,1.33967E-001,-5.55667E-002,-1.66575E-003,1.33981E-001,-5.55813E-002,-5.03503E-001,1.34627E-001,1.14335E+000,-2.84956E-003,0.00000E+000,-8.13988E-004,9.49073E-001,0.00000E+000,-8.50468E-005,-8.13065E-002,1.00000E+000,20
819,1337,-3.69158E+000,4.66862E-002,1.25252E-002,3.75508E+000,-5.66508E-001,5.50389E-002,3.79797E+000,1.19576E-002,5.44228E-001,0,5.79023E+001,-9.46630E+000,9.98219E-001,1.36679E+001,-4.58522E+001,9.97812E-001,1.33785E-001,-5.55715E-002,-1.76963E-003,1.33802E-001,-5.55881E-002,-5.35394E-001,1.34438E-001,1.14315E+000,-2.85425E-003,0.00000E+000,-8.81110E-004,9.49072E-001,0.00000E+000,-1.73133E-003,-8.13440E-002,1.00000E+000,20
819,1307,-3.71827E+000,-1.75730E+000,2.16594E-001,3.75400E+000,-4.55267E-001,1.97668E-001,3.78667E+000,1.41084E-002,5.02780E-001,0,5.74189E+001,-7.96005E+000,9.98430E-001,1.34008E+001,-4.41323E+001,9.97076E-001,1.34319E-001,-5.55628E-002,-1.46225E-003,1.34330E-001,-5.55740E-002,-4.41192E-001,1.34995E-001,1.14376E+000,-2.84610E-003,0.00000E+000,-6.80786E-004,9.49074E-001,0.00000E+000,3.18193E-003,-8.12788E-002,1.00000E+000,20
819,1347,-3.66599E+000,6.63599E-001,8.26352E-003,3.76047E+000,-5.97300E-001,1.31782E-002,3.80764E+000,1.12238E-002,5.35724E-001,0,5.81130E+001,-9.86125E+000,9.98793E-001,1.41703E+001,-4.63344E+001,9.98853E-001,1.33600E-001,-5.55780E-002,-1.87468E-003,1.33619E-001,-5.55966E-002,-5.67704E-001,1.34245E-001,1.14294E+000,-2.86064E-003,0.00000E+000,-9.48461E-004,9.49070E-001,0.00000E+000,-3.38322E-003,-8.13951E-002,1.00000E+000,20
819,1357,-3.63959E+000,1.27550E+000,3.69135E-002,3.75922E+000,-6.38351E-001,-3.29952E-002,3.81318E+000,1.38028E-002,5.24402E-001,0,5.82332E+001,-1.04107E+001,9.98486E-001,1.47631E+001,-4.69709E+001,9.98454E-001,1.33412E-001,-5.55869E-002,-1.98134E-003,1.33433E-001,-5.56077E-002,-6.00563E-001,1.34048E-001,1.14273E+000,-2.86938E-003,0.00000E+000,-1.01611E-003,9.49067E-001,0.00000E+000,-5.04236E-003,-8.14650E-002,1.00000E+000,20
1039,1337,1.26691E+001,3.72781E-001,-5.13277E-002,5.75074E+000,-3.83060E-001,-7.53397E-002,5.76398E+000,1.03915E-002,4.82159E-001,0,8.76710E+001,-6.57742E+000,9.98944E-001,4.65198E+001,-3.84899E+001,9.97974E-001,1.27793E-001,-5.24904E-002,-6.47326E-005,1.27793E-001,-5.24904E-002,-2.05727E-002,1.28469E-001,1.13594E+000,-2.92283E-002,0.00000E+000,2.43990E-002,9.50558E-001,0.00000E+000,-2.71664E-003,-6.50370E-002,1.00000E+000,20
1039,1347,1.26697E+001,9.82087E-001,-4.64429E-002,5.72871E+000,-4.23672E-001,-1.02241E-001,5.74527E+000,9.97790E-003,4.16058E-001,0,8.74306E+001,-7.16217E+000,9.99423E-001,4.66177E+001,-3.91043E+001,9.98936E-001,1.28138E-001,-5.24819E-002,1.60532E-005,1.28138E-001,-5.24819E-002,5.09236E-003,1.28835E-001,1.13633E+000,-2.92147E-002,0.00000E+000,2.44435E-002,9.50559E-001,0.00000E+000,-1.25377E-003,-6.49865E-002,1.00000E+000,20
1039,1317,1.26773E+001,-8.54110E-001,2.79506E-002,5.78720E+000,-3.16832E-001,-5.86470E-003,5.79587E+000,1.03057E-002,4.26381E-001,0,8.79700E+001,-5.64653E+000,9.99053E-001,4.66359E+001,-3.76844E+001,9.98269E-001,1.27095E-001,-5.25038E-002,-2.22091E-004,1.27095E-001,-5.25041E-002,-7.08516E-002,1.27733E-001,1.13516E+000,-2.92452E-002,0.00000E+000,2.43101E-002,9.50556E-001,0.00000E+000,-5.63942E-003,-6.51002E-002,1.00000E+000,20
1039,1327,1.26735E+001,-2.45413E-001,-1.90718E-002,5.77116E+000,-3.51669E-001,-3.99067E-002,5.78200E+000,9.72978E-003,4.20864E-001,0,8.78534E+001,-6.15169E+000,9.99045E-001,4.65677E+001,-3.81605E+001,9.98253E-001,1.27444E-001,-5.24975E-002,-1.44145E-004,1.27444E-001,-5.24976E-002,-4.58979E-002,1.28101E-001,1.13555E+000,-2.92379E-002,0.00000E+000,2.43544E-002,9.50557E-001,0.00000E+000,-4.18352E-003,-6.50729E-002,1.00000E+000,20
1039,1307,1.26886E+001,-1.46495E+000,9.22811E-002,5.80785E+000,-2.85570E-001,3.31809E-002,5.81496E+000,1.06736E-002,4.31935E-001,0,8.81367E+001,-5.21376E+000,9.99005E-001,4.68520E+001,-3.72787E+001,9.98109E-001,1.26744E-001,-5.25094E-002,-2.99320E-004,1.26745E-001,-5.25099E-002,-9.56730E-002,1.27364E-001,1.13477E+000,-2.92509E-002,0.00000E+000,2.42659E-002,9.50555E-001,0.00000E+000,-7.09413E-003,-6.51211E-002,1.00000E+000,20
1039,1297,1.27032E+001,-2.07079E+000,1.79289E-001,5.82851E+000,-2.50182E-001,8.09407E-002,5.83444E+000,1.09501E-002,4.25419E-001,0,8.82668E+001,-4.74700E+000,9.98455E-001,4.71611E+001,-3.68496E+001,9.97805E-001,1.26391E-001,-5.25144E-002,-3.75800E-004,1.26392E-001,-5.25151E-002,-1.20352E-001,1.26992E-001,1.13438E+000,-2.92545E-002,0.00000E+000,2.42217E-002,9.50555E-001,0.00000E+000,-8.54918E-003,-6.51349E-002,1.00000E+000,20
1049,1337,1.34222E+001,3.95274E-001,-5.26332E-002,5.84572E+000,-3.65384E-001,-7.93688E-002,5.85766E+000,1.47958E-002,4.38656E-001,0,8.90551E+001,-6.31676E+000,9.99499E-001,4.82136E+001,-3.80611E+001,9.98676E-001,1.27767E-001,-5.24226E-002,-5.66307E-004,1.27769E-001,-5.24244E-002,-1.80069E-001,1.28452E-001,1.13592E+000,-2.91112E-002,0.00000E+000,2.32628E-002,9.50572E-001,0.00000E+000,-1.34596E-003,-6.37805E-002,1.00000E+000,20
1049,1347,1.34294E+001,1.00963E+000,-3.74663E-002,5.82787E+000,-4.04879E-001,-1.05520E-001,5.84287E+000,1.19205E-002,4.53384E-001,0,8.88733E+001,-6.89185E+000,9.99376E-001,4.84319E+001,-3.85774E+001,9.98292E-001,1.28223E-001,-5.24204E-002,-5.34318E-004,1.28225E-001,-5.24220E-002,-1.69471E-001,1.28934E-001,1.13644E+000,-2.90914E-002,0.00000E+000,2.32337E-002,9.50571E-001,0.00000E+000,-3.09203E-004,-6.37410E-002,1.00000E+000,20
1049,1307,1.34393E+001,-1.44085E+000,1.00411E-001,5.89887E+000,-2.67085E-001,3.07594E-002,5.90500E+000,1.41334E-002,3.94847E-001,0,8.94503E+001,-4.93966E+000,9.99086E-001,4.85276E+001,-3.68472E+001,9.98256E-001,1.26401E-001,-5.24272E-002,-6.48641E-004,1.26403E-001,-5.24296E-002,-2.07819E-001,1.27013E-001,1.13437E+000,-2.91397E-002,0.00000E+000,2.33495E-002,9.50574E-001,0.00000E+000,-4.43204E-003,-6.38373E-002,1.00000E+000,20
1049,1317,1.34252E+001,-8.30539E-001,3.41979E-002,5.87506E+000,-2.99713E-001,-1.14522E-002,5.88272E+000,1.28106E-002,4.26427E-001,0,8.92489E+001,-5.39863E+000,9.98528E-001,4.82647E+001,-3.72373E+001,9.96992E-001,1.26856E-001,-5.24258E-002,-6.21970E-004,1.26859E-001,-5.24280E-002,-1.98769E-001,1.27493E-001,1.13488E+000,-2.91320E-002,0.00000E+000,2.33206E-002,9.50574E-001,0.00000E+000,-3.40521E-003,-6.38219E-002,1.00000E+000,20
1049,1327,1.34198E+001,-2.26165E-001,-1.96803E-002,5.86059E+000,-3.38523E-001,-3.87941E-002,5.87049E+000,8.33806E-003,4.01382E-001,0,8.91363E+001,-5.94953E+000,9.99067E-001,4.81597E+001,-3.77739E+001,9.97619E-001,1.27312E-001,-5.24244E-002,-5.95538E-004,1.27314E-001,-5.24264E-002,-1.89841E-001,1.27972E-001,1.13540E+000,-2.91248E-002,0.00000E+000,2.32918E-002,9.50573E-001,0.00000E+000,-2.37771E-003,-6.38075E-002,1.00000E+000,20
809,1347,-4.41537E+000,6.50959E-001,2.11219E-003,3.65943E+000,-6.02442E-001,1.14301E-002,3.70870E+000,9.05475E-003,5.13617E-001,0,5.66015E+001,-9.92518E+000,9.99385E-001,1.26223E+001,-4.66324E+001,9.99237E-001,1.32856E-001,-5.53581E-002,-1.58350E-003,1.32869E-001,-5.53714E-002,-4.82003E-001,1.33482E-001,1.14209E+000,-2.83796E-003,0.00000E+000,-3.98587E-004,9.49149E-001,0.00000E+000,-3.61774E-003,-7.97018E-002,1.00000E+000,20
809,1357,-4.38884E+000,1.26788E+000,3.81092E-002,3.65782E+000,-6.39331E-001,-3.09082E-002,3.71340E+000,1.12229E-002,5.17411E-001,0,5.67018E+001,-1.04169E+001,9.99107E-001,1.32382E+001,-4.72019E+001,9.98518E-001,1.32801E-001,-5.53736E-002,-1.75988E-003,1.32817E-001,-5.53900E-002,-5.35790E-001,1.33425E-001,1.14204E+000,-2.84032E-003,0.00000E+000,-6.16919E-004,9.49140E-001,0.00000E+000,-5.14764E-003,-7.97675E-002,1.00000E+000,20
809,1327,-4.45300E+000,-5.74297E-001,3.96013E-002,3.65586E+000,-5.39749E-001,9.43975E-002,3.69669E+000,1.00877E-002,5.40792E-001,0,5.62908E+001,-9.08415E+000,9.99115E-001,1.18949E+001,-4.55907E+001,9.97817E-001,1.32957E-001,-5.53389E-002,-1.23529E-003,1.32966E-001,-5.53470E-002,-3.75858E-001,1.33586E-001,1.14220E+000,-2.83510E-003,0.00000E+000,3.38314E-005,9.49161E-001,0.00000E+000,-5.87703E-004,-7.96220E-002,1.00000E+000,20
809,1337,-4.43323E+000,3.57933E-002,1.56421E-002,3.66054E+000,-5.72045E-001,5.74576E-002,3.70541E+000,7.76335E-003,5.32632E-001,0,5.64780E+001,-9.53408E+000,9.99243E-001,1.22600E+001,-4.61354E+001,9.99170E-001,1.32908E-001,-5.53475E-002,-1.40903E-003,1.32918E-001,-5.53580E-002,-4.28807E-001,1.33535E-001,1.14215E+000,-2.83637E-003,0.00000E+000,-1.82051E-004,9.49155E-001,0.00000E+000,-2.10044E-003,-7.96574E-002,1.00000E+000,20
809,1307,-4.46301E+000,-1.75957E+000,2.20639E-001,3.65665E+000,-4.52622E-001,2.03651E-001,3.69018E+000,1.70803E-002,5.64689E-001,0,5.59408E+001,-7.94329E+000,9.96252E-001,1.19492E+001,-4.42427E+001,9.94835E-001,1.33049E-001,-5.53320E-002,-8.90289E-004,1.33054E-001,-5.53362E-002,-2.70772E-001,1.33680E-001,1.14231E+000,-2.83419E-003,0.00000E+000,4.63522E-004,9.49164E-001,0.00000E+000,2.42322E-003,-7.95966E-002,1.00000E+000,20
809,1317,-4.45587E+000,-1.16699E+000,1.21179E-001,3.66011E+000,-4.95025E-001,1.48738E-001,3.69643E+000,1.55080E-002,5.38004E-001,0,5.61769E+001,-8.48810E+000,9.98730E-001,1.19333E+001,-4.49059E+001,9.97424E-001,1.33005E-001,-5.53346E-002,-1.06254E-003,1.33011E-001,-5.53406E-002,-3.23227E-001,1.33634E-001,1.14225E+000,-2.83450E-003,0.00000E+000,2.48900E-004,9.49163E-001,0.00000E+000,9.19320E-004,-7.96053E-002,1.00000E+000,20
1049,1297,1.34461E+001,-2.05444E+000,1.74798E-001,5.91429E+000,-2.38622E-001,7.61363E-002,5.91959E+000,1.15383E-002,3.78612E-001,0,8.95136E+001,-4.55549E+000,9.98572E-001,4.86929E+001,-3.65187E+001,9.97006E-001,1.25944E-001,-5.24286E-002,-6.74939E-004,1.25946E-001,-5.24311E-002,-2.16796E-001,1.26533E-001,1.13385E+000,-2.91465E-002,0.00000E+000,2.33782E-002,9.50574E-001,0.00000E+000,-5.45801E-003,-6.38508E-002,1.00000E+000,20
799,1337,-5.17594E+000,2.74042E-002,1.18346E-002,3.56545E+000,-5.73856E-001,5.75870E-002,3.61179E+000,7.98173E-003,5.09699E-001,0,5.50498E+001,-9.54190E+000,9.99388E-001,1.08244E+001,-4.63710E+001,9.99201E-001,1.31698E-001,-5.51173E-002,-1.00339E-003,1.31703E-001,-5.51227E-002,-3.07724E-001,1.32285E-001,1.14076E+000,-2.87637E-003,0.00000E+000,6.47010E-004,9.49259E-001,0.00000E+000,-2.41828E-003,-7.81212E-002,1.00000E+000,20
799,1347,-5.15728E+000,6.40055E-001,-1.43666E-003,3.56565E+000,-6.06651E-001,1.36186E-002,3.61692E+000,9.98414E-003,5.14177E-001,0,5.51872E+001,-9.98083E+000,9.99000E-001,1.12002E+001,-4.68972E+001,9.98697E-001,1.31714E-001,-5.51314E-002,-1.23747E-003,1.31723E-001,-5.51396E-002,-3.79444E-001,1.32303E-001,1.14079E+000,-2.87569E-003,0.00000E+000,2.96699E-004,9.49249E-001,0.00000E+000,-3.71825E-003,-7.81583E-002,1.00000E+000,20
799,1357,-5.12683E+000,1.26305E+000,3.67774E-002,3.56802E+000,-6.37140E-001,-2.74105E-002,3.62457E+000,1.04522E-002,5.09572E-001,0,5.53419E+001,-1.03755E+001,9.98675E-001,1.18854E+001,-4.73833E+001,9.98178E-001,1.31730E-001,-5.51524E-002,-1.47333E-003,1.31741E-001,-5.51640E-002,-4.51668E-001,1.32320E-001,1.14081E+000,-2.87466E-003,0.00000E+000,-5.63597E-005,9.49233E-001,0.00000E+000,-5.02841E-003,-7.82147E-002,1.00000E+000,20
799,1327,-5.19042E+000,-5.85538E-001,4.82297E-002,3.56552E+000,-5.43850E-001,1.04720E-001,3.60827E+000,1.56117E-002,5.28615E-001,0,5.49048E+001,-9.17373E+000,9.99377E-001,1.05695E+001,-4.58893E+001,9.98081E-001,1.31679E-001,-5.51059E-002,-7.69757E-004,1.31682E-001,-5.51091E-002,-2.36115E-001,1.32264E-001,1.14074E+000,-2.87691E-003,0.00000E+000,9.96633E-004,9.49266E-001,0.00000E+000,-1.12087E-003,-7.80920E-002,1.00000E+000,20
1059,1327,1.41671E+001,-2.08915E-001,-1.51605E-002,5.94961E+000,-3.27773E-001,-3.61192E-002,5.95874E+000,1.27691E-002,4.09992E-001,0,9.04051E+001,-5.80397E+000,9.99319E-001,4.97785E+001,-3.74154E+001,9.97903E-001,1.27324E-001,-5.25869E-002,-8.92878E-004,1.27328E-001,-5.25913E-002,-2.84344E-001,1.27968E-001,1.13543E+000,-2.85625E-002,0.00000E+000,2.21626E-002,9.50393E-001,0.00000E+000,-8.90894E-004,-6.29509E-002,1.00000E+000,20
1059,1337,1.41719E+001,4.15873E-001,-4.44873E-002,5.93669E+000,-3.51697E-001,-7.46906E-002,5.94757E+000,1.00683E-002,4.40048E-001,0,9.03454E+001,-6.12845E+000,9.99608E-001,4.98768E+001,-3.76605E+001,9.98913E-001,1.27856E-001,-5.25877E-002,-8.87400E-004,1.27860E-001,-5.25921E-002,-2.81765E-001,1.28528E-001,1.13603E+000,-2.85461E-002,0.00000E+000,2.21100E-002,9.50391E-001,0.00000E+000,-2.75093E-004,-6.29343E-002,1.00000E+000,20
1059,1347,1.41819E+001,1.03068E+000,-2.96629E-002,5.92119E+000,-3.90132E-001,-1.02210E-001,5.93491E+000,1.43630E-002,4.16732E-001,0,9.02040E+001,-6.68156E+000,9.99458E-001,5.01353E+001,-3.81863E+001,9.98252E-001,1.28389E-001,-5.25887E-002,-8.78830E-004,1.28393E-001,-5.25930E-002,-2.78221E-001,1.29090E-001,1.13664E+000,-2.85226E-002,0.00000E+000,2.20572E-002,9.50389E-001,0.00000E+000,3.42824E-004,-6.29104E-002,1.00000E+000,20
1059,1297,1.41887E+001,-2.03480E+000,1.64115E-001,6.00126E+000,-2.22097E-001,7.37203E-002,6.00582E+000,1.13672E-002,3.48866E-001,0,9.07672E+001,-4.30885E+000,9.98875E-001,5.02119E+001,-3.61154E+001,9.96556E-001,1.25729E-001,-5.25849E-002,-9.00282E-004,1.25734E-001,-5.25895E-002,-2.89268E-001,1.26293E-001,1.13362E+000,-2.85904E-002,0.00000E+000,2.23197E-002,9.50395E-001,0.00000E+000,-2.73086E-003,-6.29792E-002,1.00000E+000,20
1059,1307,1.41827E+001,-1.42468E+000,9.28140E-002,5.98665E+000,-2.53333E-001,3.13920E-002,5.99209E+000,1.30881E-002,3.48583E-001,0,9.07070E+001,-4.74870E+000,9.99197E-001,5.00654E+001,-3.65105E+001,9.98229E-001,1.26260E-001,-5.25855E-002,-8.98352E-004,1.26264E-001,-5.25901E-002,-2.87791E-001,1.26850E-001,1.13422E+000,-2.85824E-002,0.00000E+000,2.22675E-002,9.50394E-001,0.00000E+000,-2.11952E-003,-6.29711E-002,1.00000E+000,20
1059,1317,1.41691E+001,-8.16077E-001,3.24749E-002,5.96378E+000,-2.88501E-001,-2.60338E-003,5.97076E+000,1.41107E-002,3.99582E-001,0,9.04917E+001,-5.26031E+000,9.98886E-001,4.98202E+001,-3.69282E+001,9.96844E-001,1.26791E-001,-5.25862E-002,-8.96184E-004,1.26796E-001,-5.25906E-002,-2.86245E-001,1.27408E-001,1.13482E+000,-2.85738E-002,0.00000E+000,2.22151E-002,9.50394E-001,0.00000E+000,-1.50607E-003,-6.29623E-002,1.00000E+000,20
799,1307,-5.19784E+000,-1.76828E+000,2.30025E-001,3.56760E+000,-4.55685E-001,2.08840E-001,3.60264E+000,2.21196E-002,5.46712E-001,0,5.45923E+001,-7.99954E+000,9.97371E-001,1.06671E+001,-4.45023E+001,9.96925E-001,1.31637E-001,-5.50971E-002,-3.05502E-004,1.31638E-001,-5.50976E-002,-9.37368E-002,1.32219E-001,1.14069E+000,-2.87726E-003,0.00000E+000,1.69105E-003,9.49272E-001,0.00000E+000,1.45603E-003,-7.80728E-002,1.00000E+000,20
799,1317,-5.19799E+000,-1.17735E+000,1.15151E-001,3.56647E+000,-4.97936E-001,1.51993E-001,3.60427E+000,1.86356E-002,5.50773E-001,0,5.47641E+001,-8.54757E+000,9.98417E-001,1.04999E+001,-4.51459E+001,9.97076E-001,1.31659E-001,-5.50988E-002,-5.37288E-004,1.31661E-001,-5.51004E-002,-1.64833E-001,1.32242E-001,1.14072E+000,-2.87722E-003,0.00000E+000,1.34444E-003,9.49271E-001,0.00000E+000,1.69781E-004,-7.80748E-002,1.00000E+000,20
789,1327,-5.92733E+000,-5.91289E-001,5.18615E-002,3.47593E+000,-5.42806E-001,1.13588E-001,3.51989E+000,1.38887E-002,5.41832E-001,0,5.35322E+001,-9.17999E+000,9.99162E-001,9.24554E+000,-4.60798E+001,9.98163E-001,1.30443E-001,-5.48518E-002,-4.60235E-004,1.30444E-001,-5.48529E-002,-1.42310E-001,1.30992E-001,1.13933E+000,-3.04418E-003,0.00000E+000,1.75333E-003,9.49404E-001,0.00000E+000,-1.48909E-003,-7.66867E-002,1.00000E+000,20
789,1337,-5.91240E+000,2.43194E-002,1.55570E-002,3.47580E+000,-5.70405E-001,6.32121E-002,3.52286E+000,1.00801E-002,5.13376E-001,0,5.36843E+001,-9.49840E+000,9.98954E-001,9.50901E+000,-4.65272E+001,9.98721E-001,1.30545E-001,-5.48668E-002,-7.53622E-004,1.30548E-001,-5.48699E-002,-2.32879E-001,1.31099E-001,1.13945E+000,-3.04140E-003,0.00000E+000,1.27406E-003,9.49392E-001,0.00000E+000,-2.62049E-003,-7.67132E-002,1.00000E+000,20
789,1347,-5.89022E+000,6.37604E-001,5.57298E-003,3.47921E+000,-6.03597E-001,2.03144E-002,3.53124E+000,1.13849E-002,5.42407E-001,0,5.38669E+001,-9.94414E+000,9.98466E-001,9.94814E+000,-4.70400E+001,9.98009E-001,1.30645E-001,-5.48851E-002,-1.04774E-003,1.30651E-001,-5.48910E-002,-3.23550E-001,1.31206E-001,1.13957E+000,-3.03795E-003,0.00000E+000,7.93199E-004,9.49379E-001,0.00000E+000,-3.75565E-003,-7.67461E-002,1.00000E+000,20
789,1357,-5.86565E+000,1.25617E+000,3.28033E-002,3.47722E+000,-6.37323E-001,-2.51647E-002,3.53524E+000,1.02365E-002,5.38009E-001,0,5.39695E+001,-1.03785E+001,9.98202E-001,1.05174E+001,-4.75728E+001,9.97931E-001,1.30745E-001,-5.49104E-002,-1.34287E-003,1.30755E-001,-5.49201E-002,-4.14399E-001,1.31311E-001,1.13969E+000,-3.03307E-003,0.00000E+000,3.09783E-004,9.49359E-001,0.00000E+000,-4.89683E-003,-7.67926E-002,1.00000E+000,20
1069,1327,1.49155E+001,-1.93519E-001,-2.28081E-002,6.04036E+000,-3.19059E-001,-4.09212E-002,6.04892E+000,1.35351E-002,4.30777E-001,0,9.17274E+001,-5.66692E+000,9.99291E-001,5.13962E+001,-3.70531E+001,9.97264E-001,1.27359E-001,-5.25763E-002,-1.17649E-003,1.27367E-001,-5.25840E-002,-3.74600E-001,1.28010E-001,1.13548E+000,-2.80535E-002,0.00000E+000,2.11355E-002,9.50392E-001,0.00000E+000,1.50969E-004,-6.23821E-002,1.00000E+000,20
1069,1337,1.49143E+001,4.28925E-001,-4.69041E-002,6.02220E+000,-3.43491E-001,-7.06020E-002,6.03240E+000,8.71890E-003,4.08721E-001,0,9.15570E+001,-6.01619E+000,9.99435E-001,5.14093E+001,-3.73710E+001,9.98255E-001,1.27879E-001,-5.25784E-002,-1.18485E-003,1.27887E-001,-5.25862E-002,-3.76170E-001,1.28558E-001,1.13607E+000,-2.80382E-002,0.00000E+000,2.10832E-002,9.50390E-001,0.00000E+000,3.43354E-004,-6.23772E-002,1.00000E+000,20
1069,1347,1.49213E+001,1.04618E+000,-4.68825E-002,6.00531E+000,-3.79386E-001,-1.05161E-001,6.01820E+000,9.08390E-003,4.35438E-001,0,9.14223E+001,-6.52674E+000,9.99468E-001,5.15921E+001,-3.77997E+001,9.98601E-001,1.28402E-001,-5.25810E-002,-1.19059E-003,1.28410E-001,-5.25888E-002,-3.76895E-001,1.29109E-001,1.13667E+000,-2.80167E-002,0.00000E+000,2.10305E-002,9.50388E-001,0.00000E+000,5.37026E-004,-6.23702E-002,1.00000E+000,20
789,1307,-5.92965E+000,-1.77637E+000,2.27612E-001,3.48331E+000,-4.57612E-001,2.13285E-001,3.51971E+000,1.50482E-002,5.43217E-001,0,5.33189E+001,-8.02859E+000,9.98369E-001,9.40747E+000,-4.47200E+001,9.95945E-001,1.30237E-001,-5.48399E-002,1.23584E-004,1.30237E-001,-5.48399E-002,3.82590E-002,1.30777E-001,1.13909E+000,-3.04597E-003,0.00000E+000,2.70450E-003,9.49411E-001,0.00000E+000,7.56321E-004,-7.66696E-002,1.00000E+000,20
789,1317,-5.92973E+000,-1.18750E+000,1.40080E-001,3.47947E+000,-5.02935E-001,1.69367E-001,3.51971E+000,1.63865E-002,5.37116E-001,0,5.34064E+001,-8.65951E+000,9.98408E-001,9.30751E+000,-4.54604E+001,9.95149E-001,1.30341E-001,-5.48449E-002,-1.68131E-004,1.30341E-001,-5.48450E-002,-5.20193E-002,1.30885E-001,1.13921E+000,-3.04527E-003,0.00000E+000,2.22936E-003,9.49408E-001,0.00000E+000,-3.65324E-004,-7.66763E-002,1.00000E+000,20
1069,1297,1.49219E+001,-2.01712E+000,1.43915E-001,6.08018E+000,-2.07723E-001,6.93426E-002,6.08412E+000,1.46699E-002,3.65840E-001,0,9.19070E+001,-4.09455E+000,9.98028E-001,5.15721E+001,-3.57000E+001,9.95393E-001,1.25798E-001,-5.25712E-002,-1.14472E-003,1.25806E-001,-5.25785E-002,-3.67687E-001,1.26369E-001,1.13371E+000,-2.80838E-002,0.00000E+000,2.12923E-002,9.50394E-001,0.00000E+000,-4.25958E-004,-6.23920E-002,1.00000E+000,20
1069,1307,1.49184E+001,-1.40910E+000,6.88286E-002,6.06916E+000,-2.40408E-001,2.81774E-002,6.07398E+000,1.08647E-002,3.14322E-001,0,9.18993E+001,-4.53715E+000,9.99078E-001,5.14575E+001,-3.61429E+001,9.97652E-001,1.26316E-001,-5.25727E-002,-1.15666E-003,1.26324E-001,-5.25801E-002,-3.70441E-001,1.26913E-001,1.13430E+000,-2.80770E-002,0.00000E+000,2.12403E-002,9.50394E-001,0.00000E+000,-2.34620E-004,-6.23898E-002,1.00000E+000,20
1069,1317,1.49182E+001,-7.95893E-001,2.32793E-002,6.05616E+000,-2.74165E-001,-5.62629E-003,6.06237E+000,1.19785E-002,4.08312E-001,0,9.18296E+001,-5.03649E+000,9.99317E-001,5.14478E+001,-3.64960E+001,9.97531E-001,1.26838E-001,-5.25745E-002,-1.16661E-003,1.26845E-001,-5.25821E-002,-3.72538E-001,1.27462E-001,1.13489E+000,-2.80653E-002,0.00000E+000,2.11879E-002,9.50393E-001,0.00000E+000,-4.18601E-005,-6.23860E-002,1.00000E+000,20
779,1327,-6.65675E+000,-5.91373E-001,6.53761E-002,3.39241E+000,-5.38713E-001,1.27475E-001,3.43728E+000,2.04719E-002,5.84430E-001,0,5.22347E+001,-9.13584E+000,9.98938E-001,8.06723E+000,-4.61888E+001,9.97721E-001,1.29142E-001,-5.44520E-002,-3.78050E-004,1.29143E-001,-5.44527E-002,-1.17980E-001,1.29671E-001,1.13785E+000,-3.41316E-003,0.00000E+000,2.23419E-003,9.49703E-001,0.00000E+000,-1.70415E-003,-7.55874E-002,1.00000E+000,20
779,1337,-6.64364E+000,1.21716E-002,2.07068E-002,3.39093E+000,-5.77050E-001,7.03914E-002,3.44040E+000,1.00030E-002,5.32470E-001,0,5.23892E+001,-9.60796E+000,9.98543E-001,8.28018E+000,-4.68180E+001,9.98329E-001,1.29394E-001,-5.44703E-002,-7.37770E-004,1.29397E-001,-5.44733E-002,-2.29899E-001,1.29934E-001,1.13814E+000,-3.40662E-003,0.00000E+000,1.60613E-003,9.49689E-001,0.00000E+000,-2.59000E-003,-7.56075E-002,1.00000E+000,20
779,1347,-6.62610E+000,6.29724E-001,9.55535E-003,3.38933E+000,-6.05031E-001,2.33880E-002,3.44299E+000,1.23681E-002,5.27598E-001,0,5.25045E+001,-9.96319E+000,9.97950E-001,8.64764E+000,-4.72819E+001,9.97532E-001,1.29645E-001,-5.44935E-002,-1.09791E-003,1.29651E-001,-5.45001E-002,-3.41605E-001,1.30198E-001,1.13843E+000,-3.39804E-003,0.00000E+000,9.75848E-004,9.49670E-001,0.00000E+000,-3.47897E-003,-7.56339E-002,1.00000E+000,20
779,1357,-6.60369E+000,1.25025E+000,3.56785E-002,3.38614E+000,-6.36369E-001,-1.94302E-002,3.44547E+000,9.64440E-003,5.36602E-001,0,5.25792E+001,-1.03674E+001,9.98268E-001,9.18358E+000,-4.77775E+001,9.98133E-001,1.29896E-001,-5.45239E-002,-1.45930E-003,1.29908E-001,-5.45354E-002,-4.53340E-001,1.30464E-001,1.13872E+000,-3.38657E-003,0.00000E+000,3.41287E-004,9.49645E-001,0.00000E+000,-4.37398E-003,-7.56691E-002,1.00000E+000,20
779,1317,-6.65717E+000,-1.18471E+000,1.39631E-001,3.39775E+000,-4.94319E-001,1.68449E-001,3.43764E+000,2.03464E-002,5.27037E-001,0,5.21821E+001,-8.51710E+000,9.99227E-001,8.12614E+000,-4.55193E+001,9.97667E-001,1.28891E-001,-5.44434E-002,-1.74305E-005,1.28891E-001,-5.44434E-002,-5.44739E-003,1.29407E-001,1.13756E+000,-3.41575E-003,0.00000E+000,2.86084E-003,9.49709E-001,0.00000E+000,-8.20296E-004,-7.55795E-002,1.00000E+000,20
1079,1337,1.56621E+001,4.46428E-001,-5.86880E-002,6.11203E+000,-3.32404E-001,-7.87126E-002,6.12157E+000,1.21143E-002,4.08066E-001,0,9.28758E+001,-5.83111E+000,9.98999E-001,5.30148E+001,-3.69761E+001,9.98852E-001,1.28096E-001,-5.27021E-002,-1.44410E-003,1.28107E-001,-5.27136E-002,-4.57605E-001,1.28775E-001,1.13634E+000,-2.74590E-002,0.00000E+000,2.00721E-002,9.50271E-001,0.00000E+000,8.05434E-004,-6.19718E-002,1.00000E+000,20
1079,1347,1.56721E+001,1.06562E+000,-4.97191E-002,6.09782E+000,-3.66545E-001,-1.04720E-001,6.10973E+000,7.07715E-003,4.32634E-001,0,9.27493E+001,-6.33499E+000,9.99594E-001,5.32578E+001,-3.73936E+001,9.99434E-001,1.28602E-001,-5.27076E-002,-1.47561E-003,1.28614E-001,-5.27196E-002,-4.66267E-001,1.29308E-001,1.13691E+000,-2.74380E-002,0.00000E+000,1.99922E-002,9.50268E-001,0.00000E+000,6.43516E-004,-6.19777E-002,1.00000E+000,20
1079,1297,1.56717E+001,-1.99445E+000,1.51223E-001,6.17152E+000,-1.90974E-001,7.65200E-002,6.17495E+000,1.41775E-002,4.12774E-001,0,9.31841E+001,-3.87948E+000,9.98539E-001,5.32450E+001,-3.52490E+001,9.96765E-001,1.26081E-001,-5.26865E-002,-1.30156E-003,1.26091E-001,-5.26960E-002,-4.17126E-001,1.26656E-001,1.13405E+000,-2.75027E-002,0.00000E+000,2.03895E-002,9.50277E-001,0.00000E+000,1.44854E-003,-6.19595E-002,1.00000E+000,20
1079,1307,1.56623E+001,-1.39293E+000,6.11750E-002,6.15590E+000,-2.30161E-001,2.63958E-002,6.16026E+000,1.24882E-002,3.62601E-001,0,9.31459E+001,-4.39388E+000,9.99178E-001,5.30110E+001,-3.57589E+001,9.97667E-001,1.26583E-001,-5.26895E-002,-1.33939E-003,1.26593E-001,-5.26995E-002,-4.28041E-001,1.27183E-001,1.13462E+000,-2.74973E-002,0.00000E+000,2.03106E-002,9.50276E-001,0.00000E+000,1.28855E-003,-6.19611E-002,1.00000E+000,20
1079,1327,1.56620E+001,-1.76361E-001,-3.14485E-002,6.12844E+000,-3.08079E-001,-4.79747E-002,6.13637E+000,1.39741E-002,4.25335E-001,0,9.30147E+001,-5.48765E+000,9.99218E-001,5.29870E+001,-3.66747E+001,9.98550E-001,1.27592E-001,-5.26976E-002,-1.40998E-003,1.27603E-001,-5.27087E-002,-4.48052E-001,1.28244E-001,1.13576E+000,-2.74735E-002,0.00000E+000,2.01515E-002,9.50273E-001,0.00000E+000,9.66314E-004,-6.19678E-002,1.00000E+000,20
1079,1317,1.56601E+001,-7.77222E-001,1.12879E-002,6.14096E+000,-2.61791E-001,-1.10176E-002,6.14655E+000,1.15987E-002,3.85996E-001,0,9.30609E+001,-4.81389E+000,9.99118E-001,5.29627E+001,-3.60977E+001,9.98331E-001,1.27088E-001,-5.26935E-002,-1.37500E-003,1.27098E-001,-5.27040E-002,-4.38174E-001,1.27714E-001,1.13519E+000,-2.74861E-002,0.00000E+000,2.02310E-002,9.50275E-001,0.00000E+000,1.12735E-003,-6.19642E-002,1.00000E+000,20
779,1307,-6.66560E+000,-1.78902E+000,2.33626E-001,3.39280E+000,-4.65872E-001,2.17811E-001,3.43156E+000,1.42183E-002,5.53007E-001,0,5.19484E+001,-8.15333E+000,9.98939E-001,8.10875E+000,-4.50199E+001,9.96994E-001,1.28639E-001,-5.44371E-002,3.41201E-004,1.28640E-001,-5.44378E-002,1.06782E-001,1.29145E-001,1.13728E+000,-3.41733E-003,0.00000E+000,3.48328E-003,9.49712E-001,0.00000E+000,5.76174E-005,-7.55746E-002,1.00000E+000,20
1089,1337,1.64078E+001,4.66412E-001,-6.75539E-002,6.19929E+000,-3.19468E-001,-8.36728E-002,6.20808E+000,1.07663E-002,4.64835E-001,0,9.41412E+001,-5.64295E+000,9.98791E-001,5.45964E+001,-3.65209E+001,9.98474E-001,1.28684E-001,-5.28606E-002,-1.57686E-003,1.28697E-001,-5.28743E-002,-4.97611E-001,1.29378E-001,1.13703E+000,-2.66315E-002,0.00000E+000,1.90901E-002,9.50114E-001,0.00000E+000,1.22203E-003,-6.15139E-002,1.00000E+000,20
1089,1347,1.64175E+001,1.08510E+000,-6.03968E-002,6.18481E+000,-3.53280E-001,-1.11053E-001,6.19588E+000,8.27305E-003,4.18010E-001,0,9.40163E+001,-6.11886E+000,9.99317E-001,5.48311E+001,-3.69761E+001,9.98738E-001,1.29273E-001,-5.28692E-002,-1.63246E-003,1.29287E-001,-5.28838E-002,-5.13463E-001,1.29999E-001,1.13769E+000,-2.66070E-002,0.00000E+000,1.89729E-002,9.50110E-001,0.00000E+000,8.32663E-004,-6.15282E-002,1.00000E+000,20
769,1347,-7.36133E+000,6.20903E-001,1.18205E-002,3.30045E+000,-6.07544E-001,2.87714E-002,3.35603E+000,9.89225E-003,5.17005E-001,0,5.11493E+001,-9.99559E+000,9.98171E-001,7.35746E+000,-4.75325E+001,9.98035E-001,1.28318E-001,-5.40638E-002,-1.06648E-003,1.28324E-001,-5.40701E-002,-3.35022E-001,1.28852E-001,1.13691E+000,-3.59281E-003,0.00000E+000,1.17690E-003,9.49999E-001,0.00000E+000,-3.17135E-003,-7.45160E-002,1.00000E+000,20
769,1357,-7.33689E+000,1.24351E+000,3.62869E-002,3.29984E+000,-6.36405E-001,-1.39324E-002,3.36068E+000,9.45447E-003,5.34654E-001,0,5.12623E+001,-1.03646E+001,9.98681E-001,7.92286E+000,-4.79897E+001,9.98569E-001,1.28504E-001,-5.40921E-002,-1.41076E-003,1.28515E-001,-5.41030E-002,-4.42639E-001,1.29049E-001,1.13713E+000,-3.58451E-003,0.00000E+000,5.69802E-004,9.49976E-001,0.00000E+000,-3.97031E-003,-7.45468E-002,1.00000E+000,20
769,1327,-7.38922E+000,-5.99582E-001,7.20432E-002,3.30311E+000,-5.41944E-001,1.22258E-001,3.34951E+000,1.52474E-002,5.82838E-001,0,5.09060E+001,-9.18068E+000,9.98708E-001,6.82873E+000,-4.64309E+001,9.96903E-001,1.27946E-001,-5.40275E-002,-3.81006E-004,1.27946E-001,-5.40283E-002,-1.19962E-001,1.28461E-001,1.13649E+000,-3.60294E-003,0.00000E+000,2.38094E-003,9.50027E-001,0.00000E+000,-1.58680E-003,-7.44785E-002,1.00000E+000,20
769,1337,-7.37920E+000,2.45865E-004,2.15265E-002,3.30110E+000,-5.83247E-001,7.19914E-002,3.35300E+000,9.18030E-003,5.31100E-001,0,5.10326E+001,-9.69384E+000,9.98556E-001,6.97926E+000,-4.71069E+001,9.98248E-001,1.28132E-001,-5.40423E-002,-7.23711E-004,1.28135E-001,-5.40452E-002,-2.27611E-001,1.28656E-001,1.13670E+000,-3.59895E-003,0.00000E+000,1.77977E-003,9.50016E-001,0.00000E+000,-2.37795E-003,-7.44933E-002,1.00000E+000,20
1089,1327,1.64054E+001,-1.51882E-001,-5.03976E-002,6.21515E+000,-2.87064E-001,-5.64924E-002,6.22203E+000,1.24932E-002,4.15675E-001,0,9.42829E+001,-5.17106E+000,9.98806E-001,5.45171E+001,-3.61631E+001,9.97791E-001,1.28094E-001,-5.28534E-002,-1.51872E-003,1.28107E-001,-5.28661E-002,-4.80845E-001,1.28757E-001,1.13636E+000,-2.66502E-002,0.00000E+000,1.92072E-002,9.50117E-001,0.00000E+000,1.61123E-003,-6.15031E-002,1.00000E+000,20
1089,1317,1.64084E+001,-7.65373E-001,-1.40109E-003,6.23118E+000,-2.54831E-001,-1.94894E-002,6.23642E+000,1.11810E-002,4.47633E-001,0,9.43849E+001,-4.73779E+000,9.99247E-001,5.45788E+001,-3.57611E+001,9.98674E-001,1.27508E-001,-5.28473E-002,-1.45857E-003,1.27519E-001,-5.28591E-002,-4.63325E-001,1.28139E-001,1.13569E+000,-2.66634E-002,0.00000E+000,1.93236E-002,9.50119E-001,0.00000E+000,1.99827E-003,-6.14954E-002,1.00000E+000,20
1089,1297,1.64209E+001,-1.97267E+000,1.50505E-001,6.26185E+000,-1.75794E-001,7.64881E-002,6.26478E+000,1.02682E-002,4.45867E-001,0,9.44716E+001,-3.65428E+000,9.99313E-001,5.48966E+001,-3.48017E+001,9.98645E-001,1.26335E-001,-5.28367E-002,-1.33523E-003,1.26345E-001,-5.28467E-002,-4.26950E-001,1.26907E-001,1.13436E+000,-2.66820E-002,0.00000E+000,1.95560E-002,9.50123E-001,0.00000E+000,2.77048E-003,-6.14846E-002,1.00000E+000,20
1089,1307,1.64122E+001,-1.37400E+000,5.66145E-002,6.24663E+000,-2.18375E-001,2.11843E-002,6.25048E+000,1.02244E-002,4.38791E-001,0,9.44613E+001,-4.22985E+000,9.99434E-001,5.46679E+001,-3.53244E+001,9.98877E-001,1.26921E-001,-5.28414E-002,-1.39791E-003,1.26931E-001,-5.28523E-002,-4.45523E-001,1.27522E-001,1.13502E+000,-2.66753E-002,0.00000E+000,1.94400E-002,9.50121E-001,0.00000E+000,2.38513E-003,-6.14885E-002,1.00000E+000,20
769,1317,-7.39662E+000,-1.19269E+000,1.44532E-001,3.30374E+000,-4.99226E-001,1.73944E-001,3.34577E+000,1.76721E-002,5.39561E-001,0,5.07510E+001,-8.56417E+000,9.99259E-001,6.77616E+000,-4.57459E+001,9.98317E-001,1.27760E-001,-5.40168E-002,-3.99270E-005,1.27760E-001,-5.40168E-002,-1.25850E-002,1.28266E-001,1.13627E+000,-3.60561E-003,0.00000E+000,2.97828E-003,9.50035E-001,0.00000E+000,-8.00687E-004,-7.44686E-002,1.00000E+000,20
1099,1327,1.71490E+001,-1.35138E-001,-6.00366E-002,6.30154E+000,-2.75619E-001,-5.60490E-002,6.30781E+000,1.31728E-002,4.45456E-001,0,9.55137E+001,-5.01387E+000,9.97917E-001,5.60707E+001,-3.57720E+001,9.95877E-001,1.28669E-001,-5.29767E-002,-1.66242E-003,1.28684E-001,-5.29919E-002,-5.24314E-001,1.29350E-001,1.13703E+000,-2.59535E-002,0.00000E+000,1.83159E-002,9.50026E-001,0.00000E+000,1.98361E-003,-6.16516E-002,1.00000E+000,20
1099,1337,1.71575E+001,4.87428E-001,-6.91096E-002,6.28990E+000,-3.04191E-001,-8.20844E-002,6.29779E+000,1.24041E-002,4.54280E-001,0,9.54289E+001,-5.42259E+000,9.98119E-001,5.62569E+001,-3.60991E+001,9.97561E-001,1.29387E-001,-5.29839E-002,-1.71326E-003,1.29403E-001,-5.30000E-002,-5.38195E-001,1.30106E-001,1.13784E+000,-2.59286E-002,0.00000E+000,1.82094E-002,9.50023E-001,0.00000E+000,1.52069E-003,-6.16658E-002,1.00000E+000,20
1099,1347,1.71695E+001,1.10972E+000,-5.79131E-002,6.27554E+000,-3.36237E-001,-1.13793E-001,6.28557E+000,1.03749E-002,4.39580E-001,0,9.53203E+001,-5.87256E+000,9.98611E-001,5.65331E+001,-3.64897E+001,9.98204E-001,1.30105E-001,-5.29924E-002,-1.76090E-003,1.30122E-001,-5.30093E-002,-5.50959E-001,1.30864E-001,1.13866E+000,-2.58959E-002,0.00000E+000,1.81026E-002,9.50019E-001,0.00000E+000,1.05659E-003,-6.16843E-002,1.00000E+000,20
759,1347,-8.09182E+000,6.16107E-001,1.03583E-002,3.21599E+000,-6.06305E-001,3.10370E-002,3.27279E+000,9.09451E-003,5.19850E-001,0,4.98691E+001,-9.96452E+000,9.98271E-001,6.13604E+000,-4.77058E+001,9.97800E-001,1.27018E-001,-5.37228E-002,-9.69676E-004,1.27023E-001,-5.37280E-002,-3.07381E-001,1.27524E-001,1.13544E+000,-3.65153E-003,0.00000E+000,1.39147E-003,9.50258E-001,0.00000E+000,-2.87344E-003,-7.35920E-002,1.00000E+000,20
759,1357,-8.07095E+000,1.23503E+000,3.29602E-002,3.21232E+000,-6.38269E-001,-1.19806E-002,3.27514E+000,9.78896E-003,5.34353E-001,0,4.99364E+001,-1.03808E+001,9.98434E-001,6.64332E+000,-4.82194E+001,9.98069E-001,1.27047E-001,-5.37427E-002,-1.21737E-003,1.27055E-001,-5.37509E-002,-3.85785E-001,1.27555E-001,1.13547E+000,-3.65018E-003,0.00000E+000,9.74638E-004,9.50242E-001,0.00000E+000,-3.68348E-003,-7.36226E-002,1.00000E+000,20
1099,1297,1.71651E+001,-1.95935E+000,1.36007E-001,6.34854E+000,-1.67570E-001,6.99922E-002,6.35114E+000,9.62570E-003,4.85090E-001,0,9.57310E+001,-3.53288E+000,9.98875E-001,5.64503E+001,-3.44539E+001,9.97770E-001,1.26526E-001,-5.29612E-002,-1.49551E-003,1.26538E-001,-5.29736E-002,-4.77353E-001,1.27095E-001,1.13460E+000,-2.59921E-002,0.00000E+000,1.86331E-002,9.50031E-001,0.00000E+000,3.36244E-003,-6.16297E-002,1.00000E+000,20
1099,1307,1.71598E+001,-1.35393E+000,5.20164E-002,6.33665E+000,-2.04033E-001,2.46980E-002,6.33998E+000,1.13515E-002,4.57544E-001,0,9.57317E+001,-4.01984E+000,9.99127E-001,5.62926E+001,-3.49011E+001,9.98345E-001,1.27239E-001,-5.29656E-002,-1.55302E-003,1.27253E-001,-5.29790E-002,-4.93730E-001,1.27845E-001,1.13540E+000,-2.59838E-002,0.00000E+000,1.85275E-002,9.50030E-001,0.00000E+000,2.90375E-003,-6.16344E-002,1.00000E+000,20
1099,1317,1.71532E+001,-7.46092E-001,-1.38416E-002,6.31964E+000,-2.40282E-001,-1.85723E-002,6.32424E+000,1.37592E-002,4.68374E-001,0,9.56438E+001,-4.52736E+000,9.98689E-001,5.61469E+001,-3.53308E+001,9.97494E-001,1.27954E-001,-5.29708E-002,-1.60855E-003,1.27968E-001,-5.29851E-002,-5.09349E-001,1.28597E-001,1.13621E+000,-2.59707E-002,0.00000E+000,1.84218E-002,9.50029E-001,0.00000E+000,2.44417E-003,-6.16419E-002,1.00000E+000,20
759,1327,-8.12647E+000,-6.10831E-001,6.86401E-002,3.21082E+000,-5.47255E-001,1.18331E-001,3.25927E+000,1.10435E-002,5.39983E-001,0,4.95269E+001,-9.22939E+000,9.98767E-001,5.49583E+000,-4.67195E+001,9.98715E-001,1.26958E-001,-5.36977E-002,-4.77630E-004,1.26960E-001,-5.36989E-002,-1.51481E-001,1.27461E-001,1.13536E+000,-3.65317E-003,0.00000E+000,2.21890E-003,9.50277E-001,0.00000E+000,-1.26550E-003,-7.35553E-002,1.00000E+000,20
759,1337,-8.11000E+000,2.58375E-003,2.72682E-002,3.21507E+000,-5.75235E-001,7.57125E-002,3.26700E+000,9.21403E-003,5.45446E-001,0,4.97218E+001,-9.57718E+000,9.98316E-001,5.77140E+000,-4.71784E+001,9.97954E-001,1.26988E-001,-5.37084E-002,-7.23392E-004,1.26991E-001,-5.37113E-002,-2.29370E-001,1.27493E-001,1.13540E+000,-3.65249E-003,0.00000E+000,1.80571E-003,9.50269E-001,0.00000E+000,-2.06846E-003,-7.35705E-002,1.00000E+000,20
759,1317,-8.13045E+000,-1.20758E+000,1.46106E-001,3.21387E+000,-5.08567E-001,1.70190E-001,3.25831E+000,1.51230E-002,5.63797E-001,0,4.94106E+001,-8.71874E+000,9.98958E-001,5.50736E+000,-4.60657E+001,9.98385E-001,1.26928E-001,-5.36909E-002,-2.33427E-004,1.26928E-001,-5.36912E-002,-7.40474E-002,1.27429E-001,1.13533E+000,-3.65356E-003,0.00000E+000,2.62928E-003,9.50281E-001,0.00000E+000,-4.68002E-004,-7.35465E-002,1.00000E+000,20
749,1317,-8.85538E+000,-1.21104E+000,1.57813E-001,3.13129E+000,-5.08764E-001,1.70309E-001,3.17692E+000,1.12080E-002,5.79711E-001,0,4.81657E+001,-8.71431E+000,9.98970E-001,4.40855E+000,-4.62340E+001,9.98042E-001,1.26119E-001,-5.34100E-002,-3.72948E-004,1.26120E-001,-5.34107E-002,-1.19024E-001,1.26611E-001,1.13441E+000,-3.39492E-003,0.00000E+000,2.13583E-003,9.50485E-001,0.00000E+000,-2.50073E-004,-7.26111E-002,1.00000E+000,20
749,1327,-8.85125E+000,-6.12391E-001,7.15862E-002,3.12999E+000,-5.44789E-001,1.17805E-001,3.17923E+000,8.80232E-003,5.47393E-001,0,4.83100E+001,-9.16836E+000,9.98572E-001,4.37696E+000,-4.68460E+001,9.98283E-001,1.26013E-001,-5.34138E-002,-5.43849E-004,1.26015E-001,-5.34154E-002,-1.73663E-001,1.26501E-001,1.13429E+000,-3.39594E-003,0.00000E+000,1.85810E-003,9.50482E-001,0.00000E+000,-9.33035E-004,-7.26169E-002,1.00000E+000,20
749,1337,-8.84097E+000,-1.23199E-003,2.96516E-002,3.12839E+000,-5.73987E-001,7.56734E-002,3.18151E+000,8.82514E-003,5.74794E-001,0,4.84125E+001,-9.55673E+000,9.98511E-001,4.55615E+000,-4.73302E+001,9.98346E-001,1.25906E-001,-5.34209E-002,-7.16268E-004,1.25909E-001,-5.34238E-002,-2.28845E-001,1.26389E-001,1.13417E+000,-3.39817E-003,0.00000E+000,1.57878E-003,9.50477E-001,0.00000E+000,-1.61993E-003,-7.26296E-002,1.00000E+000,20
749,1347,-8.82588E+000,6.09907E-001,9.89798E-003,3.12708E+000,-6.06236E-001,3.18380E-002,3.18547E+000,9.49503E-003,5.26231E-001,0,4.85229E+001,-9.95914E+000,9.98660E-001,4.86683E+000,-4.79018E+001,9.98450E-001,1.25798E-001,-5.34305E-002,-8.89503E-004,1.25803E-001,-5.34349E-002,-2.84346E-001,1.26277E-001,1.13405E+000,-3.40123E-003,0.00000E+000,1.29875E-003,9.50470E-001,0.00000E+000,-2.30856E-003,-7.26470E-002,1.00000E+000,20
1109,1297,1.79108E+001,-1.94416E+000,1.25810E-001,6.43802E+000,-1.55318E-001,7.46717E-002,6.44033E+000,1.02111E-002,4.84421E-001,0,9.69874E+001,-3.37275E+000,9.98288E-001,5.80400E+001,-3.41064E+001,9.96684E-001,1.26880E-001,-5.32676E-002,-1.57265E-003,1.26894E-001,-5.32814E-002,-5.00129E-001,1.27436E-001,1.13503E+000,-2.48879E-002,0.00000E+000,1.75102E-002,9.49772E-001,0.00000E+000,4.06475E-003,-6.18157E-002,1.00000E+000,20
1109,1307,1.79041E+001,-1.33758E+000,4.18636E-002,6.42476E+000,-1.90536E-001,2.96237E-002,6.42765E+000,1.14928E-002,4.23287E-001,0,9.69672E+001,-3.82887E+000,9.98660E-001,5.78618E+001,-3.45508E+001,9.97959E-001,1.27643E-001,-5.32700E-002,-1.60003E-003,1.27657E-001,-5.32842E-002,-5.06683E-001,1.28237E-001,1.13589E+000,-2.48790E-002,0.00000E+000,1.74748E-002,9.49772E-001,0.00000E+000,3.37643E-003,-6.18228E-002,1.00000E+000,20
1109,1317,1.78984E+001,-7.28611E-001,-2.14295E-002,6.40868E+000,-2.25982E-001,-1.03490E-002,6.41267E+000,1.24488E-002,4.27191E-001,0,9.68815E+001,-4.32494E+000,9.98290E-001,5.77335E+001,-3.49699E+001,9.97418E-001,1.28407E-001,-5.32729E-002,-1.62534E-003,1.28422E-001,-5.32874E-002,-5.12522E-001,1.29040E-001,1.13676E+000,-2.48652E-002,0.00000E+000,1.74393E-002,9.49771E-001,0.00000E+000,2.68624E-003,-6.18339E-002,1.00000E+000,20
749,1357,-8.80218E+000,1.22762E+000,3.39731E-002,3.12675E+000,-6.38609E-001,-8.20123E-003,3.19131E+000,1.15020E-002,5.27869E-001,0,4.86323E+001,-1.03878E+001,9.98622E-001,5.42319E+000,-4.84450E+001,9.98395E-001,1.25689E-001,-5.34440E-002,-1.06454E-003,1.25696E-001,-5.34503E-002,-3.40478E-001,1.26163E-001,1.13393E+000,-3.40572E-003,0.00000E+000,1.01683E-003,9.50460E-001,0.00000E+000,-3.00182E-003,-7.26726E-002,1.00000E+000,20
1109,1327,1.78961E+001,-1.17895E-001,-6.42256E-002,6.39117E+000,-2.62660E-001,-4.95800E-002,6.39675E+000,1.13126E-002,4.30346E-001,0,9.67675E+001,-4.83962E+000,9.97673E-001,5.76928E+001,-3.54073E+001,9.96610E-001,1.29172E-001,-5.32763E-002,-1.64800E-003,1.29187E-001,-5.32912E-002,-5.17476E-001,1.29845E-001,1.13762E+000,-2.48450E-002,0.00000E+000,1.74037E-002,9.49770E-001,0.00000E+000,1.99406E-003,-6.18500E-002,1.00000E+000,20
1109,1337,1.79012E+001,5.04482E-001,-7.81209E-002,6.37563E+000,-2.92038E-001,-8.16955E-002,6.38283E+000,1.20236E-002,4.69916E-001,0,9.66478E+001,-5.25932E+000,9.98562E-001,5.78156E+001,-3.57100E+001,9.98145E-001,1.29940E-001,-5.32804E-002,-1.66778E-003,1.29955E-001,-5.32956E-002,-5.21481E-001,1.30653E-001,1.13850E+000,-2.48178E-002,0.00000E+000,1.73679E-002,9.49769E-001,0.00000E+000,1.29851E-003,-6.18717E-002,1.00000E+000,20
1109,1347,1.79189E+001,1.12744E+000,-5.20009E-002,6.36333E+000,-3.25954E-001,-1.12393E-001,6.37266E+000,1.19990E-002,4.68655E-001,0,9.65647E+001,-5.74359E+000,9.98638E-001,5.82030E+001,-3.61145E+001,9.97816E-001,1.30710E-001,-5.32856E-002,-1.68235E-003,1.30725E-001,-5.33010E-002,-5.23823E-001,1.31465E-001,1.13937E+000,-2.47782E-002,0.00000E+000,1.73320E-002,9.49768E-001,0.00000E+000,5.99808E-004,-6.19032E-002,1.00000E+000,20
739,1337,-9.56972E+000,-1.23626E-002,3.11119E-002,3.04368E+000,-5.79357E-001,7.54619E-002,3.09924E+000,1.00611E-002,5.62640E-001,0,4.71343E+001,-9.62778E+000,9.98377E-001,3.37604E+000,-4.76132E+001,9.98140E-001,1.24770E-001,-5.29587E-002,-7.93679E-004,1.24774E-001,-5.29623E-002,-2.55857E-001,1.25247E-001,1.13288E+000,-3.17691E-003,0.00000E+000,1.23606E-003,9.50878E-001,0.00000E+000,-1.41919E-003,-7.20579E-002,1.00000E+000,20
739,1347,-9.55836E+000,6.01463E-001,1.26006E-002,3.03908E+000,-6.08597E-001,3.44514E-002,3.09961E+000,7.37968E-003,5.31024E-001,0,4.71838E+001,-9.99544E+000,9.99201E-001,3.63425E+000,-4.81401E+001,9.99167E-001,1.24484E-001,-5.29681E-002,-9.72864E-004,1.24490E-001,-5.29735E-002,-3.14105E-001,1.24949E-001,1.13256E+000,-3.18486E-003,0.00000E+000,9.54174E-004,9.50871E-001,0.00000E+000,-2.18702E-003,-7.20768E-002,1.00000E+000,20
739,1357,-9.53512E+000,1.22149E+000,3.59039E-002,3.03888E+000,-6.38010E-001,-4.40045E-003,3.10514E+000,8.22722E-003,5.18926E-001,0,4.72904E+001,-1.03757E+001,9.98936E-001,4.18435E+000,-4.86548E+001,9.98898E-001,1.24196E-001,-5.29815E-002,-1.15481E-003,1.24204E-001,-5.29891E-002,-3.73422E-001,1.24649E-001,1.13224E+000,-3.19652E-003,0.00000E+000,6.70530E-004,9.50861E-001,0.00000E+000,-2.95965E-003,-7.21047E-002,1.00000E+000,20
739,1327,-9.58096E+000,-6.18459E-001,7.55538E-002,3.04417E+000,-5.45072E-001,1.19917E-001,3.09491E+000,9.71628E-003,5.19040E-001,0,4.70072E+001,-9.16132E+000,9.99138E-001,3.18918E+000,-4.70628E+001,9.98891E-001,1.25054E-001,-5.29516E-002,-6.15801E-004,1.25057E-001,-5.29537E-002,-1.98208E-001,1.25544E-001,1.13321E+000,-3.17106E-003,0.00000E+000,1.51736E-003,9.50883E-001,0.00000E+000,-6.52952E-004,-7.20439E-002,1.00000E+000,20
1119,1297,1.86547E+001,-1.92897E+000,1.17750E-001,6.52540E+000,-1.43248E-001,8.17689E-002,6.52748E+000,1.06377E-002,4.40238E-001,0,9.82005E+001,-3.19551E+000,9.99056E-001,5.96109E+001,-3.37853E+001,9.98432E-001,1.27435E-001,-5.31532E-002,-1.72052E-003,1.27452E-001,-5.31696E-002,-5.45808E-001,1.28033E-001,1.13568E+000,-2.38455E-002,0.00000E+000,1.63488E-002,9.49934E-001,0.00000E+000,4.03950E-003,-6.23591E-002,1.00000E+000,20
1119,1307,1.86493E+001,-1.32350E+000,3.83905E-002,6.51194E+000,-1.80696E-001,3.56627E-002,6.51455E+000,9.51299E-003,4.08584E-001,0,9.81823E+001,-3.69721E+000,9.98991E-001,5.94599E+001,-3.42402E+001,9.98896E-001,1.28158E-001,-5.31528E-002,-1.70343E-003,1.28174E-001,-5.31688E-002,-5.38237E-001,1.28792E-001,1.13650E+000,-2.38353E-002,0.00000E+000,1.64060E-002,9.49935E-001,0.00000E+000,3.23221E-003,-6.23692E-002,1.00000E+000,20
1119,1317,1.86482E+001,-7.13072E-001,-2.24906E-002,6.49960E+000,-2.14932E-001,-5.03506E-003,6.50315E+000,1.00751E-002,4.12413E-001,0,9.81554E+001,-4.18064E+000,9.98544E-001,5.94069E+001,-3.46396E+001,9.98575E-001,1.28880E-001,-5.31524E-002,-1.68463E-003,1.28896E-001,-5.31680E-002,-5.30186E-001,1.29552E-001,1.13732E+000,-2.38211E-002,0.00000E+000,1.64632E-002,9.49936E-001,0.00000E+000,2.42362E-003,-6.23832E-002,1.00000E+000,20
1119,1327,1.86472E+001,-9.98780E-002,-6.18314E-002,6.48252E+000,-2.49573E-001,-4.38785E-002,6.48747E+000,9.54208E-003,4.10893E-001,0,9.80458E+001,-4.66663E+000,9.98365E-001,5.93916E+001,-3.50468E+001,9.98319E-001,1.29604E-001,-5.31519E-002,-1.66321E-003,1.29619E-001,-5.31670E-002,-5.21377E-001,1.30314E-001,1.13814E+000,-2.38010E-002,0.00000E+000,1.65206E-002,9.49938E-001,0.00000E+000,1.61241E-003,-6.24031E-002,1.00000E+000,20
1119,1337,1.86524E+001,5.17887E-001,-7.72589E-002,6.46635E+000,-2.84494E-001,-8.00959E-002,6.47310E+000,9.00691E-003,4.61369E-001,0,9.79349E+001,-5.16338E+000,9.99127E-001,5.95125E+001,-3.54107E+001,9.98481E-001,1.30330E-001,-5.31513E-002,-1.63893E-003,1.30345E-001,-5.31659E-002,-5.11734E-001,1.31080E-001,1.13896E+000,-2.37743E-002,0.00000E+000,1.65784E-002,9.49939E-001,0.00000E+000,7.96579E-004,-6.24294E-002,1.00000E+000,20
1119,1347,1.86674E+001,1.14074E+000,-5.45094E-002,6.45185E+000,-3.17841E-001,-1.11253E-001,6.46063E+000,1.30394E-002,4.39319E-001,0,9.78214E+001,-5.63499E+000,9.99018E-001,5.98495E+001,-3.58184E+001,9.98365E-001,1.31057E-001,-5.31506E-002,-1.61031E-003,1.31071E-001,-5.31646E-002,-5.00817E-001,1.31847E-001,1.13979E+000,-2.37376E-002,0.00000E+000,1.66363E-002,9.49942E-001,0.00000E+000,-2.14022E-005,-6.24657E-002,1.00000E+000,20
739,1317,-9.58177E+000,-1.21440E+000,1.60060E-001,3.04843E+000,-5.07087E-001,1.69197E-001,3.09495E+000,1.22822E-002,5.60196E-001,0,4.69189E+001,-8.66983E+000,9.98936E-001,3.26823E+000,-4.63987E+001,9.98409E-001,1.25336E-001,-5.29480E-002,-4.40577E-004,1.25337E-001,-5.29491E-002,-1.41589E-001,1.25839E-001,1.13353E+000,-3.16851E-003,0.00000E+000,1.79675E-003,9.50886E-001,0.00000E+000,1.08084E-004,-7.20379E-002,1.00000E+000,20
1129,1297,1.93974E+001,-1.90838E+000,1.12697E-001,6.60986E+000,-1.26338E-001,8.70665E-002,6.61164E+000,1.14702E-002,3.99937E-001,0,9.93712E+001,-2.94381E+000,9.99458E-001,6.11710E+001,-3.33851E+001,9.98436E-001,1.27782E-001,-5.31585E-002,-1.93943E-003,1.27803E-001,-5.31793E-002,-6.14034E-001,1.28401E-001,1.13609E+000,-2.28584E-002,0.00000E+000,1.51463E-002,9.49975E-001,0.00000E+000,3.26407E-003,-6.27602E-002,1.00000E+000,20
1129,1307,1.93924E+001,-1.31014E+000,3.08774E-002,6.59665E+000,-1.71160E-001,3.77905E-002,6.59898E+000,1.62033E-002,3.76047E-001,0,9.93730E+001,-3.55922E+000,9.99291E-001,6.10232E+001,-3.39413E+001,9.96920E-001,1.28565E-001,-5.31547E-002,-1.86661E-003,1.28584E-001,-5.31739E-002,-5.88457E-001,1.29223E-001,1.13698E+000,-2.28471E-002,0.00000E+000,1.53088E-002,9.49977E-001,0.00000E+000,2.45124E-003,-6.27706E-002,1.00000E+000,20
1129,1317,1.93954E+001,-7.01637E-001,-2.96112E-002,6.58789E+000,-2.07743E-001,-4.09020E-003,6.59116E+000,9.55447E-003,3.91524E-001,0,9.94061E+001,-4.08327E+000,9.99321E-001,6.10336E+001,-3.43635E+001,9.97409E-001,1.29347E-001,-5.31502E-002,-1.79170E-003,1.29365E-001,-5.31678E-002,-5.62440E-001,1.30046E-001,1.13786E+000,-2.28311E-002,0.00000E+000,1.54717E-002,9.49980E-001,0.00000E+000,1.63677E-003,-6.27853E-002,1.00000E+000,20
729,1347,-1.02786E+001,5.88737E-001,1.95008E-002,2.96178E+000,-6.16660E-001,3.51348E-002,3.02550E+000,6.46946E-003,5.41903E-001,0,4.60155E+001,-1.01132E+001,9.99528E-001,2.60476E+000,-4.84488E+001,9.99497E-001,1.23111E-001,-5.25246E-002,-8.35727E-004,1.23115E-001,-5.25286E-002,-2.72623E-001,1.23555E-001,1.13101E+000,-2.47844E-003,0.00000E+000,6.33115E-004,9.51224E-001,0.00000E+000,-2.27815E-003,-7.10599E-002,1.00000E+000,20
729,1357,-1.02613E+001,1.21396E+000,3.52425E-002,2.95695E+000,-6.39933E-001,-5.17548E-003,3.02541E+000,7.83647E-003,5.37742E-001,0,4.60529E+001,-1.03947E+001,9.99082E-001,3.04654E+000,-4.88656E+001,9.99271E-001,1.22570E-001,-5.25346E-002,-9.86819E-004,1.22576E-001,-5.25402E-002,-3.22881E-001,1.22992E-001,1.13040E+000,-2.49905E-003,0.00000E+000,4.30733E-004,9.51217E-001,0.00000E+000,-3.27860E-003,-7.10938E-002,1.00000E+000,20
1129,1327,1.93981E+001,-8.49378E-002,-6.56902E-002,6.57498E+000,-2.38233E-001,-3.74606E-002,6.57940E+000,1.12969E-002,4.02117E-001,0,9.93376E+001,-4.53292E+000,9.99114E-001,6.10812E+001,-3.47152E+001,9.98368E-001,1.30130E-001,-5.31451E-002,-1.71443E-003,1.30146E-001,-5.31611E-002,-5.35905E-001,1.30871E-001,1.13875E+000,-2.28099E-002,0.00000E+000,1.56349E-002,9.49984E-001,0.00000E+000,8.20723E-004,-6.28048E-002,1.00000E+000,20
729,1337,-1.02976E+001,-1.85131E-002,3.68987E-002,2.95973E+000,-5.79557E-001,8.12826E-002,3.01703E+000,9.03205E-003,5.52699E-001,0,4.58469E+001,-9.63230E+000,9.98890E-001,2.22614E+000,-4.78279E+001,9.98535E-001,1.23648E-001,-5.25168E-002,-6.87329E-004,1.23650E-001,-5.25195E-002,-2.23543E-001,1.24116E-001,1.13162E+000,-2.46257E-003,0.00000E+000,8.34708E-004,9.51229E-001,0.00000E+000,-1.28161E-003,-7.10338E-002,1.00000E+000,20
729,1327,-1.03081E+001,-6.22715E-001,8.24152E-002,2.95998E+000,-5.45328E-001,1.22213E-001,3.01228E+000,9.70297E-003,5.45255E-001,0,4.57270E+001,-9.16063E+000,9.98738E-001,2.05347E+000,-4.72305E+001,9.98357E-001,1.24180E-001,-5.25116E-002,-5.42390E-004,1.24182E-001,-5.25133E-002,-1.75879E-001,1.24673E-001,1.13222E+000,-2.45252E-003,0.00000E+000,1.03507E-003,9.51233E-001,0.00000E+000,-2.91174E-004,-7.10172E-002,1.00000E+000,20
1129,1337,1.94129E+001,5.35491E-001,-6.55147E-002,6.56230E+000,-2.75433E-001,-8.16092E-002,6.56858E+000,1.17879E-002,4.67735E-001,0,9.93063E+001,-5.03605E+000,9.98908E-001,6.13743E+001,-3.50619E+001,9.98695E-001,1.30920E-001,-5.31377E-002,-1.62955E-003,1.30935E-001,-5.31521E-002,-5.07211E-001,1.31705E-001,1.13965E+000,-2.27729E-002,0.00000E+000,1.58002E-002,9.49991E-001,0.00000E+000,-5.33967E-006,-6.28387E-002,1.00000E+000,20
729,1317,-1.03126E+001,-1.22145E+000,1.57056E-001,2.96190E+000,-5.08606E-001,1.69218E-001,3.01001E+000,1.12569E-002,5.63969E-001,0,4.56116E+001,-8.68269E+000,9.98693E-001,2.04960E+000,-4.65980E+001,9.98001E-001,1.24710E-001,-5.25083E-002,-3.99580E-004,1.24711E-001,-5.25092E-002,-1.29186E-001,1.25228E-001,1.13282E+000,-2.44646E-003,0.00000E+000,1.23492E-003,9.51235E-001,0.00000E+000,6.96785E-004,-7.10073E-002,1.00000E+000,20
1129,1347,1.94210E+001,1.16120E+000,-5.53219E-002,6.54365E+000,-3.04632E-001,-1.13721E-001,6.55172E+000,1.42757E-002,4.57302E-001,0,9.91358E+001,-5.44508E+000,9.98683E-001,6.15827E+001,-3.53912E+001,9.98015E-001,1.31707E-001,-5.31304E-002,-1.54536E-003,1.31720E-001,-5.31434E-002,-4.78987E-001,1.32535E-001,1.14055E+000,-2.27367E-002,0.00000E+000,1.59647E-002,9.49997E-001,0.00000E+000,-8.28107E-004,-6.28719E-002,1.00000E+000,20
719,1347,-1.10092E+001,5.88224E-001,1.88994E-002,2.87507E+000,-6.11035E-001,3.60286E-002,2.93951E+000,1.05038E-002,5.55127E-001,0,4.46958E+001,-1.00234E+001,9.98989E-001,1.40270E+000,-4.85537E+001,9.98988E-001,1.22097E-001,-5.22868E-002,-7.80570E-004,1.22100E-001,-5.22903E-002,-2.56458E-001,1.22519E-001,1.12986E+000,-1.69603E-003,0.00000E+000,6.51987E-005,9.51365E-001,0.00000E+000,-2.01581E-003,-6.97748E-002,1.00000E+000,20
719,1357,-1.09926E+001,1.20568E+000,3.67601E-002,2.86995E+000,-6.42371E-001,-1.32583E-003,2.94096E+000,8.76503E-003,5.64002E-001,0,4.47218E+001,-1.04339E+001,9.99063E-001,1.84059E+000,-4.90902E+001,9.99157E-001,1.21317E-001,-5.22932E-002,-8.86662E-004,1.21321E-001,-5.22977E-002,-2.92611E-001,1.21705E-001,1.12899E+000,-1.72529E-003,0.00000E+000,-3.04024E-005,9.51362E-001,0.00000E+000,-3.24124E-003,-6.98157E-002,1.00000E+000,20
719,1337,-1.10263E+001,-2.07504E-002,3.67268E-002,2.87402E+000,-5.76866E-001,7.83485E-002,2.93239E+000,1.16199E-002,5.78321E-001,0,4.45554E+001,-9.58060E+000,9.98224E-001,1.05375E+000,-4.79519E+001,9.97767E-001,1.22870E-001,-5.22821E-002,-6.78479E-004,1.22873E-001,-5.22847E-002,-2.21940E-001,1.23326E-001,1.13074E+000,-1.67443E-003,0.00000E+000,1.60233E-004,9.51367E-001,0.00000E+000,-7.97647E-004,-6.97446E-002,1.00000E+000,20
719,1327,-1.10349E+001,-6.24884E-001,8.65079E-002,2.87573E+000,-5.43111E-001,1.21889E-001,2.92910E+000,8.33795E-003,5.85877E-001,0,4.44510E+001,-9.12877E+000,9.98230E-001,9.20294E-001,-4.73530E+001,9.97882E-001,1.23637E-001,-5.22790E-002,-5.80302E-004,1.23639E-001,-5.22809E-002,-1.89001E-001,1.24129E-001,1.13160E+000,-1.66050E-003,0.00000E+000,2.54760E-004,9.51369E-001,0.00000E+000,4.14004E-004,-6.97252E-002,1.00000E+000,20
719,1317,-1.10401E+001,-1.22480E+000,1.65317E-001,2.87588E+000,-5.08119E-001,1.67288E-001,2.92521E+000,1.11861E-002,5.63803E-001,0,4.43139E+001,-8.66125E+000,9.98185E-001,9.17939E-001,-4.67661E+001,9.97438E-001,1.24401E-001,-5.22773E-002,-4.85301E-004,1.24402E-001,-5.22786E-002,-1.57379E-001,1.24928E-001,1.13247E+000,-1.65328E-003,0.00000E+000,3.49084E-004,9.51369E-001,0.00000E+000,1.62306E-003,-6.97151E-002,1.00000E+000,20
1139,1297,2.01553E+001,-1.89860E+000,1.12500E-001,6.70777E+000,-1.19917E-001,9.13800E-002,6.70947E+000,8.16774E-003,3.51170E-001,0,1.00748E+002,-2.86689E+000,9.99699E-001,6.29808E+001,-3.31657E+001,9.98607E-001,1.28100E-001,-5.32858E-002,-2.08104E-003,1.28124E-001,-5.33097E-002,-6.57239E-001,1.28724E-001,1.13647E+000,-2.18587E-002,0.00000E+000,1.40968E-002,9.49906E-001,0.00000E+000,2.20597E-003,-6.33337E-002,1.00000E+000,20
1139,1307,2.01486E+001,-1.30040E+000,2.34776E-002,6.69387E+000,-1.64830E-001,3.96407E-002,6.69601E+000,1.01682E-002,3.33878E-001,0,1.00751E+002,-3.47454E+000,9.99491E-001,6.27936E+001,-3.37023E+001,9.98501E-001,1.28984E-001,-5.32811E-002,-1.98725E-003,1.29006E-001,-5.33028E-002,-6.24601E-001,1.29653E-001,1.13747E+000,-2.18474E-002,0.00000E+000,1.42961E-002,9.49909E-001,0.00000E+000,1.43653E-003,-6.33423E-002,1.00000E+000,20
1139,1337,2.01616E+001,5.57340E-001,-6.85975E-002,6.64987E+000,-2.59513E-001,-8.26834E-002,6.65544E+000,1.24985E-002,4.84301E-001,0,1.00548E+002,-4.81458E+000,9.98565E-001,6.30340E+001,-3.46110E+001,9.97620E-001,1.31648E-001,-5.32583E-002,-1.68073E-003,1.31664E-001,-5.32735E-002,-5.20739E-001,1.32460E-001,1.14050E+000,-2.17601E-002,0.00000E+000,1.48990E-002,9.49926E-001,0.00000E+000,-8.90570E-004,-6.34093E-002,1.00000E+000,20
1139,1347,2.01823E+001,1.17841E+000,-4.22875E-002,6.63938E+000,-2.96512E-001,-1.15157E-001,6.64699E+000,1.30805E-002,4.77297E-001,0,1.00502E+002,-5.33830E+000,9.98342E-001,6.34600E+001,-3.50434E+001,9.97076E-001,1.32540E-001,-5.32476E-002,-1.57010E-003,1.32553E-001,-5.32609E-002,-4.84165E-001,1.33402E-001,1.14152E+000,-2.17126E-002,0.00000E+000,1.51014E-002,9.49935E-001,0.00000E+000,-1.67191E-003,-6.34458E-002,1.00000E+000,20
1139,1327,2.01521E+001,-6.98364E-002,-7.20087E-002,6.66764E+000,-2.30596E-001,-4.26143E-002,6.67177E+000,1.23509E-002,4.47185E-001,0,1.00674E+002,-4.41891E+000,9.98854E-001,6.28171E+001,-3.43485E+001,9.97270E-001,1.30757E-001,-5.32680E-002,-1.78880E-003,1.30774E-001,-5.32853E-002,-5.56868E-001,1.31519E-001,1.13949E+000,-2.18018E-002,0.00000E+000,1.46969E-002,9.49918E-001,0.00000E+000,-1.10634E-004,-6.33773E-002,1.00000E+000,20
1139,1317,2.01421E+001,-6.90478E-001,-4.22808E-002,6.67665E+000,-2.00307E-001,-3.05623E-003,6.67965E+000,1.17010E-002,3.96980E-001,0,1.00662E+002,-3.99146E+000,9.99511E-001,6.26479E+001,-3.40667E+001,9.97868E-001,1.29869E-001,-5.32756E-002,-1.89096E-003,1.29888E-001,-5.32951E-002,-5.91494E-001,1.30583E-001,1.13848E+000,-2.18309E-002,0.00000E+000,1.44959E-002,9.49912E-001,0.00000E+000,6.65227E-004,-6.33550E-002,1.00000E+000,20
709,1347,-1.17433E+001,5.87390E-001,1.70946E-002,2.78462E+000,-6.05644E-001,3.60789E-002,2.84995E+000,1.03311E-002,5.60849E-001,0,4.33189E+001,-9.93180E+000,9.98817E-001,1.50126E-001,-4.86653E+001,9.98639E-001,1.21129E-001,-5.14826E-002,-8.87602E-004,1.21133E-001,-5.14871E-002,-2.94616E-001,1.21586E-001,1.12877E+000,-8.93317E-004,0.00000E+000,-8.27619E-004,9.52053E-001,0.00000E+000,-1.79932E-003,-6.85978E-002,1.00000E+000,20
709,1357,-1.17240E+001,1.20343E+000,3.04961E-002,2.78299E+000,-6.36831E-001,-2.69693E-003,2.85492E+000,9.36605E-003,5.63384E-001,0,4.34027E+001,-1.03476E+001,9.99112E-001,6.19475E-001,-4.92182E+001,9.99058E-001,1.20211E-001,-5.14913E-002,-1.03726E-003,1.20217E-001,-5.14975E-002,-3.46108E-001,1.20628E-001,1.12774E+000,-9.26522E-004,0.00000E+000,-1.00397E-003,9.52047E-001,0.00000E+000,-3.03832E-003,-6.86377E-002,1.00000E+000,20
709,1337,-1.17516E+001,-2.64772E-002,4.36569E-002,2.79073E+000,-5.77696E-001,7.91294E-002,2.85100E+000,9.20498E-003,5.69656E-001,0,4.32892E+001,-9.58248E+000,9.98692E-001,-4.30500E-002,-4.81619E+001,9.98318E-001,1.22039E-001,-5.14765E-002,-7.43288E-004,1.22043E-001,-5.14797E-002,-2.45431E-001,1.22539E-001,1.12980E+000,-8.70471E-004,0.00000E+000,-6.52170E-004,9.52057E-001,0.00000E+000,-5.66683E-004,-6.85704E-002,1.00000E+000,20
709,1317,-1.17627E+001,-1.22506E+000,1.85752E-001,2.79350E+000,-5.05485E-001,1.73020E-001,2.84413E+000,1.18645E-002,5.71619E-001,0,4.30475E+001,-8.62291E+000,9.98830E-001,-1.01078E-001,-4.69081E+001,9.98432E-001,1.23842E-001,-5.14706E-002,-4.66849E-004,1.23843E-001,-5.14719E-002,-1.52574E-001,1.24430E-001,1.13184E+000,-8.48330E-004,0.00000E+000,-3.03473E-004,9.52060E-001,0.00000E+000,1.88311E-003,-6.85438E-002,1.00000E+000,20
709,1327,-1.17565E+001,-6.26587E-001,1.05792E-001,2.79393E+000,-5.41528E-001,1.23728E-001,2.84861E+000,1.27729E-002,5.92162E-001,0,4.32039E+001,-9.10665E+000,9.98908E-001,-8.68310E-002,-4.75176E+001,9.98355E-001,1.22943E-001,-5.14731E-002,-6.04117E-004,1.22945E-001,-5.14752E-002,-1.98450E-001,1.23485E-001,1.13082E+000,-8.57511E-004,0.00000E+000,-4.77686E-004,9.52059E-001,0.00000E+000,6.59165E-004,-6.85548E-002,1.00000E+000,20
1149,1297,2.09026E+001,-1.88930E+000,9.28716E-002,6.79642E+000,-1.15366E-001,8.42099E-002,6.79793E+000,1.88153E-002,3.77369E-001,0,1.02031E+002,-2.79219E+000,9.99034E-001,6.45961E+001,-3.28764E+001,9.96305E-001,1.28410E-001,-5.34048E-002,-2.19104E-003,1.28436E-001,-5.34312E-002,-6.90337E-001,1.29039E-001,1.13683E+000,-2.09203E-002,0.00000E+000,1.31776E-002,9.49855E-001,0.00000E+000,8.66433E-004,-6.41056E-002,1.00000E+000,20
1149,1307,2.09062E+001,-1.27780E+000,2.32932E-002,6.79157E+000,-1.46966E-001,4.69037E-002,6.79332E+000,1.20290E-002,3.77308E-001,0,1.02108E+002,-3.25058E+000,9.99246E-001,6.46025E+001,-3.32364E+001,9.97779E-001,1.29389E-001,-5.34011E-002,-2.11514E-003,1.29414E-001,-5.34256E-002,-6.62874E-001,1.30068E-001,1.13795E+000,-2.09056E-002,0.00000E+000,1.33345E-002,9.49857E-001,0.00000E+000,1.79796E-004,-6.41146E-002,1.00000E+000,20
1149,1317,2.09031E+001,-6.68807E-001,-3.68435E-002,6.77551E+000,-1.85104E-001,1.18618E-003,6.77804E+000,1.09477E-002,4.21905E-001,0,1.02048E+002,-3.78934E+000,9.99186E-001,6.45189E+001,-3.36347E+001,9.97563E-001,1.30372E-001,-5.33966E-002,-2.03565E-003,1.30394E-001,-5.34192E-002,-6.34576E-001,1.31102E-001,1.13906E+000,-2.08834E-002,0.00000E+000,1.34922E-002,9.49860E-001,0.00000E+000,-5.10164E-004,-6.41283E-002,1.00000E+000,20
1149,1327,2.09045E+001,-4.99852E-002,-7.63903E-002,6.75949E+000,-2.14322E-001,-4.17111E-002,6.76301E+000,1.09653E-002,3.94157E-001,0,1.01970E+002,-4.18775E+000,9.99007E-001,6.45384E+001,-3.39619E+001,9.97350E-001,1.31353E-001,-5.33913E-002,-1.95300E-003,1.31374E-001,-5.34119E-002,-6.05606E-001,1.32136E-001,1.14018E+000,-2.08537E-002,0.00000E+000,1.36498E-002,9.49864E-001,0.00000E+000,-1.20012E-003,-6.41466E-002,1.00000E+000,20
1149,1337,2.09161E+001,5.67533E-001,-8.00644E-002,6.74512E+000,-2.54243E-001,-8.21611E-002,6.75041E+000,1.67254E-002,4.83120E-001,0,1.01904E+002,-4.74608E+000,9.98970E-001,6.47719E+001,-3.43307E+001,9.98109E-001,1.32344E-001,-5.33843E-002,-1.86339E-003,1.32363E-001,-5.34030E-002,-5.74764E-001,1.33183E-001,1.14132E+000,-2.08098E-002,0.00000E+000,1.38094E-002,9.49870E-001,0.00000E+000,-1.89828E-003,-6.41738E-002,1.00000E+000,20
1149,1347,2.09419E+001,1.19269E+000,-3.95144E-002,6.73576E+000,-2.90292E-001,-1.15498E-001,6.74300E+000,1.59810E-002,4.84241E-001,0,1.01874E+002,-5.24742E+000,9.98994E-001,6.52983E+001,-3.47250E+001,9.97871E-001,1.33336E-001,-5.33756E-002,-1.76692E-003,1.33353E-001,-5.33923E-002,-5.42146E-001,1.34232E-001,1.14245E+000,-2.07502E-002,0.00000E+000,1.39694E-002,9.49879E-001,0.00000E+000,-2.59843E-003,-6.42105E-002,1.00000E+000,20
699,1347,-1.24611E+001,5.83509E-001,2.81494E-002,2.70859E+000,-6.05760E-001,4.12495E-002,2.77581E+000,1.01225E-002,5.79122E-001,0,4.21499E+001,-9.92554E+000,9.99185E-001,-8.14475E-001,-4.88435E+001,9.99057E-001,1.20063E-001,-5.07230E-002,-7.90100E-004,1.20067E-001,-5.07267E-002,-2.65057E-001,1.20547E-001,1.12757E+000,3.35486E-004,0.00000E+000,-1.68610E-003,9.52699E-001,0.00000E+000,-1.64872E-003,-6.74269E-002,1.00000E+000,20
699,1357,-1.24450E+001,1.19480E+000,3.93250E-002,2.70422E+000,-6.41211E-001,1.98409E-003,2.77920E+000,9.80298E-003,5.75226E-001,0,4.21934E+001,-1.04034E+001,9.99122E-001,-3.99992E-001,-4.94702E+001,9.98945E-001,1.19056E-001,-5.07284E-002,-8.93919E-004,1.19061E-001,-5.07331E-002,-3.01653E-001,1.19493E-001,1.12644E+000,2.99974E-004,0.00000E+000,-1.78232E-003,9.52696E-001,0.00000E+000,-2.77940E-003,-6.74623E-002,1.00000E+000,20
699,1337,-1.24779E+001,-3.44294E-002,4.87423E-002,2.70629E+000,-5.80724E-001,7.93531E-002,2.76904E+000,8.00274E-003,5.50250E-001,0,4.20059E+001,-9.60966E+000,9.99082E-001,-1.15529E+000,-4.84077E+001,9.98888E-001,1.21066E-001,-5.07192E-002,-6.91162E-004,1.21069E-001,-5.07220E-002,-2.30520E-001,1.21598E-001,1.12870E+000,3.60667E-004,0.00000E+000,-1.59016E-003,9.52701E-001,0.00000E+000,-5.21281E-004,-6.74017E-002,1.00000E+000,20
699,1317,-1.24908E+001,-1.22557E+000,1.97959E-001,2.70490E+000,-5.04163E-001,1.68317E-001,2.75663E+000,1.21419E-002,6.17445E-001,0,4.17135E+001,-8.58931E+000,9.99055E-001,-1.21994E+000,-4.70185E+001,9.98578E-001,1.23044E-001,-5.07164E-002,-5.08424E-004,1.23046E-001,-5.07179E-002,-1.67646E-001,1.23676E-001,1.13094E+000,3.80846E-004,0.00000E+000,-1.40018E-003,9.52703E-001,0.00000E+000,1.71136E-003,-6.73816E-002,1.00000E+000,20
699,1327,-1.24854E+001,-6.27364E-001,1.10565E-001,2.70627E+000,-5.40471E-001,1.20715E-001,2.76235E+000,9.70217E-003,6.75227E-001,0,4.18794E+001,-9.07616E+000,9.99076E-001,-1.23807E+000,-4.75997E+001,9.97872E-001,1.22054E-001,-5.07174E-002,-5.98650E-004,1.22056E-001,-5.07194E-002,-1.98525E-001,1.22635E-001,1.12982E+000,3.73710E-004,0.00000E+000,-1.49535E-003,9.52702E-001,0.00000E+000,5.92877E-004,-6.73887E-002,1.00000E+000,20
1159,1307,2.16509E+001,-1.26994E+000,2.48975E-003,6.87710E+000,-1.43203E-001,3.84284E-002,6.87870E+000,1.29878E-002,3.65340E-001,0,1.03349E+002,-3.18012E+000,9.98013E-001,6.61805E+001,-3.29844E+001,9.96637E-001,1.29915E-001,-5.37025E-002,-2.15517E-003,1.29940E-001,-5.37278E-002,-6.72372E-001,1.30587E-001,1.13856E+000,-2.00377E-002,0.00000E+000,1.26021E-002,9.49625E-001,0.00000E+000,-1.10998E-003,-6.48181E-002,1.00000E+000,20
1159,1317,2.16553E+001,-6.52770E-001,-5.21309E-002,6.86837E+000,-1.73997E-001,-1.86970E-003,6.87058E+000,1.30051E-002,4.29151E-001,0,1.03376E+002,-3.61938E+000,9.98357E-001,6.62223E+001,-3.32552E+001,9.98049E-001,1.30963E-001,-5.37028E-002,-2.14071E-003,1.30988E-001,-5.37276E-002,-6.64074E-001,1.31691E-001,1.13975E+000,-2.00137E-002,0.00000E+000,1.26323E-002,9.49625E-001,0.00000E+000,-1.76610E-003,-6.48313E-002,1.00000E+000,20
1159,1327,2.16645E+001,-3.69369E-002,-7.66566E-002,6.85768E+000,-2.08919E-001,-3.91005E-002,6.86097E+000,8.79436E-003,4.18358E-001,0,1.03356E+002,-4.10973E+000,9.99211E-001,6.63863E+001,-3.36504E+001,9.98657E-001,1.32012E-001,-5.37031E-002,-2.12101E-003,1.32036E-001,-5.37273E-002,-6.54250E-001,1.32797E-001,1.14095E+000,-1.99775E-002,0.00000E+000,1.26625E-002,9.49626E-001,0.00000E+000,-2.42367E-003,-6.48512E-002,1.00000E+000,20
1159,1297,2.16502E+001,-1.87632E+000,7.51404E-002,6.88569E+000,-1.06538E-001,8.18265E-002,6.88701E+000,1.36740E-002,4.23591E-001,0,1.03301E+002,-2.67508E+000,9.98395E-001,6.62245E+001,-3.25240E+001,9.94909E-001,1.28872E-001,-5.37022E-002,-2.16663E-003,1.28898E-001,-5.37279E-002,-6.79809E-001,1.29491E-001,1.13737E+000,-2.00548E-002,0.00000E+000,1.25722E-002,9.49624E-001,0.00000E+000,-4.58094E-004,-6.48088E-002,1.00000E+000,20
1159,1337,2.16856E+001,5.81466E-001,-6.33301E-002,6.84920E+000,-2.48444E-001,-7.64418E-002,6.85413E+000,1.25871E-002,4.42355E-001,0,1.03363E+002,-4.66529E+000,9.99565E-001,6.67933E+001,-3.40729E+001,9.99333E-001,1.33067E-001,-5.37036E-002,-2.09385E-003,1.33091E-001,-5.37271E-002,-6.42224E-001,1.33911E-001,1.14216E+000,-1.99240E-002,0.00000E+000,1.26930E-002,9.49628E-001,0.00000E+000,-3.08658E-003,-6.48806E-002,1.00000E+000,20
1159,1347,2.17046E+001,1.20693E+000,-3.88424E-002,6.83557E+000,-2.81344E-001,-1.15031E-001,6.84232E+000,1.34470E-002,4.39898E-001,0,1.03292E+002,-5.12792E+000,9.99162E-001,6.71861E+001,-3.44280E+001,9.98606E-001,1.34121E-001,-5.37041E-002,-2.06438E-003,1.34143E-001,-5.37268E-002,-6.29637E-001,1.35026E-001,1.14337E+000,-1.98650E-002,0.00000E+000,1.27235E-002,9.49629E-001,0.00000E+000,-3.74930E-003,-6.49130E-002,1.00000E+000,20
689,1347,-1.31841E+001,5.73610E-001,3.08855E-002,2.62647E+000,-6.12007E-001,3.56014E-002,2.69707E+000,9.64279E-003,5.89994E-001,0,4.09175E+001,-9.99035E+000,9.99384E-001,-1.87821E+000,-4.91007E+001,9.98669E-001,1.18923E-001,-5.01636E-002,-7.78416E-004,1.18927E-001,-5.01672E-002,-2.63762E-001,1.19410E-001,1.12628E+000,1.52882E-003,0.00000E+000,-2.66793E-003,9.53173E-001,0.00000E+000,-1.70945E-003,-6.65352E-002,1.00000E+000,20
689,1357,-1.31710E+001,1.18412E+000,3.39037E-002,2.62151E+000,-6.45755E-001,-6.17946E-005,2.69988E+000,9.93840E-003,5.72444E-001,0,4.09415E+001,-1.04510E+001,9.99201E-001,-1.52887E+000,-4.97305E+001,9.99016E-001,1.17754E-001,-5.01693E-002,-9.03741E-004,1.17759E-001,-5.01742E-002,-3.08347E-001,1.18187E-001,1.12497E+000,1.49220E-003,0.00000E+000,-2.81268E-003,9.53169E-001,0.00000E+000,-2.74206E-003,-6.65640E-002,1.00000E+000,20
689,1337,-1.31974E+001,-3.17497E-002,4.79921E-002,2.62855E+000,-5.72975E-001,7.55244E-002,2.69134E+000,9.92250E-003,5.47104E-001,0,4.08335E+001,-9.46701E+000,9.99301E-001,-2.17251E+000,-4.84685E+001,9.99293E-001,1.20092E-001,-5.01589E-002,-6.55464E-004,1.20094E-001,-5.01614E-002,-2.20584E-001,1.20636E-001,1.12760E+000,1.55981E-003,0.00000E+000,-2.52294E-003,9.53177E-001,0.00000E+000,-6.75080E-004,-6.65108E-002,1.00000E+000,20
1169,1327,2.24151E+001,-2.46073E-002,-8.68314E-002,6.94656E+000,-2.02222E-001,-4.42586E-002,6.94964E+000,8.44430E-003,4.39184E-001,0,1.04631E+002,-4.01842E+000,9.99481E-001,6.80758E+001,-3.33314E+001,9.99047E-001,1.32498E-001,-5.39500E-002,-2.08495E-003,1.32522E-001,-5.39733E-002,-6.40599E-001,1.33279E-001,1.14153E+000,-1.89709E-002,0.00000E+000,1.19684E-002,9.49422E-001,0.00000E+000,-3.74952E-003,-6.51850E-002,1.00000E+000,20
1169,1337,2.24407E+001,6.00383E-001,-6.18355E-002,6.94060E+000,-2.35483E-001,-7.73609E-002,6.94503E+000,1.13905E-002,4.21995E-001,0,1.04655E+002,-4.48284E+000,9.99569E-001,6.85710E+001,-3.36958E+001,9.99110E-001,1.33560E-001,-5.39548E-002,-2.09099E-003,1.33584E-001,-5.39781E-002,-6.38803E-001,1.34401E-001,1.14274E+000,-1.89133E-002,0.00000E+000,1.19253E-002,9.49420E-001,0.00000E+000,-4.28459E-003,-6.52104E-002,1.00000E+000,20
1169,1347,2.24668E+001,1.22298E+000,-3.15215E-002,6.93196E+000,-2.72899E-001,-1.17612E-001,6.93832E+000,1.06704E-002,4.14090E-001,0,1.04665E+002,-5.00486E+000,9.99176E-001,6.90810E+001,-3.41087E+001,9.98813E-001,1.34623E-001,-5.39600E-002,-2.09471E-003,1.34646E-001,-5.39832E-002,-6.36316E-001,1.35524E-001,1.14396E+000,-1.88499E-002,0.00000E+000,1.18820E-002,9.49418E-001,0.00000E+000,-4.82060E-003,-6.52382E-002,1.00000E+000,20
689,1327,-1.32168E+001,-6.35867E-001,9.65143E-002,2.61876E+000,-5.41018E-001,1.15848E-001,2.67657E+000,1.11505E-002,6.20069E-001,0,4.05628E+001,-9.05447E+000,9.98690E-001,-2.47641E+000,-4.78298E+001,9.98390E-001,1.21247E-001,-5.01560E-002,-5.38713E-004,1.21248E-001,-5.01577E-002,-1.80077E-001,1.21849E-001,1.12890E+000,1.57934E-003,0.00000E+000,-2.37940E-003,9.53179E-001,0.00000E+000,3.48929E-004,-6.64954E-002,1.00000E+000,20
1169,1317,2.24064E+001,-6.43204E-001,-5.16023E-002,6.95760E+000,-1.67675E-001,1.87816E-003,6.95963E+000,1.53000E-002,3.51840E-001,0,1.04619E+002,-3.54134E+000,9.98960E-001,6.79390E+001,-3.30530E+001,9.98773E-001,1.31440E-001,-5.39465E-002,-2.06972E-003,1.31463E-001,-5.39696E-002,-6.39567E-001,1.32162E-001,1.14032E+000,-1.90070E-002,0.00000E+000,1.20114E-002,9.49423E-001,0.00000E+000,-3.21677E-003,-6.51691E-002,1.00000E+000,20
1169,1307,2.24009E+001,-1.25870E+000,-8.20792E-003,6.96666E+000,-1.37760E-001,3.68116E-002,6.96812E+000,1.31483E-002,3.82609E-001,0,1.04619E+002,-3.09473E+000,9.98945E-001,6.78619E+001,-3.26865E+001,9.98129E-001,1.30390E-001,-5.39437E-002,-2.05089E-003,1.30413E-001,-5.39665E-002,-6.37366E-001,1.31057E-001,1.13912E+000,-1.90339E-002,0.00000E+000,1.20539E-002,9.49424E-001,0.00000E+000,-2.68957E-003,-6.51573E-002,1.00000E+000,20
1169,1297,2.24039E+001,-1.86395E+000,7.37549E-002,6.97818E+000,-9.89191E-002,8.57736E-002,6.97941E+000,1.14165E-002,4.65435E-001,0,1.04591E+002,-2.60104E+000,9.99055E-001,6.79787E+001,-3.22176E+001,9.96530E-001,1.29339E-001,-5.39415E-002,-2.02725E-003,1.29362E-001,-5.39639E-002,-6.33640E-001,1.29952E-001,1.13792E+000,-1.90496E-002,0.00000E+000,1.20964E-002,9.49425E-001,0.00000E+000,-2.16248E-003,-6.51504E-002,1.00000E+000,20
689,1317,-1.32221E+001,-1.23270E+000,1.84120E-001,2.61731E+000,-5.05136E-001,1.62962E-001,2.67058E+000,1.24026E-002,6.05083E-001,0,4.03980E+001,-8.57214E+000,9.98727E-001,-2.45530E+000,-4.72048E+001,9.97536E-001,1.22396E-001,-5.01551E-002,-4.27376E-004,1.22397E-001,-5.01561E-002,-1.41909E-001,1.23060E-001,1.13020E+000,1.58720E-003,0.00000E+000,-2.23618E-003,9.53180E-001,0.00000E+000,1.37067E-003,-6.64893E-002,1.00000E+000,20
679,1347,-1.39149E+001,5.68120E-001,2.16020E-002,2.53807E+000,-6.09066E-001,2.78451E-002,2.61027E+000,1.46364E-002,6.10958E-001,0,3.95895E+001,-9.96340E+000,9.98872E-001,-3.08790E+000,-4.92601E+001,9.98491E-001,1.17750E-001,-4.96625E-002,-8.14406E-004,1.17754E-001,-4.96664E-002,-2.78716E-001,1.18233E-001,1.12496E+000,2.78725E-003,0.00000E+000,-3.80164E-003,9.53594E-001,0.00000E+000,-1.73186E-003,-6.56951E-002,1.00000E+000,20
679,1357,-1.38898E+001,1.17928E+000,2.87843E-002,2.54663E+000,-6.43270E-001,4.54483E-003,2.62662E+000,7.52868E-003,5.87111E-001,0,3.97889E+001,-1.04180E+001,9.99247E-001,-2.54275E+000,-4.98922E+001,9.99032E-001,1.16342E-001,-4.96717E-002,-1.03751E-003,1.16349E-001,-4.96782E-002,-3.58053E-001,1.16762E-001,1.12338E+000,2.74710E-003,0.00000E+000,-4.13349E-003,9.53586E-001,0.00000E+000,-2.75548E-003,-6.57211E-002,1.00000E+000,20
1179,1297,2.31491E+001,-1.85744E+000,4.76573E-002,7.06626E+000,-9.47974E-002,8.31316E-002,7.06738E+000,1.87674E-002,5.07128E-001,0,1.05844E+002,-2.56352E+000,9.99451E-001,6.95656E+001,-3.19506E+001,9.97164E-001,1.29728E-001,-5.40686E-002,-1.96537E-003,1.29749E-001,-5.40896E-002,-6.12580E-001,1.30346E-001,1.13838E+000,-1.82457E-002,0.00000E+000,1.16390E-002,9.49339E-001,0.00000E+000,-3.76667E-003,-6.56038E-002,1.00000E+000,20
1179,1307,2.31539E+001,-1.25012E+000,-1.94936E-002,7.06003E+000,-1.30895E-001,3.90947E-002,7.06136E+000,8.59490E-003,3.37279E-001,0,1.05929E+002,-3.01890E+000,9.99517E-001,6.95942E+001,-3.24599E+001,9.98405E-001,1.30722E-001,-5.40692E-002,-1.96002E-003,1.30742E-001,-5.40900E-002,-6.07626E-001,1.31390E-001,1.13951E+000,-1.82265E-002,0.00000E+000,1.16412E-002,9.49339E-001,0.00000E+000,-4.14164E-003,-6.56101E-002,1.00000E+000,20
1179,1317,2.31564E+001,-6.33635E-001,-9.37464E-002,7.05258E+000,-1.58884E-001,-8.01250E-003,7.05437E+000,2.02091E-002,3.52767E-001,0,1.06006E+002,-3.40986E+000,9.99448E-001,6.95770E+001,-3.27193E+001,9.98786E-001,1.31716E-001,-5.40698E-002,-1.95544E-003,1.31736E-001,-5.40904E-002,-6.02962E-001,1.32436E-001,1.14065E+000,-1.82089E-002,0.00000E+000,1.16435E-002,9.49339E-001,0.00000E+000,-4.51735E-003,-6.56160E-002,1.00000E+000,20
1179,1337,2.31966E+001,6.09487E-001,-7.86194E-002,7.03290E+000,-2.31696E-001,-9.41692E-002,7.03734E+000,1.00280E-002,4.11959E-001,0,1.06025E+002,-4.41623E+000,9.99359E-001,7.03359E+001,-3.34254E+001,9.98252E-001,1.33730E-001,-5.40722E-002,-1.91682E-003,1.33749E-001,-5.40918E-002,-5.84713E-001,1.34561E-001,1.14295E+000,-1.81054E-002,0.00000E+000,1.16481E-002,9.49339E-001,0.00000E+000,-5.28021E-003,-6.56502E-002,1.00000E+000,20
1179,1347,2.32330E+001,1.23851E+000,-3.38510E-002,7.03183E+000,-2.65550E-001,-1.29310E-001,7.03803E+000,9.68264E-003,4.16562E-001,0,1.06126E+002,-4.88348E+000,9.99394E-001,7.10251E+001,-3.37617E+001,9.98881E-001,1.34740E-001,-5.40737E-002,-1.89207E-003,1.34759E-001,-5.40926E-002,-5.74074E-001,1.35630E-001,1.14411E+000,-1.80407E-002,0.00000E+000,1.16504E-002,9.49339E-001,0.00000E+000,-5.66370E-003,-6.56716E-002,1.00000E+000,20
679,1327,-1.39409E+001,-6.41919E-001,1.01308E-001,2.53619E+000,-5.41318E-001,1.18665E-001,2.59603E+000,1.30078E-002,5.97697E-001,0,3.92976E+001,-9.05396E+000,9.98577E-001,-3.54564E+000,-4.80453E+001,9.97704E-001,1.20534E-001,-4.96496E-002,-3.81267E-004,1.20535E-001,-4.96504E-002,-1.28360E-001,1.21157E-001,1.12810E+000,2.84572E-003,0.00000E+000,-3.14302E-003,9.53607E-001,0.00000E+000,2.99754E-004,-6.56572E-002,1.00000E+000,20
679,1337,-1.39281E+001,-3.74204E-002,4.82035E-002,2.54023E+000,-5.72885E-001,7.86203E-002,2.60522E+000,1.43949E-002,5.79980E-001,0,3.94777E+001,-9.47393E+000,9.98899E-001,-3.35673E+000,-4.86436E+001,9.98688E-001,1.19147E-001,-4.96539E-002,-5.93695E-004,1.19149E-001,-4.96560E-002,-2.01513E-001,1.19699E-001,1.12653E+000,2.82457E-003,0.00000E+000,-3.47147E-003,9.53602E-001,0.00000E+000,-7.13397E-004,-6.56709E-002,1.00000E+000,20
1179,1327,2.31702E+001,-1.86226E-002,-9.71848E-002,7.04050E+000,-1.98937E-001,-4.61244E-002,7.04346E+000,1.38511E-002,3.99317E-001,0,1.05968E+002,-3.99505E+000,9.99426E-001,6.98405E+001,-3.31404E+001,9.97713E-001,1.32720E-001,-5.40709E-002,-1.93913E-003,1.32740E-001,-5.40910E-002,-5.94719E-001,1.33495E-001,1.14180E+000,-1.81642E-002,0.00000E+000,1.16458E-002,9.49339E-001,0.00000E+000,-4.89753E-003,-6.56308E-002,1.00000E+000,20
679,1317,-1.39473E+001,-1.23822E+000,1.88905E-001,2.53363E+000,-5.05191E-001,1.66433E-001,2.58886E+000,1.08428E-002,6.23034E-001,0,3.91150E+001,-8.58717E+000,9.98925E-001,-3.54194E+000,-4.73902E+001,9.97765E-001,1.21914E-001,-4.96482E-002,-1.74626E-004,1.21914E-001,-4.96484E-002,-5.83188E-002,1.22612E-001,1.12965E+000,2.85528E-003,0.00000E+000,-2.81559E-003,9.53609E-001,0.00000E+000,1.30976E-003,-6.56510E-002,1.00000E+000,20
669,1327,-1.46614E+001,-6.53845E-001,1.06602E-001,2.45743E+000,-5.46434E-001,1.25950E-001,2.52059E+000,1.04731E-002,5.61283E-001,0,3.80793E+001,-9.14004E+000,9.99429E-001,-4.55636E+000,-4.83589E+001,9.98750E-001,1.19713E-001,-4.92311E-002,-1.67150E-004,1.19714E-001,-4.92313E-002,-5.66872E-002,1.20341E-001,1.12716E+000,4.69826E-003,0.00000E+000,-4.29493E-003,9.53946E-001,0.00000E+000,2.52468E-004,-6.47631E-002,1.00000E+000,20
669,1337,-1.46506E+001,-4.28586E-002,5.38354E-002,2.45918E+000,-5.73477E-001,8.39225E-002,2.52656E+000,8.99686E-003,6.18480E-001,0,3.82269E+001,-9.49354E+000,9.99107E-001,-4.39470E+000,-4.88231E+001,9.99025E-001,1.18060E-001,-4.92362E-002,-4.39583E-004,1.18061E-001,-4.92374E-002,-1.50548E-001,1.18601E-001,1.12530E+000,4.67208E-003,0.00000E+000,-4.73682E-003,9.53940E-001,0.00000E+000,-7.81511E-004,-6.47776E-002,1.00000E+000,20
669,1347,-1.46356E+001,5.62135E-001,2.12871E-002,2.46230E+000,-6.07423E-001,4.56051E-002,2.53652E+000,7.81910E-003,5.90297E-001,0,3.83858E+001,-9.94486E+000,9.99072E-001,-4.11282E+000,-4.94662E+001,9.98886E-001,1.16402E-001,-4.92436E-002,-7.15729E-004,1.16405E-001,-4.92467E-002,-2.47560E-001,1.16863E-001,1.12344E+000,4.63760E-003,0.00000E+000,-5.17861E-003,9.53931E-001,0.00000E+000,-1.81526E-003,-6.47967E-002,1.00000E+000,20
669,1357,-1.46110E+001,1.17973E+000,3.19383E-002,2.46748E+000,-6.35231E-001,8.53208E-003,2.54795E+000,8.01375E-003,5.76685E-001,0,3.85677E+001,-1.03083E+001,9.99016E-001,-3.56288E+000,-5.00037E+001,9.99009E-001,1.14730E-001,-4.92569E-002,-1.00308E-003,1.14737E-001,-4.92631E-002,-3.50452E-001,1.15118E-001,1.12157E+000,4.58163E-003,0.00000E+000,-5.62302E-003,9.53918E-001,0.00000E+000,-2.85514E-003,-6.48278E-002,1.00000E+000,20
1189,1337,2.39597E+001,6.20257E-001,-9.26934E-002,7.13143E+000,-2.28494E-001,-1.09952E-001,7.13594E+000,1.27463E-002,4.15988E-001,0,1.07483E+002,-4.33841E+000,9.99495E-001,7.22221E+001,-3.31274E+001,9.98581E-001,1.33579E-001,-5.42553E-002,-1.73304E-003,1.33595E-001,-5.42713E-002,-5.28575E-001,1.34376E-001,1.14280E+000,-1.73663E-002,0.00000E+000,1.14255E-002,9.49173E-001,0.00000E+000,-5.89249E-003,-6.57409E-002,1.00000E+000,20
669,1317,-1.46657E+001,-1.24555E+000,1.99774E-001,2.45578E+000,-5.06178E-001,1.72472E-001,2.51333E+000,1.25842E-002,5.86295E-001,0,3.79135E+001,-8.61709E+000,9.99390E-001,-4.50261E+000,-4.76429E+001,9.98703E-001,1.21354E-001,-4.92311E-002,9.55407E-005,1.21354E-001,-4.92312E-002,3.20900E-002,1.22071E-001,1.12901E+000,4.70600E-003,0.00000E+000,-3.85566E-003,9.53948E-001,0.00000E+000,1.28033E-003,-6.47588E-002,1.00000E+000,20
1189,1297,2.39126E+001,-1.84662E+000,6.04197E-002,7.16194E+000,-9.01479E-002,7.93308E-002,7.16294E+000,1.38240E-002,4.53164E-001,0,1.07203E+002,-2.49777E+000,9.99242E-001,7.15004E+001,-3.17455E+001,9.96725E-001,1.30073E-001,-5.42443E-002,-1.68148E-003,1.30089E-001,-5.42596E-002,-5.22636E-001,1.30683E-001,1.13879E+000,-1.74844E-002,0.00000E+000,1.16404E-002,9.49180E-001,0.00000E+000,-5.36766E-003,-6.57254E-002,1.00000E+000,20
1189,1307,2.39058E+001,-1.24123E+000,-3.20784E-002,7.14861E+000,-1.28833E-001,2.79487E-002,7.14983E+000,1.02071E-002,4.26365E-001,0,1.07218E+002,-3.00184E+000,9.98830E-001,7.13102E+001,-3.21587E+001,9.98233E-001,1.30945E-001,-5.42458E-002,-1.70257E-003,1.30960E-001,-5.42615E-002,-5.26697E-001,1.31599E-001,1.13979E+000,-1.74743E-002,0.00000E+000,1.15871E-002,9.49179E-001,0.00000E+000,-5.49790E-003,-6.57268E-002,1.00000E+000,20
1189,1317,2.39248E+001,-6.12609E-001,-6.71631E-002,7.14807E+000,-1.52947E-001,-1.65002E-002,7.14973E+000,1.11353E-002,4.49950E-001,0,1.07378E+002,-3.30160E+000,9.99399E-001,7.16088E+001,-3.23071E+001,9.99390E-001,1.31824E-001,-5.42486E-002,-1.71541E-003,1.31839E-001,-5.42644E-002,-5.28154E-001,1.32524E-001,1.14079E+000,-1.74446E-002,0.00000E+000,1.15333E-002,9.49178E-001,0.00000E+000,-5.62939E-003,-6.57307E-002,1.00000E+000,20
1189,1327,2.39404E+001,-7.54900E-004,-8.48314E-002,7.14008E+000,-1.94010E-001,-5.96221E-002,7.14296E+000,1.36068E-002,4.33588E-001,0,1.07425E+002,-3.87810E+000,9.99557E-001,7.18789E+001,-3.27762E+001,9.99206E-001,1.32701E-001,-5.42517E-002,-1.72560E-003,1.32717E-001,-5.42676E-002,-5.28789E-001,1.33449E-001,1.14179E+000,-1.74087E-002,0.00000E+000,1.14795E-002,9.49176E-001,0.00000E+000,-5.76076E-003,-6.57353E-002,1.00000E+000,20
659,1327,-1.53799E+001,-6.43308E-001,1.18280E-001,2.37916E+000,-5.31360E-001,1.32893E-001,2.44140E+000,1.58927E-002,5.57570E-001,0,3.68621E+001,-8.90572E+000,9.99197E-001,-5.50678E+000,-4.83245E+001,9.97687E-001,1.18681E-001,-4.88989E-002,-1.26614E-004,1.18681E-001,-4.88990E-002,-4.32896E-002,1.19292E-001,1.12599E+000,6.63549E-003,0.00000E+000,-5.84276E-003,9.54211E-001,0.00000E+000,4.47629E-006,-6.40586E-002,1.00000E+000,20
659,1337,-1.53526E+001,-5.27343E-002,7.68452E-002,2.39745E+000,-5.78751E-001,1.01991E-001,2.46842E+000,2.17233E-002,6.73561E-001,0,3.72405E+001,-9.63297E+000,9.99001E-001,-5.06664E+000,-4.90972E+001,9.98674E-001,1.16912E-001,-4.89033E-002,-4.10375E-004,1.16914E-001,-4.89043E-002,-1.41799E-001,1.17433E-001,1.12400E+000,6.60773E-003,0.00000E+000,-6.31047E-003,9.54205E-001,0.00000E+000,-1.00699E-003,-6.40727E-002,1.00000E+000,20
659,1347,-1.53428E+001,5.60899E-001,4.28793E-002,2.39531E+000,-6.03758E-001,6.13088E-002,2.47099E+000,1.13170E-002,6.58905E-001,0,3.73208E+001,-9.94901E+000,9.99442E-001,-4.86575E+000,-4.96007E+001,9.99398E-001,1.15141E-001,-4.89101E-002,-6.98106E-004,1.15144E-001,-4.89130E-002,-2.43811E-001,1.15577E-001,1.12202E+000,6.57080E-003,0.00000E+000,-6.77784E-003,9.54196E-001,0.00000E+000,-2.01774E-003,-6.40915E-002,1.00000E+000,20
659,1357,-1.53260E+001,1.18021E+000,4.07095E-002,2.39346E+000,-6.29049E-001,1.46146E-002,2.47478E+000,7.68311E-003,5.85931E-001,0,3.74194E+001,-1.02221E+001,9.99267E-001,-4.46799E+000,-5.01169E+001,9.99344E-001,1.13356E-001,-4.89224E-002,-9.96560E-004,1.13362E-001,-4.89286E-002,-3.51839E-001,1.13715E-001,1.12002E+000,6.51337E-003,0.00000E+000,-7.24777E-003,9.54183E-001,0.00000E+000,-3.03400E-003,-6.41207E-002,1.00000E+000,20
1199,1307,2.46638E+001,-1.22883E+000,-3.09486E-002,7.23980E+000,-1.24492E-001,1.86002E-002,7.24089E+000,1.36903E-002,4.46941E-001,0,1.08533E+002,-2.92776E+000,9.98933E-001,7.31475E+001,-3.18662E+001,9.97887E-001,1.31027E-001,-5.42258E-002,-1.34929E-003,1.31037E-001,-5.42357E-002,-4.17286E-001,1.31683E-001,1.13990E+000,-1.65025E-002,0.00000E+000,1.15074E-002,9.49190E-001,0.00000E+000,-6.37742E-003,-6.55811E-002,1.00000E+000,20
1199,1317,2.46749E+001,-6.11985E-001,-7.57494E-002,7.23370E+000,-1.57489E-001,-2.62570E-002,7.23546E+000,1.17848E-002,4.29787E-001,0,1.08619E+002,-3.36998E+000,9.98488E-001,7.33075E+001,-3.21961E+001,9.97310E-001,1.31829E-001,-5.42294E-002,-1.37877E-003,1.31839E-001,-5.42396E-002,-4.24554E-001,1.32527E-001,1.14081E+000,-1.64785E-002,0.00000E+000,1.14145E-002,9.49187E-001,0.00000E+000,-6.28551E-003,-6.55787E-002,1.00000E+000,20
1199,1327,2.46917E+001,7.96187E-003,-1.09988E-001,7.23053E+000,-1.88469E-001,-7.13224E-002,7.23333E+000,1.23087E-002,4.02403E-001,0,1.08745E+002,-3.78497E+000,9.98999E-001,7.35717E+001,-3.25068E+001,9.98010E-001,1.32630E-001,-5.42334E-002,-1.40663E-003,1.32641E-001,-5.42440E-002,-4.31267E-001,1.33372E-001,1.14173E+000,-1.64506E-002,0.00000E+000,1.13215E-002,9.49184E-001,0.00000E+000,-6.19351E-003,-6.55759E-002,1.00000E+000,20
659,1317,-1.53941E+001,-1.24810E+000,1.79054E-001,2.36999E+000,-5.03255E-001,1.61018E-001,2.42818E+000,1.26995E-002,5.92229E-001,0,3.66365E+001,-8.52341E+000,9.98490E-001,-5.69768E+000,-4.77354E+001,9.95700E-001,1.20435E-001,-4.88978E-002,1.50195E-004,1.20435E-001,-4.88979E-002,5.08205E-002,1.21142E-001,1.12797E+000,6.65118E-003,0.00000E+000,-5.37770E-003,9.54215E-001,0.00000E+000,1.01021E-003,-6.40506E-002,1.00000E+000,20
1199,1337,2.47229E+001,6.34343E-001,-8.25948E-002,7.22693E+000,-2.22866E-001,-1.11846E-001,7.23123E+000,1.03614E-002,4.25812E-001,0,1.08834E+002,-4.26613E+000,9.99404E-001,7.41496E+001,-3.28290E+001,9.98118E-001,1.33439E-001,-5.42393E-002,-1.42608E-003,1.33450E-001,-5.42502E-002,-4.35329E-001,1.34225E-001,1.14265E+000,-1.64024E-002,0.00000E+000,1.12275E-002,9.49179E-001,0.00000E+000,-6.10052E-003,-6.55710E-002,1.00000E+000,20
1199,1297,2.46677E+001,-1.83138E+000,5.05283E-002,7.25102E+000,-8.23232E-002,6.15979E-002,7.25175E+000,1.05112E-002,4.33217E-001,0,1.08518E+002,-2.33222E+000,9.98758E-001,7.32773E+001,-3.14074E+001,9.97349E-001,1.30229E-001,-5.42236E-002,-1.31406E-003,1.30238E-001,-5.42330E-002,-4.08153E-001,1.30843E-001,1.13899E+000,-1.65128E-002,0.00000E+000,1.15998E-002,9.49191E-001,0.00000E+000,-6.46888E-003,-6.55821E-002,1.00000E+000,20
649,1347,-1.60689E+001,5.64149E-001,3.62313E-002,2.30923E+000,-5.95804E-001,5.03741E-002,2.38539E+000,1.14612E-002,6.51949E-001,0,3.60312E+001,-9.77828E+000,9.99117E-001,-5.98055E+000,-4.96454E+001,9.98403E-001,1.13727E-001,-4.84679E-002,-6.23058E-004,1.13729E-001,-4.84703E-002,-2.20093E-001,1.14141E-001,1.12042E+000,8.69788E-003,0.00000E+000,-8.43935E-003,9.54551E-001,0.00000E+000,-2.22769E-003,-6.32079E-002,1.00000E+000,20
649,1357,-1.60470E+001,1.17865E+000,4.57027E-002,2.31313E+000,-6.24846E-001,1.78474E-002,2.39610E+000,7.85403E-003,5.82132E-001,0,3.61802E+001,-1.01516E+001,9.99362E-001,-5.47170E+000,-5.02604E+001,9.99021E-001,1.11732E-001,-4.84784E-002,-9.12688E-004,1.11737E-001,-4.84836E-002,-3.26389E-001,1.12062E-001,1.11819E+000,8.63593E-003,0.00000E+000,-8.89648E-003,9.54538E-001,0.00000E+000,-3.20672E-003,-6.32351E-002,1.00000E+000,20
649,1337,-1.60888E+001,-4.48393E-002,6.30384E-002,2.30105E+000,-5.64631E-001,8.28552E-002,2.37076E+000,1.28133E-002,6.45039E-001,0,3.58118E+001,-9.36487E+000,9.99303E-001,-6.35473E+000,-4.90655E+001,9.98492E-001,1.15713E-001,-4.84625E-002,-3.43579E-004,1.15714E-001,-4.84633E-002,-1.19905E-001,1.16221E-001,1.12264E+000,8.73821E-003,0.00000E+000,-7.98290E-003,9.54559E-001,0.00000E+000,-1.25012E-003,-6.31902E-002,1.00000E+000,20
649,1327,-1.61075E+001,-6.37785E-001,1.10489E-001,2.29087E+000,-5.22021E-001,1.17664E-001,2.35254E+000,1.00306E-002,6.01174E-001,0,3.55503E+001,-8.72971E+000,9.99570E-001,-6.64794E+000,-4.83033E+001,9.99208E-001,1.17684E-001,-4.84597E-002,-7.04984E-005,1.17684E-001,-4.84598E-002,-2.43119E-002,1.18293E-001,1.12485E+000,8.76745E-003,0.00000E+000,-7.52886E-003,9.54565E-001,0.00000E+000,-2.77712E-004,-6.31773E-002,1.00000E+000,20
1209,1307,2.54233E+001,-1.21317E+000,-3.32372E-002,7.33266E+000,-1.15637E-001,8.44401E-003,7.33358E+000,1.05137E-002,4.41899E-001,0,1.09873E+002,-2.78427E+000,9.99123E-001,7.50073E+001,-3.15287E+001,9.97930E-001,1.30823E-001,-5.39572E-002,-9.71564E-004,1.30829E-001,-5.39623E-002,-3.01246E-001,1.31495E-001,1.13968E+000,-1.54807E-002,0.00000E+000,1.14012E-002,9.49419E-001,0.00000E+000,-6.66663E-003,-6.51584E-002,1.00000E+000,20
1209,1317,2.54317E+001,-6.02998E-001,-8.40830E-002,7.32554E+000,-1.54501E-001,-3.54273E-002,7.32725E+000,1.18662E-002,4.22741E-001,0,1.09944E+002,-3.31846E+000,9.99149E-001,7.51148E+001,-3.19487E+001,9.97111E-001,1.31656E-001,-5.39598E-002,-9.92402E-004,1.31662E-001,-5.39651E-002,-3.06322E-001,1.32373E-001,1.14063E+000,-1.54582E-002,0.00000E+000,1.13153E-002,9.49417E-001,0.00000E+000,-6.39704E-003,-6.51520E-002,1.00000E+000,20
1209,1327,2.54571E+001,2.26317E-002,-1.01575E-001,7.32618E+000,-1.82074E-001,-8.14018E-002,7.32889E+000,1.11237E-002,4.01001E-001,0,1.10126E+002,-3.69085E+000,9.99299E-001,7.55358E+001,-3.22024E+001,9.98256E-001,1.32491E-001,-5.39635E-002,-1.00763E-003,1.32497E-001,-5.39689E-002,-3.09623E-001,1.33253E-001,1.14158E+000,-1.54225E-002,0.00000E+000,1.12292E-002,9.49414E-001,0.00000E+000,-6.12645E-003,-6.51419E-002,1.00000E+000,20
1209,1337,2.54894E+001,6.47505E-001,-7.27643E-002,7.32315E+000,-2.19463E-001,-1.21525E-001,7.32745E+000,1.15646E-002,4.35600E-001,0,1.10223E+002,-4.20826E+000,9.99246E-001,7.61302E+001,-3.25441E+001,9.97400E-001,1.33335E-001,-5.39682E-002,-1.01659E-003,1.33340E-001,-5.39738E-002,-3.10963E-001,1.34144E-001,1.14254E+000,-1.53715E-002,0.00000E+000,1.11421E-002,9.49409E-001,0.00000E+000,-5.85293E-003,-6.51274E-002,1.00000E+000,20
1209,1297,2.54258E+001,-1.81769E+000,4.43003E-002,7.34422E+000,-7.37171E-002,5.43780E-002,7.34479E+000,9.83980E-003,3.95058E-001,0,1.09852E+002,-2.19009E+000,9.99067E-001,7.51074E+001,-3.11104E+001,9.97403E-001,1.29991E-001,-5.39553E-002,-9.46817E-004,1.29996E-001,-5.39602E-002,-2.94904E-001,1.30620E-001,1.13873E+000,-1.54941E-002,0.00000E+000,1.14869E-002,9.49420E-001,0.00000E+000,-6.93566E-003,-6.51622E-002,1.00000E+000,20
649,1317,-1.61135E+001,-1.24228E+000,1.89162E-001,2.28853E+000,-4.94850E-001,1.56222E-001,2.34662E+000,8.81688E-003,6.06356E-001,0,3.54023E+001,-8.37195E+000,9.99136E-001,-6.66313E+000,-4.77593E+001,9.98927E-001,1.19643E-001,-4.84608E-002,1.94399E-004,1.19643E-001,-4.84610E-002,6.62581E-002,1.20360E-001,1.12706E+000,8.78026E-003,0.00000E+000,-7.07628E-003,9.54568E-001,0.00000E+000,6.91558E-004,-6.31717E-002,1.00000E+000,20
639,1347,-1.67908E+001,5.68281E-001,3.24744E-002,2.22815E+000,-5.85439E-001,4.83800E-002,2.30429E+000,1.18457E-002,6.09993E-001,0,3.47923E+001,-9.58306E+000,9.98801E-001,-7.01629E+000,-4.97000E+001,9.98139E-001,1.12402E-001,-4.79320E-002,-5.80076E-004,1.12404E-001,-4.79341E-002,-2.07289E-001,1.12808E-001,1.11891E+000,1.10119E-002,0.00000E+000,-1.03303E-002,9.54989E-001,0.00000E+000,-2.40858E-003,-6.22924E-002,1.00000E+000,20
639,1357,-1.67665E+001,1.18508E+000,4.52972E-002,2.23435E+000,-6.12806E-001,1.81455E-002,2.31693E+000,7.60038E-003,5.93929E-001,0,3.49698E+001,-9.95228E+000,9.99240E-001,-6.46052E+000,-5.02618E+001,9.99079E-001,1.10257E-001,-4.79411E-002,-8.60459E-004,1.10261E-001,-4.79458E-002,-3.11627E-001,1.10573E-001,1.11652E+000,1.09454E-002,0.00000E+000,-1.07706E-002,9.54977E-001,0.00000E+000,-3.41427E-003,-6.23204E-002,1.00000E+000,20
639,1317,-1.68287E+001,-1.24631E+000,2.09057E-001,2.21113E+000,-4.97510E-001,1.62918E-001,2.27226E+000,1.17405E-002,7.10436E-001,0,3.42011E+001,-8.44263E+000,9.99111E-001,-7.53499E+000,-4.79102E+001,9.98306E-001,1.18745E-001,-4.79306E-002,1.99525E-004,1.18745E-001,-4.79308E-002,6.85878E-002,1.19478E-001,1.12603E+000,1.10896E-002,0.00000E+000,-9.02124E-003,9.55003E-001,0.00000E+000,5.81906E-004,-6.22598E-002,1.00000E+000,20
639,1327,-1.68210E+001,-6.51034E-001,1.23622E-001,2.21660E+000,-5.30515E-001,1.25355E-001,2.28265E+000,8.61937E-003,6.14860E-001,0,3.43965E+001,-8.88089E+000,9.99396E-001,-7.51516E+000,-4.86284E+001,9.98591E-001,1.16650E-001,-4.79274E-002,-5.09558E-005,1.16650E-001,-4.79274E-002,-1.77397E-002,1.17266E-001,1.12367E+000,1.10812E-002,0.00000E+000,-9.45483E-003,9.55002E-001,0.00000E+000,-4.08588E-004,-6.22633E-002,1.00000E+000,20
639,1337,-1.68103E+001,-4.13458E-002,5.83870E-002,2.22068E+000,-5.56610E-001,8.31861E-002,2.29088E+000,1.00478E-002,6.49359E-001,0,3.45790E+001,-9.20493E+000,9.99186E-001,-7.38964E+000,-4.91029E+001,9.98422E-001,1.14529E-001,-4.79275E-002,-3.10885E-004,1.14530E-001,-4.79281E-002,-1.09643E-001,1.15036E-001,1.12129E+000,1.10567E-002,0.00000E+000,-9.89241E-003,9.54997E-001,0.00000E+000,-1.40820E-003,-6.22736E-002,1.00000E+000,20
1219,1317,2.61977E+001,-5.88244E-001,-7.75425E-002,7.42239E+000,-1.50065E-001,-4.34655E-002,7.42404E+000,1.41627E-002,4.74758E-001,0,1.11334E+002,-3.24132E+000,9.99217E-001,7.70906E+001,-3.16137E+001,9.97095E-001,1.31323E-001,-5.39199E-002,-5.37339E-004,1.31325E-001,-5.39214E-002,-1.66197E-001,1.32023E-001,1.14026E+000,-1.42594E-002,0.00000E+000,1.11745E-002,9.49400E-001,0.00000E+000,-6.16520E-003,-6.42507E-002,1.00000E+000,20
1219,1327,2.62187E+001,3.50472E-002,-9.97279E-002,7.42066E+000,-1.77930E-001,-8.61570E-002,7.42330E+000,7.49714E-003,4.11103E-001,0,1.11470E+002,-3.62247E+000,9.99605E-001,7.74362E+001,-3.19134E+001,9.98725E-001,1.32117E-001,-5.39218E-002,-5.39579E-004,1.32118E-001,-5.39234E-002,-1.66176E-001,1.32859E-001,1.14117E+000,-1.42280E-002,0.00000E+000,1.11058E-002,9.49398E-001,0.00000E+000,-5.68921E-003,-6.42342E-002,1.00000E+000,20
1219,1337,2.62532E+001,6.63285E-001,-7.22979E-002,7.41890E+000,-2.12526E-001,-1.30206E-001,7.42309E+000,1.02857E-002,4.62278E-001,0,1.11601E+002,-4.09802E+000,9.99300E-001,7.80601E+001,-3.21899E+001,9.98147E-001,1.32920E-001,-5.39246E-002,-5.34045E-004,1.32922E-001,-5.39261E-002,-1.63762E-001,1.33708E-001,1.14208E+000,-1.41782E-002,0.00000E+000,1.10361E-002,9.49394E-001,0.00000E+000,-5.20657E-003,-6.42080E-002,1.00000E+000,20
1219,1297,2.61881E+001,-1.80416E+000,4.14525E-002,7.44014E+000,-6.72704E-002,4.63981E-002,7.44059E+000,1.10979E-002,3.75664E-001,0,1.11226E+002,-2.06763E+000,9.99041E-001,7.70138E+001,-3.08132E+001,9.97199E-001,1.29733E-001,-5.39172E-002,-5.22104E-004,1.29735E-001,-5.39186E-002,-1.62886E-001,1.30349E-001,1.13846E+000,-1.42972E-002,0.00000E+000,1.13119E-002,9.49403E-001,0.00000E+000,-7.11716E-003,-6.42707E-002,1.00000E+000,20
1219,1307,2.61910E+001,-1.19772E+000,-2.22091E-002,7.43132E+000,-1.08969E-001,4.79008E-003,7.43212E+000,1.40773E-002,4.23213E-001,0,1.11269E+002,-2.66725E+000,9.99099E-001,7.70165E+001,-3.12290E+001,9.96500E-001,1.30528E-001,-5.39184E-002,-5.30862E-004,1.30529E-001,-5.39199E-002,-1.64904E-001,1.31185E-001,1.13936E+000,-1.42810E-002,0.00000E+000,1.12433E-002,9.49402E-001,0.00000E+000,-6.64179E-003,-6.42621E-002,1.00000E+000,20
629,1347,-1.75083E+001,5.63908E-001,2.65427E-002,2.15139E+000,-5.83445E-001,4.68779E-002,2.22959E+000,1.08042E-002,5.89980E-001,0,3.36201E+001,-9.52794E+000,9.98515E-001,-7.99062E+000,-4.98691E+001,9.98072E-001,1.11293E-001,-4.82431E-002,-5.90176E-004,1.11295E-001,-4.82453E-002,-2.11951E-001,1.11623E-001,1.11765E+000,1.34038E-002,0.00000E+000,-1.24040E-002,9.54618E-001,0.00000E+000,-2.24449E-003,-6.14573E-002,1.00000E+000,20
629,1357,-1.74802E+001,1.18115E+000,4.18497E-002,2.16132E+000,-6.10456E-001,1.72959E-002,2.24594E+000,9.04287E-003,5.91456E-001,0,3.38533E+001,-9.90167E+000,9.98710E-001,-7.36685E+000,-5.04218E+001,9.98511E-001,1.09229E-001,-4.82460E-002,-7.00070E-004,1.09232E-001,-4.82491E-002,-2.54707E-001,1.09479E-001,1.11535E+000,1.33396E-002,0.00000E+000,-1.25323E-002,9.54614E-001,0.00000E+000,-3.11021E-003,-6.14815E-002,1.00000E+000,20
629,1327,-1.75388E+001,-6.49311E-001,1.20561E-001,2.13907E+000,-5.23018E-001,1.24605E-001,2.20561E+000,8.85498E-003,5.81165E-001,0,3.32101E+001,-8.73699E+000,9.98984E-001,-8.48375E+000,-4.87134E+001,9.98393E-001,1.15383E-001,-4.82425E-002,-4.00042E-004,1.15383E-001,-4.82435E-002,-1.40080E-001,1.15898E-001,1.12222E+000,1.34681E-002,0.00000E+000,-1.21489E-002,9.54621E-001,0.00000E+000,-5.22806E-004,-6.14331E-002,1.00000E+000,20
629,1337,-1.75243E+001,-4.48476E-002,5.83198E-002,2.14693E+000,-5.54035E-001,8.49662E-002,2.21889E+000,1.00023E-002,6.23262E-001,0,3.34451E+001,-9.15038E+000,9.98845E-001,-8.29323E+000,-4.92721E+001,9.98452E-001,1.13341E-001,-4.82421E-002,-4.91197E-004,1.13343E-001,-4.82436E-002,-1.74171E-001,1.13760E-001,1.11994E+000,1.34446E-002,0.00000E+000,-1.22764E-002,9.54620E-001,0.00000E+000,-1.38324E-003,-6.14419E-002,1.00000E+000,20
1229,1317,2.69628E+001,-5.68672E-001,-8.14731E-002,7.52100E+000,-1.36874E-001,-5.02892E-002,7.52242E+000,1.39907E-002,4.60400E-001,0,1.12742E+002,-3.03542E+000,9.99061E-001,7.90430E+001,-3.12146E+001,9.98339E-001,1.31086E-001,-5.36370E-002,-3.19055E-005,1.31086E-001,-5.36370E-002,-9.89617E-003,1.31805E-001,1.14001E+000,-1.30308E-002,0.00000E+000,1.10914E-002,9.49621E-001,0.00000E+000,-5.67893E-003,-6.34584E-002,1.00000E+000,20
1229,1327,2.69792E+001,4.55388E-002,-1.01827E-001,7.51405E+000,-1.77108E-001,-9.24686E-002,7.51671E+000,9.58945E-003,4.70839E-001,0,1.12804E+002,-3.59948E+000,9.99311E-001,7.93164E+001,-3.16213E+001,9.98191E-001,1.31829E-001,-5.36363E-002,-7.27274E-006,1.31829E-001,-5.36363E-002,-2.24677E-003,1.32589E-001,1.14085E+000,-1.30008E-002,0.00000E+000,1.10657E-002,9.49620E-001,0.00000E+000,-5.01900E-003,-6.34350E-002,1.00000E+000,20
1229,1337,2.70137E+001,6.76214E-001,-8.22369E-002,7.51512E+000,-2.04256E-001,-1.33220E-001,7.51907E+000,9.93615E-003,4.28313E-001,0,1.12963E+002,-3.97857E+000,9.99035E-001,7.99282E+001,-3.18877E+001,9.97891E-001,1.32572E-001,-5.36354E-002,2.29478E-005,1.32572E-001,-5.36354E-002,7.06100E-003,1.33374E-001,1.14170E+000,-1.29579E-002,0.00000E+000,1.10400E-002,9.49619E-001,0.00000E+000,-4.35768E-003,-6.34014E-002,1.00000E+000,20
629,1317,-1.75511E+001,-1.24373E+000,2.10296E-001,2.12879E+000,-4.88964E-001,1.65362E-001,2.19048E+000,9.89080E-003,6.54394E-001,0,3.29314E+001,-8.28644E+000,9.99207E-001,-8.56056E+000,-4.80010E+001,9.98304E-001,1.17402E-001,-4.82442E-002,-3.16700E-004,1.17403E-001,-4.82448E-002,-1.09544E-001,1.18022E-001,1.12449E+000,1.34754E-002,0.00000E+000,-1.20225E-002,9.54622E-001,0.00000E+000,3.30720E-004,-6.14304E-002,1.00000E+000,20
1229,1297,2.69502E+001,-1.78927E+000,3.84798E-002,7.53535E+000,-5.97737E-002,3.84236E-002,7.53569E+000,1.19137E-002,4.36476E-001,0,1.12588E+002,-1.96393E+000,9.98717E-001,7.89201E+001,-3.04548E+001,9.96174E-001,1.29605E-001,-5.36380E-002,-7.01335E-005,1.29605E-001,-5.36380E-002,-2.19290E-002,1.30245E-001,1.13833E+000,-1.30655E-002,0.00000E+000,1.11424E-002,9.49622E-001,0.00000E+000,-6.99145E-003,-6.34856E-002,1.00000E+000,20
1229,1307,2.69603E+001,-1.17749E+000,-2.30717E-002,7.53504E+000,-9.50572E-002,4.22410E-003,7.53564E+000,1.68353E-002,4.57828E-001,0,1.12727E+002,-2.47839E+000,9.98571E-001,7.90385E+001,-3.08029E+001,9.96884E-001,1.30345E-001,-5.36376E-002,-5.27536E-005,1.30345E-001,-5.36376E-002,-1.64285E-002,1.31024E-001,1.13916E+000,-1.30521E-002,0.00000E+000,1.11170E-002,9.49622E-001,0.00000E+000,-6.33638E-003,-6.34751E-002,1.00000E+000,20
619,1327,-1.82579E+001,-6.49293E-001,1.18979E-001,2.05962E+000,-5.17466E-001,1.24014E-001,2.12725E+000,7.39617E-003,5.72089E-001,0,3.19920E+001,-8.63563E+000,9.98951E-001,-9.46362E+000,-4.88157E+001,9.98748E-001,1.14399E-001,-4.78413E-002,-6.43964E-004,1.14402E-001,-4.78439E-002,-2.27413E-001,1.14911E-001,1.12109E+000,1.59609E-002,0.00000E+000,-1.47368E-002,9.54939E-001,0.00000E+000,-7.17240E-004,-6.09389E-002,1.00000E+000,20
619,1337,-1.82402E+001,-4.32276E-002,6.36911E-002,2.06998E+000,-5.47275E-001,8.67224E-002,2.14286E+000,8.79095E-003,6.20465E-001,0,3.22582E+001,-9.03958E+000,9.98136E-001,-9.20376E+000,-4.93631E+001,9.98126E-001,1.12282E-001,-4.78412E-002,-6.54934E-004,1.12284E-001,-4.78439E-002,-2.34346E-001,1.12692E-001,1.11872E+000,1.59341E-002,0.00000E+000,-1.47209E-002,9.54939E-001,0.00000E+000,-1.45443E-003,-6.09472E-002,1.00000E+000,20
619,1347,-1.82211E+001,5.67374E-001,2.93899E-002,2.07892E+000,-5.73641E-001,5.33262E-002,2.15727E+000,1.00540E-002,6.09571E-001,0,3.24893E+001,-9.39096E+000,9.98200E-001,-8.85969E+000,-4.99166E+001,9.98184E-001,1.10159E-001,-4.78412E-002,-6.70522E-004,1.10162E-001,-4.78441E-002,-2.43145E-001,1.10479E-001,1.11635E+000,1.58969E-002,0.00000E+000,-1.47050E-002,9.54940E-001,0.00000E+000,-2.19139E-003,-6.09588E-002,1.00000E+000,20
619,1357,-1.81935E+001,1.18358E+000,3.34186E-002,2.08943E+000,-6.00538E-001,1.81714E-002,2.17410E+000,9.05542E-003,5.99244E-001,0,3.27469E+001,-9.74564E+000,9.98923E-001,-8.27541E+000,-5.04685E+001,9.98846E-001,1.08021E-001,-4.78416E-002,-6.97189E-004,1.08025E-001,-4.78447E-002,-2.56282E-001,1.08259E-001,1.11397E+000,1.58350E-002,0.00000E+000,-1.46890E-002,9.54940E-001,0.00000E+000,-2.93196E-003,-6.09781E-002,1.00000E+000,20
619,1317,-1.82680E+001,-1.24064E+000,2.12937E-001,2.05165E+000,-4.78899E-001,1.69498E-001,2.11361E+000,1.19653E-002,6.11054E-001,0,3.17362E+001,-8.13256E+000,9.98852E-001,-9.49281E+000,-4.80800E+001,9.98132E-001,1.16500E-001,-4.78417E-002,-6.41349E-004,1.16502E-001,-4.78442E-002,-2.23595E-001,1.17120E-001,1.12344E+000,1.59687E-002,0.00000E+000,-1.47527E-002,9.54939E-001,0.00000E+000,1.57027E-005,-6.09365E-002,1.00000E+000,20
1239,1307,2.77123E+001,-1.16850E+000,-4.20208E-002,7.62177E+000,-9.07823E-002,-1.14900E-002,7.62232E+000,1.68587E-002,4.29770E-001,0,1.13996E+002,-2.39013E+000,9.98472E-001,8.07689E+001,-3.05458E+001,9.97248E-001,1.29934E-001,-5.31848E-002,1.75586E-004,1.29934E-001,-5.31849E-002,5.49390E-002,1.30644E-001,1.13871E+000,-1.21028E-002,0.00000E+000,1.07650E-002,9.50023E-001,0.00000E+000,-6.25196E-003,-6.29179E-002,1.00000E+000,20
1239,1317,2.77248E+001,-5.49287E-001,-9.07866E-002,7.61796E+000,-1.21389E-001,-5.50661E-002,7.61912E+000,1.54807E-002,4.19150E-001,0,1.14115E+002,-2.80758E+000,9.98707E-001,8.09427E+001,-3.08204E+001,9.98102E-001,1.30727E-001,-5.31794E-002,2.64192E-004,1.30728E-001,-5.31798E-002,8.23084E-002,1.31483E-001,1.13960E+000,-1.20804E-002,0.00000E+000,1.08451E-002,9.50025E-001,0.00000E+000,-5.20740E-003,-6.28918E-002,1.00000E+000,20
1239,1327,2.77452E+001,6.57511E-002,-8.98861E-002,7.61016E+000,-1.65731E-001,-9.33179E-002,7.61254E+000,1.25681E-002,5.01324E-001,0,1.14146E+002,-3.44504E+000,9.98913E-001,8.13049E+001,-3.12233E+001,9.97966E-001,1.31528E-001,-5.31713E-002,3.60673E-004,1.31529E-001,-5.31720E-002,1.11884E-001,1.32330E-001,1.14051E+000,-1.20416E-002,0.00000E+000,1.09260E-002,9.50028E-001,0.00000E+000,-4.15138E-003,-6.28467E-002,1.00000E+000,20
1239,1337,2.77701E+001,6.94201E-001,-7.83321E-002,7.60516E+000,-1.92362E-001,-1.28211E-001,7.60867E+000,1.08199E-002,4.05274E-001,0,1.14195E+002,-3.81729E+000,9.98559E-001,8.17546E+001,-3.15331E+001,9.96810E-001,1.32321E-001,-5.31629E-002,4.57535E-004,1.32322E-001,-5.31640E-002,1.41331E-001,1.33170E-001,1.14142E+000,-1.20005E-002,0.00000E+000,1.10063E-002,9.50032E-001,0.00000E+000,-3.10290E-003,-6.27989E-002,1.00000E+000,20
1239,1297,2.77089E+001,-1.77767E+000,3.34860E-002,7.62782E+000,-5.32591E-002,3.26354E-002,7.62807E+000,1.06424E-002,4.51167E-001,0,1.13899E+002,-1.88348E+000,9.98826E-001,8.07744E+001,-3.01669E+001,9.97264E-001,1.29140E-001,-5.31885E-002,9.12791E-005,1.29140E-001,-5.31886E-002,2.86839E-002,1.29807E-001,1.13781E+000,-1.21159E-002,0.00000E+000,1.06852E-002,9.50022E-001,0.00000E+000,-7.29380E-003,-6.29330E-002,1.00000E+000,20
609,1347,-1.89330E+001,5.67643E-001,2.99510E-002,2.00588E+000,-5.68268E-001,5.20752E-002,2.08548E+000,1.28348E-002,6.35886E-001,0,3.13701E+001,-9.30255E+000,9.98178E-001,-9.71944E+000,-5.00050E+001,9.97808E-001,1.09095E-001,-4.68521E-002,-8.83880E-004,1.09100E-001,-4.68571E-002,-3.24727E-001,1.09461E-001,1.11513E+000,1.82334E-002,0.00000E+000,-1.71574E-002,9.55787E-001,0.00000E+000,-1.90307E-003,-5.99613E-002,1.00000E+000,20
609,1357,-1.89076E+001,1.18844E+000,2.91528E-002,2.01533E+000,-5.89464E-001,1.74479E-002,2.09984E+000,1.02309E-002,6.13669E-001,0,3.16080E+001,-9.56442E+000,9.98872E-001,-9.17919E+000,-5.04839E+001,9.98461E-001,1.06932E-001,-4.68518E-002,-8.72162E-004,1.06937E-001,-4.68567E-002,-3.24931E-001,1.07209E-001,1.11272E+000,1.81748E-002,0.00000E+000,-1.70716E-002,9.55789E-001,0.00000E+000,-2.72144E-003,-5.99812E-002,1.00000E+000,20
609,1317,-1.89890E+001,-1.24232E+000,2.07452E-001,1.96937E+000,-4.75015E-001,1.62206E-001,2.03233E+000,1.25099E-002,6.23365E-001,0,3.04914E+001,-8.06359E+000,9.98962E-001,-1.05085E+001,-4.81881E+001,9.97937E-001,1.15520E-001,-4.68512E-002,-9.64782E-004,1.15525E-001,-4.68570E-002,-3.40427E-001,1.16210E-001,1.12231E+000,1.83051E-002,0.00000E+000,-1.74137E-002,9.55784E-001,0.00000E+000,5.39733E-004,-5.99369E-002,1.00000E+000,20
609,1327,-1.89745E+001,-6.51077E-001,1.17725E-001,1.98225E+000,-5.14735E-001,1.23848E-001,2.05173E+000,9.22269E-003,6.39571E-001,0,3.08043E+001,-8.60278E+000,9.98893E-001,-1.04008E+001,-4.89080E+001,9.98341E-001,1.13388E-001,-4.68518E-002,-9.30027E-004,1.13393E-001,-4.68572E-002,-3.32529E-001,1.13961E-001,1.11992E+000,1.82990E-002,0.00000E+000,-1.73284E-002,9.55784E-001,0.00000E+000,-2.73008E-004,-5.99389E-002,1.00000E+000,20
609,1337,-1.89542E+001,-4.16536E-002,6.30410E-002,1.99520E+000,-5.39486E-001,8.66878E-002,2.06867E+000,1.08536E-002,6.15460E-001,0,3.11085E+001,-8.91520E+000,9.98140E-001,-1.00988E+001,-4.94429E+001,9.97887E-001,1.11248E-001,-4.68520E-002,-9.04406E-004,1.11253E-001,-4.68572E-002,-3.27744E-001,1.11713E-001,1.11753E+000,1.82721E-002,0.00000E+000,-1.72431E-002,9.55785E-001,0.00000E+000,-1.08649E-003,-5.99481E-002,1.00000E+000,20
1249,1297,2.84717E+001,-1.76027E+000,3.85110E-002,7.72225E+000,-4.29277E-002,3.11921E-002,7.72243E+000,1.25292E-002,4.67076E-001,0,1.15216E+002,-1.73677E+000,9.98938E-001,8.27089E+001,-2.98092E+001,9.97526E-001,1.28361E-001,-5.26126E-002,2.63959E-004,1.28362E-001,-5.26130E-002,8.35684E-002,1.29055E-001,1.13694E+000,-1.07930E-002,0.00000E+000,9.94938E-003,9.50553E-001,0.00000E+000,-7.71486E-003,-6.25308E-002,1.00000E+000,20
1249,1307,2.84694E+001,-1.15583E+000,-4.98261E-002,7.71303E+000,-8.35232E-002,-1.63185E-002,7.71350E+000,1.58856E-002,4.27233E-001,0,1.15285E+002,-2.28291E+000,9.98876E-001,8.25984E+001,-3.02424E+001,9.97141E-001,1.29312E-001,-5.26029E-002,5.07137E-004,1.29313E-001,-5.26043E-002,1.59726E-001,1.30060E-001,1.13801E+000,-1.07815E-002,0.00000E+000,1.03067E-002,9.50557E-001,0.00000E+000,-6.22104E-003,-6.25148E-002,1.00000E+000,20
1249,1317,2.84782E+001,-5.41779E-001,-9.47974E-002,7.70641E+000,-1.18612E-001,-5.22639E-002,7.70750E+000,1.44433E-002,4.12142E-001,0,1.15334E+002,-2.78881E+000,9.98177E-001,8.27183E+001,-3.06066E+001,9.96773E-001,1.30263E-001,-5.25871E-002,7.57132E-004,1.30266E-001,-5.25902E-002,2.37241E-001,1.31068E-001,1.13909E+000,-1.07560E-002,0.00000E+000,1.06653E-002,9.50565E-001,0.00000E+000,-4.72196E-003,-6.24793E-002,1.00000E+000,20
1249,1327,2.84960E+001,8.43789E-002,-1.10001E-001,7.69863E+000,-1.48701E-001,-9.64014E-002,7.70067E+000,1.32525E-002,4.48404E-001,0,1.15387E+002,-3.20233E+000,9.98302E-001,8.30183E+001,-3.08228E+001,9.97423E-001,1.31217E-001,-5.25638E-002,1.01607E-003,1.31223E-001,-5.25695E-002,3.16759E-001,1.32084E-001,1.14017E+000,-1.07138E-002,0.00000E+000,1.10266E-002,9.50579E-001,0.00000E+000,-3.21148E-003,-6.24204E-002,1.00000E+000,20
1249,1337,2.85237E+001,7.13511E-001,-8.93994E-002,7.69350E+000,-1.78633E-001,-1.32419E-001,7.69671E+000,1.04011E-002,4.15428E-001,0,1.15438E+002,-3.61923E+000,9.99107E-001,8.35219E+001,-3.11085E+001,9.98479E-001,1.32170E-001,-5.25352E-002,1.28050E-003,1.32179E-001,-5.25441E-002,3.97187E-001,1.33101E-001,1.14126E+000,-1.06596E-002,0.00000E+000,1.13886E-002,9.50598E-001,0.00000E+000,-1.69817E-003,-6.23448E-002,1.00000E+000,20
1259,1327,2.92540E+001,9.71432E-002,-1.15275E-001,7.79022E+000,-1.40563E-001,-9.81991E-002,7.79211E+000,1.07933E-002,4.44456E-001,0,1.16666E+002,-3.10701E+000,9.99241E-001,8.48676E+001,-3.05211E+001,9.98513E-001,1.31011E-001,-5.22841E-002,1.63932E-003,1.31025E-001,-5.22988E-002,5.12376E-001,1.31911E-001,1.13994E+000,-9.76957E-003,0.00000E+000,1.13472E-002,9.50801E-001,0.00000E+000,-1.71667E-003,-6.17222E-002,1.00000E+000,20
1259,1337,2.92818E+001,7.23937E-001,-9.58713E-002,7.78448E+000,-1.73614E-001,-1.37053E-001,7.78762E+000,9.93648E-003,4.12890E-001,0,1.16722E+002,-3.56186E+000,9.99473E-001,8.53680E+001,-3.08382E+001,9.99155E-001,1.31981E-001,-5.22421E-002,2.01045E-003,1.32003E-001,-5.22641E-002,6.25178E-001,1.32952E-001,1.14105E+000,-9.71304E-003,0.00000E+000,1.18838E-002,9.50829E-001,0.00000E+000,2.97590E-004,-6.16194E-002,1.00000E+000,20
599,1347,-1.96398E+001,5.77566E-001,3.71932E-002,1.93713E+000,-5.53215E-001,5.45218E-002,2.01531E+000,1.24124E-002,6.44583E-001,0,3.03038E+001,-9.06974E+000,9.98945E-001,-1.04736E+001,-4.99680E+001,9.98744E-001,1.08571E-001,-4.69823E-002,-6.30448E-004,1.08573E-001,-4.69849E-002,-2.32212E-001,1.08900E-001,1.11451E+000,2.01750E-002,0.00000E+000,-1.83611E-002,9.55572E-001,0.00000E+000,-1.52823E-003,-5.87706E-002,1.00000E+000,20
599,1357,-1.96113E+001,1.18977E+000,3.58778E-002,1.95033E+000,-5.82680E-001,2.21721E-002,2.03563E+000,8.59240E-003,6.30717E-001,0,3.05961E+001,-9.46646E+000,9.99082E-001,-9.88798E+000,-5.05751E+001,9.98815E-001,1.06545E-001,-4.69800E-002,-3.90207E-004,1.06546E-001,-4.69810E-002,-1.45624E-001,1.06794E-001,1.11225E+000,2.01224E-002,0.00000E+000,-1.78439E-002,9.55584E-001,0.00000E+000,-2.36434E-003,-5.87901E-002,1.00000E+000,20
1259,1287,2.92307E+001,-2.35416E+000,1.23349E-001,7.81811E+000,3.36375E-003,6.31893E-002,7.81836E+000,1.36931E-002,4.12636E-001,0,1.16403E+002,-1.07176E+000,9.98444E-001,8.46530E+001,-2.91637E+001,9.94674E-001,1.27116E-001,-5.23634E-002,2.26464E-004,1.27116E-001,-5.23637E-002,7.22948E-002,1.27772E-001,1.13555E+000,-9.85590E-003,0.00000E+000,9.22167E-003,9.50760E-001,0.00000E+000,-9.69568E-003,-6.18792E-002,1.00000E+000,20
1259,1297,2.92253E+001,-1.75059E+000,1.64944E-002,7.81131E+000,-3.69396E-002,1.83452E-002,7.81142E+000,1.17866E-002,4.24912E-001,0,1.16504E+002,-1.62176E+000,9.98575E-001,8.44698E+001,-2.95440E+001,9.96195E-001,1.28094E-001,-5.23558E-002,5.70269E-004,1.28096E-001,-5.23576E-002,1.81067E-001,1.28805E-001,1.13665E+000,-9.85350E-003,0.00000E+000,9.75113E-003,9.50761E-001,0.00000E+000,-7.70815E-003,-6.18748E-002,1.00000E+000,20
1259,1307,2.92274E+001,-1.14036E+000,-5.67168E-002,7.80513E+000,-7.34283E-002,-1.86494E-002,7.80550E+000,1.16351E-002,4.25748E-001,0,1.16572E+002,-2.13595E+000,9.98776E-001,8.44476E+001,-2.98972E+001,9.97368E-001,1.29069E-001,-5.23408E-002,9.19730E-004,1.29073E-001,-5.23454E-002,2.90475E-001,1.29839E-001,1.13774E+000,-9.83952E-003,0.00000E+000,1.02816E-002,9.50768E-001,0.00000E+000,-5.71669E-003,-6.18494E-002,1.00000E+000,20
599,1327,-1.96878E+001,-6.35740E-001,1.26422E-001,1.90633E+000,-4.95319E-001,1.25374E-001,1.97362E+000,9.33773E-003,6.44542E-001,0,2.96283E+001,-8.29211E+000,9.99062E-001,-1.12503E+001,-4.87897E+001,9.98537E-001,1.12587E-001,-4.69768E-002,-1.12885E-003,1.12595E-001,-4.69848E-002,-4.05316E-001,1.13108E-001,1.11899E+000,2.02342E-002,0.00000E+000,-1.93908E-002,9.55559E-001,0.00000E+000,1.36516E-004,-5.87486E-002,1.00000E+000,20
599,1337,-1.96676E+001,-3.41005E-002,6.12958E-002,1.92079E+000,-5.26310E-001,8.64012E-002,1.99347E+000,8.65302E-003,6.30248E-001,0,2.99625E+001,-8.70491E+000,9.98941E-001,-1.09810E+001,-4.94187E+001,9.98835E-001,1.10587E-001,-4.69817E-002,-8.76031E-004,1.10592E-001,-4.69866E-002,-3.18534E-001,1.11007E-001,1.11675E+000,2.02144E-002,0.00000E+000,-1.88772E-002,9.55563E-001,0.00000E+000,-6.93747E-004,-5.87560E-002,1.00000E+000,20
1259,1317,2.92370E+001,-5.24726E-001,-9.92225E-002,7.79883E+000,-1.07912E-001,-5.32699E-002,7.79976E+000,1.16549E-002,4.40348E-001,0,1.16620E+002,-2.64165E+000,9.99125E-001,8.45817E+001,-3.02255E+001,9.97912E-001,1.30041E-001,-5.23177E-002,1.27548E-003,1.30050E-001,-5.23266E-002,4.00721E-001,1.30874E-001,1.13884E+000,-9.81281E-003,0.00000E+000,1.08135E-002,9.50780E-001,0.00000E+000,-3.72003E-003,-6.18008E-002,1.00000E+000,20
599,1317,-1.97078E+001,-1.23605E+000,2.14709E-001,1.88776E+000,-4.65639E-001,1.61265E-001,1.95102E+000,1.23944E-002,6.14849E-001,0,2.92365E+001,-7.88769E+000,9.98931E-001,-1.14471E+001,-4.82113E+001,9.98487E-001,1.14581E-001,-4.69685E-002,-1.38792E-003,1.14593E-001,-4.69804E-002,-4.92196E-001,1.15211E-001,1.12122E+000,2.02392E-002,0.00000E+000,-1.99039E-002,9.55558E-001,0.00000E+000,9.66066E-004,-5.87468E-002,1.00000E+000,20
589,1347,-2.03538E+001,5.88377E-001,4.21338E-002,1.86162E+000,-5.36784E-001,5.91908E-002,1.93836E+000,8.97410E-003,6.52707E-001,0,2.91245E+001,-8.81645E+000,9.99045E-001,-1.13380E+001,-4.99140E+001,9.98906E-001,1.08095E-001,-4.68168E-002,-7.51422E-005,1.08095E-001,-4.68168E-002,-2.77922E-002,1.08417E-001,1.11393E+000,2.27055E-002,0.00000E+000,-1.94815E-002,9.55651E-001,0.00000E+000,-1.40270E-003,-5.77467E-002,1.00000E+000,20
589,1357,-2.03215E+001,1.19974E+000,4.27198E-002,1.87819E+000,-5.68097E-001,2.54240E-002,1.96239E+000,7.16302E-003,6.38838E-001,0,2.94732E+001,-9.22800E+000,9.99097E-001,-1.06879E+001,-5.05395E+001,9.99249E-001,1.06052E-001,-4.68150E-002,1.69247E-004,1.06052E-001,-4.68152E-002,6.34351E-002,1.06295E-001,1.11166E+000,2.26512E-002,0.00000E+000,-1.89658E-002,9.55664E-001,0.00000E+000,-2.14297E-003,-5.77644E-002,1.00000E+000,20
589,1337,-2.03786E+001,-2.66578E-002,7.01038E-002,1.84718E+000,-5.13960E-001,8.92058E-002,1.91942E+000,6.78192E-003,6.29871E-001,0,2.88190E+001,-8.51263E+000,9.99363E-001,-1.17903E+001,-4.94265E+001,9.99362E-001,1.10125E-001,-4.68144E-002,-3.26744E-004,1.10125E-001,-4.68151E-002,-1.19288E-001,1.10537E-001,1.11619E+000,2.27414E-002,0.00000E+000,-1.99955E-002,9.55643E-001,0.00000E+000,-6.64988E-004,-5.77350E-002,1.00000E+000,20
589,1327,-2.03954E+001,-6.19142E-001,1.35076E-001,1.83628E+000,-4.74623E-001,1.29364E-001,1.90103E+000,1.27049E-002,6.75594E-001,0,2.85360E+001,-7.97561E+000,9.99425E-001,-1.20057E+001,-4.86384E+001,9.98607E-001,1.12138E-001,-4.68087E-002,-5.83485E-004,1.12140E-001,-4.68108E-002,-2.10326E-001,1.12648E-001,1.11844E+000,2.27618E-002,0.00000E+000,-2.05063E-002,9.55638E-001,0.00000E+000,6.82401E-005,-5.77283E-002,1.00000E+000,20
1269,1327,3.00168E+001,1.11382E-001,-1.15391E-001,7.88558E+000,-1.33057E-001,-9.63781E-002,7.88729E+000,9.64039E-003,4.26512E-001,0,1.17984E+002,-2.99459E+000,9.99303E-001,8.68015E+001,-3.02145E+001,9.98629E-001,1.30906E-001,-5.17816E-002,2.15533E-003,1.30932E-001,-5.18070E-002,6.75844E-001,1.31878E-001,1.13983E+000,-8.81194E-003,0.00000E+000,1.14941E-002,9.51156E-001,0.00000E+000,-8.98250E-004,-5.95880E-002,1.00000E+000,20
1269,1337,3.00508E+001,7.33847E-001,-9.03734E-002,7.88493E+000,-1.70493E-001,-1.32932E-001,7.88789E+000,9.90911E-003,4.13702E-001,0,1.18107E+002,-3.54225E+000,9.99202E-001,8.74030E+001,-3.05997E+001,9.97979E-001,1.31945E-001,-5.17286E-002,2.60955E-003,1.31983E-001,-5.17657E-002,8.13811E-001,1.33001E-001,1.14102E+000,-8.74925E-003,0.00000E+000,1.21834E-002,9.51193E-001,0.00000E+000,1.21770E-003,-5.94765E-002,1.00000E+000,20
589,1317,-2.04173E+001,-1.22113E+000,2.28135E-001,1.81540E+000,-4.46622E-001,1.68295E-001,1.87709E+000,1.03981E-002,5.92946E-001,0,2.81012E+001,-7.58413E+000,9.98499E-001,-1.22184E+001,-4.81205E+001,9.97461E-001,1.14147E-001,-4.67992E-002,-8.47633E-004,1.14152E-001,-4.68037E-002,-3.01740E-001,1.14766E-001,1.12069E+000,2.27657E-002,0.00000E+000,-2.10176E-002,9.55638E-001,0.00000E+000,8.02082E-004,-5.77271E-002,1.00000E+000,20
1269,1317,3.00019E+001,-5.09151E-001,-9.94222E-002,7.89433E+000,-9.89771E-002,-5.98223E-002,7.89518E+000,9.89773E-003,4.09449E-001,0,1.17972E+002,-2.49830E+000,9.99257E-001,8.65511E+001,-2.99056E+001,9.98322E-001,1.29865E-001,-5.18201E-002,1.71115E-003,1.29881E-001,-5.18362E-002,5.39560E-001,1.30760E-001,1.13865E+000,-8.85471E-003,0.00000E+000,1.08077E-002,9.51132E-001,0.00000E+000,-3.00514E-003,-5.96641E-002,1.00000E+000,20
1269,1307,2.99908E+001,-1.12605E+000,-5.45953E-002,7.89916E+000,-6.59752E-002,-2.28574E-002,7.89947E+000,1.04813E-002,4.20840E-001,0,1.17892E+002,-2.02524E+000,9.98821E-001,8.63957E+001,-2.95906E+001,9.97784E-001,1.28823E-001,-5.18484E-002,1.27467E-003,1.28832E-001,-5.18574E-002,4.04205E-001,1.29646E-001,1.13747E+000,-8.88360E-003,0.00000E+000,1.01246E-002,9.51115E-001,0.00000E+000,-5.10238E-003,-5.97155E-002,1.00000E+000,20
1269,1297,2.99825E+001,-1.73973E+000,7.57483E-003,7.90165E+000,-3.16878E-002,1.24048E-002,7.90172E+000,1.17138E-002,4.25040E-001,0,1.17779E+002,-1.53795E+000,9.98723E-001,8.63057E+001,-2.92672E+001,9.97171E-001,1.27777E-001,-5.18698E-002,8.42500E-004,1.27781E-001,-5.18737E-002,2.68696E-001,1.28532E-001,1.13629E+000,-8.90326E-003,0.00000E+000,9.44218E-003,9.51104E-001,0.00000E+000,-7.19710E-003,-5.97505E-002,1.00000E+000,20
1269,1287,2.99913E+001,-2.34467E+000,1.21736E-001,7.90970E+000,6.00688E-003,5.62367E-002,7.90990E+000,1.67753E-002,3.92364E-001,0,1.17699E+002,-1.01050E+000,9.98903E-001,8.65516E+001,-2.89350E+001,9.95780E-001,1.26728E-001,-5.18758E-002,4.21232E-004,1.26729E-001,-5.18768E-002,1.35129E-001,1.27422E-001,1.13512E+000,-8.90181E-003,0.00000E+000,8.76266E-003,9.51104E-001,0.00000E+000,-9.28307E-003,-5.97479E-002,1.00000E+000,20
579,1347,-2.10621E+001,5.95620E-001,4.63637E-002,1.79065E+000,-5.24789E-001,5.89156E-002,1.86690E+000,7.58178E-003,6.45955E-001,0,2.80291E+001,-8.61086E+000,9.99118E-001,-1.21141E+001,-4.99200E+001,9.99110E-001,1.07123E-001,-4.65443E-002,4.94831E-004,1.07124E-001,-4.65459E-002,1.84499E-001,1.07430E-001,1.11279E+000,2.52537E-002,0.00000E+000,-2.05704E-002,9.55849E-001,0.00000E+000,-1.89385E-003,-5.70178E-002,1.00000E+000,20
579,1357,-2.10245E+001,1.21410E+000,5.29444E-002,1.81234E+000,-5.49314E-001,2.92764E-002,1.89398E+000,7.55460E-003,6.66392E-001,0,2.84446E+001,-8.93938E+000,9.99405E-001,-1.13631E+001,-5.04336E+001,9.99541E-001,1.04937E-001,-4.65432E-002,7.68837E-004,1.04941E-001,-4.65471E-002,2.90794E-001,1.05164E-001,1.11036E+000,2.51953E-002,0.00000E+000,-1.99967E-002,9.55862E-001,0.00000E+000,-2.74163E-003,-5.70382E-002,1.00000E+000,20
579,1337,-2.10915E+001,-1.67177E-002,7.85125E-002,1.77145E+000,-4.99506E-001,9.30786E-002,1.84288E+000,7.51053E-003,6.29795E-001,0,2.76380E+001,-8.28018E+000,9.98919E-001,-1.26249E+001,-4.93955E+001,9.99066E-001,1.09293E-001,-4.65406E-002,2.12938E-004,1.09293E-001,-4.65409E-002,7.82915E-002,1.09693E-001,1.11521E+000,2.52915E-002,0.00000E+000,-2.11418E-002,9.55840E-001,0.00000E+000,-1.04949E-003,-5.70046E-002,1.00000E+000,20
579,1327,-2.11156E+001,-6.11919E-001,1.32367E-001,1.75377E+000,-4.63097E-001,1.25826E-001,1.81824E+000,9.12242E-003,6.69057E-001,0,2.72700E+001,-7.76006E+000,9.99314E-001,-1.29852E+001,-4.86275E+001,9.98487E-001,1.11444E-001,-4.65336E-002,-7.31582E-005,1.11444E-001,-4.65337E-002,-2.65333E-002,1.11948E-001,1.11761E+000,2.53151E-002,0.00000E+000,-2.17096E-002,9.55834E-001,0.00000E+000,-2.10583E-004,-5.69963E-002,1.00000E+000,20
579,1317,-2.11323E+001,-1.20632E+000,2.27088E-001,1.73836E+000,-4.29033E-001,1.68040E-001,1.79839E+000,1.28653E-002,6.65641E-001,0,2.69114E+001,-7.29775E+000,9.98531E-001,-1.31106E+001,-4.79545E+001,9.97228E-001,1.13586E-001,-4.65223E-002,-3.67138E-004,1.13587E-001,-4.65231E-002,-1.31381E-001,1.14205E-001,1.12000E+000,2.53200E-002,0.00000E+000,-2.22768E-002,9.55833E-001,0.00000E+000,6.27559E-004,-5.69946E-002,1.00000E+000,20
1279,1317,3.07584E+001,-5.01177E-001,-1.04267E-001,7.98422E+000,-9.52821E-002,-5.85380E-002,7.98500E+000,8.79892E-003,3.77805E-001,0,1.19210E+002,-2.45988E+000,9.99070E-001,8.83849E+001,-2.96953E+001,9.97688E-001,1.29480E-001,-5.10917E-002,2.07067E-003,1.29504E-001,-5.11154E-002,6.56913E-001,1.30458E-001,1.13822E+000,-7.82695E-003,0.00000E+000,1.06058E-002,9.51706E-001,0.00000E+000,-2.31608E-003,-5.74744E-002,1.00000E+000,20
1279,1327,3.07841E+001,1.24940E-001,-1.11418E-001,7.98468E+000,-1.26262E-001,-9.17141E-002,7.98620E+000,1.37182E-002,4.19410E-001,0,1.19343E+002,-2.90782E+000,9.98752E-001,8.88156E+001,-2.99216E+001,9.98307E-001,1.30643E-001,-5.10431E-002,2.60745E-003,1.30680E-001,-5.10806E-002,8.22048E-001,1.31714E-001,1.13954E+000,-7.77591E-003,0.00000E+000,1.14543E-002,9.51739E-001,0.00000E+000,2.98595E-005,-5.73840E-002,1.00000E+000,20
1279,1337,3.08173E+001,7.47958E-001,-8.43522E-002,7.98303E+000,-1.64699E-001,-1.25730E-001,7.98572E+000,1.06734E-002,4.16541E-001,0,1.19442E+002,-3.46052E+000,9.99098E-001,8.94036E+001,-3.02967E+001,9.98608E-001,1.31802E-001,-5.09795E-002,3.15369E-003,1.31856E-001,-5.10339E-002,9.88183E-001,1.32973E-001,1.14087E+000,-7.70578E-003,0.00000E+000,1.23056E-002,9.51784E-001,0.00000E+000,2.38377E-003,-5.72599E-002,1.00000E+000,20
1279,1307,3.07415E+001,-1.11636E+000,-6.57367E-002,7.98457E+000,-6.05501E-002,-2.33560E-002,7.98483E+000,1.03140E-002,4.36058E-001,0,1.19071E+002,-1.96540E+000,9.98999E-001,8.81316E+001,-2.93189E+001,9.96977E-001,1.28320E-001,-5.11272E-002,1.54479E-003,1.28333E-001,-5.11405E-002,4.93188E-001,1.29212E-001,1.13690E+000,-7.86178E-003,0.00000E+000,9.76425E-003,9.51684E-001,0.00000E+000,-4.64272E-003,-5.75361E-002,1.00000E+000,20
1279,1297,3.07417E+001,-1.72495E+000,1.62096E-002,7.99231E+000,-2.16706E-002,1.88169E-002,7.99236E+000,1.83140E-002,3.55784E-001,0,1.19001E+002,-1.39780E+000,9.98733E-001,8.82020E+001,-2.90016E+001,9.97268E-001,1.27153E-001,-5.11471E-002,1.02743E-003,1.27159E-001,-5.11530E-002,3.30144E-001,1.27966E-001,1.13559E+000,-7.87691E-003,0.00000E+000,8.92304E-003,9.51674E-001,0.00000E+000,-6.96851E-003,-5.75629E-002,1.00000E+000,20
1279,1287,3.07442E+001,-2.34515E+000,1.05585E-001,7.99783E+000,2.52469E-003,5.24366E-002,7.99800E+000,1.72290E-002,3.04687E-001,0,1.18935E+002,-1.03758E+000,9.98830E-001,8.83141E+001,-2.88655E+001,9.96344E-001,1.25982E-001,-5.11597E-002,5.15393E-004,1.25983E-001,-5.11612E-002,1.66700E-001,1.26722E-001,1.13428E+000,-7.88327E-003,0.00000E+000,8.08455E-003,9.51670E-001,0.00000E+000,-9.28678E-003,-5.75741E-002,1.00000E+000,20
569,1347,-2.17693E+001,6.10055E-001,5.09513E-002,1.72068E+000,-5.05697E-001,6.06738E-002,1.79448E+000,7.92350E-003,6.58542E-001,0,2.69409E+001,-8.30318E+000,9.98996E-001,-1.28656E+001,-4.98069E+001,9.98859E-001,1.06551E-001,-4.61536E-002,9.70296E-004,1.06557E-001,-4.61597E-002,3.64041E-001,1.06874E-001,1.11209E+000,2.79016E-002,0.00000E+000,-2.19462E-002,9.56160E-001,0.00000E+000,-1.97763E-003,-5.64190E-002,1.00000E+000,20
569,1357,-2.17341E+001,1.22204E+000,4.99414E-002,1.74138E+000,-5.34368E-001,3.11063E-002,1.82179E+000,7.79620E-003,6.54769E-001,0,2.73420E+001,-8.70019E+000,9.99216E-001,-1.21743E+001,-5.04179E+001,9.99029E-001,1.04278E-001,-4.61551E-002,1.31947E-003,1.04290E-001,-4.61667E-002,5.02498E-001,1.04518E-001,1.10957E+000,2.78464E-002,0.00000E+000,-2.12285E-002,9.56175E-001,0.00000E+000,-3.01262E-003,-5.64416E-002,1.00000E+000,20
569,1327,-2.18242E+001,-6.07142E-001,1.29445E-001,1.68328E+000,-4.52954E-001,1.26280E-001,1.74772E+000,1.34790E-002,6.89622E-001,0,2.61806E+001,-7.59788E+000,9.99490E-001,-1.37831E+001,-4.86387E+001,9.98936E-001,1.11057E-001,-4.61382E-002,2.56314E-004,1.11058E-001,-4.61386E-002,9.34228E-002,1.11586E-001,1.11711E+000,2.79685E-002,0.00000E+000,-2.33753E-002,9.56141E-001,0.00000E+000,8.33452E-005,-5.63915E-002,1.00000E+000,20
569,1337,-2.17987E+001,-1.06868E-003,8.16532E-002,1.70079E+000,-4.80194E-001,8.96412E-002,1.76955E+000,7.44328E-003,6.35846E-001,0,2.65526E+001,-7.95027E+000,9.99087E-001,-1.33803E+001,-4.92618E+001,9.99023E-001,1.08812E-001,-4.61468E-002,6.13797E-004,1.08815E-001,-4.61492E-002,2.26946E-001,1.09232E-001,1.11461E+000,2.79380E-002,0.00000E+000,-2.26622E-002,9.56149E-001,0.00000E+000,-9.45094E-004,-5.64040E-002,1.00000E+000,20
1289,1327,3.15369E+001,1.32118E-001,-1.18644E-001,8.07166E+000,-1.23577E-001,-8.74251E-002,8.07308E+000,1.26682E-002,4.11331E-001,0,1.20526E+002,-2.89179E+000,9.98430E-001,9.05906E+001,-2.97058E+001,9.97429E-001,1.30325E-001,-5.00256E-002,3.03739E-003,1.30376E-001,-5.00768E-002,9.64587E-001,1.31539E-001,1.13919E+000,-6.49757E-003,0.00000E+000,1.11881E-002,9.52580E-001,0.00000E+000,7.40540E-004,-5.48729E-002,1.00000E+000,20
1289,1337,3.15722E+001,7.61261E-001,-9.13929E-002,8.07210E+000,-1.56332E-001,-1.20575E-001,8.07451E+000,1.21598E-002,4.19062E-001,0,1.20650E+002,-3.36093E+000,9.98900E-001,9.12101E+001,-2.99790E+001,9.98138E-001,1.31659E-001,-4.99554E-002,3.64782E-003,1.31732E-001,-5.00287E-002,1.15020E+000,1.32995E-001,1.14072E+000,-6.41679E-003,0.00000E+000,1.21503E-002,9.52630E-001,0.00000E+000,3.28777E-003,-5.47385E-002,1.00000E+000,20
569,1317,-2.18466E+001,-1.19522E+000,2.28444E-001,1.66062E+000,-4.12904E-001,1.63521E-001,1.71898E+000,1.47460E-002,6.66601E-001,0,2.57201E+001,-7.03851E+000,9.98641E-001,-1.39803E+001,-4.78865E+001,9.97450E-001,1.13292E-001,-4.61208E-002,-1.14204E-004,1.13293E-001,-4.61209E-002,-4.10469E-002,1.13943E-001,1.11961E+000,2.79678E-002,0.00000E+000,-2.40874E-002,9.56141E-001,0.00000E+000,1.11021E-003,-5.63918E-002,1.00000E+000,20
1289,1317,3.15140E+001,-4.91324E-001,-1.02481E-001,8.07171E+000,-9.35157E-002,-5.41406E-002,8.07244E+000,1.41954E-002,4.69889E-001,0,1.20398E+002,-2.46794E+000,9.99137E-001,9.02167E+001,-2.94088E+001,9.96654E-001,1.28994E-001,-5.00748E-002,2.44324E-003,1.29028E-001,-5.01081E-002,7.81558E-001,1.30096E-001,1.13767E+000,-6.55088E-003,0.00000E+000,1.02343E-002,9.52546E-001,0.00000E+000,-1.78453E-003,-5.49615E-002,1.00000E+000,20
1289,1287,3.14961E+001,-2.32630E+000,9.05974E-002,8.08288E+000,1.57383E-002,4.35210E-002,8.08301E+000,1.76405E-002,4.11393E-001,0,1.20136E+002,-8.67270E-001,9.98875E-001,9.00687E+001,-2.84009E+001,9.96165E-001,1.24964E-001,-5.01499E-002,7.05170E-004,1.24967E-001,-5.01527E-002,2.30721E-001,1.25775E-001,1.13313E+000,-6.61848E-003,0.00000E+000,7.38343E-003,9.52504E-001,0.00000E+000,-9.33173E-003,-5.50740E-002,1.00000E+000,20
1289,1297,3.15002E+001,-1.71611E+000,2.17071E-002,8.08028E+000,-1.82404E-002,1.73743E-002,8.08032E+000,1.80585E-002,2.94447E-001,0,1.20215E+002,-1.34579E+000,9.98985E-001,9.00834E+001,-2.88179E+001,9.97449E-001,1.26309E-001,-5.01307E-002,1.27886E-003,1.26319E-001,-5.01400E-002,4.15259E-001,1.27210E-001,1.13464E+000,-6.60302E-003,0.00000E+000,8.32901E-003,9.52513E-001,0.00000E+000,-6.82849E-003,-5.50483E-002,1.00000E+000,20
1289,1307,3.15016E+001,-1.10725E+000,-6.90279E-002,8.07530E+000,-5.83993E-002,-2.91148E-002,8.07557E+000,1.26190E-002,4.47065E-001,0,1.20348E+002,-1.93048E+000,9.99462E-001,9.00282E+001,-2.90742E+001,9.97645E-001,1.27656E-001,-5.01114E-002,1.85640E-003,1.27676E-001,-5.01308E-002,5.98243E-001,1.28653E-001,1.13616E+000,-6.58814E-003,0.00000E+000,9.28180E-003,9.52523E-001,0.00000E+000,-4.30614E-003,-5.50235E-002,1.00000E+000,20
559,1327,-2.25264E+001,-5.96331E-001,1.20999E-001,1.61771E+000,-4.38398E-001,1.15597E-001,1.68004E+000,2.36310E-002,8.36949E-001,0,2.51938E+001,-7.39426E+000,9.99636E-001,-1.44970E+001,-4.84816E+001,9.98725E-001,1.10613E-001,-4.60366E-002,7.44765E-004,1.10616E-001,-4.60402E-002,2.72395E-001,1.11133E-001,1.11654E+000,3.07609E-002,0.00000E+000,-2.48485E-002,9.56148E-001,0.00000E+000,3.01377E-004,-5.53936E-002,1.00000E+000,20
559,1337,-2.25062E+001,1.04502E-002,7.59011E-002,1.63038E+000,-4.63778E-001,8.31484E-002,1.69710E+000,7.11725E-003,6.50218E-001,0,2.54785E+001,-7.66931E+000,9.99567E-001,-1.41639E+001,-4.91685E+001,9.99384E-001,1.08424E-001,-4.60449E-002,1.03360E-003,1.08431E-001,-4.60518E-002,3.83361E-001,1.08840E-001,1.11410E+000,3.07325E-002,0.00000E+000,-2.42674E-002,9.56155E-001,0.00000E+000,-8.47412E-004,-5.54069E-002,1.00000E+000,20
559,1347,-2.24804E+001,6.21695E-001,4.95494E-002,1.64669E+000,-4.87402E-001,5.79172E-002,1.71828E+000,9.90450E-003,6.31648E-001,0,2.58002E+001,-8.00508E+000,9.98981E-001,-1.36901E+001,-4.97441E+001,9.98642E-001,1.06223E-001,-4.60516E-002,1.32036E-003,1.06234E-001,-4.60630E-002,4.96758E-001,1.06546E-001,1.11165E+000,3.06973E-002,0.00000E+000,-2.36847E-002,9.56163E-001,0.00000E+000,-1.99935E-003,-5.54235E-002,1.00000E+000,20
559,1357,-2.24431E+001,1.23298E+000,4.58039E-002,1.67029E+000,-5.15706E-001,2.93564E-002,1.74834E+000,8.47979E-003,6.27053E-001,0,2.62441E+001,-8.40337E+000,9.99028E-001,-1.29734E+001,-5.03619E+001,9.98971E-001,1.04006E-001,-4.60547E-002,1.60154E-003,1.04023E-001,-4.60718E-002,6.11404E-001,1.04249E-001,1.10920E+000,3.06465E-002,0.00000E+000,-2.30996E-002,9.56175E-001,0.00000E+000,-3.15588E-003,-5.54474E-002,1.00000E+000,20
559,1317,-2.25537E+001,-1.17932E+000,2.31943E-001,1.58972E+000,-3.93874E-001,1.62051E-001,1.64578E+000,2.38147E-002,6.98378E-001,0,2.46258E+001,-6.72512E+000,9.99237E-001,-1.47295E+001,-4.77332E+001,9.98356E-001,1.12794E-001,-4.60214E-002,4.42657E-004,1.12795E-001,-4.60226E-002,1.59696E-001,1.13429E-001,1.11898E+000,3.07585E-002,0.00000E+000,-2.54294E-002,9.56149E-001,0.00000E+000,1.44965E-003,-5.53947E-002,1.00000E+000,20
1299,1327,3.22965E+001,1.45249E-001,-1.23487E-001,8.16092E+000,-1.17876E-001,-9.57197E-002,8.16233E+000,1.67758E-002,4.13250E-001,0,1.21788E+002,-2.79629E+000,9.98513E-001,9.24803E+001,-2.93970E+001,9.97367E-001,1.30072E-001,-4.88876E-002,3.44486E-003,1.30139E-001,-4.89539E-002,1.10236E+000,1.31462E-001,1.13891E+000,-4.82622E-003,0.00000E+000,1.05666E-002,9.53534E-001,0.00000E+000,1.19441E-003,-5.21203E-002,1.00000E+000,20
1299,1337,3.23419E+001,7.74050E-001,-8.44869E-002,8.16997E+000,-1.52631E-001,-1.21670E-001,8.17230E+000,1.51078E-002,4.54098E-001,0,1.22008E+002,-3.31838E+000,9.98472E-001,9.32692E+001,-2.96824E+001,9.97227E-001,1.31595E-001,-4.88109E-002,4.10388E-003,1.31688E-001,-4.89042E-002,1.30247E+000,1.33133E-001,1.14066E+000,-4.73016E-003,0.00000E+000,1.16120E-002,9.53592E-001,0.00000E+000,3.86787E-003,-5.19734E-002,1.00000E+000,20
1299,1287,3.22584E+001,-2.31503E+000,9.95489E-002,8.17335E+000,1.81925E-002,4.27724E-002,8.17348E+000,1.30352E-002,4.78059E-001,0,1.21380E+002,-8.44555E-001,9.99055E-001,9.20164E+001,-2.81240E+001,9.97043E-001,1.23965E-001,-4.90126E-002,9.46132E-004,1.23970E-001,-4.90177E-002,3.13377E-001,1.24871E-001,1.13201E+000,-4.96043E-003,0.00000E+000,6.44308E-003,9.53454E-001,0.00000E+000,-9.35198E-003,-5.23254E-002,1.00000E+000,20
1299,1297,3.22602E+001,-1.71166E+000,1.81491E-002,8.16998E+000,-2.23669E-002,9.49391E-003,8.17002E+000,1.41183E-002,4.61377E-001,0,1.21483E+002,-1.45429E+000,9.99312E-001,9.19811E+001,-2.85692E+001,9.97279E-001,1.25498E-001,-4.89961E-002,1.55944E-003,1.25512E-001,-4.90101E-002,5.11993E-001,1.26512E-001,1.13373E+000,-4.94652E-003,0.00000E+000,7.46847E-003,9.53462E-001,0.00000E+000,-6.72947E-003,-5.23041E-002,1.00000E+000,20
1299,1307,3.22770E+001,-1.09136E+000,-3.99271E-002,8.17616E+000,-5.16307E-002,-1.97233E-002,8.17634E+000,2.59754E-002,4.98957E-001,0,1.21699E+002,-1.88370E+000,9.99164E-001,9.22073E+001,-2.87726E+001,9.97552E-001,1.27033E-001,-4.89690E-002,2.18288E-003,1.27060E-001,-4.89961E-002,7.10473E-001,1.28163E-001,1.13546E+000,-4.91843E-003,0.00000E+000,8.50088E-003,9.53479E-001,0.00000E+000,-4.08899E-003,-5.22612E-002,1.00000E+000,20
1299,1317,3.22857E+001,-4.73853E-001,-8.55196E-002,8.16938E+000,-8.50562E-002,-5.43470E-002,8.17000E+000,2.15985E-002,4.85237E-001,0,1.21744E+002,-2.35730E+000,9.98539E-001,9.23218E+001,-2.90737E+001,9.97046E-001,1.28557E-001,-4.89322E-002,2.81182E-003,1.28602E-001,-4.89768E-002,9.07385E-001,1.29814E-001,1.13719E+000,-4.87749E-003,0.00000E+000,9.53369E-003,9.53503E-001,0.00000E+000,-1.44747E-003,-5.21986E-002,1.00000E+000,20
559,1307,-2.25776E+001,-1.77300E+000,3.43238E-001,1.56339E+000,-3.61191E-001,1.97809E-001,1.61671E+000,1.10210E-002,6.75168E-001,0,2.41133E+001,-6.28282E+000,9.98600E-001,-1.49121E+001,-4.70897E+001,9.97717E-001,1.14968E-001,-4.60046E-002,1.38050E-004,1.14968E-001,-4.60047E-002,4.91370E-002,1.15729E-001,1.12142E+000,3.07496E-002,0.00000E+000,-2.60100E-002,9.56151E-001,0.00000E+000,2.59753E-003,-5.53989E-002,1.00000E+000,20
549,1347,-2.31832E+001,6.36856E-001,4.94492E-002,1.58056E+000,-4.67873E-001,5.66144E-002,1.64933E+000,8.74269E-003,6.66091E-001,0,2.47774E+001,-7.68715E+000,9.98930E-001,-1.43795E+001,-4.95986E+001,9.98567E-001,1.05929E-001,-4.58731E-002,1.70807E-003,1.05949E-001,-4.58924E-002,6.44577E-001,1.06264E-001,1.11125E+000,3.33300E-002,0.00000E+000,-2.52254E-002,9.56239E-001,0.00000E+000,-1.81471E-003,-5.43366E-002,1.00000E+000,20
549,1357,-2.31463E+001,1.25372E+000,5.01972E-002,1.60307E+000,-4.91398E-001,2.72643E-002,1.67692E+000,9.12053E-003,6.68333E-001,0,2.52044E+001,-8.00817E+000,9.98962E-001,-1.36522E+001,-5.01394E+001,9.98872E-001,1.03794E-001,-4.58767E-002,1.98248E-003,1.03820E-001,-4.59030E-002,7.58743E-001,1.04051E-001,1.10889E+000,3.32788E-002,0.00000E+000,-2.46548E-002,9.56251E-001,0.00000E+000,-3.01160E-003,-5.43625E-002,1.00000E+000,20
549,1327,-2.32518E+001,-5.74166E-001,1.49114E-001,1.52710E+000,-4.11850E-001,1.31494E-001,1.58712E+000,1.87032E-002,7.85786E-001,0,2.37419E+001,-6.98930E+000,9.99021E-001,-1.54425E+001,-4.83310E+001,9.97224E-001,1.10160E-001,-4.58549E-002,1.14123E-003,1.10168E-001,-4.58632E-002,4.19082E-001,1.10682E-001,1.11596E+000,3.33842E-002,0.00000E+000,-2.63609E-002,9.56226E-001,0.00000E+000,5.66899E-004,-5.43092E-002,1.00000E+000,20
549,1337,-2.32129E+001,2.84947E-002,8.38735E-002,1.55996E+000,-4.39452E-001,8.78839E-002,1.62306E+000,7.02439E-003,6.64380E-001,0,2.43720E+001,-7.31670E+000,9.99402E-001,-1.48880E+001,-4.90049E+001,9.99270E-001,1.08056E-001,-4.58652E-002,1.42579E-003,1.08069E-001,-4.58784E-002,5.30676E-001,1.08479E-001,1.11362E+000,3.33625E-002,0.00000E+000,-2.57954E-002,9.56231E-001,0.00000E+000,-6.19265E-004,-5.43202E-002,1.00000E+000,20
1309,1317,3.30351E+001,-4.71216E-001,-1.12548E-001,8.25234E+000,-8.62188E-002,-6.95633E-002,8.25308E+000,1.69499E-002,4.40326E-001,0,1.22947E+002,-2.34599E+000,9.98410E-001,9.40310E+001,-2.89059E+001,9.97187E-001,1.28453E-001,-4.79990E-002,3.24080E-003,1.28512E-001,-4.80585E-002,1.05185E+000,1.29866E-001,1.13708E+000,-2.74672E-003,0.00000E+000,8.56865E-003,9.54272E-001,0.00000E+000,-1.25717E-003,-4.94434E-002,1.00000E+000,20
1309,1327,3.30599E+001,1.54052E-001,-1.28470E-001,8.25495E+000,-1.14847E-001,-9.86287E-002,8.25633E+000,1.95794E-002,4.15809E-001,0,1.23098E+002,-2.76772E+000,9.98258E-001,9.44319E+001,-2.91547E+001,9.96631E-001,1.30157E-001,-4.79546E-002,3.83486E-003,1.30240E-001,-4.80372E-002,1.23285E+000,1.31725E-001,1.13902E+000,-2.68078E-003,0.00000E+000,9.52313E-003,9.54305E-001,0.00000E+000,1.42107E-003,-4.93526E-002,1.00000E+000,20
1309,1337,3.31011E+001,7.85355E-001,-9.43339E-002,8.26095E+000,-1.46434E-001,-1.24572E-001,8.26319E+000,1.82849E-002,4.48844E-001,0,1.23273E+002,-3.24061E+000,9.98897E-001,9.51473E+001,-2.93933E+001,9.98010E-001,1.31866E-001,-4.78874E-002,4.45014E-003,1.31976E-001,-4.79975E-002,1.41731E+000,1.33601E-001,1.14098E+000,-2.57624E-003,0.00000E+000,1.04864E-002,9.54356E-001,0.00000E+000,4.12402E-003,-4.92086E-002,1.00000E+000,20
549,1317,-2.32654E+001,-1.16563E+000,2.45522E-001,1.51393E+000,-3.76443E-001,1.70772E-001,1.56935E+000,1.56557E-002,7.39016E-001,0,2.34279E+001,-6.47280E+000,9.99194E-001,-1.55127E+001,-4.76316E+001,9.98124E-001,1.12256E-001,-4.58399E-002,8.48204E-004,1.12261E-001,-4.58445E-002,3.07387E-001,1.12887E-001,1.11830E+000,3.33859E-002,0.00000E+000,-2.69262E-002,9.56226E-001,0.00000E+000,1.75238E-003,-5.43083E-002,1.00000E+000,20
549,1307,-2.32866E+001,-1.75906E+000,3.36626E-001,1.49119E+000,-3.42878E-001,1.91973E-001,1.54210E+000,1.11810E-002,6.87740E-001,0,2.30096E+001,-5.97150E+000,9.98790E-001,-1.57143E+001,-4.69536E+001,9.98064E-001,1.14350E-001,-4.58233E-002,5.51762E-004,1.14352E-001,-4.58252E-002,1.97368E-001,1.15101E-001,1.12065E+000,3.33806E-002,0.00000E+000,-2.74925E-002,9.56227E-001,0.00000E+000,2.94013E-003,-5.43110E-002,1.00000E+000,20
1309,1287,3.30195E+001,-2.31164E+000,9.79155E-002,8.26140E+000,1.57641E-002,2.81178E-002,8.26146E+000,1.18714E-002,4.67542E-001,0,1.22648E+002,-8.82469E-001,9.99111E-001,9.39383E+001,-2.79863E+001,9.96815E-001,1.23301E-001,-4.80571E-002,1.51892E-003,1.23314E-001,-4.80706E-002,5.07817E-001,1.24308E-001,1.13127E+000,-2.82032E-003,0.00000E+000,5.71931E-003,9.54236E-001,0.00000E+000,-9.25231E-003,-4.95447E-002,1.00000E+000,20
1309,1297,3.30209E+001,-1.70764E+000,1.35348E-002,8.25928E+000,-2.58644E-002,-1.40941E-003,8.25932E+000,1.60447E-002,4.89981E-001,0,1.22756E+002,-1.49950E+000,9.98908E-001,9.38921E+001,-2.83943E+001,9.96777E-001,1.25027E-001,-4.80464E-002,2.08631E-003,1.25052E-001,-4.80716E-002,6.90539E-001,1.26161E-001,1.13320E+000,-2.80984E-003,0.00000E+000,6.66799E-003,9.54241E-001,0.00000E+000,-6.59035E-003,-4.95303E-002,1.00000E+000,20
1309,1307,3.30212E+001,-1.08802E+000,-7.12754E-002,8.25475E+000,-5.02647E-002,-3.66221E-002,8.25499E+000,1.66254E-002,3.84825E-001,0,1.22844E+002,-1.81428E+000,9.98867E-001,9.38307E+001,-2.86217E+001,9.98206E-001,1.26737E-001,-4.80329E-002,2.65362E-003,1.26777E-001,-4.80732E-002,8.69682E-001,1.28005E-001,1.13513E+000,-2.79528E-003,0.00000E+000,7.61384E-003,9.54248E-001,0.00000E+000,-3.93633E-003,-4.95103E-002,1.00000E+000,20
539,1347,-2.38901E+001,6.54776E-001,5.25491E-002,1.50986E+000,-4.44219E-001,5.74239E-002,1.57490E+000,7.81060E-003,6.61547E-001,0,2.36751E+001,-7.31253E+000,9.99075E-001,-1.51148E+001,-4.94382E+001,9.98998E-001,1.05677E-001,-4.56149E-002,1.89377E-003,1.05701E-001,-4.56386E-002,7.17038E-001,1.06029E-001,1.11090E+000,3.56873E-002,0.00000E+000,-2.69156E-002,9.56382E-001,0.00000E+000,-1.71561E-003,-5.31837E-002,1.00000E+000,20
539,1357,-2.38528E+001,1.27307E+000,4.52517E-002,1.53385E+000,-4.65624E-001,2.60129E-002,1.60318E+000,7.30356E-003,6.67994E-001,0,2.41302E+001,-7.59150E+000,9.99357E-001,-1.44046E+001,-4.99392E+001,9.99183E-001,1.03684E-001,-4.56200E-002,2.14566E-003,1.03715E-001,-4.56508E-002,8.23177E-001,1.03962E-001,1.10869E+000,3.56433E-002,0.00000E+000,-2.63949E-002,9.56392E-001,0.00000E+000,-2.92348E-003,-5.32078E-002,1.00000E+000,20
539,1327,-2.39506E+001,-5.56736E-001,1.34913E-001,1.46484E+000,-3.86910E-001,1.17753E-001,1.51965E+000,9.01630E-003,6.48873E-001,0,2.28098E+001,-6.52373E+000,9.98165E-001,-1.61065E+001,-4.82019E+001,9.98162E-001,1.09633E-001,-4.55967E-002,1.37603E-003,1.09645E-001,-4.56089E-002,5.07843E-001,1.10160E-001,1.11530E+000,3.57386E-002,0.00000E+000,-2.79533E-002,9.56370E-001,0.00000E+000,6.91532E-004,-5.31556E-002,1.00000E+000,20
539,1337,-2.39204E+001,4.83439E-002,8.40354E-002,1.48849E+000,-4.14146E-001,8.53882E-002,1.54739E+000,8.11539E-003,6.43095E-001,0,2.32659E+001,-6.89982E+000,9.98819E-001,-1.56415E+001,-4.88150E+001,9.98889E-001,1.07662E-001,-4.56067E-002,1.63596E-003,1.07680E-001,-4.56241E-002,6.11469E-001,1.08097E-001,1.11310E+000,3.57169E-002,0.00000E+000,-2.74356E-002,9.56375E-001,0.00000E+000,-5.09295E-004,-5.31675E-002,1.00000E+000,20
1319,1297,3.37652E+001,-1.70100E+000,-1.24724E-002,8.33665E+000,-2.13691E-002,-1.60069E-002,8.33669E+000,1.35484E-002,3.55889E-001,0,1.23868E+002,-1.37783E+000,9.98991E-001,9.55268E+001,-2.82159E+001,9.97514E-001,1.24559E-001,-4.70508E-002,2.74708E-003,1.24603E-001,-4.70947E-002,9.16861E-001,1.25834E-001,1.13268E+000,-1.54365E-004,0.00000E+000,5.70526E-003,9.55050E-001,0.00000E+000,-6.99057E-003,-4.62084E-002,1.00000E+000,20
1319,1307,3.37747E+001,-1.08744E+000,-8.27387E-002,8.33803E+000,-5.46267E-002,-4.83168E-002,8.33835E+000,1.57819E-002,3.33397E-001,0,1.24033E+002,-1.86140E+000,9.98854E-001,9.56258E+001,-2.85247E+001,9.98375E-001,1.26504E-001,-4.70340E-002,3.30415E-003,1.26567E-001,-4.70969E-002,1.09038E+000,1.27940E-001,1.13487E+000,-1.26775E-004,0.00000E+000,6.62209E-003,9.55061E-001,0.00000E+000,-4.07277E-003,-4.61717E-002,1.00000E+000,20
539,1307,-2.39952E+001,-1.74719E+000,3.26538E-001,1.41852E+000,-3.25014E-001,1.79454E-001,1.46630E+000,7.62406E-003,6.49213E-001,0,2.19136E+001,-5.65882E+000,9.99100E-001,-1.65170E+001,-4.68674E+001,9.98607E-001,1.13543E-001,-4.55660E-002,8.37163E-004,1.13547E-001,-4.55704E-002,3.01455E-001,1.14281E-001,1.11967E+000,3.57336E-002,0.00000E+000,-2.89852E-002,9.56371E-001,0.00000E+000,3.08509E-003,-5.31584E-002,1.00000E+000,20
539,1317,-2.39746E+001,-1.15761E+000,2.23240E-001,1.44152E+000,-3.60220E-001,1.50909E-001,1.49349E+000,8.70598E-003,6.61714E-001,0,2.23548E+001,-6.16998E+000,9.98705E-001,-1.63624E+001,-4.75998E+001,9.98038E-001,1.11592E-001,-4.55825E-002,1.10850E-003,1.11600E-001,-4.55903E-002,4.04060E-001,1.12221E-001,1.11749E+000,3.57412E-002,0.00000E+000,-2.84697E-002,9.56369E-001,0.00000E+000,1.88933E-003,-5.31542E-002,1.00000E+000,20
1319,1287,3.37716E+001,-2.31401E+000,8.16636E-002,8.34414E+000,8.59339E-003,1.46404E-002,8.34415E+000,1.42108E-002,4.33109E-001,0,1.23837E+002,-9.64907E-001,9.98872E-001,9.57044E+001,-2.79201E+001,9.97789E-001,1.22608E-001,-4.70552E-002,2.20215E-003,1.22636E-001,-4.70838E-002,7.43507E-001,1.23733E-001,1.13050E+000,-1.58152E-004,0.00000E+000,4.79153E-003,9.55048E-001,0.00000E+000,-9.89851E-003,-4.62134E-002,1.00000E+000,20
529,1327,-2.46551E+001,-5.41181E-001,1.35343E-001,1.39552E+000,-3.66035E-001,1.13152E-001,1.44716E+000,8.09179E-003,6.57379E-001,0,2.17427E+001,-6.19389E+000,9.98116E-001,-1.68105E+001,-4.80614E+001,9.97974E-001,1.09193E-001,-4.50129E-002,1.66571E-003,1.09211E-001,-4.50309E-002,6.18806E-001,1.09769E-001,1.11475E+000,3.74366E-002,0.00000E+000,-2.89126E-002,9.56852E-001,0.00000E+000,1.31028E-003,-5.21677E-002,1.00000E+000,20
529,1307,-2.47009E+001,-1.73067E+000,3.30234E-001,1.34749E+000,-3.03871E-001,1.74645E-001,1.39232E+000,1.02353E-002,6.31514E-001,0,2.08209E+001,-5.31402E+000,9.99221E-001,-1.72262E+001,-4.67281E+001,9.98683E-001,1.12641E-001,-4.49974E-002,1.37981E-003,1.12653E-001,-4.50095E-002,5.01459E-001,1.13408E-001,1.11861E+000,3.74303E-002,0.00000E+000,-2.94687E-002,9.56853E-001,0.00000E+000,3.78163E-003,-5.21717E-002,1.00000E+000,20
529,1317,-2.46805E+001,-1.14046E+000,2.19451E-001,1.37170E+000,-3.37424E-001,1.47813E-001,1.42030E+000,8.13982E-003,6.33717E-001,0,2.12766E+001,-5.79031E+000,9.99264E-001,-1.70989E+001,-4.74424E+001,9.98601E-001,1.10921E-001,-4.50061E-002,1.52604E-003,1.10936E-001,-4.50210E-002,5.60676E-001,1.11590E-001,1.11668E+000,3.74413E-002,0.00000E+000,-2.91909E-002,9.56851E-001,0.00000E+000,2.54703E-003,-5.21647E-002,1.00000E+000,20
