Coordinates.Image X [Pixel],Coordinates.Image Y [Pixel],coor.X [mm],coor.Y [mm],coor.Z [mm],disp.Horizontal Displacement U [mm],disp.Vertical Displacement V [mm],disp.Out-Of-Plane: W [mm],disp.Displacement Magnitude [mm],stats.Sigma [mm],stats.Epipolar Distance [Pixel],stats.Shape Index [-],SameCamera.Horizontal: u [Pixel],SameCamera.Vertical: v [Pixel],SameCamera.Correlation Value 2D [-],CrossCamera.Horizontal: q [Pixel],CrossCamera.Vertical: r [Pixel],CrossCamera.Correlation Value Persp [-],strain.Strain-global frame: Exx [ ],strain.Strain-global frame: Eyy [ ],strain.Strain-global frame: Exy [ ],strain.Maximum Principal Strain: EI [ ],strain.Minimum Principal Strain: EII [ ],strain.Shear Angle Gamma [deg],strain.Von Mises Equivalent Strain [ ],defgradient.F[0,0] [-],defgradient.F[0,1] [-],defgradient.F[0,2] [-],defgradient.F[1,0] [-],defgradient.F[1,1] [-],defgradient.F[1,2] [-],defgradient.F[2,0] [-],defgradient.F[2,1] [-],defgradient.F[2,2] [-],ext.Current Image [#]
929,1317,5.91933E+000,-1.10729E+000,7.71394E-002,6.25540E+000,-4.90936E-001,1.63860E-001,6.27677E+000,1.34108E-002,4.63271E-001,0,9.52662E+001,-8.77860E+000,9.98592E-001,5.19436E+001,-4.25599E+001,9.97354E-001,1.70216E-001,-7.13653E-002,-2.63087E-004,1.70216E-001,-7.13656E-002,-6.23962E-002,1.70954E-001,1.18551E+000,-1.98010E-002,0.00000E+000,1.63718E-002,9.35339E-001,0.00000E+000,-1.54689E-002,-9.66495E-002,1.00000E+000,26
919,1307,5.14591E+000,-1.71464E+000,1.43857E-001,6.14853E+000,-4.49004E-001,2.35374E-001,6.16939E+000,1.61315E-002,5.10177E-001,0,9.34585E+001,-8.25331E+000,9.97229E-001,5.00222E+001,-4.21687E+001,9.94737E-001,1.73598E-001,-7.10606E-002,-8.67552E-004,1.73601E-001,-7.10637E-002,-2.03165E-001,1.74550E-001,1.18954E+000,-1.75444E-002,0.00000E+000,1.33238E-002,9.35755E-001,0.00000E+000,-1.41783E-002,-9.76144E-002,1.00000E+000,26
919,1317,5.13179E+000,-1.13030E+000,3.27735E-002,6.13160E+000,-4.99666E-001,1.75202E-001,6.15442E+000,1.91846E-002,4.72639E-001,0,9.34211E+001,-8.93952E+000,9.95775E-001,4.96625E+001,-4.29181E+001,9.93682E-001,1.71381E-001,-7.10677E-002,-1.08004E-003,1.71386E-001,-7.10725E-002,-2.55230E-001,1.72216E-001,1.18689E+000,-1.75561E-002,0.00000E+000,1.28110E-002,9.35753E-001,0.00000E+000,-1.24940E-002,-9.76071E-002,1.00000E+000,26
919,1327,5.13647E+000,-5.35986E-001,-1.89739E-002,6.11916E+000,-5.52418E-001,1.08324E-001,6.14500E+000,1.45236E-002,5.08747E-001,0,9.34616E+001,-9.63904E+000,9.97942E-001,4.97198E+001,-4.36009E+001,9.96400E-001,1.69135E-001,-7.10834E-002,-1.31897E-003,1.69143E-001,-7.10906E-002,-3.14582E-001,1.69857E-001,1.18420E+000,-1.76263E-002,0.00000E+000,1.22931E-002,9.35739E-001,0.00000E+000,-1.07932E-002,-9.75625E-002,1.00000E+000,26
929,1307,5.92901E+000,-1.69156E+000,1.73537E-001,6.27227E+000,-4.36926E-001,2.29236E-001,6.29164E+000,1.33436E-002,5.11304E-001,0,9.52860E+001,-8.05955E+000,9.98821E-001,5.22030E+001,-4.17744E+001,9.97671E-001,1.72482E-001,-7.13643E-002,-2.13887E-004,1.72482E-001,-7.13645E-002,-5.02563E-002,1.73335E-001,1.18823E+000,-1.97706E-002,0.00000E+000,1.65882E-002,9.35342E-001,0.00000E+000,-1.74982E-002,-9.66721E-002,1.00000E+000,26
929,1327,5.91628E+000,-5.09812E-001,8.24327E-003,6.23891E+000,-5.35796E-001,9.71433E-002,6.26263E+000,1.21011E-002,4.59763E-001,0,9.52470E+001,-9.37552E+000,9.98740E-001,5.18458E+001,-4.31766E+001,9.98063E-001,1.67936E-001,-7.13667E-002,-3.23512E-004,1.67937E-001,-7.13671E-002,-7.74576E-002,1.68566E-001,1.18278E+000,-1.98577E-002,0.00000E+000,1.61550E-002,9.35335E-001,0.00000E+000,-1.34350E-002,-9.66073E-002,1.00000E+000,26
939,1307,6.70368E+000,-1.67440E+000,1.51492E-001,6.39260E+000,-4.26670E-001,1.96799E-001,6.40984E+000,1.46249E-002,5.10104E-001,0,9.71572E+001,-7.84428E+000,9.98844E-001,5.41492E+001,-4.13641E+001,9.97920E-001,1.71152E-001,-7.08004E-002,2.50901E-004,1.71153E-001,-7.08007E-002,5.94147E-002,1.72001E-001,1.18665E+000,-2.24471E-002,0.00000E+000,1.97861E-002,9.35677E-001,0.00000E+000,-2.00318E-002,-9.51068E-002,1.00000E+000,26
939,1317,6.69351E+000,-1.08800E+000,6.39456E-002,6.37444E+000,-4.78483E-001,1.36851E-001,6.39384E+000,1.46799E-002,4.30497E-001,0,9.70989E+001,-8.53715E+000,9.98293E-001,5.39016E+001,-4.21492E+001,9.97050E-001,1.69106E-001,-7.07988E-002,2.45036E-004,1.69106E-001,-7.07990E-002,5.85212E-002,1.69850E-001,1.18418E+000,-2.24778E-002,0.00000E+000,1.96304E-002,9.35675E-001,0.00000E+000,-1.77258E-002,-9.50781E-002,1.00000E+000,26
939,1327,6.69265E+000,-4.83946E-001,3.42373E-003,6.35849E+000,-5.20045E-001,7.17105E-002,6.38013E+000,1.19722E-002,4.74858E-001,0,9.70813E+001,-9.07882E+000,9.98009E-001,5.38557E+001,-4.26562E+001,9.97554E-001,1.67036E-001,-7.07965E-002,2.27692E-004,1.67036E-001,-7.07968E-002,5.48528E-002,1.67681E-001,1.18169E+000,-2.25358E-002,0.00000E+000,1.94737E-002,9.35671E-001,0.00000E+000,-1.54034E-002,-9.50241E-002,1.00000E+000,26
919,1337,5.14878E+000,7.01351E-002,-4.65312E-002,6.10942E+000,-5.94889E-001,4.25641E-002,6.13846E+000,1.36492E-002,4.71671E-001,0,9.35309E+001,-1.01747E+001,9.97520E-001,4.99483E+001,-4.41904E+001,9.96858E-001,1.66883E-001,-7.11020E-002,-1.56649E-003,1.66894E-001,-7.11123E-002,-3.77116E-001,1.67500E-001,1.18152E+000,-1.77167E-002,0.00000E+000,1.17757E-002,9.35722E-001,0.00000E+000,-9.09368E-003,-9.75053E-002,1.00000E+000,26
929,1337,5.92415E+000,8.90708E-002,-3.12071E-002,6.22717E+000,-5.84864E-001,3.15859E-002,6.25466E+000,1.22923E-002,4.51899E-001,0,9.52914E+001,-1.00156E+001,9.98878E-001,5.19787E+001,-4.38368E+001,9.98428E-001,1.65636E-001,-7.13685E-002,-3.95260E-004,1.65637E-001,-7.13691E-002,-9.55536E-002,1.66164E-001,1.18003E+000,-1.99404E-002,0.00000E+000,1.59372E-002,9.35328E-001,0.00000E+000,-1.13915E-002,-9.65457E-002,1.00000E+000,26
939,1337,6.69832E+000,1.15326E-001,-3.35795E-002,6.34541E+000,-5.67705E-001,1.31813E-002,6.37077E+000,1.09877E-002,4.80011E-001,0,9.70825E+001,-9.72837E+000,9.98701E-001,5.39588E+001,-4.33079E+001,9.98428E-001,1.64957E-001,-7.07940E-002,2.04134E-004,1.64957E-001,-7.07942E-002,4.96117E-002,1.65508E-001,1.17920E+000,-2.26078E-002,0.00000E+000,1.93170E-002,9.35667E-001,0.00000E+000,-1.30818E-002,-9.49569E-002,1.00000E+000,26
949,1317,7.47514E+000,-1.05792E+000,7.25996E-002,6.49912E+000,-4.57968E-001,1.25869E-001,6.51646E+000,2.13543E-002,4.74537E-001,0,9.89547E+001,-8.21619E+000,9.96384E-001,5.60258E+001,-4.15794E+001,9.94310E-001,1.67930E-001,-7.01509E-002,6.40835E-004,1.67931E-001,-7.01526E-002,1.54220E-001,1.68687E-001,1.18277E+000,-2.49082E-002,0.00000E+000,2.24381E-002,9.36031E-001,0.00000E+000,-1.95119E-002,-9.28495E-002,1.00000E+000,26
949,1327,7.46942E+000,-4.56891E-001,4.86426E-003,6.47940E+000,-5.00648E-001,5.88258E-002,6.49897E+000,1.90158E-002,4.59496E-001,0,9.88895E+001,-8.76271E+000,9.97002E-001,5.58897E+001,-4.21464E+001,9.95780E-001,1.66225E-001,-7.01442E-002,6.80506E-004,1.66226E-001,-7.01462E-002,1.64953E-001,1.66899E-001,1.18070E+000,-2.49531E-002,0.00000E+000,2.23466E-002,9.36029E-001,0.00000E+000,-1.68073E-002,-9.27907E-002,1.00000E+000,26
949,1337,7.47385E+000,1.41737E-001,-3.27538E-002,6.46557E+000,-5.49005E-001,2.64591E-003,6.48884E+000,1.42202E-002,4.85827E-001,0,9.88733E+001,-9.43535E+000,9.97858E-001,5.59713E+001,-4.27946E+001,9.97198E-001,1.64505E-001,-7.01365E-002,7.14304E-004,1.64507E-001,-7.01387E-002,1.74420E-001,1.65101E-001,1.17863E+000,-2.50116E-002,0.00000E+000,2.22548E-002,9.36027E-001,0.00000E+000,-1.40961E-002,-9.27142E-002,1.00000E+000,26
949,1307,7.48809E+000,-1.65169E+000,1.55464E-001,6.51976E+000,-4.12723E-001,1.79356E-001,6.53527E+000,1.70001E-002,5.08040E-001,0,9.90739E+001,-7.60026E+000,9.97760E-001,5.63055E+001,-4.09226E+001,9.96459E-001,1.69619E-001,-7.01560E-002,5.92757E-004,1.69621E-001,-7.01574E-002,1.41642E-001,1.70462E-001,1.18483E+000,-2.48835E-002,0.00000E+000,2.25293E-002,9.36033E-001,0.00000E+000,-2.22072E-002,-9.28818E-002,1.00000E+000,26
909,1317,4.36250E+000,-1.14553E+000,2.99839E-002,6.01402E+000,-5.07091E-001,1.74720E-001,6.03789E+000,1.80044E-002,4.52856E-001,0,9.16968E+001,-9.05844E+000,9.94397E-001,4.77562E+001,-4.32576E+001,9.92876E-001,1.72574E-001,-7.16358E-002,-1.96450E-003,1.72590E-001,-7.16516E-002,-4.60864E-001,1.73416E-001,1.18831E+000,-1.51456E-002,0.00000E+000,8.95551E-003,9.35268E-001,0.00000E+000,-9.29526E-003,-9.76693E-002,1.00000E+000,26
909,1327,4.37267E+000,-5.45660E-001,-2.25758E-002,6.00756E+000,-5.54830E-001,1.08799E-001,6.03410E+000,1.42932E-002,4.80838E-001,0,9.18225E+001,-9.66277E+000,9.96126E-001,4.78979E+001,-4.38577E+001,9.96259E-001,1.70398E-001,-7.16487E-002,-2.17921E-003,1.70418E-001,-7.16683E-002,-5.15791E-001,1.71134E-001,1.18571E+000,-1.52111E-002,0.00000E+000,8.52177E-003,9.35257E-001,0.00000E+000,-8.10968E-003,-9.76394E-002,1.00000E+000,26
909,1337,4.38283E+000,6.34786E-002,-4.67064E-002,5.99556E+000,-5.97193E-001,4.54890E-002,6.02540E+000,1.58188E-002,5.27324E-001,0,9.18472E+001,-1.01969E+001,9.97634E-001,4.81016E+001,-4.43684E+001,9.97120E-001,1.68211E-001,-7.16645E-002,-2.40371E-003,1.68235E-001,-7.16886E-002,-5.74065E-001,1.68846E-001,1.18311E+000,-1.52983E-002,0.00000E+000,8.08689E-003,9.35242E-001,0.00000E+000,-6.92101E-003,-9.75995E-002,1.00000E+000,26
909,1307,4.37057E+000,-1.72938E+000,1.45388E-001,6.02387E+000,-4.56132E-001,2.34519E-001,6.04567E+000,1.77653E-002,4.39050E-001,0,9.16282E+001,-8.35133E+000,9.95429E-001,4.80333E+001,-4.25345E+001,9.91014E-001,1.74721E-001,-7.16309E-002,-1.77606E-003,1.74734E-001,-7.16437E-002,-4.13042E-001,1.75675E-001,1.19087E+000,-1.51384E-002,0.00000E+000,9.38460E-003,9.35269E-001,0.00000E+000,-1.04681E-002,-9.76726E-002,1.00000E+000,26
919,1347,5.16980E+000,6.86040E-001,-5.86313E-002,6.10514E+000,-6.31531E-001,-2.26476E-002,6.13776E+000,2.08772E-002,4.88775E-001,0,9.36761E+001,-1.06240E+001,9.98584E-001,5.03455E+001,-4.46365E+001,9.97970E-001,1.64614E-001,-7.11225E-002,-1.82088E-003,1.64628E-001,-7.11366E-002,-4.42530E-001,1.65133E-001,1.17883E+000,-1.78204E-002,0.00000E+000,1.12561E-002,9.35702E-001,0.00000E+000,-7.38719E-003,-9.74395E-002,1.00000E+000,26
929,1347,5.94106E+000,6.98042E-001,-4.59636E-002,6.21930E+000,-6.27445E-001,-3.30997E-002,6.25096E+000,1.15952E-002,4.55299E-001,0,9.53841E+001,-1.05632E+001,9.98841E-001,5.23045E+001,-4.43902E+001,9.98467E-001,1.63322E-001,-7.13706E-002,-4.76619E-004,1.63323E-001,-7.13715E-002,-1.16357E-001,1.63755E-001,1.17728E+000,-2.00449E-002,0.00000E+000,1.57188E-002,9.35320E-001,0.00000E+000,-9.34324E-003,-9.64678E-002,1.00000E+000,26
939,1347,6.71588E+000,7.24441E-001,-4.04332E-002,6.33849E+000,-6.10244E-001,-4.12919E-002,6.36793E+000,1.60214E-002,4.82107E-001,0,9.71556E+001,-1.02949E+001,9.98709E-001,5.43094E+001,-4.38753E+001,9.97533E-001,1.62861E-001,-7.07911E-002,1.71004E-004,1.62861E-001,-7.07912E-002,4.19334E-002,1.63324E-001,1.17670E+000,-2.27019E-002,0.00000E+000,1.91597E-002,9.35661E-001,0.00000E+000,-1.07515E-002,-9.48692E-002,1.00000E+000,26
949,1347,7.49424E+000,7.48341E-001,-3.14672E-002,6.45943E+000,-5.96430E-001,-5.20093E-002,6.48712E+000,1.33943E-002,4.97622E-001,0,9.89598E+001,-1.00682E+001,9.98067E-001,5.63803E+001,-4.34119E+001,9.96568E-001,1.62766E-001,-7.01269E-002,7.36970E-004,1.62768E-001,-7.01292E-002,1.81306E-001,1.63286E-001,1.17655E+000,-2.50967E-002,0.00000E+000,2.21625E-002,9.36023E-001,0.00000E+000,-1.13690E-002,-9.26030E-002,1.00000E+000,26
959,1317,8.24722E+000,-1.03709E+000,5.31547E-002,6.61570E+000,-4.44207E-001,9.54255E-002,6.63128E+000,1.93788E-002,4.67524E-001,0,1.00758E+002,-7.95101E+000,9.97066E-001,5.79488E+001,-4.11192E+001,9.95726E-001,1.66886E-001,-6.94312E-002,6.94254E-004,1.66888E-001,-6.94332E-002,1.68322E-001,1.67670E-001,1.18149E+000,-2.74636E-002,0.00000E+000,2.46130E-002,9.36456E-001,0.00000E+000,-2.02939E-002,-9.05115E-002,1.00000E+000,26
959,1327,8.24618E+000,-4.35845E-001,-1.07880E-002,6.60232E+000,-4.85914E-001,4.02496E-002,6.62030E+000,2.63254E-002,4.65888E-001,0,1.00750E+002,-8.51356E+000,9.98660E-001,5.78928E+001,-4.16816E+001,9.97547E-001,1.65469E-001,-6.94182E-002,8.14170E-004,1.65472E-001,-6.94210E-002,1.98597E-001,1.66184E-001,1.17976E+000,-2.74968E-002,0.00000E+000,2.46540E-002,9.36457E-001,0.00000E+000,-1.74423E-002,-9.04567E-002,1.00000E+000,26
959,1337,8.25246E+000,1.62928E-001,-3.18307E-002,6.58797E+000,-5.36654E-001,-9.27681E-003,6.60980E+000,2.01817E-002,4.68067E-001,0,1.00703E+002,-9.21243E+000,9.97501E-001,5.80356E+001,-4.23737E+001,9.96945E-001,1.64035E-001,-6.94012E-002,9.25216E-004,1.64039E-001,-6.94048E-002,2.27085E-001,1.64684E-001,1.17802E+000,-2.75524E-002,0.00000E+000,2.46952E-002,9.36458E-001,0.00000E+000,-1.45760E-002,-9.03652E-002,1.00000E+000,26
959,1307,8.25682E+000,-1.62701E+000,1.41995E-001,6.63387E+000,-3.93491E-001,1.58426E-001,6.64742E+000,1.47041E-002,5.05356E-001,0,1.00803E+002,-7.28669E+000,9.97571E-001,5.81889E+001,-4.04160E+001,9.96563E-001,1.68290E-001,-6.94424E-002,5.70041E-004,1.68292E-001,-6.94437E-002,1.37384E-001,1.69146E-001,1.18322E+000,-2.74405E-002,0.00000E+000,2.45720E-002,9.36456E-001,0.00000E+000,-2.31417E-002,-9.05495E-002,1.00000E+000,26
959,1347,8.26713E+000,7.65646E-001,-3.95514E-002,6.57802E+000,-5.85728E-001,-6.35710E-002,6.60436E+000,1.42572E-002,4.66631E-001,0,1.00734E+002,-9.88185E+000,9.97638E-001,5.83358E+001,-4.30369E+001,9.97181E-001,1.62589E-001,-6.93822E-002,1.03143E-003,1.62594E-001,-6.93868E-002,2.54751E-001,1.63174E-001,1.17628E+000,-2.76186E-002,0.00000E+000,2.47364E-002,9.36460E-001,0.00000E+000,-1.17065E-002,-9.02560E-002,1.00000E+000,26
909,1347,4.40454E+000,6.76277E-001,-4.47552E-002,5.99008E+000,-6.36445E-001,-1.56675E-002,6.02382E+000,1.81514E-002,5.11562E-001,0,9.19578E+001,-1.07053E+001,9.98564E-001,4.85406E+001,-4.49115E+001,9.97051E-001,1.66022E-001,-7.16830E-002,-2.63638E-003,1.66051E-001,-7.17122E-002,-6.35361E-001,1.66564E-001,1.18052E+000,-1.54053E-002,0.00000E+000,7.65302E-003,9.35225E-001,0.00000E+000,-5.73507E-003,-9.75506E-002,1.00000E+000,26
899,1327,3.60484E+000,-5.46253E-001,1.10657E-002,5.88340E+000,-5.55369E-001,1.08766E-001,5.91055E+000,1.08155E-002,4.94801E-001,0,8.99820E+001,-9.64818E+000,9.97209E-001,4.60999E+001,-4.40347E+001,9.97283E-001,1.71283E-001,-7.21336E-002,-2.91916E-003,1.71318E-001,-7.21686E-002,-6.86984E-001,1.72025E-001,1.18677E+000,-1.29863E-002,0.00000E+000,5.12871E-003,9.34896E-001,0.00000E+000,-5.29810E-003,-9.83794E-002,1.00000E+000,26
899,1337,3.62138E+000,5.95294E-002,-3.27665E-002,5.88167E+000,-5.96692E-001,4.29485E-002,5.91202E+000,1.61648E-002,5.13702E-001,0,9.01741E+001,-1.01744E+001,9.98827E-001,4.63605E+001,-4.45696E+001,9.98509E-001,1.69325E-001,-7.21440E-002,-3.09702E-003,1.69365E-001,-7.21837E-002,-7.34698E-001,1.69979E-001,1.18445E+000,-1.30506E-002,0.00000E+000,4.81700E-003,9.34887E-001,0.00000E+000,-4.76686E-003,-9.83647E-002,1.00000E+000,26
899,1347,3.65181E+000,6.68980E-001,-2.87586E-002,5.88508E+000,-6.39469E-001,-1.62961E-002,5.91974E+000,1.40245E-002,4.90098E-001,0,9.04139E+001,-1.07331E+001,9.98662E-001,4.69398E+001,-4.51736E+001,9.98118E-001,1.67358E-001,-7.21582E-002,-3.28824E-003,1.67403E-001,-7.22033E-002,-7.86397E-001,1.67929E-001,1.18212E+000,-1.31456E-002,0.00000E+000,4.50448E-003,9.34875E-001,0.00000E+000,-4.23422E-003,-9.83430E-002,1.00000E+000,26
899,1317,3.60136E+000,-1.14102E+000,8.27042E-002,5.89258E+000,-5.06836E-001,1.75957E-001,5.91696E+000,1.45069E-002,4.97971E-001,0,8.98911E+001,-9.02573E+000,9.96569E-001,4.61032E+001,-4.33775E+001,9.94938E-001,1.73232E-001,-7.21256E-002,-2.75002E-003,1.73263E-001,-7.21564E-002,-6.42076E-001,1.74067E-001,1.18909E+000,-1.29417E-002,0.00000E+000,5.43963E-003,9.34902E-001,0.00000E+000,-5.82801E-003,-9.83896E-002,1.00000E+000,26
899,1307,3.60086E+000,-1.72617E+000,1.79911E-001,5.89908E+000,-4.53058E-001,2.42129E-001,5.92141E+000,1.47365E-002,4.42503E-001,0,8.97553E+001,-8.28059E+000,9.96705E-001,4.62096E+001,-4.26551E+001,9.93164E-001,1.75171E-001,-7.21200E-002,-2.58974E-003,1.75198E-001,-7.21472E-002,-5.99940E-001,1.76104E-001,1.19140E+000,-1.29169E-002,0.00000E+000,5.74952E-003,9.34905E-001,0.00000E+000,-6.35615E-003,-9.83952E-002,1.00000E+000,26
889,1327,2.83739E+000,-5.52633E-001,2.18075E-002,5.76398E+000,-5.58052E-001,1.07942E-001,5.79194E+000,9.44034E-003,4.98788E-001,0,8.82192E+001,-9.66834E+000,9.98135E-001,4.42635E+001,-4.42566E+001,9.97949E-001,1.72223E-001,-7.15052E-002,-3.67496E-003,1.72278E-001,-7.15606E-002,-8.63651E-001,1.73099E-001,1.18790E+000,-1.11274E-002,0.00000E+000,1.97614E-003,9.35574E-001,0.00000E+000,-2.27107E-003,-9.91950E-002,1.00000E+000,26
889,1337,2.84823E+000,5.41147E-002,-2.23712E-002,5.75782E+000,-5.96783E-001,4.70154E-002,5.78886E+000,1.46537E-002,5.20201E-001,0,8.83258E+001,-1.01757E+001,9.98794E-001,4.44358E+001,-4.47773E+001,9.98359E-001,1.70334E-001,-7.15049E-002,-3.69871E-003,1.70391E-001,-7.15614E-002,-8.76014E-001,1.71116E-001,1.18566E+000,-1.11850E-002,0.00000E+000,2.05542E-003,9.35576E-001,0.00000E+000,-2.93952E-003,-9.92121E-002,1.00000E+000,26
889,1347,2.87971E+000,6.61039E-001,-2.15078E-002,5.76306E+000,-6.41353E-001,-1.27210E-002,5.79865E+000,1.21810E-002,4.93595E-001,0,8.85955E+001,-1.07613E+001,9.98444E-001,4.50258E+001,-4.54168E+001,9.98045E-001,1.68434E-001,-7.15044E-002,-3.73559E-003,1.68492E-001,-7.15625E-002,-8.91746E-001,1.69128E-001,1.18342E+000,-1.12738E-002,0.00000E+000,2.13501E-003,9.35579E-001,0.00000E+000,-3.61057E-003,-9.92386E-002,1.00000E+000,26
969,1297,9.05589E+000,-2.19046E+000,2.41558E-001,6.77827E+000,-3.27149E-001,1.87835E-001,6.78876E+000,1.97087E-002,4.86190E-001,0,1.02796E+002,-6.30386E+000,9.98563E-001,6.06870E+001,-3.92552E+001,9.97127E-001,1.68046E-001,-6.90512E-002,3.37952E-004,1.68046E-001,-6.90517E-002,8.16676E-002,1.68933E-001,1.18297E+000,-2.96209E-002,0.00000E+000,2.61111E-002,9.36590E-001,0.00000E+000,-2.67091E-002,-8.81427E-002,1.00000E+000,26
969,1307,9.02777E+000,-1.61367E+000,1.20823E-001,6.74815E+000,-3.87796E-001,1.22844E-001,6.76040E+000,3.44495E-002,4.65665E-001,0,1.02589E+002,-7.11398E+000,9.97961E-001,6.00953E+001,-4.00866E+001,9.95828E-001,1.66949E-001,-6.90406E-002,5.07424E-004,1.66950E-001,-6.90417E-002,1.23197E-001,1.67780E-001,1.18159E+000,-2.96253E-002,0.00000E+000,2.62077E-002,9.36590E-001,0.00000E+000,-2.36604E-002,-8.81332E-002,1.00000E+000,26
969,1317,9.02272E+000,-1.02230E+000,5.03315E-002,6.73348E+000,-4.37293E-001,7.37349E-002,6.74806E+000,1.24028E-002,4.30680E-001,0,1.02548E+002,-7.80139E+000,9.99020E-001,5.99627E+001,-4.08029E+001,9.98461E-001,1.65841E-001,-6.90255E-002,6.70178E-004,1.65843E-001,-6.90274E-002,1.63488E-001,1.66617E-001,1.18021E+000,-2.96460E-002,0.00000E+000,2.63045E-002,9.36591E-001,0.00000E+000,-2.06095E-002,-8.80874E-002,1.00000E+000,26
889,1317,2.82840E+000,-1.14596E+000,9.21234E-002,5.76708E+000,-5.08707E-001,1.71659E-001,5.79201E+000,1.32637E-002,5.26722E-001,0,8.80478E+001,-9.03614E+000,9.98058E-001,4.41787E+001,-4.35607E+001,9.97223E-001,1.74105E-001,-7.15055E-002,-3.65819E-003,1.74159E-001,-7.15599E-002,-8.53129E-001,1.75079E-001,1.19014E+000,-1.10863E-002,0.00000E+000,1.89697E-003,9.35572E-001,0.00000E+000,-1.60360E-003,-9.91827E-002,1.00000E+000,26
969,1327,9.01752E+000,-4.19918E-001,-1.34260E-002,6.71523E+000,-4.78368E-001,1.60743E-002,6.73227E+000,1.53645E-002,4.63917E-001,0,1.02475E+002,-8.36748E+000,9.98634E-001,5.98422E+001,-4.13293E+001,9.98263E-001,1.64720E-001,-6.90083E-002,8.29914E-004,1.64723E-001,-6.90112E-002,2.03440E-001,1.65443E-001,1.17883E+000,-2.96741E-002,0.00000E+000,2.64014E-002,9.36593E-001,0.00000E+000,-1.75524E-002,-8.80253E-002,1.00000E+000,26
889,1307,2.82345E+000,-1.73232E+000,1.87199E-001,5.76842E+000,-4.56938E-001,2.32701E-001,5.79117E+000,1.62476E-002,4.82050E-001,0,8.78523E+001,-8.31368E+000,9.97478E-001,4.42123E+001,-4.28457E+001,9.94764E-001,1.75976E-001,-7.15056E-002,-3.64960E-003,1.76030E-001,-7.15594E-002,-8.44694E-001,1.77052E-001,1.19237E+000,-1.10648E-002,0.00000E+000,1.81810E-003,9.35572E-001,0.00000E+000,-9.38548E-004,-9.91763E-002,1.00000E+000,26
969,1337,9.02215E+000,1.77309E-001,-4.26494E-002,6.70128E+000,-5.27703E-001,-3.19415E-002,6.72210E+000,1.63662E-002,4.11758E-001,0,1.02431E+002,-9.04879E+000,9.98205E-001,5.99422E+001,-4.20529E+001,9.97803E-001,1.63587E-001,-6.89878E-002,9.84584E-004,1.63591E-001,-6.89920E-002,2.42550E-001,1.64258E-001,1.17744E+000,-2.97141E-002,0.00000E+000,2.64985E-002,9.36596E-001,0.00000E+000,-1.44909E-002,-8.79369E-002,1.00000E+000,26
969,1347,9.03057E+000,7.97016E-001,-5.17128E-002,6.68634E+000,-5.60691E-001,-8.09299E-002,6.71029E+000,1.39522E-002,4.61654E-001,0,1.02364E+002,-9.48120E+000,9.98066E-001,6.01435E+001,-4.24239E+001,9.97326E-001,1.62436E-001,-6.89645E-002,1.13559E-003,1.62442E-001,-6.89700E-002,2.81168E-001,1.63056E-001,1.17605E+000,-2.97644E-002,0.00000E+000,2.65962E-002,9.36600E-001,0.00000E+000,-1.14089E-002,-8.78257E-002,1.00000E+000,26
879,1327,2.07434E+000,-5.53768E-001,3.84765E-002,5.64842E+000,-5.55301E-001,1.12361E-001,5.67676E+000,1.37282E-002,5.12224E-001,0,8.64930E+001,-9.62581E+000,9.98183E-001,4.25141E+001,-4.44052E+001,9.97831E-001,1.72996E-001,-7.17677E-002,-4.13421E-003,1.73066E-001,-7.18376E-002,-9.67391E-001,1.73896E-001,1.18884E+000,-9.47828E-003,0.00000E+000,-3.68066E-004,9.35287E-001,0.00000E+000,-2.20789E-004,-9.86818E-002,1.00000E+000,26
879,1337,2.08435E+000,4.71977E-002,-1.78712E-002,5.64210E+000,-5.98925E-001,4.17121E-002,5.67395E+000,1.32137E-002,4.98907E-001,0,8.66307E+001,-1.01747E+001,9.97551E-001,4.26466E+001,-4.50083E+001,9.97167E-001,1.71313E-001,-7.17640E-002,-4.09364E-003,1.71382E-001,-7.18329E-002,-9.64547E-001,1.72128E-001,1.18684E+000,-9.52771E-003,0.00000E+000,-1.24252E-004,9.35293E-001,0.00000E+000,-1.48382E-003,-9.87130E-002,1.00000E+000,26
879,1347,2.11119E+000,6.58870E-001,-1.78225E-002,5.64419E+000,-6.39006E-001,-1.25185E-002,5.68026E+000,1.54577E-002,5.27578E-001,0,8.68325E+001,-1.07082E+001,9.97633E-001,4.31651E+001,-4.55476E+001,9.97215E-001,1.69616E-001,-7.17586E-002,-4.06335E-003,1.69684E-001,-7.18270E-002,-9.64167E-001,1.70348E-001,1.18483E+000,-9.60244E-003,0.00000E+000,1.21072E-004,9.35302E-001,0.00000E+000,-2.75468E-003,-9.87602E-002,1.00000E+000,26
879,1307,2.04850E+000,-1.73114E+000,2.08988E-001,5.63928E+000,-4.53634E-001,2.35017E-001,5.66237E+000,1.80509E-002,4.87259E-001,0,8.59266E+001,-8.24757E+000,9.96824E-001,4.22920E+001,-4.29708E+001,9.94708E-001,1.76339E-001,-7.17721E-002,-4.23512E-003,1.76411E-001,-7.18444E-002,-9.77628E-001,1.77420E-001,1.19283E+000,-9.42747E-003,0.00000E+000,-8.54153E-004,9.35281E-001,0.00000E+000,2.29730E-003,-9.86497E-002,1.00000E+000,26
879,1317,2.06094E+000,-1.14495E+000,1.17960E-001,5.64683E+000,-5.03454E-001,1.84307E-001,5.67222E+000,1.34017E-002,4.39075E-001,0,8.62227E+001,-8.93244E+000,9.98306E-001,4.23828E+001,-4.37448E+001,9.97234E-001,1.74676E-001,-7.17706E-002,-4.18054E-003,1.74746E-001,-7.18415E-002,-9.71553E-001,1.75664E-001,1.19084E+000,-9.44247E-003,0.00000E+000,-6.11944E-004,9.35282E-001,0.00000E+000,1.04258E-003,-9.86592E-002,1.00000E+000,26
979,1307,9.82972E+000,-1.59316E+000,1.37757E-001,6.88975E+000,-3.76988E-001,1.11217E-001,6.90096E+000,2.06097E-002,4.40110E-001,0,1.04697E+002,-6.92384E+000,9.99080E-001,6.25631E+001,-3.97167E+001,9.98836E-001,1.65770E-001,-6.85866E-002,4.54717E-004,1.65771E-001,-6.85875E-002,1.11169E-001,1.66591E-001,1.18013E+000,-3.13143E-002,0.00000E+000,2.73535E-002,9.36744E-001,0.00000E+000,-2.28158E-002,-8.51893E-002,1.00000E+000,26
979,1317,9.80596E+000,-9.96129E-001,5.14406E-002,6.85789E+000,-4.20423E-001,5.34758E-002,6.87097E+000,1.18290E-002,4.36315E-001,0,1.04426E+002,-7.50699E+000,9.98543E-001,6.21102E+001,-4.02967E+001,9.98068E-001,1.65049E-001,-6.85691E-002,6.59760E-004,1.65051E-001,-6.85710E-002,1.61807E-001,1.65835E-001,1.17922E+000,-3.13259E-002,0.00000E+000,2.75309E-002,9.36746E-001,0.00000E+000,-1.98602E-002,-8.51519E-002,1.00000E+000,26
979,1327,9.79321E+000,-3.97204E-001,-1.24905E-002,6.83289E+000,-4.64180E-001,-3.67760E-004,6.84864E+000,1.29980E-002,4.32711E-001,0,1.04241E+002,-8.11083E+000,9.97143E-001,6.18718E+001,-4.08939E+001,9.96527E-001,1.64317E-001,-6.85487E-002,8.62305E-004,1.64321E-001,-6.85518E-002,2.12163E-001,1.65070E-001,1.17830E+000,-3.13434E-002,0.00000E+000,2.77084E-002,9.36750E-001,0.00000E+000,-1.69016E-002,-8.50954E-002,1.00000E+000,26
979,1337,9.79289E+000,2.08148E-001,-5.28451E-002,6.81617E+000,-5.04555E-001,-4.91652E-002,6.83500E+000,1.73649E-002,4.37262E-001,0,1.04158E+002,-8.67369E+000,9.96005E-001,6.18733E+001,-4.14382E+001,9.95427E-001,1.63575E-001,-6.85252E-002,1.06250E-003,1.63580E-001,-6.85301E-002,2.62280E-001,1.64295E-001,1.17738E+000,-3.13669E-002,0.00000E+000,2.78863E-002,9.36754E-001,0.00000E+000,-1.39363E-002,-8.50197E-002,1.00000E+000,26
979,1347,9.80009E+000,8.25230E-001,-5.14109E-002,6.79848E+000,-5.39912E-001,-9.37577E-002,6.82053E+000,1.79994E-002,4.59434E-001,0,1.04033E+002,-9.15998E+000,9.94759E-001,6.20743E+001,-4.18852E+001,9.93721E-001,1.62820E-001,-6.84959E-002,1.25837E-003,1.62826E-001,-6.85027E-002,3.11680E-001,1.63507E-001,1.17645E+000,-3.14026E-002,0.00000E+000,2.80652E-002,9.36761E-001,0.00000E+000,-1.09550E-002,-8.49049E-002,1.00000E+000,26
979,1297,9.83085E+000,-2.17099E+000,2.23621E-001,6.89740E+000,-3.14897E-001,1.61326E-001,6.90647E+000,1.61904E-002,4.80431E-001,0,1.04619E+002,-6.05772E+000,9.98716E-001,6.26668E+001,-3.88227E+001,9.98260E-001,1.66483E-001,-6.86029E-002,2.48456E-004,1.66483E-001,-6.86032E-002,6.05544E-002,1.67339E-001,1.18105E+000,-3.13050E-002,0.00000E+000,2.71762E-002,9.36742E-001,0.00000E+000,-2.57718E-002,-8.52193E-002,1.00000E+000,26
869,1317,1.28067E+000,-1.14281E+000,1.12220E-001,5.51494E+000,-4.97296E-001,1.73093E-001,5.54002E+000,1.00887E-002,4.71849E-001,0,8.42980E+001,-8.80142E+000,9.98729E-001,4.03239E+001,-4.37856E+001,9.97322E-001,1.74905E-001,-7.21381E-002,-4.26941E-003,1.74979E-001,-7.22118E-002,-9.89793E-001,1.75866E-001,1.19113E+000,-7.57375E-003,0.00000E+000,-2.38011E-003,9.34875E-001,0.00000E+000,2.67020E-003,-9.79701E-002,1.00000E+000,26
869,1327,1.29605E+000,-5.51629E-001,3.71157E-002,5.51899E+000,-5.47706E-001,1.07166E-001,5.54714E+000,1.37329E-002,5.36535E-001,0,8.45841E+001,-9.49647E+000,9.97820E-001,4.04954E+001,-4.44612E+001,9.97221E-001,1.73557E-001,-7.21352E-002,-4.20995E-003,1.73629E-001,-7.22073E-002,-9.81383E-001,1.74447E-001,1.18952E+000,-7.60146E-003,0.00000E+000,-2.09389E-003,9.34880E-001,0.00000E+000,1.08157E-003,-9.79974E-002,1.00000E+000,26
869,1337,1.31315E+000,4.42272E-002,-7.72480E-003,5.51929E+000,-5.97199E-001,4.51795E-002,5.55169E+000,1.48814E-002,5.11562E-001,0,8.47942E+001,-1.01413E+001,9.96861E-001,4.07625E+001,-4.51749E+001,9.96322E-001,1.72201E-001,-7.21311E-002,-4.15588E-003,1.72272E-001,-7.22017E-002,-9.74175E-001,1.73022E-001,1.18791E+000,-7.64239E-003,0.00000E+000,-1.80691E-003,9.34887E-001,0.00000E+000,-5.11215E-004,-9.80378E-002,1.00000E+000,26
869,1347,1.33645E+000,6.57638E-001,-2.07129E-002,5.52058E+000,-6.32206E-001,-1.00806E-002,5.55667E+000,1.86769E-002,5.16571E-001,0,8.49869E+001,-1.06026E+001,9.97638E-001,4.11993E+001,-4.56730E+001,9.97163E-001,1.70838E-001,-7.21258E-002,-4.10704E-003,1.70908E-001,-7.21952E-002,-9.68151E-001,1.71592E-001,1.18629E+000,-7.69593E-003,0.00000E+000,-1.51945E-003,9.34896E-001,0.00000E+000,-2.10667E-003,-9.80906E-002,1.00000E+000,26
869,1307,1.27412E+000,-1.72784E+000,2.21690E-001,5.51274E+000,-4.46288E-001,2.39836E-001,5.53597E+000,1.47525E-002,5.06287E-001,0,8.40305E+001,-8.13626E+000,9.97365E-001,4.03663E+001,-4.30371E+001,9.95765E-001,1.76243E-001,-7.21394E-002,-4.33557E-003,1.76319E-001,-7.22151E-002,-9.99704E-001,1.77277E-001,1.19274E+000,-7.56298E-003,0.00000E+000,-2.66505E-003,9.34873E-001,0.00000E+000,4.25167E-003,-9.79594E-002,1.00000E+000,26
989,1307,1.05911E+001,-1.55740E+000,1.22174E-001,6.99432E+000,-3.48197E-001,8.50246E-002,7.00349E+000,1.54716E-002,4.81414E-001,0,1.06290E+002,-6.45684E+000,9.98093E-001,6.43445E+001,-3.90133E+001,9.97589E-001,1.64799E-001,-6.83898E-002,3.70555E-004,1.64800E-001,-6.83904E-002,9.10469E-002,1.65592E-001,1.17892E+000,-3.21694E-002,0.00000E+000,2.77025E-002,9.36699E-001,0.00000E+000,-2.09440E-002,-8.24463E-002,1.00000E+000,26
989,1317,1.05655E+001,-9.57969E-001,3.90194E-002,6.96176E+000,-3.90383E-001,3.59664E-002,6.97278E+000,1.63661E-002,5.35976E-001,0,1.05980E+002,-7.04231E+000,9.98330E-001,6.38696E+001,-3.95320E+001,9.97677E-001,1.64397E-001,-6.83698E-002,6.21691E-004,1.64399E-001,-6.83714E-002,1.53028E-001,1.65172E-001,1.17839E+000,-3.21752E-002,0.00000E+000,2.79727E-002,9.36702E-001,0.00000E+000,-1.81227E-002,-8.24158E-002,1.00000E+000,26
989,1327,1.05661E+001,-3.62160E-001,-1.69438E-002,6.94800E+000,-4.39558E-001,-1.84963E-002,6.96191E+000,1.95940E-002,5.10034E-001,0,1.05969E+002,-7.70620E+000,9.97480E-001,6.38525E+001,-4.02023E+001,9.95998E-001,1.63986E-001,-6.83436E-002,8.70368E-004,1.63990E-001,-6.83469E-002,2.14641E-001,1.64745E-001,1.17786E+000,-3.21870E-002,0.00000E+000,2.82432E-002,9.36708E-001,0.00000E+000,-1.52988E-002,-8.23531E-002,1.00000E+000,26
989,1297,1.06107E+001,-2.14707E+000,2.22031E-001,7.01962E+000,-2.97691E-001,1.45218E-001,7.02743E+000,1.41888E-002,4.65535E-001,0,1.06445E+002,-5.77412E+000,9.97966E-001,6.47596E+001,-3.83598E+001,9.97085E-001,1.65193E-001,-6.84088E-002,1.19136E-004,1.65193E-001,-6.84088E-002,2.92207E-002,1.66003E-001,1.17945E+000,-3.21647E-002,0.00000E+000,2.74327E-002,9.36697E-001,0.00000E+000,-2.37611E-002,-8.24714E-002,1.00000E+000,26
989,1337,1.05653E+001,2.36991E-001,-4.93187E-002,6.92799E+000,-4.86027E-001,-7.16439E-002,6.94539E+000,1.54315E-002,4.36268E-001,0,1.05852E+002,-8.34733E+000,9.95867E-001,6.38619E+001,-4.08975E+001,9.95495E-001,1.63568E-001,-6.83134E-002,1.11651E-003,1.63574E-001,-6.83188E-002,2.75870E-001,1.64311E-001,1.17733E+000,-3.22029E-002,0.00000E+000,2.85131E-002,9.36716E-001,0.00000E+000,-1.24805E-002,-8.22687E-002,1.00000E+000,26
989,1347,1.05721E+001,8.51936E-001,-5.42359E-002,6.91196E+000,-5.21358E-001,-1.12598E-001,6.93251E+000,1.63105E-002,4.41188E-001,0,1.05743E+002,-8.84802E+000,9.97866E-001,6.40417E+001,-4.13707E+001,9.97835E-001,1.63140E-001,-6.82802E-002,1.36232E-003,1.63148E-001,-6.82882E-002,3.37272E-001,1.63868E-001,1.17679E+000,-3.22217E-002,0.00000E+000,2.87844E-002,9.36726E-001,0.00000E+000,-9.64744E-003,-8.21689E-002,1.00000E+000,26
859,1327,5.22924E-001,-5.47230E-001,3.45826E-002,5.39411E+000,-5.38621E-001,9.98983E-002,5.42185E+000,1.31739E-002,5.38153E-001,0,8.27478E+001,-9.31895E+000,9.96786E-001,3.85592E+001,-4.44907E+001,9.96589E-001,1.73854E-001,-7.22566E-002,-4.07758E-003,1.73922E-001,-7.23241E-002,-9.48933E-001,1.74741E-001,1.18989E+000,-6.04525E-003,0.00000E+000,-3.12030E-003,9.34695E-001,0.00000E+000,1.78784E-003,-9.72501E-002,1.00000E+000,26
859,1337,5.44445E-001,5.15058E-002,-8.27643E-003,5.39912E+000,-5.84178E-001,4.05499E-002,5.43079E+000,1.49290E-002,5.28421E-001,0,8.30189E+001,-9.92786E+000,9.96726E-001,3.88998E+001,-4.51579E+001,9.96288E-001,1.72862E-001,-7.22550E-002,-4.06165E-003,1.72929E-001,-7.23223E-002,-9.49057E-001,1.73699E-001,1.18870E+000,-6.07476E-003,0.00000E+000,-2.90014E-003,9.34700E-001,0.00000E+000,-1.07998E-005,-9.72949E-002,1.00000E+000,26
859,1347,5.67565E-001,6.55104E-001,-1.73488E-002,5.39978E+000,-6.29272E-001,-1.38892E-002,5.43634E+000,1.99487E-002,5.02663E-001,0,8.32011E+001,-1.05307E+001,9.98100E-001,3.93426E+001,-4.58332E+001,9.97681E-001,1.71862E-001,-7.22530E-002,-4.05014E-003,1.71930E-001,-7.23202E-002,-9.50250E-001,1.72650E-001,1.18752E+000,-6.11486E-003,0.00000E+000,-2.67925E-003,9.34708E-001,0.00000E+000,-1.81539E-003,-9.73559E-002,1.00000E+000,26
859,1307,4.99641E-001,-1.72252E+000,2.22505E-001,5.38608E+000,-4.38533E-001,2.34845E-001,5.40901E+000,1.78532E-002,5.87480E-001,0,8.21627E+001,-7.99927E+000,9.97855E-001,3.84178E+001,-4.30163E+001,9.97112E-001,1.75816E-001,-7.22581E-002,-4.12236E-003,1.75884E-001,-7.23266E-002,-9.51761E-001,1.76806E-001,1.19224E+000,-6.01776E-003,0.00000E+000,-3.55841E-003,9.34690E-001,0.00000E+000,5.36711E-003,-9.72083E-002,1.00000E+000,26
859,1317,5.12418E-001,-1.14468E+000,1.10086E-001,5.39452E+000,-4.96144E-001,1.64851E-001,5.41980E+000,1.42929E-002,5.26115E-001,0,8.25371E+001,-8.75314E+000,9.97402E-001,3.84627E+001,-4.38840E+001,9.95633E-001,1.74839E-001,-7.22576E-002,-4.09759E-003,1.74907E-001,-7.23255E-002,-9.49786E-001,1.75777E-001,1.19107E+000,-6.02567E-003,0.00000E+000,-3.33969E-003,9.34691E-001,0.00000E+000,3.58021E-003,-9.72203E-002,1.00000E+000,26
999,1337,1.13338E+001,2.62363E-001,-5.32094E-002,7.04150E+000,-4.65090E-001,-7.47880E-002,7.05724E+000,1.25194E-002,3.96153E-001,0,1.07505E+002,-8.03863E+000,9.99105E-001,6.57792E+001,-4.04145E+001,9.98304E-001,1.63395E-001,-6.82279E-002,9.59245E-004,1.63399E-001,-6.82318E-002,2.37280E-001,1.64137E-001,1.17709E+000,-3.25737E-002,0.00000E+000,2.83354E-002,9.36574E-001,0.00000E+000,-1.04121E-002,-7.93119E-002,1.00000E+000,26
999,1347,1.13465E+001,8.78685E-001,-4.80331E-002,7.02892E+000,-5.02192E-001,-1.15431E-001,7.04778E+000,1.15751E-002,3.99140E-001,0,1.07446E+002,-8.54455E+000,9.99153E-001,6.60683E+001,-4.08871E+001,9.98596E-001,1.63263E-001,-6.81950E-002,1.19714E-003,1.63270E-001,-6.82012E-002,2.96333E-001,1.64005E-001,1.17692E+000,-3.25805E-002,0.00000E+000,2.86003E-002,9.36584E-001,0.00000E+000,-7.81288E-003,-7.92114E-002,1.00000E+000,26
999,1307,1.13617E+001,-1.52843E+000,1.13793E-001,7.10773E+000,-3.26263E-001,6.62595E-002,7.11552E+000,1.02954E-002,4.77217E-001,0,1.07991E+002,-6.08937E+000,9.98565E-001,6.62880E+001,-3.84519E+001,9.98413E-001,1.63745E-001,-6.82975E-002,2.45763E-004,1.63745E-001,-6.82978E-002,6.06836E-002,1.64494E-001,1.17761E+000,-3.25634E-002,0.00000E+000,2.75478E-002,9.36558E-001,0.00000E+000,-1.81423E-002,-7.94646E-002,1.00000E+000,26
999,1317,1.13430E+001,-9.32310E-001,2.91759E-002,7.08160E+000,-3.71386E-001,1.42508E-002,7.09135E+000,1.72559E-002,5.12013E-001,0,1.07791E+002,-6.71766E+000,9.97566E-001,6.59160E+001,-3.90259E+001,9.94051E-001,1.63635E-001,-6.82784E-002,4.84438E-004,1.63636E-001,-6.82794E-002,1.19683E-001,1.64381E-001,1.17744E+000,-3.25654E-002,0.00000E+000,2.78104E-002,9.36561E-001,0.00000E+000,-1.55653E-002,-7.94352E-002,1.00000E+000,26
999,1327,1.13405E+001,-3.41190E-001,-2.14707E-002,7.06625E+000,-4.23943E-001,-2.80743E-002,7.07901E+000,1.88443E-002,4.77402E-001,0,1.07716E+002,-7.46466E+000,9.98168E-001,6.58609E+001,-3.97832E+001,9.96102E-001,1.63518E-001,-6.82551E-002,7.22449E-004,1.63520E-001,-6.82574E-002,1.78592E-001,1.64262E-001,1.17726E+000,-3.25689E-002,0.00000E+000,2.80731E-002,9.36566E-001,0.00000E+000,-1.29868E-002,-7.93840E-002,1.00000E+000,26
999,1297,1.13845E+001,-2.12549E+000,2.17214E-001,7.13580E+000,-2.83361E-001,1.28114E-001,7.14257E+000,1.13562E-002,4.75824E-001,0,1.08183E+002,-5.53218E+000,9.97448E-001,6.67569E+001,-3.79147E+001,9.95621E-001,1.63849E-001,-6.83150E-002,6.86963E-006,1.63849E-001,-6.83150E-002,1.69536E-003,1.64600E-001,1.17779E+000,-3.25620E-002,0.00000E+000,2.72855E-002,9.36556E-001,0.00000E+000,-2.07172E-002,-7.94859E-002,1.00000E+000,26
849,1337,-2.27201E-001,5.22804E-002,-3.67775E-003,5.27476E+000,-5.80110E-001,3.71967E-002,5.30669E+000,1.79883E-002,5.68194E-001,0,8.11744E+001,-9.83802E+000,9.97809E-001,3.70072E+001,-4.52416E+001,9.97376E-001,1.73212E-001,-7.20628E-002,-3.68947E-003,1.73268E-001,-7.21183E-002,-8.61593E-001,1.74077E-001,1.18912E+000,-4.72837E-003,0.00000E+000,-3.24641E-003,9.34760E-001,0.00000E+000,-6.28962E-005,-9.60016E-002,1.00000E+000,26
849,1347,-2.09056E-001,6.50910E-001,-2.10132E-002,5.27325E+000,-6.26961E-001,-1.28317E-002,5.31041E+000,1.58716E-002,4.99870E-001,0,8.13111E+001,-1.04736E+001,9.98220E-001,3.73552E+001,-4.59993E+001,9.98011E-001,1.72639E-001,-7.20613E-002,-3.67210E-003,1.72694E-001,-7.21164E-002,-8.59552E-001,1.73474E-001,1.18844E+000,-4.74855E-003,0.00000E+000,-3.04636E-003,9.34766E-001,0.00000E+000,-1.74072E-003,-9.60513E-002,1.00000E+000,26
849,1357,-1.77046E-001,1.26494E+000,1.05545E-002,5.27517E+000,-6.67999E-001,-6.46283E-002,5.31769E+000,1.32527E-002,5.09819E-001,0,8.14943E+001,-1.10247E+001,9.98417E-001,3.80309E+001,-4.65891E+001,9.98429E-001,1.72058E-001,-7.20589E-002,-3.65907E-003,1.72113E-001,-7.21137E-002,-8.58549E-001,1.72864E-001,1.18776E+000,-4.77939E-003,0.00000E+000,-2.84457E-003,9.34775E-001,0.00000E+000,-3.43325E-003,-9.61274E-002,1.00000E+000,26
849,1327,-2.41675E-001,-5.41145E-001,4.38222E-002,5.27551E+000,-5.29657E-001,9.55992E-002,5.30290E+000,1.78491E-002,5.56920E-001,0,8.09934E+001,-9.15095E+000,9.97966E-001,3.67864E+001,-4.45102E+001,9.97852E-001,1.73782E-001,-7.20641E-002,-3.70879E-003,1.73838E-001,-7.21200E-002,-8.64091E-001,1.74676E-001,1.18980E+000,-4.71270E-003,0.00000E+000,-3.44648E-003,9.34755E-001,0.00000E+000,1.61518E-003,-9.59629E-002,1.00000E+000,26
1009,1337,1.21113E+001,3.00758E-001,-6.15935E-002,7.16518E+000,-4.33485E-001,-7.47707E-002,7.17867E+000,1.78514E-002,4.24922E-001,0,1.09295E+002,-7.55539E+000,9.98986E-001,6.78329E+001,-3.96845E+001,9.98656E-001,1.63183E-001,-6.80900E-002,6.55995E-004,1.63185E-001,-6.80919E-002,1.62515E-001,1.63928E-001,1.17682E+000,-3.26283E-002,0.00000E+000,2.76546E-002,9.36526E-001,0.00000E+000,-8.43340E-003,-7.66749E-002,1.00000E+000,26
1009,1347,1.21168E+001,8.95546E-001,-4.70582E-002,7.14321E+000,-4.91732E-001,-1.15164E-001,7.16104E+000,1.17417E-002,4.12583E-001,0,1.09100E+002,-8.40952E+000,9.99521E-001,6.80238E+001,-4.05180E+001,9.99232E-001,1.63281E-001,-6.80644E-002,8.39581E-004,1.63284E-001,-6.80675E-002,2.07930E-001,1.64035E-001,1.17693E+000,-3.26240E-002,0.00000E+000,2.78386E-002,9.36534E-001,0.00000E+000,-6.24943E-003,-7.65830E-002,1.00000E+000,26
1009,1297,1.21524E+001,-2.10471E+000,2.08065E-001,7.24720E+000,-2.67822E-001,1.13527E-001,7.25304E+000,1.48253E-002,4.08127E-001,0,1.09838E+002,-5.25408E+000,9.95988E-001,6.86598E+001,-3.75125E+001,9.94736E-001,1.62748E-001,-6.81533E-002,-7.14871E-005,1.62748E-001,-6.81533E-002,-1.77388E-002,1.63462E-001,1.17642E+000,-3.26347E-002,0.00000E+000,2.69230E-002,9.36514E-001,0.00000E+000,-1.71156E-002,-7.68121E-002,1.00000E+000,26
1009,1307,1.21345E+001,-1.50449E+000,1.07690E-001,7.22395E+000,-3.07043E-001,5.47671E-002,7.23068E+000,1.42724E-002,4.20164E-001,0,1.09708E+002,-5.77892E+000,9.97823E-001,6.82728E+001,-3.79995E+001,9.97865E-001,1.62863E-001,-6.81403E-002,1.09857E-004,1.62864E-001,-6.81403E-002,2.72477E-002,1.63585E-001,1.17652E+000,-3.26338E-002,0.00000E+000,2.71054E-002,9.36516E-001,0.00000E+000,-1.49503E-002,-7.67941E-002,1.00000E+000,26
1009,1317,1.21216E+001,-9.08277E-001,3.25041E-002,7.20336E+000,-3.52169E-001,1.09638E-002,7.21197E+000,1.43313E-002,4.41130E-001,0,1.09563E+002,-6.42401E+000,9.98276E-001,6.80103E+001,-3.85966E+001,9.98038E-001,1.62975E-001,-6.81259E-002,2.91511E-004,1.62975E-001,-6.81262E-002,7.22728E-002,1.63704E-001,1.17662E+000,-3.26326E-002,0.00000E+000,2.72882E-002,9.36518E-001,0.00000E+000,-1.27815E-002,-7.67683E-002,1.00000E+000,26
849,1317,-2.60567E-001,-1.13225E+000,1.17165E-001,5.26880E+000,-4.79791E-001,1.64977E-001,5.29317E+000,1.83622E-002,6.34481E-001,0,8.06589E+001,-8.52957E+000,9.97613E-001,3.65565E+001,-4.37553E+001,9.96478E-001,1.74348E-001,-7.20651E-002,-3.72939E-003,1.74404E-001,-7.21215E-002,-8.66891E-001,1.75271E-001,1.19048E+000,-4.70015E-003,0.00000E+000,-3.64601E-003,9.34751E-001,0.00000E+000,3.28870E-003,-9.59320E-002,1.00000E+000,26
1009,1327,1.21153E+001,-3.09285E-001,-2.37249E-002,7.18239E+000,-3.98803E-001,-4.41255E-002,7.19359E+000,1.44544E-002,4.22012E-001,0,1.09447E+002,-7.04858E+000,9.98953E-001,6.78856E+001,-3.92112E+001,9.98510E-001,1.63081E-001,-6.81076E-002,4.73973E-004,1.63082E-001,-6.81085E-002,1.17465E-001,1.63818E-001,1.17672E+000,-3.26303E-002,0.00000E+000,2.74714E-002,9.36522E-001,0.00000E+000,-1.06068E-002,-7.67192E-002,1.00000E+000,26
849,1307,-2.78913E-001,-1.72073E+000,2.19373E-001,5.25480E+000,-4.32057E-001,2.24911E-001,5.27733E+000,1.97160E-002,6.00817E-001,0,8.02374E+001,-7.87403E+000,9.97784E-001,3.64024E+001,-4.30762E+001,9.96923E-001,1.74908E-001,-7.20655E-002,-3.75322E-003,1.74965E-001,-7.21225E-002,-8.70448E-001,1.75862E-001,1.19116E+000,-4.69560E-003,0.00000E+000,-3.84499E-003,9.34750E-001,0.00000E+000,4.95760E-003,-9.59208E-002,1.00000E+000,26
839,1337,-1.00060E+000,4.39151E-002,2.39348E-002,5.14798E+000,-5.83441E-001,5.53416E-002,5.18123E+000,3.33008E-002,5.41541E-001,0,7.92219E+001,-9.90778E+000,9.98289E-001,3.51448E+001,-4.55502E+001,9.97424E-001,1.73302E-001,-7.21614E-002,-3.11354E-003,1.73341E-001,-7.22009E-002,-7.26602E-001,1.74145E-001,1.18923E+000,-3.58353E-003,0.00000E+000,-3.00217E-003,9.34528E-001,0.00000E+000,-6.70030E-004,-9.44643E-002,1.00000E+000,26
839,1347,-9.82780E-001,6.45406E-001,-1.54511E-002,5.14824E+000,-6.26182E-001,-7.23397E-003,5.18619E+000,1.33863E-002,4.92154E-001,0,7.94262E+001,-1.04557E+001,9.98444E-001,3.54384E+001,-4.62082E+001,9.97926E-001,1.72974E-001,-7.21595E-002,-3.08145E-003,1.73013E-001,-7.21982E-002,-7.20083E-001,1.73800E-001,1.18884E+000,-3.59386E-003,0.00000E+000,-2.78566E-003,9.34534E-001,0.00000E+000,-2.35005E-003,-9.45091E-002,1.00000E+000,26
839,1357,-9.48980E-001,1.26408E+000,1.08221E-002,5.15307E+000,-6.61606E-001,-6.00074E-002,5.19572E+000,1.11085E-002,4.86651E-001,0,7.96556E+001,-1.09115E+001,9.98721E-001,3.61328E+001,-4.67242E+001,9.98492E-001,1.72641E-001,-7.21562E-002,-3.05194E-003,1.72679E-001,-7.21943E-002,-7.14172E-001,1.73450E-001,1.18845E+000,-3.61089E-003,0.00000E+000,-2.56728E-003,9.34544E-001,0.00000E+000,-4.04463E-003,-9.45830E-002,1.00000E+000,26
1019,1337,1.28932E+001,3.29763E-001,-5.27056E-002,7.28673E+000,-4.14747E-001,-8.40802E-002,7.29900E+000,1.61797E-002,5.19574E-001,0,1.11082E+002,-7.28907E+000,9.98564E-001,6.99905E+001,-3.91045E+001,9.98441E-001,1.62972E-001,-6.80036E-002,3.54566E-004,1.62973E-001,-6.80041E-002,8.79533E-002,1.63715E-001,1.17656E+000,-3.26074E-002,0.00000E+000,2.69388E-002,9.36498E-001,0.00000E+000,-6.59438E-003,-7.49015E-002,1.00000E+000,26
1019,1347,1.28910E+001,9.25692E-001,-4.84645E-002,7.26266E+000,-4.69009E-001,-1.09583E-001,7.27862E+000,1.40733E-002,4.59467E-001,0,1.10806E+002,-8.08204E+000,9.99012E-001,7.00412E+001,-3.99210E+001,9.98914E-001,1.63214E-001,-6.79848E-002,5.13130E-004,1.63216E-001,-6.79860E-002,1.27163E-001,1.63972E-001,1.17684E+000,-3.25981E-002,0.00000E+000,2.70926E-002,9.36503E-001,0.00000E+000,-4.70939E-003,-7.48384E-002,1.00000E+000,26
839,1327,-1.03020E+000,-5.37726E-001,5.47580E-002,5.13797E+000,-5.18843E-001,1.19155E-001,5.16547E+000,3.00978E-002,5.54276E-001,0,7.88585E+001,-9.01431E+000,9.98627E-001,3.46538E+001,-4.45886E+001,9.97990E-001,1.73627E-001,-7.21636E-002,-3.14528E-003,1.73667E-001,-7.22039E-002,-7.33030E-001,1.74487E-001,1.18962E+000,-3.57200E-003,0.00000E+000,-3.21910E-003,9.34522E-001,0.00000E+000,1.01327E-003,-9.44143E-002,1.00000E+000,26
1019,1327,1.28900E+001,-2.85064E-001,-3.32392E-002,7.30185E+000,-3.80840E-001,-5.05575E-002,7.31195E+000,1.49583E-002,4.38994E-001,0,1.11197E+002,-6.77185E+000,9.98458E-001,6.98991E+001,-3.87063E+001,9.98236E-001,1.62727E-001,-6.80206E-002,1.96465E-004,1.62727E-001,-6.80208E-002,4.87831E-002,1.63455E-001,1.17629E+000,-3.26152E-002,0.00000E+000,2.67851E-002,9.36494E-001,0.00000E+000,-8.47890E-003,-7.49542E-002,1.00000E+000,26
1019,1317,1.28967E+001,-8.88681E-001,2.52395E-002,7.31955E+000,-3.39837E-001,-9.32080E-003,7.32744E+000,1.48955E-002,4.35914E-001,0,1.11312E+002,-6.20857E+000,9.98770E-001,7.00326E+001,-3.81811E+001,9.98281E-001,1.62478E-001,-6.80343E-002,3.98461E-005,1.62478E-001,-6.80343E-002,9.90408E-003,1.63192E-001,1.17601E+000,-3.26199E-002,0.00000E+000,2.66316E-002,9.36491E-001,0.00000E+000,-1.03590E-002,-7.49862E-002,1.00000E+000,26
839,1317,-1.03778E+000,-1.12808E+000,1.17404E-001,5.13836E+000,-4.69852E-001,1.57543E-001,5.16220E+000,1.48814E-002,5.55764E-001,0,7.87323E+001,-8.32482E+000,9.97854E-001,3.45745E+001,-4.38335E+001,9.95972E-001,1.73948E-001,-7.21646E-002,-3.17975E-003,1.73989E-001,-7.22056E-002,-7.40089E-001,1.74826E-001,1.19000E+000,-3.56728E-003,0.00000E+000,-3.43519E-003,9.34519E-001,0.00000E+000,2.69006E-003,-9.43938E-002,1.00000E+000,26
1019,1297,1.29193E+001,-2.07939E+000,1.86892E-001,7.35850E+000,-2.47441E-001,9.29858E-002,7.36324E+000,1.51527E-002,4.21762E-001,0,1.11511E+002,-4.92130E+000,9.98492E-001,7.05294E+001,-3.69742E+001,9.97931E-001,1.61971E-001,-6.80587E-002,-2.71806E-004,1.61972E-001,-6.80590E-002,-6.77012E-002,1.62658E-001,1.17546E+000,-3.26268E-002,0.00000E+000,2.63258E-002,9.36487E-001,0.00000E+000,-1.41073E-002,-7.50335E-002,1.00000E+000,26
1019,1307,1.29014E+001,-1.48349E+000,8.94241E-002,7.33447E+000,-2.93260E-001,3.40424E-002,7.34041E+000,1.84159E-002,4.63802E-001,0,1.11374E+002,-5.53755E+000,9.98835E-001,7.01484E+001,-3.75172E+001,9.98292E-001,1.62227E-001,-6.80474E-002,-1.16066E-004,1.62227E-001,-6.80475E-002,-2.88789E-002,1.62927E-001,1.17573E+000,-3.26242E-002,0.00000E+000,2.64789E-002,9.36489E-001,0.00000E+000,-1.22306E-002,-7.50156E-002,1.00000E+000,26
839,1307,-1.04566E+000,-1.71259E+000,2.20231E-001,5.13430E+000,-4.18328E-001,2.15774E-001,5.15583E+000,1.32293E-002,5.15251E-001,0,7.84686E+001,-7.61071E+000,9.97230E-001,3.45849E+001,-4.30949E+001,9.95291E-001,1.74266E-001,-7.21650E-002,-3.21512E-003,1.74308E-001,-7.22070E-002,-7.47355E-001,1.75160E-001,1.19039E+000,-3.56498E-003,0.00000E+000,-3.65070E-003,9.34518E-001,0.00000E+000,4.36231E-003,-9.43839E-002,1.00000E+000,26
829,1337,-1.77514E+000,4.58505E-002,6.74109E-003,5.02287E+000,-5.73635E-001,4.44721E-002,5.05571E+000,2.42255E-002,5.61433E-001,0,7.73854E+001,-9.74161E+000,9.97141E-001,3.31680E+001,-4.55793E+001,9.95936E-001,1.72918E-001,-7.21316E-002,-2.51671E-003,1.72944E-001,-7.21574E-002,-5.88357E-001,1.73732E-001,1.18877E+000,-2.77264E-003,0.00000E+000,-2.44726E-003,9.34423E-001,0.00000E+000,-1.41862E-003,-9.29581E-002,1.00000E+000,26
829,1347,-1.75301E+000,6.46949E-001,-7.53638E-003,5.02502E+000,-6.19906E-001,-5.52910E-003,5.06312E+000,1.24947E-002,5.11238E-001,0,7.75757E+001,-1.03479E+001,9.97124E-001,3.35873E+001,-4.62999E+001,9.96702E-001,1.72777E-001,-7.21335E-002,-2.55068E-003,1.72804E-001,-7.21601E-002,-5.96635E-001,1.73585E-001,1.18861E+000,-2.77760E-003,0.00000E+000,-2.35560E-003,9.34426E-001,0.00000E+000,-3.17368E-003,-9.30115E-002,1.00000E+000,26
829,1357,-1.72334E+000,1.26263E+000,1.32504E-002,5.02738E+000,-6.57207E-001,-5.67625E-002,5.07047E+000,1.24712E-002,5.10700E-001,0,7.77634E+001,-1.08359E+001,9.98193E-001,3.42070E+001,-4.68500E+001,9.98162E-001,1.72633E-001,-7.21362E-002,-2.58569E-003,1.72660E-001,-7.21635E-002,-6.05170E-001,1.73433E-001,1.18845E+000,-2.78438E-003,0.00000E+000,-2.26354E-003,9.34430E-001,0.00000E+000,-4.93649E-003,-9.30846E-002,1.00000E+000,26
1029,1337,1.36519E+001,3.46278E-001,-5.84708E-002,7.39056E+000,-4.02718E-001,-8.27390E-002,7.40199E+000,1.38370E-002,4.76396E-001,0,1.12568E+002,-7.11150E+000,9.97933E-001,7.17652E+001,-3.87576E+001,9.97455E-001,1.62940E-001,-6.77402E-002,1.60127E-004,1.62940E-001,-6.77403E-002,3.97718E-002,1.63710E-001,1.17652E+000,-3.23680E-002,0.00000E+000,2.62478E-002,9.36655E-001,0.00000E+000,-4.60263E-003,-7.33827E-002,1.00000E+000,26
1029,1347,1.36525E+001,9.58465E-001,-5.81288E-002,7.36819E+000,-4.42528E-001,-1.15957E-001,7.38238E+000,1.33211E-002,4.86006E-001,0,1.12341E+002,-7.68417E+000,9.98454E-001,7.18515E+001,-3.92771E+001,9.97789E-001,1.63303E-001,-6.77214E-002,3.20331E-004,1.63303E-001,-6.77218E-002,7.94444E-002,1.64094E-001,1.17695E+000,-3.23531E-002,0.00000E+000,2.64105E-002,9.36661E-001,0.00000E+000,-2.86852E-003,-7.33220E-002,1.00000E+000,26
1029,1327,1.36604E+001,-2.61795E-001,-2.88129E-002,7.41477E+000,-3.62909E-001,-5.06012E-002,7.42382E+000,1.46980E-002,4.50867E-001,0,1.12820E+002,-6.53759E+000,9.98152E-001,7.18747E+001,-3.82498E+001,9.97630E-001,1.62575E-001,-6.77556E-002,2.03995E-006,1.62575E-001,-6.77556E-002,5.07446E-004,1.63324E-001,1.17610E+000,-3.23782E-002,0.00000E+000,2.60855E-002,9.36651E-001,0.00000E+000,-6.33255E-003,-7.34243E-002,1.00000E+000,26
829,1327,-1.79957E+000,-5.39818E-001,4.19557E-002,5.01403E+000,-5.15806E-001,9.37219E-002,5.04136E+000,2.42023E-002,5.79392E-001,0,7.70872E+001,-8.92775E+000,9.97871E-001,3.27654E+001,-4.46846E+001,9.97661E-001,1.73055E-001,-7.21300E-002,-2.48339E-003,1.73080E-001,-7.21552E-002,-5.80248E-001,1.73876E-001,1.18893E+000,-2.76876E-003,0.00000E+000,-2.53860E-003,9.34421E-001,0.00000E+000,3.30386E-004,-9.29163E-002,1.00000E+000,26
829,1307,-1.80229E+000,-1.71937E+000,2.39793E-001,5.02360E+000,-4.20225E-001,2.25842E-001,5.04621E+000,1.65512E-002,4.62483E-001,0,7.67902E+001,-7.63756E+000,9.97452E-001,3.29690E+001,-4.33658E+001,9.95348E-001,1.73319E-001,-7.21288E-002,-2.41904E-003,1.73343E-001,-7.21526E-002,-5.64611E-001,1.74152E-001,1.18926E+000,-2.76569E-003,0.00000E+000,-2.72061E-003,9.34419E-001,0.00000E+000,3.81554E-003,-9.28831E-002,1.00000E+000,26
829,1317,-1.80654E+000,-1.12934E+000,1.24546E-001,5.01629E+000,-4.65835E-001,1.58780E-001,5.04037E+000,1.92542E-002,5.13224E-001,0,7.69052E+001,-8.23889E+000,9.97227E-001,3.27426E+001,-4.39915E+001,9.96841E-001,1.73189E-001,-7.21291E-002,-2.45085E-003,1.73213E-001,-7.21536E-002,-5.72338E-001,1.74016E-001,1.18910E+000,-2.76646E-003,0.00000E+000,-2.62971E-003,9.34420E-001,0.00000E+000,2.07502E-003,-9.28914E-002,1.00000E+000,26
1029,1317,1.36677E+001,-8.69802E-001,2.06450E-002,7.43343E+000,-3.27747E-001,-1.71840E-002,7.44067E+000,1.59389E-002,4.51764E-001,0,1.12980E+002,-6.02038E+000,9.98808E-001,7.20014E+001,-3.77726E+001,9.97704E-001,1.62208E-001,-6.77691E-002,-1.54267E-004,1.62209E-001,-6.77692E-002,-3.84335E-002,1.62938E-001,1.17568E+000,-3.23856E-002,0.00000E+000,2.59241E-002,9.36648E-001,0.00000E+000,-8.05393E-003,-7.34545E-002,1.00000E+000,26
1029,1307,1.36793E+001,-1.46395E+000,1.04241E-001,7.45385E+000,-2.80593E-001,3.92429E-002,7.45924E+000,1.38388E-002,4.94287E-001,0,1.13073E+002,-5.38505E+000,9.98857E-001,7.22593E+001,-3.71335E+001,9.96796E-001,1.61839E-001,-6.77813E-002,-3.09780E-004,1.61840E-001,-6.77817E-002,-7.72974E-002,1.62549E-001,1.17526E+000,-3.23913E-002,0.00000E+000,2.57628E-002,9.36646E-001,0.00000E+000,-9.77278E-003,-7.34778E-002,1.00000E+000,26
1029,1297,1.36942E+001,-2.05503E+000,1.97050E-001,7.47536E+000,-2.29938E-001,9.52732E-002,7.47950E+000,1.30890E-002,4.75241E-001,0,1.13180E+002,-4.69129E+000,9.98438E-001,7.25853E+001,-3.64963E+001,9.97186E-001,1.61466E-001,-6.77925E-002,-4.65112E-004,1.61467E-001,-6.77934E-002,-1.16239E-001,1.62157E-001,1.17484E+000,-3.23956E-002,0.00000E+000,2.56013E-002,9.36645E-001,0.00000E+000,-1.14949E-002,-7.34954E-002,1.00000E+000,26
819,1317,-2.57258E+000,-1.13986E+000,1.31017E-001,4.89581E+000,-4.71873E-001,1.55703E-001,4.92097E+000,1.85031E-002,4.88890E-001,0,7.51163E+001,-8.30538E+000,9.96592E-001,3.09547E+001,-4.42817E+001,9.95714E-001,1.72030E-001,-7.19120E-002,-1.90898E-003,1.72045E-001,-7.19269E-002,-4.48335E-001,1.72813E-001,1.18772E+000,-2.56775E-003,0.00000E+000,-1.69545E-003,9.34481E-001,0.00000E+000,1.30862E-003,-9.12428E-002,1.00000E+000,26
819,1327,-2.56837E+000,-5.51354E-001,4.84169E-002,4.89308E+000,-5.20787E-001,1.01560E-001,4.92176E+000,1.80862E-002,5.05648E-001,0,7.52561E+001,-8.98099E+000,9.97639E-001,3.09346E+001,-4.50174E+001,9.96681E-001,1.72019E-001,-7.19141E-002,-2.00043E-003,1.72036E-001,-7.19305E-002,-4.69824E-001,1.72803E-001,1.18770E+000,-2.56789E-003,0.00000E+000,-1.73264E-003,9.34481E-001,0.00000E+000,-2.82824E-004,-9.12600E-002,1.00000E+000,26
819,1337,-2.54896E+000,4.73861E-002,6.58529E-003,4.89770E+000,-5.65809E-001,4.90989E-002,4.93052E+000,1.52863E-002,5.39193E-001,0,7.54953E+001,-9.59845E+000,9.97172E-001,3.12471E+001,-4.56730E+001,9.96550E-001,1.72006E-001,-7.19184E-002,-2.09247E-003,1.72024E-001,-7.19363E-002,-4.91456E-001,1.72790E-001,1.18769E+000,-2.56820E-003,0.00000E+000,-1.77002E-003,9.34480E-001,0.00000E+000,-1.88276E-003,-9.12964E-002,1.00000E+000,26
819,1307,-2.57828E+000,-1.72651E+000,2.16728E-001,4.89399E+000,-4.24475E-001,1.97802E-001,4.91635E+000,1.74986E-002,5.04252E-001,0,7.49431E+001,-7.62322E+000,9.97281E-001,3.09593E+001,-4.35076E+001,9.96123E-001,1.72037E-001,-7.19108E-002,-1.81790E-003,1.72051E-001,-7.19243E-002,-4.26935E-001,1.72820E-001,1.18773E+000,-2.56767E-003,0.00000E+000,-1.65840E-003,9.34481E-001,0.00000E+000,2.89447E-003,-9.12332E-002,1.00000E+000,26
819,1347,-2.52113E+000,6.54891E-001,-5.99169E-003,4.90533E+000,-6.06007E-001,-1.07700E-003,4.94262E+000,1.42495E-002,5.35709E-001,0,7.57672E+001,-1.01294E+001,9.98229E-001,3.17603E+001,-4.62763E+001,9.98163E-001,1.71991E-001,-7.19242E-002,-2.18492E-003,1.72010E-001,-7.19437E-002,-5.13185E-001,1.72775E-001,1.18768E+000,-2.56861E-003,0.00000E+000,-1.80751E-003,9.34479E-001,0.00000E+000,-3.48748E-003,-9.13460E-002,1.00000E+000,26
819,1357,-2.49365E+000,1.25579E+000,2.30758E-002,4.90516E+000,-6.58063E-001,-4.68328E-002,4.94933E+000,1.76671E-002,5.32131E-001,0,7.59020E+001,-1.08602E+001,9.97622E-001,3.23651E+001,-4.70763E+001,9.97557E-001,1.71972E-001,-7.19321E-002,-2.27791E-003,1.71994E-001,-7.19533E-002,-5.35043E-001,1.72756E-001,1.18766E+000,-2.56918E-003,0.00000E+000,-1.84515E-003,9.34477E-001,0.00000E+000,-5.09834E-003,-9.14139E-002,1.00000E+000,26
1039,1337,1.44245E+001,3.70542E-001,-6.47136E-002,7.50619E+000,-3.85299E-001,-8.87255E-002,7.51660E+000,1.21650E-002,4.87965E-001,0,1.14254E+002,-6.84321E+000,9.98515E-001,7.37596E+001,-3.82607E+001,9.97434E-001,1.62998E-001,-6.73702E-002,-2.66008E-004,1.62999E-001,-6.73706E-002,-6.61596E-002,1.63813E-001,1.17659E+000,-3.22606E-002,0.00000E+000,2.52293E-002,9.36962E-001,0.00000E+000,-2.59244E-003,-7.24394E-002,1.00000E+000,26
1039,1347,1.44242E+001,9.68061E-001,-6.48698E-002,7.48324E+000,-4.37698E-001,-1.20668E-001,7.49700E+000,1.22107E-002,4.23647E-001,0,1.14018E+002,-7.60776E+000,9.99109E-001,7.38283E+001,-3.90414E+001,9.98533E-001,1.63463E-001,-6.73597E-002,-1.66672E-004,1.63463E-001,-6.73598E-002,-4.13720E-002,1.64303E-001,1.17714E+000,-3.22417E-002,0.00000E+000,2.52807E-002,9.36964E-001,0.00000E+000,-9.73667E-004,-7.23835E-002,1.00000E+000,26
1039,1317,1.44359E+001,-8.39037E-001,1.65187E-002,7.54575E+000,-3.01759E-001,-1.72966E-002,7.55180E+000,1.31638E-002,4.42093E-001,0,1.14589E+002,-5.63730E+000,9.98549E-001,7.39332E+001,-3.71942E+001,9.97221E-001,1.62061E-001,-6.73870E-002,-4.59118E-004,1.62062E-001,-6.73879E-002,-1.14646E-001,1.62826E-001,1.17550E+000,-3.22843E-002,0.00000E+000,2.51266E-002,9.36960E-001,0.00000E+000,-5.82806E-003,-7.25093E-002,1.00000E+000,26
1039,1327,1.44306E+001,-2.40029E-001,-3.47553E-002,7.52830E+000,-3.46285E-001,-5.55901E-002,7.53647E+000,1.16031E-002,4.28837E-001,0,1.14469E+002,-6.28738E+000,9.98715E-001,7.38329E+001,-3.78111E+001,9.97591E-001,1.62529E-001,-6.73791E-002,-3.63505E-004,1.62530E-001,-6.73797E-002,-9.05891E-002,1.63319E-001,1.17604E+000,-3.22741E-002,0.00000E+000,2.51777E-002,9.36961E-001,0.00000E+000,-4.21618E-003,-7.24791E-002,1.00000E+000,26
1039,1307,1.44485E+001,-1.44109E+000,8.36306E-002,7.56776E+000,-2.61714E-001,2.45304E-002,7.57232E+000,1.36179E-002,4.53715E-001,0,1.14763E+002,-5.06920E+000,9.98360E-001,7.41769E+001,-3.66594E+001,9.97162E-001,1.61590E-001,-6.73941E-002,-5.53790E-004,1.61591E-001,-6.73954E-002,-1.38567E-001,1.62330E-001,1.17495E+000,-3.22921E-002,0.00000E+000,2.50754E-002,9.36959E-001,0.00000E+000,-7.43884E-003,-7.25324E-002,1.00000E+000,26
1039,1297,1.44650E+001,-2.03782E+000,1.75271E-001,7.59036E+000,-2.17217E-001,7.69226E-002,7.59385E+000,1.39405E-002,4.35982E-001,0,1.14900E+002,-4.45740E+000,9.97347E-001,7.45248E+001,-3.61084E+001,9.96935E-001,1.61116E-001,-6.74003E-002,-6.47470E-004,1.61118E-001,-6.74021E-002,-1.62338E-001,1.61832E-001,1.17441E+000,-3.22972E-002,0.00000E+000,2.50243E-002,9.36959E-001,0.00000E+000,-9.05027E-003,-7.25476E-002,1.00000E+000,26
1049,1337,1.52047E+001,3.93858E-001,-6.91941E-002,7.62823E+000,-3.66800E-001,-9.59297E-002,7.63765E+000,1.73014E-002,4.56523E-001,0,1.16036E+002,-6.57367E+000,9.99253E-001,7.58785E+001,-3.78029E+001,9.98383E-001,1.62991E-001,-6.73071E-002,-8.69142E-004,1.62995E-001,-6.73103E-002,-2.16229E-001,1.63816E-001,1.17659E+000,-3.20912E-002,0.00000E+000,2.38584E-002,9.36959E-001,0.00000E+000,-1.07881E-003,-7.10020E-002,1.00000E+000,26
1049,1347,1.52123E+001,9.96419E-001,-5.81510E-002,7.61078E+000,-4.18087E-001,-1.26204E-001,7.62330E+000,1.42004E-002,4.57411E-001,0,1.15875E+002,-7.32317E+000,9.99009E-001,7.60894E+001,-3.84952E+001,9.97769E-001,1.63565E-001,-6.73051E-002,-8.36045E-004,1.63568E-001,-6.73082E-002,-2.07481E-001,1.64420E-001,1.17727E+000,-3.20654E-002,0.00000E+000,2.38021E-002,9.36957E-001,0.00000E+000,1.85630E-004,-7.09538E-002,1.00000E+000,26
1049,1307,1.52266E+001,-1.41501E+000,9.31967E-002,7.68615E+000,-2.41245E-001,2.35449E-002,7.68997E+000,1.69286E-002,3.95662E-001,0,1.16461E+002,-4.76165E+000,9.98583E-001,7.62902E+001,-3.62077E+001,9.97727E-001,1.61271E-001,-6.73111E-002,-9.51648E-004,1.61275E-001,-6.73150E-002,-2.38533E-001,1.62007E-001,1.17457E+000,-3.21284E-002,0.00000E+000,2.40260E-002,9.36962E-001,0.00000E+000,-4.84499E-003,-7.10712E-002,1.00000E+000,26
1049,1317,1.52114E+001,-8.14255E-001,2.70990E-002,7.66123E+000,-2.83429E-001,-1.85512E-002,7.66649E+000,1.43714E-002,4.22368E-001,0,1.16246E+002,-5.37484E+000,9.98071E-001,7.60086E+001,-3.67446E+001,9.96541E-001,1.61845E-001,-6.73098E-002,-9.25086E-004,1.61849E-001,-6.73136E-002,-2.31295E-001,1.62610E-001,1.17524E+000,-3.21183E-002,0.00000E+000,2.39702E-002,9.36961E-001,0.00000E+000,-3.59174E-003,-7.10525E-002,1.00000E+000,26
1049,1327,1.52039E+001,-2.20832E-001,-3.35933E-002,7.64468E+000,-3.33190E-001,-5.27071E-002,7.65212E+000,9.56214E-003,4.01975E-001,0,1.16131E+002,-6.09086E+000,9.98741E-001,7.58571E+001,-3.74297E+001,9.97202E-001,1.62418E-001,-6.73086E-002,-8.98842E-004,1.62422E-001,-6.73121E-002,-2.24174E-001,1.63213E-001,1.17591E+000,-3.21089E-002,0.00000E+000,2.39144E-002,9.36961E-001,0.00000E+000,-2.33763E-003,-7.10349E-002,1.00000E+000,26
809,1347,-3.30213E+000,6.41692E-001,-1.08607E-002,4.77267E+000,-6.11709E-001,-1.54286E-003,4.81171E+000,1.15987E-002,5.23720E-001,0,7.37787E+001,-1.02052E+001,9.98969E-001,2.97210E+001,-4.65848E+001,9.98883E-001,1.71073E-001,-7.16653E-002,-1.86775E-003,1.71088E-001,-7.16797E-002,-4.40827E-001,1.71835E-001,1.18659E+000,-2.74538E-003,0.00000E+000,-1.05354E-003,9.34593E-001,0.00000E+000,-3.75658E-003,-8.98202E-002,1.00000E+000,26
809,1357,-3.27495E+000,1.24719E+000,2.40844E-002,4.77171E+000,-6.60024E-001,-4.49331E-002,4.81735E+000,1.41362E-002,5.17380E-001,0,7.38916E+001,-1.08723E+001,9.98444E-001,3.03385E+001,-4.73300E+001,9.97965E-001,1.71203E-001,-7.16822E-002,-2.05748E-003,1.71221E-001,-7.16996E-002,-4.85305E-001,1.71973E-001,1.18675E+000,-2.73836E-003,0.00000E+000,-1.28510E-003,9.34583E-001,0.00000E+000,-5.32529E-003,-8.98877E-002,1.00000E+000,26
809,1327,-3.34123E+000,-5.64609E-001,3.66116E-002,4.76764E+000,-5.30061E-001,9.14078E-002,4.79788E+000,1.18236E-002,5.53677E-001,0,7.34121E+001,-9.08179E+000,9.98778E-001,2.90019E+001,-4.52773E+001,9.97329E-001,1.70808E-001,-7.16444E-002,-1.48973E-003,1.70817E-001,-7.16536E-002,-3.52031E-001,1.71554E-001,1.18626E+000,-2.75389E-003,0.00000E+000,-5.94551E-004,9.34605E-001,0.00000E+000,-6.47014E-004,-8.97384E-002,1.00000E+000,26
809,1337,-3.32044E+000,3.52200E-002,7.18065E-003,4.77333E+000,-5.72618E-001,4.89962E-002,4.80780E+000,1.01776E-002,5.33064E-001,0,7.36336E+001,-9.67870E+000,9.98728E-001,2.93662E+001,-4.59715E+001,9.98669E-001,1.70942E-001,-7.16537E-002,-1.67864E-003,1.70953E-001,-7.16654E-002,-3.96434E-001,1.71695E-001,1.18642E+000,-2.75012E-003,0.00000E+000,-8.23736E-004,9.34599E-001,0.00000E+000,-2.19969E-003,-8.97746E-002,1.00000E+000,26
809,1307,-3.35219E+000,-1.72732E+000,2.24829E-001,4.76747E+000,-4.20363E-001,2.07841E-001,4.79048E+000,2.08015E-002,5.85923E-001,0,7.30160E+001,-7.59840E+000,9.94113E-001,2.90611E+001,-4.35977E+001,9.93229E-001,1.70534E-001,-7.16371E-002,-1.11153E-003,1.70539E-001,-7.16422E-002,-2.62972E-001,1.71264E-001,1.18594E+000,-2.75660E-003,0.00000E+000,-1.38032E-004,9.34608E-001,0.00000E+000,2.44579E-003,-8.97123E-002,1.00000E+000,26
809,1317,-3.34334E+000,-1.14547E+000,1.23120E-001,4.77264E+000,-4.73512E-001,1.50678E-001,4.79844E+000,1.87416E-002,5.67611E-001,0,7.32899E+001,-8.31560E+000,9.97989E-001,2.90652E+001,-4.44149E+001,9.96758E-001,1.70672E-001,-7.16398E-002,-1.30063E-003,1.70679E-001,-7.16467E-002,-3.07528E-001,1.71410E-001,1.18610E+000,-2.75567E-003,0.00000E+000,-3.66086E-004,9.34607E-001,0.00000E+000,9.00778E-004,-8.97212E-002,1.00000E+000,26
1049,1297,1.52344E+001,-2.02134E+000,1.72801E-001,7.70256E+000,-2.05527E-001,7.41398E-002,7.70566E+000,1.44539E-002,3.79045E-001,0,1.16516E+002,-4.26736E+000,9.97633E-001,7.64808E+001,-3.57819E+001,9.95901E-001,1.60695E-001,-6.73123E-002,-9.77763E-004,1.60699E-001,-6.73165E-002,-2.45696E-001,1.61402E-001,1.17390E+000,-3.21372E-002,0.00000E+000,2.40817E-002,9.36963E-001,0.00000E+000,-6.09727E-003,-7.10877E-002,1.00000E+000,26
799,1337,-4.09347E+000,2.64677E-002,5.17802E-003,4.64792E+000,-5.74792E-001,5.09304E-002,4.68360E+000,1.05953E-002,5.12502E-001,0,7.17459E+001,-9.69282E+000,9.98845E-001,2.74611E+001,-4.62193E+001,9.98769E-001,1.69469E-001,-7.13583E-002,-1.20731E-003,1.69475E-001,-7.13643E-002,-2.87224E-001,1.70177E-001,1.18468E+000,-2.98477E-003,0.00000E+000,2.73509E-004,9.34724E-001,0.00000E+000,-2.53347E-003,-8.79504E-002,1.00000E+000,26
799,1347,-4.07392E+000,6.29902E-001,-1.45096E-002,4.64901E+000,-6.16803E-001,5.45675E-004,4.68975E+000,1.23170E-002,5.20769E-001,0,7.19177E+001,-1.02681E+001,9.98376E-001,2.78314E+001,-4.68686E+001,9.98288E-001,1.69667E-001,-7.13750E-002,-1.48236E-003,1.69676E-001,-7.13841E-002,-3.52341E-001,1.70386E-001,1.18492E+000,-2.97791E-003,0.00000E+000,-1.34731E-004,9.34713E-001,0.00000E+000,-3.93943E-003,-8.79905E-002,1.00000E+000,26
799,1357,-4.04156E+000,1.24358E+000,2.34236E-002,4.65330E+000,-6.56611E-001,-4.07644E-002,4.69957E+000,1.27810E-002,5.15885E-001,0,7.21013E+001,-1.08123E+001,9.97971E-001,2.85400E+001,-4.74947E+001,9.97582E-001,1.69864E-001,-7.13999E-002,-1.75802E-003,1.69877E-001,-7.14127E-002,-4.17467E-001,1.70593E-001,1.18516E+000,-2.96749E-003,0.00000E+000,-5.45870E-004,9.34695E-001,0.00000E+000,-5.35538E-003,-8.80515E-002,1.00000E+000,26
799,1327,-4.10610E+000,-5.76866E-001,5.18158E-002,4.64983E+000,-5.35178E-001,1.08306E-001,4.68178E+000,1.87341E-002,5.35925E-001,0,7.15952E+001,-9.19489E+000,9.99014E-001,2.72622E+001,-4.56118E+001,9.97554E-001,1.69269E-001,-7.13448E-002,-9.32164E-004,1.69272E-001,-7.13484E-002,-2.21966E-001,1.69966E-001,1.18444E+000,-2.99017E-003,0.00000E+000,6.81069E-004,9.34733E-001,0.00000E+000,-1.12984E-003,-8.79188E-002,1.00000E+000,26
1059,1327,1.59786E+001,-2.04905E-001,-3.06865E-002,7.76108E+000,-3.23763E-001,-5.16451E-002,7.76800E+000,1.43788E-002,4.25164E-001,0,1.17797E+002,-5.97400E+000,9.99054E-001,7.79081E+001,-3.70779E+001,9.97764E-001,1.62497E-001,-6.75593E-002,-1.22182E-003,1.62504E-001,-6.75658E-002,-3.04284E-001,1.63270E-001,1.17603E+000,-3.13499E-002,0.00000E+000,2.25927E-002,9.36676E-001,0.00000E+000,-7.60294E-004,-6.98050E-002,1.00000E+000,26
1059,1337,1.59822E+001,4.13352E-001,-6.51168E-002,7.74696E+000,-3.54218E-001,-9.53201E-002,7.75564E+000,1.16908E-002,4.45513E-001,0,1.17738E+002,-6.39210E+000,9.99397E-001,7.79756E+001,-3.74136E+001,9.98760E-001,1.63122E-001,-6.75616E-002,-1.22712E-003,1.63128E-001,-6.75681E-002,-3.04773E-001,1.63927E-001,1.17677E+000,-3.13301E-002,0.00000E+000,2.24942E-002,9.36673E-001,0.00000E+000,1.18751E-004,-6.97813E-002,1.00000E+000,26
1059,1347,1.59919E+001,1.01817E+000,-5.28885E-002,7.73111E+000,-4.02642E-001,-1.25435E-001,7.74260E+000,1.69226E-002,4.31028E-001,0,1.17600E+002,-7.10641E+000,9.99197E-001,7.82179E+001,-3.80796E+001,9.97766E-001,1.63747E-001,-6.75644E-002,-1.22885E-003,1.63753E-001,-6.75709E-002,-3.04375E-001,1.64585E-001,1.17751E+000,-3.13014E-002,0.00000E+000,2.23953E-002,9.36669E-001,0.00000E+000,1.00051E-003,-6.97472E-002,1.00000E+000,26
1059,1297,1.60030E+001,-2.00084E+000,1.63757E-001,7.81554E+000,-1.88138E-001,7.33617E-002,7.81815E+000,1.39840E-002,3.21683E-001,0,1.18134E+002,-4.00142E+000,9.98057E-001,7.84176E+001,-3.53797E+001,9.95520E-001,1.60622E-001,-6.75540E-002,-1.19557E-003,1.60629E-001,-6.75603E-002,-3.00201E-001,1.61302E-001,1.17382E+000,-3.13838E-002,0.00000E+000,2.28873E-002,9.36680E-001,0.00000E+000,-3.38771E-003,-6.98454E-002,1.00000E+000,26
1059,1307,1.59960E+001,-1.39896E+000,8.73848E-002,7.79994E+000,-2.27612E-001,2.59629E-002,7.80330E+000,1.52804E-002,3.30385E-001,0,1.18081E+002,-4.57124E+000,9.98788E-001,7.82458E+001,-3.58832E+001,9.97814E-001,1.61247E-001,-6.75557E-002,-1.20490E-003,1.61253E-001,-6.75621E-002,-3.01715E-001,1.61957E-001,1.17456E+000,-3.13741E-002,0.00000E+000,2.27895E-002,9.36679E-001,0.00000E+000,-2.51469E-003,-6.98338E-002,1.00000E+000,26
1059,1317,1.59806E+001,-8.02459E-001,1.21263E-002,7.77523E+000,-2.74883E-001,-2.29519E-002,7.78012E+000,1.54771E-002,4.16036E-001,0,1.17899E+002,-5.26341E+000,9.98513E-001,7.79437E+001,-3.64350E+001,9.96723E-001,1.61872E-001,-6.75574E-002,-1.21400E-003,1.61878E-001,-6.75639E-002,-3.03164E-001,1.62613E-001,1.17529E+000,-3.13637E-002,0.00000E+000,2.26912E-002,9.36678E-001,0.00000E+000,-1.63866E-003,-6.98213E-002,1.00000E+000,26
799,1307,-4.11426E+000,-1.73466E+000,2.39774E-001,4.65118E+000,-4.22067E-001,2.18590E-001,4.67540E+000,2.70391E-002,5.62076E-001,0,7.12427E+001,-7.63861E+000,9.95779E-001,2.73664E+001,-4.38545E+001,9.95767E-001,1.68865E-001,-7.13344E-002,-3.82343E-004,1.68866E-001,-7.13350E-002,-9.12015E-002,1.69542E-001,1.18396E+000,-2.99372E-003,0.00000E+000,1.49118E-003,9.34739E-001,0.00000E+000,1.66015E-003,-8.78980E-002,1.00000E+000,26
799,1317,-4.11344E+000,-1.15552E+000,1.22816E-001,4.65103E+000,-4.76106E-001,1.59659E-001,4.67806E+000,2.27885E-002,5.73328E-001,0,7.14413E+001,-8.37508E+000,9.97527E-001,2.72085E+001,-4.46692E+001,9.96165E-001,1.69068E-001,-7.13364E-002,-6.57445E-004,1.69070E-001,-7.13382E-002,-1.56688E-001,1.69755E-001,1.18420E+000,-2.99335E-003,0.00000E+000,1.08670E-003,9.34739E-001,0.00000E+000,2.67124E-004,-8.79002E-002,1.00000E+000,26
789,1327,-4.87086E+000,-5.82370E-001,5.34380E-002,4.53241E+000,-5.33887E-001,1.15165E-001,4.56519E+000,1.71113E-002,5.39869E-001,0,6.98124E+001,-9.18414E+000,9.98595E-001,2.54982E+001,-4.58024E+001,9.97562E-001,1.67782E-001,-7.10275E-002,-5.90869E-004,1.67783E-001,-7.10289E-002,-1.41762E-001,1.68440E-001,1.18268E+000,-3.41893E-003,0.00000E+000,1.69238E-003,9.34889E-001,0.00000E+000,-1.51148E-003,-8.61885E-002,1.00000E+000,26
789,1337,-4.85651E+000,2.50531E-002,9.11844E-003,4.53168E+000,-5.69671E-001,5.67735E-002,4.56770E+000,1.28065E-002,5.11960E-001,0,6.99816E+001,-9.61776E+000,9.98225E-001,2.57304E+001,-4.63558E+001,9.98145E-001,1.68075E-001,-7.10457E-002,-9.41185E-004,1.68078E-001,-7.10494E-002,-2.25513E-001,1.68746E-001,1.18302E+000,-3.41076E-003,0.00000E+000,1.12473E-003,9.34875E-001,0.00000E+000,-2.74122E-003,-8.62172E-002,1.00000E+000,26
789,1347,-4.83379E+000,6.28833E-001,-7.21125E-003,4.53565E+000,-6.12367E-001,7.53014E-003,4.57680E+000,1.40388E-002,5.48290E-001,0,7.01931E+001,-1.02060E+001,9.97678E-001,2.61587E+001,-4.69947E+001,9.97154E-001,1.68367E-001,-7.10678E-002,-1.29179E-003,1.68374E-001,-7.10747E-002,-3.09108E-001,1.69053E-001,1.18338E+000,-3.40060E-003,0.00000E+000,5.55355E-004,9.34859E-001,0.00000E+000,-3.97470E-003,-8.62530E-002,1.00000E+000,26
789,1357,-4.80856E+000,1.23817E+000,2.15857E-002,4.53432E+000,-6.55329E-001,-3.63822E-002,4.58158E+000,1.26337E-002,5.48009E-001,0,7.03000E+001,-1.07948E+001,9.97387E-001,2.67370E+001,-4.76680E+001,9.96894E-001,1.68658E-001,-7.10982E-002,-1.64239E-003,1.68669E-001,-7.11095E-002,-3.92465E-001,1.69359E-001,1.18373E+000,-3.38621E-003,0.00000E+000,-1.67127E-005,9.34835E-001,0.00000E+000,-5.21401E-003,-8.63036E-002,1.00000E+000,26
1069,1327,1.67533E+001,-1.89468E-001,-3.97541E-002,7.87810E+000,-3.15007E-001,-5.78672E-002,7.88460E+000,1.54001E-002,4.52867E-001,0,1.19499E+002,-5.84106E+000,9.98863E-001,7.99426E+001,-3.67055E+001,9.97083E-001,1.62616E-001,-6.75561E-002,-1.52949E-003,1.62626E-001,-6.75663E-002,-3.80707E-001,1.63399E-001,1.17619E+000,-3.06833E-002,0.00000E+000,2.14178E-002,9.36631E-001,0.00000E+000,2.52363E-004,-6.86444E-002,1.00000E+000,26
1069,1337,1.67505E+001,4.24919E-001,-6.68641E-002,7.85845E+000,-3.47496E-001,-9.05620E-002,7.86665E+000,1.01121E-002,4.27855E-001,0,1.19318E+002,-6.31543E+000,9.99062E-001,7.99235E+001,-3.71388E+001,9.98089E-001,1.63211E-001,-6.75609E-002,-1.56128E-003,1.63222E-001,-6.75714E-002,-3.87609E-001,1.64025E-001,1.17689E+000,-3.06652E-002,0.00000E+000,2.13031E-002,9.36628E-001,0.00000E+000,6.53781E-004,-6.86340E-002,1.00000E+000,26
1069,1347,1.67571E+001,1.03325E+000,-6.56675E-002,7.84113E+000,-3.92315E-001,-1.23946E-001,7.85191E+000,1.08880E-002,4.52339E-001,0,1.19171E+002,-6.97387E+000,9.99107E-001,8.00964E+001,-3.77051E+001,9.98326E-001,1.63810E-001,-6.75666E-002,-1.59023E-003,1.63821E-001,-6.75776E-002,-3.93764E-001,1.64654E-001,1.17760E+000,-3.06396E-002,0.00000E+000,2.11877E-002,9.36624E-001,0.00000E+000,1.05777E-003,-6.86194E-002,1.00000E+000,26
789,1307,-4.87196E+000,-1.74379E+000,2.36790E-001,4.54100E+000,-4.25033E-001,2.22464E-001,4.56627E+000,1.84671E-002,5.28322E-001,0,6.95854E+001,-7.66367E+000,9.97365E-001,2.57008E+001,-4.41054E+001,9.94422E-001,1.67195E-001,-7.10129E-002,1.09448E-004,1.67195E-001,-7.10129E-002,2.63254E-002,1.67826E-001,1.18198E+000,-3.42421E-003,0.00000E+000,2.81983E-003,9.34897E-001,0.00000E+000,9.30996E-004,-8.61699E-002,1.00000E+000,26
789,1317,-4.87293E+000,-1.16738E+000,1.46250E-001,4.53627E+000,-4.82821E-001,1.75536E-001,4.56527E+000,1.98077E-002,5.38079E-001,0,6.96730E+001,-8.49550E+000,9.97499E-001,2.55778E+001,-4.50213E+001,9.93601E-001,1.67489E-001,-7.10191E-002,-2.40653E-004,1.67489E-001,-7.10193E-002,-5.78110E-002,1.68133E-001,1.18233E+000,-3.42216E-003,0.00000E+000,2.25659E-003,9.34894E-001,0.00000E+000,-2.89192E-004,-8.61771E-002,1.00000E+000,26
1069,1297,1.67609E+001,-1.98279E+000,1.43093E-001,7.91917E+000,-1.73399E-001,6.85205E-002,7.92136E+000,1.82436E-002,3.58257E-001,0,1.19626E+002,-3.79428E+000,9.96738E-001,8.01721E+001,-3.49452E+001,9.93492E-001,1.60827E-001,-6.75443E-002,-1.42649E-003,1.60836E-001,-6.75532E-002,-3.57871E-001,1.61520E-001,1.17408E+000,-3.07193E-002,0.00000E+000,2.17618E-002,9.36637E-001,0.00000E+000,-9.51702E-004,-6.86649E-002,1.00000E+000,26
1069,1307,1.67571E+001,-1.38401E+000,6.10513E-002,7.90788E+000,-2.15310E-001,2.04000E-002,7.91084E+000,1.26800E-002,3.25842E-001,0,1.19645E+002,-4.38328E+000,9.98671E-001,8.00405E+001,-3.55026E+001,9.97054E-001,1.61421E-001,-6.75477E-002,-1.46225E-003,1.61430E-001,-6.75571E-002,-3.65886E-001,1.62144E-001,1.17478E+000,-3.07112E-002,0.00000E+000,2.16477E-002,9.36636E-001,0.00000E+000,-5.52315E-004,-6.86603E-002,1.00000E+000,26
1069,1317,1.67571E+001,-7.80459E-001,1.00039E-002,7.89500E+000,-2.58732E-001,-1.89017E-002,7.89926E+000,1.34214E-002,4.46115E-001,0,1.19600E+002,-5.04207E+000,9.99009E-001,8.00204E+001,-3.59763E+001,9.97281E-001,1.62019E-001,-6.75519E-002,-1.49590E-003,1.62028E-001,-6.75617E-002,-3.73324E-001,1.62771E-001,1.17549E+000,-3.06974E-002,0.00000E+000,2.15327E-002,9.36633E-001,0.00000E+000,-1.50047E-004,-6.86524E-002,1.00000E+000,26
779,1327,-5.62833E+000,-5.81428E-001,6.28417E-002,4.42083E+000,-5.28768E-001,1.24940E-001,4.45409E+000,2.44491E-002,5.74120E-001,0,6.81064E+001,-9.10666E+000,9.98377E-001,2.38716E+001,-4.58945E+001,9.96965E-001,1.66200E-001,-7.04674E-002,-5.24108E-004,1.66201E-001,-7.04686E-002,-1.26883E-001,1.66840E-001,1.18080E+000,-4.13423E-003,0.00000E+000,2.38948E-003,9.35289E-001,0.00000E+000,-1.57970E-003,-8.46592E-002,1.00000E+000,26
779,1337,-5.61477E+000,1.15011E-002,1.24167E-002,4.41980E+000,-5.77721E-001,6.21013E-002,4.45783E+000,1.24265E-002,5.14533E-001,0,6.82879E+001,-9.73265E+000,9.97761E-001,2.40744E+001,-4.66759E+001,9.97610E-001,1.66675E-001,-7.04908E-002,-9.72680E-004,1.66679E-001,-7.04947E-002,-2.34980E-001,1.67337E-001,1.18137E+000,-4.12144E-003,0.00000E+000,1.61715E-003,9.35272E-001,0.00000E+000,-2.63852E-003,-8.46832E-002,1.00000E+000,26
779,1347,-5.59766E+000,6.20088E-001,-5.23426E-003,4.41777E+000,-6.14667E-001,8.59843E-003,4.46034E+000,1.53918E-002,5.19373E-001,0,6.84173E+001,-1.02227E+001,9.96938E-001,2.44156E+001,-4.72561E+001,9.96308E-001,1.67149E-001,-7.05202E-002,-1.42106E-003,1.67157E-001,-7.05287E-002,-3.42564E-001,1.67835E-001,1.18193E+000,-4.10468E-003,0.00000E+000,8.42359E-004,9.35249E-001,0.00000E+000,-3.70073E-003,-8.47147E-002,1.00000E+000,26
779,1357,-5.57558E+000,1.23228E+000,1.94617E-002,4.41424E+000,-6.54346E-001,-3.56470E-002,4.46262E+000,1.22896E-002,5.38295E-001,0,6.84902E+001,-1.07632E+001,9.97329E-001,2.49381E+001,-4.78692E+001,9.97052E-001,1.67624E-001,-7.05585E-002,-1.87001E-003,1.67639E-001,-7.05732E-002,-4.49801E-001,1.68335E-001,1.18250E+000,-4.08225E-003,0.00000E+000,6.26647E-005,9.35218E-001,0.00000E+000,-4.76965E-003,-8.47569E-002,1.00000E+000,26
779,1317,-5.62589E+000,-1.16184E+000,1.48523E-001,4.42902E+000,-4.71451E-001,1.77341E-001,4.45757E+000,2.45696E-002,5.21976E-001,0,6.80580E+001,-8.30959E+000,9.98684E-001,2.40049E+001,-4.50497E+001,9.97100E-001,1.65725E-001,-7.04562E-002,-7.30256E-005,1.65725E-001,-7.04562E-002,-1.77154E-002,1.66343E-001,1.18024E+000,-4.13928E-003,0.00000E+000,3.16058E-003,9.35296E-001,0.00000E+000,-5.22559E-004,-8.46497E-002,1.00000E+000,26
1079,1337,1.75243E+001,4.42801E-001,-7.87050E-002,7.97422E+000,-3.36030E-001,-9.87296E-002,7.98191E+000,1.51017E-002,4.27047E-001,0,1.21005E+002,-6.12895E+000,9.98433E-001,8.19437E+001,-3.67351E+001,9.98474E-001,1.63583E-001,-6.77316E-002,-1.85297E-003,1.63597E-001,-6.77464E-002,-4.58936E-001,1.64400E-001,1.17735E+000,-2.99419E-002,0.00000E+000,2.01461E-002,9.36457E-001,0.00000E+000,1.01708E-003,-6.80461E-002,1.00000E+000,26
1079,1347,1.75352E+001,1.05220E+000,-6.91624E-002,7.96094E+000,-3.79962E-001,-1.24164E-001,7.97097E+000,8.80578E-003,4.65124E-001,0,1.20889E+002,-6.80078E+000,9.99330E-001,8.21960E+001,-3.72942E+001,9.99248E-001,1.64155E-001,-6.77427E-002,-1.92740E-003,1.64171E-001,-6.77587E-002,-4.76165E-001,1.65002E-001,1.17803E+000,-2.99172E-002,0.00000E+000,1.99737E-002,9.36451E-001,0.00000E+000,9.94727E-004,-6.80470E-002,1.00000E+000,26
1079,1297,1.75383E+001,-1.95945E+000,1.50574E-001,8.03807E+000,-1.55972E-001,7.58713E-002,8.03994E+000,1.72627E-002,4.38212E-001,0,1.21294E+002,-3.58997E+000,9.97643E-001,8.22833E+001,-3.44645E+001,9.95705E-001,1.61303E-001,-6.77000E-002,-1.53751E-003,1.61314E-001,-6.77103E-002,-3.84657E-001,1.62005E-001,1.17467E+000,-2.99931E-002,0.00000E+000,2.08311E-002,9.36470E-001,0.00000E+000,1.10590E-003,-6.80444E-002,1.00000E+000,26
1079,1307,1.75277E+001,-1.36888E+000,5.44159E-002,8.02128E+000,-2.06117E-001,1.96368E-002,8.02395E+000,1.46108E-002,3.65347E-001,0,1.21267E+002,-4.25840E+000,9.98709E-001,8.20209E+001,-3.51386E+001,9.97322E-001,1.61871E-001,-6.77062E-002,-1.61870E-003,1.61883E-001,-6.77176E-002,-4.03954E-001,1.62601E-001,1.17533E+000,-2.99868E-002,0.00000E+000,2.06606E-002,9.36468E-001,0.00000E+000,1.08380E-003,-6.80447E-002,1.00000E+000,26
1079,1327,1.75257E+001,-1.73387E-001,-4.82007E-002,7.99214E+000,-3.05106E-001,-6.47269E-002,7.99822E+000,1.68969E-002,4.28095E-001,0,1.21154E+002,-5.67373E+000,9.98741E-001,8.19485E+001,-3.63511E+001,9.98134E-001,1.63013E-001,-6.77226E-002,-1.77581E-003,1.63027E-001,-6.77363E-002,-4.40931E-001,1.63801E-001,1.17668E+000,-2.99589E-002,0.00000E+000,2.03174E-002,9.36461E-001,0.00000E+000,1.03929E-003,-6.80456E-002,1.00000E+000,26
1079,1317,1.75240E+001,-7.62341E-001,-2.74388E-003,8.00478E+000,-2.46911E-001,-2.50494E-002,8.00863E+000,1.36429E-002,4.28033E-001,0,1.21189E+002,-4.83276E+000,9.98685E-001,8.19334E+001,-3.55801E+001,9.97953E-001,1.62443E-001,-6.77142E-002,-1.69763E-003,1.62455E-001,-6.77267E-002,-4.22582E-001,1.63201E-001,1.17601E+000,-2.99736E-002,0.00000E+000,2.04889E-002,9.36465E-001,0.00000E+000,1.06153E-003,-6.80451E-002,1.00000E+000,26
779,1307,-5.63643E+000,-1.75803E+000,2.44131E-001,4.42197E+000,-4.34884E-001,2.28316E-001,4.44917E+000,1.70634E-002,5.51354E-001,0,6.77837E+001,-7.81877E+000,9.98315E-001,2.39597E+001,-4.44296E+001,9.96140E-001,1.65251E-001,-7.04479E-002,3.75934E-004,1.65252E-001,-7.04485E-002,9.13849E-002,1.65849E-001,1.17968E+000,-4.14236E-003,0.00000E+000,3.92662E-003,9.35301E-001,0.00000E+000,5.27651E-004,-8.46439E-002,1.00000E+000,26
1089,1337,1.82971E+001,4.63648E-001,-8.43640E-002,8.08862E+000,-3.22231E-001,-1.00483E-001,8.09566E+000,1.31535E-002,4.76534E-001,0,1.22643E+002,-5.93571E+000,9.98177E-001,8.39641E+001,-3.62742E+001,9.97925E-001,1.64409E-001,-6.79877E-002,-1.96686E-003,1.64426E-001,-6.80043E-002,-4.84869E-001,1.65242E-001,1.17835E+000,-2.89212E-002,0.00000E+000,1.90690E-002,9.36197E-001,0.00000E+000,1.52328E-003,-6.73735E-002,1.00000E+000,26
1089,1347,1.83066E+001,1.07195E+000,-7.81396E-002,8.07390E+000,-3.66439E-001,-1.28796E-001,8.08324E+000,9.87793E-003,4.51007E-001,0,1.22518E+002,-6.58946E+000,9.99067E-001,8.41874E+001,-3.68734E+001,9.98295E-001,1.65082E-001,-6.80024E-002,-2.06980E-003,1.65101E-001,-6.80207E-002,-5.08735E-001,1.65951E-001,1.17915E+000,-2.88921E-002,0.00000E+000,1.88506E-002,9.36189E-001,0.00000E+000,1.29105E-003,-6.73820E-002,1.00000E+000,26
769,1347,-6.36091E+000,6.10948E-001,-5.80387E-004,4.30087E+000,-6.17499E-001,1.63705E-002,4.34501E+000,1.25573E-002,5.15790E-001,0,6.66339E+001,-1.02647E+001,9.97216E-001,2.26936E+001,-4.75171E+001,9.97010E-001,1.65526E-001,-6.99647E-002,-1.41625E-003,1.65535E-001,-6.99732E-002,-3.44562E-001,1.66193E-001,1.18001E+000,-4.59393E-003,0.00000E+000,1.20758E-003,9.35657E-001,0.00000E+000,-3.30286E-003,-8.32948E-002,1.00000E+000,26
769,1357,-6.33641E+000,1.22582E+000,1.99921E-002,4.30032E+000,-6.54093E-001,-3.02271E-002,4.34989E+000,1.21432E-002,5.39669E-001,0,6.67587E+001,-1.07531E+001,9.97911E-001,2.32458E+001,-4.80788E+001,9.97784E-001,1.65916E-001,-7.00018E-002,-1.85794E-003,1.65931E-001,-7.00164E-002,-4.51188E-001,1.66603E-001,1.18048E+000,-4.57598E-003,0.00000E+000,4.37717E-004,9.35628E-001,0.00000E+000,-4.29750E-003,-8.33332E-002,1.00000E+000,26
769,1327,-6.38862E+000,-5.89749E-001,7.07521E-002,4.30371E+000,-5.32111E-001,1.20967E-001,4.33817E+000,1.79387E-002,5.64580E-001,0,6.63559E+001,-9.14800E+000,9.98044E-001,2.22017E+001,-4.61484E+001,9.96227E-001,1.64749E-001,-6.99166E-002,-5.34022E-004,1.64750E-001,-6.99178E-002,-1.30386E-001,1.65376E-001,1.17909E+000,-4.61583E-003,0.00000E+000,2.73550E-003,9.35694E-001,0.00000E+000,-1.32884E-003,-8.32480E-002,1.00000E+000,26
769,1337,-6.37913E+000,-2.21566E-003,1.30843E-002,4.30117E+000,-5.85708E-001,6.35491E-002,4.34133E+000,1.15242E-002,5.18604E-001,0,6.64995E+001,-9.84453E+000,9.97851E-001,2.23233E+001,-4.69931E+001,9.97389E-001,1.65138E-001,-6.99363E-002,-9.75574E-004,1.65142E-001,-6.99404E-002,-2.37776E-001,1.65784E-001,1.17955E+000,-4.60720E-003,0.00000E+000,1.97244E-003,9.35679E-001,0.00000E+000,-2.31468E-003,-8.32665E-002,1.00000E+000,26
1089,1327,1.82955E+001,-1.46750E-001,-6.84322E-002,8.10533E+000,-2.81932E-001,-7.45270E-002,8.11058E+000,1.50019E-002,4.08544E-001,0,1.22803E+002,-5.32090E+000,9.98118E-001,8.39005E+001,-3.58052E+001,9.97219E-001,1.63736E-001,-6.79751E-002,-1.86099E-003,1.63751E-001,-6.79901E-002,-4.60133E-001,1.64534E-001,1.17756E+000,-2.89433E-002,0.00000E+000,1.92874E-002,9.36203E-001,0.00000E+000,1.75546E-003,-6.73670E-002,1.00000E+000,26
1089,1317,1.83004E+001,-7.51984E-001,-1.24163E-002,8.12313E+000,-2.41442E-001,-3.05047E-002,8.12677E+000,1.35262E-002,4.38709E-001,0,1.22903E+002,-4.76550E+000,9.98730E-001,8.40037E+001,-3.52955E+001,9.98407E-001,1.63065E-001,-6.79646E-002,-1.75304E-003,1.63078E-001,-6.79779E-002,-4.34723E-001,1.63828E-001,1.17677E+000,-2.89590E-002,0.00000E+000,1.95045E-002,9.36208E-001,0.00000E+000,1.98639E-003,-6.73624E-002,1.00000E+000,26
1089,1297,1.83149E+001,-1.93740E+000,1.49745E-001,8.15583E+000,-1.40523E-001,7.57288E-002,8.15739E+000,1.23373E-002,4.76449E-001,0,1.22971E+002,-3.36740E+000,9.98836E-001,8.43714E+001,-3.40073E+001,9.98358E-001,1.61725E-001,-6.79463E-002,-1.53377E-003,1.61735E-001,-6.79565E-002,-3.82604E-001,1.62421E-001,1.17519E+000,-2.89811E-002,0.00000E+000,1.99378E-002,9.36214E-001,0.00000E+000,2.44721E-003,-6.73560E-002,1.00000E+000,26
1089,1307,1.83054E+001,-1.34967E+000,5.40915E-002,8.13980E+000,-1.94045E-001,1.86613E-002,8.14213E+000,1.21747E-002,4.28595E-001,0,1.22961E+002,-4.09718E+000,9.99067E-001,8.41279E+001,-3.47122E+001,9.98732E-001,1.62394E-001,-6.79545E-002,-1.64449E-003,1.62406E-001,-6.79662E-002,-4.09016E-001,1.63123E-001,1.17598E+000,-2.89731E-002,0.00000E+000,1.97216E-002,9.36212E-001,0.00000E+000,2.21723E-003,-6.73583E-002,1.00000E+000,26
769,1317,-6.39613E+000,-1.17085E+000,1.52041E-001,4.30423E+000,-4.77390E-001,1.81453E-001,4.33442E+000,2.08768E-002,5.27158E-001,0,6.61683E+001,-8.36162E+000,9.98798E-001,2.21715E+001,-4.52969E+001,9.97985E-001,1.64360E-001,-6.99021E-002,-9.39809E-005,1.64360E-001,-6.99022E-002,-2.29858E-002,1.64971E-001,1.17863E+000,-4.62160E-003,0.00000E+000,3.49391E-003,9.35703E-001,0.00000E+000,-3.48990E-004,-8.32357E-002,1.00000E+000,26
1099,1327,1.90650E+001,-1.29448E-001,-7.53844E-002,8.21757E+000,-2.69929E-001,-7.13969E-002,8.22231E+000,1.62776E-002,4.47454E-001,0,1.24389E+002,-5.17005E+000,9.96474E-001,8.58720E+001,-3.54040E+001,9.94495E-001,1.64552E-001,-6.82142E-002,-1.99185E-003,1.64569E-001,-6.82312E-002,-4.90250E-001,1.65367E-001,1.17854E+000,-2.81022E-002,0.00000E+000,1.83292E-002,9.36003E-001,0.00000E+000,2.11687E-003,-6.74238E-002,1.00000E+000,26
1099,1337,1.90740E+001,4.84690E-001,-8.57380E-002,8.20647E+000,-3.06928E-001,-9.87128E-002,8.21280E+000,1.58597E-002,4.65364E-001,0,1.24316E+002,-5.71995E+000,9.96883E-001,8.60595E+001,-3.58497E+001,9.96303E-001,1.65374E-001,-6.82264E-002,-2.08647E-003,1.65392E-001,-6.82451E-002,-5.11700E-001,1.66232E-001,1.17951E+000,-2.80726E-002,0.00000E+000,1.81278E-002,9.35996E-001,0.00000E+000,1.81344E-003,-6.74331E-002,1.00000E+000,26
1099,1347,1.90861E+001,1.09760E+000,-7.62493E-002,8.19217E+000,-3.48358E-001,-1.32130E-001,8.20064E+000,1.26646E-002,4.70706E-001,0,1.24214E+002,-6.32992E+000,9.97958E-001,8.63276E+001,-3.63675E+001,9.97468E-001,1.66197E-001,-6.82409E-002,-2.17750E-003,1.66217E-001,-6.82611E-002,-5.32112E-001,1.67099E-001,1.18048E+000,-2.80338E-002,0.00000E+000,1.79259E-002,9.35988E-001,0.00000E+000,1.50931E-003,-6.74452E-002,1.00000E+000,26
759,1347,-7.11795E+000,6.07235E-001,-1.97557E-004,4.18986E+000,-6.15178E-001,2.04811E-002,4.23483E+000,1.14035E-002,5.32383E-001,0,6.49487E+001,-1.02239E+001,9.97063E-001,2.10625E+001,-4.76743E+001,9.97010E-001,1.63924E-001,-6.94690E-002,-1.32638E-003,1.63932E-001,-6.94766E-002,-3.25600E-001,1.64565E-001,1.17812E+000,-4.85389E-003,0.00000E+000,1.56879E-003,9.36033E-001,0.00000E+000,-3.08235E-003,-8.21533E-002,1.00000E+000,26
759,1357,-7.09790E+000,1.21665E+000,1.87945E-002,4.18538E+000,-6.56649E-001,-2.61463E-002,4.23666E+000,1.23181E-002,5.59019E-001,0,6.50140E+001,-1.07907E+001,9.97545E-001,2.15433E+001,-4.83177E+001,9.97180E-001,1.64109E-001,-6.94962E-002,-1.65527E-003,1.64120E-001,-6.95079E-002,-4.05957E-001,1.64759E-001,1.17834E+000,-4.84553E-003,0.00000E+000,1.01603E-003,9.36012E-001,0.00000E+000,-4.04728E-003,-8.21897E-002,1.00000E+000,26
1099,1297,1.90845E+001,-1.92596E+000,1.30337E-001,8.26796E+000,-1.34184E-001,6.43229E-002,8.26930E+000,1.16234E-002,5.01750E-001,0,1.24609E+002,-3.26174E+000,9.98266E-001,8.63241E+001,-3.36826E+001,9.97050E-001,1.62098E-001,-6.81876E-002,-1.69214E-003,1.62110E-001,-6.82000E-002,-4.20979E-001,1.62788E-001,1.17565E+000,-2.81479E-002,0.00000E+000,1.89294E-002,9.36012E-001,0.00000E+000,3.02097E-003,-6.74095E-002,1.00000E+000,26
1099,1307,1.90797E+001,-1.32959E+000,4.37438E-002,8.25661E+000,-1.79693E-001,1.64253E-002,8.25858E+000,1.33258E-002,4.71938E-001,0,1.24633E+002,-3.89134E+000,9.98656E-001,8.61705E+001,-3.42613E+001,9.98063E-001,1.62915E-001,-6.81952E-002,-1.79413E-003,1.62929E-001,-6.82091E-002,-4.44757E-001,1.63647E-001,1.17661E+000,-2.81381E-002,0.00000E+000,1.87297E-002,9.36010E-001,0.00000E+000,2.72016E-003,-6.74126E-002,1.00000E+000,26
1099,1317,1.90715E+001,-7.31494E-001,-2.68239E-002,8.23796E+000,-2.25684E-001,-3.15546E-002,8.24111E+000,1.67685E-002,4.70748E-001,0,1.24542E+002,-4.54236E+000,9.97796E-001,8.59903E+001,-3.48337E+001,9.96754E-001,1.63733E-001,-6.82041E-002,-1.89392E-003,1.63749E-001,-6.82195E-002,-4.67815E-001,1.64506E-001,1.17758E+000,-2.81226E-002,0.00000E+000,1.85297E-002,9.36007E-001,0.00000E+000,2.41882E-003,-6.74174E-002,1.00000E+000,26
759,1327,-7.15376E+000,-6.01169E-001,7.14317E-002,4.18353E+000,-5.37594E-001,1.21123E-001,4.21967E+000,1.37814E-002,5.54303E-001,0,6.45453E+001,-9.22083E+000,9.98007E-001,2.04442E+001,-4.64359E+001,9.98221E-001,1.63555E-001,-6.94343E-002,-6.70463E-004,1.63557E-001,-6.94362E-002,-1.64876E-001,1.64177E-001,1.17768E+000,-4.86395E-003,0.00000E+000,2.66678E-003,9.36058E-001,0.00000E+000,-1.16563E-003,-8.21095E-002,1.00000E+000,26
759,1337,-7.13665E+000,2.90074E-003,2.25944E-002,4.18843E+000,-5.74918E-001,7.10387E-002,4.22830E+000,1.14659E-002,5.52042E-001,0,6.47746E+001,-9.69873E+000,9.97307E-001,2.07082E+001,-4.70240E+001,9.97180E-001,1.63740E-001,-6.94492E-002,-9.98416E-004,1.63744E-001,-6.94534E-002,-2.45310E-001,1.64371E-001,1.17790E+000,-4.85978E-003,0.00000E+000,2.11838E-003,9.36048E-001,0.00000E+000,-2.12295E-003,-8.21276E-002,1.00000E+000,26
759,1317,-7.15748E+000,-1.18781E+000,1.50822E-001,4.18684E+000,-4.88799E-001,1.74905E-001,4.21891E+000,1.84313E-002,5.69318E-001,0,6.44238E+001,-8.54744E+000,9.98252E-001,2.04663E+001,-4.56372E+001,9.98001E-001,1.63370E-001,-6.94246E-002,-3.43901E-004,1.63371E-001,-6.94251E-002,-8.46411E-002,1.63983E-001,1.17746E+000,-4.86635E-003,0.00000E+000,3.21165E-003,9.36064E-001,0.00000E+000,-2.14460E-004,-8.20990E-002,1.00000E+000,26
749,1317,-7.90751E+000,-1.18993E+000,1.68807E-001,4.07915E+000,-4.87653E-001,1.81303E-001,4.11220E+000,1.44726E-002,5.89806E-001,0,6.27820E+001,-8.53458E+000,9.98194E-001,1.89917E+001,-4.57990E+001,9.97040E-001,1.62364E-001,-6.90459E-002,-5.27298E-004,1.62365E-001,-6.90471E-002,-1.30555E-001,1.62969E-001,1.17628E+000,-4.70559E-003,0.00000E+000,2.74721E-003,9.36354E-001,0.00000E+000,-2.51851E-004,-8.12334E-002,1.00000E+000,26
749,1327,-7.90440E+000,-6.02728E-001,7.25334E-002,4.07684E+000,-5.35126E-001,1.18752E-001,4.11352E+000,1.11126E-002,5.27004E-001,0,6.29452E+001,-9.13440E+000,9.97642E-001,1.89173E+001,-4.65790E+001,9.97593E-001,1.62375E-001,-6.90515E-002,-7.59317E-004,1.62378E-001,-6.90540E-002,-1.87986E-001,1.62981E-001,1.17629E+000,-4.70547E-003,0.00000E+000,2.36771E-003,9.36351E-001,0.00000E+000,-1.01404E-003,-8.12399E-002,1.00000E+000,26
749,1337,-7.89454E+000,-2.57850E-004,2.37361E-002,4.07482E+000,-5.73013E-001,6.97580E-002,4.11550E+000,1.09185E-002,5.73290E-001,0,6.30635E+001,-9.65724E+000,9.97623E-001,1.90700E+001,-4.71705E+001,9.97760E-001,1.62386E-001,-6.90616E-002,-9.92516E-004,1.62390E-001,-6.90659E-002,-2.45696E-001,1.62993E-001,1.17631E+000,-4.70522E-003,0.00000E+000,1.98620E-003,9.36344E-001,0.00000E+000,-1.78028E-003,-8.12540E-002,1.00000E+000,26
749,1347,-7.87943E+000,6.01169E-001,-3.36457E-003,4.07353E+000,-6.14974E-001,1.85755E-002,4.11973E+000,1.18297E-002,5.39798E-001,0,6.31976E+001,-1.02067E+001,9.97787E-001,1.93587E+001,-4.78655E+001,9.97951E-001,1.62395E-001,-6.90750E-002,-1.22620E-003,1.62402E-001,-6.90815E-002,-3.03511E-001,1.63004E-001,1.17632E+000,-4.70487E-003,0.00000E+000,1.60386E-003,9.36334E-001,0.00000E+000,-2.54819E-003,-8.12735E-002,1.00000E+000,26
1109,1297,1.98583E+001,-1.91016E+000,1.20968E-001,8.38557E+000,-1.21311E-001,6.98301E-002,8.38673E+000,1.22682E-002,4.96748E-001,0,1.26261E+002,-3.09623E+000,9.97522E-001,8.83641E+001,-3.33263E+001,9.95570E-001,1.62670E-001,-6.86524E-002,-1.76173E-003,1.62683E-001,-6.86659E-002,-4.36325E-001,1.63340E-001,1.17636E+000,-2.68217E-002,0.00000E+000,1.76794E-002,9.35610E-001,0.00000E+000,3.75881E-003,-6.75577E-002,1.00000E+000,26
1109,1307,1.98504E+001,-1.31279E+000,3.29187E-002,8.37109E+000,-1.65745E-001,2.06788E-002,8.37275E+000,1.36135E-002,4.41797E-001,0,1.26243E+002,-3.69846E+000,9.98015E-001,8.81602E+001,-3.38977E+001,9.97403E-001,1.63547E-001,-6.86574E-002,-1.82588E-003,1.63561E-001,-6.86717E-002,-4.50493E-001,1.64260E-001,1.17739E+000,-2.68111E-002,0.00000E+000,1.75646E-002,9.35609E-001,0.00000E+000,3.22907E-003,-6.75631E-002,1.00000E+000,26
1109,1317,1.98431E+001,-7.13640E-001,-3.48290E-002,8.35339E+000,-2.11011E-001,-2.37485E-002,8.35609E+000,1.55572E-002,4.49229E-001,0,1.26154E+002,-4.34756E+000,9.97170E-001,8.79980E+001,-3.44534E+001,9.96328E-001,1.64426E-001,-6.86632E-002,-1.88771E-003,1.64441E-001,-6.86785E-002,-4.63979E-001,1.65183E-001,1.17843E+000,-2.67946E-002,0.00000E+000,1.74494E-002,9.35607E-001,0.00000E+000,2.69797E-003,-6.75716E-002,1.00000E+000,26
749,1357,-7.85573E+000,1.20919E+000,1.83070E-002,4.07321E+000,-6.57043E-001,-2.38674E-002,4.12593E+000,1.45595E-002,5.61353E-001,0,6.33141E+001,-1.07955E+001,9.97805E-001,1.99043E+001,-4.85399E+001,9.97623E-001,1.62405E-001,-6.90938E-002,-1.46130E-003,1.62414E-001,-6.91031E-002,-3.61653E-001,1.63014E-001,1.17633E+000,-4.70436E-003,0.00000E+000,1.21914E-003,9.36320E-001,0.00000E+000,-3.32086E-003,-8.13020E-002,1.00000E+000,26
1109,1327,1.98387E+001,-1.12613E-001,-8.08699E-002,8.33374E+000,-2.57377E-001,-6.62244E-002,8.33798E+000,1.40866E-002,4.40727E-001,0,1.26023E+002,-5.00801E+000,9.96273E-001,8.79160E+001,-3.50356E+001,9.95133E-001,1.65305E-001,-6.86702E-002,-1.94658E-003,1.65321E-001,-6.86863E-002,-4.76633E-001,1.66107E-001,1.17946E+000,-2.67705E-002,0.00000E+000,1.73340E-002,9.35605E-001,0.00000E+000,2.16542E-003,-6.75840E-002,1.00000E+000,26
1109,1337,1.98434E+001,5.01293E-001,-9.73995E-002,8.31791E+000,-2.95227E-001,-1.00974E-001,8.32376E+000,1.51512E-002,4.71552E-001,0,1.25909E+002,-5.55767E+000,9.97660E-001,8.80255E+001,-3.54638E+001,9.97326E-001,1.66188E-001,-6.86784E-002,-2.00227E-003,1.66205E-001,-6.86955E-002,-4.88409E-001,1.67035E-001,1.18050E+000,-2.67381E-002,0.00000E+000,1.72180E-002,9.35601E-001,0.00000E+000,1.63039E-003,-6.76006E-002,1.00000E+000,26
1109,1347,1.98617E+001,1.11466E+000,-7.13489E-002,8.30611E+000,-3.38731E-001,-1.31741E-001,8.31405E+000,1.42621E-002,4.65526E-001,0,1.25831E+002,-6.19655E+000,9.98089E-001,8.84133E+001,-3.60144E+001,9.97161E-001,1.67073E-001,-6.86889E-002,-2.05211E-003,1.67090E-001,-6.87067E-002,-4.98663E-001,1.67967E-001,1.18155E+000,-2.66909E-002,0.00000E+000,1.71015E-002,9.35596E-001,0.00000E+000,1.09311E-003,-6.76249E-002,1.00000E+000,26
739,1337,-8.65024E+000,-1.30634E-002,2.26222E-002,3.96315E+000,-5.80058E-001,6.69722E-002,4.00593E+000,1.27760E-002,5.58532E-001,0,6.13874E+001,-9.74345E+000,9.97418E-001,1.74629E+001,-4.74785E+001,9.97216E-001,1.60935E-001,-6.84686E-002,-1.11139E-003,1.60941E-001,-6.84740E-002,-2.77571E-001,1.61536E-001,1.17460E+000,-4.68248E-003,0.00000E+000,1.73226E-003,9.36873E-001,0.00000E+000,-1.53661E-003,-8.08904E-002,1.00000E+000,26
739,1347,-8.63993E+000,5.92187E-001,-1.34871E-003,3.95751E+000,-6.17873E-001,2.05020E-002,4.00551E+000,9.75037E-003,5.45921E-001,0,6.14379E+001,-1.02465E+001,9.98660E-001,1.76877E+001,-4.81136E+001,9.98627E-001,1.60724E-001,-6.84822E-002,-1.35933E-003,1.60732E-001,-6.84903E-002,-3.39782E-001,1.61316E-001,1.17436E+000,-4.68855E-003,0.00000E+000,1.33826E-003,9.36863E-001,0.00000E+000,-2.43283E-003,-8.09125E-002,1.00000E+000,26
739,1357,-8.61669E+000,1.20353E+000,2.00865E-002,3.95731E+000,-6.55967E-001,-2.02178E-002,4.01136E+000,1.09788E-002,5.55163E-001,0,6.15495E+001,-1.07728E+001,9.98086E-001,1.82284E+001,-4.87444E+001,9.98217E-001,1.60510E-001,-6.85014E-002,-1.60991E-003,1.60522E-001,-6.85127E-002,-4.02751E-001,1.61094E-001,1.17411E+000,-4.69746E-003,0.00000E+000,9.42022E-004,9.36849E-001,0.00000E+000,-3.33414E-003,-8.09450E-002,1.00000E+000,26
739,1327,-8.66208E+000,-6.10122E-001,7.15572E-002,3.96305E+000,-5.36735E-001,1.15921E-001,4.00091E+000,1.18742E-002,4.97588E-001,0,6.12358E+001,-9.13267E+000,9.98704E-001,1.72812E+001,-4.68098E+001,9.98535E-001,1.61146E-001,-6.84581E-002,-8.64590E-004,1.61149E-001,-6.84613E-002,-2.15747E-001,1.61755E-001,1.17485E+000,-4.67801E-003,0.00000E+000,2.12555E-003,9.36880E-001,0.00000E+000,-6.41991E-004,-8.08741E-002,1.00000E+000,26
1119,1297,2.06292E+001,-1.89495E+000,1.09727E-001,8.49986E+000,-1.09222E-001,7.37461E-002,8.50088E+000,1.32032E-002,4.38916E-001,0,1.27866E+002,-2.90960E+000,9.98579E-001,9.03601E+001,-3.30021E+001,9.97741E-001,1.63467E-001,-6.85654E-002,-1.94933E-003,1.63484E-001,-6.85818E-002,-4.81302E-001,1.64188E-001,1.17733E+000,-2.56483E-002,0.00000E+000,1.63903E-002,9.35745E-001,0.00000E+000,3.59358E-003,-6.80136E-002,1.00000E+000,26
1119,1307,2.06225E+001,-1.29905E+000,2.77068E-002,8.48516E+000,-1.56246E-001,2.49790E-002,8.48663E+000,1.19416E-002,4.32805E-001,0,1.27844E+002,-3.57560E+000,9.98448E-001,9.01849E+001,-3.35829E+001,9.98343E-001,1.64293E-001,-6.85668E-002,-1.95803E-003,1.64309E-001,-6.85833E-002,-4.81732E-001,1.65055E-001,1.17830E+000,-2.56363E-002,0.00000E+000,1.63852E-002,9.35745E-001,0.00000E+000,2.99700E-003,-6.80211E-002,1.00000E+000,26
1119,1317,2.06210E+001,-6.97917E-001,-3.43935E-002,8.47236E+000,-1.99778E-001,-1.69379E-002,8.47473E+000,1.29941E-002,4.30548E-001,0,1.27819E+002,-4.20643E+000,9.97640E-001,9.01215E+001,-3.41226E+001,9.97719E-001,1.65119E-001,-6.85685E-002,-1.96480E-003,1.65135E-001,-6.85850E-002,-4.81687E-001,1.65923E-001,1.17927E+000,-2.56195E-002,0.00000E+000,1.63800E-002,9.35745E-001,0.00000E+000,2.39952E-003,-6.80314E-002,1.00000E+000,26
1119,1327,2.06185E+001,-9.41230E-002,-7.72576E-002,8.45381E+000,-2.43818E-001,-5.93047E-002,8.45754E+000,1.18646E-002,4.18493E-001,0,1.27703E+002,-4.83404E+000,9.97538E-001,9.00748E+001,-3.46687E+001,9.97580E-001,1.65946E-001,-6.85704E-002,-1.96866E-003,1.65962E-001,-6.85870E-002,-4.80928E-001,1.66793E-001,1.18024E+000,-2.55957E-002,0.00000E+000,1.63747E-002,9.35745E-001,0.00000E+000,1.80021E-003,-6.80461E-002,1.00000E+000,26
1119,1337,2.06221E+001,5.13128E-001,-9.71515E-002,8.43608E+000,-2.89252E-001,-9.99886E-002,8.44163E+000,1.07026E-002,4.70116E-001,0,1.27586E+002,-5.49278E+000,9.98634E-001,9.01595E+001,-3.51809E+001,9.98243E-001,1.66776E-001,-6.85728E-002,-1.96939E-003,1.66793E-001,-6.85893E-002,-4.79404E-001,1.67667E-001,1.18122E+000,-2.55640E-002,0.00000E+000,1.63695E-002,9.35745E-001,0.00000E+000,1.19760E-003,-6.80655E-002,1.00000E+000,26
1119,1347,2.06371E+001,1.12641E+000,-7.14634E-002,8.42157E+000,-3.32178E-001,-1.28207E-001,8.42910E+000,1.55198E-002,4.45285E-001,0,1.27459E+002,-6.12659E+000,9.98574E-001,9.04940E+001,-3.57404E+001,9.97908E-001,1.67608E-001,-6.85756E-002,-1.96523E-003,1.67624E-001,-6.85920E-002,-4.76702E-001,1.68543E-001,1.18220E+000,-2.55205E-002,0.00000E+000,1.63642E-002,9.35745E-001,0.00000E+000,5.93572E-004,-6.80923E-002,1.00000E+000,26
739,1317,-8.66077E+000,-1.19431E+000,1.65938E-001,3.96943E+000,-4.86995E-001,1.75075E-001,4.00303E+000,1.53609E-002,5.54737E-001,0,6.11464E+001,-8.48322E+000,9.98379E-001,1.74199E+001,-4.59797E+001,9.97677E-001,1.61353E-001,-6.84526E-002,-6.20415E-004,1.61355E-001,-6.84542E-002,-1.54682E-001,1.61971E-001,1.17509E+000,-4.67607E-003,0.00000E+000,2.51638E-003,9.36883E-001,0.00000E+000,2.47002E-004,-8.08671E-002,1.00000E+000,26
1129,1297,2.13975E+001,-1.87278E+000,1.02326E-001,8.60999E+000,-9.07470E-002,7.66954E-002,8.61081E+000,1.36523E-002,4.19823E-001,0,1.29406E+002,-2.64373E+000,9.99042E-001,9.23272E+001,-3.25593E+001,9.98174E-001,1.64044E-001,-6.86128E-002,-2.19238E-003,1.64065E-001,-6.86335E-002,-5.39847E-001,1.64793E-001,1.17803E+000,-2.45213E-002,0.00000E+000,1.50764E-002,9.35739E-001,0.00000E+000,2.82512E-003,-6.82294E-002,1.00000E+000,26
1129,1307,2.13916E+001,-1.28581E+000,1.90511E-002,8.59579E+000,-1.46836E-001,2.59642E-002,8.59708E+000,1.92955E-002,3.89926E-001,0,1.29404E+002,-3.43634E+000,9.98830E-001,9.21614E+001,-3.32859E+001,9.96217E-001,1.64928E-001,-6.86102E-002,-2.13672E-003,1.64948E-001,-6.86297E-002,-5.24159E-001,1.65720E-001,1.17907E+000,-2.45080E-002,0.00000E+000,1.51921E-002,9.35741E-001,0.00000E+000,2.21580E-003,-6.82372E-002,1.00000E+000,26
1129,1317,2.13947E+001,-6.87174E-001,-4.22075E-002,8.58716E+000,-1.93279E-001,-1.66865E-002,8.58935E+000,1.12399E-002,3.93595E-001,0,1.29446E+002,-4.11477E+000,9.98893E-001,9.21714E+001,-3.38609E+001,9.96980E-001,1.65813E-001,-6.86070E-002,-2.07874E-003,1.65831E-001,-6.86255E-002,-5.08022E-001,1.66650E-001,1.18011E+000,-2.44893E-002,0.00000E+000,1.53080E-002,9.35743E-001,0.00000E+000,1.60533E-003,-6.82481E-002,1.00000E+000,26
729,1347,-9.38497E+000,5.78203E-001,1.10362E-002,3.85538E+000,-6.27195E-001,2.66702E-002,3.90615E+000,8.74463E-003,5.58168E-001,0,5.98789E+001,-1.03931E+001,9.99229E-001,1.62848E+001,-4.84563E+001,9.99069E-001,1.59021E-001,-6.79832E-002,-1.18723E-003,1.59027E-001,-6.79894E-002,-2.99647E-001,1.59582E-001,1.17236E+000,-4.05390E-003,0.00000E+000,1.16912E-003,9.37256E-001,0.00000E+000,-2.50242E-003,-7.99193E-002,1.00000E+000,26
729,1357,-9.36888E+000,1.19608E+000,2.42406E-002,3.84938E+000,-6.57815E-001,-1.61774E-002,3.90521E+000,1.05234E-002,5.54256E-001,0,5.99052E+001,-1.07876E+001,9.98476E-001,1.66981E+001,-4.89780E+001,9.98650E-001,1.58516E-001,-6.79969E-002,-1.38394E-003,1.58525E-001,-6.80054E-002,-3.50046E-001,1.59057E-001,1.17177E+000,-4.07382E-003,0.00000E+000,9.04694E-004,9.37247E-001,0.00000E+000,-3.69330E-003,-7.99597E-002,1.00000E+000,26
1129,1327,2.13975E+001,-7.97085E-002,-7.89382E-002,8.57437E+000,-2.33004E-001,-5.07086E-002,8.57768E+000,1.32637E-002,4.04013E-001,0,1.29383E+002,-4.71517E+000,9.98631E-001,9.22165E+001,-3.43499E+001,9.98119E-001,1.66698E-001,-6.86034E-002,-2.01814E-003,1.66715E-001,-6.86207E-002,-4.91369E-001,1.67581E-001,1.18115E+000,-2.44644E-002,0.00000E+000,1.54241E-002,9.35746E-001,0.00000E+000,9.93759E-004,-6.82627E-002,1.00000E+000,26
729,1337,-9.40479E+000,-1.89970E-002,3.16852E-002,3.85254E+000,-5.80040E-001,7.60690E-002,3.89671E+000,1.15048E-002,5.44146E-001,0,5.96874E+001,-9.74573E+000,9.98160E-001,1.59063E+001,-4.77026E+001,9.97847E-001,1.59521E-001,-6.79724E-002,-9.93198E-004,1.59526E-001,-6.79768E-002,-2.50137E-001,1.60105E-001,1.17294E+000,-4.03858E-003,0.00000E+000,1.43261E-003,9.37263E-001,0.00000E+000,-1.31574E-003,-7.98882E-002,1.00000E+000,26
729,1327,-9.41540E+000,-6.14415E-001,7.85666E-002,3.85267E+000,-5.37027E-001,1.18364E-001,3.89172E+000,1.16823E-002,5.25104E-001,0,5.95598E+001,-9.12975E+000,9.98210E-001,1.57377E+001,-4.69811E+001,9.97840E-001,1.60018E-001,-6.79652E-002,-8.02653E-004,1.60021E-001,-6.79680E-002,-2.01716E-001,1.60624E-001,1.17353E+000,-4.02887E-003,0.00000E+000,1.69461E-003,9.37267E-001,0.00000E+000,-1.35770E-004,-7.98685E-002,1.00000E+000,26
1129,1337,2.14111E+001,5.30119E-001,-8.39485E-002,8.56052E+000,-2.80805E-001,-1.00043E-001,8.56571E+000,1.49386E-002,4.85066E-001,0,1.29354E+002,-5.38731E+000,9.98245E-001,9.24775E+001,-3.48375E+001,9.98085E-001,1.67592E-001,-6.85983E-002,-1.94929E-003,1.67608E-001,-6.86144E-002,-4.72824E-001,1.68523E-001,1.18221E+000,-2.44210E-002,0.00000E+000,1.55415E-002,9.35750E-001,0.00000E+000,3.74927E-004,-6.82881E-002,1.00000E+000,26
729,1317,-9.41878E+000,-1.20210E+000,1.59365E-001,3.85574E+000,-4.89259E-001,1.71526E-001,3.89044E+000,1.34455E-002,5.62540E-001,0,5.94403E+001,-8.49811E+000,9.98180E-001,1.57695E+001,-4.61845E+001,9.97401E-001,1.60511E-001,-6.79604E-002,-6.14178E-004,1.60513E-001,-6.79620E-002,-1.54021E-001,1.61140E-001,1.17411E+000,-4.02303E-003,0.00000E+000,1.95604E-003,9.37270E-001,0.00000E+000,1.04162E-003,-7.98566E-002,1.00000E+000,26
1129,1347,2.14182E+001,1.14740E+000,-7.24726E-002,8.54082E+000,-3.18436E-001,-1.30872E-001,8.54776E+000,1.80193E-002,4.86979E-001,0,1.29160E+002,-5.94478E+000,9.97836E-001,9.26652E+001,-3.52897E+001,9.97071E-001,1.68481E-001,-6.85932E-002,-1.88111E-003,1.68496E-001,-6.86082E-002,-4.54587E-001,1.69461E-001,1.18326E+000,-2.43786E-002,0.00000E+000,1.56585E-002,9.35755E-001,0.00000E+000,-2.41445E-004,-6.83130E-002,1.00000E+000,26
719,1347,-1.01427E+001,5.78299E-001,9.73535E-003,3.74164E+000,-6.20960E-001,2.68645E-002,3.79291E+000,1.32718E-002,5.67669E-001,0,5.81524E+001,-1.02863E+001,9.98416E-001,1.46605E+001,-4.85557E+001,9.98450E-001,1.57711E-001,-6.77088E-002,-1.07271E-003,1.57716E-001,-6.77139E-002,-2.72645E-001,1.58240E-001,1.17083E+000,-3.23339E-003,0.00000E+000,7.18997E-004,9.37417E-001,0.00000E+000,-2.29503E-003,-7.86101E-002,1.00000E+000,26
719,1357,-1.01289E+001,1.18664E+000,2.43334E-002,3.73362E+000,-6.61411E-001,-1.37525E-002,3.79178E+000,1.15408E-002,5.56955E-001,0,5.81432E+001,-1.08253E+001,9.98495E-001,1.50413E+001,-4.92329E+001,9.98547E-001,1.56934E-001,-6.77163E-002,-1.19244E-003,1.56940E-001,-6.77226E-002,-3.04113E-001,1.57430E-001,1.16992E+000,-3.26358E-003,0.00000E+000,6.19820E-004,9.37413E-001,0.00000E+000,-3.66305E-003,-7.86558E-002,1.00000E+000,26
719,1337,-1.01604E+001,-2.11473E-002,3.27175E-002,3.73995E+000,-5.77263E-001,7.43392E-002,3.78497E+000,1.48795E-002,5.70398E-001,0,5.79857E+001,-9.69181E+000,9.97190E-001,1.43187E+001,-4.78312E+001,9.96492E-001,1.58482E-001,-6.77031E-002,-9.57007E-004,1.58486E-001,-6.77071E-002,-2.42417E-001,1.59045E-001,1.17173E+000,-3.21111E-003,0.00000E+000,8.17627E-004,9.37419E-001,0.00000E+000,-9.34535E-004,-7.85765E-002,1.00000E+000,26
719,1327,-1.01678E+001,-6.15602E-001,8.36876E-002,3.74283E+000,-5.33829E-001,1.19068E-001,3.78259E+000,1.07117E-002,5.71248E-001,0,5.78940E+001,-9.08395E+000,9.97216E-001,1.42091E+001,-4.70914E+001,9.96601E-001,1.59246E-001,-6.76993E-002,-8.45236E-004,1.59249E-001,-6.77024E-002,-2.13388E-001,1.59843E-001,1.17262E+000,-3.19674E-003,0.00000E+000,9.15772E-004,9.37421E-001,0.00000E+000,4.19260E-004,-7.85547E-002,1.00000E+000,26
719,1317,-1.01723E+001,-1.20519E+000,1.67885E-001,3.74367E+000,-4.88511E-001,1.69856E-001,3.77923E+000,1.40320E-002,5.66265E-001,0,5.77482E+001,-8.47153E+000,9.97260E-001,1.42331E+001,-4.63506E+001,9.96088E-001,1.60007E-001,-6.76971E-002,-7.36617E-004,1.60009E-001,-6.76995E-002,-1.85348E-001,1.60639E-001,1.17352E+000,-3.18931E-003,0.00000E+000,1.01374E-003,9.37422E-001,0.00000E+000,1.77066E-003,-7.85435E-002,1.00000E+000,26
1139,1297,2.21852E+001,-1.86354E+000,1.04531E-001,8.73760E+000,-8.48616E-002,8.34106E-002,8.73841E+000,9.02299E-003,3.70038E-001,0,1.31193E+002,-2.58431E+000,9.99492E-001,9.46144E+001,-3.23507E+001,9.98692E-001,1.64540E-001,-6.87742E-002,-2.36391E-003,1.64564E-001,-6.87981E-002,-5.80434E-001,1.65299E-001,1.17863E+000,-2.33558E-002,0.00000E+000,1.38895E-002,9.35624E-001,0.00000E+000,1.72313E-003,-6.84722E-002,1.00000E+000,26
1139,1307,2.21767E+001,-1.27747E+000,1.00919E-002,8.72191E+000,-1.41895E-001,2.62550E-002,8.72310E+000,1.21641E-002,3.47541E-001,0,1.31197E+002,-3.37432E+000,9.99168E-001,9.43913E+001,-3.30622E+001,9.98186E-001,1.65545E-001,-6.87699E-002,-2.27731E-003,1.65567E-001,-6.87921E-002,-5.56789E-001,1.66353E-001,1.17981E+000,-2.33426E-002,0.00000E+000,1.40610E-002,9.35626E-001,0.00000E+000,1.13287E-003,-6.84788E-002,1.00000E+000,26
1139,1337,2.21886E+001,5.53836E-001,-8.24386E-002,8.67682E+000,-2.63017E-001,-9.65245E-002,8.68134E+000,1.53738E-002,4.97429E-001,0,1.30982E+002,-5.15040E+000,9.97687E-001,9.46034E+001,-3.43669E+001,9.96766E-001,1.68573E-001,-6.87494E-002,-1.98956E-003,1.68590E-001,-6.87661E-002,-4.80286E-001,1.69541E-001,1.18339E+000,-2.32397E-002,0.00000E+000,1.45796E-002,9.35641E-001,0.00000E+000,-6.51622E-004,-6.85302E-002,1.00000E+000,26
1139,1347,2.22088E+001,1.16439E+000,-6.08758E-002,8.66587E+000,-3.10526E-001,-1.33745E-001,8.67246E+000,1.59544E-002,5.01043E-001,0,1.30945E+002,-5.84036E+000,9.97431E-001,9.50073E+001,-3.49418E+001,9.96049E-001,1.69586E-001,-6.87399E-002,-1.88422E-003,1.69601E-001,-6.87548E-002,-4.52946E-001,1.70610E-001,1.18459E+000,-2.31837E-002,0.00000E+000,1.47536E-002,9.35649E-001,0.00000E+000,-1.25055E-003,-6.85581E-002,1.00000E+000,26
1139,1327,2.21808E+001,-6.47951E-002,-8.49179E-002,8.69636E+000,-2.25555E-001,-5.55235E-002,8.69946E+000,1.48753E-002,4.44187E-001,0,1.31132E+002,-4.60734E+000,9.98182E-001,9.44213E+001,-3.39863E+001,9.96591E-001,1.67560E-001,-6.87581E-002,-2.09203E-003,1.67578E-001,-6.87766E-002,-5.07164E-001,1.68473E-001,1.18219E+000,-2.32889E-002,0.00000E+000,1.44058E-002,9.35634E-001,0.00000E+000,-5.36992E-005,-6.85056E-002,1.00000E+000,26
1139,1317,2.21684E+001,-6.77001E-001,-5.86544E-002,8.70293E+000,-1.86830E-001,-1.94298E-002,8.70496E+000,1.36387E-002,3.88799E-001,0,1.31097E+002,-4.02950E+000,9.99188E-001,9.42124E+001,-3.35734E+001,9.97573E-001,1.66550E-001,-6.87649E-002,-2.18793E-003,1.66570E-001,-6.87853E-002,-5.32668E-001,1.67410E-001,1.18100E+000,-2.33231E-002,0.00000E+000,1.42329E-002,9.35629E-001,0.00000E+000,5.41258E-004,-6.84885E-002,1.00000E+000,26
709,1347,-1.09055E+001,5.78038E-001,6.39112E-003,3.62240E+000,-6.14996E-001,2.53754E-002,3.67433E+000,1.29306E-002,5.50394E-001,0,5.63433E+001,-1.01664E+001,9.98027E-001,1.29571E+001,-4.86705E+001,9.98045E-001,1.56450E-001,-6.67222E-002,-1.20198E-003,1.56457E-001,-6.67287E-002,-3.08575E-001,1.57019E-001,1.16935E+000,-2.42019E-003,0.00000E+000,-1.82179E-004,9.38252E-001,0.00000E+000,-2.14816E-003,-7.73638E-002,1.00000E+000,26
709,1357,-1.08881E+001,1.18686E+000,2.11944E-002,3.61889E+000,-6.53403E-001,-1.19986E-002,3.67743E+000,1.21569E-002,5.47777E-001,0,5.63934E+001,-1.06991E+001,9.98483E-001,1.33977E+001,-4.93379E+001,9.98536E-001,1.55536E-001,-6.67333E-002,-1.38268E-003,1.55545E-001,-6.67419E-002,-3.56404E-001,1.56065E-001,1.16829E+000,-2.45440E-003,0.00000E+000,-3.92821E-004,9.38245E-001,0.00000E+000,-3.54590E-003,-7.74087E-002,1.00000E+000,26
709,1337,-1.09112E+001,-2.87091E-002,3.39545E-002,3.63115E+000,-5.79928E-001,6.94270E-002,3.67782E+000,1.18844E-002,5.54828E-001,0,5.63507E+001,-9.70243E+000,9.97784E-001,1.28096E+001,-4.80638E+001,9.97396E-001,1.57358E-001,-6.67145E-002,-1.02668E-003,1.57362E-001,-6.67192E-002,-2.62517E-001,1.57967E-001,1.17041E+000,-2.39665E-003,0.00000E+000,2.74825E-005,9.38256E-001,0.00000E+000,-7.56928E-004,-7.73329E-002,1.00000E+000,26
709,1317,-1.09203E+001,-1.20659E+000,1.84215E-001,3.63590E+000,-4.87017E-001,1.71483E-001,3.67238E+000,1.49779E-002,5.70115E-001,0,5.61098E+001,-8.43650E+000,9.98163E-001,1.28077E+001,-4.65067E+001,9.97623E-001,1.59153E-001,-6.67065E-002,-6.88440E-004,1.59155E-001,-6.67086E-002,-1.74640E-001,1.59848E-001,1.17252E+000,-2.37386E-003,0.00000E+000,4.44407E-004,9.38261E-001,0.00000E+000,2.00962E-003,-7.73029E-002,1.00000E+000,26
709,1327,-1.09144E+001,-6.18153E-001,1.00522E-001,3.63609E+000,-5.33093E-001,1.18458E-001,3.67687E+000,1.64803E-002,6.03673E-001,0,5.62766E+001,-9.07941E+000,9.98183E-001,1.28065E+001,-4.72539E+001,9.97444E-001,1.58257E-001,-6.67099E-002,-8.56597E-004,1.58261E-001,-6.67132E-002,-2.18158E-001,1.58909E-001,1.17147E+000,-2.38331E-003,0.00000E+000,2.36087E-004,9.38259E-001,0.00000E+000,6.27294E-004,-7.73153E-002,1.00000E+000,26
1149,1297,2.29611E+001,-1.85439E+000,9.42123E-002,8.85494E+000,-8.04536E-002,8.55506E-002,8.85572E+000,2.19811E-002,3.99317E-001,0,1.32844E+002,-2.53764E+000,9.98581E-001,9.67030E+001,-3.20790E+001,9.95652E-001,1.65001E-001,-6.88922E-002,-2.50510E-003,1.65027E-001,-6.89190E-002,-6.13571E-001,1.65772E-001,1.17919E+000,-2.22734E-002,0.00000E+000,1.28427E-002,9.35565E-001,0.00000E+000,3.89074E-004,-6.90086E-002,1.00000E+000,26
1149,1307,2.29649E+001,-1.25353E+000,9.22427E-003,8.85021E+000,-1.22691E-001,3.28347E-002,8.85112E+000,1.39471E-002,3.79018E-001,0,1.32988E+002,-3.12750E+000,9.98935E-001,9.66873E+001,-3.25767E+001,9.97393E-001,1.66118E-001,-6.88887E-002,-2.43130E-003,1.66143E-001,-6.89138E-002,-5.92678E-001,1.66945E-001,1.18051E+000,-2.22562E-002,0.00000E+000,1.29816E-002,9.35567E-001,0.00000E+000,-1.32668E-004,-6.90155E-002,1.00000E+000,26
1149,1317,2.29603E+001,-6.54335E-001,-5.45622E-002,8.83268E+000,-1.70632E-001,-1.65325E-002,8.83434E+000,1.30605E-002,4.10462E-001,0,1.32924E+002,-3.81281E+000,9.98742E-001,9.65738E+001,-3.31214E+001,9.97045E-001,1.67238E-001,-6.88844E-002,-2.35349E-003,1.67262E-001,-6.89079E-002,-5.71004E-001,1.68124E-001,1.18183E+000,-2.22299E-002,0.00000E+000,1.31211E-002,9.35570E-001,0.00000E+000,-6.56861E-004,-6.90259E-002,1.00000E+000,26
1149,1327,2.29605E+001,-4.39715E-002,-9.25935E-002,8.81546E+000,-2.08308E-001,-5.79143E-002,8.81811E+000,1.34218E-002,3.96963E-001,0,1.32824E+002,-4.36191E+000,9.98469E-001,9.65739E+001,-3.35715E+001,9.96643E-001,1.68357E-001,-6.88794E-002,-2.27210E-003,1.68379E-001,-6.89012E-002,-5.48675E-001,1.69302E-001,1.18316E+000,-2.21948E-002,0.00000E+000,1.32607E-002,9.35574E-001,0.00000E+000,-1.18098E-003,-6.90397E-002,1.00000E+000,26
1149,1337,2.29726E+001,5.62812E-001,-9.66584E-002,8.80166E+000,-2.58963E-001,-9.87551E-002,8.80603E+000,2.04091E-002,4.91445E-001,0,1.32767E+002,-5.09728E+000,9.98356E-001,9.68101E+001,-3.40985E+001,9.97505E-001,1.69487E-001,-6.88729E-002,-2.18296E-003,1.69507E-001,-6.88929E-002,-5.24670E-001,1.70494E-001,1.18450E+000,-2.21428E-002,0.00000E+000,1.34019E-002,9.35579E-001,0.00000E+000,-1.71120E-003,-6.90603E-002,1.00000E+000,26
1149,1347,2.29995E+001,1.17684E+000,-5.98939E-002,8.79340E+000,-3.06137E-001,-1.35877E-001,8.79978E+000,1.93367E-002,4.89492E-001,0,1.32765E+002,-5.76991E+000,9.98400E-001,9.73396E+001,-3.46537E+001,9.97300E-001,1.70619E-001,-6.88647E-002,-2.08609E-003,1.70637E-001,-6.88829E-002,-4.99041E-001,1.71689E-001,1.18584E+000,-2.20724E-002,0.00000E+000,1.35434E-002,9.35586E-001,0.00000E+000,-2.24278E-003,-6.90882E-002,1.00000E+000,26
699,1347,-1.16483E+001,5.73549E-001,1.77249E-002,3.52138E+000,-6.15720E-001,3.08249E-002,3.57494E+000,1.31657E-002,5.91142E-001,0,5.47946E+001,-1.01781E+001,9.98561E-001,1.16040E+001,-4.88508E+001,9.98597E-001,1.55078E-001,-6.58066E-002,-1.05147E-003,1.55083E-001,-6.58116E-002,-2.72735E-001,1.55673E-001,1.16775E+000,-1.06474E-003,0.00000E+000,-1.00098E-003,9.39008E-001,0.00000E+000,-1.87340E-003,-7.59288E-002,1.00000E+000,26
699,1357,-1.16334E+001,1.17509E+000,2.80399E-002,3.51585E+000,-6.60929E-001,-9.30103E-003,3.57745E+000,1.30001E-002,5.96966E-001,0,5.48230E+001,-1.08147E+001,9.98463E-001,1.19942E+001,-4.96186E+001,9.98340E-001,1.54097E-001,-6.58142E-002,-1.18642E-003,1.54104E-001,-6.58206E-002,-3.09098E-001,1.54648E-001,1.16661E+000,-1.10050E-003,0.00000E+000,-1.13975E-003,9.39003E-001,0.00000E+000,-3.09063E-003,-7.59669E-002,1.00000E+000,26
699,1337,-1.16646E+001,-3.72715E-002,4.12356E-002,3.51961E+000,-5.83566E-001,7.18464E-002,3.56838E+000,9.93385E-003,5.58352E-001,0,5.46497E+001,-9.75177E+000,9.98485E-001,1.12818E+001,-4.83160E+001,9.98526E-001,1.56053E-001,-6.58013E-002,-9.21311E-004,1.56057E-001,-6.58051E-002,-2.37931E-001,1.56694E-001,1.16889E+000,-1.03940E-003,0.00000E+000,-8.62554E-004,9.39011E-001,0.00000E+000,-6.59128E-004,-7.59017E-002,1.00000E+000,26
699,1317,-1.16755E+001,-1.20741E+000,1.99835E-001,3.52015E+000,-4.85995E-001,1.70193E-001,3.55761E+000,1.47490E-002,6.17265E-001,0,5.43538E+001,-8.41205E+000,9.98603E-001,1.12759E+001,-4.66317E+001,9.98059E-001,1.57980E-001,-6.57969E-002,-6.76233E-004,1.57982E-001,-6.57989E-002,-1.73141E-001,1.58714E-001,1.17114E+000,-1.01912E-003,0.00000E+000,-5.88255E-004,9.39013E-001,0.00000E+000,1.74698E-003,-7.58801E-002,1.00000E+000,26
699,1327,-1.16708E+001,-6.19493E-001,1.05625E-001,3.52085E+000,-5.32599E-001,1.15775E-001,3.56279E+000,1.13184E-002,6.92595E-001,0,5.45327E+001,-9.05759E+000,9.98615E-001,1.12277E+001,-4.73461E+001,9.97540E-001,1.57016E-001,-6.57985E-002,-7.97739E-004,1.57019E-001,-6.58013E-002,-2.05132E-001,1.57703E-001,1.17001E+000,-1.02628E-003,0.00000E+000,-7.25688E-004,9.39012E-001,0.00000E+000,5.41440E-004,-7.58878E-002,1.00000E+000,26
1159,1307,2.37368E+001,-1.24609E+000,-1.02570E-002,8.96306E+000,-1.19353E-001,2.56816E-002,8.96390E+000,1.61786E-002,3.69791E-001,0,1.34608E+002,-3.07225E+000,9.96766E-001,9.87058E+001,-3.23300E+001,9.95428E-001,1.66792E-001,-6.92350E-002,-2.46755E-003,1.66818E-001,-6.92608E-002,-5.98912E-001,1.67616E-001,1.18132E+000,-2.12658E-002,0.00000E+000,1.21958E-002,9.35283E-001,0.00000E+000,-1.36996E-003,-6.94469E-002,1.00000E+000,26
1159,1317,2.37401E+001,-6.37580E-001,-7.03578E-002,8.95322E+000,-1.58807E-001,-2.00965E-002,8.95465E+000,1.65684E-002,4.39129E-001,0,1.34642E+002,-3.64609E+000,9.97241E-001,9.87203E+001,-3.27161E+001,9.97121E-001,1.67979E-001,-6.92360E-002,-2.46060E-003,1.68004E-001,-6.92615E-002,-5.94236E-001,1.68865E-001,1.18273E+000,-2.12376E-002,0.00000E+000,1.22001E-002,9.35283E-001,0.00000E+000,-1.89065E-003,-6.94573E-002,1.00000E+000,26
1159,1327,2.37512E+001,-3.08070E-002,-9.05101E-002,8.94437E+000,-2.02789E-001,-5.29541E-002,8.94682E+000,1.13251E-002,4.25387E-001,0,1.34633E+002,-4.29457E+000,9.98690E-001,9.89155E+001,-3.32580E+001,9.98003E-001,1.69167E-001,-6.92373E-002,-2.44775E-003,1.69192E-001,-6.92624E-002,-5.88186E-001,1.70116E-001,1.18413E+000,-2.11951E-002,0.00000E+000,1.22043E-002,9.35283E-001,0.00000E+000,-2.41239E-003,-6.94731E-002,1.00000E+000,26
1159,1297,2.37364E+001,-1.84181E+000,7.15513E-002,8.97194E+000,-7.20216E-002,7.82375E-002,8.97257E+000,1.62708E-002,4.28325E-001,0,1.34523E+002,-2.41222E+000,9.97600E-001,9.87684E+001,-3.17279E+001,9.93563E-001,1.65610E-001,-6.92342E-002,-2.47118E-003,1.65636E-001,-6.92602E-002,-6.02814E-001,1.66374E-001,1.17993E+000,-2.12858E-002,0.00000E+000,1.21916E-002,9.35283E-001,0.00000E+000,-8.52565E-004,-6.94394E-002,1.00000E+000,26
1159,1337,2.37746E+001,5.76607E-001,-7.55435E-002,8.93825E+000,-2.53303E-001,-8.86551E-002,8.94228E+000,1.50040E-002,4.40912E-001,0,1.34667E+002,-5.02904E+000,9.99387E-001,9.93552E+001,-3.38540E+001,9.99142E-001,1.70362E-001,-6.92390E-002,-2.42655E-003,1.70386E-001,-6.92636E-002,-5.80181E-001,1.71376E-001,1.18555E+000,-2.11323E-002,0.00000E+000,1.22086E-002,9.35283E-001,0.00000E+000,-2.93823E-003,-6.94964E-002,1.00000E+000,26
1159,1347,2.37924E+001,1.19129E+000,-5.76754E-002,8.92342E+000,-2.96984E-001,-1.33864E-001,8.92937E+000,1.68914E-002,4.39153E-001,0,1.34602E+002,-5.65322E+000,9.98623E-001,9.97120E+001,-3.43567E+001,9.98044E-001,1.71555E-001,-6.92408E-002,-2.40274E-003,1.71579E-001,-6.92648E-002,-5.71642E-001,1.72636E-001,1.18697E+000,-2.10629E-002,0.00000E+000,1.22129E-002,9.35283E-001,0.00000E+000,-3.46387E-003,-6.95221E-002,1.00000E+000,26
689,1347,-1.23974E+001,5.62938E-001,2.27132E-002,3.41317E+000,-6.22679E-001,2.74290E-002,3.46961E+000,1.14625E-002,6.06927E-001,0,5.31596E+001,-1.02577E+001,9.98928E-001,1.01409E+001,-4.91249E+001,9.98526E-001,1.53610E-001,-6.50758E-002,-1.02795E-003,1.53615E-001,-6.50807E-002,-2.69316E-001,1.54210E-001,1.16604E+000,1.67670E-004,0.00000E+000,-1.94873E-003,9.39626E-001,0.00000E+000,-1.81820E-003,-7.49896E-002,1.00000E+000,26
689,1357,-1.23849E+001,1.16347E+000,2.30041E-002,3.40755E+000,-6.66400E-001,-1.09613E-002,3.47212E+000,1.21843E-002,5.81499E-001,0,5.31820E+001,-1.08674E+001,9.98743E-001,1.04688E+001,-4.99039E+001,9.98732E-001,1.52442E-001,-6.50839E-002,-1.19384E-003,1.52449E-001,-6.50905E-002,-3.14442E-001,1.52990E-001,1.16468E+000,1.29826E-004,0.00000E+000,-2.15920E-003,9.39620E-001,0.00000E+000,-2.85164E-003,-7.50184E-002,1.00000E+000,26
689,1337,-1.24082E+001,-3.14438E-002,4.96251E-002,3.41775E+000,-5.72669E-001,7.71574E-002,3.46625E+000,1.17935E-002,5.73332E-001,0,5.30842E+001,-9.58616E+000,9.98949E-001,9.91482E+000,-4.83423E+001,9.99178E-001,1.54778E-001,-6.50690E-002,-8.64336E-004,1.54781E-001,-6.50724E-002,-2.25256E-001,1.55433E-001,1.16740E+000,1.99693E-004,0.00000E+000,-1.73785E-003,9.39631E-001,0.00000E+000,-7.82771E-004,-7.49653E-002,1.00000E+000,26
1169,1327,2.45299E+001,-2.05451E-002,-1.02392E-001,9.06139E+000,-1.98160E-001,-5.98192E-002,9.06375E+000,1.06249E-002,4.48914E-001,0,1.36310E+002,-4.23742E+000,9.99107E-001,1.01053E+002,-3.29631E+001,9.98685E-001,1.69753E-001,-6.95205E-002,-2.39156E-003,1.69777E-001,-6.95444E-002,-5.72600E-001,1.70699E-001,1.18485E+000,-2.00936E-002,0.00000E+000,1.15130E-002,9.35033E-001,0.00000E+000,-3.66930E-003,-6.95558E-002,1.00000E+000,26
1169,1337,2.45568E+001,5.95189E-001,-8.08467E-002,9.05665E+000,-2.40677E-001,-9.63720E-002,9.06036E+000,1.39202E-002,4.48331E-001,0,1.36362E+002,-4.85542E+000,9.99283E-001,1.01555E+002,-3.34504E+001,9.98832E-001,1.70927E-001,-6.95264E-002,-2.40240E-003,1.70951E-001,-6.95504E-002,-5.72373E-001,1.71937E-001,1.18625E+000,-2.00274E-002,0.00000E+000,1.14508E-002,9.35030E-001,0.00000E+000,-4.11919E-003,-6.95771E-002,1.00000E+000,26
1169,1347,2.45841E+001,1.20699E+000,-5.02468E-002,9.04925E+000,-2.88896E-001,-1.36337E-001,9.05489E+000,1.35207E-002,4.23198E-001,0,1.36388E+002,-5.54604E+000,9.98544E-001,1.02077E+002,-3.40352E+001,9.98380E-001,1.72102E-001,-6.95327E-002,-2.41068E-003,1.72126E-001,-6.95568E-002,-5.71538E-001,1.73178E-001,1.18764E+000,-1.99546E-002,0.00000E+000,1.13886E-002,9.35027E-001,0.00000E+000,-4.56985E-003,-6.96005E-002,1.00000E+000,26
689,1327,-1.24297E+001,-6.28075E-001,9.68497E-002,3.40583E+000,-5.33225E-001,1.16184E-001,3.44927E+000,1.34324E-002,6.45061E-001,0,5.27830E+001,-9.04890E+000,9.98118E-001,9.57690E+000,-4.75885E+001,9.97802E-001,1.55932E-001,-6.50648E-002,-7.07260E-004,1.55934E-001,-6.50670E-002,-1.83362E-001,1.56644E-001,1.16875E+000,2.19871E-004,0.00000E+000,-1.52901E-003,9.39634E-001,0.00000E+000,2.42702E-004,-7.49499E-002,1.00000E+000,26
1169,1317,2.45217E+001,-6.28226E-001,-6.92690E-002,9.07288E+000,-1.52697E-001,-1.57885E-002,9.07418E+000,1.98539E-002,3.49051E-001,0,1.36311E+002,-3.57131E+000,9.98295E-001,1.00924E+002,-3.25217E+001,9.98121E-001,1.68581E-001,-6.95163E-002,-2.37061E-003,1.68605E-001,-6.95399E-002,-5.70387E-001,1.69464E-001,1.18346E+000,-2.01349E-002,0.00000E+000,1.15749E-002,9.35035E-001,0.00000E+000,-3.22120E-003,-6.95424E-002,1.00000E+000,26
1169,1307,2.45153E+001,-1.23440E+000,-1.85478E-002,9.08112E+000,-1.13467E-001,2.64717E-002,9.08187E+000,1.62913E-002,4.12837E-001,0,1.36268E+002,-3.00264E+000,9.98246E-001,1.00847E+002,-3.20146E+001,9.97301E-001,1.67420E-001,-6.95128E-002,-2.34571E-003,1.67443E-001,-6.95361E-002,-5.67173E-001,1.68242E-001,1.18209E+000,-2.01657E-002,0.00000E+000,1.16361E-002,9.35036E-001,0.00000E+000,-2.77772E-003,-6.95325E-002,1.00000E+000,26
1169,1297,2.45185E+001,-1.83061E+000,6.89109E-002,9.09277E+000,-6.55744E-002,8.09295E-002,9.09337E+000,1.34426E-002,4.50354E-001,0,1.36215E+002,-2.34827E+000,9.98516E-001,1.00974E+002,-3.14440E+001,9.95793E-001,1.66257E-001,-6.95102E-002,-2.31551E-003,1.66280E-001,-6.95330E-002,-5.62640E-001,1.67020E-001,1.18071E+000,-2.01838E-002,0.00000E+000,1.16974E-002,9.35037E-001,0.00000E+000,-2.33425E-003,-6.95267E-002,1.00000E+000,26
689,1317,-1.24344E+001,-1.21519E+000,1.88494E-001,3.40499E+000,-4.87628E-001,1.67337E-001,3.44380E+000,1.56725E-002,6.04836E-001,0,5.26130E+001,-8.40689E+000,9.98055E-001,9.62013E+000,-4.68372E+001,9.96222E-001,1.57081E-001,-6.50632E-002,-5.55613E-004,1.57083E-001,-6.50646E-002,-1.43303E-001,1.57852E-001,1.17009E+000,2.27965E-004,0.00000E+000,-1.32054E-003,9.39635E-001,0.00000E+000,1.26634E-003,-7.49437E-002,1.00000E+000,26
679,1347,-1.31540E+001,5.57013E-001,1.83219E-002,3.29895E+000,-6.20173E-001,2.45650E-002,3.35683E+000,1.84007E-002,6.14941E-001,0,5.14255E+001,-1.02383E+001,9.98217E-001,8.54416E+000,-4.93116E+001,9.97790E-001,1.52083E-001,-6.44012E-002,-1.05249E-003,1.52088E-001,-6.44063E-002,-2.78549E-001,1.52680E-001,1.16426E+000,1.50963E-003,0.00000E+000,-3.06670E-003,9.40199E-001,0.00000E+000,-1.94518E-003,-7.41625E-002,1.00000E+000,26
679,1357,-1.31279E+001,1.15749E+000,1.60379E-002,3.30852E+000,-6.65056E-001,-8.20155E-003,3.37471E+000,9.08524E-003,5.95365E-001,0,5.16683E+001,-1.08442E+001,9.98895E-001,9.07474E+000,-5.00826E+001,9.98701E-001,1.50631E-001,-6.44138E-002,-1.34064E-003,1.50640E-001,-6.44221E-002,-3.57176E-001,1.51164E-001,1.16257E+000,1.46685E-003,0.00000E+000,-3.51052E-003,9.40188E-001,0.00000E+000,-2.92210E-003,-7.41873E-002,1.00000E+000,26
1179,1297,2.52914E+001,-1.82470E+000,3.99880E-002,9.20854E+000,-6.20593E-002,7.54624E-002,9.20906E+000,2.18581E-002,5.13676E-001,0,1.37867E+002,-2.32914E+000,9.99083E-001,1.03001E+002,-3.11668E+001,9.96818E-001,1.66743E-001,-6.96692E-002,-2.28063E-003,1.66765E-001,-6.96912E-002,-5.52655E-001,1.67513E-001,1.18130E+000,-1.93562E-002,0.00000E+000,1.12016E-002,9.34928E-001,0.00000E+000,-3.86222E-003,-7.00304E-002,1.00000E+000,26
1179,1307,2.52980E+001,-1.22656E+000,-3.03870E-002,9.20416E+000,-1.07333E-001,2.82013E-002,9.20482E+000,1.04188E-002,3.58970E-001,0,1.37997E+002,-2.93754E+000,9.99279E-001,1.03053E+002,-3.17993E+001,9.97929E-001,1.67818E-001,-6.96693E-002,-2.26578E-003,1.67840E-001,-6.96909E-002,-5.46571E-001,1.68642E-001,1.18257E+000,-1.93346E-002,0.00000E+000,1.12180E-002,9.34928E-001,0.00000E+000,-4.20079E-003,-7.00361E-002,1.00000E+000,26
1179,1317,2.52999E+001,-6.19622E-001,-1.09794E-001,9.19608E+000,-1.44871E-001,-2.40603E-002,9.19726E+000,2.38302E-002,3.39503E-001,0,1.38090E+002,-3.45790E+000,9.99185E-001,1.03019E+002,-3.22086E+001,9.98458E-001,1.68894E-001,-6.96694E-002,-2.25175E-003,1.68916E-001,-6.96906E-002,-5.40737E-001,1.69774E-001,1.18385E+000,-1.93150E-002,0.00000E+000,1.12344E-002,9.34928E-001,0.00000E+000,-4.54002E-003,-7.00413E-002,1.00000E+000,26
1179,1337,2.53419E+001,6.02483E-001,-9.87615E-002,9.17820E+000,-2.38700E-001,-1.14311E-001,9.18201E+000,1.19868E-002,4.46301E-001,0,1.38149E+002,-4.82316E+000,9.99014E-001,1.03787E+002,-3.31985E+001,9.97837E-001,1.71073E-001,-6.96698E-002,-2.19168E-003,1.71093E-001,-6.96897E-002,-5.21553E-001,1.72070E-001,1.18644E+000,-1.91987E-002,0.00000E+000,1.12676E-002,9.34930E-001,0.00000E+000,-5.22846E-003,-7.00723E-002,1.00000E+000,26
1179,1347,2.53809E+001,1.22141E+000,-5.71714E-002,9.17975E+000,-2.82646E-001,-1.52630E-001,9.18537E+000,1.17156E-002,4.38206E-001,0,1.38297E+002,-5.44308E+000,9.99130E-001,1.04504E+002,-3.36854E+001,9.98494E-001,1.72166E-001,-6.96700E-002,-2.15575E-003,1.72185E-001,-6.96893E-002,-5.10686E-001,1.73224E-001,1.18774E+000,-1.91262E-002,0.00000E+000,1.12843E-002,9.34931E-001,0.00000E+000,-5.57447E-003,-7.00916E-002,1.00000E+000,26
679,1327,-1.31792E+001,-6.34250E-001,1.05821E-001,3.29782E+000,-5.33648E-001,1.23179E-001,3.34299E+000,1.59256E-002,5.98524E-001,0,5.11195E+001,-9.04374E+000,9.97637E-001,8.12457E+000,-4.78304E+001,9.97042E-001,1.54955E-001,-6.43832E-002,-4.90417E-004,1.54956E-001,-6.43843E-002,-1.28106E-001,1.55692E-001,1.16760E+000,1.57192E-003,0.00000E+000,-2.18555E-003,9.40216E-001,0.00000E+000,-5.63879E-006,-7.41264E-002,1.00000E+000,26
679,1337,-1.31660E+001,-3.88575E-002,4.62260E-002,3.30232E+000,-5.74322E-001,7.66428E-002,3.35277E+000,1.79554E-002,5.75130E-001,0,5.13273E+001,-9.59263E+000,9.98206E-001,8.30052E+000,-4.85555E+001,9.98170E-001,1.53524E-001,-6.43894E-002,-7.67100E-004,1.53526E-001,-6.43921E-002,-2.01690E-001,1.54190E-001,1.16594E+000,1.54940E-003,0.00000E+000,-2.62508E-003,9.40210E-001,0.00000E+000,-9.73114E-004,-7.41394E-002,1.00000E+000,26
1179,1327,2.53144E+001,-1.55336E-002,-1.10538E-001,9.18474E+000,-1.95848E-001,-5.94780E-002,9.18702E+000,1.65705E-002,4.15088E-001,0,1.38051E+002,-4.24180E+000,9.99037E-001,1.03292E+002,-3.27860E+001,9.97182E-001,1.69981E-001,-6.96696E-002,-2.22498E-003,1.70002E-001,-6.96902E-002,-5.31888E-001,1.70918E-001,1.18514E+000,-1.92647E-002,0.00000E+000,1.12509E-002,9.34929E-001,0.00000E+000,-4.88315E-003,-7.00547E-002,1.00000E+000,26
679,1317,-1.31851E+001,-1.22057E+000,2.00534E-001,3.29584E+000,-4.87540E-001,1.78062E-001,3.33645E+000,1.32648E-002,6.41176E-001,0,5.09219E+001,-8.44142E+000,9.98350E-001,8.15783E+000,-4.70300E+001,9.96862E-001,1.56379E-001,-6.43808E-002,-2.19787E-004,1.56379E-001,-6.43810E-002,-5.70433E-002,1.57190E-001,1.16927E+000,1.58210E-003,0.00000E+000,-1.74723E-003,9.40219E-001,0.00000E+000,9.59182E-004,-7.41205E-002,1.00000E+000,26
669,1327,-1.39235E+001,-6.49356E-001,1.04236E-001,3.19533E+000,-5.41945E-001,1.23585E-001,3.24332E+000,1.13194E-002,5.73118E-001,0,4.95610E+001,-9.16653E+000,9.99181E-001,6.72606E+000,-4.81758E+001,9.98849E-001,1.53828E-001,-6.37946E-002,-2.13080E-004,1.53828E-001,-6.37948E-002,-5.60997E-002,1.54572E-001,1.16628E+000,3.67043E-003,0.00000E+000,-3.32415E-003,9.40692E-001,0.00000E+000,-3.45105E-004,-7.30505E-002,1.00000E+000,26
669,1337,-1.39137E+001,-4.56715E-002,4.74224E-002,3.19609E+000,-5.76290E-001,7.75095E-002,3.24855E+000,1.11857E-002,6.09355E-001,0,4.97063E+001,-9.61810E+000,9.98592E-001,6.85959E+000,-4.87521E+001,9.98624E-001,1.52069E-001,-6.38018E-002,-5.59324E-004,1.52071E-001,-6.38032E-002,-1.48452E-001,1.52725E-001,1.16424E+000,3.64173E-003,0.00000E+000,-3.90151E-003,9.40684E-001,0.00000E+000,-1.21415E-003,-7.30627E-002,1.00000E+000,26
669,1347,-1.38988E+001,5.49613E-001,1.34140E-002,3.19908E+000,-6.19945E-001,3.77320E-002,3.25882E+000,9.85723E-003,5.87449E-001,0,4.98690E+001,-1.02246E+001,9.98461E-001,7.13253E+000,-4.95361E+001,9.98393E-001,1.50307E-001,-6.38117E-002,-9.09445E-004,1.50311E-001,-6.38156E-002,-2.43351E-001,1.50881E-001,1.16219E+000,3.60391E-003,0.00000E+000,-4.47862E-003,9.40673E-001,0.00000E+000,-2.08282E-003,-7.30787E-002,1.00000E+000,26
669,1357,-1.38741E+001,1.15877E+000,2.01959E-002,3.20432E+000,-6.56196E-001,-3.21028E-003,3.27082E+000,1.04335E-002,5.80584E-001,0,5.00628E+001,-1.07179E+001,9.98373E-001,7.66897E+000,-5.01894E+001,9.98383E-001,1.48532E-001,-6.38294E-002,-1.27162E-003,1.48540E-001,-6.38370E-002,-3.43071E-001,1.49027E-001,1.16013E+000,3.54250E-003,0.00000E+000,-5.05885E-003,9.40656E-001,0.00000E+000,-2.95617E-003,-7.31048E-002,1.00000E+000,26
1189,1337,2.61338E+001,6.13043E-001,-1.11654E-001,9.30550E+000,-2.35708E-001,-1.28913E-001,9.30938E+000,1.50574E-002,4.32103E-001,0,1.40004E+002,-4.74731E+000,9.99235E-001,1.06137E+002,-3.29126E+001,9.98299E-001,1.70767E-001,-6.99454E-002,-1.99318E-003,1.70783E-001,-6.99619E-002,-4.74387E-001,1.71710E-001,1.18609E+000,-1.84534E-002,0.00000E+000,1.11116E-002,9.34677E-001,0.00000E+000,-6.04101E-003,-7.01237E-002,1.00000E+000,26
669,1317,-1.39261E+001,-1.22940E+000,2.11233E-001,3.19536E+000,-4.90029E-001,1.83931E-001,3.23795E+000,1.38310E-002,6.13059E-001,0,4.93781E+001,-8.49578E+000,9.99119E-001,6.84527E+000,-4.73041E+001,9.98792E-001,1.55573E-001,-6.37940E-002,1.22640E-004,1.55573E-001,-6.37940E-002,3.20319E-002,1.56410E-001,1.16832E+000,3.67891E-003,0.00000E+000,-2.74993E-003,9.40694E-001,0.00000E+000,5.19208E-004,-7.30469E-002,1.00000E+000,26
1189,1297,2.60841E+001,-1.81551E+000,5.07511E-002,9.33349E+000,-5.90368E-002,6.96622E-002,9.33393E+000,1.56455E-002,4.83404E-001,0,1.39643E+002,-2.30052E+000,9.98798E-001,1.05400E+002,-3.09680E+001,9.96668E-001,1.67144E-001,-6.99357E-002,-1.95965E-003,1.67160E-001,-6.99519E-002,-4.73551E-001,1.67899E-001,1.18179E+000,-1.85800E-002,0.00000E+000,1.12935E-002,9.34683E-001,0.00000E+000,-5.51297E-003,-7.01082E-002,1.00000E+000,26
1189,1307,2.60775E+001,-1.21985E+000,-4.55598E-002,9.32033E+000,-1.07459E-001,1.44673E-002,9.32096E+000,1.22854E-002,4.16511E-001,0,1.39682E+002,-2.93746E+000,9.98154E-001,1.05209E+002,-3.15395E+001,9.97849E-001,1.68045E-001,-6.99370E-002,-1.97651E-003,1.68061E-001,-6.99534E-002,-4.75815E-001,1.68845E-001,1.18286E+000,-1.85691E-002,0.00000E+000,1.12483E-002,9.34682E-001,0.00000E+000,-5.64405E-003,-7.01095E-002,1.00000E+000,26
1189,1317,2.60970E+001,-5.99710E-001,-8.24828E-002,9.32035E+000,-1.40049E-001,-3.18199E-002,9.32145E+000,1.42083E-002,4.53495E-001,0,1.39858E+002,-3.38140E+000,9.99060E-001,1.05510E+002,-3.18041E+001,9.99067E-001,1.68953E-001,-6.99395E-002,-1.98483E-003,1.68969E-001,-6.99559E-002,-4.75996E-001,1.69800E-001,1.18394E+000,-1.85372E-002,0.00000E+000,1.12027E-002,9.34681E-001,0.00000E+000,-5.77634E-003,-7.01134E-002,1.00000E+000,26
1189,1327,2.61137E+001,2.14950E-003,-1.02116E-001,9.31343E+000,-1.91106E-001,-7.69072E-002,9.31571E+000,1.68987E-002,4.57647E-001,0,1.39929E+002,-4.12824E+000,9.99303E-001,1.05790E+002,-3.24090E+001,9.98909E-001,1.69859E-001,-6.99422E-002,-1.99042E-003,1.69875E-001,-6.99587E-002,-4.75529E-001,1.70754E-001,1.18501E+000,-1.84988E-002,0.00000E+000,1.11572E-002,9.34679E-001,0.00000E+000,-5.90851E-003,-7.01182E-002,1.00000E+000,26
659,1327,-1.46671E+001,-6.36603E-001,1.09631E-001,3.09195E+000,-5.24655E-001,1.24243E-001,3.13861E+000,1.67365E-002,5.60248E-001,0,4.79780E+001,-8.87567E+000,9.98953E-001,5.36956E+000,-4.81016E+001,9.97898E-001,1.52443E-001,-6.33788E-002,-1.68053E-004,1.52443E-001,-6.33789E-002,-4.46142E-002,1.53163E-001,1.16466E+000,5.80648E-003,0.00000E+000,-4.93608E-003,9.41031E-001,0.00000E+000,-7.22107E-004,-7.23987E-002,1.00000E+000,26
659,1337,-1.46374E+001,-5.81074E-002,7.13123E-002,3.11262E+000,-5.84124E-001,9.64577E-002,3.16842E+000,2.67071E-002,6.61291E-001,0,4.83871E+001,-9.79475E+000,9.98418E-001,5.85163E+000,-4.90720E+001,9.98304E-001,1.50543E-001,-6.33849E-002,-5.26675E-004,1.50545E-001,-6.33862E-002,-1.41057E-001,1.51169E-001,1.16245E+000,5.77573E-003,0.00000E+000,-5.54728E-003,9.41023E-001,0.00000E+000,-1.47694E-003,-7.24092E-002,1.00000E+000,26
659,1347,-1.46290E+001,5.45745E-001,3.34441E-002,3.10902E+000,-6.18912E-001,5.18736E-002,3.17045E+000,1.43881E-002,6.26442E-001,0,4.84574E+001,-1.02479E+001,9.99086E-001,6.01643E+000,-4.97256E+001,9.99135E-001,1.48641E-001,-6.33940E-002,-8.89462E-004,1.48645E-001,-6.33978E-002,-2.40344E-001,1.49179E-001,1.16025E+000,5.73482E-003,0.00000E+000,-6.15791E-003,9.41011E-001,0.00000E+000,-2.23106E-003,-7.24232E-002,1.00000E+000,26
659,1357,-1.46133E+001,1.15878E+000,3.16778E-002,3.10610E+000,-6.50473E-001,5.58298E-003,3.17348E+000,1.02818E-002,5.82174E-001,0,4.85380E+001,-1.06377E+001,9.98714E-001,6.39588E+000,-5.03227E+001,9.98877E-001,1.46724E-001,-6.34102E-002,-1.26387E-003,1.46732E-001,-6.34178E-002,-3.44594E-001,1.47181E-001,1.15803E+000,5.67118E-003,0.00000E+000,-6.77157E-003,9.40994E-001,0.00000E+000,-2.98893E-003,-7.24449E-002,1.00000E+000,26
1199,1307,2.68633E+001,-1.20910E+000,-4.56987E-002,9.43929E+000,-1.04767E-001,3.85016E-003,9.43987E+000,1.61194E-002,4.42453E-001,0,1.41389E+002,-2.89319E+000,9.98321E-001,1.07489E+002,-3.12645E+001,9.97518E-001,1.68106E-001,-6.98724E-002,-1.58762E-003,1.68117E-001,-6.98830E-002,-3.82213E-001,1.68912E-001,1.18295E+000,-1.75626E-002,0.00000E+000,1.12455E-002,9.34733E-001,0.00000E+000,-6.52307E-003,-6.99738E-002,1.00000E+000,26
1199,1317,2.68744E+001,-6.02304E-001,-9.53575E-002,9.43318E+000,-1.47808E-001,-4.58651E-002,9.43445E+000,1.42657E-002,4.28387E-001,0,1.41496E+002,-3.49190E+000,9.97751E-001,1.07639E+002,-3.17336E+001,9.96256E-001,1.68891E-001,-6.98754E-002,-1.60981E-003,1.68902E-001,-6.98862E-002,-3.86277E-001,1.69737E-001,1.18388E+000,-1.75382E-002,0.00000E+000,1.11677E-002,9.34731E-001,0.00000E+000,-6.43321E-003,-6.99715E-002,1.00000E+000,26
1199,1327,2.68928E+001,9.77521E-003,-1.27510E-001,9.43163E+000,-1.86656E-001,-8.88447E-002,9.43389E+000,1.48134E-002,4.16130E-001,0,1.41638E+002,-4.05115E+000,9.98482E-001,1.07929E+002,-3.21583E+001,9.97329E-001,1.69675E-001,-6.98787E-002,-1.63044E-003,1.69687E-001,-6.98898E-002,-3.89939E-001,1.70563E-001,1.18481E+000,-1.75100E-002,0.00000E+000,1.10898E-002,9.34728E-001,0.00000E+000,-6.34328E-003,-6.99687E-002,1.00000E+000,26
659,1317,-1.46802E+001,-1.23070E+000,1.90534E-001,3.08386E+000,-4.85860E-001,1.72499E-001,3.12666E+000,1.37109E-002,6.01879E-001,0,4.77096E+001,-8.37060E+000,9.98025E-001,5.25316E+000,-4.73893E+001,9.95913E-001,1.54328E-001,-6.33767E-002,1.82889E-004,1.54328E-001,-6.33769E-002,4.81329E-002,1.55147E-001,1.16686E+000,5.82384E-003,0.00000E+000,-4.32817E-003,9.41036E-001,0.00000E+000,2.86629E-005,-7.23927E-002,1.00000E+000,26
1199,1337,2.69264E+001,6.26555E-001,-1.02709E-001,9.43038E+000,-2.30654E-001,-1.31960E-001,9.43412E+000,1.17133E-002,4.41714E-001,0,1.41769E+002,-4.68637E+000,9.99134E-001,1.08532E+002,-3.26176E+001,9.97933E-001,1.70467E-001,-6.98837E-002,-1.64277E-003,1.70479E-001,-6.98949E-002,-3.91585E-001,1.71397E-001,1.18575E+000,-1.74610E-002,0.00000E+000,1.10110E-002,9.34724E-001,0.00000E+000,-6.25241E-003,-6.99640E-002,1.00000E+000,26
1199,1297,2.68685E+001,-1.79926E+000,4.26375E-002,9.45178E+000,-5.02066E-002,5.37071E-002,9.45206E+000,1.21638E-002,4.46500E-001,0,1.41358E+002,-2.11975E+000,9.98230E-001,1.07648E+002,-3.06237E+001,9.96889E-001,1.67325E-001,-6.98705E-002,-1.55977E-003,1.67335E-001,-6.98808E-002,-3.76749E-001,1.68090E-001,1.18203E+000,-1.75731E-002,0.00000E+000,1.13230E-002,9.34734E-001,0.00000E+000,-6.61250E-003,-6.99748E-002,1.00000E+000,26
649,1347,-1.53799E+001,5.50209E-001,2.63862E-002,2.99820E+000,-6.09744E-001,4.05290E-002,3.05985E+000,1.46708E-002,6.30888E-001,0,4.67912E+001,-1.00595E+001,9.98549E-001,4.51763E+000,-4.97484E+001,9.97634E-001,1.46770E-001,-6.28171E-002,-7.96843E-004,1.46773E-001,-6.28202E-002,-2.17832E-001,1.47279E-001,1.15807E+000,8.14296E-003,0.00000E+000,-7.92304E-003,9.41497E-001,0.00000E+000,-2.54192E-003,-7.17833E-002,1.00000E+000,26
649,1357,-1.53591E+001,1.15647E+000,3.42900E-002,3.00105E+000,-6.47033E-001,6.43471E-003,3.07002E+000,1.00815E-002,5.87925E-001,0,4.69284E+001,-1.05749E+001,9.98944E-001,5.00237E+000,-5.04713E+001,9.98489E-001,1.44576E-001,-6.28312E-002,-1.16968E-003,1.44582E-001,-6.28378E-002,-3.23110E-001,1.44994E-001,1.15553E+000,8.07267E-003,0.00000E+000,-8.53521E-003,9.41480E-001,0.00000E+000,-3.28867E-003,-7.18040E-002,1.00000E+000,26
649,1337,-1.54003E+001,-4.85112E-002,6.45376E-002,2.98958E+000,-5.68303E-001,8.43544E-002,3.04429E+000,1.52330E-002,5.75654E-001,0,4.65318E+001,-9.48313E+000,9.98923E-001,4.17186E+000,-4.90613E+001,9.98153E-001,1.48957E-001,-6.28097E-002,-4.35077E-004,1.48958E-001,-6.28106E-002,-1.17714E-001,1.49566E-001,1.16060E+000,8.18870E-003,0.00000E+000,-7.31148E-003,9.41508E-001,0.00000E+000,-1.79592E-003,-7.17698E-002,1.00000E+000,26
649,1327,-1.54201E+001,-6.29067E-001,1.13111E-001,2.97819E+000,-5.13303E-001,1.20286E-001,3.02449E+000,1.20270E-002,5.69719E-001,0,4.62454E+001,-8.67235E+000,9.99335E-001,3.86629E+000,-4.80940E+001,9.99027E-001,1.51127E-001,-6.28056E-002,-8.05740E-005,1.51127E-001,-6.28057E-002,-2.15795E-002,1.51843E-001,1.16312E+000,8.22187E-003,0.00000E+000,-6.70300E-003,9.41516E-001,0.00000E+000,-1.05368E-003,-7.17601E-002,1.00000E+000,26
1209,1307,2.76506E+001,-1.19417E+000,-4.93039E-002,9.55990E+000,-9.66344E-002,-7.62269E-003,9.56039E+000,1.23753E-002,4.55469E-001,0,1.43119E+002,-2.77157E+000,9.98711E-001,1.09792E+002,-3.09236E+001,9.97449E-001,1.67769E-001,-6.94950E-002,-1.13780E-003,1.67775E-001,-6.95004E-002,-2.74753E-001,1.68595E-001,1.18257E+000,-1.64005E-002,0.00000E+000,1.12068E-002,9.35058E-001,0.00000E+000,-6.85898E-003,-6.95585E-002,1.00000E+000,26
1209,1317,2.76597E+001,-5.93912E-001,-1.02574E-001,9.55352E+000,-1.45415E-001,-5.39183E-002,9.55478E+000,1.41707E-002,4.40111E-001,0,1.43214E+002,-3.46591E+000,9.98700E-001,1.09906E+002,-3.14856E+001,9.96273E-001,1.68588E-001,-6.94966E-002,-1.14524E-003,1.68594E-001,-6.95021E-002,-2.75595E-001,1.69457E-001,1.18354E+000,-1.63775E-002,0.00000E+000,1.11437E-002,9.35057E-001,0.00000E+000,-6.54624E-003,-6.95511E-002,1.00000E+000,26
1209,1327,2.76890E+001,2.49571E-002,-1.15991E-001,9.55809E+000,-1.79749E-001,-9.58185E-002,9.56026E+000,1.38928E-002,4.00382E-001,0,1.43436E+002,-3.95421E+000,9.98853E-001,1.10389E+002,-3.18568E+001,9.97556E-001,1.69410E-001,-6.94988E-002,-1.14713E-003,1.69415E-001,-6.95044E-002,-2.75100E-001,1.70322E-001,1.18451E+000,-1.63411E-002,0.00000E+000,1.10804E-002,9.35054E-001,0.00000E+000,-6.23242E-003,-6.95393E-002,1.00000E+000,26
1209,1337,2.77217E+001,6.39158E-001,-9.04953E-002,9.55545E+000,-2.27810E-001,-1.39256E-001,9.55918E+000,1.37809E-002,4.58393E-001,0,1.43549E+002,-4.65080E+000,9.98700E-001,1.10977E+002,-3.23404E+001,9.96927E-001,1.70239E-001,-6.95018E-002,-1.14275E-003,1.70244E-001,-6.95073E-002,-2.73099E-001,1.71196E-001,1.18549E+000,-1.62891E-002,0.00000E+000,1.10165E-002,9.35051E-001,0.00000E+000,-5.91529E-003,-6.95225E-002,1.00000E+000,26
1209,1297,2.76550E+001,-1.78666E+000,3.43035E-002,9.57342E+000,-4.26867E-002,4.43813E-002,9.57362E+000,1.16061E-002,4.12944E-001,0,1.43096E+002,-1.99680E+000,9.98668E-001,1.09931E+002,-3.03339E+001,9.96722E-001,1.66950E-001,-6.94937E-002,-1.12650E-003,1.66956E-001,-6.94991E-002,-2.72968E-001,1.67734E-001,1.18161E+000,-1.64141E-002,0.00000E+000,1.12698E-002,9.35059E-001,0.00000E+000,-7.17112E-003,-6.95629E-002,1.00000E+000,26
649,1317,-1.54254E+001,-1.22539E+000,1.97229E-001,2.97657E+000,-4.77962E-001,1.64289E-001,3.01917E+000,1.00852E-002,5.95873E-001,0,4.60910E+001,-8.20583E+000,9.98871E-001,3.87882E+000,-4.74273E+001,9.98705E-001,1.53285E-001,-6.28065E-002,2.64875E-004,1.53285E-001,-6.28068E-002,7.02304E-002,1.54115E-001,1.16563E+000,8.23637E-003,0.00000E+000,-6.09627E-003,9.41520E-001,0.00000E+000,-3.13554E-004,-7.17558E-002,1.00000E+000,26
639,1347,-1.61277E+001,5.56602E-001,2.59363E-002,2.89124E+000,-5.97119E-001,4.18420E-002,2.95255E+000,1.51263E-002,6.07397E-001,0,4.51466E+001,-9.84220E+000,9.98025E-001,3.09131E+000,-4.97698E+001,9.97273E-001,1.45043E-001,-6.20716E-002,-7.25615E-004,1.45045E-001,-6.20741E-002,-2.00730E-001,1.45546E-001,1.15605E+000,1.08290E-002,0.00000E+000,-9.96328E-003,9.42116E-001,0.00000E+000,-2.88460E-003,-7.08299E-002,1.00000E+000,26
639,1357,-1.61042E+001,1.16553E+000,3.32904E-002,2.89667E+000,-6.32349E-001,6.13869E-003,2.96490E+000,9.94142E-003,5.98175E-001,0,4.53274E+001,-1.03284E+001,9.98745E-001,3.61658E+000,-5.04350E+001,9.98504E-001,1.42656E-001,-6.20839E-002,-1.09614E-003,1.42661E-001,-6.20898E-002,-3.06740E-001,1.43060E-001,1.15329E+000,1.07527E-002,0.00000E+000,-1.05659E-002,9.42099E-001,0.00000E+000,-3.74669E-003,-7.08538E-002,1.00000E+000,26
639,1317,-1.61644E+001,-1.23237E+000,2.14800E-001,2.87548E+000,-4.83571E-001,1.68661E-001,2.92073E+000,1.34558E-002,6.74953E-001,0,4.45352E+001,-8.30170E+000,9.98763E-001,2.63307E+000,-4.76342E+001,9.97984E-001,1.52107E-001,-6.20688E-002,3.16783E-004,1.52108E-001,-6.20693E-002,8.47448E-002,1.52962E-001,1.16423E+000,1.09179E-002,0.00000E+000,-8.16987E-003,9.42135E-001,0.00000E+000,-3.18933E-004,-7.08020E-002,1.00000E+000,26
639,1327,-1.61564E+001,-6.46322E-001,1.25052E-001,2.88128E+000,-5.25803E-001,1.26785E-001,2.93161E+000,1.03329E-002,6.06784E-001,0,4.47505E+001,-8.89225E+000,9.99036E-001,2.64391E+000,-4.84696E+001,9.98286E-001,1.49773E-001,-6.20649E-002,-1.99881E-005,1.49773E-001,-6.20649E-002,-5.40618E-003,1.50503E-001,1.16152E+000,1.09083E-002,0.00000E+000,-8.76409E-003,9.42133E-001,0.00000E+000,-1.16903E-003,-7.08050E-002,1.00000E+000,26
639,1337,-1.61466E+001,-4.47705E-002,5.54123E-002,2.88438E+000,-5.60035E-001,8.02114E-002,2.93934E+000,1.24653E-002,6.31255E-001,0,4.49320E+001,-9.33188E+000,9.98654E-001,2.74026E+000,-4.90631E+001,9.97928E-001,1.47412E-001,-6.20654E-002,-3.67699E-004,1.47412E-001,-6.20660E-002,-1.00572E-001,1.48024E-001,1.15878E+000,1.08802E-002,0.00000E+000,-9.36358E-003,9.42127E-001,0.00000E+000,-2.02667E-003,-7.08138E-002,1.00000E+000,26
1219,1317,2.84542E+001,-5.80690E-001,-9.50686E-002,9.67887E+000,-1.42511E-001,-6.09916E-002,9.68011E+000,1.73963E-002,4.74160E-001,0,1.44995E+002,-3.41036E+000,9.98693E-001,1.12339E+002,-3.11827E+001,9.96196E-001,1.68099E-001,-6.94737E-002,-6.17647E-004,1.68101E-001,-6.94753E-002,-1.48957E-001,1.68941E-001,1.18298E+000,-1.50591E-002,0.00000E+000,1.10806E-002,9.35029E-001,0.00000E+000,-6.19916E-003,-6.87934E-002,1.00000E+000,26
1219,1327,2.84786E+001,3.60017E-002,-1.15846E-001,9.68049E+000,-1.76976E-001,-1.02276E-001,9.68264E+000,9.09316E-003,4.19007E-001,0,1.45173E+002,-3.91213E+000,9.99345E-001,1.12735E+002,-3.15785E+001,9.98396E-001,1.68872E-001,-6.94743E-002,-6.06926E-004,1.68873E-001,-6.94759E-002,-1.45897E-001,1.69755E-001,1.18389E+000,-1.50274E-002,0.00000E+000,1.10327E-002,9.35027E-001,0.00000E+000,-5.66972E-003,-6.87750E-002,1.00000E+000,26
1219,1337,2.85146E+001,6.55017E-001,-8.85045E-002,9.68029E+000,-2.20794E-001,-1.46412E-001,9.68391E+000,1.27400E-002,4.84643E-001,0,1.45323E+002,-4.54772E+000,9.98882E-001,1.13375E+002,-3.19856E+001,9.97488E-001,1.69654E-001,-6.94753E-002,-5.88494E-004,1.69655E-001,-6.94768E-002,-1.41003E-001,1.70578E-001,1.18481E+000,-1.49772E-002,0.00000E+000,1.09841E-002,9.35024E-001,0.00000E+000,-5.13307E-003,-6.87458E-002,1.00000E+000,26
1219,1297,2.84469E+001,-1.77406E+000,3.25981E-002,9.69894E+000,-3.71654E-002,3.75438E-002,9.69909E+000,1.31673E-002,3.85342E-001,0,1.44878E+002,-1.89175E+000,9.98583E-001,1.12313E+002,-3.00547E+001,9.96418E-001,1.66551E-001,-6.94727E-002,-6.28669E-004,1.66553E-001,-6.94744E-002,-1.52611E-001,1.67314E-001,1.18115E+000,-1.50972E-002,0.00000E+000,1.11764E-002,9.35031E-001,0.00000E+000,-7.25828E-003,-6.88155E-002,1.00000E+000,26
1219,1307,2.84482E+001,-1.17899E+000,-3.74346E-002,9.68855E+000,-9.02387E-002,-1.04354E-002,9.68897E+000,1.66163E-002,4.15959E-001,0,1.44928E+002,-2.65526E+000,9.98664E-001,1.12282E+002,-3.06375E+001,9.95823E-001,1.67325E-001,-6.94732E-002,-6.24279E-004,1.67326E-001,-6.94748E-002,-1.51050E-001,1.68127E-001,1.18206E+000,-1.50809E-002,0.00000E+000,1.11286E-002,9.35030E-001,0.00000E+000,-6.72938E-003,-6.88060E-002,1.00000E+000,26
629,1347,-1.68695E+001,5.50643E-001,1.94147E-002,2.79023E+000,-5.96711E-001,3.97499E-002,2.85360E+000,1.38167E-002,6.03604E-001,0,4.36056E+001,-9.81547E+000,9.97609E-001,1.74006E+000,-4.99571E+001,9.96950E-001,1.43615E-001,-6.23791E-002,-7.21310E-004,1.43618E-001,-6.23816E-002,-2.00624E-001,1.44029E-001,1.15437E+000,1.35981E-002,0.00000E+000,-1.22154E-002,9.41746E-001,0.00000E+000,-2.88102E-003,-7.00315E-002,1.00000E+000,26
629,1357,-1.68408E+001,1.15972E+000,2.94134E-002,2.80069E+000,-6.31890E-001,4.85963E-003,2.87110E+000,1.16232E-002,6.02429E-001,0,4.38618E+001,-1.03066E+001,9.98005E-001,2.35342E+000,-5.06230E+001,9.97472E-001,1.41333E-001,-6.23846E-002,-9.18149E-004,1.41337E-001,-6.23887E-002,-2.58223E-001,1.41660E-001,1.15174E+000,1.35250E-002,0.00000E+000,-1.24922E-002,9.41739E-001,0.00000E+000,-3.81040E-003,-7.00574E-002,1.00000E+000,26
629,1327,-1.68981E+001,-6.45744E-001,1.21348E-001,2.77977E+000,-5.19451E-001,1.25392E-001,2.83067E+000,1.09242E-002,5.76853E-001,0,4.31997E+001,-8.76360E+000,9.98384E-001,1.30267E+000,-4.85721E+001,9.97866E-001,1.48137E-001,-6.23778E-002,-3.60993E-004,1.48138E-001,-6.23784E-002,-9.82510E-002,1.48752E-001,1.15959E+000,1.36712E-002,0.00000E+000,-1.16645E-002,9.41754E-001,0.00000E+000,-1.03145E-003,-7.00056E-002,1.00000E+000,26
629,1337,-1.68838E+001,-4.99858E-002,5.26303E-002,2.78746E+000,-5.59173E-001,7.92767E-002,2.84409E+000,1.26320E-002,6.21085E-001,0,4.34517E+001,-9.30299E+000,9.98106E-001,1.47000E+000,-4.92479E+001,9.97837E-001,1.45880E-001,-6.23771E-002,-5.36828E-004,1.45881E-001,-6.23785E-002,-1.47691E-001,1.46390E-001,1.15698E+000,1.36445E-002,0.00000E+000,-1.19399E-002,9.41751E-001,0.00000E+000,-1.95598E-003,-7.00151E-002,1.00000E+000,26
1229,1317,2.92482E+001,-5.57956E-001,-9.27746E-002,9.80641E+000,-1.26158E-001,-6.15908E-002,9.80742E+000,1.78028E-002,4.89324E-001,0,1.46775E+002,-3.18912E+000,9.98358E-001,1.14764E+002,-3.07304E+001,9.97624E-001,1.67779E-001,-6.91040E-002,-2.47654E-005,1.67779E-001,-6.91040E-002,-5.99010E-003,1.68645E-001,1.18261E+000,-1.37183E-002,0.00000E+000,1.11023E-002,9.35308E-001,0.00000E+000,-5.52641E-003,-6.77657E-002,1.00000E+000,26
1229,1327,2.92661E+001,4.52984E-002,-1.19112E-001,9.80089E+000,-1.77348E-001,-1.09754E-001,9.80311E+000,1.14982E-002,4.75449E-001,0,1.46884E+002,-3.90796E+000,9.98938E-001,1.15048E+002,-3.13014E+001,9.97724E-001,1.68488E-001,-6.91021E-002,1.20078E-005,1.68488E-001,-6.91021E-002,2.89573E-003,1.69393E-001,1.18344E+000,-1.36886E-002,0.00000E+000,1.10976E-002,9.35308E-001,0.00000E+000,-4.84774E-003,-6.77416E-002,1.00000E+000,26
1229,1337,2.93035E+001,6.68246E-001,-9.84824E-002,9.80488E+000,-2.12225E-001,-1.49466E-001,9.80832E+000,1.18391E-002,4.40798E-001,0,1.47079E+002,-4.42386E+000,9.98571E-001,1.15699E+002,-3.16808E+001,9.97320E-001,1.69197E-001,-6.90996E-002,5.41151E-005,1.69197E-001,-6.90996E-002,1.30114E-002,1.70141E-001,1.18428E+000,-1.36461E-002,0.00000E+000,1.10929E-002,9.35307E-001,0.00000E+000,-4.16783E-003,-6.77071E-002,1.00000E+000,26
629,1317,-1.69111E+001,-1.23042E+000,2.15918E-001,2.76876E+000,-4.75661E-001,1.70984E-001,2.81452E+000,1.19377E-002,6.38199E-001,0,4.28933E+001,-8.16179E+000,9.98660E-001,1.23023E+000,-4.77281E+001,9.97983E-001,1.50371E-001,-6.23809E-002,-1.94329E-004,1.50372E-001,-6.23811E-002,-5.23341E-002,1.51097E-001,1.16219E+000,1.36795E-002,0.00000E+000,-1.13913E-002,9.41755E-001,0.00000E+000,-1.14015E-004,-7.00027E-002,1.00000E+000,26
1229,1297,2.92372E+001,-1.75896E+000,2.64009E-002,9.82232E+000,-2.94573E-002,2.63447E-002,9.82240E+000,1.43171E-002,4.42308E-001,0,1.46642E+002,-1.78078E+000,9.98036E-001,1.14667E+002,-2.96853E+001,9.95022E-001,1.66365E-001,-6.91066E-002,-8.76831E-005,1.66365E-001,-6.91067E-002,-2.13353E-002,1.67158E-001,1.18095E+000,-1.37527E-002,0.00000E+000,1.11116E-002,9.35308E-001,0.00000E+000,-6.87650E-003,-6.77936E-002,1.00000E+000,26
1229,1307,2.92491E+001,-1.15641E+000,-3.57840E-002,9.82387E+000,-7.39790E-002,-8.48826E-003,9.82415E+000,2.07659E-002,4.56134E-001,0,1.46814E+002,-2.44396E+000,9.97661E-001,1.14813E+002,-3.01743E+001,9.95890E-001,1.67072E-001,-6.91055E-002,-5.78948E-005,1.67072E-001,-6.91055E-002,-1.40451E-002,1.67900E-001,1.18178E+000,-1.37394E-002,0.00000E+000,1.11069E-002,9.35308E-001,0.00000E+000,-6.20262E-003,-6.77829E-002,1.00000E+000,26
619,1327,-1.76417E+001,-6.45947E-001,1.23086E-001,2.67584E+000,-5.14120E-001,1.28121E-001,2.72780E+000,8.70961E-003,5.77438E-001,0,4.15977E+001,-8.67472E+000,9.98503E-001,-4.57972E-002,-4.86834E+001,9.98450E-001,1.46870E-001,-6.18742E-002,-6.06461E-004,1.46872E-001,-6.18760E-002,-1.66458E-001,1.47477E-001,1.15809E+000,1.65609E-002,0.00000E+000,-1.44887E-002,9.42163E-001,0.00000E+000,-1.04210E-003,-6.96116E-002,1.00000E+000,26
619,1337,-1.76239E+001,-4.87792E-002,5.98293E-002,2.68627E+000,-5.52826E-001,8.28606E-002,2.74382E+000,1.06773E-002,6.32402E-001,0,4.18885E+001,-9.20661E+000,9.97377E-001,1.90039E-001,-4.93455E+001,9.97286E-001,1.44515E-001,-6.18735E-002,-6.90168E-004,1.44518E-001,-6.18759E-002,-1.91595E-001,1.45014E-001,1.15537E+000,1.65303E-002,0.00000E+000,-1.45959E-002,9.42162E-001,0.00000E+000,-1.92986E-003,-6.96216E-002,1.00000E+000,26
619,1347,-1.76047E+001,5.53805E-001,1.77395E-002,2.69526E+000,-5.87210E-001,4.16758E-002,2.75880E+000,1.28550E-002,6.08961E-001,0,4.21430E+001,-9.66254E+000,9.97321E-001,5.10174E-001,-5.00097E+001,9.96861E-001,1.42155E-001,-6.18737E-002,-7.78971E-004,1.42158E-001,-6.18766E-002,-2.18748E-001,1.42554E-001,1.15265E+000,1.64878E-002,0.00000E+000,-1.47030E-002,9.42160E-001,0.00000E+000,-2.81715E-003,-6.96355E-002,1.00000E+000,26
619,1357,-1.75767E+001,1.16267E+000,2.11549E-002,2.70624E+000,-6.21452E-001,5.90767E-003,2.77669E+000,1.15405E-002,5.88205E-001,0,4.24097E+001,-1.01283E+001,9.98392E-001,1.09682E+000,-5.06761E+001,9.98057E-001,1.39778E-001,-6.18756E-002,-8.80384E-004,1.39781E-001,-6.18795E-002,-2.50137E-001,1.40087E-001,1.14991E+000,1.64170E-002,0.00000E+000,-1.48105E-002,9.42158E-001,0.00000E+000,-3.70830E-003,-6.96586E-002,1.00000E+000,26
619,1317,-1.76514E+001,-1.22794E+000,2.19121E-001,2.66817E+000,-4.66205E-001,1.75683E-001,2.71428E+000,1.44407E-002,6.05056E-001,0,4.13380E+001,-8.02080E+000,9.98060E-001,-6.27491E-002,-4.78157E+001,9.97715E-001,1.49206E-001,-6.18762E-002,-5.32399E-004,1.49208E-001,-6.18776E-002,-1.44512E-001,1.49929E-001,1.16080E+000,1.65698E-002,0.00000E+000,-1.43821E-002,9.42164E-001,0.00000E+000,-1.59081E-004,-6.96087E-002,1.00000E+000,26
1239,1307,3.00290E+001,-1.14736E+000,-5.21577E-002,9.93851E+000,-6.96398E-002,-2.16269E-002,9.93877E+000,2.10295E-002,4.42435E-001,0,1.48459E+002,-2.37199E+000,9.97511E-001,1.16996E+002,-2.99119E+001,9.95823E-001,1.66540E-001,-6.85181E-002,1.89786E-004,1.66540E-001,-6.85182E-002,4.62605E-002,1.67409E-001,1.18116E+000,-1.27450E-002,0.00000E+000,1.07960E-002,9.35823E-001,0.00000E+000,-6.15989E-003,-6.71817E-002,1.00000E+000,26
1239,1317,3.00409E+001,-5.36866E-001,-1.07177E-001,9.93404E+000,-1.08967E-001,-7.14562E-002,9.93490E+000,1.97132E-002,4.31162E-001,0,1.48595E+002,-2.92138E+000,9.97956E-001,1.17149E+002,-3.03040E+001,9.97059E-001,1.67322E-001,-6.85104E-002,3.09820E-004,1.67323E-001,-6.85108E-002,7.52710E-002,1.68235E-001,1.18208E+000,-1.27220E-002,0.00000E+000,1.09256E-002,9.35827E-001,0.00000E+000,-5.03263E-003,-6.71534E-002,1.00000E+000,26
1239,1327,3.00612E+001,6.67035E-002,-1.04344E-001,9.92616E+000,-1.64779E-001,-1.07776E-001,9.92812E+000,1.54154E-002,4.99519E-001,0,1.48616E+002,-3.74346E+000,9.98278E-001,1.17507E+002,-3.08914E+001,9.97334E-001,1.68111E-001,-6.84988E-002,4.37899E-004,1.68111E-001,-6.84996E-002,1.06038E-001,1.69068E-001,1.18301E+000,-1.26824E-002,0.00000E+000,1.10566E-002,9.35832E-001,0.00000E+000,-3.89332E-003,-6.71048E-002,1.00000E+000,26
1239,1337,3.00856E+001,6.86880E-001,-9.52734E-002,9.92070E+000,-1.99683E-001,-1.45152E-001,9.92377E+000,1.31243E-002,4.18047E-001,0,1.48666E+002,-4.25612E+000,9.97844E-001,1.17939E+002,-3.13120E+001,9.95742E-001,1.68892E-001,-6.84866E-002,5.66090E-004,1.68893E-001,-6.84880E-002,1.36636E-001,1.69895E-001,1.18393E+000,-1.26403E-002,0.00000E+000,1.11867E-002,9.35838E-001,0.00000E+000,-2.76221E-003,-6.70532E-002,1.00000E+000,26
1239,1297,3.00245E+001,-1.74719E+000,2.30469E-002,9.94336E+000,-2.27790E-002,2.21963E-002,9.94342E+000,1.31059E-002,4.66108E-001,0,1.48341E+002,-1.71048E+000,9.98159E-001,1.16982E+002,-2.93910E+001,9.96125E-001,1.65758E-001,-6.85235E-002,7.40261E-005,1.65758E-001,-6.85235E-002,1.81038E-002,1.66584E-001,1.18024E+000,-1.27582E-002,0.00000E+000,1.06666E-002,9.35821E-001,0.00000E+000,-7.28441E-003,-6.71980E-002,1.00000E+000,26
609,1347,-1.83395E+001,5.53404E-001,2.29376E-002,2.59938E+000,-5.82506E-001,4.50618E-002,2.66423E+000,1.58071E-002,6.30662E-001,0,4.06610E+001,-9.58954E+000,9.97169E-001,-6.89474E-001,-5.01239E+001,9.96835E-001,1.40780E-001,-6.06823E-002,-1.03960E-003,1.40785E-001,-6.06876E-002,-2.95652E-001,1.41230E-001,1.15102E+000,1.91615E-002,0.00000E+000,-1.74300E-002,9.43173E-001,0.00000E+000,-2.60979E-003,-6.86460E-002,1.00000E+000,26
609,1357,-1.83137E+001,1.16792E+000,2.05174E-002,2.60929E+000,-6.09978E-001,8.81246E-003,2.67966E+000,1.22606E-002,6.08155E-001,0,4.09106E+001,-9.94865E+000,9.98343E-001,-1.49453E-001,-5.06938E+001,9.97990E-001,1.38356E-001,-6.06830E-002,-1.10072E-003,1.38362E-001,-6.06891E-002,-3.16843E-001,1.38709E-001,1.14824E+000,1.90940E-002,0.00000E+000,-1.74619E-002,9.43173E-001,0.00000E+000,-3.63804E-003,-6.86710E-002,1.00000E+000,26
609,1317,-1.83969E+001,-1.23043E+000,2.18030E-001,2.56142E+000,-4.63126E-001,1.72785E-001,2.60868E+000,1.46199E-002,6.31330E-001,0,3.97064E+001,-7.97807E+000,9.98399E-001,-1.44337E+000,-4.79417E+001,9.97482E-001,1.47977E-001,-6.06847E-002,-9.08420E-004,1.47981E-001,-6.06886E-002,-2.49434E-001,1.48776E-001,1.15933E+000,1.92439E-002,0.00000E+000,-1.73348E-002,9.43174E-001,0.00000E+000,4.61808E-004,-6.86156E-002,1.00000E+000,26
609,1327,-1.83825E+001,-6.49971E-001,1.23448E-001,2.57421E+000,-5.13629E-001,1.29571E-001,2.62815E+000,1.04996E-002,6.37735E-001,0,4.00341E+001,-8.67359E+000,9.98542E-001,-1.35312E+000,-4.88205E+001,9.98074E-001,1.45588E-001,-6.06831E-002,-9.43327E-004,1.45593E-001,-6.06874E-002,-2.62020E-001,1.46262E-001,1.15656E+000,1.92369E-002,0.00000E+000,-1.73665E-002,9.43174E-001,0.00000E+000,-5.60533E-004,-6.86181E-002,1.00000E+000,26
609,1337,-1.83615E+001,-4.73860E-002,6.25892E-002,2.58792E+000,-5.45219E-001,8.62359E-002,2.64613E+000,1.32608E-002,6.23734E-001,0,4.03682E+001,-9.08769E+000,9.97323E-001,-1.05916E+000,-4.94404E+001,9.96946E-001,1.43192E-001,-6.06824E-002,-9.88478E-004,1.43196E-001,-6.06872E-002,-2.77788E-001,1.43750E-001,1.15380E+000,1.92060E-002,0.00000E+000,-1.73982E-002,9.43174E-001,0.00000E+000,-1.58334E-003,-6.86296E-002,1.00000E+000,26
1249,1297,3.08160E+001,-1.72875E+000,2.96724E-002,1.00666E+001,-1.14152E-002,2.23535E-002,1.00666E+001,1.53239E-002,4.89630E-001,0,1.50047E+002,-1.56000E+000,9.98300E-001,1.19380E+002,-2.90140E+001,9.96570E-001,1.64775E-001,-6.78155E-002,2.55798E-004,1.64775E-001,-6.78158E-002,6.30126E-002,1.65632E-001,1.17910E+000,-1.13012E-002,0.00000E+000,9.90209E-003,9.36459E-001,0.00000E+000,-7.77719E-003,-6.66544E-002,1.00000E+000,26
1249,1307,3.08134E+001,-1.13528E+000,-6.20647E-002,1.00570E+001,-6.29758E-002,-2.85572E-002,1.00572E+001,1.86153E-002,4.40166E-001,0,1.50131E+002,-2.27418E+000,9.98337E-001,1.19261E+002,-2.96105E+001,9.96229E-001,1.65755E-001,-6.78034E-002,5.56954E-004,1.65756E-001,-6.78047E-002,1.36629E-001,1.66667E-001,1.18025E+000,-1.12889E-002,0.00000E+000,1.03511E-002,9.36464E-001,0.00000E+000,-6.16145E-003,-6.66371E-002,1.00000E+000,26
1249,1317,3.08213E+001,-5.31409E-001,-1.14991E-001,1.00495E+001,-1.08241E-001,-7.24578E-002,1.00503E+001,1.79000E-002,3.97155E-001,0,1.50202E+002,-2.91717E+000,9.97065E-001,1.19354E+002,-3.01246E+001,9.95520E-001,1.66734E-001,-6.77835E-002,8.65197E-004,1.66737E-001,-6.77867E-002,2.11376E-001,1.67705E-001,1.18140E+000,-1.12617E-002,0.00000E+000,1.08016E-002,9.36474E-001,0.00000E+000,-4.54033E-003,-6.65987E-002,1.00000E+000,26
1249,1327,3.08381E+001,8.62539E-002,-1.31339E-001,1.00407E+001,-1.46827E-001,-1.17739E-001,1.00425E+001,1.67670E-002,4.51775E-001,0,1.50244E+002,-3.47917E+000,9.97199E-001,1.19632E+002,-3.04563E+001,9.96339E-001,1.67716E-001,-6.77543E-002,1.18290E-003,1.67722E-001,-6.77603E-002,2.87819E-001,1.68750E-001,1.18255E+000,-1.12167E-002,0.00000E+000,1.12554E-002,9.36492E-001,0.00000E+000,-2.90728E-003,-6.65350E-002,1.00000E+000,26
1249,1337,3.08664E+001,7.07081E-001,-1.09934E-001,1.00362E+001,-1.85062E-001,-1.52953E-001,1.00390E+001,1.30118E-002,4.40785E-001,0,1.50296E+002,-4.04788E+000,9.98518E-001,1.20138E+002,-3.08566E+001,9.97990E-001,1.68697E-001,-6.77184E-002,1.50623E-003,1.68706E-001,-6.77280E-002,3.65020E-001,1.69795E-001,1.18371E+000,-1.11587E-002,0.00000E+000,1.17100E-002,9.36515E-001,0.00000E+000,-1.27144E-003,-6.64532E-002,1.00000E+000,26
1259,1327,3.16234E+001,9.91908E-002,-1.35700E-001,1.01596E+001,-1.38516E-001,-1.18624E-001,1.01612E+001,1.31784E-002,4.28890E-001,0,1.51894E+002,-3.37890E+000,9.98705E-001,1.21922E+002,-3.01607E+001,9.98228E-001,1.67496E-001,-6.73596E-002,1.84403E-003,1.67510E-001,-6.73741E-002,4.49836E-001,1.68575E-001,1.18230E+000,-1.02832E-002,0.00000E+000,1.16771E-002,9.36806E-001,0.00000E+000,-1.37846E-003,-6.56923E-002,1.00000E+000,26
1259,1337,3.16515E+001,7.16682E-001,-1.19377E-001,1.01542E+001,-1.80869E-001,-1.60558E-001,1.01570E+001,1.24983E-002,4.15211E-001,0,1.51964E+002,-3.99025E+000,9.99076E-001,1.22416E+002,-3.06014E+001,9.98916E-001,1.68517E-001,-6.73088E-002,2.28466E-003,1.68539E-001,-6.73310E-002,5.55007E-001,1.69670E-001,1.18351E+000,-1.02213E-002,0.00000E+000,1.23225E-002,9.36839E-001,0.00000E+000,7.43818E-004,-6.55839E-002,1.00000E+000,26
599,1347,-1.90671E+001,5.64712E-001,3.20944E-002,2.50989E+000,-5.66068E-001,4.94230E-002,2.57340E+000,1.56800E-002,6.53422E-001,0,3.92710E+001,-9.34362E+000,9.98180E-001,-1.75848E+000,-5.00656E+001,9.98278E-001,1.40076E-001,-6.07106E-002,-7.90419E-004,1.40079E-001,-6.07137E-002,-2.25547E-001,1.40492E-001,1.15017E+000,2.13194E-002,0.00000E+000,-1.87483E-002,9.43028E-001,0.00000E+000,-2.39534E-003,-6.71931E-002,1.00000E+000,26
599,1357,-1.90382E+001,1.16834E+000,2.77015E-002,2.52340E+000,-6.04105E-001,1.39959E-002,2.59474E+000,1.03652E-002,6.38031E-001,0,3.95772E+001,-9.86955E+000,9.98581E-001,-1.18019E+000,-5.07964E+001,9.98444E-001,1.37807E-001,-6.07089E-002,-5.89659E-004,1.37809E-001,-6.07106E-002,-1.70185E-001,1.38134E-001,1.14757E+000,2.12589E-002,0.00000E+000,-1.82919E-002,9.43039E-001,0.00000E+000,-3.44035E-003,-6.72174E-002,1.00000E+000,26
1259,1287,3.16037E+001,-2.31234E+000,1.13652E-001,1.01911E+001,4.51886E-002,5.34925E-002,1.01913E+001,1.59778E-002,4.22673E-001,0,1.51625E+002,-7.21480E-001,9.97444E-001,1.21782E+002,-2.82147E+001,9.93957E-001,1.63389E-001,-6.74555E-002,1.57540E-004,1.63389E-001,-6.74557E-002,3.91015E-002,1.64214E-001,1.17750E+000,-1.03776E-002,0.00000E+000,9.11947E-003,9.36755E-001,0.00000E+000,-9.78928E-003,-6.58578E-002,1.00000E+000,26
1259,1297,3.15974E+001,-1.71932E+000,3.41285E-003,1.01833E+001,-5.67206E-003,5.26363E-003,1.01833E+001,1.42227E-002,4.48349E-001,0,1.51734E+002,-1.44485E+000,9.97866E-001,1.21582E+002,-2.87405E+001,9.95030E-001,1.64421E-001,-6.74463E-002,5.69253E-004,1.64422E-001,-6.74477E-002,1.40665E-001,1.65304E-001,1.17869E+000,-1.03750E-002,0.00000E+000,9.75674E-003,9.36757E-001,0.00000E+000,-7.69365E-003,-6.58532E-002,1.00000E+000,26
1259,1307,3.15981E+001,-1.11978E+000,-7.68114E-002,1.01758E+001,-5.28431E-002,-3.87439E-002,1.01760E+001,1.38897E-002,4.42978E-001,0,1.51816E+002,-2.11669E+000,9.98247E-001,1.21530E+002,-2.92429E+001,9.96624E-001,1.65449E-001,-6.74281E-002,9.86915E-004,1.65453E-001,-6.74323E-002,2.42809E-001,1.66393E-001,1.17989E+000,-1.03597E-002,0.00000E+000,1.03952E-002,9.36765E-001,0.00000E+000,-5.59420E-003,-6.58264E-002,1.00000E+000,26
599,1327,-1.91192E+001,-6.32808E-001,1.34113E-001,2.47492E+000,-4.92387E-001,1.33065E-001,2.52693E+000,1.17841E-002,6.46807E-001,0,3.84936E+001,-8.33776E+000,9.98592E-001,-2.55689E+000,-4.86794E+001,9.97810E-001,1.44575E-001,-6.07054E-002,-1.21272E-003,1.44583E-001,-6.07126E-002,-3.38465E-001,1.45199E-001,1.15535E+000,2.13874E-002,0.00000E+000,-1.96576E-002,9.43016E-001,0.00000E+000,-3.13567E-004,-6.71658E-002,1.00000E+000,26
599,1337,-1.90970E+001,-3.89610E-002,6.37107E-002,2.49146E+000,-5.31170E-001,8.88160E-002,2.54900E+000,1.11046E-002,6.29423E-001,0,3.88761E+001,-8.86247E+000,9.98228E-001,-2.27316E+000,-4.94166E+001,9.98241E-001,1.42334E-001,-6.07098E-002,-9.97325E-004,1.42339E-001,-6.07147E-002,-2.81420E-001,1.42850E-001,1.15277E+000,2.13646E-002,0.00000E+000,-1.92040E-002,9.43020E-001,0.00000E+000,-1.35204E-003,-6.71749E-002,1.00000E+000,26
1259,1317,3.16072E+001,-5.13300E-001,-1.18839E-001,1.01690E+001,-9.64860E-002,-7.28868E-002,1.01698E+001,1.39850E-002,4.53804E-001,0,1.51858E+002,-2.77388E+000,9.98555E-001,1.21655E+002,-2.97116E+001,9.97472E-001,1.66474E-001,-6.74001E-002,1.41121E-003,1.66482E-001,-6.74087E-002,3.45709E-001,1.67483E-001,1.18109E+000,-1.03305E-002,0.00000E+000,1.10352E-002,9.36780E-001,0.00000E+000,-3.48963E-003,-6.57752E-002,1.00000E+000,26
599,1317,-1.91405E+001,-1.22447E+000,2.25241E-001,2.45501E+000,-4.54063E-001,1.71796E-001,2.50255E+000,1.49366E-002,6.12007E-001,0,3.80708E+001,-7.79828E+000,9.98413E-001,-2.76420E+000,-4.79784E+001,9.97966E-001,1.46809E-001,-6.06983E-002,-1.43519E-003,1.46819E-001,-6.07082E-002,-3.96251E-001,1.47550E-001,1.15794E+000,2.13930E-002,0.00000E+000,-2.01109E-002,9.43015E-001,0.00000E+000,7.24372E-004,-6.71635E-002,1.00000E+000,26
589,1347,-1.98048E+001,5.76746E-001,3.61470E-002,2.41060E+000,-5.48415E-001,5.32041E-002,2.47277E+000,1.13613E-002,6.54242E-001,0,3.77281E+001,-9.06220E+000,9.98499E-001,-2.99157E+000,-4.99978E+001,9.98357E-001,1.39429E-001,-6.04198E-002,-1.50611E-004,1.39429E-001,-6.04199E-002,-4.31795E-002,1.39842E-001,1.14937E+000,2.42789E-002,0.00000E+000,-1.99797E-002,9.43199E-001,0.00000E+000,-2.31789E-003,-6.59517E-002,1.00000E+000,26
589,1357,-1.97709E+001,1.17934E+000,3.47174E-002,2.42879E+000,-5.88493E-001,1.74216E-002,2.49913E+000,9.13249E-003,6.45750E-001,0,3.81081E+001,-9.61204E+000,9.98613E-001,-2.32604E+000,-5.07488E+001,9.98826E-001,1.37129E-001,-6.04187E-002,5.05408E-005,1.37129E-001,-6.04187E-002,1.46586E-002,1.37451E-001,1.14673E+000,2.42161E-002,0.00000E+000,-1.95334E-002,9.43209E-001,0.00000E+000,-3.27648E-003,-6.59745E-002,1.00000E+000,26
589,1337,-1.98299E+001,-3.26414E-002,6.92887E-002,2.39583E+000,-5.19944E-001,8.83907E-002,2.45319E+000,8.00109E-003,6.21214E-001,0,3.74033E+001,-8.67356E+000,9.99146E-001,-3.43172E+000,-4.94416E+001,9.99131E-001,1.41715E-001,-6.04175E-002,-3.60180E-004,1.41716E-001,-6.04182E-002,-1.02095E-001,1.42228E-001,1.15200E+000,2.43203E-002,0.00000E+000,-2.04246E-002,9.43192E-001,0.00000E+000,-1.36222E-003,-6.59366E-002,1.00000E+000,26
589,1327,-1.98460E+001,-6.12541E-001,1.45296E-001,2.38563E+000,-4.68022E-001,1.39583E-001,2.43511E+000,1.53453E-002,6.88400E-001,0,3.70989E+001,-7.97215E+000,9.99116E-001,-3.60111E+000,-4.84745E+001,9.98162E-001,1.43982E-001,-6.04124E-002,-5.76006E-004,1.43984E-001,-6.04141E-002,-1.61464E-001,1.44603E-001,1.15461E+000,2.43439E-002,0.00000E+000,-2.08670E-002,9.43188E-001,0.00000E+000,-4.12026E-004,-6.59281E-002,1.00000E+000,26
1269,1327,3.24147E+001,1.15283E-001,-1.32464E-001,1.02835E+001,-1.29157E-001,-1.13452E-001,1.02849E+001,1.18151E-002,4.35982E-001,0,1.53588E+002,-3.26285E+000,9.98879E-001,1.24318E+002,-2.98174E+001,9.98211E-001,1.67359E-001,-6.67347E-002,2.41403E-003,1.67384E-001,-6.67596E-002,5.90764E-001,1.68522E-001,1.18215E+000,-9.27964E-003,0.00000E+000,1.19163E-002,9.37255E-001,0.00000E+000,-5.18246E-004,-6.34435E-002,1.00000E+000,26
1269,1337,3.24499E+001,7.26742E-001,-1.09666E-001,1.02841E+001,-1.77597E-001,-1.52225E-001,1.02867E+001,1.20550E-002,4.18089E-001,0,1.53735E+002,-3.98376E+000,9.98658E-001,1.24928E+002,-3.03662E+001,9.97457E-001,1.68470E-001,-6.66707E-002,2.95382E-003,1.68507E-001,-6.67078E-002,7.19592E-001,1.69721E-001,1.18347E+000,-9.20992E-003,0.00000E+000,1.27416E-002,9.37298E-001,0.00000E+000,1.71393E-003,-6.33257E-002,1.00000E+000,26
589,1317,-1.98718E+001,-1.20703E+000,2.40035E-001,2.36088E+000,-4.32517E-001,1.80196E-001,2.40692E+000,1.25229E-002,5.82847E-001,0,3.65969E+001,-7.45157E+000,9.97710E-001,-3.86652E+000,-4.78582E+001,9.96683E-001,1.46245E-001,-6.04043E-002,-8.00130E-004,1.46248E-001,-6.04074E-002,-2.21840E-001,1.46984E-001,1.15723E+000,2.43482E-002,0.00000E+000,-2.13099E-002,9.43187E-001,0.00000E+000,5.39321E-004,-6.59265E-002,1.00000E+000,26
1269,1317,3.24022E+001,-4.95984E-001,-1.14715E-001,1.02946E+001,-8.58100E-002,-7.51150E-002,1.02953E+001,1.22165E-002,4.24324E-001,0,1.53604E+002,-2.61932E+000,9.98646E-001,1.24112E+002,-2.93704E+001,9.97931E-001,1.66245E-001,-6.67812E-002,1.88500E-003,1.66260E-001,-6.67965E-002,4.63438E-001,1.67326E-001,1.18083E+000,-9.32720E-003,0.00000E+000,1.10944E-002,9.37225E-001,0.00000E+000,-2.74141E-003,-6.35238E-002,1.00000E+000,26
1269,1307,3.23909E+001,-1.10424E+000,-7.07670E-002,1.02992E+001,-4.41638E-002,-3.90292E-002,1.02994E+001,1.30032E-002,4.45459E-001,0,1.53523E+002,-2.00423E+000,9.98057E-001,1.23955E+002,-2.89193E+001,9.97029E-001,1.65129E-001,-6.68154E-002,1.36429E-003,1.65137E-001,-6.68234E-002,3.36996E-001,1.66135E-001,1.17952E+000,-9.35931E-003,0.00000E+000,1.02761E-002,9.37205E-001,0.00000E+000,-4.95476E-003,-6.35781E-002,1.00000E+000,26
1269,1297,3.23830E+001,-1.70927E+000,-5.33800E-003,1.03022E+001,-1.22916E-003,-5.08047E-004,1.03022E+001,1.39823E-002,4.38189E-001,0,1.53401E+002,-1.37345E+000,9.97912E-001,1.23877E+002,-2.84790E+001,9.96453E-001,1.64008E-001,-6.68413E-002,8.48146E-004,1.64011E-001,-6.68444E-002,2.10502E-001,1.64943E-001,1.17821E+000,-9.38116E-003,0.00000E+000,9.45870E-003,9.37191E-001,0.00000E+000,-7.16572E-003,-6.36150E-002,1.00000E+000,26
1269,1287,3.23923E+001,-2.30430E+000,1.14530E-001,1.03107E+001,4.63690E-002,4.90302E-002,1.03109E+001,1.87346E-002,3.99171E-001,0,1.53295E+002,-6.90713E-001,9.98186E-001,1.24134E+002,-2.80131E+001,9.95588E-001,1.62885E-001,-6.68486E-002,3.43697E-004,1.62885E-001,-6.68491E-002,8.57182E-002,1.63755E-001,1.17691E+000,-9.37953E-003,0.00000E+000,8.64449E-003,9.37192E-001,0.00000E+000,-9.36800E-003,-6.36122E-002,1.00000E+000,26
579,1347,-2.05343E+001,5.83988E-001,4.16285E-002,2.31840E+000,-5.36422E-001,5.41804E-002,2.38026E+000,9.40504E-003,6.47606E-001,0,3.63027E+001,-8.85660E+000,9.98684E-001,-4.09155E+000,-5.00094E+001,9.98661E-001,1.38237E-001,-5.99194E-002,5.40090E-004,1.38238E-001,-5.99209E-002,1.56162E-001,1.38646E-001,1.14793E+000,2.72703E-002,0.00000E+000,-2.11239E-002,9.43593E-001,0.00000E+000,-2.83611E-003,-6.51002E-002,1.00000E+000,26
579,1357,-2.04941E+001,1.19537E+000,4.45062E-002,2.34272E+000,-5.68049E-001,2.08382E-002,2.41069E+000,9.78915E-003,6.58631E-001,0,3.67694E+001,-9.28599E+000,9.99067E-001,-3.31416E+000,-5.06266E+001,9.99226E-001,1.35765E-001,-5.99190E-002,7.93663E-004,1.35768E-001,-5.99222E-002,2.32378E-001,1.36079E-001,1.14511E+000,2.72026E-002,0.00000E+000,-2.05748E-002,9.43606E-001,0.00000E+000,-3.95096E-003,-6.51269E-002,1.00000E+000,26
579,1337,-2.05658E+001,-2.15474E-002,7.97622E-002,2.29722E+000,-5.04336E-001,9.43283E-002,2.35382E+000,9.50954E-003,6.28955E-001,0,3.58641E+001,-8.42862E+000,9.98339E-001,-4.61264E+000,-4.93965E+001,9.98561E-001,1.40692E-001,-5.99154E-002,2.77318E-004,1.40693E-001,-5.99158E-002,7.92049E-002,1.41207E-001,1.15075E+000,2.73141E-002,0.00000E+000,-2.16709E-002,9.43585E-001,0.00000E+000,-1.72528E-003,-6.50829E-002,1.00000E+000,26
579,1327,-2.05923E+001,-6.05907E-001,1.40648E-001,2.27714E+000,-4.57085E-001,1.34108E-001,2.32643E+000,1.03623E-002,6.71914E-001,0,3.54378E+001,-7.75303E+000,9.99028E-001,-4.98591E+000,-4.84770E+001,9.98303E-001,1.43125E-001,-5.99085E-002,9.41512E-006,1.43125E-001,-5.99085E-002,2.65693E-003,1.43756E-001,1.15355E+000,2.73415E-002,0.00000E+000,-2.22146E-002,9.43579E-001,0.00000E+000,-6.21286E-004,-6.50721E-002,1.00000E+000,26
579,1317,-2.06103E+001,-1.19204E+000,2.38265E-001,2.26040E+000,-4.14749E-001,1.79217E-001,2.30511E+000,1.54551E-002,6.57093E-001,0,3.50484E+001,-7.15861E+000,9.97813E-001,-5.12136E+000,-4.76902E+001,9.96416E-001,1.45549E-001,-5.98975E-002,-2.67474E-004,1.45549E-001,-5.98978E-002,-7.45944E-002,1.46307E-001,1.15635E+000,2.73471E-002,0.00000E+000,-2.27580E-002,9.43578E-001,0.00000E+000,4.82150E-004,-6.50699E-002,1.00000E+000,26
1279,1317,3.31860E+001,-4.89363E-001,-1.20025E-001,1.04118E+001,-8.34681E-002,-7.42959E-002,1.04124E+001,1.07776E-002,3.86222E-001,0,1.55218E+002,-2.60210E+000,9.98422E-001,1.26386E+002,-2.91808E+001,9.97065E-001,1.65791E-001,-6.58881E-002,2.27229E-003,1.65813E-001,-6.59104E-002,5.61880E-001,1.66971E-001,1.18030E+000,-8.21107E-003,0.00000E+000,1.09123E-002,9.37931E-001,0.00000E+000,-2.07453E-003,-6.12083E-002,1.00000E+000,26
1279,1327,3.32140E+001,1.29289E-001,-1.25995E-001,1.04146E+001,-1.21914E-001,-1.06291E-001,1.04158E+001,1.70600E-002,4.49483E-001,0,1.55377E+002,-3.19040E+000,9.98082E-001,1.26847E+002,-2.95098E+001,9.97476E-001,1.67056E-001,-6.58303E-002,2.90375E-003,1.67092E-001,-6.58665E-002,7.14245E-001,1.68335E-001,1.18180E+000,-8.15337E-003,0.00000E+000,1.19135E-002,9.37970E-001,0.00000E+000,3.58223E-004,-6.11145E-002,1.00000E+000,26
1279,1337,3.32469E+001,7.40547E-001,-1.03538E-001,1.04126E+001,-1.72110E-001,-1.44916E-001,1.04151E+001,1.34113E-002,4.50537E-001,0,1.55488E+002,-3.92706E+000,9.98544E-001,1.27417E+002,-3.00504E+001,9.98023E-001,1.68316E-001,-6.57545E-002,3.54545E-003,1.68370E-001,-6.58082E-002,8.67589E-001,1.69702E-001,1.18330E+000,-8.07410E-003,0.00000E+000,1.29179E-002,9.38023E-001,0.00000E+000,2.79874E-003,-6.09856E-002,1.00000E+000,26
1279,1307,3.31679E+001,-1.09593E+000,-8.26153E-002,1.04110E+001,-4.01198E-002,-4.02346E-002,1.04112E+001,1.22779E-002,4.40593E-001,0,1.55066E+002,-1.95866E+000,9.98352E-001,1.26115E+002,-2.86751E+001,9.96304E-001,1.64528E-001,-6.59304E-002,1.65289E-003,1.64540E-001,-6.59422E-002,4.10906E-001,1.65617E-001,1.17882E+000,-8.25043E-003,0.00000E+000,9.91921E-003,9.37905E-001,0.00000E+000,-4.48768E-003,-6.12722E-002,1.00000E+000,26
1279,1297,3.31679E+001,-1.69316E+000,2.20226E-003,1.04184E+001,1.01188E-002,4.80957E-003,1.04184E+001,2.25149E-002,3.60539E-001,0,1.54972E+002,-1.21099E+000,9.97707E-001,1.26184E+002,-2.81922E+001,9.96432E-001,1.63257E-001,-6.59541E-002,1.04256E-003,1.63262E-001,-6.59588E-002,2.60601E-001,1.64262E-001,1.17734E+000,-8.26751E-003,0.00000E+000,8.92624E-003,9.37893E-001,0.00000E+000,-6.90046E-003,-6.13000E-002,1.00000E+000,26
1279,1287,3.31713E+001,-2.30673E+000,9.75325E-002,1.04250E+001,4.09435E-002,4.43840E-002,1.04252E+001,2.04563E-002,3.05254E-001,0,1.54892E+002,-7.46807E-001,9.98004E-001,1.26318E+002,-2.79728E+001,9.95652E-001,1.61982E-001,-6.59691E-002,4.38078E-004,1.61983E-001,-6.59700E-002,1.10111E-001,1.62909E-001,1.17586E+000,-8.27468E-003,0.00000E+000,7.93639E-003,9.37889E-001,0.00000E+000,-9.30566E-003,-6.13117E-002,1.00000E+000,26
569,1347,-2.12635E+001,6.00420E-001,4.96928E-002,2.22648E+000,-5.15332E-001,5.94153E-002,2.28611E+000,1.02824E-002,6.58421E-001,0,3.48666E+001,-8.52153E+000,9.98408E-001,-5.17029E+000,-4.98771E+001,9.98120E-001,1.37469E-001,-5.93241E-002,1.12280E-003,1.37476E-001,-5.93305E-002,3.26885E-001,1.37904E-001,1.14698E+000,3.03946E-002,0.00000E+000,-2.26019E-002,9.44067E-001,0.00000E+000,-3.02421E-003,-6.41989E-002,1.00000E+000,26
569,1357,-2.12265E+001,1.20391E+000,4.46343E-002,2.24900E+000,-5.52503E-001,2.57992E-002,2.31602E+000,9.90463E-003,6.40474E-001,0,3.53077E+001,-9.03802E+000,9.98772E-001,-4.46617E+000,-5.06150E+001,9.98504E-001,1.34870E-001,-5.93267E-002,1.49049E-003,1.34881E-001,-5.93381E-002,4.39719E-001,1.35205E-001,1.14401E+000,3.03299E-002,0.00000E+000,-2.18372E-002,9.44083E-001,0.00000E+000,-4.34114E-003,-6.42276E-002,1.00000E+000,26
569,1327,-2.13233E+001,-6.02628E-001,1.37877E-001,2.18412E+000,-4.48439E-001,1.34712E-001,2.23374E+000,1.62499E-002,6.93471E-001,0,3.40014E+001,-7.61226E+000,9.99110E-001,-6.13012E+000,-4.85140E+001,9.98688E-001,1.42621E-001,-5.93058E-002,3.69223E-004,1.42621E-001,-5.93065E-002,1.04765E-001,1.43293E-001,1.15289E+000,3.04729E-002,0.00000E+000,-2.41254E-002,9.44047E-001,0.00000E+000,-4.00620E-004,-6.41642E-002,1.00000E+000,26
569,1337,-2.12951E+001,-3.56682E-003,8.37789E-002,2.20434E+000,-4.82692E-001,9.17669E-002,2.25844E+000,9.52374E-003,6.42245E-001,0,3.44336E+001,-8.06483E+000,9.98502E-001,-5.70683E+000,-4.92283E+001,9.98527E-001,1.40054E-001,-5.93159E-002,7.46619E-004,1.40057E-001,-5.93187E-002,2.14562E-001,1.40602E-001,1.14994E+000,3.04372E-002,0.00000E+000,-2.33651E-002,9.44056E-001,0.00000E+000,-1.70988E-003,-6.41800E-002,1.00000E+000,26
1289,1327,3.39927E+001,1.34807E-001,-1.34620E-001,1.05275E+001,-1.20889E-001,-1.03401E-001,1.05287E+001,1.55885E-002,4.32081E-001,0,1.56918E+002,-3.19667E+000,9.97563E-001,1.29039E+002,-2.93190E+001,9.96452E-001,1.66747E-001,-6.46122E-002,3.39088E-003,1.66797E-001,-6.46619E-002,8.39507E-001,1.68194E-001,1.18145E+000,-6.69703E-003,0.00000E+000,1.16560E-002,9.38974E-001,0.00000E+000,1.14753E-003,-5.85114E-002,1.00000E+000,26
1289,1337,3.40293E+001,7.54621E-001,-1.07526E-001,1.05292E+001,-1.62973E-001,-1.36707E-001,1.05313E+001,1.48760E-002,4.46477E-001,0,1.57057E+002,-3.82424E+000,9.98358E-001,1.29670E+002,-2.97282E+001,9.97453E-001,1.68244E-001,-6.45280E-002,4.11422E-003,1.68317E-001,-6.46007E-002,1.01227E+000,1.69825E-001,1.18323E+000,-6.60278E-003,0.00000E+000,1.27972E-002,9.39034E-001,0.00000E+000,3.83334E-003,-5.83695E-002,1.00000E+000,26
569,1317,-2.13481E+001,-1.18117E+000,2.34879E-001,2.15908E+000,-3.98851E-001,1.69955E-001,2.20218E+000,1.75309E-002,6.67387E-001,0,3.35061E+001,-6.89420E+000,9.98203E-001,-6.36780E+000,-4.76143E+001,9.96503E-001,1.45176E-001,-5.92867E-002,-2.31941E-005,1.45176E-001,-5.92867E-002,-6.49961E-003,1.45986E-001,1.15584E+000,3.04719E-002,0.00000E+000,-2.48850E-002,9.44047E-001,0.00000E+000,9.07485E-004,-6.41646E-002,1.00000E+000,26
1289,1317,3.39688E+001,-4.80829E-001,-1.16798E-001,1.05265E+001,-8.30205E-002,-6.84570E-002,1.05271E+001,1.66234E-002,4.69346E-001,0,1.56770E+002,-2.63361E+000,9.98634E-001,1.28656E+002,-2.89200E+001,9.96097E-001,1.65252E-001,-6.46710E-002,2.68585E-003,1.65284E-001,-6.47024E-002,6.69179E-001,1.66577E-001,1.17968E+000,-6.75921E-003,0.00000E+000,1.05244E-002,9.38934E-001,0.00000E+000,-1.51558E-003,-5.86049E-002,1.00000E+000,26
1289,1287,3.39511E+001,-2.28490E+000,8.65519E-002,1.05378E+001,5.71476E-002,3.94755E-002,1.05381E+001,2.10381E-002,3.98476E-001,0,1.56454E+002,-5.37316E-001,9.98066E-001,1.28525E+002,-2.74743E+001,9.95251E-001,1.60722E-001,-6.47607E-002,6.19890E-004,1.60724E-001,-6.47624E-002,1.57514E-001,1.61730E-001,1.17439E+000,-6.83803E-003,0.00000E+000,7.14119E-003,9.38883E-001,0.00000E+000,-9.47769E-003,-5.87235E-002,1.00000E+000,26
1289,1297,3.39524E+001,-1.68317E+000,1.16271E-002,1.05325E+001,1.46960E-002,7.29425E-003,1.05325E+001,2.23008E-002,2.98615E-001,0,1.56523E+002,-1.15393E+000,9.98091E-001,1.28490E+002,-2.79971E+001,9.96665E-001,1.62235E-001,-6.47380E-002,1.30211E-003,1.62243E-001,-6.47454E-002,3.28682E-001,1.63341E-001,1.17614E+000,-6.82001E-003,0.00000E+000,8.26339E-003,9.38895E-001,0.00000E+000,-6.83666E-003,-5.86964E-002,1.00000E+000,26
1289,1307,3.39569E+001,-1.08677E+000,-7.78447E-002,1.05307E+001,-3.79203E-002,-3.79316E-002,1.05308E+001,1.44838E-002,4.50268E-001,0,1.56703E+002,-1.94443E+000,9.99133E-001,1.28486E+002,-2.84451E+001,9.97387E-001,1.63749E-001,-6.47149E-002,1.98888E-003,1.63767E-001,-6.47322E-002,4.98734E-001,1.64960E-001,1.17791E+000,-6.80268E-003,0.00000E+000,9.39417E-003,9.38906E-001,0.00000E+000,-4.17545E-003,-5.86703E-002,1.00000E+000,26
559,1327,-2.20456E+001,-5.93789E-001,1.29431E-001,2.09853E+000,-4.35856E-001,1.24029E-001,2.14690E+000,2.84572E-002,8.26547E-001,0,3.27072E+001,-7.42966E+000,9.99304E-001,-7.15222E+000,-4.83971E+001,9.98450E-001,1.42052E-001,-5.91059E-002,9.23416E-004,1.42056E-001,-5.91101E-002,2.63009E-001,1.42721E-001,1.15214E+000,3.37979E-002,0.00000E+000,-2.58256E-002,9.44115E-001,0.00000E+000,-1.25620E-004,-6.28777E-002,1.00000E+000,26
559,1337,-2.20246E+001,8.52607E-003,7.97409E-002,2.11195E+000,-4.65702E-001,8.69882E-002,2.16443E+000,8.59718E-003,6.64697E-001,0,3.30160E+001,-7.77988E+000,9.99329E-001,-6.82308E+000,-4.91289E+001,9.99195E-001,1.39550E-001,-5.91153E-002,1.22182E-003,1.39557E-001,-5.91228E-002,3.52361E-001,1.40099E-001,1.14927E+000,3.37647E-002,0.00000E+000,-2.52127E-002,9.44122E-001,0.00000E+000,-1.62843E-003,-6.28950E-002,1.00000E+000,26
559,1347,-2.19979E+001,6.12237E-001,4.79918E-002,2.12912E+000,-4.96860E-001,5.63595E-002,2.18705E+000,1.24804E-002,6.24935E-001,0,3.33661E+001,-8.21339E+000,9.98422E-001,-6.35474E+000,-4.98176E+001,9.97925E-001,1.37032E-001,-5.91231E-002,1.51781E-003,1.37044E-001,-5.91348E-002,4.43308E-001,1.37472E-001,1.14639E+000,3.37235E-002,0.00000E+000,-2.45982E-002,9.44130E-001,0.00000E+000,-3.13514E-003,-6.29165E-002,1.00000E+000,26
559,1357,-2.19589E+001,1.21576E+000,4.41540E-002,2.15451E+000,-5.32927E-001,2.77065E-002,2.21962E+000,1.09910E-002,6.12483E-001,0,3.38389E+001,-8.73177E+000,9.98379E-001,-5.61381E+000,-5.05565E+001,9.98332E-001,1.34496E-001,-5.91273E-002,1.80729E-003,1.34513E-001,-5.91441E-002,5.34737E-001,1.34839E-001,1.14349E+000,3.36641E-002,0.00000E+000,-2.39814E-002,9.44143E-001,0.00000E+000,-4.64736E-003,-6.29476E-002,1.00000E+000,26
559,1317,-2.20774E+001,-1.16397E+000,2.37844E-001,2.06602E+000,-3.78523E-001,1.67953E-001,2.10711E+000,2.72378E-002,6.92582E-001,0,3.20712E+001,-6.55305E+000,9.98955E-001,-7.45861E+000,-4.74463E+001,9.97951E-001,1.44545E-001,-5.90893E-002,6.09792E-004,1.44547E-001,-5.90912E-002,1.71573E-001,1.45346E-001,1.15502E+000,3.37949E-002,0.00000E+000,-2.64386E-002,9.44115E-001,0.00000E+000,1.37751E-003,-6.28792E-002,1.00000E+000,26
1299,1327,3.47809E+001,1.50347E-001,-1.27229E-001,1.06452E+001,-1.12778E-001,-9.94615E-002,1.06463E+001,2.05518E-002,4.45720E-001,0,1.58515E+002,-3.10191E+000,9.97311E-001,1.31401E+002,-2.89912E+001,9.96450E-001,1.66547E-001,-6.32388E-002,3.86317E-003,1.66611E-001,-6.33038E-002,9.62899E-001,1.68205E-001,1.18123E+000,-4.67702E-003,0.00000E+000,1.09377E-002,9.40118E-001,0.00000E+000,1.73095E-003,-5.55449E-002,1.00000E+000,26
1299,1337,3.48282E+001,7.66785E-001,-1.02339E-001,1.06563E+001,-1.59896E-001,-1.39523E-001,1.06584E+001,1.91895E-002,4.72318E-001,0,1.58822E+002,-3.78816E+000,9.97096E-001,1.32196E+002,-2.94394E+001,9.96094E-001,1.68306E-001,-6.31461E-002,4.65416E-003,1.68400E-001,-6.32396E-002,1.15151E+000,1.70130E-001,1.18333E+000,-4.56160E-003,0.00000E+000,1.21911E-002,9.40187E-001,0.00000E+000,4.61014E-003,-5.53866E-002,1.00000E+000,26
1299,1287,3.47413E+001,-2.27466E+000,9.29709E-002,1.06563E+001,5.85551E-002,3.61943E-002,1.06565E+001,1.52348E-002,4.87912E-001,0,1.58090E+002,-5.40963E-001,9.98514E-001,1.30919E+002,-2.71943E+001,9.96568E-001,1.59478E-001,-6.33887E-002,8.56813E-004,1.59482E-001,-6.33920E-002,2.20269E-001,1.60595E-001,1.17294E+000,-4.83819E-003,0.00000E+000,5.99097E-003,9.40022E-001,0.00000E+000,-9.63279E-003,-5.57659E-002,1.00000E+000,26
1299,1297,3.47427E+001,-1.68043E+000,1.10436E-002,1.06525E+001,8.86514E-003,2.38843E-003,1.06525E+001,1.61938E-002,4.65678E-001,0,1.58193E+002,-1.29938E+000,9.98980E-001,1.30876E+002,-2.77786E+001,9.96933E-001,1.61254E-001,-6.33693E-002,1.59536E-003,1.61266E-001,-6.33807E-002,4.06907E-001,1.62492E-001,1.17500E+000,-4.82151E-003,0.00000E+000,7.22125E-003,9.40032E-001,0.00000E+000,-6.80657E-003,-5.57431E-002,1.00000E+000,26
1299,1307,3.47630E+001,-1.06899E+000,-4.47393E-002,1.06622E+001,-2.92585E-002,-2.45355E-002,1.06622E+001,2.96622E-002,4.99267E-001,0,1.58454E+002,-1.88106E+000,9.98725E-001,1.31159E+002,-2.81212E+001,9.97287E-001,1.63030E-001,-6.33369E-002,2.34564E-003,1.63055E-001,-6.33612E-002,5.93621E-001,1.64398E-001,1.17708E+000,-4.78778E-003,0.00000E+000,8.45981E-003,9.40052E-001,0.00000E+000,-3.96132E-003,-5.56968E-002,1.00000E+000,26
1299,1317,3.47716E+001,-4.62036E-001,-1.00870E-001,1.06553E+001,-7.32396E-002,-6.96976E-002,1.06558E+001,2.60066E-002,4.88291E-001,0,1.58546E+002,-2.50781E+000,9.97535E-001,1.31259E+002,-2.85573E+001,9.96281E-001,1.64794E-001,-6.32927E-002,3.10212E-003,1.64837E-001,-6.33348E-002,7.79063E-001,1.66303E-001,1.17915E+000,-4.73860E-003,0.00000E+000,9.69873E-003,9.40081E-001,0.00000E+000,-1.11525E-003,-5.56293E-002,1.00000E+000,26
559,1307,-2.21045E+001,-1.74843E+000,3.56064E-001,2.03643E+000,-3.36625E-001,2.10635E-001,2.07479E+000,1.32618E-002,6.73408E-001,0,3.14870E+001,-5.98043E+000,9.97875E-001,-7.66846E+000,-4.66754E+001,9.97006E-001,1.47029E-001,-5.90713E-002,2.93365E-004,1.47029E-001,-5.90717E-002,8.15554E-002,1.47972E-001,1.15789E+000,3.37843E-002,0.00000E+000,-2.70515E-002,9.44118E-001,0.00000E+000,2.88032E-003,-6.28848E-002,1.00000E+000,26
549,1347,-2.27213E+001,6.27991E-001,4.67400E-002,2.04249E+000,-4.76737E-001,5.39053E-002,2.09808E+000,1.10375E-002,6.64381E-001,0,3.20296E+001,-7.88324E+000,9.98253E-001,-7.36275E+000,-4.96609E+001,9.97903E-001,1.36657E-001,-5.88630E-002,1.97648E-003,1.36677E-001,-5.88830E-002,5.79115E-001,1.37113E-001,1.14586E+000,3.68331E-002,0.00000E+000,-2.63185E-002,9.44248E-001,0.00000E+000,-2.89082E-003,-6.14934E-002,1.00000E+000,26
549,1357,-2.26825E+001,1.23822E+000,4.57627E-002,2.06688E+000,-5.06901E-001,2.28298E-002,2.12825E+000,1.18777E-002,6.56040E-001,0,3.24909E+001,-8.30155E+000,9.98270E-001,-6.61465E+000,-5.03032E+001,9.98187E-001,1.34225E-001,-5.88679E-002,2.26564E-003,1.34252E-001,-5.88945E-002,6.72152E-001,1.34588E-001,1.14309E+000,3.67734E-002,0.00000E+000,-2.57009E-002,9.44262E-001,0.00000E+000,-4.51738E-003,-6.15284E-002,1.00000E+000,26
549,1327,-2.27982E+001,-5.68798E-001,1.51457E-001,1.98070E+000,-4.06482E-001,1.33837E-001,2.02641E+000,2.21482E-002,7.63969E-001,0,3.08483E+001,-6.95737E+000,9.98378E-001,-8.53315E+000,-4.81996E+001,9.96751E-001,1.41472E-001,-5.88416E-002,1.37741E-003,1.41481E-001,-5.88511E-002,3.93958E-001,1.42146E-001,1.15138E+000,3.68961E-002,0.00000E+000,-2.75482E-002,9.44234E-001,0.00000E+000,3.47499E-004,-6.14564E-002,1.00000E+000,26
549,1337,-2.27531E+001,2.77410E-002,8.53407E-002,2.01973E+000,-4.40206E-001,8.93511E-002,2.06907E+000,8.72116E-003,6.74419E-001,0,3.15784E+001,-7.39838E+000,9.98975E-001,-7.88915E+000,-4.89476E+001,9.99019E-001,1.39078E-001,-5.88536E-002,1.67832E-003,1.39092E-001,-5.88678E-002,4.85782E-001,1.39638E-001,1.14863E+000,3.68709E-002,0.00000E+000,-2.69357E-002,9.44240E-001,0.00000E+000,-1.26554E-003,-6.14712E-002,1.00000E+000,26
1309,1317,3.55447E+001,-4.61066E-001,-1.30462E-001,1.07619E+001,-7.60685E-002,-8.74780E-002,1.07626E+001,2.11542E-002,4.55646E-001,0,1.60079E+002,-2.52660E+000,9.97313E-001,1.33349E+002,-2.84017E+001,9.96114E-001,1.64721E-001,-6.21119E-002,3.65510E-003,1.64780E-001,-6.21708E-002,9.22924E-001,1.66426E-001,1.17908E+000,-2.06828E-003,0.00000E+000,8.60913E-003,9.41041E-001,0.00000E+000,-6.89352E-004,-5.23676E-002,1.00000E+000,26
1309,1327,3.55725E+001,1.57297E-001,-1.43414E-001,1.07675E+001,-1.11602E-001,-1.13573E-001,1.07687E+001,2.46972E-002,4.33503E-001,0,1.60259E+002,-3.07507E+000,9.96807E-001,1.33796E+002,-2.87578E+001,9.95205E-001,1.66743E-001,-6.20579E-002,4.38024E-003,1.66827E-001,-6.21417E-002,1.09635E+000,1.68625E-001,1.18147E+000,-1.98696E-003,0.00000E+000,9.76909E-003,9.41080E-001,0.00000E+000,2.33771E-003,-5.22649E-002,1.00000E+000,26
1309,1337,3.56169E+001,7.79243E-001,-1.11209E-001,1.07768E+001,-1.52546E-001,-1.41447E-001,1.07788E+001,2.40142E-002,4.61160E-001,0,1.60485E+002,-3.69755E+000,9.97848E-001,1.34550E+002,-2.91347E+001,9.97134E-001,1.68768E-001,-6.19757E-002,5.13036E-003,1.68882E-001,-6.20897E-002,1.27307E+000,1.70843E-001,1.18389E+000,-1.85801E-003,0.00000E+000,1.09394E-002,9.41143E-001,0.00000E+000,5.39184E-003,-5.21019E-002,1.00000E+000,26
549,1317,-2.28120E+001,-1.14831E+000,2.56682E-001,1.96738E+000,-3.59123E-001,1.81932E-001,2.00815E+000,1.89472E-002,7.60326E-001,0,3.05061E+001,-6.29232E+000,9.98740E-001,-8.57658E+000,-4.73153E+001,9.97710E-001,1.43856E-001,-5.88249E-002,1.06686E-003,1.43861E-001,-5.88305E-002,3.01578E-001,1.44655E-001,1.15413E+000,3.68980E-002,0.00000E+000,-2.81606E-002,9.44234E-001,0.00000E+000,1.96034E-003,-6.14553E-002,1.00000E+000,26
549,1307,-2.28349E+001,-1.73362E+000,3.49787E-001,1.94286E+000,-3.17433E-001,2.05134E-001,1.97928E+000,1.35254E-002,6.83817E-001,0,3.00526E+001,-5.65218E+000,9.98046E-001,-8.79744E+000,-4.65305E+001,9.97555E-001,1.46236E-001,-5.88064E-002,7.52526E-004,1.46239E-001,-5.88092E-002,2.10277E-001,1.47170E-001,1.15688E+000,3.68916E-002,0.00000E+000,-2.87743E-002,9.44235E-001,0.00000E+000,3.57654E-003,-6.14591E-002,1.00000E+000,26
1309,1287,3.55303E+001,-2.27319E+000,8.83696E-002,1.07721E+001,5.42126E-002,1.85719E-002,1.07723E+001,1.35067E-002,4.76346E-001,0,1.59748E+002,-6.05724E-001,9.98644E-001,1.33284E+002,-2.70782E+001,9.96458E-001,1.58599E-001,-6.21810E-002,1.55014E-003,1.58610E-001,-6.21919E-002,4.02259E-001,1.59836E-001,1.17192E+000,-2.15896E-003,0.00000E+000,5.14532E-003,9.40997E-001,0.00000E+000,-9.72858E-003,-5.24822E-002,1.00000E+000,26
1309,1297,3.55315E+001,-1.68040E+000,-1.35388E-003,1.07699E+001,1.37490E-003,-1.62981E-002,1.07699E+001,1.80366E-002,4.76637E-001,0,1.59884E+002,-1.38497E+000,9.98482E-001,1.33231E+002,-2.76554E+001,9.96287E-001,1.60652E-001,-6.21688E-002,2.24414E-003,1.60674E-001,-6.21914E-002,5.76978E-001,1.62035E-001,1.17430E+000,-2.14609E-003,0.00000E+000,6.29871E-003,9.41003E-001,0.00000E+000,-6.71867E-003,-5.24659E-002,1.00000E+000,26
1309,1307,3.55313E+001,-1.06804E+000,-8.83185E-002,1.07648E+001,-3.02771E-002,-5.36652E-002,1.07650E+001,1.99043E-002,3.95034E-001,0,1.59978E+002,-1.83101E+000,9.98320E-001,1.33160E+002,-2.79740E+001,9.97518E-001,1.62684E-001,-6.21529E-002,2.93788E-003,1.62722E-001,-6.21913E-002,7.48496E-001,1.64221E-001,1.17668E+000,-2.12817E-003,0.00000E+000,7.44861E-003,9.41012E-001,0.00000E+000,-3.71785E-003,-5.24433E-002,1.00000E+000,26
539,1347,-2.34502E+001,6.47207E-001,4.81135E-002,1.94972E+000,-4.51788E-001,5.29883E-002,2.00209E+000,9.74174E-003,6.57101E-001,0,3.05900E+001,-7.47991E+000,9.98560E-001,-8.44181E+000,-4.94813E+001,9.98566E-001,1.36352E-001,-5.85248E-002,2.17512E-003,1.36376E-001,-5.85491E-002,6.39400E-001,1.36830E-001,1.14542E+000,3.95644E-002,0.00000E+000,-2.82348E-002,9.44433E-001,0.00000E+000,-2.45696E-003,-6.00765E-002,1.00000E+000,26
539,1357,-2.34103E+001,1.26007E+000,4.00435E-002,1.97630E+000,-4.78623E-001,2.08046E-002,2.03354E+000,8.94281E-003,6.58715E-001,0,3.10878E+001,-7.84228E+000,9.99047E-001,-7.69677E+000,-5.00645E+001,9.98864E-001,1.34101E-001,-5.85312E-002,2.44039E-003,1.34131E-001,-5.85621E-002,7.25706E-001,1.34490E-001,1.14285E+000,3.95134E-002,0.00000E+000,-2.76715E-002,9.44444E-001,0.00000E+000,-4.07798E-003,-6.01088E-002,1.00000E+000,26
539,1327,-2.35159E+001,-5.46787E-001,1.40241E-001,1.89950E+000,-3.76961E-001,1.23081E-001,1.94045E+000,1.14141E-002,6.60660E-001,0,2.96152E+001,-6.44121E+000,9.97188E-001,-9.47799E+000,-4.79925E+001,9.97040E-001,1.40816E-001,-5.85035E-002,1.62866E-003,1.40830E-001,-5.85168E-002,4.68127E-001,1.41498E-001,1.15053E+000,3.96237E-002,0.00000E+000,-2.93578E-002,9.44420E-001,0.00000E+000,7.75002E-004,-6.00390E-002,1.00000E+000,26
539,1337,-2.34827E+001,5.02918E-002,8.39204E-002,1.92617E+000,-4.12198E-001,8.52732E-002,1.97162E+000,1.04444E-002,6.51077E-001,0,3.01340E+001,-6.93146E+000,9.98193E-001,-8.98577E+000,-4.87169E+001,9.98153E-001,1.38593E-001,-5.85151E-002,1.90311E-003,1.38611E-001,-5.85334E-002,5.53133E-001,1.39168E-001,1.14798E+000,3.95987E-002,0.00000E+000,-2.87975E-002,9.44425E-001,0.00000E+000,-8.37445E-004,-6.00549E-002,1.00000E+000,26
1319,1297,3.62996E+001,-1.67343E+000,-2.93434E-002,1.08710E+001,6.20114E-003,-3.28780E-002,1.08711E+001,1.56629E-002,3.65844E-001,0,1.61325E+002,-1.26976E+000,9.98652E-001,1.35251E+002,-2.74537E+001,9.97065E-001,1.60140E-001,-6.08572E-002,3.09449E-003,1.60183E-001,-6.09005E-002,8.02067E-001,1.61709E-001,1.17371E+000,1.22456E-003,0.00000E+000,5.21000E-003,9.42048E-001,0.00000E+000,-7.04869E-003,-4.82147E-002,1.00000E+000,26
1319,1307,3.63110E+001,-1.06832E+000,-9.84449E-002,1.08743E+001,-3.55112E-002,-6.40230E-002,1.08746E+001,1.91513E-002,3.46359E-001,0,1.61515E+002,-1.90008E+000,9.98303E-001,1.35381E+002,-2.78897E+001,9.97750E-001,1.62485E-001,-6.08374E-002,3.78849E-003,1.62549E-001,-6.09016E-002,9.71606E-001,1.64242E-001,1.17645E+000,1.25904E-003,0.00000E+000,6.34556E-003,9.42063E-001,0.00000E+000,-3.58339E-003,-4.81711E-002,1.00000E+000,26
539,1307,-2.35659E+001,-1.72133E+000,3.39462E-001,1.84784E+000,-2.99148E-001,1.92378E-001,1.88176E+000,9.17351E-003,6.56567E-001,0,2.86116E+001,-5.33533E+000,9.98526E-001,-9.94329E+000,-4.64348E+001,9.98354E-001,1.45226E-001,-5.84692E-002,1.05819E-003,1.45232E-001,-5.84747E-002,2.97639E-001,1.46147E-001,1.15563E+000,3.96175E-002,0.00000E+000,-3.04752E-002,9.44421E-001,0.00000E+000,3.99092E-003,-6.00430E-002,1.00000E+000,26
539,1317,-2.35422E+001,-1.14092E+000,2.31279E-001,1.87388E+000,-3.43533E-001,1.58948E-001,1.91172E+000,1.07169E-002,6.86122E-001,0,2.91155E+001,-5.99148E+000,9.97953E-001,-9.75927E+000,-4.72879E+001,9.97295E-001,1.43027E-001,-5.84875E-002,1.34557E-003,1.43036E-001,-5.84965E-002,3.82557E-001,1.43824E-001,1.15308E+000,3.96266E-002,0.00000E+000,-2.99169E-002,9.44419E-001,0.00000E+000,2.38413E-003,-6.00373E-002,1.00000E+000,26
1319,1287,3.63072E+001,-2.27823E+000,7.08774E-002,1.08797E+001,4.43710E-002,3.85412E-003,1.08798E+001,1.60036E-002,4.33275E-001,0,1.61278E+002,-7.25976E-001,9.98364E-001,1.35452E+002,-2.70532E+001,9.97657E-001,1.57785E-001,-6.08613E-002,2.41499E-003,1.57812E-001,-6.08880E-002,6.32741E-001,1.59177E-001,1.17098E+000,1.21990E-003,0.00000E+000,4.07811E-003,9.42047E-001,0.00000E+000,-1.05028E-002,-4.82206E-002,1.00000E+000,26
529,1327,-2.42414E+001,-5.30471E-001,1.44024E-001,1.80913E+000,-3.55325E-001,1.21833E-001,1.84771E+000,1.03945E-002,6.59109E-001,0,2.82137E+001,-6.09897E+000,9.96985E-001,-1.04942E+001,-4.78554E+001,9.96694E-001,1.40311E-001,-5.77972E-002,1.94996E-003,1.40330E-001,-5.78164E-002,5.63884E-001,1.41053E-001,1.14989E+000,4.15021E-002,0.00000E+000,-3.03648E-002,9.44982E-001,0.00000E+000,1.49606E-003,-5.86753E-002,1.00000E+000,26
529,1307,-2.42931E+001,-1.70341E+000,3.42733E-001,1.75524E+000,-2.76615E-001,1.87144E-001,1.78673E+000,1.23978E-002,6.42425E-001,0,2.71860E+001,-4.96690E+000,9.98750E-001,-1.09839E+001,-4.62745E+001,9.98325E-001,1.44135E-001,-5.77825E-002,1.67920E-003,1.44149E-001,-5.77965E-002,4.76443E-001,1.45089E-001,1.15430E+000,4.14948E-002,0.00000E+000,-3.09262E-002,9.44983E-001,0.00000E+000,4.80780E-003,-5.86808E-002,1.00000E+000,26
529,1317,-2.42693E+001,-1.12242E+000,2.29418E-001,1.78285E+000,-3.19389E-001,1.57780E-001,1.81809E+000,1.00925E-002,6.44712E-001,0,2.77040E+001,-5.58530E+000,9.98707E-001,-1.08145E+001,-4.71234E+001,9.98148E-001,1.42228E-001,-5.77907E-002,1.81822E-003,1.42244E-001,-5.78072E-002,5.20776E-001,1.43073E-001,1.15210E+000,4.15075E-002,0.00000E+000,-3.06457E-002,9.44981E-001,0.00000E+000,3.15301E-003,-5.86713E-002,1.00000E+000,26
