Coordinates.Image X [Pixel],Coordinates.Image Y [Pixel],coor.X [mm],coor.Y [mm],coor.Z [mm],disp.Horizontal Displacement U [mm],disp.Vertical Displacement V [mm],disp.Out-Of-Plane: W [mm],disp.Displacement Magnitude [mm],stats.Sigma [mm],stats.Epipolar Distance [Pixel],stats.Shape Index [-],SameCamera.Horizontal: u [Pixel],SameCamera.Vertical: v [Pixel],SameCamera.Correlation Value 2D [-],CrossCamera.Horizontal: q [Pixel],CrossCamera.Vertical: r [Pixel],CrossCamera.Correlation Value Persp [-],strain.Strain-global frame: Exx [ ],strain.Strain-global frame: Eyy [ ],strain.Strain-global frame: Exy [ ],strain.Maximum Principal Strain: EI [ ],strain.Minimum Principal Strain: EII [ ],strain.Shear Angle Gamma [deg],strain.Von Mises Equivalent Strain [ ],defgradient.F[0,0] [-],defgradient.F[0,1] [-],defgradient.F[0,2] [-],defgradient.F[1,0] [-],defgradient.F[1,1] [-],defgradient.F[1,2] [-],defgradient.F[2,0] [-],defgradient.F[2,1] [-],defgradient.F[2,2] [-],ext.Current Image [#]
929,1317,7.57660E+000,-1.15731E+000,6.90417E-002,7.91267E+000,-5.40953E-001,1.55762E-001,7.93267E+000,1.63086E-002,4.42728E-001,0,1.20547E+002,-9.74369E+000,9.97921E-001,7.75753E+001,-4.31120E+001,9.96338E-001,2.13056E-001,-8.95962E-002,-4.77994E-004,2.13056E-001,-8.95969E-002,-9.04899E-002,2.13952E-001,1.23739E+000,-2.20542E-002,0.00000E+000,1.68246E-002,9.18596E-001,0.00000E+000,-1.66654E-002,-9.85020E-002,1.00000E+000,33
919,1307,6.77111E+000,-1.75220E+000,1.44304E-001,7.77374E+000,-4.86566E-001,2.35821E-001,7.79252E+000,1.90583E-002,4.95022E-001,0,1.18237E+002,-9.03419E+000,9.95760E-001,7.51666E+001,-4.25512E+001,9.93695E-001,2.17004E-001,-8.93204E-002,-1.17656E-003,2.17008E-001,-8.93249E-002,-2.20064E-001,2.18135E-001,1.24231E+000,-1.95457E-002,0.00000E+000,1.34916E-002,9.18962E-001,0.00000E+000,-1.50396E-002,-9.92012E-002,1.00000E+000,33
919,1317,6.75418E+000,-1.17974E+000,3.15110E-002,7.75399E+000,-5.49099E-001,1.73940E-001,7.77536E+000,2.40447E-002,4.56420E-001,0,1.18170E+002,-9.90777E+000,9.92855E-001,7.47602E+001,-4.34776E+001,9.91492E-001,2.14582E-001,-8.93274E-002,-1.38084E-003,2.14588E-001,-8.93337E-002,-2.60320E-001,2.15588E-001,1.23928E+000,-1.95589E-002,0.00000E+000,1.30138E-002,9.18960E-001,0.00000E+000,-1.34555E-002,-9.91943E-002,1.00000E+000,33
919,1327,6.75809E+000,-5.97802E-001,-2.22395E-002,7.74077E+000,-6.14233E-001,1.05058E-001,7.76582E+000,1.80514E-002,5.05529E-001,0,1.18209E+002,-1.08089E+001,9.96462E-001,7.47985E+001,-4.43372E+001,9.95032E-001,2.12130E-001,-8.93426E-002,-1.61342E-003,2.12138E-001,-8.93512E-002,-3.06624E-001,2.13015E-001,1.23622E+000,-1.96386E-002,0.00000E+000,1.25313E-002,9.18948E-001,0.00000E+000,-1.18562E-002,-9.91526E-002,1.00000E+000,33
929,1307,7.58902E+000,-1.72871E+000,1.72953E-001,7.93228E+000,-4.74069E-001,2.28653E-001,7.94972E+000,1.61118E-002,4.96127E-001,0,1.20576E+002,-8.83648E+000,9.98233E-001,7.78927E+001,-4.21443E+001,9.97030E-001,2.15532E-001,-8.95977E-002,-4.70574E-004,2.15533E-001,-8.95985E-002,-8.83617E-002,2.16551E-001,1.24051E+000,-2.20197E-002,0.00000E+000,1.69649E-002,9.18598E-001,0.00000E+000,-1.87989E-002,-9.85256E-002,1.00000E+000,33
929,1327,7.57111E+000,-5.70605E-001,1.94946E-003,7.89374E+000,-5.96589E-001,9.08495E-002,7.91677E+000,1.53674E-002,4.41446E-001,0,1.20488E+002,-1.05202E+001,9.98065E-001,7.74417E+001,-4.38943E+001,9.96944E-001,2.10563E-001,-8.95941E-002,-4.97468E-004,2.10564E-001,-8.95949E-002,-9.49592E-002,2.11342E-001,1.23427E+000,-2.21186E-002,0.00000E+000,1.66841E-002,9.18593E-001,0.00000E+000,-1.45273E-002,-9.84578E-002,1.00000E+000,33
939,1307,8.39868E+000,-1.71141E+000,1.51558E-001,8.08760E+000,-4.63682E-001,1.96865E-001,8.10327E+000,1.78186E-002,4.95024E-001,0,1.22957E+002,-8.62554E+000,9.98314E-001,8.03937E+001,-4.17294E+001,9.97190E-001,2.13848E-001,-8.89310E-002,1.99481E-005,2.13848E-001,-8.89310E-002,3.77483E-003,2.14855E-001,1.23841E+000,-2.50951E-002,0.00000E+000,2.03771E-002,9.19011E-001,0.00000E+000,-2.13328E-002,-9.69540E-002,1.00000E+000,33
939,1317,8.38507E+000,-1.13716E+000,5.65462E-002,8.06600E+000,-5.27644E-001,1.29451E-001,8.08428E+000,1.74976E-002,4.14511E-001,0,1.22878E+002,-9.49769E+000,9.97587E-001,8.00771E+001,-4.26834E+001,9.96077E-001,2.11612E-001,-8.89254E-002,6.94922E-005,2.11612E-001,-8.89254E-002,1.32483E-002,2.12508E-001,1.23559E+000,-2.51300E-002,0.00000E+000,2.03153E-002,9.19010E-001,0.00000E+000,-1.88455E-002,-9.69233E-002,1.00000E+000,33
939,1327,8.38244E+000,-5.42850E-001,-3.02091E-003,8.04828E+000,-5.78949E-001,6.52658E-002,8.06934E+000,1.51354E-002,4.48480E-001,0,1.22833E+002,-1.01951E+001,9.97143E-001,8.00038E+001,-4.33444E+001,9.96244E-001,2.09349E-001,-8.89178E-002,1.06976E-004,2.09349E-001,-8.89179E-002,2.05497E-002,2.10138E-001,1.23274E+000,-2.51959E-002,0.00000E+000,2.02531E-002,9.19009E-001,0.00000E+000,-1.63408E-002,-9.68652E-002,1.00000E+000,33
919,1337,6.76940E+000,-1.53504E-003,-4.65555E-002,7.73004E+000,-6.66559E-001,4.25398E-002,7.75884E+000,1.69934E-002,4.48966E-001,0,1.18252E+002,-1.15022E+001,9.96174E-001,7.50149E+001,-4.50920E+001,9.95645E-001,2.09671E-001,-8.93605E-002,-1.85532E-003,2.09682E-001,-8.93720E-002,-3.55470E-001,2.10442E-001,1.23316E+000,-1.97411E-002,0.00000E+000,1.20492E-002,9.18931E-001,0.00000E+000,-1.02583E-002,-9.90990E-002,1.00000E+000,33
929,1337,7.57834E+000,1.69698E-002,-3.53187E-002,7.88136E+000,-6.56965E-001,2.74744E-002,7.90874E+000,1.54352E-002,4.14848E-001,0,1.20517E+002,-1.13385E+001,9.98327E-001,7.75660E+001,-4.47395E+001,9.97648E-001,2.08049E-001,-8.95915E-002,-5.29002E-004,2.08050E-001,-8.95924E-002,-1.01833E-001,2.08716E-001,1.23114E+000,-2.22126E-002,0.00000E+000,1.65429E-002,9.18589E-001,0.00000E+000,-1.23791E-002,-9.83934E-002,1.00000E+000,33
939,1337,8.38663E+000,4.52847E-002,-4.01586E-002,8.03372E+000,-6.37746E-001,6.60218E-003,8.05900E+000,1.35731E-002,4.41756E-001,0,1.22814E+002,-1.10185E+001,9.98180E-001,8.00805E+001,-4.41699E+001,9.97763E-001,2.07076E-001,-8.89092E-002,1.37683E-004,2.07076E-001,-8.89093E-002,2.66521E-002,2.07764E-001,1.22990E+000,-2.52778E-002,0.00000E+000,2.01909E-002,9.19007E-001,0.00000E+000,-1.38370E-002,-9.67930E-002,1.00000E+000,33
949,1317,9.19982E+000,-1.10775E+000,5.64043E-002,8.22381E+000,-5.07804E-001,1.09673E-001,8.24020E+000,2.62550E-002,4.47791E-001,0,1.25247E+002,-9.16758E+000,9.94250E-001,8.27073E+001,-4.21068E+001,9.91828E-001,2.10097E-001,-8.81469E-002,4.92366E-004,2.10098E-001,-8.81477E-002,9.45882E-002,2.11002E-001,1.23369E+000,-2.79286E-002,0.00000E+000,2.33217E-002,9.19451E-001,0.00000E+000,-2.05292E-002,-9.44950E-002,1.00000E+000,33
949,1327,9.19100E+000,-5.15494E-001,-1.15784E-002,8.20097E+000,-5.59252E-001,4.23832E-002,8.22013E+000,2.28544E-002,4.59381E-001,0,1.25139E+002,-9.87039E+000,9.95473E-001,8.25210E+001,-4.27915E+001,9.93959E-001,2.08252E-001,-8.81344E-002,5.89684E-004,2.08253E-001,-8.81356E-002,1.13994E-001,2.09070E-001,1.23135E+000,-2.79793E-002,0.00000E+000,2.33224E-002,9.19451E-001,0.00000E+000,-1.75832E-002,-9.44312E-002,1.00000E+000,33
949,1337,9.19557E+000,7.27444E-002,-3.97365E-002,8.18728E+000,-6.17997E-001,-4.33680E-003,8.21057E+000,1.66499E-002,4.55550E-001,0,1.25093E+002,-1.07175E+001,9.97133E-001,8.26204E+001,-4.36317E+001,9.96427E-001,2.06390E-001,-8.81200E-002,6.80787E-004,2.06392E-001,-8.81216E-002,1.32443E-001,2.07124E-001,1.22901E+000,-2.80452E-002,0.00000E+000,2.33231E-002,9.19451E-001,0.00000E+000,-1.46300E-002,-9.43481E-002,1.00000E+000,33
949,1307,9.21638E+000,-1.68983E+000,1.49263E-001,8.24806E+000,-4.50872E-001,1.73156E-001,8.26219E+000,2.14702E-002,4.79425E-001,0,1.25380E+002,-8.38366E+000,9.96455E-001,8.30638E+001,-4.12952E+001,9.94854E-001,2.11925E-001,-8.81566E-002,3.86174E-004,2.11925E-001,-8.81571E-002,7.37336E-002,2.12920E-001,1.23602E+000,-2.79008E-002,0.00000E+000,2.33210E-002,9.19451E-001,0.00000E+000,-2.34654E-002,-9.45300E-002,1.00000E+000,33
909,1317,5.95155E+000,-1.19588E+000,2.62615E-002,7.60307E+000,-5.57442E-001,1.70998E-001,7.62540E+000,2.23889E-002,4.47119E-001,0,1.15966E+002,-1.00362E+001,9.90343E-001,7.23227E+001,-4.38245E+001,9.89948E-001,2.16090E-001,-9.00537E-002,-2.36244E-003,2.16108E-001,-9.00720E-002,-4.42104E-001,2.17103E-001,1.24115E+000,-1.68737E-002,0.00000E+000,8.87662E-003,9.18330E-001,0.00000E+000,-9.96925E-003,-9.91047E-002,1.00000E+000,33
909,1327,5.96219E+000,-6.06489E-001,-2.79733E-002,7.59708E+000,-6.15660E-001,1.03401E-001,7.62269E+000,1.83489E-002,4.82300E-001,0,1.16107E+002,-1.08106E+001,9.93073E-001,7.24658E+001,-4.45754E+001,9.94624E-001,2.13715E-001,-9.00662E-002,-2.57193E-003,2.13737E-001,-9.00879E-002,-4.85042E-001,2.14613E-001,1.23820E+000,-1.69481E-002,0.00000E+000,8.47901E-003,9.18320E-001,0.00000E+000,-8.93156E-003,-9.90786E-002,1.00000E+000,33
909,1337,5.97046E+000,-6.14973E-003,-4.61584E-002,7.58319E+000,-6.66821E-001,4.60370E-002,7.61259E+000,1.97242E-002,5.07900E-001,0,1.16083E+002,-1.14910E+001,9.96221E-001,7.26490E+001,-4.52417E+001,9.96216E-001,2.11327E-001,-9.00815E-002,-2.79196E-003,2.11353E-001,-9.01073E-002,-5.30672E-001,2.12116E-001,1.23523E+000,-1.70470E-002,0.00000E+000,8.08038E-003,9.18307E-001,0.00000E+000,-7.89123E-003,-9.90438E-002,1.00000E+000,33
909,1307,5.96120E+000,-1.76716E+000,1.44963E-001,7.61450E+000,-4.93915E-001,2.34094E-001,7.63409E+000,2.10284E-002,4.37579E-001,0,1.15903E+002,-9.13603E+000,9.93035E-001,7.26304E+001,-4.29155E+001,9.88605E-001,2.18433E-001,-9.00489E-002,-2.18112E-003,2.18449E-001,-9.00643E-002,-4.05082E-001,2.19566E-001,1.24407E+000,-1.68655E-002,0.00000E+000,9.27003E-003,9.18332E-001,0.00000E+000,-1.09960E-002,-9.91076E-002,1.00000E+000,33
919,1347,6.79019E+000,6.05245E-001,-5.75506E-002,7.72553E+000,-7.12327E-001,-2.15670E-002,7.75833E+000,2.51356E-002,4.67783E-001,0,1.18390E+002,-1.21040E+001,9.97923E-001,7.54063E+001,-4.56766E+001,9.97306E-001,2.07193E-001,-8.93803E-002,-2.10456E-003,2.07208E-001,-8.93952E-002,-4.06558E-001,2.07856E-001,1.23009E+000,-1.98588E-002,0.00000E+000,1.15652E-002,9.18913E-001,0.00000E+000,-8.65380E-003,-9.90375E-002,1.00000E+000,33
929,1347,7.59575E+000,6.16118E-001,-4.42046E-002,7.87399E+000,-7.09369E-001,-3.13407E-002,7.90594E+000,1.43269E-002,4.24627E-001,0,1.20597E+002,-1.20624E+001,9.98230E-001,7.79070E+001,-4.54501E+001,9.97884E-001,2.05518E-001,-8.95885E-002,-5.70865E-004,2.05519E-001,-8.95896E-002,-1.10835E-001,2.06081E-001,1.22800E+000,-2.23313E-002,0.00000E+000,1.64014E-002,9.18584E-001,0.00000E+000,-1.02262E-002,-9.83120E-002,1.00000E+000,33
939,1347,8.40533E+000,6.44493E-001,-3.73443E-002,8.02795E+000,-6.90193E-001,-3.82030E-002,8.05765E+000,1.86541E-002,4.64318E-001,0,1.22870E+002,-1.17781E+001,9.98111E-001,8.04632E+001,-4.48972E+001,9.97045E-001,2.04783E-001,-8.88991E-002,1.58183E-004,2.04783E-001,-8.88992E-002,3.08607E-002,2.05375E-001,1.22705E+000,-2.53847E-002,0.00000E+000,2.01285E-002,9.19005E-001,0.00000E+000,-1.13240E-002,-9.66989E-002,1.00000E+000,33
949,1347,9.21537E+000,6.67268E-001,-3.73688E-002,8.18056E+000,-6.77503E-001,-5.79109E-002,8.20877E+000,1.65765E-002,4.61550E-001,0,1.25166E+002,-1.15446E+001,9.96968E-001,8.30169E+001,-4.44369E+001,9.95261E-001,2.04506E-001,-8.81020E-002,7.60183E-004,2.04508E-001,-8.81040E-002,1.48851E-001,2.05159E-001,1.22665E+000,-2.81410E-002,0.00000E+000,2.33239E-002,9.19451E-001,0.00000E+000,-1.16597E-002,-9.42274E-002,1.00000E+000,33
959,1317,1.00051E+001,-1.08464E+000,4.41172E-002,8.37356E+000,-4.91761E-001,8.63880E-002,8.38843E+000,2.39197E-002,4.38489E-001,0,1.27507E+002,-8.88644E+000,9.95179E-001,8.51709E+001,-4.16241E+001,9.93837E-001,2.08727E-001,-8.72579E-002,5.01030E-004,2.08728E-001,-8.72588E-002,9.69874E-002,2.09660E-001,1.23194E+000,-3.09047E-002,0.00000E+000,2.56126E-002,9.19988E-001,0.00000E+000,-2.13041E-002,-9.18560E-002,1.00000E+000,33
959,1327,1.00023E+001,-4.92814E-001,-2.89293E-002,8.35839E+000,-5.42883E-001,2.21084E-002,8.37603E+000,3.29113E-002,4.48121E-001,0,1.27508E+002,-9.58862E+000,9.97778E-001,8.50677E+001,-4.23027E+001,9.96651E-001,2.07223E-001,-8.72384E-002,6.83529E-004,2.07224E-001,-8.72400E-002,1.32999E-001,2.08085E-001,1.23002E+000,-3.09414E-002,0.00000E+000,2.57557E-002,9.19991E-001,0.00000E+000,-1.82488E-002,-9.17975E-002,1.00000E+000,33
959,1337,1.00077E+001,9.31231E-002,-4.49479E-002,8.34318E+000,-6.06460E-001,-2.23940E-002,8.36522E+000,2.46981E-002,4.43808E-001,0,1.27431E+002,-1.05017E+001,9.96383E-001,8.52025E+001,-4.32032E+001,9.95652E-001,2.05699E-001,-8.72131E-002,8.56919E-004,2.05702E-001,-8.72156E-002,1.67618E-001,2.06493E-001,1.22809E+000,-3.10028E-002,0.00000E+000,2.58995E-002,9.19995E-001,0.00000E+000,-1.51777E-002,-9.16998E-002,1.00000E+000,33
959,1307,1.00168E+001,-1.66367E+000,1.36855E-001,8.39385E+000,-4.30145E-001,1.53286E-001,8.40627E+000,1.81745E-002,4.75724E-001,0,1.27565E+002,-8.05328E+000,9.96205E-001,8.54520E+001,-4.07648E+001,9.94851E-001,2.10218E-001,-8.72748E-002,3.14046E-004,2.10218E-001,-8.72751E-002,6.04838E-002,2.11224E-001,1.23386E+000,-3.08792E-002,0.00000E+000,2.54698E-002,9.19986E-001,0.00000E+000,-2.43557E-002,-9.18966E-002,1.00000E+000,33
959,1347,1.00217E+001,6.83889E-001,-4.67783E-002,8.33256E+000,-6.67485E-001,-7.07979E-002,8.35956E+000,1.80479E-002,4.25947E-001,0,1.27431E+002,-1.13687E+001,9.96145E-001,8.54988E+001,-4.40681E+001,9.95897E-001,2.04163E-001,-8.71851E-002,1.02522E-003,2.04166E-001,-8.71887E-002,2.01614E-001,2.04890E-001,1.22616E+000,-3.10760E-002,0.00000E+000,2.60434E-002,9.20001E-001,0.00000E+000,-1.21034E-002,-9.15831E-002,1.00000E+000,33
909,1347,5.99056E+000,5.95141E-001,-4.48888E-002,7.57610E+000,-7.17581E-001,-1.58010E-002,7.61003E+000,2.18657E-002,4.81380E-001,0,1.16171E+002,-1.21781E+001,9.97861E-001,7.30564E+001,-4.59627E+001,9.96332E-001,2.08939E-001,-9.00993E-002,-3.02088E-003,2.08969E-001,-9.01298E-002,-5.78724E-001,2.09625E-001,1.23228E+000,-1.71685E-002,0.00000E+000,7.68269E-003,9.18291E-001,0.00000E+000,-6.85334E-003,-9.90012E-002,1.00000E+000,33
899,1327,5.15809E+000,-6.05372E-001,9.63547E-003,7.43665E+000,-6.14488E-001,1.07336E-001,7.46277E+000,1.36669E-002,4.90376E-001,0,1.13717E+002,-1.07702E+001,9.95727E-001,7.01036E+001,-4.47415E+001,9.95880E-001,2.14819E-001,-9.06588E-002,-3.36249E-003,2.14856E-001,-9.06958E-002,-6.30571E-001,2.15723E-001,1.23958E+000,-1.44512E-002,0.00000E+000,4.90682E-003,9.17820E-001,0.00000E+000,-6.09054E-003,-9.92562E-002,1.00000E+000,33
899,1337,5.17538E+000,-9.12251E-003,-3.23597E-002,7.43567E+000,-6.65344E-001,4.33553E-002,7.46550E+000,2.04950E-002,5.00335E-001,0,1.13915E+002,-1.14514E+001,9.98108E-001,7.03769E+001,-4.54282E+001,9.97827E-001,2.12706E-001,-9.06690E-002,-3.53728E-003,2.12748E-001,-9.07102E-002,-6.67933E-001,2.13515E-001,1.23696E+000,-1.45234E-002,0.00000E+000,4.61697E-003,9.17812E-001,0.00000E+000,-5.62136E-003,-9.92433E-002,1.00000E+000,33
899,1347,5.20854E+000,5.87417E-001,-3.01339E-002,7.44181E+000,-7.21031E-001,-1.76714E-002,7.47668E+000,1.76163E-002,4.82099E-001,0,1.14203E+002,-1.22165E+001,9.97941E-001,7.09892E+001,-4.62209E+001,9.97301E-001,2.10584E-001,-9.06828E-002,-3.72635E-003,2.10630E-001,-9.07289E-002,-7.08543E-001,2.11302E-001,1.23434E+000,-1.46300E-002,0.00000E+000,4.32637E-003,9.17800E-001,0.00000E+000,-5.15098E-003,-9.92242E-002,1.00000E+000,33
899,1317,5.15611E+000,-1.18923E+000,8.61434E-002,7.44733E+000,-5.55047E-001,1.79396E-001,7.47014E+000,1.75741E-002,4.85996E-001,0,1.13628E+002,-9.97806E+000,9.94856E-001,7.01417E+001,-4.39336E+001,9.92969E-001,2.16922E-001,-9.06510E-002,-3.19700E-003,2.16955E-001,-9.06842E-002,-5.95463E-001,2.17926E-001,1.24219E+000,-1.44011E-002,0.00000E+000,5.19596E-003,9.17825E-001,0.00000E+000,-6.55856E-003,-9.92652E-002,1.00000E+000,33
899,1307,5.15594E+000,-1.76245E+000,1.80901E-001,7.45417E+000,-4.89334E-001,2.43119E-001,7.47417E+000,1.75673E-002,4.26930E-001,0,1.13500E+002,-9.03323E+000,9.94998E-001,7.02485E+001,-4.30268E+001,9.91326E-001,2.19014E-001,-9.06456E-002,-3.04094E-003,2.19043E-001,-9.06754E-002,-5.62588E-001,2.20122E-001,1.24480E+000,-1.43732E-002,0.00000E+000,5.48415E-003,9.17828E-001,0.00000E+000,-7.02503E-003,-9.92702E-002,1.00000E+000,33
889,1327,4.35652E+000,-6.11756E-001,2.22279E-002,7.28311E+000,-6.17174E-001,1.08362E-001,7.31001E+000,1.18884E-002,4.96990E-001,0,1.11445E+002,-1.07910E+001,9.97240E-001,6.77330E+001,-4.49701E+001,9.96907E-001,2.15984E-001,-8.99889E-002,-4.22574E-003,2.16042E-001,-9.00473E-002,-7.91102E-001,2.17037E-001,1.24104E+000,-1.25697E-002,0.00000E+000,1.61717E-003,9.18538E-001,0.00000E+000,-2.76500E-003,-1.00207E-001,1.00000E+000,33
889,1337,4.36719E+000,-1.59154E-002,-2.64014E-002,7.27678E+000,-6.66813E-001,4.29852E-002,7.30739E+000,1.84912E-002,5.04896E-001,0,1.11567E+002,-1.14582E+001,9.98125E-001,6.78904E+001,-4.56526E+001,9.97616E-001,2.13948E-001,-8.99873E-002,-4.23304E-003,2.14007E-001,-9.00463E-002,-7.97776E-001,2.14901E-001,1.23852E+000,-1.26344E-002,0.00000E+000,1.74324E-003,9.18541E-001,0.00000E+000,-3.55156E-003,-1.00227E-001,1.00000E+000,33
889,1347,4.40082E+000,5.77772E-001,-2.66201E-002,7.28416E+000,-7.24620E-001,-1.78334E-002,7.32014E+000,1.51889E-002,4.84528E-001,0,1.11873E+002,-1.22570E+001,9.97631E-001,6.85059E+001,-4.64868E+001,9.97209E-001,2.11900E-001,-8.99851E-002,-4.25432E-003,2.11960E-001,-9.00450E-002,-8.07226E-001,2.12757E-001,1.23598E+000,-1.27341E-002,0.00000E+000,1.86980E-003,9.18546E-001,0.00000E+000,-4.34111E-003,-1.00258E-001,1.00000E+000,33
969,1297,1.08540E+001,-2.21355E+000,2.35992E-001,8.57635E+000,-3.50243E-001,1.82268E-001,8.58544E+000,2.36686E-002,4.66847E-001,0,1.30108E+002,-6.86168E+000,9.97832E-001,8.85509E+001,-3.93879E+001,9.96306E-001,2.09675E-001,-8.67531E-002,1.42482E-005,2.09675E-001,-8.67531E-002,2.75399E-003,2.10712E-001,1.23322E+000,-3.33996E-002,0.00000E+000,2.70248E-002,9.20193E-001,0.00000E+000,-2.77509E-002,-8.90083E-002,1.00000E+000,33
969,1307,1.08140E+001,-1.65303E+000,9.74136E-002,8.53435E+000,-4.27158E-001,9.94347E-002,8.54561E+000,4.51762E-002,4.50294E-001,0,1.29795E+002,-7.89419E+000,9.97048E-001,8.77414E+001,-4.04285E+001,9.94731E-001,2.08534E-001,-8.67383E-002,2.37794E-004,2.08535E-001,-8.67385E-002,4.61425E-002,2.09515E-001,1.23172E+000,-3.34043E-002,0.00000E+000,2.72139E-002,9.20193E-001,0.00000E+000,-2.45923E-002,-8.89985E-002,1.00000E+000,33
969,1317,1.08135E+001,-1.07108E+000,4.10012E-002,8.52422E+000,-4.86072E-001,6.44046E-002,8.53831E+000,1.48925E-002,4.13326E-001,0,1.29775E+002,-8.76574E+000,9.98574E-001,8.77051E+001,-4.13166E+001,9.98007E-001,2.07382E-001,-8.67177E-002,4.54411E-004,2.07383E-001,-8.67184E-002,8.85270E-002,2.08307E-001,1.23022E+000,-3.34267E-002,0.00000E+000,2.74031E-002,9.20196E-001,0.00000E+000,-2.14315E-002,-8.89511E-002,1.00000E+000,33
889,1317,4.34746E+000,-1.19400E+000,9.67918E-002,7.28614E+000,-5.56748E-001,1.76328E-001,7.30951E+000,1.62639E-002,5.15024E-001,0,1.11255E+002,-9.98378E+000,9.97024E-001,6.76580E+001,-4.41207E+001,9.96281E-001,2.18012E-001,-8.99901E-002,-4.22590E-003,2.18070E-001,-9.00481E-002,-7.85921E-001,2.19169E-001,1.24356E+000,-1.25236E-002,0.00000E+000,1.49127E-003,9.18536E-001,0.00000E+000,-1.97958E-003,-1.00193E-001,1.00000E+000,33
969,1327,1.08054E+001,-4.79557E-001,-2.91269E-002,8.50314E+000,-5.38008E-001,3.73448E-004,8.52014E+000,2.02270E-002,4.46040E-001,0,1.29686E+002,-9.49378E+000,9.97979E-001,8.75265E+001,-4.19935E+001,9.96732E-001,2.06216E-001,-8.66943E-002,6.67986E-004,2.06217E-001,-8.66958E-002,1.30663E-001,2.07086E-001,1.22872E+000,-3.34572E-002,0.00000E+000,2.75927E-002,9.20200E-001,0.00000E+000,-1.82645E-002,-8.88870E-002,1.00000E+000,33
889,1307,4.34158E+000,-1.76947E+000,1.91911E-001,7.28655E+000,-4.94080E-001,2.37412E-001,7.30714E+000,1.99668E-002,4.51687E-001,0,1.11040E+002,-9.07541E+000,9.95683E-001,6.76777E+001,-4.32502E+001,9.93266E-001,2.20028E-001,-8.99909E-002,-4.23473E-003,2.20086E-001,-9.00487E-002,-7.82442E-001,2.21293E-001,1.24607E+000,-1.24994E-002,0.00000E+000,1.36583E-003,9.18534E-001,0.00000E+000,-1.19698E-003,-1.00185E-001,1.00000E+000,33
969,1337,1.08086E+001,1.07084E-001,-5.39310E-002,8.48769E+000,-5.97928E-001,-4.32230E-002,8.50884E+000,2.03017E-002,3.88228E-001,0,1.29605E+002,-1.03537E+001,9.97232E-001,8.76081E+001,-4.28892E+001,9.96887E-001,2.05036E-001,-8.66666E-002,8.76368E-004,2.05039E-001,-8.66693E-002,1.72133E-001,2.05854E-001,1.22721E+000,-3.35005E-002,0.00000E+000,2.77825E-002,9.20205E-001,0.00000E+000,-1.50929E-002,-8.87957E-002,1.00000E+000,33
969,1347,1.08162E+001,7.18225E-001,-5.89857E-002,8.47194E+000,-6.39483E-001,-8.82029E-002,8.49650E+000,1.71943E-002,4.28511E-001,0,1.29510E+002,-1.09311E+001,9.96879E-001,8.77998E+001,-4.34018E+001,9.96404E-001,2.03838E-001,-8.66352E-002,1.08125E-003,2.03842E-001,-8.66392E-002,2.13273E-001,2.04604E-001,1.22570E+000,-3.35550E-002,0.00000E+000,2.79737E-002,9.20212E-001,0.00000E+000,-1.19001E-002,-8.86808E-002,1.00000E+000,33
879,1327,3.56056E+000,-6.12475E-001,4.19908E-002,7.13464E+000,-6.14008E-001,1.15875E-001,7.16195E+000,1.71206E-002,5.05467E-001,0,1.09223E+002,-1.07417E+001,9.97179E-001,6.54714E+001,-4.51252E+001,9.96931E-001,2.16874E-001,-9.02793E-002,-4.71935E-003,2.16946E-001,-9.03518E-002,-8.80063E-001,2.17953E-001,1.24216E+000,-1.07967E-002,0.00000E+000,-8.13645E-004,9.18210E-001,0.00000E+000,-4.87282E-004,-9.94751E-002,1.00000E+000,33
879,1337,3.57077E+000,-2.30562E-002,-1.90474E-002,7.12852E+000,-6.69179E-001,4.05359E-002,7.15997E+000,1.66363E-002,4.90134E-001,0,1.09383E+002,-1.14657E+001,9.96269E-001,6.55945E+001,-4.58937E+001,9.95863E-001,2.15085E-001,-9.02736E-002,-4.64928E-003,2.15156E-001,-9.03444E-002,-8.72095E-001,2.16074E-001,1.23994E+000,-1.08515E-002,0.00000E+000,-5.05934E-004,9.18218E-001,0.00000E+000,-1.83282E-003,-9.95084E-002,1.00000E+000,33
879,1347,3.59783E+000,5.76883E-001,-2.03032E-002,7.13084E+000,-7.20993E-001,-1.49991E-002,7.16721E+000,1.89760E-002,5.02171E-001,0,1.09593E+002,-1.21768E+001,9.96400E-001,6.61087E+001,-4.66158E+001,9.96030E-001,2.13280E-001,-9.02655E-002,-4.58989E-003,2.13350E-001,-9.03348E-002,-8.66101E-001,2.14182E-001,1.23771E+000,-1.09344E-002,0.00000E+000,-1.96331E-004,9.18229E-001,0.00000E+000,-3.18665E-003,-9.95586E-002,1.00000E+000,33
879,1307,3.53020E+000,-1.76778E+000,2.13124E-001,7.12097E+000,-4.90265E-001,2.39153E-001,7.14183E+000,2.24913E-002,4.70762E-001,0,1.08577E+002,-9.00241E+000,9.94818E-001,6.51823E+001,-4.33633E+001,9.92778E-001,2.20425E-001,-9.02859E-002,-4.88019E-003,2.20502E-001,-9.03626E-002,-8.99620E-001,2.21695E-001,1.24659E+000,-1.07403E-002,0.00000E+000,-1.42715E-003,9.18203E-001,0.00000E+000,2.19542E-003,-9.94410E-002,1.00000E+000,33
879,1317,3.54465E+000,-1.19240E+000,1.19611E-001,7.13054E+000,-5.50910E-001,1.85957E-001,7.15421E+000,1.66744E-002,4.32187E-001,0,1.08917E+002,-9.86223E+000,9.97266E-001,6.52984E+001,-4.42908E+001,9.96337E-001,2.18658E-001,-9.02836E-002,-4.79551E-003,2.18733E-001,-9.03580E-002,-8.89082E-001,2.19831E-001,1.24438E+000,-1.07570E-002,0.00000E+000,-1.12144E-003,9.18205E-001,0.00000E+000,8.58651E-004,-9.94511E-002,1.00000E+000,33
979,1307,1.16590E+001,-1.63076E+000,1.38669E-001,8.71907E+000,-4.14588E-001,1.12129E-001,8.72964E+000,2.40475E-002,3.94823E-001,0,1.32443E+002,-7.72012E+000,9.98611E-001,9.09352E+001,-4.00933E+001,9.98564E-001,2.07057E-001,-8.61514E-002,1.89803E-004,2.07057E-001,-8.61515E-002,3.70893E-002,2.08027E-001,1.22982E+000,-3.53216E-002,0.00000E+000,2.84569E-002,9.20442E-001,0.00000E+000,-2.35596E-002,-8.58390E-002,1.00000E+000,33
979,1317,1.16305E+001,-1.04377E+000,4.26488E-002,8.68247E+000,-4.68064E-001,4.46840E-002,8.69519E+000,1.44251E-002,4.15762E-001,0,1.32141E+002,-8.45837E+000,9.97925E-001,9.03897E+001,-4.07918E+001,9.97329E-001,2.06349E-001,-8.61280E-002,4.52386E-004,2.06349E-001,-8.61287E-002,8.86215E-002,2.07286E-001,1.22887E+000,-3.53335E-002,0.00000E+000,2.87332E-002,9.20446E-001,0.00000E+000,-2.05248E-002,-8.58007E-002,1.00000E+000,33
979,1327,1.16137E+001,-4.55742E-001,-2.56678E-002,8.65340E+000,-5.22718E-001,-1.35450E-002,8.66919E+000,1.60370E-002,4.19886E-001,0,1.31914E+002,-9.23311E+000,9.95998E-001,9.00779E+001,-4.15404E+001,9.94719E-001,2.05629E-001,-8.61009E-002,7.12549E-004,2.05631E-001,-8.61027E-002,1.39943E-001,2.06535E-001,1.22793E+000,-3.53515E-002,0.00000E+000,2.90098E-002,9.20451E-001,0.00000E+000,-1.74871E-002,-8.57428E-002,1.00000E+000,33
979,1337,1.16112E+001,1.40113E-001,-6.11704E-002,8.63443E+000,-5.72590E-001,-5.74906E-002,8.65359E+000,2.15498E-002,4.18872E-001,0,1.31781E+002,-9.95901E+000,9.93912E-001,9.00506E+001,-4.22408E+001,9.93437E-001,2.04899E-001,-8.60701E-002,9.70513E-004,2.04902E-001,-8.60733E-002,1.91104E-001,2.05773E-001,1.22698E+000,-3.53756E-002,0.00000E+000,2.92870E-002,9.20458E-001,0.00000E+000,-1.44425E-002,-8.56653E-002,1.00000E+000,33
979,1347,1.16178E+001,7.48498E-001,-5.65317E-002,8.61618E+000,-6.16644E-001,-9.88785E-002,8.63878E+000,2.21449E-002,4.32803E-001,0,1.31635E+002,-1.05913E+001,9.91729E-001,9.02434E+001,-4.28291E+001,9.91223E-001,2.04155E-001,-8.60316E-002,1.22450E-003,2.04160E-001,-8.60367E-002,2.41765E-001,2.04999E-001,1.22603E+000,-3.54122E-002,0.00000E+000,2.95657E-002,9.20469E-001,0.00000E+000,-1.13815E-002,-8.55477E-002,1.00000E+000,33
979,1297,1.16610E+001,-2.19467E+000,2.25368E-001,8.72753E+000,-3.38579E-001,1.63072E-001,8.73561E+000,1.97564E-002,4.52474E-001,0,1.32368E+002,-6.64049E+000,9.98022E-001,9.10535E+001,-3.89808E+001,9.97716E-001,2.07756E-001,-8.61732E-002,-7.40037E-005,2.07756E-001,-8.61732E-002,-1.44256E-002,2.08760E-001,1.23076E+000,-3.53120E-002,0.00000E+000,2.81806E-002,9.20439E-001,0.00000E+000,-2.65947E-002,-8.58698E-002,1.00000E+000,33
869,1317,2.72802E+000,-1.18858E+000,1.13450E-001,6.96230E+000,-5.43072E-001,1.74322E-001,6.98562E+000,1.22773E-002,4.46949E-001,0,1.06456E+002,-9.69047E+000,9.98078E-001,6.26681E+001,-4.43179E+001,9.96473E-001,2.18879E-001,-9.07244E-002,-4.84413E-003,2.18954E-001,-9.08002E-002,-8.96173E-001,2.20014E-001,1.24468E+000,-8.72688E-003,0.00000E+000,-2.87239E-003,9.17726E-001,0.00000E+000,2.83999E-003,-9.86604E-002,1.00000E+000,33
869,1327,2.74655E+000,-6.08547E-001,4.19462E-002,6.96949E+000,-6.04623E-001,1.11997E-001,6.99657E+000,1.73527E-002,5.24890E-001,0,1.06781E+002,-1.05804E+001,9.96668E-001,6.28947E+001,-4.51629E+001,9.95814E-001,2.17479E-001,-9.07208E-002,-4.76853E-003,2.17553E-001,-9.07946E-002,-8.86209E-001,2.18542E-001,1.24293E+000,-8.75693E-003,0.00000E+000,-2.54334E-003,9.17732E-001,0.00000E+000,1.09342E-003,-9.86904E-002,1.00000E+000,33
869,1337,2.76427E+000,-2.46600E-002,-4.77037E-003,6.97041E+000,-6.66086E-001,4.81339E-002,7.00232E+000,1.88846E-002,5.08188E-001,0,1.07010E+002,-1.14181E+001,9.95186E-001,6.31641E+001,-4.60496E+001,9.94377E-001,2.16071E-001,-9.07157E-002,-4.69845E-003,2.16143E-001,-9.07876E-002,-8.77213E-001,2.17063E-001,1.24118E+000,-8.80135E-003,0.00000E+000,-2.21345E-003,9.17740E-001,0.00000E+000,-6.57676E-004,-9.87348E-002,1.00000E+000,33
869,1347,2.78759E+000,5.78280E-001,-1.84470E-002,6.97172E+000,-7.11565E-001,-7.81470E-003,7.00794E+000,2.33686E-002,4.84912E-001,0,1.07205E+002,-1.20330E+001,9.96363E-001,6.35957E+001,-4.67183E+001,9.95718E-001,2.14656E-001,-9.07091E-002,-4.63377E-003,2.14726E-001,-9.07794E-002,-8.69169E-001,2.15578E-001,1.23943E+000,-8.85943E-003,0.00000E+000,-1.88300E-003,9.17751E-001,0.00000E+000,-2.41168E-003,-9.87929E-002,1.00000E+000,33
869,1307,2.72188E+000,-1.76272E+000,2.24645E-001,6.96050E+000,-4.81164E-001,2.42791E-001,6.98134E+000,1.82130E-002,4.87828E-001,0,1.06183E+002,-8.85599E+000,9.95922E-001,6.27202E+001,-4.34048E+001,9.94216E-001,2.20267E-001,-9.07262E-002,-4.92659E-003,2.20345E-001,-9.08042E-002,-9.07347E-001,2.21477E-001,1.24642E+000,-8.71520E-003,0.00000E+000,-3.19996E-003,9.17724E-001,0.00000E+000,4.57875E-003,-9.86487E-002,1.00000E+000,33
989,1307,1.24489E+001,-1.59271E+000,1.08326E-001,8.85211E+000,-3.83512E-001,7.11774E-002,8.86070E+000,1.92164E-002,4.60951E-001,0,1.34498E+002,-7.20297E+000,9.97098E-001,9.31427E+001,-3.93075E+001,9.96592E-001,2.05856E-001,-8.59098E-002,1.22342E-004,2.05856E-001,-8.59099E-002,2.40251E-002,2.06792E-001,1.22827E+000,-3.61925E-002,0.00000E+000,2.88162E-002,9.20430E-001,0.00000E+000,-2.16268E-002,-8.30129E-002,1.00000E+000,33
989,1317,1.24188E+001,-1.00207E+000,2.76667E-002,8.81502E+000,-4.34480E-001,2.46137E-002,8.82575E+000,1.99699E-002,5.23364E-001,0,1.34115E+002,-7.94190E+000,9.97591E-001,9.26014E+001,-3.99596E+001,9.96706E-001,2.05503E-001,-8.58835E-002,4.36587E-004,2.05504E-001,-8.58841E-002,8.58465E-002,2.06425E-001,1.22777E+000,-3.61978E-002,0.00000E+000,2.91910E-002,9.20434E-001,0.00000E+000,-1.87002E-002,-8.29812E-002,1.00000E+000,33
989,1327,1.24203E+001,-4.18434E-001,-2.67390E-002,8.80219E+000,-4.95833E-001,-2.82914E-002,8.81619E+000,2.33377E-002,5.04012E-001,0,1.34116E+002,-8.80956E+000,9.96390E-001,9.25993E+001,-4.08140E+001,9.94615E-001,2.05142E-001,-8.58496E-002,7.48657E-004,2.05144E-001,-8.58515E-002,1.47408E-001,2.06050E-001,1.22727E+000,-3.62088E-002,0.00000E+000,2.95663E-002,9.20442E-001,0.00000E+000,-1.57711E-002,-8.29163E-002,1.00000E+000,33
989,1297,1.24733E+001,-2.17082E+000,2.20972E-001,8.88221E+000,-3.21445E-001,1.44159E-001,8.88919E+000,1.72776E-002,4.52819E-001,0,1.34672E+002,-6.36434E+000,9.96942E-001,9.36558E+001,-3.85019E+001,9.96114E-001,2.06199E-001,-8.59347E-002,-1.92071E-004,2.06199E-001,-8.59348E-002,-3.76706E-002,2.07149E-001,1.22876E+000,-3.61881E-002,0.00000E+000,2.84418E-002,9.20427E-001,0.00000E+000,-2.45490E-002,-8.30388E-002,1.00000E+000,33
989,1337,1.24152E+001,1.70762E-001,-5.79554E-002,8.77791E+000,-5.52255E-001,-8.02806E-002,8.79563E+000,1.89889E-002,4.31739E-001,0,1.33931E+002,-9.61599E+000,9.93555E-001,9.25408E+001,-4.16611E+001,9.93633E-001,2.04772E-001,-8.58106E-002,1.05820E-003,2.04776E-001,-8.58144E-002,2.08647E-001,2.05669E-001,1.22678E+000,-3.62237E-002,0.00000E+000,2.99407E-002,9.20453E-001,0.00000E+000,-1.28477E-002,-8.28289E-002,1.00000E+000,33
989,1347,1.24217E+001,7.77363E-001,-5.56571E-002,8.76159E+000,-5.95931E-001,-1.14019E-001,8.78257E+000,2.07098E-002,4.32377E-001,0,1.33790E+002,-1.02683E+001,9.96513E-001,9.27246E+001,-4.22768E+001,9.96794E-001,2.04392E-001,-8.57678E-002,1.36782E-003,2.04399E-001,-8.57742E-002,2.70086E-001,2.05277E-001,1.22628E+000,-3.62412E-002,0.00000E+000,3.03172E-002,9.20467E-001,0.00000E+000,-9.90913E-003,-8.27257E-002,1.00000E+000,33
859,1327,1.93709E+000,-6.03391E-001,3.73891E-002,6.80828E+000,-5.94782E-001,1.02705E-001,6.83498E+000,1.63431E-002,5.29853E-001,0,1.04414E+002,-1.03835E+001,9.95485E-001,6.03838E+001,-4.51788E+001,9.94818E-001,2.17728E-001,-9.08480E-002,-4.59117E-003,2.17796E-001,-9.09163E-002,-8.52229E-001,2.18784E-001,1.24325E+000,-7.06849E-003,0.00000E+000,-3.52348E-003,9.17527E-001,0.00000E+000,1.93565E-003,-9.77499E-002,1.00000E+000,33
859,1337,1.96002E+000,-1.54413E-002,-4.70081E-003,6.81469E+000,-6.51125E-001,4.41255E-002,6.84587E+000,1.90419E-002,5.29996E-001,0,1.04705E+002,-1.11735E+001,9.94827E-001,6.07450E+001,-4.60055E+001,9.94192E-001,2.16730E-001,-9.08467E-002,-4.57976E-003,2.16798E-001,-9.09148E-002,-8.52872E-001,2.17736E-001,1.24201E+000,-7.09952E-003,0.00000E+000,-3.29213E-003,9.17532E-001,0.00000E+000,-1.06926E-004,-9.78008E-002,1.00000E+000,33
859,1347,1.98380E+000,5.77207E-001,-1.08465E-002,6.81601E+000,-7.07170E-001,-7.38686E-003,6.85260E+000,2.54294E-002,4.78357E-001,0,1.04888E+002,-1.19467E+001,9.96965E-001,6.12002E+001,-4.68656E+001,9.96295E-001,2.15724E-001,-9.08449E-002,-4.57282E-003,2.15792E-001,-9.09131E-002,-8.54379E-001,2.16681E-001,1.24076E+000,-7.14170E-003,0.00000E+000,-3.06002E-003,9.17540E-001,0.00000E+000,-2.15624E-003,-9.78701E-002,1.00000E+000,33
859,1307,1.91170E+000,-1.75662E+000,2.23777E-001,6.79814E+000,-4.72625E-001,2.36117E-001,6.81864E+000,2.15126E-002,5.74750E-001,0,1.03792E+002,-8.70152E+000,9.96833E-001,6.02076E+001,-4.33695E+001,9.96279E-001,2.19698E-001,-9.08493E-002,-4.62701E-003,2.19767E-001,-9.09182E-002,-8.53428E-001,2.20856E-001,1.24573E+000,-7.03957E-003,0.00000E+000,-3.98386E-003,9.17521E-001,0.00000E+000,6.00042E-003,-9.77024E-002,1.00000E+000,33
859,1317,1.92627E+000,-1.19071E+000,1.14858E-001,6.80838E+000,-5.42178E-001,1.69623E-001,6.83204E+000,1.68910E-002,5.07820E-001,0,1.04188E+002,-9.65273E+000,9.96505E-001,6.02883E+001,-4.44284E+001,9.94119E-001,2.18717E-001,-9.08489E-002,-4.60670E-003,2.18786E-001,-9.09174E-002,-8.52376E-001,2.19823E-001,1.24449E+000,-7.04789E-003,0.00000E+000,-3.75402E-003,9.17523E-001,0.00000E+000,3.97114E-003,-9.77161E-002,1.00000E+000,33
999,1337,1.32152E+001,1.97162E-001,-6.04704E-002,8.92285E+000,-5.30291E-001,-8.20491E-002,8.93897E+000,1.49329E-002,4.02760E-001,0,1.36031E+002,-9.30511E+000,9.98670E-001,9.49601E+001,-4.11560E+001,9.97864E-001,2.04504E-001,-8.56646E-002,8.97181E-004,2.04507E-001,-8.56674E-002,1.77152E-001,2.05401E-001,1.22641E+000,-3.65626E-002,0.00000E+000,2.97037E-002,9.20360E-001,0.00000E+000,-1.04943E-002,-7.97504E-002,1.00000E+000,33
999,1347,1.32286E+001,8.04896E-001,-4.83410E-002,8.91102E+000,-5.75980E-001,-1.15739E-001,8.93037E+000,1.40997E-002,4.00372E-001,0,1.35956E+002,-9.96549E+000,9.98727E-001,9.52679E+001,-4.17750E+001,9.98181E-001,2.04458E-001,-8.56226E-002,1.19518E-003,2.04463E-001,-8.56275E-002,2.36062E-001,2.05360E-001,1.22633E+000,-3.65656E-002,0.00000E+000,3.00636E-002,9.20374E-001,0.00000E+000,-7.77767E-003,-7.96455E-002,1.00000E+000,33
999,1307,1.32510E+001,-1.56267E+000,9.86563E-002,8.99695E+000,-3.60499E-001,5.11229E-002,9.00431E+000,1.27356E-002,4.45622E-001,0,1.36656E+002,-6.81534E+000,9.97982E-001,9.55837E+001,-3.87287E+001,9.97614E-001,2.04596E-001,-8.57547E-002,6.91694E-006,2.04596E-001,-8.57547E-002,1.36494E-003,2.05486E-001,1.22664E+000,-3.65580E-002,0.00000E+000,2.86334E-002,9.20339E-001,0.00000E+000,-1.85738E-002,-7.99100E-002,1.00000E+000,33
999,1317,1.32295E+001,-9.76471E-001,1.35688E-002,8.96809E+000,-4.15547E-001,-1.35630E-003,8.97771E+000,2.00195E-002,5.05669E-001,0,1.36422E+002,-7.61726E+000,9.96572E-001,9.51678E+001,-3.94385E+001,9.92832E-001,2.04573E-001,-8.57298E-002,3.04232E-004,2.04573E-001,-8.57302E-002,6.00448E-002,2.05464E-001,1.22657E+000,-3.65589E-002,0.00000E+000,2.89902E-002,9.20343E-001,0.00000E+000,-1.58804E-002,-7.98793E-002,1.00000E+000,33
999,1327,1.32265E+001,-3.98832E-001,-3.48680E-002,8.95224E+000,-4.81584E-001,-4.14717E-002,8.96528E+000,2.18093E-002,4.78743E-001,0,1.36335E+002,-8.58986E+000,9.97370E-001,9.51062E+001,-4.04010E+001,9.95323E-001,2.04542E-001,-8.56997E-002,6.01218E-004,2.04543E-001,-8.57009E-002,1.18684E-001,2.05436E-001,1.22649E+000,-3.65604E-002,0.00000E+000,2.93472E-002,9.20350E-001,0.00000E+000,-1.31854E-002,-7.98257E-002,1.00000E+000,33
999,1297,1.32780E+001,-2.15045E+000,2.09712E-001,9.02930E+000,-3.08315E-001,1.20612E-001,9.03536E+000,1.36495E-002,4.77107E-001,0,1.36878E+002,-6.13861E+000,9.96416E-001,9.61322E+001,-3.80516E+001,9.94046E-001,2.04612E-001,-8.57776E-002,-2.90477E-004,2.04613E-001,-8.57779E-002,-5.73129E-002,2.05501E-001,1.22672E+000,-3.65573E-002,0.00000E+000,2.82769E-002,9.20336E-001,0.00000E+000,-2.12651E-002,-7.99322E-002,1.00000E+000,33
849,1337,1.15327E+000,-1.40061E-002,-7.72309E-004,6.65523E+000,-6.46396E-001,4.01021E-002,6.68667E+000,2.25405E-002,5.69959E-001,0,1.02342E+002,-1.10672E+001,9.96664E-001,5.82999E+001,-4.60816E+001,9.95980E-001,2.17004E-001,-9.05793E-002,-4.14815E-003,2.17060E-001,-9.06352E-002,-7.72519E-001,2.18041E-001,1.24235E+000,-5.69293E-003,0.00000E+000,-3.52048E-003,9.17644E-001,0.00000E+000,-1.27708E-004,-9.63480E-002,1.00000E+000,33
849,1347,1.17166E+000,5.73573E-001,-1.38332E-002,6.65397E+000,-7.04298E-001,-5.65173E-003,6.69114E+000,1.98384E-002,4.76539E-001,0,1.02469E+002,-1.18779E+001,9.97242E-001,5.86573E+001,-4.70283E+001,9.96962E-001,2.16482E-001,-9.05785E-002,-4.14319E-003,2.16538E-001,-9.06344E-002,-7.72908E-001,2.17493E-001,1.24171E+000,-5.71213E-003,0.00000E+000,-3.31975E-003,9.17650E-001,0.00000E+000,-2.12299E-003,-9.64072E-002,1.00000E+000,33
849,1357,1.20515E+000,1.17647E+000,1.91035E-002,6.65736E+000,-7.56478E-001,-5.60793E-002,6.70044E+000,1.66290E-002,4.86290E-001,0,1.02669E+002,-1.26114E+001,9.97579E-001,5.93525E+001,-4.77894E+001,9.97637E-001,2.15951E-001,-9.05773E-002,-4.14231E-003,2.16007E-001,-9.06333E-002,-7.74085E-001,2.16936E-001,1.24105E+000,-5.74149E-003,0.00000E+000,-3.11727E-003,9.17659E-001,0.00000E+000,-4.13577E-003,-9.64978E-002,1.00000E+000,33
849,1327,1.13983E+000,-5.95566E-001,4.35810E-002,6.65702E+000,-5.84077E-001,9.53580E-002,6.68327E+000,2.20351E-002,5.37977E-001,0,1.02185E+002,-1.01722E+001,9.97136E-001,5.80909E+001,-4.51738E+001,9.96813E-001,2.17522E-001,-9.05799E-002,-4.15492E-003,2.17578E-001,-9.06359E-002,-7.72477E-001,2.18586E-001,1.24300E+000,-5.67802E-003,0.00000E+000,-3.72123E-003,9.17640E-001,0.00000E+000,1.86788E-003,-9.63020E-002,1.00000E+000,33
1009,1337,1.40262E+001,2.39138E-001,-6.39845E-002,9.08007E+000,-4.95104E-001,-7.71617E-002,9.09388E+000,2.12343E-002,4.24657E-001,0,1.38285E+002,-8.77947E+000,9.98422E-001,9.75558E+001,-4.03809E+001,9.98549E-001,2.04240E-001,-8.54685E-002,5.47759E-004,2.04241E-001,-8.54695E-002,1.08330E-001,2.05144E-001,1.22607E+000,-3.65124E-002,0.00000E+000,2.88614E-002,9.20369E-001,0.00000E+000,-8.40698E-003,-7.70851E-002,1.00000E+000,33
1009,1347,1.40303E+001,8.19317E-001,-5.20483E-002,9.05671E+000,-5.67961E-001,-1.20154E-001,9.07530E+000,1.48860E-002,3.94945E-001,0,1.38079E+002,-9.85320E+000,9.99293E-001,9.77134E+001,-4.14393E+001,9.98851E-001,2.04452E-001,-8.54366E-002,7.72583E-004,2.04454E-001,-8.54387E-002,1.52698E-001,2.05371E-001,1.22632E+000,-3.65020E-002,0.00000E+000,2.91026E-002,9.20380E-001,0.00000E+000,-6.08449E-003,-7.69874E-002,1.00000E+000,33
1009,1297,1.40768E+001,-2.12905E+000,2.03259E-001,9.17160E+000,-2.92167E-001,1.08721E-001,9.17689E+000,1.75839E-002,3.88669E-001,0,1.38967E+002,-5.85107E+000,9.94686E-001,9.85317E+001,-3.76526E+001,9.93029E-001,2.03338E-001,-8.55485E-002,-3.38399E-004,2.03339E-001,-8.55489E-002,-6.71155E-002,2.04189E-001,1.22509E+000,-3.65280E-002,0.00000E+000,2.79026E-002,9.20354E-001,0.00000E+000,-1.76401E-002,-7.72309E-002,1.00000E+000,33
1009,1307,1.40568E+001,-1.53715E+000,9.67544E-002,9.14628E+000,-3.39698E-001,4.38317E-002,9.15269E+000,1.73777E-002,3.98514E-001,0,1.38834E+002,-6.49942E+000,9.96932E-001,9.81024E+001,-3.82522E+001,9.96915E-001,2.03571E-001,-8.55319E-002,-1.17834E-004,2.03571E-001,-8.55320E-002,-2.33529E-002,2.04435E-001,1.22533E+000,-3.65259E-002,0.00000E+000,2.81417E-002,9.20356E-001,0.00000E+000,-1.53375E-002,-7.72118E-002,1.00000E+000,33
1009,1317,1.40419E+001,-9.51787E-001,1.58881E-002,9.12360E+000,-3.95678E-001,-5.65220E-003,9.13218E+000,1.77644E-002,4.14980E-001,0,1.38684E+002,-7.30668E+000,9.97403E-001,9.77960E+001,-3.90032E+001,9.97145E-001,2.03799E-001,-8.55136E-002,1.03267E-004,2.03799E-001,-8.55137E-002,2.04511E-002,2.04676E-001,1.22558E+000,-3.65230E-002,0.00000E+000,2.83812E-002,9.20359E-001,0.00000E+000,-1.30310E-002,-7.71843E-002,1.00000E+000,33
849,1317,1.11722E+000,-1.17709E+000,1.14471E-001,6.64659E+000,-5.24626E-001,1.62283E-001,6.66924E+000,2.17169E-002,5.77487E-001,0,1.01799E+002,-9.37023E+000,9.96642E-001,5.77996E+001,-4.42885E+001,9.95176E-001,2.18035E-001,-9.05804E-002,-4.16290E-003,2.18091E-001,-9.06365E-002,-7.72675E-001,2.19124E-001,1.24365E+000,-5.66608E-003,0.00000E+000,-3.92144E-003,9.17636E-001,0.00000E+000,3.85805E-003,-9.62652E-002,1.00000E+000,33
1009,1327,1.40336E+001,-3.62232E-001,-3.16101E-002,9.10073E+000,-4.51750E-001,-5.20107E-002,9.11208E+000,1.67726E-002,4.21113E-001,0,1.38509E+002,-8.11751E+000,9.98410E-001,9.76553E+001,-3.97658E+001,9.98331E-001,2.04022E-001,-8.54906E-002,3.25829E-004,2.04022E-001,-8.54910E-002,6.44828E-002,2.04912E-001,1.22582E+000,-3.65174E-002,0.00000E+000,2.86214E-002,9.20365E-001,0.00000E+000,-1.07183E-002,-7.71322E-002,1.00000E+000,33
849,1307,1.09526E+000,-1.75379E+000,2.18125E-001,6.62898E+000,-4.65117E-001,2.23662E-001,6.64904E+000,2.39710E-002,5.71501E-001,0,1.01312E+002,-8.54171E+000,9.96580E-001,5.75930E+001,-4.34207E+001,9.95950E-001,2.18541E-001,-9.05806E-002,-4.17385E-003,2.18598E-001,-9.06369E-002,-7.73436E-001,2.19657E-001,1.24429E+000,-5.66175E-003,0.00000E+000,-4.12109E-003,9.17635E-001,0.00000E+000,5.84273E-003,-9.62519E-002,1.00000E+000,33
839,1337,3.44974E-001,-2.52680E-002,1.82979E-002,6.49355E+000,-6.52625E-001,4.97048E-002,6.52645E+000,4.06702E-002,5.30602E-001,0,9.98998E+001,-1.11517E+001,9.97475E-001,5.58691E+001,-4.64267E+001,9.96483E-001,2.16969E-001,-9.06842E-002,-3.46347E-003,2.17008E-001,-9.07232E-002,-6.44911E-001,2.17977E-001,1.24231E+000,-4.41196E-003,0.00000E+000,-3.12771E-003,9.17379E-001,0.00000E+000,-8.13001E-004,-9.44552E-002,1.00000E+000,33
839,1347,3.63352E-001,5.66765E-001,-1.38904E-002,6.49437E+000,-7.04824E-001,-5.67326E-003,6.53251E+000,1.68454E-002,4.64524E-001,0,1.00090E+002,-1.18606E+001,9.97573E-001,5.61849E+001,-4.72512E+001,9.97015E-001,2.16706E-001,-9.06831E-002,-3.44717E-003,2.16745E-001,-9.07218E-002,-6.42427E-001,2.17701E-001,1.24199E+000,-4.42057E-003,0.00000E+000,-2.91072E-003,9.17385E-001,0.00000E+000,-2.90076E-003,-9.45110E-002,1.00000E+000,33
839,1357,3.99336E-001,1.17617E+000,1.51082E-002,6.50139E+000,-7.49512E-001,-5.57212E-002,6.54469E+000,1.40597E-002,4.69778E-001,0,1.00342E+002,-1.24783E+001,9.98056E-001,5.69134E+001,-4.79067E+001,9.97811E-001,2.16437E-001,-9.06813E-002,-3.43310E-003,2.16475E-001,-9.07197E-002,-6.40369E-001,2.17418E-001,1.24166E+000,-4.43475E-003,0.00000E+000,-2.69185E-003,9.17395E-001,0.00000E+000,-5.00665E-003,-9.46028E-002,1.00000E+000,33
1019,1337,1.48423E+001,2.67932E-001,-5.67403E-002,9.23583E+000,-4.76578E-001,-8.81148E-002,9.24854E+000,1.93006E-002,4.87002E-001,0,1.40570E+002,-8.50223E+000,9.97940E-001,1.00253E+002,-3.98129E+001,9.98021E-001,2.04008E-001,-8.53662E-002,2.26950E-004,2.04008E-001,-8.53664E-002,4.49359E-002,2.04910E-001,1.22578E+000,-3.63868E-002,0.00000E+000,2.80367E-002,9.20357E-001,0.00000E+000,-6.48384E-003,-7.52671E-002,1.00000E+000,33
1019,1347,1.48377E+001,8.50236E-001,-5.20730E-002,9.20938E+000,-5.44464E-001,-1.13191E-001,9.22615E+000,1.71758E-002,4.25802E-001,0,1.40257E+002,-9.51440E+000,9.98543E-001,1.00261E+002,-4.08377E+001,9.98428E-001,2.04383E-001,-8.53432E-002,4.18261E-004,2.04383E-001,-8.53438E-002,8.27145E-002,2.05307E-001,1.22623E+000,-3.63717E-002,0.00000E+000,2.82297E-002,9.20364E-001,0.00000E+000,-4.42389E-003,-7.51982E-002,1.00000E+000,33
839,1327,3.11083E-001,-5.93226E-001,4.09147E-002,6.47925E+000,-5.74343E-001,1.05312E-001,6.50551E+000,3.57493E-002,5.49312E-001,0,9.94955E+001,-1.00240E+001,9.98158E-001,5.52969E+001,-4.52373E+001,9.97382E-001,2.17227E-001,-9.06854E-002,-3.47954E-003,2.17267E-001,-9.07247E-002,-6.47356E-001,2.18249E-001,1.24263E+000,-4.40236E-003,0.00000E+000,-3.34513E-003,9.17373E-001,0.00000E+000,1.27884E-003,-9.43930E-002,1.00000E+000,33
1019,1327,1.48404E+001,-3.37921E-001,-4.13358E-002,9.25224E+000,-4.33697E-001,-5.86542E-002,9.26259E+000,1.83739E-002,4.31517E-001,0,1.40720E+002,-7.84072E+000,9.97705E-001,1.00179E+002,-3.92588E+001,9.97463E-001,2.03628E-001,-8.53873E-002,3.63977E-005,2.03628E-001,-8.53873E-002,7.21565E-003,2.04510E-001,1.22533E+000,-3.63995E-002,0.00000E+000,2.78439E-002,9.20352E-001,0.00000E+000,-8.54330E-003,-7.53248E-002,1.00000E+000,33
1019,1317,1.48494E+001,-9.32637E-001,1.09291E-002,9.27223E+000,-3.83794E-001,-2.36312E-002,9.28020E+000,1.88466E-002,4.30666E-001,0,1.40889E+002,-7.11844E+000,9.97855E-001,1.00338E+002,-3.85856E+001,9.97562E-001,2.03246E-001,-8.54042E-002,-1.51947E-004,2.03246E-001,-8.54043E-002,-3.01609E-002,2.04107E-001,1.22487E+000,-3.64071E-002,0.00000E+000,2.76514E-002,9.20349E-001,0.00000E+000,-1.05979E-002,-7.53597E-002,1.00000E+000,33
839,1317,3.05694E-001,-1.17094E+000,1.12833E-001,6.48182E+000,-5.12718E-001,1.52972E-001,6.50387E+000,1.81691E-002,5.32414E-001,0,9.93684E+001,-9.14328E+000,9.96854E-001,5.52749E+001,-4.43196E+001,9.94428E-001,2.17481E-001,-9.06859E-002,-3.49783E-003,2.17520E-001,-9.07256E-002,-6.50221E-001,2.18515E-001,1.24295E+000,-4.39842E-003,0.00000E+000,-3.56170E-003,9.17370E-001,0.00000E+000,3.36253E-003,-9.43676E-002,1.00000E+000,33
1019,1297,1.48742E+001,-2.10205E+000,1.77913E-001,9.31346E+000,-2.70104E-001,8.40069E-002,9.31775E+000,1.74625E-002,3.98145E-001,0,1.41093E+002,-5.48603E+000,9.98159E-001,1.00881E+002,-3.70783E+001,9.97444E-001,2.02469E-001,-8.54347E-002,-5.26428E-004,2.02470E-001,-8.54357E-002,-1.04764E-001,2.03290E-001,1.22397E+000,-3.64185E-002,0.00000E+000,2.72678E-002,9.20344E-001,0.00000E+000,-1.46943E-002,-7.54114E-002,1.00000E+000,33
1019,1307,1.48547E+001,-1.51621E+000,8.00858E-002,9.28773E+000,-3.25979E-001,2.47042E-002,9.29348E+000,2.14528E-002,4.51333E-001,0,1.40937E+002,-6.27168E+000,9.98444E-001,1.00474E+002,-3.77665E+001,9.97906E-001,2.02860E-001,-8.54206E-002,-3.39406E-004,2.02860E-001,-8.54210E-002,-6.74569E-002,2.03701E-001,1.22443E+000,-3.64142E-002,0.00000E+000,2.74599E-002,9.20346E-001,0.00000E+000,-1.26433E-002,-7.53918E-002,1.00000E+000,33
839,1307,2.96578E-001,-1.74489E+000,2.17038E-001,6.47654E+000,-4.50625E-001,2.12581E-001,6.49567E+000,1.62048E-002,5.10653E-001,0,9.90765E+001,-8.27080E+000,9.95622E-001,5.52694E+001,-4.34147E+001,9.93702E-001,2.17729E-001,-9.06862E-002,-3.51688E-003,2.17769E-001,-9.07263E-002,-6.53234E-001,2.18776E-001,1.24328E+000,-4.39651E-003,0.00000E+000,-3.77767E-003,9.17369E-001,0.00000E+000,5.44055E-003,-9.43552E-002,1.00000E+000,33
829,1337,-4.63976E-001,-2.05516E-002,1.38556E-002,6.33403E+000,-6.40037E-001,5.15866E-002,6.36650E+000,2.91953E-002,5.27709E-001,0,9.75096E+001,-1.09546E+001,9.95764E-001,5.33833E+001,-4.64562E+001,9.94578E-001,2.16341E-001,-9.06226E-002,-2.75850E-003,2.16365E-001,-9.06474E-002,-5.14829E-001,2.17311E-001,1.24153E+000,-3.48716E-003,0.00000E+000,-2.42905E-003,9.17287E-001,0.00000E+000,-1.60088E-003,-9.27443E-002,1.00000E+000,33
829,1347,-4.41515E-001,5.68974E-001,-4.35730E-003,6.33651E+000,-6.97881E-001,-2.35002E-003,6.37483E+000,1.55671E-002,4.83938E-001,0,9.77187E+001,-1.17413E+001,9.95723E-001,5.37943E+001,-4.73402E+001,9.95269E-001,2.16277E-001,-9.06271E-002,-2.83000E-003,2.16304E-001,-9.06532E-002,-5.28270E-001,2.17245E-001,1.24146E+000,-3.48934E-003,0.00000E+000,-2.37510E-003,9.17289E-001,0.00000E+000,-3.78951E-003,-9.28110E-002,1.00000E+000,33
829,1357,-4.11308E-001,1.17450E+000,1.64668E-002,6.33940E+000,-7.45331E-001,-5.35461E-002,6.38329E+000,1.57077E-002,5.03722E-001,0,9.79133E+001,-1.24034E+001,9.97386E-001,5.44167E+001,-4.80331E+001,9.97192E-001,2.16209E-001,-9.06331E-002,-2.90233E-003,2.16237E-001,-9.06605E-002,-5.41879E-001,2.17174E-001,1.24139E+000,-3.49232E-003,0.00000E+000,-2.32092E-003,9.17291E-001,0.00000E+000,-5.98788E-003,-9.29022E-002,1.00000E+000,33
1029,1337,1.56310E+001,2.83646E-001,-7.28504E-002,9.36961E+000,-4.65350E-001,-9.71186E-002,9.38167E+000,1.63423E-002,4.45189E-001,0,1.42523E+002,-8.31972E+000,9.96986E-001,1.02486E+002,-3.94517E+001,9.96670E-001,2.03920E-001,-8.50319E-002,3.38603E-005,2.03920E-001,-8.50319E-002,6.71410E-003,2.04855E-001,1.22567E+000,-3.60083E-002,0.00000E+000,2.72694E-002,9.20576E-001,0.00000E+000,-4.55144E-003,-7.36828E-002,1.00000E+000,33
1029,1347,1.56302E+001,8.85427E-001,-6.52463E-002,9.34587E+000,-5.15566E-001,-1.23075E-001,9.36089E+000,1.58977E-002,4.68660E-001,0,1.42247E+002,-9.08500E+000,9.97852E-001,1.02558E+002,-4.01368E+001,9.97111E-001,2.04419E-001,-8.50086E-002,2.28151E-004,2.04419E-001,-8.50088E-002,4.51652E-002,2.05382E-001,1.22628E+000,-3.59869E-002,0.00000E+000,2.74741E-002,9.20583E-001,0.00000E+000,-2.65195E-003,-7.36164E-002,1.00000E+000,33
1029,1327,1.56420E+001,-3.13976E-001,-4.11257E-002,9.39632E+000,-4.15090E-001,-6.29141E-002,9.40570E+000,1.78378E-002,4.15605E-001,0,1.42803E+002,-7.57791E+000,9.97158E-001,1.02642E+002,-3.87932E+001,9.96602E-001,2.03418E-001,-8.50511E-002,-1.57580E-004,2.03418E-001,-8.50512E-002,-3.12986E-002,2.04326E-001,1.22507E+000,-3.60229E-002,0.00000E+000,2.70652E-002,9.20571E-001,0.00000E+000,-6.44636E-003,-7.37284E-002,1.00000E+000,33
829,1327,-4.91149E-001,-5.94669E-001,3.72125E-002,6.32245E+000,-5.70657E-001,8.89787E-002,6.34877E+000,3.05205E-002,5.74425E-001,0,9.72063E+001,-9.94302E+000,9.96666E-001,5.29142E+001,-4.53468E+001,9.96531E-001,2.16399E-001,-9.06192E-002,-2.68758E-003,2.16422E-001,-9.06427E-002,-5.01506E-001,2.17371E-001,1.24160E+000,-3.48546E-003,0.00000E+000,-2.48281E-003,9.17286E-001,0.00000E+000,5.80190E-004,-9.26921E-002,1.00000E+000,33
829,1307,-4.91279E-001,-1.75287E+000,2.40684E-001,6.33461E+000,-4.53724E-001,2.26733E-001,6.35489E+000,1.94577E-002,4.51854E-001,0,9.69212E+001,-8.31801E+000,9.96762E-001,5.31718E+001,-4.37195E+001,9.94187E-001,2.16501E-001,-9.06163E-002,-2.54726E-003,2.16522E-001,-9.06374E-002,-4.75173E-001,2.17476E-001,1.24174E+000,-3.48411E-003,0.00000E+000,-2.58993E-003,9.17285E-001,0.00000E+000,4.92615E-003,-9.26508E-002,1.00000E+000,33
829,1317,-4.96864E-001,-1.17289E+000,1.18980E-001,6.32597E+000,-5.09383E-001,1.53215E-001,6.34829E+000,2.29151E-002,5.05223E-001,0,9.70422E+001,-9.06919E+000,9.96015E-001,5.29102E+001,-4.44821E+001,9.95505E-001,2.16452E-001,-9.06171E-002,-2.61719E-003,2.16474E-001,-9.06394E-002,-4.88293E-001,2.17426E-001,1.24167E+000,-3.48445E-003,0.00000E+000,-2.53643E-003,9.17285E-001,0.00000E+000,2.75576E-003,-9.26612E-002,1.00000E+000,33
1029,1317,1.56516E+001,-9.14675E-001,4.13664E-003,9.41736E+000,-3.72620E-001,-3.36923E-002,9.42479E+000,1.88550E-002,4.43198E-001,0,1.43013E+002,-6.94271E+000,9.98167E-001,1.02801E+002,-3.81849E+001,9.97075E-001,2.02915E-001,-8.50679E-002,-3.46702E-004,2.02915E-001,-8.50683E-002,-6.89781E-002,2.03796E-001,1.22446E+000,-3.60335E-002,0.00000E+000,2.68620E-002,9.20568E-001,0.00000E+000,-8.33195E-003,-7.37614E-002,1.00000E+000,33
1029,1307,1.56653E+001,-1.49738E+000,9.12975E-002,9.43986E+000,-3.14020E-001,2.62993E-002,9.44511E+000,1.59684E-002,5.12952E-001,0,1.43118E+002,-6.14258E+000,9.98309E-001,1.03098E+002,-3.73670E+001,9.96361E-001,2.02408E-001,-8.50832E-002,-5.34770E-004,2.02409E-001,-8.50842E-002,-1.06577E-001,2.03264E-001,1.22386E+000,-3.60417E-002,0.00000E+000,2.66591E-002,9.20565E-001,0.00000E+000,-1.02148E-002,-7.37870E-002,1.00000E+000,33
1029,1297,1.56821E+001,-2.07727E+000,1.85174E-001,9.46323E+000,-2.52180E-001,8.33967E-002,9.46696E+000,1.58014E-002,4.53968E-001,0,1.43244E+002,-5.24930E+000,9.97691E-001,1.03455E+002,-3.65830E+001,9.96520E-001,2.01897E-001,-8.50973E-002,-7.22540E-004,2.01899E-001,-8.50992E-002,-1.44247E-001,2.02727E-001,1.22325E+000,-3.60479E-002,0.00000E+000,2.64558E-002,9.20563E-001,0.00000E+000,-1.21012E-002,-7.38063E-002,1.00000E+000,33
819,1317,-1.29609E+000,-1.18368E+000,1.30778E-001,6.17230E+000,-5.15687E-001,1.55464E-001,6.19575E+000,2.23783E-002,4.65796E-001,0,9.47417E+001,-9.13936E+000,9.95028E-001,5.06141E+001,-4.47993E+001,9.93845E-001,2.14984E-001,-9.03027E-002,-2.00145E-003,2.14998E-001,-9.03158E-002,-3.75607E-001,2.15911E-001,1.23985E+000,-3.32809E-003,0.00000E+000,-1.42925E-003,9.17403E-001,0.00000E+000,1.90879E-003,-9.06264E-002,1.00000E+000,33
819,1327,-1.29302E+000,-6.05797E-001,5.12435E-002,6.16843E+000,-5.75230E-001,1.04387E-001,6.19607E+000,2.19566E-002,4.83370E-001,0,9.48580E+001,-9.99336E+000,9.96332E-001,5.05824E+001,-4.57021E+001,9.95463E-001,2.15047E-001,-9.03061E-002,-2.14445E-003,2.15062E-001,-9.03211E-002,-4.02352E-001,2.15978E-001,1.23992E+000,-3.32728E-003,0.00000E+000,-1.53023E-003,9.17401E-001,0.00000E+000,-9.41560E-005,-9.06480E-002,1.00000E+000,33
819,1337,-1.27343E+000,-1.89413E-002,5.92680E-003,6.17322E+000,-6.32136E-001,4.84404E-002,6.20569E+000,1.87811E-002,5.03429E-001,0,9.51136E+001,-1.07872E+001,9.95715E-001,5.08865E+001,-4.65370E+001,9.95214E-001,2.15106E-001,-9.03130E-002,-2.28792E-003,2.15123E-001,-9.03301E-002,-4.29175E-001,2.16042E-001,1.24000E+000,-3.32555E-003,0.00000E+000,-1.63175E-003,9.17399E-001,0.00000E+000,-2.10787E-003,-9.06938E-002,1.00000E+000,33
819,1307,-1.30132E+000,-1.76019E+000,2.16526E-001,6.17096E+000,-4.58154E-001,1.97600E-001,6.19110E+000,2.09269E-002,4.74993E-001,0,9.45719E+001,-8.29045E+000,9.96254E-001,5.06272E+001,-4.38750E+001,9.94955E-001,2.14918E-001,-9.03006E-002,-1.85885E-003,2.14929E-001,-9.03119E-002,-3.48927E-001,2.15840E-001,1.23977E+000,-3.32855E-003,0.00000E+000,-1.32863E-003,9.17403E-001,0.00000E+000,3.90468E-003,-9.06142E-002,1.00000E+000,33
819,1347,-1.24376E+000,5.78889E-001,-2.96742E-003,6.18270E+000,-6.82009E-001,1.94726E-003,6.22020E+000,1.78004E-002,5.01225E-001,0,9.54019E+001,-1.14837E+001,9.97346E-001,5.14326E+001,-4.72933E+001,9.97418E-001,2.15162E-001,-9.03222E-002,-2.43170E-003,2.15181E-001,-9.03416E-002,-4.56045E-001,2.16101E-001,1.24007E+000,-3.32319E-003,0.00000E+000,-1.73358E-003,9.17396E-001,0.00000E+000,-4.12768E-003,-9.07562E-002,1.00000E+000,33
819,1357,-1.21737E+000,1.16588E+000,2.44635E-002,6.18144E+000,-7.47975E-001,-4.54452E-002,6.22669E+000,2.22466E-002,5.13898E-001,0,9.55251E+001,-1.24405E+001,9.96558E-001,5.20103E+001,-4.82928E+001,9.96260E-001,2.15213E-001,-9.03348E-002,-2.57588E-003,2.15235E-001,-9.03565E-002,-4.82980E-001,2.16155E-001,1.24015E+000,-3.31996E-003,0.00000E+000,-1.83580E-003,9.17392E-001,0.00000E+000,-6.15527E-003,-9.08417E-002,1.00000E+000,33
1039,1337,1.64362E+001,3.08427E-001,-7.67790E-002,9.51787E+000,-4.47414E-001,-1.00791E-001,9.52891E+000,1.45944E-002,4.63678E-001,0,1.44667E+002,-8.05726E+000,9.97817E-001,1.05004E+002,-3.89449E+001,9.96546E-001,2.03976E-001,-8.45680E-002,-4.29678E-004,2.03976E-001,-8.45687E-002,-8.53204E-002,2.04966E-001,1.22574E+000,-3.58426E-002,0.00000E+000,2.61635E-002,9.20959E-001,0.00000E+000,-2.63891E-003,-7.25934E-002,1.00000E+000,33
1039,1347,1.64328E+001,8.93877E-001,-7.18621E-002,9.49177E+000,-5.11882E-001,-1.27660E-001,9.50642E+000,1.44126E-002,4.10563E-001,0,1.44365E+002,-9.03354E+000,9.98767E-001,1.05027E+002,-3.99139E+001,9.98078E-001,2.04571E-001,-8.45554E-002,-3.12980E-004,2.04571E-001,-8.45558E-002,-6.20226E-002,2.05593E-001,1.22648E+000,-3.58173E-002,0.00000E+000,2.62331E-002,9.20961E-001,0.00000E+000,-9.35091E-004,-7.25346E-002,1.00000E+000,33
1039,1317,1.64515E+001,-8.80098E-001,6.19810E-003,9.56141E+000,-3.42820E-001,-2.76172E-002,9.56760E+000,1.60418E-002,4.04284E-001,0,1.45051E+002,-6.50487E+000,9.97630E-001,1.05249E+002,-3.75720E+001,9.96429E-001,2.02775E-001,-8.45881E-002,-6.55972E-004,2.02777E-001,-8.45896E-002,-1.30790E-001,2.03703E-001,1.22428E+000,-3.58742E-002,0.00000E+000,2.60246E-002,9.20956E-001,0.00000E+000,-6.04454E-003,-7.26669E-002,1.00000E+000,33
1039,1327,1.64456E+001,-2.90630E-001,-3.99503E-002,9.54332E+000,-3.96885E-001,-6.07851E-002,9.55176E+000,1.40399E-002,3.86620E-001,0,1.44905E+002,-7.32079E+000,9.97881E-001,1.05146E+002,-3.83453E+001,9.96926E-001,2.03375E-001,-8.45787E-002,-5.43993E-004,2.03376E-001,-8.45797E-002,-1.08241E-001,2.04333E-001,1.22501E+000,-3.58605E-002,0.00000E+000,2.60938E-002,9.20957E-001,0.00000E+000,-4.34796E-003,-7.26352E-002,1.00000E+000,33
1039,1307,1.64657E+001,-1.47378E+000,6.98035E-002,9.58489E+000,-2.94401E-001,1.07033E-002,9.58942E+000,1.65038E-002,4.37575E-001,0,1.45256E+002,-5.80112E+000,9.97352E-001,1.05511E+002,-3.68935E+001,9.96438E-001,2.02173E-001,-8.45966E-002,-7.66755E-004,2.02175E-001,-8.45987E-002,-1.53194E-001,2.03069E-001,1.22355E+000,-3.58846E-002,0.00000E+000,2.59554E-002,9.20955E-001,0.00000E+000,-7.73997E-003,-7.26912E-002,1.00000E+000,33
1039,1297,1.64848E+001,-2.05974E+000,1.64349E-001,9.61012E+000,-2.39142E-001,6.60009E-002,9.61332E+000,1.71450E-002,4.19670E-001,0,1.45416E+002,-5.01979E+000,9.95926E-001,1.05905E+002,-3.61864E+001,9.95845E-001,2.01567E-001,-8.46042E-002,-8.76269E-004,2.01570E-001,-8.46069E-002,-1.75440E-001,2.02433E-001,1.22282E+000,-3.58915E-002,0.00000E+000,2.58862E-002,9.20954E-001,0.00000E+000,-9.43609E-003,-7.27072E-002,1.00000E+000,33
1049,1337,1.72499E+001,3.33202E-001,-8.40414E-002,9.67347E+000,-4.27456E-001,-1.10777E-001,9.68354E+000,2.05126E-002,4.33862E-001,0,1.46939E+002,-7.76548E+000,9.98866E-001,1.07653E+002,-3.84540E+001,9.97885E-001,2.03954E-001,-8.44903E-002,-1.11598E-003,2.03958E-001,-8.44946E-002,-2.21671E-001,2.04955E-001,1.22573E+000,-3.56015E-002,0.00000E+000,2.46200E-002,9.20983E-001,0.00000E+000,-1.31056E-003,-7.12444E-002,1.00000E+000,33
1049,1347,1.72557E+001,9.24271E-001,-6.23423E-002,9.65410E+000,-4.90235E-001,-1.30396E-001,9.66742E+000,1.60341E-002,4.35957E-001,0,1.46708E+002,-8.72541E+000,9.98678E-001,1.07845E+002,-3.93427E+001,9.97330E-001,2.04662E-001,-8.44903E-002,-1.09262E-003,2.04666E-001,-8.44944E-002,-2.16501E-001,2.05700E-001,1.22660E+000,-3.55683E-002,0.00000E+000,2.45352E-002,9.20980E-001,0.00000E+000,-1.38939E-005,-7.11951E-002,1.00000E+000,33
1049,1307,1.72763E+001,-1.44605E+000,7.97539E-002,9.73585E+000,-2.72283E-001,1.01022E-002,9.73966E+000,2.00551E-002,3.66413E-001,0,1.47416E+002,-5.46743E+000,9.97819E-001,1.08143E+002,-3.64202E+001,9.97145E-001,2.01831E-001,-8.44905E-002,-1.16577E-003,2.01836E-001,-8.44952E-002,-2.33277E-001,2.02725E-001,1.22313E+000,-3.56492E-002,0.00000E+000,2.48726E-002,9.20988E-001,0.00000E+000,-5.17279E-003,-7.13154E-002,1.00000E+000,33
1049,1317,1.72585E+001,-8.54758E-001,1.43719E-002,9.70841E+000,-3.23932E-001,-3.12782E-002,9.71386E+000,1.69373E-002,3.88534E-001,0,1.47165E+002,-6.23559E+000,9.97068E-001,1.07822E+002,-3.71031E+001,9.95673E-001,2.02540E-001,-8.44904E-002,-1.15030E-003,2.02544E-001,-8.44950E-002,-2.29614E-001,2.03469E-001,1.22399E+000,-3.56363E-002,0.00000E+000,2.47886E-002,9.20986E-001,0.00000E+000,-3.88757E-003,-7.12962E-002,1.00000E+000,33
1049,1327,1.72507E+001,-2.72741E-001,-4.33182E-002,9.69146E+000,-3.85099E-001,-6.24320E-002,9.69931E+000,1.13409E-002,3.83253E-001,0,1.47036E+002,-7.15120E+000,9.98088E-001,1.07667E+002,-3.79593E+001,9.96508E-001,2.03247E-001,-8.44904E-002,-1.13523E-003,2.03251E-001,-8.44949E-002,-2.26049E-001,2.04211E-001,1.22486E+000,-3.56242E-002,0.00000E+000,2.47044E-002,9.20985E-001,0.00000E+000,-2.60147E-003,-7.12782E-002,1.00000E+000,33
809,1347,-2.06126E+000,5.64356E-001,-9.83061E-003,6.01353E+000,-6.89045E-001,-5.12750E-004,6.05288E+000,1.45778E-002,4.91478E-001,0,9.28753E+001,-1.15717E+001,9.98426E-001,4.88178E+001,-4.76214E+001,9.98402E-001,2.13897E-001,-8.99433E-002,-2.05299E-003,2.13911E-001,-8.99571E-002,-3.87113E-001,2.14809E-001,1.23850E+000,-3.61418E-003,0.00000E+000,-8.11447E-004,9.17572E-001,0.00000E+000,-4.24471E-003,-8.86531E-002,1.00000E+000,33
809,1357,-2.03370E+000,1.15836E+000,2.73120E-002,6.01296E+000,-7.48853E-001,-4.17055E-002,6.05955E+000,1.75399E-002,4.96358E-001,0,9.29858E+001,-1.24335E+001,9.97680E-001,4.94401E+001,-4.85396E+001,9.97100E-001,2.14097E-001,-8.99660E-002,-2.30364E-003,2.14114E-001,-8.99835E-002,-4.34052E-001,2.15020E-001,1.23876E+000,-3.60301E-003,0.00000E+000,-1.13284E-003,9.17558E-001,0.00000E+000,-6.13135E-003,-8.87343E-002,1.00000E+000,33
809,1327,-2.09960E+000,-6.21217E-001,3.95737E-002,6.00926E+000,-5.86669E-001,9.43700E-002,6.03857E+000,1.40277E-002,5.33114E-001,0,9.25120E+001,-1.01244E+001,9.98142E-001,4.81220E+001,-4.59989E+001,9.96870E-001,2.13491E-001,-8.99149E-002,-1.55321E-003,2.13499E-001,-8.99228E-002,-2.93302E-001,2.14381E-001,1.23799E+000,-3.62772E-003,0.00000E+000,-1.74420E-004,9.17589E-001,0.00000E+000,-5.05280E-004,-8.85548E-002,1.00000E+000,33
809,1337,-2.07911E+000,-3.28398E-002,9.18774E-003,6.01465E+000,-6.40678E-001,5.10033E-002,6.04890E+000,1.27261E-002,5.00073E-001,0,9.27336E+001,-1.08969E+001,9.98054E-001,4.84761E+001,-4.68708E+001,9.98091E-001,2.13695E-001,-8.99276E-002,-1.80301E-003,2.13706E-001,-8.99383E-002,-3.40225E-001,2.14597E-001,1.23825E+000,-3.62172E-003,0.00000E+000,-4.92496E-004,9.17581E-001,0.00000E+000,-2.37243E-003,-8.85984E-002,1.00000E+000,33
809,1307,-2.11008E+000,-1.76053E+000,2.24764E-001,6.00958E+000,-4.53574E-001,2.07777E-001,6.03026E+000,2.55324E-002,5.64673E-001,0,9.21238E+001,-8.25822E+000,9.91492E-001,4.81836E+001,-4.39582E+001,9.90584E-001,2.13072E-001,-8.99044E-002,-1.05280E-003,2.13076E-001,-8.99081E-002,-1.99091E-001,2.13939E-001,1.23748E+000,-3.63204E-003,0.00000E+000,4.59106E-004,9.17594E-001,0.00000E+000,3.21361E-003,-8.85234E-002,1.00000E+000,33
809,1317,-2.10125E+000,-1.18877E+000,1.22309E-001,6.01473E+000,-5.16808E-001,1.49868E-001,6.03875E+000,2.24086E-002,5.47276E-001,0,9.24041E+001,-9.13722E+000,9.97043E-001,4.81853E+001,-4.49258E+001,9.95845E-001,2.13283E-001,-8.99083E-002,-1.30304E-003,2.13289E-001,-8.99139E-002,-2.46236E-001,2.14162E-001,1.23773E+000,-3.63056E-003,0.00000E+000,1.42633E-004,9.17592E-001,0.00000E+000,1.35587E-003,-8.85341E-002,1.00000E+000,33
1049,1297,1.72854E+001,-2.04381E+000,1.62944E-001,9.75357E+000,-2.27998E-001,6.42827E-002,9.75644E+000,1.74168E-002,3.62308E-001,0,1.47474E+002,-4.84474E+000,9.96376E-001,1.08360E+002,-3.58677E+001,9.94806E-001,2.01121E-001,-8.44905E-002,-1.18069E-003,2.01126E-001,-8.44954E-002,-2.36851E-001,2.01980E-001,1.22227E+000,-3.56605E-002,0.00000E+000,2.49566E-002,9.20989E-001,0.00000E+000,-6.45701E-003,-7.13323E-002,1.00000E+000,33
799,1337,-2.88583E+000,-4.11461E-002,5.65417E-003,5.85556E+000,-6.42406E-001,5.14066E-002,5.89092E+000,1.36849E-002,4.97002E-001,0,9.03476E+001,-1.09049E+001,9.98118E-001,4.60403E+001,-4.71037E+001,9.98087E-001,2.11810E-001,-8.95047E-002,-1.27322E-003,2.11815E-001,-8.95100E-002,-2.42101E-001,2.12660E-001,1.23591E+000,-4.01053E-003,0.00000E+000,8.04482E-004,9.17793E-001,0.00000E+000,-2.69481E-003,-8.64146E-002,1.00000E+000,33
799,1347,-2.86638E+000,5.52670E-001,-7.99836E-003,5.85655E+000,-6.94035E-001,7.05687E-003,5.89753E+000,1.56790E-002,4.99526E-001,0,9.04993E+001,-1.16460E+001,9.97480E-001,4.64198E+001,-4.79143E+001,9.97340E-001,2.12072E-001,-8.95264E-002,-1.62095E-003,2.12081E-001,-8.95351E-002,-3.07925E-001,2.12935E-001,1.23624E+000,-4.00108E-003,0.00000E+000,2.78552E-004,9.17778E-001,0.00000E+000,-4.31198E-003,-8.64607E-002,1.00000E+000,33
799,1357,-2.83394E+000,1.15487E+000,2.82244E-002,5.86091E+000,-7.45325E-001,-3.59635E-002,5.90823E+000,1.62049E-002,4.93087E-001,0,9.06883E+001,-1.23696E+001,9.96845E-001,4.71193E+001,-4.87109E+001,9.96368E-001,2.12333E-001,-8.95585E-002,-1.96939E-003,2.12346E-001,-8.95713E-002,-3.73748E-001,2.13209E-001,1.23658E+000,-3.98672E-003,0.00000E+000,-2.51171E-004,9.17756E-001,0.00000E+000,-5.94081E-003,-8.65308E-002,1.00000E+000,33
799,1327,-2.89787E+000,-6.35050E-001,5.60488E-002,5.85807E+000,-5.93363E-001,1.12539E-001,5.88912E+000,2.19441E-002,4.98271E-001,0,9.01924E+001,-1.02516E+001,9.98535E-001,4.58622E+001,-4.63731E+001,9.97041E-001,2.11545E-001,-8.94870E-002,-9.25372E-004,2.11548E-001,-8.94898E-002,-1.76125E-001,2.12382E-001,1.23558E+000,-4.01798E-003,0.00000E+000,1.32951E-003,9.17805E-001,0.00000E+000,-1.08040E-003,-8.63783E-002,1.00000E+000,33
1059,1327,1.80572E+001,-2.58080E-001,-4.33413E-002,9.83972E+000,-3.76938E-001,-6.42999E-002,9.84715E+000,1.71143E-002,4.03871E-001,0,1.49167E+002,-7.05105E+000,9.98523E-001,1.10221E+002,-3.76187E+001,9.97276E-001,2.03375E-001,-8.48509E-002,-1.49539E-003,2.03383E-001,-8.48587E-002,-2.97254E-001,2.04310E-001,1.22504E+000,-3.47153E-002,0.00000E+000,2.32382E-002,9.20612E-001,0.00000E+000,-1.00135E-003,-7.00877E-002,1.00000E+000,33
1059,1337,1.80604E+001,3.53466E-001,-7.40651E-002,9.82517E+000,-4.14104E-001,-1.04268E-001,9.83445E+000,1.39298E-002,4.18239E-001,0,1.49088E+002,-7.58805E+000,9.99069E-001,1.10285E+002,-3.80645E+001,9.98530E-001,2.04102E-001,-8.48581E-002,-1.54169E-003,2.04110E-001,-8.48663E-002,-3.05679E-001,2.05073E-001,1.22594E+000,-3.46912E-002,0.00000E+000,2.30718E-002,9.20608E-001,0.00000E+000,-3.31781E-004,-7.00696E-002,1.00000E+000,33
1059,1347,1.80688E+001,9.45261E-001,-6.13669E-002,9.80808E+000,-4.75546E-001,-1.33914E-001,9.82051E+000,1.97783E-002,3.95529E-001,0,1.48929E+002,-8.50941E+000,9.98859E-001,1.10501E+002,-3.89326E+001,9.97294E-001,2.04830E-001,-8.48668E-002,-1.58396E-003,2.04838E-001,-8.48755E-002,-3.13261E-001,2.05838E-001,1.22683E+000,-3.46566E-002,0.00000E+000,2.29049E-002,9.20601E-001,0.00000E+000,3.39843E-004,-7.00437E-002,1.00000E+000,33
1059,1297,1.80855E+001,-2.02239E+000,1.51086E-001,9.89804E+000,-2.09681E-001,6.06914E-002,9.90045E+000,1.69117E-002,3.04034E-001,0,1.49550E+002,-4.56293E+000,9.97025E-001,1.10795E+002,-3.54422E+001,9.94194E-001,2.01197E-001,-8.48340E-002,-1.34479E-003,2.01203E-001,-8.48404E-002,-2.69372E-001,2.02025E-001,1.22237E+000,-3.47563E-002,0.00000E+000,2.37356E-002,9.20620E-001,0.00000E+000,-3.00267E-003,-7.01184E-002,1.00000E+000,33
1059,1307,1.80776E+001,-1.43005E+000,7.16026E-002,9.88155E+000,-2.58699E-001,1.01807E-002,9.88494E+000,1.75071E-002,3.08931E-001,0,1.49500E+002,-5.28157E+000,9.98145E-001,1.10604E+002,-3.60842E+001,9.97527E-001,2.01922E-001,-8.48394E-002,-1.39556E-003,2.01929E-001,-8.48462E-002,-2.78827E-001,2.02785E-001,1.22326E+000,-3.47445E-002,0.00000E+000,2.35703E-002,9.20618E-001,0.00000E+000,-2.33769E-003,-7.01096E-002,1.00000E+000,33
1059,1317,1.80585E+001,-8.43013E-001,9.18130E-005,9.85313E+000,-3.15437E-001,-3.49864E-002,9.85824E+000,1.84826E-002,3.76862E-001,0,1.49253E+002,-6.12844E+000,9.97660E-001,1.10249E+002,-3.67954E+001,9.96011E-001,2.02648E-001,-8.48449E-002,-1.44618E-003,2.02656E-001,-8.48521E-002,-2.88205E-001,2.03547E-001,1.22415E+000,-3.47319E-002,0.00000E+000,2.34045E-002,9.20615E-001,0.00000E+000,-1.67041E-003,-7.01001E-002,1.00000E+000,33
799,1307,-2.90530E+000,-1.76916E+000,2.36102E-001,5.86014E+000,-4.56568E-001,2.14917E-001,5.88183E+000,3.29680E-002,5.46973E-001,0,8.98669E+001,-8.30955E+000,9.93918E-001,4.59609E+001,-4.42281E+001,9.93796E-001,2.11011E-001,-8.94726E-002,-2.30171E-004,2.11011E-001,-8.94727E-002,-4.38886E-002,2.11822E-001,1.23492E+000,-4.02287E-003,0.00000E+000,2.37300E-003,9.17813E-001,0.00000E+000,2.12821E-003,-8.63544E-002,1.00000E+000,33
799,1317,-2.90396E+000,-1.20032E+000,1.24025E-001,5.86050E+000,-5.20905E-001,1.60867E-001,5.88580E+000,2.68439E-002,5.66928E-001,0,9.00629E+001,-9.22713E+000,9.96428E-001,4.58225E+001,-4.52046E+001,9.95248E-001,2.11279E-001,-8.94757E-002,-5.78032E-004,2.11280E-001,-8.94769E-002,-1.10118E-001,2.12103E-001,1.23525E+000,-4.02235E-003,0.00000E+000,1.85202E-003,9.17812E-001,0.00000E+000,5.26247E-004,-8.63569E-002,1.00000E+000,33
789,1327,-3.69533E+000,-6.40159E-001,5.75738E-002,5.70793E+000,-5.91676E-001,1.19301E-001,5.73976E+000,2.04225E-002,5.08125E-001,0,8.79206E+001,-1.02332E+001,9.98024E-001,4.35865E+001,-4.65583E+001,9.96785E-001,2.09658E-001,-8.90651E-002,-5.81407E-004,2.09659E-001,-8.90662E-002,-1.11515E-001,2.10447E-001,1.23325E+000,-4.62140E-003,0.00000E+000,2.45962E-003,9.18042E-001,0.00000E+000,-1.60256E-003,-8.44780E-002,1.00000E+000,33
789,1337,-3.68199E+000,-4.14504E-002,1.12253E-002,5.70621E+000,-6.36174E-001,5.88804E-002,5.74186E+000,1.64911E-002,5.03743E-001,0,8.80822E+001,-1.08154E+001,9.97222E-001,4.37957E+001,-4.72270E+001,9.96905E-001,2.10039E-001,-8.90883E-002,-1.01075E-003,2.10043E-001,-8.90918E-002,-1.93600E-001,2.10847E-001,1.23372E+000,-4.61031E-003,0.00000E+000,1.75721E-003,9.18025E-001,0.00000E+000,-2.95792E-003,-8.45096E-002,1.00000E+000,33
789,1347,-3.65878E+000,5.51688E-001,-2.09119E-003,5.71066E+000,-6.89512E-001,1.26502E-002,5.75215E+000,1.75900E-002,5.27546E-001,0,8.82925E+001,-1.15753E+001,9.96332E-001,4.42349E+001,-4.80395E+001,9.95812E-001,2.10420E-001,-8.91163E-002,-1.44040E-003,2.10427E-001,-8.91232E-002,-2.75514E-001,2.11246E-001,1.23420E+000,-4.59651E-003,0.00000E+000,1.05262E-003,9.18005E-001,0.00000E+000,-4.31747E-003,-8.45490E-002,1.00000E+000,33
789,1357,-3.63421E+000,1.14856E+000,2.65003E-002,5.70867E+000,-7.44935E-001,-3.14676E-002,5.75715E+000,1.59368E-002,5.26964E-001,0,8.83895E+001,-1.23624E+001,9.95745E-001,4.47965E+001,-4.89015E+001,9.95419E-001,2.10800E-001,-8.91545E-002,-1.86996E-003,2.10812E-001,-8.91661E-002,-3.57171E-001,2.11644E-001,1.23468E+000,-4.57698E-003,0.00000E+000,3.44626E-004,9.17976E-001,0.00000E+000,-5.68358E-003,-8.46048E-002,1.00000E+000,33
1069,1327,1.88650E+001,-2.42531E-001,-4.96405E-002,9.98981E+000,-3.68071E-001,-6.77535E-002,9.99682E+000,1.77762E-002,4.27548E-001,0,1.51329E+002,-6.92571E+000,9.98322E-001,1.12787E+002,-3.72491E+001,9.96669E-001,2.03583E-001,-8.49143E-002,-1.82889E-003,2.03595E-001,-8.49259E-002,-3.63198E-001,2.04525E-001,1.22532E+000,-3.39564E-002,0.00000E+000,2.19745E-002,9.20519E-001,0.00000E+000,9.25399E-005,-6.90640E-002,1.00000E+000,33
1069,1337,1.88604E+001,3.63733E-001,-7.33388E-002,9.96828E+000,-4.08683E-001,-9.70368E-002,9.97713E+000,1.15781E-002,3.88540E-001,0,1.51107E+002,-7.53596E+000,9.98672E-001,1.12741E+002,-3.78181E+001,9.97895E-001,2.04249E-001,-8.49250E-002,-1.91437E-003,2.04261E-001,-8.49377E-002,-3.79283E-001,2.05224E-001,1.22614E+000,-3.39353E-002,0.00000E+000,2.17749E-002,9.20514E-001,0.00000E+000,2.08188E-004,-6.90610E-002,1.00000E+000,33
1069,1347,1.88657E+001,9.61421E-001,-7.18189E-002,9.94976E+000,-4.64149E-001,-1.30097E-001,9.96143E+000,1.18157E-002,4.16608E-001,0,1.50940E+002,-8.37070E+000,9.98881E-001,1.12889E+002,-3.85435E+001,9.98333E-001,2.04917E-001,-8.49380E-002,-1.99697E-003,2.04931E-001,-8.49518E-002,-3.94717E-001,2.05926E-001,1.22696E+000,-3.39055E-002,0.00000E+000,2.15741E-002,9.20507E-001,0.00000E+000,3.24576E-004,-6.90568E-002,1.00000E+000,33
789,1307,-3.69509E+000,-1.78002E+000,2.31611E-001,5.71787E+000,-4.61262E-001,2.17285E-001,5.74056E+000,2.16162E-002,5.16807E-001,0,8.77353E+001,-8.35604E+000,9.96265E-001,4.37894E+001,-4.45044E+001,9.93003E-001,2.08893E-001,-8.90455E-002,2.77140E-004,2.08893E-001,-8.90458E-002,5.32960E-002,2.09648E-001,1.23231E+000,-4.62858E-003,0.00000E+000,3.85457E-003,9.18052E-001,0.00000E+000,1.08908E-003,-8.44575E-002,1.00000E+000,33
789,1317,-3.69830E+000,-1.21519E+000,1.40298E-001,5.71090E+000,-5.30626E-001,1.69584E-001,5.73800E+000,2.22076E-002,5.47249E-001,0,8.77954E+001,-9.38198E+000,9.96647E-001,4.36287E+001,-4.55842E+001,9.92798E-001,2.09276E-001,-8.90540E-002,-1.52080E-004,2.09276E-001,-8.90541E-002,-2.92078E-002,2.10048E-001,1.23278E+000,-4.62579E-003,0.00000E+000,3.15771E-003,9.18048E-001,0.00000E+000,-2.55563E-004,-8.44655E-002,1.00000E+000,33
1069,1297,1.88733E+001,-2.00372E+000,1.32137E-001,1.00315E+001,-1.94323E-001,5.75642E-002,1.00336E+001,2.18594E-002,3.38603E-001,0,1.51460E+002,-4.35342E+000,9.95083E-001,1.13030E+002,-3.49997E+001,9.91308E-001,2.01585E-001,-8.48873E-002,-1.56390E-003,2.01594E-001,-8.48958E-002,-3.12774E-001,2.02428E-001,1.22287E+000,-3.39982E-002,0.00000E+000,2.25732E-002,9.20530E-001,0.00000E+000,-2.54355E-004,-6.90699E-002,1.00000E+000,33
1069,1307,1.88699E+001,-1.41455E+000,5.07828E-002,1.00207E+001,-2.45854E-001,1.01315E-002,1.00237E+001,1.49180E-002,3.21397E-001,0,1.51487E+002,-5.11022E+000,9.97936E-001,1.12906E+002,-3.56954E+001,9.96528E-001,2.02249E-001,-8.48951E-002,-1.65359E-003,2.02258E-001,-8.49046E-002,-3.29938E-001,2.03124E-001,1.22369E+000,-3.39888E-002,0.00000E+000,2.23746E-002,9.20527E-001,0.00000E+000,-1.39289E-004,-6.90686E-002,1.00000E+000,33
1069,1317,1.88691E+001,-8.20945E-001,-3.56499E-003,1.00071E+001,-2.99217E-001,-3.24706E-002,1.00116E+001,1.53788E-002,4.25042E-001,0,1.51447E+002,-5.91708E+000,9.98584E-001,1.12867E+002,-3.63196E+001,9.96856E-001,2.02916E-001,-8.49047E-002,-1.74127E-003,2.02927E-001,-8.49152E-002,-3.46614E-001,2.03824E-001,1.22450E+000,-3.39727E-002,0.00000E+000,2.21746E-002,9.20523E-001,0.00000E+000,-2.33951E-005,-6.90663E-002,1.00000E+000,33
779,1327,-4.48471E+000,-6.39103E-001,6.68291E-002,5.56445E+000,-5.86443E-001,1.28928E-001,5.59676E+000,2.86281E-002,5.42678E-001,0,8.57370E+001,-1.01496E+001,9.97694E-001,4.14605E+001,-4.66519E+001,9.96110E-001,2.07684E-001,-8.83789E-002,-5.44475E-004,2.07685E-001,-8.83799E-002,-1.05369E-001,2.08451E-001,1.23081E+000,-5.51842E-003,0.00000E+000,3.22773E-003,9.18560E-001,0.00000E+000,-1.96665E-003,-8.30478E-002,1.00000E+000,33
779,1337,-4.47155E+000,-5.71555E-002,1.52138E-002,5.56302E+000,-6.46377E-001,6.48984E-002,5.60083E+000,1.57897E-002,5.01068E-001,0,8.59186E+001,-1.09584E+001,9.96454E-001,4.16515E+001,-4.75882E+001,9.96291E-001,2.08282E-001,-8.84082E-002,-1.08458E-003,2.08286E-001,-8.84122E-002,-2.09447E-001,2.09077E-001,1.23155E+000,-5.50164E-003,0.00000E+000,2.28983E-003,9.18539E-001,0.00000E+000,-3.02849E-003,-8.30718E-002,1.00000E+000,33
779,1347,-4.45542E+000,5.42073E-001,2.33330E-004,5.56001E+000,-6.92682E-001,1.40660E-002,5.60301E+000,1.96906E-002,5.10382E-001,0,8.60250E+001,-1.16076E+001,9.95088E-001,4.19803E+001,-4.83134E+001,9.94218E-001,2.08881E-001,-8.84449E-002,-1.62439E-003,2.08889E-001,-8.84537E-002,-3.13014E-001,2.09704E-001,1.23230E+000,-5.47964E-003,0.00000E+000,1.34887E-003,9.18511E-001,0.00000E+000,-4.09378E-003,-8.31034E-002,1.00000E+000,33
779,1357,-4.43390E+000,1.14313E+000,2.72122E-002,5.55593E+000,-7.43496E-001,-2.78965E-002,5.60552E+000,1.58303E-002,5.28913E-001,0,8.60817E+001,-1.23315E+001,9.95745E-001,4.24942E+001,-4.91002E+001,9.95471E-001,2.09481E-001,-8.84921E-002,-2.16479E-003,2.09496E-001,-8.85078E-002,-4.16228E-001,2.10334E-001,1.23304E+000,-5.45021E-003,0.00000E+000,4.01889E-004,9.18474E-001,0.00000E+000,-5.16590E-003,-8.31456E-002,1.00000E+000,33
779,1317,-4.47833E+000,-1.20704E+000,1.44414E-001,5.57659E+000,-5.16645E-001,1.73231E-001,5.60315E+000,2.75815E-002,5.04447E-001,0,8.57703E+001,-9.14253E+000,9.98269E-001,4.16364E+001,-4.55928E+001,9.96680E-001,2.07085E-001,-8.83642E-002,-1.22486E-006,2.07085E-001,-8.83642E-002,-2.37535E-004,2.07825E-001,1.23007E+000,-5.52506E-003,0.00000E+000,4.16404E-003,9.18569E-001,0.00000E+000,-9.06629E-004,-8.30382E-002,1.00000E+000,33
1079,1337,1.96661E+001,3.80471E-001,-8.77379E-002,1.01160E+001,-3.98361E-001,-1.07763E-001,1.01244E+001,1.89787E-002,3.90975E-001,0,1.53258E+002,-7.36827E+000,9.97624E-001,1.15267E+002,-3.74215E+001,9.97790E-001,2.04734E-001,-8.51857E-002,-2.24190E-003,2.04751E-001,-8.52030E-002,-4.43023E-001,2.05709E-001,1.22676E+000,-3.31522E-002,0.00000E+000,2.05318E-002,9.20275E-001,0.00000E+000,7.05535E-004,-6.86086E-002,1.00000E+000,33
1079,1347,1.96776E+001,9.78558E-001,-7.88340E-002,1.01033E+001,-4.53609E-001,-1.33835E-001,1.01144E+001,1.06940E-002,4.25602E-001,0,1.53153E+002,-8.22142E+000,9.99045E-001,1.15521E+002,-3.81512E+001,9.98971E-001,2.05342E-001,-8.52046E-002,-2.37460E-003,2.05362E-001,-8.52240E-002,-4.68228E-001,2.06349E-001,1.22751E+000,-3.31248E-002,0.00000E+000,2.02652E-002,9.20265E-001,0.00000E+000,4.40541E-004,-6.86183E-002,1.00000E+000,33
1079,1297,1.96834E+001,-1.97974E+000,1.38551E-001,1.01832E+001,-1.76255E-001,6.38484E-002,1.01849E+001,2.03892E-002,4.22233E-001,0,1.53595E+002,-4.14363E+000,9.96601E-001,1.15661E+002,-3.45017E+001,9.94634E-001,2.02309E-001,-8.51315E-002,-1.69358E-003,2.02319E-001,-8.51415E-002,-3.37567E-001,2.03163E-001,1.22379E+000,-3.32089E-002,0.00000E+000,2.15911E-002,9.20295E-001,0.00000E+000,1.75856E-003,-6.85885E-002,1.00000E+000,33
1079,1307,1.96728E+001,-1.40082E+000,3.99593E-002,1.01664E+001,-2.38054E-001,5.18016E-003,1.01692E+001,1.70800E-002,3.75020E-001,0,1.53584E+002,-5.00968E+000,9.98137E-001,1.15395E+002,-3.53336E+001,9.96833E-001,2.02913E-001,-8.51422E-002,-1.83289E-003,2.02925E-001,-8.51539E-002,-3.64552E-001,2.03797E-001,1.22453E+000,-3.32018E-002,0.00000E+000,2.13275E-002,9.20293E-001,0.00000E+000,1.49652E-003,-6.85910E-002,1.00000E+000,33
1079,1327,1.96698E+001,-2.26879E-001,-5.97187E-002,1.01362E+001,-3.58597E-001,-7.62449E-002,1.01429E+001,2.02396E-002,4.11848E-001,0,1.53451E+002,-6.77102E+000,9.98128E-001,1.15307E+002,-3.68899E+001,9.97569E-001,2.04128E-001,-8.51703E-002,-2.10661E-003,2.04143E-001,-8.51857E-002,-4.17186E-001,2.05072E-001,1.22602E+000,-3.31709E-002,0.00000E+000,2.07967E-002,9.20282E-001,0.00000E+000,9.68916E-004,-6.86019E-002,1.00000E+000,33
1079,1317,1.96680E+001,-8.03728E-001,-1.99583E-002,1.01488E+001,-2.88298E-001,-4.22639E-002,1.01530E+001,1.66844E-002,4.16976E-001,0,1.53504E+002,-5.72377E+000,9.98045E-001,1.15285E+002,-3.59211E+001,9.97101E-001,2.03521E-001,-8.51559E-002,-1.97018E-003,2.03535E-001,-8.51694E-002,-3.91011E-001,2.04435E-001,1.22527E+000,-3.31873E-002,0.00000E+000,2.10620E-002,9.20288E-001,0.00000E+000,1.23258E-003,-6.85961E-002,1.00000E+000,33
779,1307,-4.49198E+000,-1.79613E+000,2.42373E-001,5.56643E+000,-4.72976E-001,2.26559E-001,5.59108E+000,1.99301E-002,5.44346E-001,0,8.54377E+001,-8.54563E+000,9.97656E-001,4.15493E+001,-4.48662E+001,9.95122E-001,2.06487E-001,-8.83530E-002,5.39514E-004,2.06488E-001,-8.83540E-002,1.04842E-001,2.07203E-001,1.22934E+000,-5.52910E-003,0.00000E+000,5.09418E-003,9.18574E-001,0.00000E+000,1.46416E-004,-8.30324E-002,1.00000E+000,33
1089,1337,2.04709E+001,4.01677E-001,-9.77137E-002,1.02623E+001,-3.84202E-001,-1.13833E-001,1.02702E+001,1.63386E-002,4.67236E-001,0,1.55365E+002,-7.17853E+000,9.97256E-001,1.17790E+002,-3.69289E+001,9.96946E-001,2.05779E-001,-8.55595E-002,-2.35821E-003,2.05798E-001,-8.55786E-002,-4.63736E-001,2.06767E-001,1.22808E+000,-3.19848E-002,0.00000E+000,1.93761E-002,9.19921E-001,0.00000E+000,1.28299E-003,-6.80463E-002,1.00000E+000,33
1089,1347,2.04798E+001,9.98693E-001,-8.84905E-002,1.02471E+001,-4.39691E-001,-1.39147E-001,1.02574E+001,1.16349E-002,4.24467E-001,0,1.55218E+002,-8.01418E+000,9.98678E-001,1.18003E+002,-3.77131E+001,9.97835E-001,2.06479E-001,-8.55833E-002,-2.53125E-003,2.06501E-001,-8.56052E-002,-4.96524E-001,2.07503E-001,1.22894E+000,-3.19533E-002,0.00000E+000,1.90432E-002,9.19909E-001,0.00000E+000,7.96242E-004,-6.80642E-002,1.00000E+000,33
769,1347,-5.25094E+000,5.31786E-001,4.90120E-003,5.41084E+000,-6.96661E-001,2.18521E-002,5.45555E+000,1.60901E-002,5.10105E-001,0,8.37578E+001,-1.16647E+001,9.95700E-001,3.97540E+001,-4.85943E+001,9.95413E-001,2.06816E-001,-8.78012E-002,-1.66323E-003,2.06825E-001,-8.78106E-002,-3.23444E-001,2.07609E-001,1.22975E+000,-6.18281E-003,0.00000E+000,1.77711E-003,9.19019E-001,0.00000E+000,-3.72094E-003,-8.20056E-002,1.00000E+000,33
769,1357,-5.22623E+000,1.13728E+000,2.87419E-002,5.41051E+000,-7.42629E-001,-2.14773E-002,5.46128E+000,1.57557E-002,5.39353E-001,0,8.38748E+001,-1.23143E+001,9.96699E-001,4.03125E+001,-4.93018E+001,9.96572E-001,2.07291E-001,-8.78466E-002,-2.18907E-003,2.07307E-001,-8.78628E-002,-4.24939E-001,2.08107E-001,1.23034E+000,-6.16008E-003,0.00000E+000,8.52253E-004,9.18984E-001,0.00000E+000,-4.67690E-003,-8.20423E-002,1.00000E+000,33
769,1327,-5.27754E+000,-6.48067E-001,7.49712E-002,5.41479E+000,-5.90429E-001,1.25186E-001,5.44832E+000,2.04647E-002,5.66523E-001,0,8.34976E+001,-1.02140E+001,9.97415E-001,3.92825E+001,-4.69036E+001,9.95540E-001,2.05869E-001,-8.77415E-002,-6.12857E-004,2.05870E-001,-8.77428E-002,-1.19594E-001,2.06616E-001,1.22858E+000,-6.21055E-003,0.00000E+000,3.61245E-003,9.19063E-001,0.00000E+000,-1.82388E-003,-8.19607E-002,1.00000E+000,33
769,1337,-5.26842E+000,-7.26184E-002,2.00428E-002,5.41188E+000,-6.56111E-001,7.05076E-002,5.45197E+000,1.40304E-002,5.02854E-001,0,8.36301E+001,-1.11012E+001,9.96806E-001,3.94026E+001,-4.79465E+001,9.96478E-001,2.06343E-001,-8.77662E-002,-1.13857E-003,2.06347E-001,-8.77706E-002,-2.21803E-001,2.07112E-001,1.22916E+000,-6.19962E-003,0.00000E+000,2.69589E-003,9.19046E-001,0.00000E+000,-2.77126E-003,-8.19784E-002,1.00000E+000,33
1089,1327,2.04712E+001,-1.98258E-001,-7.96393E-002,1.02810E+001,-3.33439E-001,-8.57341E-002,1.02868E+001,1.78996E-002,4.04407E-001,0,1.55545E+002,-6.39975E+000,9.97239E-001,1.17765E+002,-3.63045E+001,9.96322E-001,2.05078E-001,-8.55390E-002,-2.18214E-003,2.05094E-001,-8.55554E-002,-4.30182E-001,2.06031E-001,1.22722E+000,-3.20088E-002,0.00000E+000,1.97089E-002,9.19930E-001,0.00000E+000,1.76965E-003,-6.80328E-002,1.00000E+000,33
1089,1317,2.04756E+001,-7.95911E-001,-3.48542E-002,1.02984E+001,-2.85368E-001,-5.29426E-002,1.03025E+001,1.68239E-002,4.27905E-001,0,1.55681E+002,-5.68915E+000,9.98171E-001,1.17846E+002,-3.56614E+001,9.97574E-001,2.04380E-001,-8.55218E-002,-2.00424E-003,2.04394E-001,-8.55356E-002,-3.96090E-001,2.05297E-001,1.22636E+000,-3.20258E-002,0.00000E+000,2.00399E-002,9.19937E-001,0.00000E+000,2.25371E-003,-6.80232E-002,1.00000E+000,33
1089,1297,2.04925E+001,-1.95699E+000,1.37350E-001,1.03335E+001,-1.60111E-001,6.33331E-002,1.03349E+001,1.45908E-002,4.38022E-001,0,1.55734E+002,-3.90338E+000,9.98404E-001,1.18268E+002,-3.40407E+001,9.97922E-001,2.02984E-001,-8.54916E-002,-1.64523E-003,2.02994E-001,-8.55010E-002,-3.26754E-001,2.03832E-001,1.22465E+000,-3.20497E-002,0.00000E+000,2.07004E-002,9.19946E-001,0.00000E+000,3.21966E-003,-6.80096E-002,1.00000E+000,33
1089,1307,2.04822E+001,-1.38144E+000,3.25903E-002,1.03166E+001,-2.25819E-001,-2.83996E-003,1.03191E+001,1.42682E-002,4.31207E-001,0,1.55754E+002,-4.83220E+000,9.98593E-001,1.17998E+002,-3.48898E+001,9.98518E-001,2.03681E-001,-8.55052E-002,-1.82576E-003,2.03693E-001,-8.55167E-002,-3.61713E-001,2.04564E-001,1.22550E+000,-3.20411E-002,0.00000E+000,2.03708E-002,9.19943E-001,0.00000E+000,2.73757E-003,-6.80145E-002,1.00000E+000,33
769,1317,-5.28565E+000,-1.21840E+000,1.41477E-001,5.41471E+000,-5.24945E-001,1.70889E-001,5.44278E+000,2.43264E-002,5.17098E-001,0,8.33435E+001,-9.21627E+000,9.98217E-001,3.92084E+001,-4.58634E+001,9.97577E-001,2.05396E-001,-8.77230E-002,-8.89199E-005,2.05396E-001,-8.77230E-002,-1.73811E-002,2.06123E-001,1.22800E+000,-6.21786E-003,0.00000E+000,4.52338E-003,9.19074E-001,0.00000E+000,-8.82311E-004,-8.19488E-002,1.00000E+000,33
1099,1327,2.12709E+001,-1.80605E-001,-8.51133E-002,1.04234E+001,-3.21086E-001,-8.11258E-002,1.04287E+001,2.04106E-002,4.37241E-001,0,1.57551E+002,-6.24857E+000,9.94346E-001,1.20223E+002,-3.59011E+001,9.91751E-001,2.06170E-001,-8.58514E-002,-2.30779E-003,2.06188E-001,-8.58697E-002,-4.52761E-001,2.07145E-001,1.22858E+000,-3.10720E-002,0.00000E+000,1.87108E-002,9.19666E-001,0.00000E+000,2.30573E-003,-6.80689E-002,1.00000E+000,33
1099,1337,2.12800E+001,4.24258E-001,-9.74906E-002,1.04125E+001,-3.67360E-001,-1.10465E-001,1.04195E+001,1.94318E-002,4.56608E-001,0,1.57487E+002,-6.94832E+000,9.95313E-001,1.20404E+002,-3.64804E+001,9.94926E-001,2.07029E-001,-8.58723E-002,-2.47599E-003,2.07050E-001,-8.58932E-002,-4.84294E-001,2.08049E-001,1.22964E+000,-3.10397E-002,0.00000E+000,1.83828E-002,9.19656E-001,0.00000E+000,1.82661E-003,-6.80836E-002,1.00000E+000,33
1099,1347,2.12910E+001,1.02652E+000,-8.64952E-002,1.03971E+001,-4.19439E-001,-1.42376E-001,1.04065E+001,1.53743E-002,4.42762E-001,0,1.57360E+002,-7.72631E+000,9.97044E-001,1.20650E+002,-3.71711E+001,9.96416E-001,2.07890E-001,-8.58967E-002,-2.64059E-003,2.07913E-001,-8.59204E-002,-5.14927E-001,2.08954E-001,1.23070E+000,-3.09974E-002,0.00000E+000,1.80541E-002,9.19643E-001,0.00000E+000,1.34639E-003,-6.81027E-002,1.00000E+000,33
759,1347,-6.03786E+000,5.28811E-001,5.38621E-003,5.26995E+000,-6.93602E-001,2.60648E-002,5.31547E+000,1.44037E-002,5.05576E-001,0,8.16244E+001,-1.15979E+001,9.95654E-001,3.76568E+001,-4.87547E+001,9.95395E-001,2.04784E-001,-8.72366E-002,-1.60453E-003,2.04793E-001,-8.72454E-002,-3.14803E-001,2.05539E-001,1.22725E+000,-6.67963E-003,0.00000E+000,2.23300E-003,9.19462E-001,0.00000E+000,-3.30030E-003,-8.09882E-002,1.00000E+000,33
759,1357,-6.01883E+000,1.12769E+000,2.57452E-002,5.26445E+000,-7.45604E-001,-1.91956E-002,5.31702E+000,1.58002E-002,5.40378E-001,0,8.16692E+001,-1.23407E+001,9.96161E-001,3.81201E+001,-4.95562E+001,9.95634E-001,2.05015E-001,-8.72695E-002,-1.99143E-003,2.05028E-001,-8.72831E-002,-3.90351E-001,2.05781E-001,1.22754E+000,-6.66879E-003,0.00000E+000,1.57188E-003,9.19437E-001,0.00000E+000,-4.21128E-003,-8.10225E-002,1.00000E+000,33
1099,1297,2.12938E+001,-1.94654E+000,1.16322E-001,1.04773E+001,-1.54764E-001,5.03074E-002,1.04786E+001,1.41723E-002,4.68113E-001,0,1.57827E+002,-3.81662E+000,9.97235E-001,1.20725E+002,-3.37224E+001,9.96161E-001,2.03602E-001,-8.58059E-002,-1.78796E-003,2.03613E-001,-8.58170E-002,-3.53956E-001,2.04448E-001,1.22544E+000,-3.11219E-002,0.00000E+000,1.96881E-002,9.19682E-001,0.00000E+000,3.73336E-003,-6.80463E-002,1.00000E+000,33
1099,1307,2.12886E+001,-1.36019E+000,3.14595E-002,1.04655E+001,-2.10298E-001,4.14105E-003,1.04676E+001,1.64266E-002,4.44412E-001,0,1.57842E+002,-4.61814E+000,9.97960E-001,1.20568E+002,-3.44524E+001,9.97282E-001,2.04457E-001,-8.58190E-002,-1.96331E-003,2.04471E-001,-8.58323E-002,-3.87501E-001,2.05346E-001,1.22648E+000,-3.11112E-002,0.00000E+000,1.93629E-002,9.19678E-001,0.00000E+000,3.25836E-003,-6.80511E-002,1.00000E+000,33
1099,1317,2.12781E+001,-7.73464E-001,-4.24248E-002,1.04445E+001,-2.67654E-001,-4.71555E-002,1.04480E+001,2.15496E-002,4.53504E-001,0,1.57734E+002,-5.45256E+000,9.96350E-001,1.20345E+002,-3.51840E+001,9.94726E-001,2.05313E-001,-8.58343E-002,-2.13645E-003,2.05329E-001,-8.58499E-002,-4.20408E-001,2.06245E-001,1.22753E+000,-3.10943E-002,0.00000E+000,1.90372E-002,9.19673E-001,0.00000E+000,2.78252E-003,-6.80588E-002,1.00000E+000,33
759,1327,-6.07452E+000,-6.61450E-001,7.39858E-002,5.26277E+000,-5.97875E-001,1.23677E-001,5.29807E+000,1.67484E-002,5.12723E-001,0,8.12147E+001,-1.02876E+001,9.97162E-001,3.70237E+001,-4.72433E+001,9.97563E-001,2.04324E-001,-8.71937E-002,-8.32758E-004,2.04326E-001,-8.71961E-002,-1.63671E-001,2.05056E-001,1.22668E+000,-6.69267E-003,0.00000E+000,3.54610E-003,9.19492E-001,0.00000E+000,-1.49094E-003,-8.09469E-002,1.00000E+000,33
759,1337,-6.05601E+000,-6.58133E-002,2.78680E-002,5.26906E+000,-6.43632E-001,7.63123E-002,5.30878E+000,1.38808E-002,5.09048E-001,0,8.14587E+001,-1.09077E+001,9.96152E-001,3.73137E+001,-4.79648E+001,9.96218E-001,2.04554E-001,-8.72122E-002,-1.21865E-003,2.04559E-001,-8.72173E-002,-2.39308E-001,2.05298E-001,1.22696E+000,-6.68727E-003,0.00000E+000,2.89028E-003,9.19479E-001,0.00000E+000,-2.39462E-003,-8.09640E-002,1.00000E+000,33
759,1317,-6.07790E+000,-1.23656E+000,1.53494E-001,5.26642E+000,-5.37543E-001,1.77578E-001,5.29676E+000,2.20503E-002,5.58477E-001,0,8.10943E+001,-9.44511E+000,9.97390E-001,3.70530E+001,-4.62543E+001,9.97379E-001,2.04094E-001,-8.71812E-002,-4.48463E-004,2.04094E-001,-8.71819E-002,-8.82156E-002,2.04815E-001,1.22639E+000,-6.69579E-003,0.00000E+000,4.19768E-003,9.19499E-001,0.00000E+000,-5.93119E-004,-8.09370E-002,1.00000E+000,33
749,1317,-6.85883E+000,-1.23908E+000,1.71970E-001,5.12784E+000,-5.36808E-001,1.84466E-001,5.15916E+000,1.65817E-002,5.59813E-001,0,7.89860E+001,-9.42619E+000,9.97504E-001,3.50972E+001,-4.64367E+001,9.96560E-001,2.02776E-001,-8.67107E-002,-6.69707E-004,2.02777E-001,-8.67122E-002,-1.32549E-001,2.03484E-001,1.22478E+000,-6.58277E-003,0.00000E+000,3.72060E-003,9.19885E-001,0.00000E+000,-7.30493E-004,-8.02709E-002,1.00000E+000,33
749,1327,-6.85569E+000,-6.61755E-001,7.35617E-002,5.12554E+000,-5.94154E-001,1.19780E-001,5.16126E+000,1.35270E-002,5.17915E-001,0,7.91600E+001,-1.01909E+001,9.96560E-001,3.50168E+001,-4.73512E+001,9.96723E-001,2.02794E-001,-8.67181E-002,-9.48085E-004,2.02797E-001,-8.67212E-002,-1.87628E-001,2.03504E-001,1.22480E+000,-6.58257E-003,0.00000E+000,3.25052E-003,9.19881E-001,0.00000E+000,-1.38276E-003,-8.02764E-002,1.00000E+000,33
749,1337,-6.84635E+000,-6.89481E-002,2.73943E-002,5.12301E+000,-6.41703E-001,7.34161E-002,5.16357E+000,1.36038E-002,5.55075E-001,0,7.92643E+001,-1.08704E+001,9.96498E-001,3.51655E+001,-4.80990E+001,9.96654E-001,2.02812E-001,-8.67311E-002,-1.22786E-003,2.02817E-001,-8.67363E-002,-2.42968E-001,2.03523E-001,1.22483E+000,-6.58214E-003,0.00000E+000,2.77793E-003,9.19872E-001,0.00000E+000,-2.03852E-003,-8.02885E-002,1.00000E+000,33
749,1347,-6.83183E+000,5.22690E-001,3.05009E-003,5.12113E+000,-6.93453E-001,2.49902E-002,5.16792E+000,1.52560E-002,5.13270E-001,0,7.93819E+001,-1.15793E+001,9.96722E-001,3.54487E+001,-4.89523E+001,9.96617E-001,2.02829E-001,-8.67479E-002,-1.50821E-003,2.02837E-001,-8.67558E-002,-2.98405E-001,2.03542E-001,1.22485E+000,-6.58154E-003,0.00000E+000,2.30429E-003,9.19860E-001,0.00000E+000,-2.69574E-003,-8.03052E-002,1.00000E+000,33
1109,1297,2.21011E+001,-1.92967E+000,1.07987E-001,1.06284E+001,-1.40819E-001,5.68488E-002,1.06295E+001,1.48660E-002,4.67229E-001,0,1.59948E+002,-3.64394E+000,9.96252E-001,1.23302E+002,-3.33462E+001,9.94199E-001,2.04451E-001,-8.64043E-002,-1.83912E-003,2.04463E-001,-8.64159E-002,-3.62270E-001,2.05277E-001,1.22652E+000,-2.95855E-002,0.00000E+000,1.83699E-002,9.19165E-001,0.00000E+000,4.44546E-003,-6.81587E-002,1.00000E+000,33
1109,1307,2.20929E+001,-1.34203E+000,2.23231E-002,1.06136E+001,-1.94977E-001,1.00832E-002,1.06154E+001,1.68852E-002,4.08419E-001,0,1.59921E+002,-4.41015E+000,9.96985E-001,1.23097E+002,-3.40705E+001,9.96293E-001,2.05376E-001,-8.64142E-002,-1.97408E-003,2.05390E-001,-8.64275E-002,-3.87604E-001,2.06247E-001,1.22765E+000,-2.95739E-002,0.00000E+000,1.81316E-002,9.19163E-001,0.00000E+000,3.76742E-003,-6.81656E-002,1.00000E+000,33
1109,1317,2.20842E+001,-7.53213E-001,-4.43037E-002,1.05944E+001,-2.50583E-001,-3.32232E-002,1.05975E+001,2.00875E-002,4.07515E-001,0,1.59810E+002,-5.22753E+000,9.95325E-001,1.22913E+002,-3.47886E+001,9.94129E-001,2.06302E-001,-8.64258E-002,-2.10676E-003,2.06318E-001,-8.64410E-002,-4.12328E-001,2.07219E-001,1.22879E+000,-2.95558E-002,0.00000E+000,1.78926E-002,9.19159E-001,0.00000E+000,3.08765E-003,-6.81765E-002,1.00000E+000,33
749,1357,-6.80792E+000,1.12019E+000,2.86197E-002,5.12102E+000,-7.46042E-001,-1.35546E-002,5.17509E+000,1.84372E-002,5.35072E-001,0,7.94893E+001,-1.23456E+001,9.96650E-001,3.60022E+001,-4.97943E+001,9.96250E-001,2.02846E-001,-8.67712E-002,-1.79023E-003,2.02857E-001,-8.67823E-002,-3.54149E-001,2.03561E-001,1.22487E+000,-6.58067E-003,0.00000E+000,1.82767E-003,9.19843E-001,0.00000E+000,-3.35708E-003,-8.03296E-002,1.00000E+000,33
1109,1327,2.20776E+001,-1.62864E-001,-8.98347E-002,1.05727E+001,-3.07628E-001,-7.51891E-002,1.05774E+001,1.78689E-002,4.10842E-001,0,1.59648E+002,-6.06987E+000,9.94006E-001,1.22796E+002,-3.55269E+001,9.92614E-001,2.07230E-001,-8.64397E-002,-2.23649E-003,2.07247E-001,-8.64567E-002,-4.36313E-001,2.08192E-001,1.22993E+000,-2.95293E-002,0.00000E+000,1.76530E-002,9.19153E-001,0.00000E+000,2.40604E-003,-6.81923E-002,1.00000E+000,33
1109,1337,2.20802E+001,4.41773E-001,-1.09804E-001,1.05546E+001,-3.54747E-001,-1.13379E-001,1.05612E+001,1.83201E-002,4.64552E-001,0,1.59515E+002,-6.77656E+000,9.96586E-001,1.22861E+002,-3.60749E+001,9.96415E-001,2.08159E-001,-8.64560E-002,-2.36320E-003,2.08178E-001,-8.64749E-002,-4.59548E-001,2.09170E-001,1.23107E+000,-2.94937E-002,0.00000E+000,1.74122E-002,9.19146E-001,0.00000E+000,1.72127E-003,-6.82137E-002,1.00000E+000,33
1109,1347,2.20992E+001,1.04356E+000,-8.12582E-002,1.05437E+001,-4.09833E-001,-1.41650E-001,1.05526E+001,1.77869E-002,4.66674E-001,0,1.59437E+002,-7.61380E+000,9.97017E-001,1.23258E+002,-3.68013E+001,9.95883E-001,2.09091E-001,-8.64766E-002,-2.48403E-003,2.09112E-001,-8.64975E-002,-4.81482E-001,2.10149E-001,1.23222E+000,-2.94417E-002,0.00000E+000,1.71705E-002,9.19135E-001,0.00000E+000,1.03364E-003,-6.82448E-002,1.00000E+000,33
739,1337,-7.63251E+000,-8.32856E-002,2.77183E-002,4.98088E+000,-6.50280E-001,7.20684E-002,5.02366E+000,1.60587E-002,5.52433E-001,0,7.71256E+001,-1.09858E+001,9.96146E-001,3.30868E+001,-4.84315E+001,9.95848E-001,2.00982E-001,-8.59403E-002,-1.36516E-003,2.00989E-001,-8.59468E-002,-2.72602E-001,2.01690E-001,1.22259E+000,-6.60760E-003,0.00000E+000,2.54055E-003,9.20600E-001,0.00000E+000,-1.86527E-003,-8.02758E-002,1.00000E+000,33
739,1347,-7.62451E+000,5.12754E-001,5.97005E-003,4.97293E+000,-6.97306E-001,2.78208E-002,5.02165E+000,1.19534E-002,5.22779E-001,0,7.71347E+001,-1.16332E+001,9.98048E-001,3.32784E+001,-4.92194E+001,9.98119E-001,2.00766E-001,-8.59571E-002,-1.65689E-003,2.00775E-001,-8.59667E-002,-3.31081E-001,2.01465E-001,1.22233E+000,-6.61408E-003,0.00000E+000,2.04923E-003,9.20588E-001,0.00000E+000,-2.48472E-003,-8.02911E-002,1.00000E+000,33
739,1357,-7.60004E+000,1.11374E+000,2.82994E-002,4.97396E+000,-7.45766E-001,-1.20050E-002,5.02957E+000,1.37224E-002,5.13028E-001,0,7.72624E+001,-1.23182E+001,9.97234E-001,3.38355E+001,-5.00182E+001,9.97229E-001,2.00547E-001,-8.59805E-002,-1.95152E-003,2.00561E-001,-8.59938E-002,-3.90213E-001,2.01238E-001,1.22206E+000,-6.62357E-003,0.00000E+000,1.55509E-003,9.20570E-001,0.00000E+000,-3.10773E-003,-8.03135E-002,1.00000E+000,33
739,1327,-7.64446E+000,-6.70054E-001,7.26877E-002,4.98067E+000,-5.96668E-001,1.17051E-001,5.01764E+000,1.46680E-002,5.01212E-001,0,7.69823E+001,-1.02059E+001,9.98021E-001,3.28959E+001,-4.75936E+001,9.98024E-001,2.01198E-001,-8.59272E-002,-1.07468E-003,2.01202E-001,-8.59312E-002,-2.14447E-001,2.01914E-001,1.22285E+000,-6.60284E-003,0.00000E+000,3.03098E-003,9.20609E-001,0.00000E+000,-1.24694E-003,-8.02645E-002,1.00000E+000,33
1119,1297,2.29041E+001,-1.91333E+000,9.80212E-002,1.07748E+001,-1.27603E-001,6.20405E-002,1.07758E+001,1.60030E-002,4.28228E-001,0,1.62001E+002,-3.45696E+000,9.97885E-001,1.25814E+002,-3.29946E+001,9.97048E-001,2.05588E-001,-8.63462E-002,-2.08928E-003,2.05603E-001,-8.63612E-002,-4.10020E-001,2.06477E-001,1.22795E+000,-2.83002E-002,0.00000E+000,1.69321E-002,9.19286E-001,0.00000E+000,4.23852E-003,-6.87638E-002,1.00000E+000,33
1119,1307,2.28964E+001,-1.32803E+000,1.59997E-002,1.07590E+001,-1.85224E-001,1.32719E-002,1.07606E+001,1.46032E-002,3.94918E-001,0,1.61967E+002,-4.28364E+000,9.97789E-001,1.25622E+002,-3.37485E+001,9.97631E-001,2.06431E-001,-8.63520E-002,-2.16006E-003,2.06447E-001,-8.63679E-002,-4.22679E-001,2.07363E-001,1.22898E+000,-2.82874E-002,0.00000E+000,1.68205E-002,9.19285E-001,0.00000E+000,3.47658E-003,-6.87732E-002,1.00000E+000,33
1119,1317,2.28950E+001,-7.36892E-001,-4.56708E-002,1.07464E+001,-2.38753E-001,-2.82153E-002,1.07491E+001,1.61050E-002,3.92007E-001,0,1.61947E+002,-5.08018E+000,9.96552E-001,1.25561E+002,-3.44396E+001,9.96595E-001,2.07275E-001,-8.63586E-002,-2.22897E-003,2.07292E-001,-8.63755E-002,-4.34898E-001,2.08249E-001,1.23001E+000,-2.82695E-002,0.00000E+000,1.67087E-002,9.19283E-001,0.00000E+000,2.71351E-003,-6.87864E-002,1.00000E+000,33
1119,1327,2.28906E+001,-1.44204E-001,-8.97704E-002,1.07259E+001,-2.93899E-001,-7.18175E-002,1.07301E+001,1.48815E-002,3.85307E-001,0,1.61808E+002,-5.88932E+000,9.96312E-001,1.25478E+002,-3.51478E+001,9.96424E-001,2.08120E-001,-8.63664E-002,-2.29510E-003,2.08138E-001,-8.63843E-002,-4.46502E-001,2.09137E-001,1.23105E+000,-2.82441E-002,0.00000E+000,1.65966E-002,9.19280E-001,0.00000E+000,1.94812E-003,-6.88052E-002,1.00000E+000,33
1119,1337,2.28926E+001,4.52374E-001,-1.08533E-001,1.07066E+001,-3.50006E-001,-1.11370E-001,1.07129E+001,1.30940E-002,4.49271E-001,0,1.61665E+002,-6.73153E+000,9.98056E-001,1.25535E+002,-3.58169E+001,9.97617E-001,2.08968E-001,-8.63757E-002,-2.35838E-003,2.08987E-001,-8.63945E-002,-4.57479E-001,2.10029E-001,1.23209E+000,-2.82104E-002,0.00000E+000,1.64839E-002,9.19276E-001,0.00000E+000,1.17853E-003,-6.88300E-002,1.00000E+000,33
1119,1347,2.29068E+001,1.05299E+000,-8.64657E-002,1.06912E+001,-4.05594E-001,-1.43209E-001,1.06999E+001,1.96664E-002,4.16395E-001,0,1.61537E+002,-7.55854E+000,9.97674E-001,1.25843E+002,-3.65636E+001,9.96950E-001,2.09816E-001,-8.63870E-002,-2.41681E-003,2.09836E-001,-8.64067E-002,-4.67452E-001,2.10922E-001,1.23314E+000,-2.81640E-002,0.00000E+000,1.63709E-002,9.19271E-001,0.00000E+000,4.07159E-004,-6.88642E-002,1.00000E+000,33
739,1317,-7.64195E+000,-1.24403E+000,1.64542E-001,4.98825E+000,-5.36711E-001,1.73679E-001,5.02005E+000,1.79418E-002,5.46036E-001,0,7.69153E+001,-9.38061E+000,9.97741E-001,3.30480E+001,-4.66094E+001,9.97250E-001,2.01412E-001,-8.59199E-002,-7.87118E-004,2.01414E-001,-8.59220E-002,-1.56955E-001,2.02136E-001,1.22311E+000,-6.60076E-003,0.00000E+000,3.51830E-003,9.20613E-001,0.00000E+000,-6.32527E-004,-8.02597E-002,1.00000E+000,33
1129,1297,2.37056E+001,-1.88814E+000,1.00243E-001,1.09181E+001,-1.06103E-001,7.46121E-002,1.09189E+001,1.61105E-002,3.99953E-001,0,1.63967E+002,-3.16566E+000,9.98640E-001,1.28327E+002,-3.25266E+001,9.97817E-001,2.06473E-001,-8.64718E-002,-2.41887E-003,2.06493E-001,-8.64918E-002,-4.73053E-001,2.07397E-001,1.22906E+000,-2.71177E-002,0.00000E+000,1.54545E-002,9.19231E-001,0.00000E+000,3.61197E-003,-6.92687E-002,1.00000E+000,33
1129,1307,2.36984E+001,-1.31515E+000,8.23901E-003,1.09027E+001,-1.76174E-001,1.51521E-002,1.09041E+001,2.24887E-002,3.58212E-001,0,1.63988E+002,-4.15997E+000,9.98299E-001,1.28128E+002,-3.34528E+001,9.95415E-001,2.07359E-001,-8.64723E-002,-2.41138E-003,2.07379E-001,-8.64921E-002,-4.70165E-001,2.08328E-001,1.23014E+000,-2.71038E-002,0.00000E+000,1.54927E-002,9.19232E-001,0.00000E+000,2.77754E-003,-6.92794E-002,1.00000E+000,33
1129,1317,2.37014E+001,-7.27215E-001,-5.28406E-002,1.08939E+001,-2.33321E-001,-2.73196E-002,1.08964E+001,1.32766E-002,3.65749E-001,0,1.64031E+002,-5.01668E+000,9.98345E-001,1.28135E+002,-3.41872E+001,9.96275E-001,2.08246E-001,-8.64728E-002,-2.40166E-003,2.08265E-001,-8.64924E-002,-4.66862E-001,2.09259E-001,1.23123E+000,-2.70843E-002,0.00000E+000,1.55309E-002,9.19232E-001,0.00000E+000,1.94156E-003,-6.92944E-002,1.00000E+000,33
729,1347,-8.39758E+000,4.96930E-001,1.78122E-002,4.84276E+000,-7.08468E-001,3.34462E-002,4.89443E+000,1.08330E-002,5.25501E-001,0,7.51559E+001,-1.17986E+001,9.98888E-001,3.14364E+001,-4.95974E+001,9.98639E-001,1.98634E-001,-8.52819E-002,-1.47416E-003,1.98642E-001,-8.52895E-002,-2.97483E-001,1.99301E-001,1.21973E+000,-5.96963E-003,0.00000E+000,1.91760E-003,9.21149E-001,0.00000E+000,-2.49402E-003,-7.94613E-002,1.00000E+000,33
729,1357,-8.38278E+000,1.10599E+000,3.13471E-002,4.83547E+000,-7.47908E-001,-9.07088E-003,4.89298E+000,1.30979E-002,5.30884E-001,0,7.51608E+001,-1.23405E+001,9.97921E-001,3.18263E+001,-5.02484E+001,9.97826E-001,1.98109E-001,-8.52982E-002,-1.69974E-003,1.98119E-001,-8.53084E-002,-3.43616E-001,1.98754E-001,1.21909E+000,-5.99122E-003,0.00000E+000,1.57450E-003,9.21137E-001,0.00000E+000,-3.29140E-003,-7.94883E-002,1.00000E+000,33
1129,1327,2.37032E+001,-1.29746E-001,-9.22473E-002,1.08800E+001,-2.83041E-001,-6.40177E-002,1.08839E+001,1.59331E-002,3.71114E-001,0,1.63964E+002,-5.77368E+000,9.98022E-001,1.28155E+002,-3.48230E+001,9.97470E-001,2.09132E-001,-8.64734E-002,-2.38942E-003,2.09152E-001,-8.64927E-002,-4.63089E-001,2.10191E-001,1.23232E+000,-2.70583E-002,0.00000E+000,1.55691E-002,9.19233E-001,0.00000E+000,1.10408E-003,-6.93144E-002,1.00000E+000,33
729,1337,-8.41779E+000,-8.94503E-002,3.72876E-002,4.83955E+000,-6.50494E-001,8.16714E-002,4.88375E+000,1.41842E-002,5.31731E-001,0,7.49607E+001,-1.09856E+001,9.97463E-001,3.10526E+001,-4.86672E+001,9.96748E-001,1.99156E-001,-8.52689E-002,-1.25142E-003,1.99162E-001,-8.52744E-002,-2.52085E-001,1.99846E-001,1.22036E+000,-5.95302E-003,0.00000E+000,2.25948E-003,9.21158E-001,0.00000E+000,-1.69949E-003,-7.94405E-002,1.00000E+000,33
729,1327,-8.42804E+000,-6.74599E-001,8.13388E-002,4.84004E+000,-5.97212E-001,1.21137E-001,4.87825E+000,1.43636E-002,5.16105E-001,0,7.48451E+001,-1.02002E+001,9.97294E-001,3.08851E+001,-4.77823E+001,9.97022E-001,1.99675E-001,-8.52600E-002,-1.03241E-003,1.99678E-001,-8.52637E-002,-2.07597E-001,2.00387E-001,1.22099E+000,-5.94249E-003,0.00000E+000,2.59941E-003,9.21163E-001,0.00000E+000,-9.09481E-004,-7.94273E-002,1.00000E+000,33
1129,1337,2.37156E+001,4.66808E-001,-9.96517E-002,1.08651E+001,-3.44116E-001,-1.15746E-001,1.08711E+001,1.81182E-002,4.48527E-001,0,1.63929E+002,-6.65355E+000,9.97418E-001,1.28390E+002,-3.55080E+001,9.97423E-001,2.10028E-001,-8.64742E-002,-2.36953E-003,2.10047E-001,-8.64931E-002,-4.57846E-001,2.11134E-001,1.23342E+000,-2.70129E-002,0.00000E+000,1.56078E-002,9.19235E-001,0.00000E+000,2.56720E-004,-6.93492E-002,1.00000E+000,33
729,1317,-8.42957E+000,-1.25255E+000,1.59750E-001,4.84495E+000,-5.39708E-001,1.71912E-001,4.87795E+000,1.60076E-002,5.51046E-001,0,7.47581E+001,-9.40573E+000,9.97370E-001,3.09406E+001,-4.68342E+001,9.96725E-001,2.00191E-001,-8.52539E-002,-8.15595E-004,2.00193E-001,-8.52562E-002,-1.63708E-001,2.00926E-001,1.22162E+000,-5.93615E-003,0.00000E+000,2.93859E-003,9.21167E-001,0.00000E+000,-1.21220E-004,-7.94194E-002,1.00000E+000,33
1129,1347,2.37206E+001,1.07351E+000,-8.93449E-002,1.08432E+001,-3.92318E-001,-1.47744E-001,1.08513E+001,2.16643E-002,4.69105E-001,0,1.63706E+002,-7.39078E+000,9.96731E-001,1.28534E+002,-3.61070E+001,9.96019E-001,2.10918E-001,-8.64750E-002,-2.35011E-003,2.10936E-001,-8.64936E-002,-4.52735E-001,2.12071E-001,1.23452E+000,-2.69686E-002,0.00000E+000,1.56464E-002,9.19237E-001,0.00000E+000,-5.87274E-004,-6.93833E-002,1.00000E+000,33
719,1347,-9.18728E+000,4.98703E-001,1.66013E-002,4.69702E+000,-7.00556E-001,3.37305E-002,4.74910E+000,1.64472E-002,5.47825E-001,0,7.29449E+001,-1.16682E+001,9.97758E-001,2.93149E+001,-4.96689E+001,9.97551E-001,1.96963E-001,-8.49025E-002,-1.33907E-003,1.96970E-001,-8.49089E-002,-2.72188E-001,1.97593E-001,1.21769E+000,-5.05914E-003,0.00000E+000,1.47462E-003,9.21389E-001,0.00000E+000,-2.27652E-003,-7.79430E-002,1.00000E+000,33
719,1357,-9.17523E+000,1.09532E+000,3.15643E-002,4.68732E+000,-7.52723E-001,-6.52168E-003,4.74738E+000,1.48493E-002,5.40124E-001,0,7.29091E+001,-1.23963E+001,9.97715E-001,2.96658E+001,-5.05232E+001,9.97671E-001,1.96145E-001,-8.49116E-002,-1.47703E-003,1.96153E-001,-8.49193E-002,-3.01094E-001,1.96741E-001,1.21670E+000,-5.09218E-003,0.00000E+000,1.31871E-003,9.21384E-001,0.00000E+000,-3.29443E-003,-7.79769E-002,1.00000E+000,33
719,1337,-9.20452E+000,-9.06638E-002,3.40122E-002,4.69581E+000,-6.46780E-001,7.56339E-002,4.74075E+000,1.83803E-002,5.59715E-001,0,7.28012E+001,-1.09043E+001,9.95686E-001,2.89696E+001,-4.87750E+001,9.94974E-001,1.97775E-001,-8.48956E-002,-1.20537E-003,1.97780E-001,-8.49007E-002,-2.44316E-001,1.98439E-001,1.21868E+000,-5.03476E-003,0.00000E+000,1.62967E-003,9.21393E-001,0.00000E+000,-1.26426E-003,-7.79180E-002,1.00000E+000,33
719,1327,-9.21062E+000,-6.74746E-001,8.71395E-002,4.70004E+000,-5.92972E-001,1.22520E-001,4.73888E+000,1.32302E-002,5.47692E-001,0,7.27214E+001,-1.01285E+001,9.95670E-001,2.88890E+001,-4.78889E+001,9.95332E-001,1.98581E-001,-8.48909E-002,-1.07584E-003,1.98585E-001,-8.48950E-002,-2.17446E-001,1.99280E-001,1.21966E+000,-5.01903E-003,0.00000E+000,1.78394E-003,9.21395E-001,0.00000E+000,-2.57032E-004,-7.79019E-002,1.00000E+000,33
719,1317,-9.21386E+000,-1.25541E+000,1.69535E-001,4.70211E+000,-5.38723E-001,1.71506E-001,4.73598E+000,1.72450E-002,5.35511E-001,0,7.25971E+001,-9.36456E+000,9.95609E-001,2.89286E+001,-4.70127E+001,9.94839E-001,1.99384E-001,-8.48880E-002,-9.49636E-004,1.99387E-001,-8.48912E-002,-1.91399E-001,2.00119E-001,1.22064E+000,-5.01088E-003,0.00000E+000,1.93794E-003,9.21397E-001,0.00000E+000,7.48382E-004,-7.78935E-002,1.00000E+000,33
1139,1297,2.45296E+001,-1.87981E+000,1.00228E-001,1.10820E+001,-1.01126E-001,7.91072E-002,1.10828E+001,1.04930E-002,3.24567E-001,0,1.66275E+002,-3.10826E+000,9.99152E-001,1.31189E+002,-3.23366E+001,9.98601E-001,2.07186E-001,-8.67007E-002,-2.65964E-003,2.07210E-001,-8.67248E-002,-5.18463E-001,2.08125E-001,1.22996E+000,-2.58828E-002,0.00000E+000,1.41395E-002,9.19078E-001,0.00000E+000,2.48360E-003,-6.97911E-002,1.00000E+000,33
1139,1307,2.45190E+001,-1.30797E+000,-1.81208E-003,1.10643E+001,-1.72397E-001,1.43510E-002,1.10656E+001,1.54585E-002,2.92553E-001,0,1.66287E+002,-4.10732E+000,9.98501E-001,1.30924E+002,-3.32530E+001,9.97498E-001,2.08199E-001,-8.66986E-002,-2.61072E-003,2.08222E-001,-8.67217E-002,-5.07186E-001,2.09188E-001,1.23120E+000,-2.58689E-002,0.00000E+000,1.42528E-002,9.19079E-001,0.00000E+000,1.66100E-003,-6.98002E-002,1.00000E+000,33
1139,1337,2.45266E+001,4.92342E-001,-9.53657E-002,1.10148E+001,-3.24510E-001,-1.09452E-001,1.10201E+001,1.85047E-002,4.80558E-001,0,1.66014E+002,-6.41019E+000,9.96505E-001,1.31054E+002,-3.50021E+001,9.95679E-001,2.11249E-001,-8.66887E-002,-2.43686E-003,2.11269E-001,-8.67086E-002,-4.68585E-001,2.12396E-001,1.23496E+000,-2.57607E-002,0.00000E+000,1.45950E-002,9.19089E-001,0.00000E+000,-8.25698E-004,-6.98718E-002,1.00000E+000,33
1139,1347,2.45469E+001,1.09125E+000,-7.26205E-002,1.10040E+001,-3.83667E-001,-1.45490E-001,1.10117E+001,1.89356E-002,5.06584E-001,0,1.65972E+002,-7.30381E+000,9.96283E-001,1.31454E+002,-3.57437E+001,9.94894E-001,2.12269E-001,-8.66841E-002,-2.36974E-003,2.12288E-001,-8.67029E-002,-4.54135E-001,2.13471E-001,1.23622E+000,-2.57019E-002,0.00000E+000,1.47099E-002,9.19095E-001,0.00000E+000,-1.66023E-003,-6.99108E-002,1.00000E+000,33
1139,1327,2.45211E+001,-1.15504E-001,-9.67638E-002,1.10367E+001,-2.76264E-001,-6.73694E-002,1.10404E+001,1.78585E-002,4.23368E-001,0,1.66196E+002,-5.69086E+000,9.97293E-001,1.30917E+002,-3.44635E+001,9.95564E-001,2.10229E-001,-8.66929E-002,-2.50118E-003,2.10250E-001,-8.67139E-002,-4.82596E-001,2.11322E-001,1.23370E+000,-2.58124E-002,0.00000E+000,1.44804E-002,9.19085E-001,0.00000E+000,7.45744E-006,-6.98376E-002,1.00000E+000,33
1139,1317,2.45079E+001,-7.18288E-001,-7.01623E-002,1.10424E+001,-2.28116E-001,-3.09377E-002,1.10448E+001,1.59775E-002,3.79895E-001,0,1.66147E+002,-4.96304E+000,9.98829E-001,1.30700E+002,-3.39046E+001,9.96956E-001,2.09212E-001,-8.66962E-002,-2.55911E-003,2.09234E-001,-8.67183E-002,-4.95463E-001,2.10252E-001,1.23245E+000,-2.58484E-002,0.00000E+000,1.43662E-002,9.19081E-001,0.00000E+000,8.36532E-004,-6.98138E-002,1.00000E+000,33
709,1347,-9.98175E+000,4.98965E-001,1.13204E-002,4.54617E+000,-6.94069E-001,3.03047E-002,4.59895E+000,1.60084E-002,5.39889E-001,0,7.06631E+001,-1.15364E+001,9.96974E-001,2.71152E+001,-4.97707E+001,9.97058E-001,1.95374E-001,-8.36363E-002,-1.51024E-003,1.95382E-001,-8.36445E-002,-3.10121E-001,1.96054E-001,1.21576E+000,-4.22859E-003,0.00000E+000,5.24122E-004,9.22482E-001,0.00000E+000,-2.11029E-003,-7.68773E-002,1.00000E+000,33
709,1357,-9.96530E+000,1.09720E+000,2.90220E-002,4.54165E+000,-7.43069E-001,-4.17099E-003,4.60204E+000,1.54088E-002,5.33027E-001,0,7.06891E+001,-1.22428E+001,9.97638E-001,2.75431E+001,-5.06071E+001,9.97752E-001,1.94422E-001,-8.36510E-002,-1.73861E-003,1.94432E-001,-8.36619E-002,-3.58216E-001,1.95061E-001,1.21461E+000,-4.26563E-003,0.00000E+000,2.05928E-004,9.22472E-001,0.00000E+000,-3.18836E-003,-7.69119E-002,1.00000E+000,33
709,1337,-9.98444E+000,-9.84362E-002,4.17853E-002,4.55789E+000,-6.49655E-001,7.72578E-002,4.60461E+000,1.46041E-002,5.48675E-001,0,7.07067E+001,-1.09313E+001,9.96730E-001,2.70242E+001,-4.90264E+001,9.96347E-001,1.96319E-001,-8.36259E-002,-1.28765E-003,1.96325E-001,-8.36318E-002,-2.63533E-001,1.97041E-001,1.21691E+000,-4.20310E-003,0.00000E+000,8.40823E-004,9.22489E-001,0.00000E+000,-1.03726E-003,-7.68535E-002,1.00000E+000,33
709,1317,-9.99244E+000,-1.25600E+000,1.92449E-001,4.56377E+000,-5.36426E-001,1.79717E-001,4.59870E+000,1.82750E-002,5.39162E-001,0,7.04759E+001,-9.32758E+000,9.97167E-001,2.70447E+001,-4.71742E+001,9.96901E-001,1.98193E-001,-8.36145E-002,-8.55779E-004,1.98196E-001,-8.36171E-002,-1.73991E-001,1.99001E-001,1.21919E+000,-4.17842E-003,0.00000E+000,1.47058E-003,9.22496E-001,0.00000E+000,1.09642E-003,-7.68304E-002,1.00000E+000,33
709,1327,-9.98649E+000,-6.77888E-001,1.05701E-001,4.56398E+000,-5.92828E-001,1.23636E-001,4.60398E+000,2.02114E-002,5.65613E-001,0,7.06555E+001,-1.01259E+001,9.97122E-001,2.70342E+001,-4.80751E+001,9.96628E-001,1.97258E-001,-8.36195E-002,-1.07069E-003,1.97262E-001,-8.36235E-002,-2.18403E-001,1.98022E-001,1.21805E+000,-4.18865E-003,0.00000E+000,1.15592E-003,9.22493E-001,0.00000E+000,3.03160E-005,-7.68400E-002,1.00000E+000,33
1149,1297,2.53392E+001,-1.87338E+000,8.11977E-002,1.12330E+001,-9.94434E-002,7.25360E-002,1.12337E+001,2.54277E-002,3.51684E-001,0,1.68433E+002,-3.08887E+000,9.97795E-001,1.33803E+002,-3.20864E+001,9.95320E-001,2.07770E-001,-8.68576E-002,-2.86528E-003,2.07798E-001,-8.68855E-002,-5.57138E-001,2.08724E-001,1.23069E+000,-2.47049E-002,0.00000E+000,1.29548E-002,9.19001E-001,0.00000E+000,1.09648E-003,-7.05161E-002,1.00000E+000,33
1149,1307,2.53444E+001,-1.28135E+000,4.83881E-004,1.12298E+001,-1.50514E-001,2.40944E-002,1.12308E+001,1.64601E-002,3.55911E-001,0,1.68587E+002,-3.84778E+000,9.98248E-001,1.33818E+002,-3.27130E+001,9.97001E-001,2.08921E-001,-8.68555E-002,-2.81473E-003,2.08948E-001,-8.68823E-002,-5.45184E-001,2.09933E-001,1.23211E+000,-2.46863E-002,0.00000E+000,1.30598E-002,9.19002E-001,0.00000E+000,3.76557E-004,-7.05255E-002,1.00000E+000,33
1149,1317,2.53377E+001,-6.93226E-001,-6.17468E-002,1.12100E+001,-2.09523E-001,-2.37171E-002,1.12120E+001,1.55066E-002,4.04831E-001,0,1.68489E+002,-4.72665E+000,9.98151E-001,1.33671E+002,-3.34193E+001,9.96369E-001,2.10075E-001,-8.68530E-002,-2.76019E-003,2.10101E-001,-8.68786E-002,-5.32549E-001,2.11146E-001,1.23353E+000,-2.46581E-002,0.00000E+000,1.31652E-002,9.19004E-001,0.00000E+000,-3.46723E-004,-7.05399E-002,1.00000E+000,33
1149,1327,2.53343E+001,-9.29183E-002,-1.06473E-001,1.11893E+001,-2.57255E-001,-7.17942E-002,1.11925E+001,1.63290E-002,3.86567E-001,0,1.68365E+002,-5.42471E+000,9.97713E-001,1.33603E+002,-3.40083E+001,9.95757E-001,2.11227E-001,-8.68500E-002,-2.70198E-003,2.11252E-001,-8.68745E-002,-5.19313E-001,2.12359E-001,1.23496E+000,-2.46204E-002,0.00000E+000,1.32707E-002,9.19007E-001,0.00000E+000,-1.06988E-003,-7.05590E-002,1.00000E+000,33
1149,1337,2.53448E+001,5.01961E-001,-1.05959E-001,1.11738E+001,-3.19815E-001,-1.08056E-001,1.11789E+001,2.48409E-002,4.78555E-001,0,1.68264E+002,-6.36277E+000,9.97325E-001,1.33813E+002,-3.47265E+001,9.96646E-001,2.12391E-001,-8.68461E-002,-2.63614E-003,2.12414E-001,-8.68693E-002,-5.04697E-001,2.13584E-001,1.23639E+000,-2.45644E-002,0.00000E+000,1.33774E-002,9.19011E-001,0.00000E+000,-1.80139E-003,-7.05874E-002,1.00000E+000,33
1149,1347,2.53732E+001,1.10277E+000,-6.94924E-002,1.11671E+001,-3.80207E-001,-1.45476E-001,1.11745E+001,2.25162E-002,4.80566E-001,0,1.68283E+002,-7.25112E+000,9.97725E-001,1.34357E+002,-3.54785E+001,9.96636E-001,2.13555E-001,-8.68413E-002,-2.56245E-003,2.13577E-001,-8.68632E-002,-4.88699E-001,2.14812E-001,1.23784E+000,-2.44887E-002,0.00000E+000,1.34843E-002,9.19017E-001,0.00000E+000,-2.53472E-003,-7.06260E-002,1.00000E+000,33
699,1347,-1.07531E+001,4.92897E-001,2.49575E-002,4.41659E+000,-6.96372E-001,3.80576E-002,4.47131E+000,1.64344E-002,5.60634E-001,0,6.86756E+001,-1.15639E+001,9.97831E-001,2.53235E+001,-4.99938E+001,9.97872E-001,1.93638E-001,-8.25067E-002,-1.30650E-003,1.93645E-001,-8.25128E-002,-2.71071E-001,1.94348E-001,1.21366E+000,-2.62515E-003,0.00000E+000,-3.16481E-004,9.23427E-001,0.00000E+000,-1.93671E-003,-7.54834E-002,1.00000E+000,33
699,1357,-1.07383E+001,1.08252E+000,3.08651E-002,4.41092E+000,-7.53495E-001,-6.47580E-003,4.47482E+000,1.66983E-002,5.51896E-001,0,6.87157E+001,-1.23731E+001,9.97572E-001,2.56952E+001,-5.09398E+001,9.97486E-001,1.92662E-001,-8.25185E-002,-1.50310E-003,1.92670E-001,-8.25267E-002,-3.12951E-001,1.93328E-001,1.21248E+000,-2.66213E-003,0.00000E+000,-5.86792E-004,9.23418E-001,0.00000E+000,-2.89018E-003,-7.55132E-002,1.00000E+000,33
699,1337,-1.07675E+001,-1.09563E-001,4.64702E-002,4.41663E+000,-6.55858E-001,7.70810E-002,4.46573E+000,1.20538E-002,5.26578E-001,0,6.85640E+001,-1.09980E+001,9.97847E-001,2.50270E+001,-4.93289E+001,9.97925E-001,1.94611E-001,-8.24981E-002,-1.11482E-003,1.94615E-001,-8.25026E-002,-2.30497E-001,1.95365E-001,1.21484E+000,-2.59892E-003,0.00000E+000,-4.68336E-005,9.23433E-001,0.00000E+000,-9.85587E-004,-7.54622E-002,1.00000E+000,33
699,1317,-1.07787E+001,-1.25739E+000,2.06253E-001,4.41694E+000,-5.35977E-001,1.76610E-001,4.45284E+000,1.75449E-002,6.06943E-001,0,6.82541E+001,-9.31470E+000,9.98022E-001,2.50247E+001,-4.72977E+001,9.97508E-001,1.96532E-001,-8.24907E-002,-7.47734E-004,1.96534E-001,-8.24927E-002,-1.53541E-001,1.97377E-001,1.21717E+000,-2.57793E-003,0.00000E+000,4.87462E-004,9.23437E-001,0.00000E+000,8.99034E-004,-7.54453E-002,1.00000E+000,33
699,1327,-1.07730E+001,-6.80468E-001,1.09514E-001,4.41861E+000,-5.93574E-001,1.19664E-001,4.45990E+000,1.36724E-002,6.77240E-001,0,6.84593E+001,-1.01283E+001,9.97864E-001,2.49831E+001,-4.81759E+001,9.96839E-001,1.95571E-001,-8.24935E-002,-9.30372E-004,1.95574E-001,-8.24966E-002,-1.91703E-001,1.96369E-001,1.21600E+000,-2.58535E-003,0.00000E+000,2.19764E-004,9.23436E-001,0.00000E+000,-4.52157E-005,-7.54513E-002,1.00000E+000,33
1159,1307,2.61483E+001,-1.27416E+000,-2.23196E-002,1.13746E+001,-1.47414E-001,1.36190E-002,1.13755E+001,1.95811E-002,3.64993E-001,0,1.70667E+002,-3.80309E+000,9.95276E-001,1.36344E+002,-3.24506E+001,9.93790E-001,2.09738E-001,-8.72738E-002,-2.89647E-003,2.09766E-001,-8.73020E-002,-5.58678E-001,2.10746E-001,1.23314E+000,-2.36125E-002,0.00000E+000,1.21848E-002,9.18672E-001,0.00000E+000,-1.08558E-003,-7.11530E-002,1.00000E+000,33
1159,1317,2.61531E+001,-6.75211E-001,-7.77713E-002,1.13662E+001,-1.96438E-001,-2.75100E-002,1.13679E+001,2.02214E-002,4.16180E-001,0,1.70707E+002,-4.53734E+000,9.95993E-001,1.36387E+002,-3.29989E+001,9.95859E-001,2.10981E-001,-8.72769E-002,-2.91599E-003,2.11010E-001,-8.73054E-002,-5.60095E-001,2.12053E-001,1.23467E+000,-2.35817E-002,0.00000E+000,1.21480E-002,9.18672E-001,0.00000E+000,-1.77268E-003,-7.11668E-002,1.00000E+000,33
1159,1327,2.61624E+001,-8.06982E-002,-1.02708E-001,1.13556E+001,-2.52680E-001,-6.51521E-002,1.13586E+001,1.41552E-002,4.07204E-001,0,1.70693E+002,-5.37762E+000,9.97933E-001,1.36543E+002,-3.37134E+001,9.97237E-001,2.12224E-001,-8.72808E-002,-2.92942E-003,2.12253E-001,-8.73095E-002,-5.60332E-001,2.13362E-001,1.23621E+000,-2.35352E-002,0.00000E+000,1.21111E-002,9.18670E-001,0.00000E+000,-2.46113E-003,-7.11876E-002,1.00000E+000,33
1159,1297,2.61476E+001,-1.86000E+000,5.96922E-002,1.13831E+001,-9.02134E-002,6.63783E-002,1.13836E+001,1.89289E-002,4.20764E-001,0,1.70572E+002,-2.97842E+000,9.96282E-001,1.36402E+002,-3.17022E+001,9.92795E-001,2.08501E-001,-8.72712E-002,-2.87366E-003,2.08529E-001,-8.72991E-002,-5.56604E-001,2.09447E-001,1.23161E+000,-2.36344E-002,0.00000E+000,1.22214E-002,9.18673E-001,0.00000E+000,-4.02809E-004,-7.11432E-002,1.00000E+000,33
1159,1337,2.61856E+001,5.13834E-001,-9.08314E-002,1.13493E+001,-3.16076E-001,-1.03943E-001,1.13541E+001,1.86745E-002,4.29103E-001,0,1.70734E+002,-6.31767E+000,9.99010E-001,1.36968E+002,-3.44940E+001,9.98874E-001,2.13475E-001,-8.72860E-002,-2.93437E-003,2.13503E-001,-8.73147E-002,-5.58936E-001,2.14680E-001,1.23776E+000,-2.34665E-002,0.00000E+000,1.20738E-002,9.18669E-001,0.00000E+000,-3.15491E-003,-7.12183E-002,1.00000E+000,33
1159,1347,2.62019E+001,1.11690E+000,-6.97938E-002,1.13329E+001,-3.71371E-001,-1.45983E-001,1.13399E+001,2.00676E-002,4.22573E-001,0,1.70631E+002,-7.13599E+000,9.98082E-001,1.37297E+002,-3.51810E+001,9.97473E-001,2.14722E-001,-8.72916E-002,-2.93661E-003,2.14751E-001,-8.73202E-002,-5.57042E-001,2.15996E-001,1.23931E+000,-2.33907E-002,0.00000E+000,1.20367E-002,9.18667E-001,0.00000E+000,-3.84841E-003,-7.12523E-002,1.00000E+000,33
689,1347,-1.15310E+001,4.80658E-001,2.98679E-002,4.27957E+000,-7.04959E-001,3.45837E-002,4.33738E+000,1.37811E-002,5.77071E-001,0,6.66046E+001,-1.16653E+001,9.98443E-001,2.34123E+001,-5.02961E+001,9.98002E-001,1.91799E-001,-8.15636E-002,-1.29470E-003,1.91805E-001,-8.15697E-002,-2.71356E-001,1.92518E-001,1.21143E+000,-1.30498E-003,0.00000E+000,-1.28851E-003,9.24257E-001,0.00000E+000,-2.00200E-003,-7.49035E-002,1.00000E+000,33
689,1357,-1.15207E+001,1.06921E+000,2.94239E-002,4.27180E+000,-7.60668E-001,-4.54154E-003,4.33900E+000,1.52651E-002,5.46263E-001,0,6.65970E+001,-1.24614E+001,9.98140E-001,2.37008E+001,-5.12584E+001,9.98094E-001,1.90608E-001,-8.15764E-002,-1.54032E-003,1.90617E-001,-8.15851E-002,-3.24228E-001,1.91275E-001,1.20999E+000,-1.34501E-003,0.00000E+000,-1.65228E-003,9.24247E-001,0.00000E+000,-2.91259E-003,-7.49288E-002,1.00000E+000,33
689,1337,-1.15400E+001,-1.02467E-001,4.98209E-002,4.28590E+000,-6.43693E-001,7.73532E-002,4.33466E+000,1.43441E-002,5.40085E-001,0,6.65751E+001,-1.07970E+001,9.98680E-001,2.31983E+001,-4.93290E+001,9.98710E-001,1.92990E-001,-8.15526E-002,-1.05126E-003,1.92994E-001,-8.15566E-002,-2.19389E-001,1.93763E-001,1.21287E+000,-1.27111E-003,0.00000E+000,-9.24049E-004,9.24265E-001,0.00000E+000,-1.08967E-003,-7.48820E-002,1.00000E+000,33
1169,1327,2.69759E+001,-6.93776E-002,-1.08292E-001,1.15074E+001,-2.46993E-001,-6.57187E-002,1.15102E+001,1.33882E-002,4.15329E-001,0,1.72830E+002,-5.31600E+000,9.98577E-001,1.39247E+002,-3.34202E+001,9.98125E-001,2.12902E-001,-8.76076E-002,-2.88856E-003,2.12929E-001,-8.76354E-002,-5.50672E-001,2.14037E-001,1.23707E+000,-2.23232E-002,0.00000E+000,1.13792E-002,9.18406E-001,0.00000E+000,-4.03981E-003,-7.15753E-002,1.00000E+000,33
1169,1337,2.70021E+001,5.33927E-001,-9.17960E-002,1.15020E+001,-3.01939E-001,-1.07321E-001,1.15065E+001,1.70499E-002,4.18647E-001,0,1.72891E+002,-6.12742E+000,9.98911E-001,1.39723E+002,-3.40821E+001,9.98430E-001,2.14145E-001,-8.76164E-002,-2.91930E-003,2.14173E-001,-8.76447E-002,-5.54222E-001,2.15347E-001,1.23862E+000,-2.22501E-002,0.00000E+000,1.12847E-002,9.18401E-001,0.00000E+000,-4.61685E-003,-7.16027E-002,1.00000E+000,33
1169,1347,2.70307E+001,1.13365E+000,-5.82990E-002,1.14958E+001,-3.62232E-001,-1.44389E-001,1.15024E+001,1.73066E-002,4.06509E-001,0,1.72919E+002,-7.02794E+000,9.97669E-001,1.40259E+002,-3.48486E+001,9.97591E-001,2.15389E-001,-8.76259E-002,-2.94738E-003,2.15418E-001,-8.76545E-002,-5.57237E-001,2.16659E-001,1.24016E+000,-2.21697E-002,0.00000E+000,1.11900E-002,9.18396E-001,0.00000E+000,-5.19485E-003,-7.16327E-002,1.00000E+000,33
689,1327,-1.15621E+001,-6.89464E-001,1.00639E-001,4.27348E+000,-5.94615E-001,1.19973E-001,4.31632E+000,1.58124E-002,6.20379E-001,0,6.62537E+001,-1.01174E+001,9.97493E-001,2.28648E+001,-4.84330E+001,9.97096E-001,1.94166E-001,-8.15456E-002,-8.15213E-004,1.94169E-001,-8.15480E-002,-1.69408E-001,1.94996E-001,1.21430E+000,-1.24977E-003,0.00000E+000,-5.63089E-004,9.24271E-001,0.00000E+000,-1.86114E-004,-7.48685E-002,1.00000E+000,33
1169,1317,2.69678E+001,-6.65674E-001,-8.03045E-002,1.15190E+001,-1.90146E-001,-2.68240E-002,1.15206E+001,2.46054E-002,3.38735E-001,0,1.72854E+002,-4.46350E+000,9.97422E-001,1.39117E+002,-3.27843E+001,9.97403E-001,2.11661E-001,-8.76013E-002,-2.84726E-003,2.11688E-001,-8.76284E-002,-5.45061E-001,2.12730E-001,1.23554E+000,-2.23689E-002,0.00000E+000,1.14734E-002,9.18409E-001,0.00000E+000,-3.46500E-003,-7.15582E-002,1.00000E+000,33
1169,1307,2.69616E+001,-1.26281E+000,-3.45124E-002,1.15274E+001,-1.41874E-001,1.05071E-002,1.15283E+001,1.94805E-002,4.00063E-001,0,1.72831E+002,-3.73187E+000,9.97460E-001,1.39038E+002,-3.21328E+001,9.96402E-001,2.10431E-001,-8.75961E-002,-2.80200E-003,2.10457E-001,-8.76224E-002,-5.38623E-001,2.11437E-001,1.23402E+000,-2.24030E-002,0.00000E+000,1.15666E-002,9.18411E-001,0.00000E+000,-2.89608E-003,-7.15455E-002,1.00000E+000,33
1169,1297,2.69650E+001,-1.84883E+000,5.64474E-002,1.15392E+001,-8.37908E-002,6.84660E-002,1.15397E+001,1.58015E-002,4.77991E-001,0,1.72759E+002,-2.93612E+000,9.97696E-001,1.39170E+002,-3.13965E+001,9.95125E-001,2.09198E-001,-8.75921E-002,-2.75116E-003,2.09224E-001,-8.76176E-002,-5.31054E-001,2.10142E-001,1.23249E+000,-2.24229E-002,0.00000E+000,1.16598E-002,9.18412E-001,0.00000E+000,-2.32714E-003,-7.15381E-002,1.00000E+000,33
689,1317,-1.15672E+001,-1.26601E+000,1.94159E-001,4.27219E+000,-5.38448E-001,1.73002E-001,4.30946E+000,1.84982E-002,5.85187E-001,0,6.60676E+001,-9.31266E+000,9.97097E-001,2.29076E+001,-4.75227E+001,9.95347E-001,1.95339E-001,-8.15427E-002,-5.84832E-004,1.95340E-001,-8.15439E-002,-1.21020E-001,1.96225E-001,1.21572E+000,-1.24119E-003,0.00000E+000,-2.02776E-004,9.24273E-001,0.00000E+000,7.15824E-004,-7.48631E-002,1.00000E+000,33
679,1347,-1.23187E+001,4.74555E-001,2.40407E-002,4.13427E+000,-7.02631E-001,3.02838E-002,4.19366E+000,2.27204E-002,5.98667E-001,0,6.44024E+001,-1.16482E+001,9.97336E-001,2.13297E+001,-5.04797E+001,9.96837E-001,1.89856E-001,-8.06981E-002,-1.31630E-003,1.89862E-001,-8.07045E-002,-2.78746E-001,1.90571E-001,1.20908E+000,1.48386E-004,0.00000E+000,-2.42913E-003,9.25002E-001,0.00000E+000,-2.08225E-003,-7.41363E-002,1.00000E+000,33
679,1357,-1.22896E+001,1.06397E+000,2.34278E-002,4.14685E+000,-7.58583E-001,-8.11703E-004,4.21566E+000,1.12931E-002,5.79487E-001,0,6.46881E+001,-1.24352E+001,9.98300E-001,2.19068E+001,-5.14214E+001,9.98136E-001,1.88339E-001,-8.07167E-002,-1.71811E-003,1.88350E-001,-8.07277E-002,-3.65853E-001,1.88989E-001,1.20725E+000,1.02003E-004,0.00000E+000,-3.08354E-003,9.24985E-001,0.00000E+000,-2.96582E-003,-7.41588E-002,1.00000E+000,33
1179,1297,2.77720E+001,-1.84350E+000,2.93671E-002,1.16892E+001,-8.08563E-002,6.48414E-002,1.16896E+001,2.56192E-002,5.16074E-001,0,1.74883E+002,-2.92250E+000,9.98599E-001,1.41750E+002,-3.11415E+001,9.96442E-001,2.09674E-001,-8.77490E-002,-2.79395E-003,2.09700E-001,-8.77752E-002,-5.38165E-001,2.10625E-001,1.23310E+000,-2.16017E-002,0.00000E+000,1.10722E-002,9.18313E-001,0.00000E+000,-3.99426E-003,-7.21008E-002,1.00000E+000,33
1179,1307,2.77798E+001,-1.25480E+000,-4.14400E-002,1.16860E+001,-1.35572E-001,1.71482E-002,1.16868E+001,1.23623E-002,3.48405E-001,0,1.75036E+002,-3.68125E+000,9.98915E-001,1.41820E+002,-3.19210E+001,9.97563E-001,2.10812E-001,-8.77483E-002,-2.76621E-003,2.10838E-001,-8.77740E-002,-5.30793E-001,2.11820E-001,1.23451E+000,-2.15778E-002,0.00000E+000,1.11128E-002,9.18314E-001,0.00000E+000,-4.37982E-003,-7.21073E-002,1.00000E+000,33
1179,1317,2.77821E+001,-6.56655E-001,-1.17591E-001,1.16783E+001,-1.81904E-001,-3.18574E-002,1.16797E+001,2.76285E-002,3.48742E-001,0,1.75125E+002,-4.36612E+000,9.98845E-001,1.41795E+002,-3.24586E+001,9.98256E-001,2.11951E-001,-8.77477E-002,-2.73932E-003,2.11976E-001,-8.77727E-002,-5.23639E-001,2.13017E-001,1.23591E+000,-2.15561E-002,0.00000E+000,1.11534E-002,9.18315E-001,0.00000E+000,-4.76614E-003,-7.21133E-002,1.00000E+000,33
1179,1337,2.78240E+001,5.40212E-001,-1.06858E-001,1.16603E+001,-3.00971E-001,-1.22408E-001,1.16648E+001,1.39898E-002,4.10589E-001,0,1.75182E+002,-6.11993E+000,9.98539E-001,1.42548E+002,-3.38516E+001,9.97457E-001,2.14257E-001,-8.77452E-002,-2.65158E-003,2.14280E-001,-8.77685E-002,-5.03006E-001,2.15444E-001,1.23877E+000,-2.14278E-002,0.00000E+000,1.12359E-002,9.18318E-001,0.00000E+000,-5.54995E-003,-7.21484E-002,1.00000E+000,33
1179,1347,2.78658E+001,1.14743E+000,-6.53696E-002,1.16647E+001,-3.56629E-001,-1.60828E-001,1.16713E+001,1.43187E-002,4.19364E-001,0,1.75368E+002,-6.93993E+000,9.98580E-001,1.43300E+002,-3.45058E+001,9.98110E-001,2.15413E-001,-8.77438E-002,-2.60146E-003,2.15435E-001,-8.77661E-002,-4.91621E-001,2.16664E-001,1.24021E+000,-2.13476E-002,0.00000E+000,1.12774E-002,9.18321E-001,0.00000E+000,-5.94386E-003,-7.21704E-002,1.00000E+000,33
679,1327,-1.23421E+001,-6.96296E-001,1.11912E-001,4.13493E+000,-5.95694E-001,1.29270E-001,4.17962E+000,1.91642E-002,5.82787E-001,0,6.41191E+001,-1.01283E+001,9.96841E-001,2.09443E+001,-4.86892E+001,9.95801E-001,1.92857E-001,-8.06709E-002,-5.29117E-004,1.92858E-001,-8.06720E-002,-1.10833E-001,1.93715E-001,1.21271E+000,2.15916E-004,0.00000E+000,-1.12987E-003,9.25026E-001,0.00000E+000,-3.28043E-004,-7.41037E-002,1.00000E+000,33
679,1337,-1.23281E+001,-1.09370E-001,5.06250E-002,4.14022E+000,-6.44834E-001,8.10418E-002,4.19092E+000,2.28608E-002,5.90608E-001,0,6.43460E+001,-1.08257E+001,9.97521E-001,2.11256E+001,-4.95231E+001,9.97058E-001,1.91362E-001,-8.06807E-002,-9.17918E-004,1.91365E-001,-8.06838E-002,-1.93323E-001,1.92147E-001,1.21090E+000,1.91492E-004,0.00000E+000,-1.77796E-003,9.25017E-001,0.00000E+000,-1.20307E-003,-7.41155E-002,1.00000E+000,33
1179,1327,2.77943E+001,-6.69297E-002,-1.21359E-001,1.16647E+001,-2.47244E-001,-7.02982E-002,1.16675E+001,1.90412E-002,4.08618E-001,0,1.75066E+002,-5.36762E+000,9.98782E-001,1.42023E+002,-3.32554E+001,9.96527E-001,2.13101E-001,-8.77466E-002,-2.69891E-003,2.13126E-001,-8.77708E-002,-5.13947E-001,2.14227E-001,1.23734E+000,-2.15007E-002,0.00000E+000,1.11946E-002,9.18316E-001,0.00000E+000,-5.15682E-003,-7.21285E-002,1.00000E+000,33
679,1317,-1.23476E+001,-1.27294E+000,2.08779E-001,4.13332E+000,-5.39916E-001,1.86306E-001,4.17260E+000,1.57241E-002,6.15572E-001,0,6.39178E+001,-9.37051E+000,9.97346E-001,2.09906E+001,-4.77516E+001,9.96345E-001,1.94345E-001,-8.06666E-002,-1.46931E-004,1.94345E-001,-8.06667E-002,-3.06115E-002,1.95278E-001,1.21452E+000,2.26954E-004,0.00000E+000,-4.83557E-004,9.25030E-001,0.00000E+000,5.44584E-004,-7.40984E-002,1.00000E+000,33
669,1327,-1.31148E+001,-7.12767E-001,1.20183E-001,4.00403E+000,-6.05357E-001,1.39531E-001,4.05193E+000,1.33254E-002,5.98087E-001,0,6.21008E+001,-1.03113E+001,9.98905E-001,1.91314E+001,-4.90600E+001,9.98513E-001,1.91421E-001,-7.99285E-002,-1.93936E-004,1.91421E-001,-7.99287E-002,-4.09498E-002,1.92287E-001,1.21097E+000,2.57292E-003,0.00000E+000,-2.27856E-003,9.25647E-001,0.00000E+000,-5.96189E-004,-7.31585E-002,1.00000E+000,33
669,1337,-1.31053E+001,-1.17955E-001,5.59447E-002,4.00450E+000,-6.48573E-001,8.60318E-002,4.05759E+000,1.40159E-002,6.03597E-001,0,6.22651E+001,-1.08735E+001,9.97908E-001,1.92383E+001,-4.97700E+001,9.97857E-001,1.89537E-001,-7.99393E-002,-6.68863E-004,1.89538E-001,-7.99410E-002,-1.42212E-001,1.90310E-001,1.20869E+000,2.54101E-003,0.00000E+000,-3.08850E-003,9.25635E-001,0.00000E+000,-1.44068E-003,-7.31704E-002,1.00000E+000,33
669,1347,-1.30910E+001,4.66936E-001,1.91778E-002,4.00686E+000,-7.02621E-001,4.34958E-002,4.06823E+000,1.26576E-002,5.74493E-001,0,6.24275E+001,-1.16362E+001,9.97573E-001,1.94909E+001,-5.07094E+001,9.97456E-001,1.87648E-001,-7.99540E-002,-1.14795E-003,1.87653E-001,-7.99589E-002,-2.45779E-001,1.88335E-001,1.20641E+000,2.49898E-003,0.00000E+000,-3.89807E-003,9.25620E-001,0.00000E+000,-2.28479E-003,-7.31859E-002,1.00000E+000,33
669,1357,-1.30655E+001,1.06665E+000,2.74393E-002,4.01294E+000,-7.48318E-001,4.03314E-003,4.08212E+000,1.30407E-002,5.64589E-001,0,6.26305E+001,-1.22827E+001,9.97550E-001,2.00403E+001,-5.15101E+001,9.97597E-001,1.85745E-001,-7.99791E-002,-1.64054E-003,1.85755E-001,-7.99892E-002,-3.53716E-001,1.86351E-001,1.20412E+000,2.43074E-003,0.00000E+000,-4.71200E-003,9.25596E-001,0.00000E+000,-3.13345E-003,-7.32112E-002,1.00000E+000,33
1189,1337,2.86521E+001,5.49801E-001,-1.25014E-001,1.18238E+001,-2.98951E-001,-1.42273E-001,1.18284E+001,1.79868E-002,4.12414E-001,0,1.77565E+002,-6.06130E+000,9.98777E-001,1.45471E+002,-3.35576E+001,9.97973E-001,2.13842E-001,-8.80766E-002,-2.36448E-003,2.13860E-001,-8.80952E-002,-4.48677E-001,2.14963E-001,1.23827E+000,-2.06614E-002,0.00000E+000,1.12444E-002,9.18014E-001,0.00000E+000,-6.10983E-003,-7.21725E-002,1.00000E+000,33
669,1317,-1.31154E+001,-1.28333E+000,2.24087E-001,4.00606E+000,-5.43964E-001,1.96785E-001,4.04761E+000,1.62435E-002,6.09856E-001,0,6.19543E+001,-9.46745E+000,9.98623E-001,1.92740E+001,-4.80515E+001,9.98643E-001,1.93291E-001,-7.99266E-002,2.69131E-004,1.93291E-001,-7.99269E-002,5.64387E-002,1.94253E-001,1.21323E+000,2.58235E-003,0.00000E+000,-1.47304E-003,9.25650E-001,0.00000E+000,2.43702E-004,-7.31550E-002,1.00000E+000,33
1189,1297,2.86002E+001,-1.83645E+000,3.69792E-002,1.18496E+001,-7.99810E-002,5.58903E-002,1.18500E+001,1.79589E-002,4.58000E-001,0,1.77167E+002,-2.91167E+000,9.98291E-001,1.44712E+002,-3.09799E+001,9.96115E-001,2.10028E-001,-8.80757E-002,-2.43622E-003,2.10048E-001,-8.80956E-002,-4.68201E-001,2.10956E-001,1.23356E+000,-2.08004E-002,0.00000E+000,1.12469E-002,9.18015E-001,0.00000E+000,-5.70136E-003,-7.21604E-002,1.00000E+000,33
1189,1307,2.85942E+001,-1.25081E+000,-5.33787E-002,1.18370E+001,-1.38414E-001,6.64835E-003,1.18378E+001,1.50437E-002,4.21095E-001,0,1.77196E+002,-3.74240E+000,9.97274E-001,1.44538E+002,-3.16995E+001,9.97101E-001,2.10977E-001,-8.80758E-002,-2.42733E-003,2.10996E-001,-8.80955E-002,-4.65013E-001,2.11951E-001,1.23473E+000,-2.07885E-002,0.00000E+000,1.12463E-002,9.18015E-001,0.00000E+000,-5.80278E-003,-7.21615E-002,1.00000E+000,33
1189,1317,2.86132E+001,-6.40460E-001,-1.02218E-001,1.18365E+001,-1.80798E-001,-5.15548E-002,1.18380E+001,1.81587E-002,4.61853E-001,0,1.77414E+002,-4.32570E+000,9.98572E-001,1.44813E+002,-3.20830E+001,9.98614E-001,2.11933E-001,-8.80761E-002,-2.40926E-003,2.11952E-001,-8.80954E-002,-4.60082E-001,2.12955E-001,1.23591E+000,-2.07535E-002,0.00000E+000,1.12456E-002,9.18015E-001,0.00000E+000,-5.90512E-003,-7.21645E-002,1.00000E+000,33
1189,1327,2.86285E+001,-5.28510E-002,-1.32726E-001,1.18282E+001,-2.46107E-001,-1.07516E-001,1.18313E+001,2.13993E-002,4.15612E-001,0,1.77512E+002,-5.25455E+000,9.98873E-001,1.45052E+002,-3.29050E+001,9.98458E-001,2.12887E-001,-8.80763E-002,-2.38839E-003,2.12905E-001,-8.80953E-002,-4.54651E-001,2.13958E-001,1.23709E+000,-2.07113E-002,0.00000E+000,1.12450E-002,9.18014E-001,0.00000E+000,-6.00735E-003,-7.21681E-002,1.00000E+000,33
659,1327,-1.38841E+001,-6.97209E-001,1.24668E-001,3.87488E+000,-5.85261E-001,1.39281E-001,3.92130E+000,2.12418E-002,5.79607E-001,0,6.01282E+001,-9.96873E+000,9.98518E-001,1.73733E+001,-4.89466E+001,9.96808E-001,1.89691E-001,-7.94013E-002,-1.21488E-004,1.89691E-001,-7.94013E-002,-2.58676E-002,1.90527E-001,1.20887E+000,5.00397E-003,0.00000E+000,-3.98234E-003,9.26097E-001,0.00000E+000,-8.68408E-004,-7.26806E-002,1.00000E+000,33
659,1337,-1.38532E+001,-1.35640E-001,8.06532E-002,3.89680E+000,-6.61657E-001,1.05799E-001,3.95399E+000,3.17468E-002,6.04687E-001,0,6.05768E+001,-1.11051E+001,9.97938E-001,1.78550E+001,-5.02008E+001,9.97813E-001,1.87620E-001,-7.94104E-002,-6.09053E-004,1.87622E-001,-7.94118E-002,-1.30681E-001,1.88357E-001,1.20637E+000,4.96924E-003,0.00000E+000,-4.81912E-003,9.26085E-001,0.00000E+000,-1.70374E-003,-7.26922E-002,1.00000E+000,33
659,1347,-1.38455E+001,4.62432E-001,4.07036E-002,3.89260E+000,-7.02225E-001,5.91330E-002,3.95588E+000,1.88615E-002,6.08785E-001,0,6.06443E+001,-1.16673E+001,9.98507E-001,1.80027E+001,-5.09173E+001,9.98595E-001,1.85547E-001,-7.94236E-002,-1.10112E-003,1.85551E-001,-7.94282E-002,-2.38095E-001,1.86190E-001,1.20387E+000,4.92302E-003,0.00000E+000,-5.65511E-003,9.26070E-001,0.00000E+000,-2.53828E-003,-7.27077E-002,1.00000E+000,33
659,1357,-1.38320E+001,1.06736E+000,4.00591E-002,3.88745E+000,-7.41893E-001,1.39643E-002,3.95764E+000,1.31400E-002,5.69866E-001,0,6.06873E+001,-1.21924E+001,9.98026E-001,1.83475E+001,-5.16367E+001,9.98216E-001,1.83457E-001,-7.94464E-002,-1.60637E-003,1.83467E-001,-7.94562E-002,-3.50067E-001,1.84014E-001,1.20136E+000,4.85113E-003,0.00000E+000,-6.49523E-003,9.26046E-001,0.00000E+000,-3.37695E-003,-7.27317E-002,1.00000E+000,33
1199,1307,2.94147E+001,-1.24153E+000,-5.48483E-002,1.19907E+001,-1.37193E-001,-5.29947E-003,1.19915E+001,1.96398E-002,4.08000E-001,0,1.79391E+002,-3.70384E+000,9.97538E-001,1.47374E+002,-3.14607E+001,9.96666E-001,2.10927E-001,-8.79918E-002,-1.95898E-003,2.10939E-001,-8.80047E-002,-3.75470E-001,2.11901E-001,1.23469E+000,-1.97028E-002,0.00000E+000,1.13744E-002,9.18068E-001,0.00000E+000,-6.72051E-003,-7.18463E-002,1.00000E+000,33
1199,1317,2.94249E+001,-6.44626E-001,-1.06470E-001,1.19837E+001,-1.90130E-001,-5.69775E-002,1.19854E+001,1.73958E-002,4.02536E-001,0,1.79495E+002,-4.46716E+000,9.96454E-001,1.47505E+002,-3.20697E+001,9.95312E-001,2.11761E-001,-8.79927E-002,-1.95294E-003,2.11773E-001,-8.80054E-002,-3.73270E-001,2.12778E-001,1.23572E+000,-1.96758E-002,0.00000E+000,1.13414E-002,9.18067E-001,0.00000E+000,-6.54117E-003,-7.18416E-002,1.00000E+000,33
1199,1327,2.94429E+001,-4.33092E-002,-1.44743E-001,1.19816E+001,-2.39740E-001,-1.06078E-001,1.19845E+001,1.79302E-002,3.99239E-001,0,1.79656E+002,-5.19523E+000,9.97625E-001,1.47775E+002,-3.26382E+001,9.96546E-001,2.12595E-001,-8.79936E-002,-1.94523E-003,2.12607E-001,-8.80062E-002,-3.70763E-001,2.13654E-001,1.23675E+000,-1.96444E-002,0.00000E+000,1.13084E-002,9.18066E-001,0.00000E+000,-6.36170E-003,-7.18361E-002,1.00000E+000,33
659,1317,-1.38976E+001,-1.28455E+000,1.99769E-001,3.86647E+000,-5.39705E-001,1.81734E-001,3.90818E+000,1.63622E-002,5.83524E-001,0,5.98695E+001,-9.32191E+000,9.97300E-001,1.72376E+001,-4.81387E+001,9.94370E-001,1.91744E-001,-7.93976E-002,3.57145E-004,1.91745E-001,-7.93980E-002,7.54692E-002,1.92686E-001,1.21135E+000,5.02359E-003,0.00000E+000,-3.15006E-003,9.26103E-001,0.00000E+000,-3.75639E-005,-7.26740E-002,1.00000E+000,33
1199,1337,2.94775E+001,5.62088E-001,-1.21955E-001,1.19815E+001,-2.95121E-001,-1.51207E-001,1.19861E+001,1.39038E-002,4.30549E-001,0,1.79808E+002,-6.01590E+000,9.98631E-001,1.48384E+002,-3.32612E+001,9.97520E-001,2.13436E-001,-8.79950E-002,-1.92846E-003,2.13448E-001,-8.80074E-002,-3.66540E-001,2.14540E-001,1.23779E+000,-1.95901E-002,0.00000E+000,1.12750E-002,9.18064E-001,0.00000E+000,-6.18038E-003,-7.18267E-002,1.00000E+000,33
1199,1297,2.94196E+001,-1.81883E+000,3.40156E-002,1.20028E+001,-6.97751E-002,4.50852E-002,1.20031E+001,1.49187E-002,4.21112E-001,0,1.79346E+002,-2.72617E+000,9.97285E-001,1.47527E+002,-3.06219E+001,9.95809E-001,2.10095E-001,-8.79913E-002,-1.95891E-003,2.10108E-001,-8.80041E-002,-3.76504E-001,2.11029E-001,1.23366E+000,-1.97143E-002,0.00000E+000,1.14073E-002,9.18068E-001,0.00000E+000,-6.89902E-003,-7.18483E-002,1.00000E+000,33
649,1347,-1.46266E+001,4.67484E-001,3.58388E-002,3.75157E+000,-6.92468E-001,4.99816E-002,3.81527E+000,1.81784E-002,6.19013E-001,0,5.85107E+001,-1.14739E+001,9.97832E-001,1.60426E+001,-5.09368E+001,9.96693E-001,1.83260E-001,-7.87339E-002,-9.77748E-004,1.83264E-001,-7.87376E-002,-2.13821E-001,1.83868E-001,1.20111E+000,7.65980E-003,0.00000E+000,-7.51109E-003,9.26659E-001,0.00000E+000,-2.94738E-003,-7.21807E-002,1.00000E+000,33
649,1357,-1.46066E+001,1.06354E+000,4.39163E-002,3.75357E+000,-7.39958E-001,1.60610E-002,3.82584E+000,1.24336E-002,5.75889E-001,0,5.86348E+001,-1.21524E+001,9.98399E-001,1.65107E+001,-5.18147E+001,9.97897E-001,1.80850E-001,-7.87534E-002,-1.47531E-003,1.80859E-001,-7.87617E-002,-3.25594E-001,1.81360E-001,1.19823E+000,7.57988E-003,0.00000E+000,-8.33381E-003,9.26637E-001,0.00000E+000,-3.84136E-003,-7.22055E-002,1.00000E+000,33
649,1337,-1.46468E+001,-1.22635E-001,7.10981E-002,3.74304E+000,-6.42427E-001,9.09148E-002,3.79886E+000,1.92557E-002,5.79897E-001,0,5.82595E+001,-1.07611E+001,9.98141E-001,1.56927E+001,-5.01053E+001,9.97589E-001,1.85661E-001,-7.87234E-002,-4.92466E-004,1.85662E-001,-7.87243E-002,-1.06724E-001,1.86375E-001,1.20399E+000,7.71182E-003,0.00000E+000,-6.68918E-003,9.26674E-001,0.00000E+000,-2.05428E-003,-7.21646E-002,1.00000E+000,33
649,1327,-1.46688E+001,-6.91085E-001,1.09675E-001,3.72952E+000,-5.75321E-001,1.16850E-001,3.77545E+000,1.52614E-002,5.62948E-001,0,5.79659E+001,-9.72943E+000,9.98883E-001,1.53304E+001,-4.89383E+001,9.98644E-001,1.88043E-001,-7.87172E-002,-1.56566E-005,1.88043E-001,-7.87172E-002,-3.36279E-003,1.88871E-001,1.20686E+000,7.74953E-003,0.00000E+000,-5.87140E-003,9.26685E-001,0.00000E+000,-1.16567E-003,-7.21529E-002,1.00000E+000,33
1209,1307,3.02338E+001,-1.22625E+000,-6.33703E-002,1.21431E+001,-1.28719E-001,-2.16891E-002,1.21438E+001,1.45639E-002,4.32511E-001,0,1.81579E+002,-3.57733E+000,9.98289E-001,1.50181E+002,-3.10951E+001,9.96709E-001,2.10438E-001,-8.75178E-002,-1.44089E-003,2.10445E-001,-8.75248E-002,-2.77070E-001,2.11435E-001,1.23410E+000,-1.84826E-002,0.00000E+000,1.14572E-002,9.18466E-001,0.00000E+000,-6.91516E-003,-7.13157E-002,1.00000E+000,33
1209,1317,3.02437E+001,-6.36957E-001,-1.13567E-001,1.21375E+001,-1.88460E-001,-6.49111E-002,1.21392E+001,1.66714E-002,3.98363E-001,0,1.81676E+002,-4.44999E+000,9.98050E-001,1.50310E+002,-3.18381E+001,9.95591E-001,2.11292E-001,-8.75186E-002,-1.43502E-003,2.11299E-001,-8.75255E-002,-2.75151E-001,2.12333E-001,1.23516E+000,-1.84577E-002,0.00000E+000,1.14201E-002,9.18465E-001,0.00000E+000,-6.64624E-003,-7.13094E-002,1.00000E+000,33
1209,1327,3.02746E+001,-2.70405E-002,-1.31707E-001,1.21437E+001,-2.31746E-001,-1.11534E-001,1.21464E+001,1.65869E-002,3.75443E-001,0,1.81940E+002,-5.08693E+000,9.98258E-001,1.50807E+002,-3.23238E+001,9.97036E-001,2.12149E-001,-8.75196E-002,-1.42336E-003,2.12156E-001,-8.75264E-002,-2.72134E-001,2.13234E-001,1.23621E+000,-1.84180E-002,0.00000E+000,1.13829E-002,9.18463E-001,0.00000E+000,-6.37641E-003,-7.12993E-002,1.00000E+000,33
1209,1337,3.03064E+001,5.74922E-001,-1.06554E-001,1.21402E+001,-2.92046E-001,-1.55315E-001,1.21447E+001,1.64749E-002,4.44841E-001,0,1.82038E+002,-5.98805E+000,9.98080E-001,1.51372E+002,-3.29855E+001,9.96112E-001,2.13013E-001,-8.75209E-002,-1.40505E-003,2.13020E-001,-8.75275E-002,-2.67859E-001,2.14145E-001,1.23728E+000,-1.83615E-002,0.00000E+000,1.13453E-002,9.18461E-001,0.00000E+000,-6.10377E-003,-7.12848E-002,1.00000E+000,33
1209,1297,3.02407E+001,-1.80579E+000,2.64992E-002,1.21592E+001,-6.18176E-002,3.65770E-002,1.21594E+001,1.34517E-002,4.09646E-001,0,1.81561E+002,-2.61448E+000,9.98171E-001,1.50367E+002,-3.03127E+001,9.96077E-001,2.09584E-001,-8.75173E-002,-1.44275E-003,2.09591E-001,-8.75243E-002,-2.78224E-001,2.10538E-001,1.23305E+000,-1.84975E-002,0.00000E+000,1.14942E-002,9.18466E-001,0.00000E+000,-7.18358E-003,-7.13195E-002,1.00000E+000,33
649,1317,-1.46730E+001,-1.27932E+000,2.01086E-001,3.72906E+000,-5.31890E-001,1.68146E-001,3.77055E+000,1.33619E-002,5.89948E-001,0,5.78062E+001,-9.14944E+000,9.98208E-001,1.53821E+001,-4.81641E+001,9.97724E-001,1.90411E-001,-7.87177E-002,4.50935E-004,1.90411E-001,-7.87184E-002,9.60009E-002,1.91361E-001,1.20972E+000,7.76603E-003,0.00000E+000,-5.05594E-003,9.26690E-001,0.00000E+000,-2.79585E-004,-7.21478E-002,1.00000E+000,33
639,1347,-1.54028E+001,4.74635E-001,3.29008E-002,3.61612E+000,-6.79086E-001,4.88065E-002,3.67966E+000,1.88834E-002,5.92629E-001,0,5.64380E+001,-1.12340E+001,9.96973E-001,1.41689E+001,-5.09461E+001,9.96037E-001,1.81177E-001,-7.78232E-002,-8.85931E-004,1.81180E-001,-7.78262E-002,-1.95982E-001,1.81779E-001,1.19859E+000,1.07434E-002,0.00000E+000,-9.71105E-003,9.27432E-001,0.00000E+000,-3.29956E-003,-7.14249E-002,1.00000E+000,33
639,1357,-1.53805E+001,1.07428E+000,4.28392E-002,3.62037E+000,-7.23608E-001,1.56875E-002,3.69201E+000,1.24659E-002,5.84143E-001,0,5.65935E+001,-1.18749E+001,9.98022E-001,1.46794E+001,-5.17574E+001,9.97832E-001,1.78553E-001,-7.78397E-002,-1.36967E-003,1.78561E-001,-7.78470E-002,-3.06067E-001,1.79048E-001,1.19546E+000,1.06566E-002,0.00000E+000,-1.05026E-002,9.27410E-001,0.00000E+000,-4.32259E-003,-7.14532E-002,1.00000E+000,33
639,1317,-1.54380E+001,-1.29028E+000,2.21520E-001,3.60184E+000,-5.41479E-001,1.75381E-001,3.64653E+000,1.72786E-002,6.51506E-001,0,5.58449E+001,-9.30183E+000,9.98119E-001,1.37386E+001,-4.84502E+001,9.96943E-001,1.88937E-001,-7.78185E-002,4.87308E-004,1.88938E-001,-7.78193E-002,1.04667E-001,1.89913E-001,1.20792E+000,1.08446E-002,0.00000E+000,-7.35524E-003,9.27458E-001,0.00000E+000,-2.54712E-004,-7.13919E-002,1.00000E+000,33
639,1327,-1.54308E+001,-7.11866E-001,1.32764E-001,3.60681E+000,-5.91347E-001,1.34497E-001,3.65744E+000,1.26113E-002,5.93511E-001,0,5.60469E+001,-1.00227E+001,9.98496E-001,1.37382E+001,-4.93984E+001,9.97775E-001,1.86374E-001,-7.78137E-002,4.17874E-005,1.86374E-001,-7.78137E-002,9.06265E-003,1.87218E-001,1.20483E+000,1.08337E-002,0.00000E+000,-8.13582E-003,9.27455E-001,0.00000E+000,-1.26361E-003,-7.13954E-002,1.00000E+000,33
639,1337,-1.54215E+001,-1.17412E-001,6.30762E-002,3.60948E+000,-6.32677E-001,8.78753E-002,3.66556E+000,1.57335E-002,6.26301E-001,0,5.62236E+001,-1.05811E+001,9.97717E-001,1.38261E+001,-5.00948E+001,9.97132E-001,1.83780E-001,-7.78147E-002,-4.16443E-004,1.83781E-001,-7.78154E-002,-9.12111E-002,1.84498E-001,1.20171E+000,1.08017E-002,0.00000E+000,-8.92331E-003,9.27447E-001,0.00000E+000,-2.28142E-003,-7.14059E-002,1.00000E+000,33
1219,1317,3.10712E+001,-6.24840E-001,-1.07478E-001,1.22959E+001,-1.86661E-001,-7.34012E-002,1.22975E+001,2.02664E-002,4.64512E-001,0,1.83917E+002,-4.42923E+000,9.98093E-001,1.53270E+002,-3.15303E+001,9.95554E-001,2.10603E-001,-8.74942E-002,-8.36042E-004,2.10606E-001,-8.74965E-002,-1.60690E-001,2.11607E-001,1.23432E+000,-1.69887E-002,0.00000E+000,1.14353E-002,9.18436E-001,0.00000E+000,-6.38236E-003,-7.05471E-002,1.00000E+000,33
1219,1327,3.10976E+001,-1.63839E-002,-1.31504E-001,1.22996E+001,-2.29362E-001,-1.17933E-001,1.23023E+001,1.04385E-002,4.01680E-001,0,1.84138E+002,-5.06007E+000,9.99151E-001,1.53690E+002,-3.20447E+001,9.98100E-001,2.11401E-001,-8.74945E-002,-8.20364E-004,2.11404E-001,-8.74967E-002,-1.57255E-001,2.12446E-001,1.23531E+000,-1.69546E-002,0.00000E+000,1.14006E-002,9.18434E-001,0.00000E+000,-5.94211E-003,-7.05319E-002,1.00000E+000,33
1219,1337,3.11345E+001,5.91721E-001,-1.03619E-001,1.23002E+001,-2.84090E-001,-1.61527E-001,1.23046E+001,1.56253E-002,4.72286E-001,0,1.84295E+002,-5.87924E+000,9.98308E-001,1.54335E+002,-3.26143E+001,9.96704E-001,2.12209E-001,-8.74949E-002,-7.96701E-004,2.12211E-001,-8.74970E-002,-1.52307E-001,2.13296E-001,1.23630E+000,-1.69004E-002,0.00000E+000,1.13654E-002,9.18433E-001,0.00000E+000,-5.49592E-003,-7.05076E-002,1.00000E+000,33
1219,1297,3.10660E+001,-1.79419E+000,1.89429E-002,1.23180E+001,-5.73043E-002,2.38886E-002,1.23182E+001,1.48354E-002,3.78118E-001,0,1.83827E+002,-2.51575E+000,9.98013E-001,1.53277E+002,-3.00355E+001,9.96179E-001,2.09004E-001,-8.74938E-002,-8.56697E-004,2.09006E-001,-8.74963E-002,-1.65548E-001,2.09927E-001,1.23236E+000,-1.70299E-002,0.00000E+000,1.15047E-002,9.18437E-001,0.00000E+000,-7.26314E-003,-7.05656E-002,1.00000E+000,33
1219,1307,3.10661E+001,-1.21045E+000,-4.72102E-002,1.23064E+001,-1.21697E-001,-2.02110E-002,1.23070E+001,1.88014E-002,4.10117E-001,0,1.83847E+002,-3.47441E+000,9.98144E-001,1.53231E+002,-3.07968E+001,9.95551E-001,2.09803E-001,-8.74940E-002,-8.47527E-004,2.09805E-001,-8.74964E-002,-1.63336E-001,2.10766E-001,1.23334E+000,-1.70122E-002,0.00000E+000,1.14701E-002,9.18436E-001,0.00000E+000,-6.82329E-003,-7.05577E-002,1.00000E+000,33
629,1347,-1.61716E+001,4.67530E-001,2.85351E-002,3.48809E+000,-6.79823E-001,4.88703E-002,3.55405E+000,1.68022E-002,5.80133E-001,0,5.44785E+001,-1.12223E+001,9.96381E-001,1.24057E+001,-5.11636E+001,9.95892E-001,1.79416E-001,-7.81754E-002,-8.83552E-004,1.79419E-001,-7.81785E-002,-1.96525E-001,1.79912E-001,1.19645E+000,1.39240E-002,0.00000E+000,-1.21782E-002,9.27055E-001,0.00000E+000,-3.18669E-003,-7.11143E-002,1.00000E+000,33
629,1357,-1.61425E+001,1.06808E+000,4.27810E-002,3.49899E+000,-7.23526E-001,1.82272E-002,3.57306E+000,1.43402E-002,5.71691E-001,0,5.47300E+001,-1.18558E+001,9.96813E-001,1.30341E+001,-5.19712E+001,9.96573E-001,1.76903E-001,-7.81831E-002,-1.14995E-003,1.76908E-001,-7.81883E-002,-2.58288E-001,1.77305E-001,1.19345E+000,1.38407E-002,0.00000E+000,-1.25793E-002,9.27044E-001,0.00000E+000,-4.08683E-003,-7.11393E-002,1.00000E+000,33
629,1327,-1.61990E+001,-7.10917E-001,1.30238E-001,3.47892E+000,-5.84624E-001,1.34282E-001,3.53025E+000,1.32588E-002,5.78984E-001,0,5.40897E+001,-9.89558E+000,9.97612E-001,1.19921E+001,-4.94933E+001,9.97136E-001,1.84395E-001,-7.81737E-002,-3.87897E-004,1.84396E-001,-7.81742E-002,-8.46437E-002,1.85106E-001,1.20241E+000,1.40073E-002,0.00000E+000,-1.13797E-002,9.27067E-001,0.00000E+000,-1.39515E-003,-7.10893E-002,1.00000E+000,33
629,1337,-1.61850E+001,-1.23933E-001,6.25138E-002,3.48630E+000,-6.33120E-001,8.91603E-002,3.54445E+000,1.56887E-002,6.25740E-001,0,5.43366E+001,-1.05792E+001,9.97294E-001,1.21557E+001,-5.03030E+001,9.96795E-001,1.81910E-001,-7.81727E-002,-6.30959E-004,1.81911E-001,-7.81743E-002,-1.38998E-001,1.82509E-001,1.19943E+000,1.39769E-002,0.00000E+000,-1.17789E-002,9.27062E-001,0.00000E+000,-2.29069E-003,-7.10984E-002,1.00000E+000,33
1229,1317,3.18993E+001,-6.01755E-001,-1.23720E-001,1.24575E+001,-1.69957E-001,-9.25356E-002,1.24590E+001,2.16988E-002,4.57003E-001,0,1.86245E+002,-4.15747E+000,9.97960E-001,1.56219E+002,-3.10399E+001,9.96397E-001,2.10170E-001,-8.70347E-002,-1.60795E-004,2.10170E-001,-8.70348E-002,-3.09983E-002,2.11201E-001,1.23381E+000,-1.54913E-002,0.00000E+000,1.15460E-002,9.18811E-001,0.00000E+000,-5.70822E-003,-6.98519E-002,1.00000E+000,33
1229,1327,3.19186E+001,-8.92993E-003,-1.34212E-001,1.24534E+001,-2.31577E-001,-1.24854E-001,1.24562E+001,1.37042E-002,4.56599E-001,0,1.86308E+002,-5.08986E+000,9.98457E-001,1.56540E+002,-3.17952E+001,9.97187E-001,2.10868E-001,-8.70316E-002,-1.12124E-004,2.10868E-001,-8.70316E-002,-2.15651E-002,2.11936E-001,1.23466E+000,-1.54608E-002,0.00000E+000,1.15706E-002,9.18811E-001,0.00000E+000,-5.15616E-003,-6.98323E-002,1.00000E+000,33
1229,1337,3.19583E+001,6.04569E-001,-1.14740E-001,1.24597E+001,-2.75902E-001,-1.65724E-001,1.24639E+001,1.46138E-002,4.18690E-001,0,1.86537E+002,-5.75989E+000,9.97643E-001,1.57218E+002,-3.23145E+001,9.96481E-001,2.11565E-001,-8.70274E-002,-5.82163E-005,2.11565E-001,-8.70274E-002,-1.11709E-002,2.12671E-001,1.23552E+000,-1.54172E-002,0.00000E+000,1.15953E-002,9.18813E-001,0.00000E+000,-4.60314E-003,-6.98043E-002,1.00000E+000,33
629,1317,-1.62130E+001,-1.28738E+000,2.22691E-001,3.46693E+000,-5.32617E-001,1.77757E-001,3.51211E+000,1.48882E-002,6.40604E-001,0,5.37715E+001,-9.15697E+000,9.97963E-001,1.19001E+001,-4.85202E+001,9.97057E-001,1.86855E-001,-7.81779E-002,-1.55292E-004,1.86855E-001,-7.81780E-002,-3.35716E-002,1.87683E-001,1.20537E+000,1.40167E-002,0.00000E+000,-1.09837E-002,9.27068E-001,0.00000E+000,-5.06435E-004,-7.10865E-002,1.00000E+000,33
1229,1297,3.18919E+001,-1.77846E+000,1.49744E-002,1.24770E+001,-4.89644E-002,1.49182E-002,1.24771E+001,1.70053E-002,4.34561E-001,0,1.86074E+002,-2.40500E+000,9.96718E-001,1.56205E+002,-2.96581E+001,9.94399E-001,2.08780E-001,-8.70390E-002,-2.47618E-004,2.08780E-001,-8.70392E-002,-4.79598E-002,2.09740E-001,1.23210E+000,-1.55266E-002,0.00000E+000,1.14970E-002,9.18810E-001,0.00000E+000,-6.80660E-003,-6.98747E-002,1.00000E+000,33
1229,1307,3.19037E+001,-1.18647E+000,-4.92655E-002,1.24784E+001,-1.04033E-001,-2.19697E-002,1.24789E+001,2.46671E-002,4.28914E-001,0,1.86256E+002,-3.22918E+000,9.96362E-001,1.56345E+002,-3.03109E+001,9.94973E-001,2.09475E-001,-8.70371E-002,-2.05860E-004,2.09475E-001,-8.70373E-002,-3.97788E-002,2.10469E-001,1.23295E+000,-1.55130E-002,0.00000E+000,1.15215E-002,9.18810E-001,0.00000E+000,-6.25834E-003,-6.98659E-002,1.00000E+000,33
619,1327,-1.69705E+001,-7.11747E-001,1.30594E-001,3.34702E+000,-5.79920E-001,1.35629E-001,3.39959E+000,1.08182E-002,5.77309E-001,0,5.20635E+001,-9.80899E+000,9.97789E-001,1.02076E+001,-4.96158E+001,9.97673E-001,1.82887E-001,-7.74845E-002,-6.82191E-004,1.82889E-001,-7.74863E-002,-1.50118E-001,1.83598E-001,1.20056E+000,1.73375E-002,0.00000E+000,-1.45048E-002,9.27657E-001,0.00000E+000,-1.55089E-003,-7.10090E-002,1.00000E+000,33
619,1337,-1.69521E+001,-1.23690E-001,6.69906E-002,3.35804E+000,-6.27737E-001,9.00219E-002,3.41739E+000,1.32331E-002,6.27236E-001,0,5.23665E+001,-1.04836E+001,9.96239E-001,1.04492E+001,-5.04178E+001,9.95825E-001,1.80262E-001,-7.74834E-002,-8.09383E-004,1.80265E-001,-7.74860E-002,-1.79920E-001,1.80855E-001,1.19741E+000,1.73023E-002,0.00000E+000,-1.47033E-002,9.27654E-001,0.00000E+000,-2.26940E-003,-7.10171E-002,1.00000E+000,33
619,1347,-1.69329E+001,4.71025E-001,2.69859E-002,3.36713E+000,-6.69990E-001,5.09222E-002,3.43351E+000,1.59901E-002,5.89802E-001,0,5.26181E+001,-1.10634E+001,9.95706E-001,1.07745E+001,-5.12125E+001,9.95476E-001,1.77631E-001,-7.74835E-002,-9.42224E-004,1.77635E-001,-7.74870E-002,-2.11609E-001,1.78116E-001,1.19427E+000,1.72533E-002,0.00000E+000,-1.49017E-002,9.27651E-001,0.00000E+000,-2.98750E-003,-7.10283E-002,1.00000E+000,33
619,1357,-1.69051E+001,1.07188E+000,3.31746E-002,3.37785E+000,-7.12238E-001,1.79274E-002,3.45217E+000,1.44848E-002,5.75587E-001,0,5.28732E+001,-1.16672E+001,9.97329E-001,1.13616E+001,-5.20027E+001,9.97270E-001,1.74981E-001,-7.74864E-002,-1.08921E-003,1.74986E-001,-7.74911E-002,-2.47183E-001,1.75367E-001,1.19111E+000,1.71716E-002,0.00000E+000,-1.51009E-002,9.27646E-001,0.00000E+000,-3.70866E-003,-7.10469E-002,1.00000E+000,33
619,1317,-1.69810E+001,-1.28424E+000,2.27163E-001,3.33861E+000,-5.22499E-001,1.83725E-001,3.38424E+000,1.84639E-002,6.05361E-001,0,5.17879E+001,-9.00426E+000,9.96798E-001,1.01826E+001,-4.86047E+001,9.96278E-001,1.85490E-001,-7.74876E-002,-5.65884E-004,1.85491E-001,-7.74888E-002,-1.23290E-001,1.86326E-001,1.20369E+000,1.73477E-002,0.00000E+000,-1.43073E-002,9.27657E-001,0.00000E+000,-8.36174E-004,-7.10067E-002,1.00000E+000,33
1239,1307,3.27160E+001,-1.17832E+000,-7.34837E-002,1.26255E+001,-1.00606E-001,-4.29530E-002,1.26260E+001,2.52382E-002,4.19476E-001,0,1.88380E+002,-3.16179E+000,9.96195E-001,1.59042E+002,-3.00406E+001,9.94233E-001,2.08793E-001,-8.62642E-002,9.60603E-005,2.08793E-001,-8.62642E-002,1.86535E-002,2.09840E-001,1.23212E+000,-1.43932E-002,0.00000E+000,1.12659E-002,9.19491E-001,0.00000E+000,-6.25499E-003,-6.93514E-002,1.00000E+000,33
1239,1317,3.27260E+001,-5.77726E-001,-1.36140E-001,1.26192E+001,-1.49828E-001,-1.00420E-001,1.26205E+001,2.50830E-002,4.24302E-001,0,1.88524E+002,-3.86741E+000,9.96762E-001,1.59156E+002,-3.05563E+001,9.95368E-001,2.09573E-001,-8.62545E-002,2.40035E-004,2.09573E-001,-8.62547E-002,4.64899E-002,2.10663E-001,1.23308E+000,-1.43693E-002,0.00000E+000,1.14446E-002,9.19495E-001,0.00000E+000,-5.25949E-003,-6.93265E-002,1.00000E+000,33
1239,1327,3.27487E+001,1.38611E-002,-1.23619E-001,1.26137E+001,-2.17621E-001,-1.27051E-001,1.26162E+001,1.90346E-002,4.88667E-001,0,1.88538E+002,-4.90496E+000,9.97199E-001,1.59555E+002,-3.13472E+001,9.96416E-001,2.10359E-001,-8.62400E-002,3.92223E-004,2.10359E-001,-8.62405E-002,7.57678E-002,2.11493E-001,1.23404E+000,-1.43281E-002,0.00000E+000,1.16252E-002,9.19503E-001,0.00000E+000,-4.25349E-003,-6.92836E-002,1.00000E+000,33
1239,1337,3.27726E+001,6.23763E-001,-1.15728E-001,1.26077E+001,-2.62800E-001,-1.65607E-001,1.26115E+001,1.58622E-002,4.06692E-001,0,1.88581E+002,-5.58531E+000,9.96653E-001,1.59969E+002,-3.19192E+001,9.94626E-001,2.11137E-001,-8.62248E-002,5.44339E-004,2.11138E-001,-8.62258E-002,1.04883E-001,2.12317E-001,1.23500E+000,-1.42844E-002,0.00000E+000,1.18045E-002,9.19511E-001,0.00000E+000,-3.25475E-003,-6.92380E-002,1.00000E+000,33
1239,1297,3.27129E+001,-1.76661E+000,1.18922E-002,1.26318E+001,-4.21984E-002,1.10417E-002,1.26319E+001,1.59866E-002,4.53505E-001,0,1.88235E+002,-2.33670E+000,9.96924E-001,1.59063E+002,-2.93624E+001,9.95166E-001,2.08014E-001,-8.62710E-002,-4.36362E-005,2.08014E-001,-8.62710E-002,-8.49575E-003,2.09019E-001,1.23117E+000,-1.44070E-002,0.00000E+000,1.10876E-002,9.19488E-001,0.00000E+000,-7.24817E-003,-6.93658E-002,1.00000E+000,33
609,1347,-1.76939E+001,4.69091E-001,2.97732E-002,3.24504E+000,-6.66819E-001,5.18974E-002,3.31325E+000,2.01673E-002,6.16155E-001,0,5.07416E+001,-1.10081E+001,9.95315E-001,9.16291E+000,-5.13460E+001,9.95069E-001,1.75926E-001,-7.59348E-002,-1.20405E-003,1.75932E-001,-7.59406E-002,-2.73900E-001,1.76479E-001,1.19219E+000,2.04169E-002,0.00000E+000,-1.79135E-002,9.28974E-001,0.00000E+000,-2.68765E-003,-7.00775E-002,1.00000E+000,33
609,1357,-1.76682E+001,1.07669E+000,2.84923E-002,3.25480E+000,-7.01212E-001,1.67873E-002,3.32952E+000,1.60402E-002,5.92593E-001,0,5.09857E+001,-1.14805E+001,9.97104E-001,9.70081E+000,-5.20233E+001,9.96859E-001,1.73196E-001,-7.59359E-002,-1.30182E-003,1.73203E-001,-7.59427E-002,-2.99383E-001,1.73640E-001,1.18894E+000,2.03382E-002,0.00000E+000,-1.80199E-002,9.28972E-001,0.00000E+000,-3.58776E-003,-7.00993E-002,1.00000E+000,33
609,1317,-1.77542E+001,-1.28861E+000,2.23133E-001,3.20411E+000,-5.21310E-001,1.77888E-001,3.25111E+000,1.80595E-002,6.21658E-001,0,4.97394E+001,-8.97627E+000,9.97392E-001,8.36494E+000,-4.87621E+001,9.96418E-001,1.84030E-001,-7.59392E-002,-9.69670E-004,1.84034E-001,-7.59428E-002,-2.13706E-001,1.84968E-001,1.20188E+000,2.05128E-002,0.00000E+000,-1.75959E-002,9.28978E-001,0.00000E+000,1.48542E-006,-7.00509E-002,1.00000E+000,33
609,1327,-1.77388E+001,-7.18558E-001,1.28172E-001,3.21794E+000,-5.82216E-001,1.34294E-001,3.27294E+000,1.25912E-002,6.18956E-001,0,5.00875E+001,-9.83256E+000,9.97970E-001,8.46816E+000,-4.98026E+001,9.97405E-001,1.81341E-001,-7.59364E-002,-1.03786E-003,1.81345E-001,-7.59406E-002,-2.31127E-001,1.82142E-001,1.19865E+000,2.05047E-002,0.00000E+000,-1.77016E-002,9.28977E-001,0.00000E+000,-8.93622E-004,-7.00531E-002,1.00000E+000,33
609,1337,-1.77163E+001,-1.23337E-001,6.73159E-002,3.23317E+000,-6.21170E-001,9.09626E-002,3.29356E+000,1.61358E-002,6.12413E-001,0,5.04469E+001,-1.03691E+001,9.96148E-001,8.78344E+000,-5.05299E+001,9.95577E-001,1.78642E-001,-7.59352E-002,-1.11755E-003,1.78647E-001,-7.59401E-002,-2.51512E-001,1.79315E-001,1.19542E+000,2.04687E-002,0.00000E+000,-1.78074E-002,9.28976E-001,0.00000E+000,-1.78907E-003,-7.00631E-002,1.00000E+000,33
1249,1297,3.35385E+001,-1.74740E+000,1.89486E-002,1.27891E+001,-3.00603E-002,1.16297E-002,1.27891E+001,1.82955E-002,4.91202E-001,0,1.90404E+002,-2.18759E+000,9.97449E-001,1.62007E+002,-2.89642E+001,9.95600E-001,2.06793E-001,-8.54282E-002,1.65486E-004,2.06793E-001,-8.54283E-002,3.24468E-002,2.07831E-001,1.22969E+000,-1.27624E-002,0.00000E+000,1.03240E-002,9.20257E-001,0.00000E+000,-8.05187E-003,-6.91250E-002,1.00000E+000,33
1249,1307,3.35339E+001,-1.16591E+000,-7.85921E-002,1.27775E+001,-9.36005E-002,-4.50846E-002,1.27779E+001,2.22057E-002,4.31816E-001,0,1.90491E+002,-3.08148E+000,9.97473E-001,1.61851E+002,-2.97340E+001,9.95239E-001,2.07807E-001,-8.54132E-002,5.23521E-004,2.07808E-001,-8.54141E-002,1.02297E-001,2.08902E-001,1.23093E+000,-1.27491E-002,0.00000E+000,1.08683E-002,9.20263E-001,0.00000E+000,-6.42326E-003,-6.91075E-002,1.00000E+000,33
1249,1317,3.35417E+001,-5.71334E-001,-1.24736E-001,1.27699E+001,-1.48166E-001,-8.22025E-002,1.27711E+001,2.20787E-002,4.04951E-001,0,1.90535E+002,-3.90297E+000,9.95216E-001,1.61950E+002,-3.03939E+001,9.93516E-001,2.08820E-001,-8.53888E-002,8.88925E-004,2.08823E-001,-8.53915E-002,1.73112E-001,2.09975E-001,1.23217E+000,-1.27198E-002,0.00000E+000,1.14142E-002,9.20276E-001,0.00000E+000,-4.78943E-003,-6.90688E-002,1.00000E+000,33
1249,1327,3.35576E+001,3.68051E-002,-1.39928E-001,1.27602E+001,-1.96275E-001,-1.26328E-001,1.27624E+001,2.13373E-002,4.47774E-001,0,1.90557E+002,-4.62112E+000,9.95170E-001,1.62210E+002,-3.08765E+001,9.94550E-001,2.09837E-001,-8.53532E-002,1.26432E-003,2.09842E-001,-8.53586E-002,2.45396E-001,2.11054E-001,1.23342E+000,-1.26711E-002,0.00000E+000,1.19641E-002,9.20298E-001,0.00000E+000,-3.14380E-003,-6.90047E-002,1.00000E+000,33
1249,1337,3.35848E+001,6.46910E-001,-1.24341E-001,1.27546E+001,-2.45233E-001,-1.67361E-001,1.27580E+001,1.66048E-002,4.12076E-001,0,1.90614E+002,-5.34246E+000,9.97541E-001,1.62683E+002,-3.14374E+001,9.97152E-001,2.10851E-001,-8.53096E-002,1.64551E-003,2.10860E-001,-8.53187E-002,3.18331E-001,2.12135E-001,1.23467E+000,-1.26086E-002,0.00000E+000,1.25149E-002,9.20325E-001,0.00000E+000,-1.49554E-003,-6.89223E-002,1.00000E+000,33
1259,1327,3.43748E+001,4.92587E-002,-1.50424E-001,1.29110E+001,-1.88448E-001,-1.33348E-001,1.29130E+001,1.71226E-002,3.95879E-001,0,1.92668E+002,-4.50609E+000,9.97853E-001,1.65006E+002,-3.05866E+001,9.97260E-001,2.09599E-001,-8.48440E-002,1.99641E-003,2.09612E-001,-8.48575E-002,3.88458E-001,2.10874E-001,1.23313E+000,-1.17634E-002,0.00000E+000,1.25405E-002,9.20727E-001,0.00000E+000,-1.22503E-003,-6.84892E-002,1.00000E+000,33
1259,1337,3.44049E+001,6.58280E-001,-1.24317E-001,1.29075E+001,-2.39271E-001,-1.65498E-001,1.29108E+001,1.57801E-002,3.79662E-001,0,1.92720E+002,-5.28112E+000,9.98550E-001,1.65534E+002,-3.11760E+001,9.98434E-001,2.10683E-001,-8.47825E-002,2.51603E-003,2.10704E-001,-8.48039E-002,4.87853E-001,2.12036E-001,1.23447E+000,-1.16948E-002,0.00000E+000,1.33051E-002,9.20767E-001,0.00000E+000,1.08456E-003,-6.83712E-002,1.00000E+000,33
599,1347,-1.84463E+001,4.82190E-001,4.29140E-002,3.13066E+000,-6.48591E-001,6.02426E-002,3.19771E+000,1.99173E-002,6.35561E-001,0,4.89587E+001,-1.07383E+001,9.97216E-001,7.72141E+000,-5.12738E+001,9.97406E-001,1.75042E-001,-7.58870E-002,-9.51146E-004,1.75045E-001,-7.58906E-002,-2.17176E-001,1.75560E-001,1.19109E+000,2.28406E-002,0.00000E+000,-1.93598E-002,9.28896E-001,0.00000E+000,-2.39355E-003,-6.86220E-002,1.00000E+000,33
599,1357,-1.84165E+001,1.07545E+000,3.75716E-002,3.14511E+000,-6.97004E-001,2.38660E-002,3.22151E+000,1.32399E-002,6.08792E-001,0,4.92831E+001,-1.14217E+001,9.97679E-001,8.30762E+000,-5.21655E+001,9.97567E-001,1.72474E-001,-7.58855E-002,-7.40861E-004,1.72477E-001,-7.58878E-002,-1.70912E-001,1.72890E-001,1.18804E+000,2.27698E-002,0.00000E+000,-1.88983E-002,9.28907E-001,0.00000E+000,-3.30430E-003,-6.86431E-002,1.00000E+000,33
1259,1287,3.43609E+001,-2.31855E+000,1.04457E-001,1.29482E+001,3.89813E-002,4.42972E-002,1.29484E+001,1.86129E-002,4.23665E-001,0,1.92445E+002,-1.15327E+000,9.96172E-001,1.64966E+002,-2.79772E+001,9.92825E-001,2.05232E-001,-8.49617E-002,-1.21029E-006,2.05232E-001,-8.49617E-002,-2.38960E-004,2.06242E-001,1.22781E+000,-1.18681E-002,0.00000E+000,9.50931E-003,9.20668E-001,0.00000E+000,-1.03812E-002,-6.86693E-002,1.00000E+000,33
1259,1297,3.43532E+001,-1.73716E+000,-1.13805E-002,1.29391E+001,-2.35139E-002,-9.52975E-003,1.29392E+001,1.69872E-002,4.40270E-001,0,1.92566E+002,-2.05217E+000,9.96812E-001,1.64742E+002,-2.86712E+001,9.93807E-001,2.06331E-001,-8.49500E-002,4.87725E-004,2.06331E-001,-8.49508E-002,9.59367E-002,2.07401E-001,1.22914E+000,-1.18652E-002,0.00000E+000,1.02647E-002,9.20669E-001,0.00000E+000,-8.09943E-003,-6.86643E-002,1.00000E+000,33
1259,1307,3.43527E+001,-1.14825E+000,-8.86960E-002,1.29304E+001,-8.13161E-002,-5.06286E-002,1.29308E+001,1.68956E-002,4.32740E-001,0,1.92624E+002,-2.90569E+000,9.97268E-001,1.64676E+002,-2.93408E+001,9.95655E-001,2.07424E-001,-8.49275E-002,9.82940E-004,2.07428E-001,-8.49308E-002,1.92636E-001,2.08558E-001,1.23046E+000,-1.18482E-002,0.00000E+000,1.10214E-002,9.20679E-001,0.00000E+000,-5.81377E-003,-6.86351E-002,1.00000E+000,33
599,1327,-1.85022E+001,-6.98562E-001,1.40577E-001,3.09201E+000,-5.58140E-001,1.39529E-001,3.14508E+000,1.45065E-002,6.10637E-001,0,4.81324E+001,-9.44417E+000,9.97851E-001,6.85893E+000,-4.96337E+001,9.97032E-001,1.80133E-001,-7.58809E-002,-1.39521E-003,1.80141E-001,-7.58885E-002,-3.12234E-001,1.80884E-001,1.19716E+000,2.29202E-002,0.00000E+000,-2.02793E-002,9.28884E-001,0.00000E+000,-5.79061E-004,-6.85982E-002,1.00000E+000,33
599,1337,-1.84785E+001,-1.14096E-001,6.95468E-002,3.10989E+000,-6.06305E-001,9.46521E-002,3.16985E+000,1.35659E-002,6.12299E-001,0,4.85398E+001,-1.01274E+001,9.97447E-001,7.15901E+000,-5.05022E+001,9.97518E-001,1.77597E-001,-7.58858E-002,-1.16837E-003,1.77603E-001,-7.58912E-002,-2.64083E-001,1.78227E-001,1.19413E+000,2.28936E-002,0.00000E+000,-1.98206E-002,9.28888E-001,0.00000E+000,-1.48424E-003,-6.86062E-002,1.00000E+000,33
1259,1317,3.43596E+001,-5.52655E-001,-1.32145E-001,1.29214E+001,-1.35841E-001,-8.61928E-002,1.29224E+001,1.76697E-002,4.26838E-001,0,1.92640E+002,-3.73162E+000,9.97641E-001,1.64761E+002,-2.99787E+001,9.96406E-001,2.08513E-001,-8.48933E-002,1.48517E-003,2.08521E-001,-8.49008E-002,2.90010E-001,2.09716E-001,1.23180E+000,-1.18158E-002,0.00000E+000,1.17798E-002,9.20698E-001,0.00000E+000,-3.52281E-003,-6.85794E-002,1.00000E+000,33
599,1317,-1.85260E+001,-1.28261E+000,2.32840E-001,3.06953E+000,-5.12201E-001,1.79395E-001,3.11713E+000,1.80878E-002,5.88407E-001,0,4.76641E+001,-8.79090E+000,9.97580E-001,6.61679E+000,-4.88138E+001,9.97299E-001,1.82661E-001,-7.58731E-002,-1.63001E-003,1.82671E-001,-7.58834E-002,-3.61220E-001,1.83540E-001,1.20019E+000,2.29267E-002,0.00000E+000,-2.07377E-002,9.28883E-001,0.00000E+000,3.25706E-004,-6.85963E-002,1.00000E+000,33
589,1347,-1.92097E+001,4.95159E-001,4.86453E-002,3.00573E+000,-6.30002E-001,6.57024E-002,3.07175E+000,1.39458E-002,6.19746E-001,0,4.70172E+001,-1.04345E+001,9.97781E-001,6.09805E+000,-5.12068E+001,9.97692E-001,1.74263E-001,-7.55227E-002,-2.28451E-004,1.74263E-001,-7.55229E-002,-5.24020E-002,1.74778E-001,1.19009E+000,2.62960E-002,0.00000E+000,-2.07240E-002,9.29113E-001,0.00000E+000,-2.28032E-003,-6.71796E-002,1.00000E+000,33
589,1357,-1.91745E+001,1.08754E+000,4.59295E-002,3.02512E+000,-6.80294E-001,2.86337E-002,3.10080E+000,1.15149E-002,6.14711E-001,0,4.74203E+001,-1.11460E+001,9.98012E-001,6.77447E+000,-5.21082E+001,9.98154E-001,1.71644E-001,-7.55220E-002,-1.32110E-005,1.71644E-001,-7.55220E-002,-3.06246E-003,1.72055E-001,1.18698E+000,2.62221E-002,0.00000E+000,-2.02727E-002,9.29124E-001,0.00000E+000,-2.98920E-003,-6.71965E-002,1.00000E+000,33
589,1337,-1.92368E+001,-1.06521E-001,7.98677E-002,2.98901E+000,-5.93823E-001,9.89697E-002,3.04903E+000,9.91328E-003,6.15887E-001,0,4.66659E+001,-9.93251E+000,9.98774E-001,5.62488E+000,-5.05154E+001,9.98666E-001,1.76866E-001,-7.55198E-002,-4.53241E-004,1.76866E-001,-7.55206E-002,-1.02893E-001,1.77494E-001,1.19319E+000,2.63448E-002,0.00000E+000,-2.11740E-002,9.29106E-001,0.00000E+000,-1.57357E-003,-6.71685E-002,1.00000E+000,33
589,1327,-1.92536E+001,-6.76634E-001,1.49883E-001,2.97808E+000,-5.32115E-001,1.44170E-001,3.02868E+000,1.87719E-002,6.59744E-001,0,4.63638E+001,-9.04936E+000,9.98623E-001,5.42936E+000,-4.93986E+001,9.97538E-001,1.79446E-001,-7.55139E-002,-6.85163E-004,1.79448E-001,-7.55158E-002,-1.53972E-001,1.80196E-001,1.19627E+000,2.63724E-002,0.00000E+000,-2.16214E-002,9.29102E-001,0.00000E+000,-8.70824E-004,-6.71622E-002,1.00000E+000,33
1269,1327,3.52011E+001,6.68702E-002,-1.45392E-001,1.30699E+001,-1.77569E-001,-1.26380E-001,1.30717E+001,1.47374E-002,4.00347E-001,0,1.94832E+002,-4.37543E+000,9.98178E-001,1.67966E+002,-3.02217E+001,9.97620E-001,2.09453E-001,-8.40868E-002,2.60749E-003,2.09476E-001,-8.41100E-002,5.08901E-001,2.10826E-001,1.23296E+000,-1.06815E-002,0.00000E+000,1.28436E-002,9.21273E-001,0.00000E+000,-5.49762E-004,-6.60599E-002,1.00000E+000,33
1269,1337,3.52389E+001,6.66454E-001,-1.19224E-001,1.30731E+001,-2.37886E-001,-1.61782E-001,1.30762E+001,1.38880E-002,3.85983E-001,0,1.94999E+002,-5.30099E+000,9.98132E-001,1.68612E+002,-3.09549E+001,9.97051E-001,2.10654E-001,-8.40100E-002,3.24023E-003,2.10690E-001,-8.40456E-002,6.29943E-001,2.12120E-001,1.23445E+000,-1.06029E-002,0.00000E+000,1.38131E-002,9.21325E-001,0.00000E+000,1.83685E-003,-6.59341E-002,1.00000E+000,33
589,1317,-1.92832E+001,-1.26233E+000,2.49518E-001,2.94957E+000,-4.87816E-001,1.89678E-001,2.99564E+000,1.50245E-002,5.74317E-001,0,4.57873E+001,-8.40859E+000,9.96693E-001,5.12227E+000,-4.86496E+001,9.95642E-001,1.82022E-001,-7.55048E-002,-9.26437E-004,1.82026E-001,-7.55082E-002,-2.06114E-001,1.82904E-001,1.19935E+000,2.63776E-002,0.00000E+000,-2.20694E-002,9.29102E-001,0.00000E+000,-1.67186E-004,-6.71610E-002,1.00000E+000,33
1269,1317,3.51915E+001,-5.33526E-001,-1.27878E-001,1.30839E+001,-1.23351E-001,-8.82778E-002,1.30848E+001,1.50779E-002,3.98819E-001,0,1.94891E+002,-3.55655E+000,9.97980E-001,1.67810E+002,-2.96055E+001,9.97139E-001,2.08248E-001,-8.41429E-002,1.98632E-003,2.08262E-001,-8.41564E-002,3.89207E-001,2.09535E-001,1.23148E+000,-1.07351E-002,0.00000E+000,1.18778E-002,9.21239E-001,0.00000E+000,-2.92713E-003,-6.61458E-002,1.00000E+000,33
1269,1307,3.51817E+001,-1.13067E+000,-7.77810E-002,1.30900E+001,-7.05958E-002,-4.60431E-002,1.30903E+001,1.59546E-002,4.32106E-001,0,1.94804E+002,-2.77669E+000,9.97126E-001,1.67686E+002,-2.89943E+001,9.95875E-001,2.07041E-001,-8.41844E-002,1.37416E-003,2.07048E-001,-8.41908E-002,2.70345E-001,2.08248E-001,1.23000E+000,-1.07713E-002,0.00000E+000,1.09161E-002,9.21215E-001,0.00000E+000,-5.29429E-003,-6.62038E-002,1.00000E+000,33
1269,1297,3.51717E+001,-1.72608E+000,-1.89970E-002,1.30909E+001,-1.80392E-002,-1.41671E-002,1.30909E+001,1.65101E-002,4.27400E-001,0,1.94675E+002,-1.97126E+000,9.96822E-001,1.67568E+002,-2.83946E+001,9.95443E-001,2.05828E-001,-8.42159E-002,7.66852E-004,2.05830E-001,-8.42179E-002,1.51484E-001,2.06959E-001,1.22853E+000,-1.07959E-002,0.00000E+000,9.95542E-003,9.21199E-001,0.00000E+000,-7.65906E-003,-6.62433E-002,1.00000E+000,33
1269,1287,3.51819E+001,-2.31189E+000,9.70348E-002,1.31002E+001,3.87822E-002,3.15352E-002,1.31003E+001,2.12385E-002,4.12966E-001,0,1.94591E+002,-1.13739E+000,9.97154E-001,1.67830E+002,-2.77702E+001,9.95193E-001,2.04611E-001,-8.42254E-002,1.72146E-004,2.04611E-001,-8.42255E-002,3.41482E-002,2.05673E-001,1.22705E+000,-1.07941E-002,0.00000E+000,8.99833E-003,9.21200E-001,0.00000E+000,-1.00150E-002,-6.62404E-002,1.00000E+000,33
579,1347,-1.99662E+001,5.02098E-001,5.35963E-002,2.88656E+000,-6.18311E-001,6.61482E-002,2.95278E+000,1.20241E-002,6.28072E-001,0,4.51781E+001,-1.02367E+001,9.97745E-001,4.58122E+000,-5.12179E+001,9.98091E-001,1.72832E-001,-7.49183E-002,5.84838E-004,1.72833E-001,-7.49197E-002,1.35251E-001,1.73342E-001,1.18830E+000,2.98552E-002,0.00000E+000,-2.19848E-002,9.29594E-001,0.00000E+000,-2.79661E-003,-6.63482E-002,1.00000E+000,33
579,1357,-1.99233E+001,1.10538E+000,5.67025E-002,2.91348E+000,-6.58032E-001,3.30344E-002,2.98705E+000,1.23227E-002,6.32078E-001,0,4.56851E+001,-1.07928E+001,9.98622E-001,5.39574E+000,-5.19612E+001,9.98798E-001,1.70008E-001,-7.49187E-002,8.68914E-004,1.70012E-001,-7.49218E-002,2.03262E-001,1.70410E-001,1.18496E+000,2.97752E-002,0.00000E+000,-2.14093E-002,9.29608E-001,0.00000E+000,-3.55747E-003,-6.63664E-002,1.00000E+000,33
579,1337,-1.99997E+001,-9.51712E-002,9.13168E-002,2.86328E+000,-5.77960E-001,1.05883E-001,2.92295E+000,1.21852E-002,6.23421E-001,0,4.47065E+001,-9.68236E+000,9.97295E-001,4.02935E+000,-5.04721E+001,9.97841E-001,1.75636E-001,-7.49131E-002,2.90347E-004,1.75636E-001,-7.49134E-002,6.63967E-002,1.76267E-001,1.19164E+000,2.99068E-002,0.00000E+000,-2.25583E-002,9.29585E-001,0.00000E+000,-2.03844E-003,-6.63365E-002,1.00000E+000,33
579,1327,-2.00286E+001,-6.68728E-001,1.51341E-001,2.84075E+000,-5.19905E-001,1.44800E-001,2.89156E+000,1.25813E-002,6.53967E-001,0,4.42418E+001,-8.82604E+000,9.98585E-001,3.61899E+000,-4.93929E+001,9.97709E-001,1.78414E-001,-7.49045E-002,-9.94416E-006,1.78414E-001,-7.49045E-002,-2.24918E-003,1.79177E-001,1.19495E+000,2.99391E-002,0.00000E+000,-2.31282E-002,9.29580E-001,0.00000E+000,-1.28492E-003,-6.63291E-002,1.00000E+000,33
579,1317,-2.00480E+001,-1.24600E+000,2.46698E-001,2.82269E+000,-4.68718E-001,1.87649E-001,2.86749E+000,1.84174E-002,6.39157E-001,0,4.38351E+001,-8.08468E+000,9.96797E-001,3.45827E+000,-4.84670E+001,9.95399E-001,1.81182E-001,-7.48915E-002,-3.20391E-004,1.81182E-001,-7.48919E-002,-7.16864E-002,1.82087E-001,1.19826E+000,2.99457E-002,0.00000E+000,-2.36979E-002,9.29579E-001,0.00000E+000,-5.31738E-004,-6.63276E-002,1.00000E+000,33
1279,1317,3.60086E+001,-5.26981E-001,-1.32662E-001,1.32344E+001,-1.21085E-001,-8.69323E-002,1.32353E+001,1.25910E-002,3.90581E-001,0,1.96957E+002,-3.56166E+000,9.97869E-001,1.70620E+002,-2.94005E+001,9.96345E-001,2.07779E-001,-8.30834E-002,2.40563E-003,2.07799E-001,-8.31033E-002,4.73831E-001,2.09182E-001,1.23091E+000,-9.47670E-003,0.00000E+000,1.16928E-002,9.22068E-001,0.00000E+000,-2.25815E-003,-6.36143E-002,1.00000E+000,33
1279,1327,3.60356E+001,8.05231E-002,-1.43129E-001,1.32361E+001,-1.70680E-001,-1.23425E-001,1.32378E+001,2.18167E-002,4.18208E-001,0,1.97118E+002,-4.30722E+000,9.96669E-001,1.71055E+002,-2.99050E+001,9.96347E-001,2.09155E-001,-8.30146E-002,3.13904E-003,2.09189E-001,-8.30483E-002,6.15485E-001,2.10663E-001,1.23261E+000,-9.41125E-003,0.00000E+000,1.28586E-002,9.22113E-001,0.00000E+000,2.45376E-004,-6.35178E-002,1.00000E+000,33
1279,1337,3.60686E+001,6.78980E-001,-1.22008E-001,1.32344E+001,-2.33677E-001,-1.63386E-001,1.32375E+001,1.70725E-002,4.13411E-001,0,1.97234E+002,-5.24738E+000,9.97662E-001,1.71617E+002,-3.06388E+001,9.97102E-001,2.10526E-001,-8.29247E-002,3.88350E-003,2.10578E-001,-8.29761E-002,7.58070E-001,2.12148E-001,1.23431E+000,-9.32132E-003,0.00000E+000,1.40280E-002,9.22175E-001,0.00000E+000,2.75656E-003,-6.33853E-002,1.00000E+000,33
1279,1307,3.59905E+001,-1.12314E+000,-9.17046E-002,1.32336E+001,-6.73217E-002,-4.93239E-002,1.32338E+001,1.42264E-002,4.38268E-001,0,1.96788E+002,-2.74893E+000,9.97746E-001,1.70357E+002,-2.87493E+001,9.95586E-001,2.06405E-001,-8.31339E-002,1.68549E-003,2.06415E-001,-8.31437E-002,3.33520E-001,2.07711E-001,1.22923E+000,-9.52136E-003,0.00000E+000,1.05362E-002,9.22038E-001,0.00000E+000,-4.74177E-003,-6.36802E-002,1.00000E+000,33
1279,1297,3.59904E+001,-1.70753E+000,-8.57291E-003,1.32410E+001,-4.24797E-003,-5.96560E-003,1.32410E+001,2.61896E-002,3.61635E-001,0,1.96694E+002,-1.78897E+000,9.96360E-001,1.70421E+002,-2.80669E+001,9.95384E-001,2.05021E-001,-8.31626E-002,9.74995E-004,2.05025E-001,-8.31659E-002,1.93842E-001,2.06238E-001,1.22754E+000,-9.54074E-003,0.00000E+000,9.37970E-003,9.22024E-001,0.00000E+000,-7.22536E-003,-6.37087E-002,1.00000E+000,33
1279,1287,3.59946E+001,-2.31562E+000,8.40654E-002,1.32483E+001,3.20524E-002,3.09168E-002,1.32484E+001,2.44033E-002,3.02674E-001,0,1.96633E+002,-1.21869E+000,9.96826E-001,1.70562E+002,-2.77641E+001,9.94556E-001,2.03633E-001,-8.31811E-002,2.70863E-004,2.03634E-001,-8.31814E-002,5.41091E-002,2.04768E-001,1.22586E+000,-9.54888E-003,0.00000E+000,8.22672E-003,9.22019E-001,0.00000E+000,-9.70130E-003,-6.37207E-002,1.00000E+000,33
569,1347,-2.07208E+001,5.20589E-001,6.22760E-002,2.76916E+000,-5.95163E-001,7.19986E-002,2.83331E+000,1.31548E-002,6.41290E-001,0,4.33473E+001,-9.86891E+000,9.97223E-001,3.11252E+000,-5.10575E+001,9.97318E-001,1.71915E-001,-7.41917E-002,1.25969E-003,1.71922E-001,-7.41981E-002,2.93257E-001,1.72458E-001,1.18712E+000,3.35356E-002,0.00000E+000,-2.36227E-002,9.30205E-001,0.00000E+000,-2.91480E-003,-6.59244E-002,1.00000E+000,33
569,1357,-2.06810E+001,1.11421E+000,5.46738E-002,2.79449E+000,-6.42203E-001,3.58386E-002,2.86756E+000,1.20410E-002,6.36549E-001,0,4.38398E+001,-1.05439E+001,9.98134E-001,3.84829E+000,-5.19325E+001,9.98003E-001,1.68927E-001,-7.41961E-002,1.68891E-003,1.68938E-001,-7.42079E-002,3.97994E-001,1.69353E-001,1.18358E+000,3.34587E-002,0.00000E+000,-2.27758E-002,9.30224E-001,0.00000E+000,-3.91200E-003,-6.59461E-002,1.00000E+000,33
569,1327,-2.07844E+001,-6.66420E-001,1.46518E-001,2.72304E+000,-5.12231E-001,1.43353E-001,2.77451E+000,1.92108E-002,6.79185E-001,0,4.24311E+001,-8.69485E+000,9.98730E-001,2.08853E+000,-4.94419E+001,9.98239E-001,1.77838E-001,-7.41675E-002,3.80738E-004,1.77839E-001,-7.41681E-002,8.65640E-002,1.78653E-001,1.19416E+000,3.36287E-002,0.00000E+000,-2.53101E-002,9.30183E-001,0.00000E+000,-9.28016E-004,-6.58981E-002,1.00000E+000,33
569,1337,-2.07552E+001,-7.51133E-002,9.44126E-002,2.74425E+000,-5.54239E-001,1.02401E-001,2.80153E+000,1.20852E-002,6.31619E-001,0,4.28748E+001,-9.27814E+000,9.97561E-001,2.53047E+000,-5.02760E+001,9.97859E-001,1.74888E-001,-7.41807E-002,8.20853E-004,1.74890E-001,-7.41834E-002,1.88827E-001,1.75560E-001,1.19065E+000,3.35862E-002,0.00000E+000,-2.44680E-002,9.30193E-001,0.00000E+000,-1.91950E-003,-6.59101E-002,1.00000E+000,33
1289,1327,3.68471E+001,8.52999E-002,-1.54931E-001,1.33818E+001,-1.70396E-001,-1.23711E-001,1.33835E+001,1.97094E-002,4.10121E-001,0,1.99120E+002,-4.32791E+000,9.96036E-001,1.73772E+002,-2.97112E+001,9.94753E-001,2.08851E-001,-8.15917E-002,3.67748E-003,2.08897E-001,-8.16382E-002,7.25305E-001,2.10551E-001,1.23225E+000,-7.75342E-003,0.00000E+000,1.26047E-002,9.23281E-001,0.00000E+000,1.03112E-003,-6.08488E-002,1.00000E+000,33
1289,1337,3.68858E+001,6.94286E-001,-1.25739E-001,1.33857E+001,-2.23308E-001,-1.54921E-001,1.33885E+001,1.84738E-002,4.16577E-001,0,1.99276E+002,-5.13594E+000,9.97383E-001,1.74430E+002,-3.02912E+001,9.96584E-001,2.10488E-001,-8.14923E-002,4.51444E-003,2.10558E-001,-8.15621E-002,8.85592E-001,2.12332E-001,1.23429E+000,-7.64587E-003,0.00000E+000,1.39314E-002,9.23351E-001,0.00000E+000,3.73682E-003,-6.07059E-002,1.00000E+000,33
569,1317,-2.08125E+001,-1.23395E+000,2.48128E-001,2.69469E+000,-4.51636E-001,1.83205E-001,2.73841E+000,2.11923E-002,6.35530E-001,0,4.18688E+001,-7.80224E+000,9.97088E-001,1.81628E+000,-4.83934E+001,9.95457E-001,1.80776E-001,-7.41437E-002,-7.64826E-005,1.80776E-001,-7.41438E-002,-1.71903E-002,1.81746E-001,1.19768E+000,3.36274E-002,0.00000E+000,-2.61515E-002,9.30183E-001,0.00000E+000,6.26996E-005,-6.58985E-002,1.00000E+000,33
1289,1317,3.68227E+001,-5.20758E-001,-1.34988E-001,1.33804E+001,-1.22950E-001,-8.66475E-002,1.33813E+001,1.95182E-002,4.82249E-001,0,1.98956E+002,-3.62558E+000,9.98013E-001,1.73389E+002,-2.91566E+001,9.95123E-001,2.07215E-001,-8.16615E-002,2.86063E-003,2.07243E-001,-8.16898E-002,5.67303E-001,2.08785E-001,1.23023E+000,-7.82438E-003,0.00000E+000,1.12891E-002,9.23235E-001,0.00000E+000,-1.65214E-003,-6.09430E-002,1.00000E+000,33
1289,1287,3.68083E+001,-2.29115E+000,7.45619E-002,1.33951E+001,5.08948E-002,2.74856E-002,1.33952E+001,2.48534E-002,3.96193E-001,0,1.98649E+002,-9.77609E-001,9.97022E-001,1.73317E+002,-2.72244E+001,9.94087E-001,2.02258E-001,-8.17689E-002,4.63031E-004,2.02259E-001,-8.17697E-002,9.34055E-002,2.03490E-001,1.22419E+000,-7.91432E-003,0.00000E+000,7.35499E-003,9.23176E-001,0.00000E+000,-9.67591E-003,-6.10625E-002,1.00000E+000,33
1289,1297,3.68041E+001,-1.69740E+000,-7.72088E-003,1.33842E+001,4.65838E-004,-1.20537E-002,1.33842E+001,2.81053E-002,2.91566E-001,0,1.98672E+002,-1.71244E+000,9.96967E-001,1.73188E+002,-2.78529E+001,9.95065E-001,2.03913E-001,-8.17415E-002,1.25510E-003,2.03919E-001,-8.17470E-002,2.51739E-001,2.05250E-001,1.22619E+000,-7.89376E-003,0.00000E+000,8.65999E-003,9.23190E-001,0.00000E+000,-7.01431E-003,-6.10352E-002,1.00000E+000,33
1289,1307,3.68122E+001,-1.11531E+000,-9.29523E-002,1.33859E+001,-6.64666E-002,-5.30392E-002,1.33862E+001,1.66754E-002,4.40293E-001,0,1.98894E+002,-2.74373E+000,9.98794E-001,1.73247E+002,-2.85283E+001,9.96948E-001,2.05570E-001,-8.17136E-002,2.05243E-003,2.05585E-001,-8.17283E-002,4.09308E-001,2.07019E-001,1.22821E+000,-7.87398E-003,0.00000E+000,9.97497E-003,9.23203E-001,0.00000E+000,-4.33238E-003,-6.10089E-002,1.00000E+000,33
559,1327,-2.15295E+001,-6.57389E-001,1.39442E-001,2.61464E+000,-4.99455E-001,1.34040E-001,2.66529E+000,3.35733E-002,7.89097E-001,0,4.07821E+001,-8.49786E+000,9.98901E-001,7.19749E-001,-4.93393E+001,9.98103E-001,1.77176E-001,-7.39558E-002,1.03384E-003,1.77180E-001,-7.39600E-002,2.35865E-001,1.77984E-001,1.19325E+000,3.75892E-002,0.00000E+000,-2.72003E-002,9.30271E-001,0.00000E+000,-6.65183E-004,-6.49561E-002,1.00000E+000,33
559,1337,-2.15100E+001,-6.24207E-002,8.90959E-002,2.62653E+000,-5.36649E-001,9.63432E-002,2.68252E+000,1.02569E-002,6.69136E-001,0,4.10697E+001,-8.98564E+000,9.99021E-001,1.02113E+000,-5.01604E+001,9.98976E-001,1.74301E-001,-7.39678E-002,1.37581E-003,1.74308E-001,-7.39755E-002,3.17497E-001,1.74971E-001,1.18983E+000,3.75499E-002,0.00000E+000,-2.65442E-002,9.30278E-001,0.00000E+000,-1.79750E-003,-6.49691E-002,1.00000E+000,33
559,1347,-2.14809E+001,5.33407E-001,5.66718E-002,2.64611E+000,-5.75690E-001,6.50396E-002,2.70879E+000,1.55111E-002,6.14519E-001,0,4.14604E+001,-9.53649E+000,9.97429E-001,1.52170E+000,-5.09741E+001,9.97159E-001,1.71408E-001,-7.39781E-002,1.71507E-003,1.71420E-001,-7.39901E-002,4.00430E-001,1.71954E-001,1.18640E+000,3.75009E-002,0.00000E+000,-2.58865E-002,9.30288E-001,0.00000E+000,-2.93272E-003,-6.49853E-002,1.00000E+000,33
559,1357,-2.14379E+001,1.12724E+000,5.17614E-002,2.67546E+000,-6.21439E-001,3.53139E-002,2.74691E+000,1.36714E-002,6.14042E-001,0,4.19988E+001,-1.02132E+001,9.97458E-001,2.31618E+000,-5.18510E+001,9.97601E-001,1.68495E-001,-7.39842E-002,2.04696E-003,1.68512E-001,-7.40015E-002,4.83633E-001,1.68928E-001,1.18296E+000,3.74304E-002,0.00000E+000,-2.52263E-002,9.30301E-001,0.00000E+000,-4.07203E-003,-6.50087E-002,1.00000E+000,33
559,1317,-2.15662E+001,-1.21336E+000,2.57040E-001,2.57720E+000,-4.27912E-001,1.87148E-001,2.61918E+000,3.15532E-002,6.76491E-001,0,4.00409E+001,-7.42618E+000,9.98480E-001,3.68258E-001,-4.81811E+001,9.97314E-001,1.80041E-001,-7.39356E-002,6.74517E-004,1.80043E-001,-7.39374E-002,1.52166E-001,1.80998E-001,1.19668E+000,3.75856E-002,0.00000E+000,-2.78565E-002,9.30271E-001,0.00000E+000,4.67509E-004,-6.49573E-002,1.00000E+000,33
1299,1327,3.76657E+001,1.00378E-001,-1.54835E-001,1.35301E+001,-1.62746E-001,-1.27068E-001,1.35317E+001,2.54944E-002,4.20469E-001,0,2.01158E+002,-4.22801E+000,9.95845E-001,1.76618E+002,-2.93736E+001,9.94431E-001,2.08668E-001,-7.99668E-002,4.21277E-003,2.08729E-001,-8.00283E-002,8.36024E-001,2.10612E-001,1.23204E+000,-5.40612E-003,0.00000E+000,1.18404E-002,9.24633E-001,0.00000E+000,1.68462E-003,-5.78512E-002,1.00000E+000,33
1299,1337,3.77210E+001,7.06523E-001,-1.20731E-001,1.35491E+001,-2.20158E-001,-1.57914E-001,1.35518E+001,2.32773E-002,4.47649E-001,0,2.01535E+002,-5.10705E+000,9.95605E-001,1.77538E+002,-2.99951E+001,9.94344E-001,2.10627E-001,-7.98563E-002,5.13805E-003,2.10718E-001,-7.99472E-002,1.01302E+000,2.12751E-001,1.23448E+000,-5.27207E-003,0.00000E+000,1.33138E-002,9.24714E-001,0.00000E+000,4.58601E-003,-5.76916E-002,1.00000E+000,33
1299,1287,3.76300E+001,-2.28301E+000,7.64594E-002,1.35450E+001,5.02070E-002,1.96829E-002,1.35451E+001,1.80621E-002,4.64180E-001,0,2.00729E+002,-9.97887E-001,9.97626E-001,1.76213E+002,-2.69756E+001,9.95958E-001,2.00797E-001,-8.01467E-002,6.86475E-004,2.00799E-001,-8.01483E-002,1.39999E-001,2.02156E-001,1.22242E+000,-5.59331E-003,0.00000E+000,6.02324E-003,9.24520E-001,0.00000E+000,-9.77032E-003,-5.80739E-002,1.00000E+000,33
1299,1297,3.76353E+001,-1.69725E+000,4.64000E-003,1.35451E+001,-7.96297E-003,-4.01516E-003,1.35451E+001,1.87968E-002,4.34739E-001,0,2.00850E+002,-1.91893E+000,9.98556E-001,1.76244E+002,-2.77109E+001,9.96254E-001,2.02775E-001,-8.01232E-002,1.55360E-003,2.02783E-001,-8.01317E-002,3.14642E-001,2.04264E-001,1.22481E+000,-5.57394E-003,0.00000E+000,7.47014E-003,9.24532E-001,0.00000E+000,-6.92114E-003,-5.80509E-002,1.00000E+000,33
1299,1307,3.76579E+001,-1.09616E+000,-5.07662E-002,1.35571E+001,-5.64264E-002,-3.05625E-002,1.35573E+001,3.80502E-002,4.63093E-001,0,2.01145E+002,-2.67203E+000,9.97987E-001,1.76562E+002,-2.82122E+001,9.95668E-001,2.04752E-001,-8.00842E-002,2.43390E-003,2.04773E-001,-8.01050E-002,4.89539E-001,2.06383E-001,1.22722E+000,-5.53477E-003,0.00000E+000,8.92669E-003,9.24556E-001,0.00000E+000,-4.05298E-003,-5.80043E-002,1.00000E+000,33
1299,1317,3.76645E+001,-4.99529E-001,-1.15061E-001,1.35483E+001,-1.10732E-001,-8.38887E-002,1.35490E+001,3.24046E-002,4.73475E-001,0,2.01246E+002,-3.46406E+000,9.96102E-001,1.76620E+002,-2.87750E+001,9.93998E-001,2.06717E-001,-8.00312E-002,3.32088E-003,2.06755E-001,-8.00697E-002,6.63434E-001,2.08499E-001,1.22963E+000,-5.47764E-003,0.00000E+000,1.03836E-002,9.24590E-001,0.00000E+000,-1.18418E-003,-5.79363E-002,1.00000E+000,33
559,1307,-2.15991E+001,-1.79074E+000,3.71925E-001,2.54185E+000,-3.78929E-001,2.26496E-001,2.57991E+000,1.57177E-002,6.59403E-001,0,3.93728E+001,-6.73251E+000,9.97068E-001,6.16339E-002,-4.72954E+001,9.95969E-001,1.82896E-001,-7.39137E-002,3.12056E-004,1.82896E-001,-7.39140E-002,6.96215E-002,1.84013E-001,1.20010E+000,3.75730E-002,0.00000E+000,-2.85127E-002,9.30274E-001,0.00000E+000,1.60000E-003,-6.49615E-002,1.00000E+000,33
549,1347,-2.22285E+001,5.50417E-001,5.50268E-002,2.53521E+000,-5.54312E-001,6.21921E-002,2.59584E+000,1.38921E-002,6.60735E-001,0,3.97499E+001,-9.18627E+000,9.97285E-001,1.39777E-001,-5.07971E+001,9.96906E-001,1.70933E-001,-7.36465E-002,2.23932E-003,1.70954E-001,-7.36670E-002,5.24529E-001,1.71497E-001,1.18571E+000,4.12362E-002,0.00000E+000,-2.78552E-002,9.30475E-001,0.00000E+000,-2.84795E-003,-6.38723E-002,1.00000E+000,33
549,1357,-2.21862E+001,1.15348E+000,5.48645E-002,2.56316E+000,-5.91641E-001,3.19315E-002,2.63075E+000,1.49755E-002,6.47482E-001,0,4.02652E+001,-9.71904E+000,9.97335E-001,9.41778E-001,-5.15515E+001,9.97309E-001,1.68134E-001,-7.36535E-002,2.56366E-003,1.68161E-001,-7.36807E-002,6.07414E-001,1.68589E-001,1.18241E+000,4.11653E-002,0.00000E+000,-2.72065E-002,9.30489E-001,0.00000E+000,-4.13129E-003,-6.38999E-002,1.00000E+000,33
549,1327,-2.23154E+001,-6.28598E-001,1.71327E-001,2.46350E+000,-4.66283E-001,1.53707E-001,2.51194E+000,2.59470E-002,7.38717E-001,0,3.83801E+001,-7.99016E+000,9.97674E-001,-1.14184E+000,-4.91028E+001,9.96146E-001,1.76476E-001,-7.36196E-002,1.56698E-003,1.76486E-001,-7.36294E-002,3.58968E-001,1.77291E-001,1.19230E+000,4.13110E-002,0.00000E+000,-2.91470E-002,9.30460E-001,0.00000E+000,-2.92658E-004,-6.38433E-002,1.00000E+000,33
549,1337,-2.22636E+001,-4.13198E-002,9.23394E-002,2.50930E+000,-5.09267E-001,9.63498E-002,2.56227E+000,1.08655E-002,6.52993E-001,0,3.92513E+001,-8.55310E+000,9.98514E-001,-4.35726E-001,-4.99611E+001,9.98489E-001,1.73720E-001,-7.36344E-002,1.90472E-003,1.73735E-001,-7.36491E-002,4.41163E-001,1.74404E-001,1.18902E+000,4.12811E-002,0.00000E+000,-2.85035E-002,9.30466E-001,0.00000E+000,-1.56551E-003,-6.38549E-002,1.00000E+000,33
1309,1317,3.84677E+001,-4.99490E-001,-1.45848E-001,1.36849E+001,-1.14493E-001,-1.02864E-001,1.36857E+001,2.61298E-002,4.43489E-001,0,2.03190E+002,-3.50071E+000,9.95862E-001,1.79197E+002,-2.86276E+001,9.94220E-001,2.06676E-001,-7.86811E-002,3.92184E-003,2.06730E-001,-7.87350E-002,7.87254E-001,2.08677E-001,1.22960E+000,-2.28165E-003,0.00000E+000,9.11739E-003,9.25700E-001,0.00000E+000,-1.10163E-003,-5.49166E-002,1.00000E+000,33
1309,1327,3.84944E+001,1.08513E-001,-1.64127E-001,1.36894E+001,-1.60385E-001,-1.34286E-001,1.36910E+001,3.03052E-002,4.14198E-001,0,2.03377E+002,-4.20715E+000,9.95000E-001,1.79617E+002,-2.91307E+001,9.92911E-001,2.08957E-001,-7.86176E-002,4.76447E-003,2.09036E-001,-7.86965E-002,9.48916E-001,2.11151E-001,1.23242E+000,-2.18611E-003,0.00000E+000,1.04739E-002,9.25746E-001,0.00000E+000,1.85209E-003,-5.48164E-002,1.00000E+000,33
1309,1337,3.85427E+001,7.20186E-001,-1.30844E-001,1.37025E+001,-2.11603E-001,-1.61082E-001,1.37051E+001,3.11367E-002,4.46441E-001,0,2.03648E+002,-5.00603E+000,9.96452E-001,1.80422E+002,-2.96611E+001,9.95531E-001,2.11242E-001,-7.85212E-002,5.63512E-003,2.11351E-001,-7.86307E-002,1.11369E+000,2.13646E-001,1.23526E+000,-2.03464E-003,0.00000E+000,1.18423E-002,9.25819E-001,0.00000E+000,4.83173E-003,-5.46576E-002,1.00000E+000,33
549,1317,-2.23282E+001,-1.19823E+000,2.76533E-001,2.45118E+000,-4.09043E-001,2.01783E-001,2.49326E+000,2.23708E-002,7.62214E-001,0,3.80508E+001,-7.18127E+000,9.98184E-001,-1.16827E+000,-4.80542E+001,9.97205E-001,1.79222E-001,-7.35995E-002,1.21823E-003,1.79228E-001,-7.36053E-002,2.76074E-001,1.80179E-001,1.19558E+000,4.13132E-002,0.00000E+000,-2.97904E-002,9.30460E-001,0.00000E+000,9.80151E-004,-6.38424E-002,1.00000E+000,33
549,1307,-2.23545E+001,-1.77520E+000,3.64087E-001,2.42329E+000,-3.59018E-001,2.19435E-001,2.45955E+000,1.58166E-002,6.72905E-001,0,3.75565E+001,-6.38850E+000,9.97502E-001,-1.45536E+000,-4.71377E+001,9.96758E-001,1.81965E-001,-7.35774E-002,8.65236E-004,1.81967E-001,-7.35803E-002,1.93994E-001,1.83074E-001,1.19886E+000,4.13055E-002,0.00000E+000,-3.04352E-002,9.30461E-001,0.00000E+000,2.25565E-003,-6.38454E-002,1.00000E+000,33
1309,1287,3.84514E+001,-2.28184E+000,7.09224E-002,1.36933E+001,4.55631E-002,1.12468E-003,1.36933E+001,1.59141E-002,4.63832E-001,0,2.02829E+002,-1.07559E+000,9.97867E-001,1.79101E+002,-2.68538E+001,9.95836E-001,1.99774E-001,-7.87624E-002,1.47229E-003,1.99782E-001,-7.87702E-002,3.02843E-001,2.01265E-001,1.22119E+000,-2.38823E-003,0.00000E+000,5.06594E-003,9.25649E-001,0.00000E+000,-9.92346E-003,-5.50284E-002,1.00000E+000,33
1309,1297,3.84544E+001,-1.70063E+000,-1.39906E-002,1.36928E+001,-1.88495E-002,-2.89348E-002,1.36929E+001,2.22184E-002,4.54732E-001,0,2.02977E+002,-2.05207E+000,9.97542E-001,1.79084E+002,-2.76204E+001,9.94770E-001,2.02088E-001,-7.87480E-002,2.28036E-003,2.02106E-001,-7.87665E-002,4.65195E-001,2.03738E-001,1.22399E+000,-2.37308E-003,0.00000E+000,6.41508E-003,9.25656E-001,0.00000E+000,-6.98576E-003,-5.50125E-002,1.00000E+000,33
1309,1307,3.84554E+001,-1.09508E+000,-1.01699E-001,1.36890E+001,-5.73184E-002,-6.70455E-002,1.36892E+001,2.47555E-002,3.75164E-001,0,2.03095E+002,-2.61734E+000,9.97332E-001,1.79032E+002,-2.80365E+001,9.96170E-001,2.04379E-001,-7.87292E-002,3.08791E-003,2.04413E-001,-7.87629E-002,6.24836E-001,2.06197E-001,1.22678E+000,-2.35201E-003,0.00000E+000,7.76014E-003,9.25666E-001,0.00000E+000,-4.05698E-003,-5.49904E-002,1.00000E+000,33
539,1347,-2.29814E+001,5.71667E-001,5.60675E-002,2.41849E+000,-5.27329E-001,6.09423E-002,2.47606E+000,1.22334E-002,6.41594E-001,0,3.79403E+001,-8.74136E+000,9.97845E-001,-1.30763E+000,-5.05946E+001,9.97816E-001,1.70562E-001,-7.31386E-002,2.42493E-003,1.70586E-001,-7.31628E-002,5.70043E-001,1.71160E-001,1.18516E+000,4.45199E-002,0.00000E+000,-3.01252E-002,9.30812E-001,0.00000E+000,-2.54331E-003,-6.27410E-002,1.00000E+000,33
539,1357,-2.29380E+001,1.17820E+000,4.96279E-002,2.44862E+000,-5.60497E-001,3.03890E-002,2.51214E+000,1.10267E-002,6.59141E-001,0,3.84899E+001,-9.21762E+000,9.98541E-001,-5.06059E-001,-5.12685E+001,9.98411E-001,1.67965E-001,-7.31468E-002,2.70253E-003,1.67996E-001,-7.31770E-002,6.42099E-001,1.68460E-001,1.18209E+000,4.44592E-002,0.00000E+000,-2.95723E-002,9.30823E-001,0.00000E+000,-3.84557E-003,-6.27668E-002,1.00000E+000,33
539,1327,-2.30540E+001,-6.04189E-001,1.50154E-001,2.36137E+000,-4.34363E-001,1.32994E-001,2.40466E+000,1.40057E-002,6.36813E-001,0,3.68493E+001,-7.41256E+000,9.95552E-001,-2.43748E+000,-4.88396E+001,9.96028E-001,1.75712E-001,-7.31137E-002,1.85142E-003,1.75726E-001,-7.31274E-002,4.26285E-001,1.76548E-001,1.19127E+000,4.45905E-002,0.00000E+000,-3.12277E-002,9.30799E-001,0.00000E+000,5.33604E-005,-6.27111E-002,1.00000E+000,33
539,1337,-2.30171E+001,-1.53065E-002,9.32785E-002,2.39172E+000,-4.77796E-001,9.46313E-002,2.44081E+000,1.30535E-002,6.35341E-001,0,3.74288E+001,-8.03722E+000,9.97228E-001,-1.89314E+000,-4.96828E+001,9.97235E-001,1.73147E-001,-7.31271E-002,2.13962E-003,1.73165E-001,-7.31457E-002,4.97734E-001,1.73859E-001,1.18822E+000,4.45606E-002,0.00000E+000,-3.06776E-002,9.30805E-001,0.00000E+000,-1.24216E-003,-6.27237E-002,1.00000E+000,33
1319,1297,3.92512E+001,-1.69232E+000,-4.60324E-002,1.38227E+001,-1.26917E-002,-4.95669E-002,1.38228E+001,1.93482E-002,3.49175E-001,0,2.04819E+002,-1.91535E+000,9.97884E-001,1.81566E+002,-2.73843E+001,9.95878E-001,2.01479E-001,-7.73267E-002,3.25017E-003,2.01517E-001,-7.73646E-002,6.67805E-001,2.03319E-001,1.22326E+000,1.74292E-003,0.00000E+000,5.14844E-003,9.26836E-001,0.00000E+000,-7.71265E-003,-5.19652E-002,1.00000E+000,33
1319,1307,3.92640E+001,-1.09730E+000,-1.19961E-001,1.38273E+001,-6.44935E-002,-8.55388E-002,1.38277E+001,2.45210E-002,3.38578E-001,0,2.05055E+002,-2.70912E+000,9.97374E-001,1.81712E+002,-2.79565E+001,9.96571E-001,2.04148E-001,-7.73045E-002,4.04529E-003,2.04207E-001,-7.73626E-002,8.23279E-001,2.06195E-001,1.22651E+000,1.78384E-003,0.00000E+000,6.46779E-003,9.26852E-001,0.00000E+000,-4.67035E-003,-5.19270E-002,1.00000E+000,33
539,1307,-2.31122E+001,-1.76339E+000,3.47744E-001,2.30155E+000,-3.41209E-001,2.00660E-001,2.33534E+000,1.10292E-002,6.46323E-001,0,3.57176E+001,-6.06334E+000,9.97975E-001,-3.02899E+000,-4.70398E+001,9.97691E-001,1.80802E-001,-7.30755E-002,1.25022E-003,1.80808E-001,-7.30816E-002,2.82144E-001,1.81911E-001,1.19735E+000,4.45830E-002,0.00000E+000,-3.23248E-002,9.30801E-001,0.00000E+000,2.63754E-003,-6.27142E-002,1.00000E+000,33
539,1317,-2.30842E+001,-1.19211E+000,2.41339E-001,2.33192E+000,-3.94721E-001,1.69009E-001,2.37112E+000,1.30669E-002,6.65167E-001,0,3.62875E+001,-6.86421E+000,9.96840E-001,-2.77537E+000,-4.80402E+001,9.96373E-001,1.78263E-001,-7.30958E-002,1.55328E-003,1.78273E-001,-7.31054E-002,3.54044E-001,1.79231E-001,1.19431E+000,4.45938E-002,0.00000E+000,-3.17766E-002,9.30799E-001,0.00000E+000,1.34636E-003,-6.27096E-002,1.00000E+000,33
1319,1287,3.92601E+001,-2.28921E+000,5.24898E-002,1.38327E+001,3.33858E-002,-1.45334E-002,1.38327E+001,1.97388E-002,4.17109E-001,0,2.04793E+002,-1.23225E+000,9.97348E-001,1.81783E+002,-2.68626E+001,9.96699E-001,1.98800E-001,-7.73310E-002,2.47130E-003,1.98822E-001,-7.73531E-002,5.12729E-001,2.00447E-001,1.22001E+000,1.73728E-003,0.00000E+000,3.83322E-003,9.26834E-001,0.00000E+000,-1.07454E-002,-5.19705E-002,1.00000E+000,33
529,1327,-2.38039E+001,-5.86451E-001,1.53380E-001,2.24664E+000,-4.11306E-001,1.31189E-001,2.28774E+000,1.25403E-002,6.45050E-001,0,3.50715E+001,-7.04895E+000,9.95378E-001,-3.82874E+000,-4.86778E+001,9.95687E-001,1.75104E-001,-7.20769E-002,2.28436E-003,1.75125E-001,-7.20980E-002,5.29449E-001,1.76033E-001,1.19045E+000,4.68512E-002,0.00000E+000,-3.22929E-002,9.31688E-001,0.00000E+000,1.10522E-003,-6.19297E-002,1.00000E+000,33
529,1307,-2.38634E+001,-1.74224E+000,3.53218E-001,2.18499E+000,-3.15447E-001,1.97630E-001,2.21648E+000,1.50210E-002,6.24349E-001,0,3.39146E+001,-5.64235E+000,9.98208E-001,-4.42940E+000,-4.68415E+001,9.97545E-001,1.79533E-001,-7.20691E-002,2.10080E-003,1.79551E-001,-7.20866E-002,4.78357E-001,1.80709E-001,1.19575E+000,4.68423E-002,0.00000E+000,-3.26197E-002,9.31689E-001,0.00000E+000,3.73653E-003,-6.19341E-002,1.00000E+000,33
529,1317,-2.38360E+001,-1.17019E+000,2.40031E-001,2.21622E+000,-3.67154E-001,1.68394E-001,2.25273E+000,1.24743E-002,6.02277E-001,0,3.44917E+001,-6.39170E+000,9.97943E-001,-4.20608E+000,-4.78383E+001,9.97437E-001,1.77323E-001,-7.20734E-002,2.19684E-003,1.77343E-001,-7.20927E-002,5.04643E-001,1.78373E-001,1.19310E+000,4.68576E-002,0.00000E+000,-3.24564E-002,9.31688E-001,0.00000E+000,2.42166E-003,-6.19266E-002,1.00000E+000,33
