Coordinates.Image X [Pixel],Coordinates.Image Y [Pixel],coor.X [mm],coor.Y [mm],coor.Z [mm],disp.Horizontal Displacement U [mm],disp.Vertical Displacement V [mm],disp.Out-Of-Plane: W [mm],disp.Displacement Magnitude [mm],stats.Sigma [mm],stats.Epipolar Distance [Pixel],stats.Shape Index [-],SameCamera.Horizontal: u [Pixel],SameCamera.Vertical: v [Pixel],SameCamera.Correlation Value 2D [-],CrossCamera.Horizontal: q [Pixel],CrossCamera.Vertical: r [Pixel],CrossCamera.Correlation Value Persp [-],strain.Strain-global frame: Exx [ ],strain.Strain-global frame: Eyy [ ],strain.Strain-global frame: Exy [ ],strain.Maximum Principal Strain: EI [ ],strain.Minimum Principal Strain: EII [ ],strain.Shear Angle Gamma [deg],strain.Von Mises Equivalent Strain [ ],defgradient.F[0,0] [-],defgradient.F[0,1] [-],defgradient.F[0,2] [-],defgradient.F[1,0] [-],defgradient.F[1,1] [-],defgradient.F[1,2] [-],defgradient.F[2,0] [-],defgradient.F[2,1] [-],defgradient.F[2,2] [-],ext.Current Image [#]
929,1317,6.85947E+000,-1.15304E+000,7.69864E-002,7.19554E+000,-5.36676E-001,1.63707E-001,7.21738E+000,1.54361E-002,4.58315E-001,0,1.09603E+002,-9.60790E+000,9.98033E-001,6.64875E+001,-4.31476E+001,9.96697E-001,1.95083E-001,-8.18668E-002,-3.66900E-004,1.95083E-001,-8.18673E-002,-7.59046E-002,1.95921E-001,1.21535E+000,-2.12396E-002,0.00000E+000,1.67491E-002,9.25578E-001,0.00000E+000,-1.58238E-002,-9.68494E-002,1.00000E+000,30
919,1307,6.06826E+000,-1.75297E+000,1.50400E-001,7.07088E+000,-4.87339E-001,2.41918E-001,7.09178E+000,1.77111E-002,4.87965E-001,0,1.07510E+002,-8.96673E+000,9.96325E-001,6.43003E+001,-4.26689E+001,9.94358E-001,1.98765E-001,-8.16127E-002,-1.01356E-003,1.98769E-001,-8.16164E-002,-2.07119E-001,1.99825E-001,1.21985E+000,-1.88289E-002,0.00000E+000,1.35442E-002,9.25948E-001,0.00000E+000,-1.42429E-002,-9.78354E-002,1.00000E+000,30
919,1317,6.05157E+000,-1.17572E+000,3.34191E-002,7.05138E+000,-5.45083E-001,1.75848E-001,7.07460E+000,2.17685E-002,4.66753E-001,0,1.07458E+002,-9.76242E+000,9.94149E-001,6.38885E+001,-4.35053E+001,9.92555E-001,1.96443E-001,-8.16200E-002,-1.22597E-003,1.96448E-001,-8.16254E-002,-2.52608E-001,1.97381E-001,1.21700E+000,-1.88414E-002,0.00000E+000,1.30493E-002,9.25946E-001,0.00000E+000,-1.26749E-002,-9.78285E-002,1.00000E+000,30
919,1327,6.05659E+000,-5.88902E-001,-1.65266E-002,7.03928E+000,-6.05333E-001,1.10771E-001,7.06613E+000,1.63287E-002,5.00276E-001,0,1.07500E+002,-1.05852E+001,9.97296E-001,6.39532E+001,-4.43069E+001,9.95643E-001,1.94091E-001,-8.16358E-002,-1.46586E-003,1.94099E-001,-8.16436E-002,-3.04592E-001,1.94912E-001,1.21412E+000,-1.89166E-002,0.00000E+000,1.25494E-002,9.25933E-001,0.00000E+000,-1.10916E-002,-9.77871E-002,1.00000E+000,30
929,1307,6.87064E+000,-1.72952E+000,1.78604E-001,7.21390E+000,-4.74886E-001,2.34303E-001,7.23331E+000,1.51249E-002,5.00400E-001,0,1.09624E+002,-8.77213E+000,9.98443E-001,6.67811E+001,-4.22580E+001,9.97226E-001,1.97451E-001,-8.18669E-002,-3.35823E-004,1.97451E-001,-8.18673E-002,-6.88864E-002,1.98409E-001,1.21827E+000,-2.12071E-002,0.00000E+000,1.69283E-002,9.25580E-001,0.00000E+000,-1.78822E-002,-9.68723E-002,1.00000E+000,30
929,1327,6.85524E+000,-5.62312E-001,1.10893E-002,7.17787E+000,-5.88296E-001,9.99893E-002,7.20264E+000,1.38793E-002,4.66141E-001,0,1.09558E+002,-1.03262E+001,9.98362E-001,6.63766E+001,-4.38675E+001,9.97544E-001,1.92699E-001,-8.18667E-002,-4.09620E-004,1.92700E-001,-8.18673E-002,-8.54783E-002,1.93424E-001,1.21242E+000,-2.13003E-002,0.00000E+000,1.65696E-002,9.25574E-001,0.00000E+000,-1.37608E-002,-9.68066E-002,1.00000E+000,30
939,1307,7.66595E+000,-1.71239E+000,1.58861E-001,7.35487E+000,-4.64658E-001,2.04167E-001,7.37236E+000,1.64014E-002,5.09634E-001,0,1.11790E+002,-8.57024E+000,9.98591E-001,6.90579E+001,-4.18455E+001,9.97482E-001,1.95887E-001,-8.12590E-002,1.32762E-004,1.95887E-001,-8.12591E-002,2.74466E-002,1.96832E-001,1.21636E+000,-2.40769E-002,0.00000E+000,2.02250E-002,9.25956E-001,0.00000E+000,-2.06403E-002,-9.53950E-002,1.00000E+000,30
939,1317,7.65392E+000,-1.13287E+000,6.92660E-002,7.33486E+000,-5.23356E-001,1.42171E-001,7.35488E+000,1.58790E-002,4.33957E-001,0,1.11714E+002,-9.37188E+000,9.98151E-001,6.87770E+001,-4.27288E+001,9.96463E-001,1.93757E-001,-8.12550E-002,1.60152E-004,1.93757E-001,-8.12551E-002,3.33660E-002,1.94595E-001,1.21372E+000,-2.41096E-002,0.00000E+000,2.01254E-002,9.25954E-001,0.00000E+000,-1.82079E-002,-9.53648E-002,1.00000E+000,30
939,1327,7.65196E+000,-5.34414E-001,6.77558E-003,7.31780E+000,-5.70514E-001,7.50623E-002,7.34039E+000,1.34133E-002,4.69831E-001,0,1.11688E+002,-9.99628E+000,9.97866E-001,6.87089E+001,-4.33203E+001,9.96755E-001,1.91602E-001,-8.12496E-002,1.75863E-004,1.91602E-001,-8.12497E-002,3.69293E-002,1.92337E-001,1.21106E+000,-2.41715E-002,0.00000E+000,2.00252E-002,9.25952E-001,0.00000E+000,-1.57584E-002,-9.53079E-002,1.00000E+000,30
919,1337,6.06864E+000,1.19268E-002,-3.90471E-002,7.02928E+000,-6.53098E-001,5.00482E-002,7.05973E+000,1.54728E-002,4.64851E-001,0,1.07548E+002,-1.12192E+001,9.96825E-001,6.41862E+001,-4.49862E+001,9.96162E-001,1.91733E-001,-8.16546E-002,-1.71471E-003,1.91744E-001,-8.16653E-002,-3.59345E-001,1.92444E-001,1.21124E+000,-1.90135E-002,0.00000E+000,1.20500E-002,9.25916E-001,0.00000E+000,-9.50949E-003,-9.77338E-002,1.00000E+000,30
929,1337,6.86263E+000,3.06484E-002,-2.65698E-002,7.16565E+000,-6.43286E-001,3.62232E-002,7.19456E+000,1.39735E-002,4.37286E-001,0,1.09590E+002,-1.10558E+001,9.98654E-001,6.65041E+001,-4.46315E+001,9.97996E-001,1.90295E-001,-8.18666E-002,-4.64043E-004,1.90296E-001,-8.18674E-002,-9.76906E-002,1.90913E-001,1.20948E+000,-2.13888E-002,0.00000E+000,1.63891E-002,9.25568E-001,0.00000E+000,-1.16879E-002,-9.67442E-002,1.00000E+000,30
939,1337,7.65657E+000,5.80085E-002,-3.24951E-002,7.30366E+000,-6.25022E-001,1.42657E-002,7.33037E+000,1.23532E-002,4.54895E-001,0,1.11682E+002,-1.07413E+001,9.98551E-001,6.87892E+001,-4.40807E+001,9.97986E-001,1.89436E-001,-8.12435E-002,1.85099E-004,1.89436E-001,-8.12437E-002,3.91805E-002,1.90074E-001,1.20840E+000,-2.42483E-002,0.00000E+000,1.99249E-002,9.25949E-001,0.00000E+000,-1.33095E-002,-9.52371E-002,1.00000E+000,30
949,1317,8.45438E+000,-1.10330E+000,6.84732E-002,7.47837E+000,-5.03357E-001,1.21742E-001,7.49628E+000,2.41847E-002,4.64151E-001,0,1.13877E+002,-9.03414E+000,9.95167E-001,7.11795E+001,-4.21515E+001,9.92886E-001,1.92383E-001,-8.05686E-002,5.73391E-004,1.92385E-001,-8.05698E-002,1.20361E-001,1.93228E-001,1.21203E+000,-2.67175E-002,0.00000E+000,2.30371E-002,9.26345E-001,0.00000E+000,-2.00230E-002,-9.32258E-002,1.00000E+000,30
949,1327,8.44634E+000,-5.06654E-001,2.80428E-003,7.45631E+000,-5.50412E-001,5.67659E-002,7.47682E+000,2.09943E-002,4.51642E-001,0,1.13771E+002,-9.65863E+000,9.96317E-001,7.10108E+001,-4.27872E+001,9.94761E-001,1.90636E-001,-8.05582E-002,6.51266E-004,1.90637E-001,-8.05598E-002,1.37593E-001,1.91398E-001,1.20986E+000,-2.67647E-002,0.00000E+000,2.30028E-002,9.26344E-001,0.00000E+000,-1.71138E-002,-9.31627E-002,1.00000E+000,30
949,1337,8.45150E+000,8.44303E-002,-3.33176E-002,7.44322E+000,-6.06311E-001,2.08205E-003,7.46787E+000,1.56042E-002,4.68158E-001,0,1.13762E+002,-1.04510E+001,9.97569E-001,7.11047E+001,-4.35577E+001,9.96543E-001,1.88873E-001,-8.05463E-002,7.23191E-004,1.88875E-001,-8.05482E-002,1.53795E-001,1.89554E-001,1.20768E+000,-2.68262E-002,0.00000E+000,2.29684E-002,9.26343E-001,0.00000E+000,-1.41973E-002,-9.30804E-002,1.00000E+000,30
949,1307,8.46945E+000,-1.69041E+000,1.57527E-001,7.50112E+000,-4.51452E-001,1.81419E-001,7.51689E+000,1.97203E-002,5.06050E-001,0,1.14003E+002,-8.32817E+000,9.96904E-001,7.15050E+001,-4.14028E+001,9.95519E-001,1.94114E-001,-8.05766E-002,4.87028E-004,1.94115E-001,-8.05775E-002,1.01585E-001,1.95045E-001,1.21420E+000,-2.66915E-002,0.00000E+000,2.30713E-002,9.26345E-001,0.00000E+000,-2.29225E-002,-9.32604E-002,1.00000E+000,30
909,1317,5.26386E+000,-1.19155E+000,3.29559E-002,6.91538E+000,-5.53107E-001,1.77692E-001,6.93974E+000,2.03168E-002,4.34761E-001,0,1.05457E+002,-9.88714E+000,9.92454E-001,6.16966E+001,-4.38672E+001,9.91432E-001,1.97806E-001,-8.22753E-002,-2.16871E-003,1.97822E-001,-8.22921E-002,-4.43615E-001,1.98751E-001,1.21866E+000,-1.62812E-002,0.00000E+000,9.03191E-003,9.25389E-001,0.00000E+000,-9.28418E-003,-9.78846E-002,1.00000E+000,30
909,1327,5.27480E+000,-5.97595E-001,-1.74225E-002,6.90969E+000,-6.06765E-001,1.13952E-001,6.93721E+000,1.62558E-002,4.70059E-001,0,1.05588E+002,-1.05962E+001,9.94954E-001,6.18533E+001,-4.45576E+001,9.95330E-001,1.95523E-001,-8.22884E-002,-2.38505E-003,1.95544E-001,-8.23088E-002,-4.91844E-001,1.96357E-001,1.21587E+000,-1.63516E-002,0.00000E+000,8.61857E-003,9.25378E-001,0.00000E+000,-8.26735E-003,-9.78589E-002,1.00000E+000,30
909,1337,5.28412E+000,6.80303E-003,-3.74401E-002,6.89685E+000,-6.53868E-001,5.47553E-002,6.92799E+000,1.78805E-002,5.24641E-001,0,1.05586E+002,-1.12211E+001,9.96933E-001,6.20505E+001,-4.51443E+001,9.96624E-001,1.93229E-001,-8.23044E-002,-2.61162E-003,1.93253E-001,-8.23291E-002,-5.43008E-001,1.93957E-001,1.21308E+000,-1.64453E-002,0.00000E+000,8.20415E-003,9.25364E-001,0.00000E+000,-7.24788E-003,-9.78247E-002,1.00000E+000,30
909,1307,5.27304E+000,-1.76840E+000,1.47716E-001,6.92635E+000,-4.95149E-001,2.36846E-001,6.94806E+000,1.94235E-002,4.15989E-001,0,1.05403E+002,-9.06330E+000,9.94197E-001,6.19891E+001,-4.30389E+001,9.90024E-001,2.00058E-001,-8.22703E-002,-1.97974E-003,2.00072E-001,-8.22842E-002,-4.01744E-001,2.01119E-001,1.22142E+000,-1.62735E-002,0.00000E+000,9.44083E-003,9.25390E-001,0.00000E+000,-1.02901E-002,-9.78874E-002,1.00000E+000,30
919,1347,6.08933E+000,6.22600E-001,-4.98767E-002,7.02468E+000,-6.94971E-001,-1.38931E-002,7.05899E+000,2.35764E-002,4.93633E-001,0,1.07683E+002,-1.17627E+001,9.98159E-001,6.45784E+001,-4.55078E+001,9.97558E-001,1.89357E-001,-8.16753E-002,-1.97069E-003,1.89372E-001,-8.16896E-002,-4.16572E-001,1.89965E-001,1.20835E+000,-1.91246E-002,0.00000E+000,1.15486E-002,9.25897E-001,0.00000E+000,-7.92090E-003,-9.76727E-002,1.00000E+000,30
929,1347,6.87917E+000,6.33611E-001,-3.89119E-002,7.15742E+000,-6.91876E-001,-2.60479E-002,7.19082E+000,1.33400E-002,4.41472E-001,0,1.09669E+002,-1.17067E+001,9.98514E-001,6.68265E+001,-4.52804E+001,9.98010E-001,1.87875E-001,-8.18664E-002,-5.28439E-004,1.87876E-001,-8.18675E-002,-1.12245E-001,1.88393E-001,1.20653E+000,-2.15007E-002,0.00000E+000,1.62083E-002,9.25562E-001,0.00000E+000,-9.61032E-003,-9.66654E-002,1.00000E+000,30
939,1347,7.67369E+000,6.59958E-001,-3.75123E-002,7.29631E+000,-6.74727E-001,-3.83711E-002,7.32754E+000,1.83417E-002,4.60211E-001,0,1.11743E+002,-1.14288E+001,9.98371E-001,6.91337E+001,-4.47589E+001,9.96895E-001,1.87253E-001,-8.12363E-002,1.84503E-004,1.87253E-001,-8.12365E-002,3.93731E-002,1.87798E-001,1.20573E+000,-2.43485E-002,0.00000E+000,1.98243E-002,9.25945E-001,0.00000E+000,-1.08516E-002,-9.51448E-002,1.00000E+000,30
949,1347,8.47139E+000,6.84073E-001,-3.24962E-002,7.43658E+000,-6.60698E-001,-5.30382E-002,7.46606E+000,1.54859E-002,4.85051E-001,0,1.13842E+002,-1.11975E+001,9.97301E-001,7.15017E+001,-4.42766E+001,9.95792E-001,1.87088E-001,-8.05313E-002,7.83901E-004,1.87090E-001,-8.05336E-002,1.67827E-001,1.87693E-001,1.20548E+000,-2.69155E-002,0.00000E+000,2.29338E-002,9.26342E-001,0.00000E+000,-1.12638E-002,-9.29610E-002,1.00000E+000,30
959,1317,9.24579E+000,-1.08061E+000,5.56196E-002,7.61427E+000,-4.87729E-001,9.78903E-002,7.63050E+000,2.23234E-002,4.34519E-001,0,1.15938E+002,-8.74584E+000,9.95814E-001,7.34222E+001,-4.16858E+001,9.94623E-001,1.91147E-001,-7.97648E-002,6.14079E-004,1.91149E-001,-7.97662E-002,1.29872E-001,1.92018E-001,1.21049E+000,-2.94560E-002,0.00000E+000,2.52694E-002,9.26824E-001,0.00000E+000,-2.09033E-002,-9.07068E-002,1.00000E+000,30
959,1327,9.24397E+000,-4.84825E-001,-1.16934E-002,7.60011E+000,-5.34894E-001,3.93443E-002,7.61901E+000,2.95081E-002,4.34414E-001,0,1.15932E+002,-9.39102E+000,9.98176E-001,7.33464E+001,-4.23223E+001,9.97094E-001,1.89710E-001,-7.97475E-002,7.77035E-004,1.89712E-001,-7.97498E-002,1.65222E-001,1.90513E-001,1.20869E+000,-2.94905E-002,0.00000E+000,2.53764E-002,9.26826E-001,0.00000E+000,-1.78572E-002,-9.06484E-002,1.00000E+000,30
959,1337,9.24970E+000,1.05637E-001,-3.41508E-002,7.58521E+000,-5.93946E-001,-1.15969E-002,7.60844E+000,2.23218E-002,4.59508E-001,0,1.15882E+002,-1.02314E+001,9.97061E-001,7.34751E+001,-4.31259E+001,9.96266E-001,1.88254E-001,-7.97251E-002,9.31190E-004,1.88258E-001,-7.97283E-002,1.99091E-001,1.88991E-001,1.20687E+000,-2.95483E-002,0.00000E+000,2.54841E-002,9.26829E-001,0.00000E+000,-1.47952E-002,-9.05508E-002,1.00000E+000,30
959,1307,9.25682E+000,-1.66481E+000,1.43803E-001,7.63387E+000,-4.31291E-001,1.60234E-001,7.64772E+000,1.71723E-002,4.77944E-001,0,1.16004E+002,-7.98955E+000,9.96651E-001,7.36833E+001,-4.08919E+001,9.95477E-001,1.92572E-001,-7.97797E-002,4.46800E-004,1.92572E-001,-7.97805E-002,9.39951E-002,1.93513E-001,1.21229E+000,-2.94320E-002,0.00000E+000,2.51624E-002,9.26822E-001,0.00000E+000,-2.39456E-002,-9.07473E-002,1.00000E+000,30
959,1347,9.26376E+000,7.01169E-001,-4.13256E-002,7.57465E+000,-6.50205E-001,-6.53453E-002,7.60279E+000,1.65847E-002,4.60069E-001,0,1.15903E+002,-1.10186E+001,9.96768E-001,7.37639E+001,-4.38981E+001,9.96416E-001,1.86786E-001,-7.97001E-002,1.08044E-003,1.86790E-001,-7.97045E-002,2.32295E-001,1.87458E-001,1.20506E+000,-2.96172E-002,0.00000E+000,2.55918E-002,9.26833E-001,0.00000E+000,-1.17300E-002,-9.04343E-002,1.00000E+000,30
909,1347,5.30437E+000,6.12461E-001,-3.70656E-002,6.88991E+000,-7.00261E-001,-7.97784E-003,6.92541E+000,2.02291E-002,5.08542E-001,0,1.05679E+002,-1.18406E+001,9.98117E-001,6.24604E+001,-4.57925E+001,9.96759E-001,1.90933E-001,-8.23231E-002,-2.84673E-003,1.90963E-001,-8.23527E-002,-5.96809E-001,1.91564E-001,1.21029E+000,-1.65602E-002,0.00000E+000,7.79069E-003,9.25347E-001,0.00000E+000,-6.23076E-003,-9.77828E-002,1.00000E+000,30
899,1327,4.48629E+000,-5.96914E-001,1.74180E-002,6.76485E+000,-6.06030E-001,1.15119E-001,6.79291E+000,1.25015E-002,4.98089E-001,0,1.03437E+002,-1.05687E+001,9.96514E-001,5.97316E+001,-4.47126E+001,9.96246E-001,1.96532E-001,-8.28652E-002,-3.18014E-003,1.96568E-001,-8.29014E-002,-6.52037E-001,1.97369E-001,1.21712E+000,-1.40126E-002,0.00000E+000,5.11128E-003,9.24934E-001,0.00000E+000,-5.49592E-003,-9.85458E-002,1.00000E+000,30
899,1337,4.50301E+000,3.06019E-003,-2.59665E-002,6.76330E+000,-6.53161E-001,4.97486E-002,6.79495E+000,1.89990E-002,5.25100E-001,0,1.03631E+002,-1.11945E+001,9.98431E-001,5.99943E+001,-4.53320E+001,9.97990E-001,1.94474E-001,-8.28764E-002,-3.36793E-003,1.94515E-001,-8.29172E-002,-6.95620E-001,1.95218E-001,1.21461E+000,-1.40818E-002,0.00000E+000,4.80533E-003,9.24925E-001,0.00000E+000,-5.15524E-003,-9.85363E-002,1.00000E+000,30
899,1347,4.53453E+000,6.05140E-001,-2.20160E-002,6.76780E+000,-7.03308E-001,-9.55345E-003,6.80425E+000,1.58698E-002,5.03753E-001,0,1.03888E+002,-1.18727E+001,9.98342E-001,6.05871E+001,-4.60463E+001,9.97646E-001,1.92406E-001,-8.28915E-002,-3.56973E-003,1.92453E-001,-8.29378E-002,-7.42777E-001,1.93063E-001,1.21210E+000,-1.41841E-002,0.00000E+000,4.49857E-003,9.24913E-001,0.00000E+000,-4.81365E-003,-9.85224E-002,1.00000E+000,30
899,1317,4.48358E+000,-1.18588E+000,8.90070E-002,6.77481E+000,-5.51699E-001,1.82260E-001,6.79968E+000,1.59214E-002,4.90133E-001,0,1.03356E+002,-9.84635E+000,9.95927E-001,5.97476E+001,-4.39733E+001,9.93981E-001,1.98581E-001,-8.28566E-002,-3.00150E-003,1.98613E-001,-8.28886E-002,-6.10961E-001,1.99515E-001,1.21961E+000,-1.39646E-002,0.00000E+000,5.41647E-003,9.24940E-001,0.00000E+000,-5.83576E-003,-9.85523E-002,1.00000E+000,30
899,1307,4.48321E+000,-1.76430E+000,1.84084E-001,6.78144E+000,-4.91187E-001,2.46302E-001,6.80366E+000,1.59354E-002,4.20895E-001,0,1.03227E+002,-8.98097E+000,9.95894E-001,5.98518E+001,-4.31511E+001,9.92737E-001,2.00619E-001,-8.28506E-002,-2.83215E-003,2.00647E-001,-8.28789E-002,-5.72368E-001,2.01655E-001,1.22210E+000,-1.39379E-002,0.00000E+000,5.72065E-003,9.24943E-001,0.00000E+000,-6.17446E-003,-9.85559E-002,1.00000E+000,30
889,1327,3.69867E+000,-6.03932E-001,2.65548E-002,6.62526E+000,-6.09350E-001,1.12689E-001,6.65418E+000,1.10726E-002,5.11173E-001,0,1.01383E+002,-1.05971E+001,9.97595E-001,5.75740E+001,-4.49387E+001,9.97183E-001,1.97558E-001,-8.22486E-002,-3.98787E-003,1.97615E-001,-8.23054E-002,-8.16372E-001,1.98531E-001,1.21838E+000,-1.20838E-002,0.00000E+000,1.87090E-003,9.25593E-001,0.00000E+000,-2.45180E-003,-9.93395E-002,1.00000E+000,30
889,1337,3.70866E+000,-3.68042E-003,-2.08004E-002,6.61825E+000,-6.54579E-001,4.85862E-002,6.65072E+000,1.74152E-002,5.24920E-001,0,1.01488E+002,-1.11984E+001,9.98238E-001,5.77247E+001,-4.55546E+001,9.97862E-001,1.95577E-001,-8.22485E-002,-4.01632E-003,1.95635E-001,-8.23065E-002,-8.28051E-001,1.96453E-001,1.21597E+000,-1.21457E-002,0.00000E+000,1.96123E-003,9.25595E-001,0.00000E+000,-3.30101E-003,-9.93613E-002,1.00000E+000,30
889,1347,3.74159E+000,5.96031E-001,-1.85524E-002,6.62494E+000,-7.06361E-001,-9.76562E-003,6.66250E+000,1.42609E-002,5.02810E-001,0,1.01775E+002,-1.19053E+001,9.97868E-001,5.83371E+001,-4.63039E+001,9.97501E-001,1.93584E-001,-8.22483E-002,-4.05851E-003,1.93644E-001,-8.23080E-002,-8.42788E-001,1.94368E-001,1.21355E+000,-1.22410E-002,0.00000E+000,2.05191E-003,9.25599E-001,0.00000E+000,-4.15352E-003,-9.93949E-002,1.00000E+000,30
969,1297,1.00776E+001,-2.22080E+000,2.41147E-001,7.80001E+000,-3.57493E-001,1.87423E-001,7.81045E+000,2.14446E-002,4.85331E-001,0,1.18319E+002,-6.89782E+000,9.98281E-001,7.65200E+001,-3.95978E+001,9.96695E-001,1.92149E-001,-7.92980E-002,1.77505E-004,1.92149E-001,-7.92982E-002,3.74669E-002,1.93123E-001,1.21181E+000,-3.17697E-002,0.00000E+000,2.66832E-002,9.27009E-001,0.00000E+000,-2.74022E-002,-8.79988E-002,1.00000E+000,30
969,1307,1.00457E+001,-1.65183E+000,1.26132E-001,7.76609E+000,-4.25960E-001,1.28154E-001,7.77882E+000,3.85908E-002,4.59638E-001,0,1.18038E+002,-7.84317E+000,9.97262E-001,7.58811E+001,-4.05631E+001,9.95424E-001,1.91044E-001,-7.92845E-002,3.87868E-004,1.91044E-001,-7.92851E-002,8.22079E-002,1.91962E-001,1.21038E+000,-3.17742E-002,0.00000E+000,2.68507E-002,9.27010E-001,0.00000E+000,-2.42628E-002,-8.79890E-002,1.00000E+000,30
969,1317,1.00403E+001,-1.06685E+000,5.29395E-002,7.75106E+000,-4.81845E-001,7.63430E-002,7.76640E+000,1.39951E-002,4.24666E-001,0,1.18003E+002,-8.62855E+000,9.98703E-001,7.57370E+001,-4.13702E+001,9.98172E-001,1.89927E-001,-7.92655E-002,5.91499E-004,1.89929E-001,-7.92668E-002,1.25896E-001,1.90792E-001,1.20896E+000,-3.17956E-002,0.00000E+000,2.70182E-002,9.27012E-001,0.00000E+000,-2.11210E-002,-8.79419E-002,1.00000E+000,30
889,1317,3.68969E+000,-1.19105E+000,9.86052E-002,6.62837E+000,-5.53798E-001,1.78141E-001,6.65385E+000,1.47792E-002,5.33296E-001,0,1.01203E+002,-9.86519E+000,9.97637E-001,5.74941E+001,-4.41555E+001,9.96720E-001,1.99531E-001,-8.22487E-002,-3.96674E-003,1.99587E-001,-8.23045E-002,-8.06364E-001,2.00606E-001,1.22079E+000,-1.20396E-002,0.00000E+000,1.78070E-003,9.25591E-001,0.00000E+000,-1.60384E-003,-9.93240E-002,1.00000E+000,30
969,1327,1.00337E+001,-4.69845E-001,-1.12508E-002,7.73144E+000,-5.28296E-001,1.82495E-002,7.74949E+000,1.85625E-002,4.71420E-001,0,1.17913E+002,-9.28842E+000,9.98101E-001,7.55932E+001,-4.19699E+001,9.97363E-001,1.88798E-001,-7.92439E-002,7.92162E-004,1.88800E-001,-7.92462E-002,1.69328E-001,1.89609E-001,1.20752E+000,-3.18246E-002,0.00000E+000,2.71862E-002,9.27016E-001,0.00000E+000,-1.79730E-002,-8.78781E-002,1.00000E+000,30
889,1307,3.68477E+000,-1.77061E+000,1.98323E-001,6.62974E+000,-4.95224E-001,2.43825E-001,6.65268E+000,1.78472E-002,4.86125E-001,0,1.00990E+002,-9.04162E+000,9.96460E-001,5.75385E+001,-4.33483E+001,9.94659E-001,2.01493E-001,-8.22488E-002,-3.95417E-003,2.01548E-001,-8.23039E-002,-7.98256E-001,2.02673E-001,1.22318E+000,-1.20165E-002,0.00000E+000,1.69083E-003,9.25590E-001,0.00000E+000,-7.58950E-004,-9.93158E-002,1.00000E+000,30
969,1337,1.00377E+001,1.20731E-001,-4.12680E-002,7.71686E+000,-5.84281E-001,-3.05600E-002,7.73901E+000,1.83220E-002,4.24931E-001,0,1.17863E+002,-1.00784E+001,9.97743E-001,7.56797E+001,-4.27895E+001,9.97385E-001,1.87655E-001,-7.92182E-002,9.87769E-004,1.87659E-001,-7.92219E-002,2.12063E-001,1.88415E-001,1.20609E+000,-3.18659E-002,0.00000E+000,2.73543E-002,9.27021E-001,0.00000E+000,-1.48203E-002,-8.77872E-002,1.00000E+000,30
969,1347,1.00457E+001,7.35240E-001,-4.92483E-002,7.70144E+000,-6.22468E-001,-7.84655E-002,7.72696E+000,1.56863E-002,4.47118E-001,0,1.17785E+002,-1.05846E+001,9.97528E-001,7.58732E+001,-4.32546E+001,9.96854E-001,1.86494E-001,-7.91890E-002,1.17993E-003,1.86499E-001,-7.91942E-002,2.54451E-001,1.87204E-001,1.20465E+000,-3.19179E-002,0.00000E+000,2.75236E-002,9.27027E-001,0.00000E+000,-1.16465E-002,-8.76729E-002,1.00000E+000,30
879,1327,2.91657E+000,-6.05125E-001,4.54003E-002,6.49065E+000,-6.06658E-001,1.19285E-001,6.52003E+000,1.57017E-002,5.18650E-001,0,9.93678E+001,-1.05547E+001,9.97548E-001,5.55293E+001,-4.50980E+001,9.97332E-001,1.98375E-001,-8.25103E-002,-4.46569E-003,1.98446E-001,-8.25813E-002,-9.10619E-001,1.99374E-001,1.21940E+000,-1.03695E-002,0.00000E+000,-5.12837E-004,9.25289E-001,0.00000E+000,-3.02172E-004,-9.85900E-002,1.00000E+000,30
879,1337,2.92646E+000,-1.09741E-002,-1.34387E-002,6.48421E+000,-6.57097E-001,4.61446E-002,6.51758E+000,1.56039E-002,5.05572E-001,0,9.95139E+001,-1.12082E+001,9.96455E-001,5.56531E+001,-4.57987E+001,9.96388E-001,1.96623E-001,-8.25059E-002,-4.41747E-003,1.96692E-001,-8.25758E-002,-9.06457E-001,1.97534E-001,1.21726E+000,-1.04223E-002,0.00000E+000,-2.43677E-004,9.25295E-001,0.00000E+000,-1.67928E-003,-9.86240E-002,1.00000E+000,30
879,1347,2.95279E+000,5.94582E-001,-1.26417E-002,6.48579E+000,-7.03293E-001,-7.33763E-003,6.52382E+000,1.79360E-002,5.26985E-001,0,9.97052E+001,-1.18384E+001,9.96619E-001,5.61626E+001,-4.64356E+001,9.96451E-001,1.94854E-001,-8.24997E-002,-4.37989E-003,1.94924E-001,-8.25689E-002,-9.04495E-001,1.95681E-001,1.21511E+000,-1.05021E-002,0.00000E+000,2.71535E-005,9.25305E-001,0.00000E+000,-3.06493E-003,-9.86755E-002,1.00000E+000,30
879,1307,2.88884E+000,-1.76956E+000,2.17232E-001,6.47961E+000,-4.92051E-001,2.43261E-001,6.50282E+000,2.08209E-002,4.91266E-001,0,9.87630E+001,-8.96875E+000,9.95528E-001,5.52818E+001,-4.34717E+001,9.93622E-001,2.01854E-001,-8.25154E-002,-4.58263E-003,2.01928E-001,-8.25892E-002,-9.23005E-001,2.03039E-001,1.22365E+000,-1.03153E-002,0.00000E+000,-1.04945E-003,9.25282E-001,0.00000E+000,2.44331E-003,-9.85550E-002,1.00000E+000,30
879,1317,2.90203E+000,-1.19021E+000,1.21993E-001,6.48792E+000,-5.48718E-001,1.88340E-001,6.51380E+000,1.52137E-002,4.40337E-001,0,9.90877E+001,-9.75360E+000,9.97779E-001,5.53747E+001,-4.43419E+001,9.96723E-001,2.00123E-001,-8.25136E-002,-4.51990E-003,2.00195E-001,-8.25859E-002,-9.15958E-001,2.01214E-001,1.22153E+000,-1.03313E-002,0.00000E+000,-7.82066E-004,9.25284E-001,0.00000E+000,1.07529E-003,-9.85654E-002,1.00000E+000,30
979,1307,1.08679E+001,-1.63181E+000,1.43327E-001,7.92789E+000,-4.15634E-001,1.16787E-001,7.93964E+000,2.22570E-002,4.45360E-001,0,1.20437E+002,-7.66931E+000,9.98889E-001,7.86681E+001,-4.01935E+001,9.98680E-001,1.89699E-001,-7.87406E-002,3.40657E-004,1.89699E-001,-7.87410E-002,7.27099E-002,1.90609E-001,1.20868E+000,-3.35743E-002,0.00000E+000,2.80454E-002,9.27229E-001,0.00000E+000,-2.33372E-002,-8.48667E-002,1.00000E+000,30
979,1317,1.08424E+001,-1.04030E+000,5.12594E-002,7.89436E+000,-4.64591E-001,5.32946E-002,7.90820E+000,1.34478E-002,4.43091E-001,0,1.20165E+002,-8.33123E+000,9.98213E-001,7.81781E+001,-4.08436E+001,9.97531E-001,1.89003E-001,-7.87182E-002,5.97864E-004,1.89005E-001,-7.87196E-002,1.27950E-001,1.89881E-001,1.20777E+000,-3.35858E-002,0.00000E+000,2.83097E-002,9.27232E-001,0.00000E+000,-2.02448E-002,-8.48276E-002,1.00000E+000,30
979,1327,1.08280E+001,-4.47051E-001,-1.23907E-002,7.86766E+000,-5.14027E-001,-2.67918E-004,7.88443E+000,1.47766E-002,4.47401E-001,0,1.19955E+002,-9.03226E+000,9.96581E-001,7.79127E+001,-4.15232E+001,9.95365E-001,1.88297E-001,-7.86922E-002,8.52677E-004,1.88300E-001,-7.86949E-002,1.82982E-001,1.89144E-001,1.20686E+000,-3.36032E-002,0.00000E+000,2.85742E-002,9.27238E-001,0.00000E+000,-1.71493E-002,-8.47686E-002,1.00000E+000,30
979,1337,1.08267E+001,1.53101E-001,-4.59630E-002,7.84998E+000,-5.59602E-001,-4.22831E-002,7.87001E+000,1.93498E-002,4.42207E-001,0,1.19834E+002,-9.69046E+000,9.94958E-001,7.79106E+001,-4.21653E+001,9.94666E-001,1.87579E-001,-7.86625E-002,1.10531E-003,1.87584E-001,-7.86671E-002,2.37859E-001,1.88395E-001,1.20594E+000,-3.36266E-002,0.00000E+000,2.88393E-002,9.27244E-001,0.00000E+000,-1.40468E-002,-8.46895E-002,1.00000E+000,30
979,1347,1.08333E+001,7.64810E-001,-4.38358E-002,7.83170E+000,-6.00332E-001,-8.61827E-002,7.85514E+000,2.02645E-002,4.43857E-001,0,1.19697E+002,-1.02561E+001,9.93134E-001,7.81007E+001,-4.27047E+001,9.92485E-001,1.86848E-001,-7.86253E-002,1.35400E-003,1.86855E-001,-7.86322E-002,2.92216E-001,1.87634E-001,1.20502E+000,-3.36620E-002,0.00000E+000,2.91058E-002,9.27255E-001,0.00000E+000,-1.09274E-002,-8.45696E-002,1.00000E+000,30
979,1297,1.08705E+001,-2.20133E+000,2.29040E-001,7.93706E+000,-3.45243E-001,1.66744E-001,7.94631E+000,1.80697E-002,4.96635E-001,0,1.20379E+002,-6.67507E+000,9.98389E-001,7.87955E+001,-3.91672E+001,9.97957E-001,1.90384E-001,-7.87614E-002,8.22344E-005,1.90384E-001,-7.87615E-002,1.75061E-002,1.91327E-001,1.20960E+000,-3.35650E-002,0.00000E+000,2.77812E-002,9.27226E-001,0.00000E+000,-2.64299E-002,-8.48981E-002,1.00000E+000,30
869,1317,2.10094E+000,-1.18705E+000,1.16884E-001,6.33522E+000,-5.41536E-001,1.77756E-001,6.36081E+000,1.13982E-002,4.66360E-001,0,9.68526E+001,-9.60222E+000,9.98207E-001,5.29907E+001,-4.43738E+001,9.96956E-001,2.00319E-001,-8.29057E-002,-4.60341E-003,2.00394E-001,-8.29805E-002,-9.30931E-001,2.01378E-001,1.22179E+000,-8.39664E-003,0.00000E+000,-2.54637E-003,9.24843E-001,0.00000E+000,2.83676E-003,-9.77163E-002,1.00000E+000,30
869,1327,2.11812E+000,-6.01942E-001,4.52349E-002,6.34106E+000,-5.98018E-001,1.15285E-001,6.37024E+000,1.58990E-002,5.43536E-001,0,9.71565E+001,-1.04095E+001,9.97043E-001,5.31967E+001,-4.51424E+001,9.96461E-001,1.98936E-001,-8.29025E-002,-4.53717E-003,1.99009E-001,-8.29755E-002,-9.22056E-001,1.99923E-001,1.22010E+000,-8.42581E-003,0.00000E+000,-2.24073E-003,9.24848E-001,0.00000E+000,1.15654E-003,-9.77452E-002,1.00000E+000,30
869,1337,2.13533E+000,-1.29363E-002,7.37828E-005,6.34147E+000,-6.54362E-001,5.29781E-002,6.37536E+000,1.71684E-002,5.15672E-001,0,9.73707E+001,-1.11627E+001,9.95684E-001,5.34631E+001,-4.59606E+001,9.95385E-001,1.97545E-001,-8.28979E-002,-4.47643E-003,1.97616E-001,-8.29693E-002,-9.14245E-001,1.98461E-001,1.21840E+000,-8.46891E-003,0.00000E+000,-1.93428E-003,9.24856E-001,0.00000E+000,-5.28093E-004,-9.77879E-002,1.00000E+000,30
869,1347,2.15851E+000,5.95089E-001,-1.13104E-002,6.34264E+000,-6.94756E-001,-6.78050E-004,6.38058E+000,2.14677E-002,5.04617E-001,0,9.75562E+001,-1.17069E+001,9.96748E-001,5.38994E+001,-4.65514E+001,9.96417E-001,1.96147E-001,-8.28920E-002,-4.42104E-003,1.96217E-001,-8.29621E-002,-9.07481E-001,1.96995E-001,1.21670E+000,-8.52528E-003,0.00000E+000,-1.62731E-003,9.24866E-001,0.00000E+000,-2.21558E-003,-9.78438E-002,1.00000E+000,30
869,1307,2.09417E+000,-1.76607E+000,2.23487E-001,6.33279E+000,-4.84508E-001,2.41634E-001,6.35589E+000,1.71540E-002,5.03192E-001,0,9.65884E+001,-8.83441E+000,9.96272E-001,5.30231E+001,-4.35271E+001,9.94836E-001,2.01692E-001,-8.29073E-002,-4.67648E-003,2.01768E-001,-8.29841E-002,-9.41136E-001,2.02824E-001,1.22348E+000,-8.38530E-003,0.00000E+000,-2.85063E-003,9.24841E-001,0.00000E+000,4.50938E-003,-9.77050E-002,1.00000E+000,30
989,1307,1.16470E+001,-1.59389E+000,1.20443E-001,8.05023E+000,-3.84692E-001,8.32943E-002,8.05985E+000,1.75453E-002,4.82886E-001,0,1.22313E+002,-7.15424E+000,9.97664E-001,8.07184E+001,-3.94410E+001,9.97014E-001,1.88588E-001,-7.85025E-002,2.63167E-004,1.88588E-001,-7.85028E-002,5.64540E-002,1.89467E-001,1.20727E+000,-3.44414E-002,0.00000E+000,2.84012E-002,9.27213E-001,0.00000E+000,-2.14867E-002,-8.19894E-002,1.00000E+000,30
989,1317,1.16195E+001,-1.00028E+000,3.54001E-002,8.01575E+000,-4.32696E-001,3.23471E-002,8.02748E+000,1.85254E-002,5.36228E-001,0,1.21984E+002,-7.82989E+000,9.97967E-001,8.02096E+001,-4.00441E+001,9.96997E-001,1.88241E-001,-7.84768E-002,5.77111E-004,1.88242E-001,-7.84780E-002,1.23973E-001,1.89107E-001,1.20679E+000,-3.44466E-002,0.00000E+000,2.87680E-002,9.27217E-001,0.00000E+000,-1.84128E-002,-8.19561E-002,1.00000E+000,30
989,1327,1.16205E+001,-4.11463E-001,-1.78606E-002,8.00243E+000,-4.88861E-001,-1.94131E-002,8.01737E+000,2.18934E-002,5.34322E-001,0,1.21971E+002,-8.62475E+000,9.96921E-001,8.02030E+001,-4.08140E+001,9.95017E-001,1.87884E-001,-7.84435E-002,8.88886E-004,1.87887E-001,-7.84465E-002,1.91226E-001,1.88737E-001,1.20630E+000,-3.44574E-002,0.00000E+000,2.91351E-002,9.27225E-001,0.00000E+000,-1.53360E-002,-8.18878E-002,1.00000E+000,30
989,1297,1.16696E+001,-2.17647E+000,2.30268E-001,8.07857E+000,-3.27091E-001,1.53455E-001,8.08664E+000,1.60731E-002,4.79303E-001,0,1.22474E+002,-6.38429E+000,9.97311E-001,8.11993E+001,-3.86948E+001,9.96618E-001,1.88925E-001,-7.85267E-002,-5.09656E-005,1.88925E-001,-7.85267E-002,-1.09183E-002,1.89819E-001,1.20775E+000,-3.44371E-002,0.00000E+000,2.80349E-002,9.27210E-001,0.00000E+000,-2.45560E-002,-8.20166E-002,1.00000E+000,30
989,1337,1.16175E+001,1.82620E-001,-4.35163E-002,7.98012E+000,-5.40397E-001,-6.58415E-002,7.99867E+000,1.72895E-002,4.43017E-001,0,1.21796E+002,-9.35498E+000,9.94786E-001,8.01874E+001,-4.16088E+001,9.94486E-001,1.87518E-001,-7.84052E-002,1.19812E-003,1.87523E-001,-7.84106E-002,2.58140E-001,1.88359E-001,1.20582E+000,-3.44718E-002,0.00000E+000,2.95016E-002,9.27236E-001,0.00000E+000,-1.22652E-002,-8.17959E-002,1.00000E+000,30
989,1347,1.16237E+001,7.93126E-001,-4.36604E-002,7.96359E+000,-5.80168E-001,-1.02023E-001,7.98534E+000,1.88070E-002,4.41816E-001,0,1.21661E+002,-9.93693E+000,9.97089E-001,8.03656E+001,-4.21618E+001,9.97320E-001,1.87140E-001,-7.83630E-002,1.50739E-003,1.87149E-001,-7.83716E-002,3.25281E-001,1.87970E-001,1.20533E+000,-3.44889E-002,0.00000E+000,2.98700E-002,9.27249E-001,0.00000E+000,-9.17825E-003,-8.16872E-002,1.00000E+000,30
859,1327,1.32377E+000,-5.97337E-001,4.12057E-002,6.19496E+000,-5.88728E-001,1.06521E-001,6.22378E+000,1.49286E-002,5.44763E-001,0,9.50104E+001,-1.02227E+001,9.96064E-001,5.09245E+001,-4.51680E+001,9.95654E-001,1.99193E-001,-8.29945E-002,-4.37246E-003,1.99261E-001,-8.30622E-002,-8.87505E-001,2.00177E-001,1.22042E+000,-6.77156E-003,0.00000E+000,-3.23782E-003,9.24664E-001,0.00000E+000,1.86374E-003,-9.66844E-002,1.00000E+000,30
859,1337,1.34599E+000,-4.15840E-003,6.05950E-004,6.20067E+000,-6.39842E-001,4.94323E-002,6.23379E+000,1.74796E-002,5.41782E-001,0,9.52855E+001,-1.09303E+001,9.95624E-001,5.12795E+001,-4.59205E+001,9.95039E-001,1.98199E-001,-8.29927E-002,-4.35188E-003,1.98267E-001,-8.30600E-002,-8.86458E-001,1.99134E-001,1.21921E+000,-6.80190E-003,0.00000E+000,-3.00791E-003,9.24670E-001,0.00000E+000,2.39414E-005,-9.67303E-002,1.00000E+000,30
859,1347,1.36951E+000,5.92619E-001,-8.51390E-003,6.20172E+000,-6.91758E-001,-5.05431E-003,6.24018E+000,2.30672E-002,4.92007E-001,0,9.54743E+001,-1.16308E+001,9.97461E-001,5.17257E+001,-4.67109E+001,9.96967E-001,1.97198E-001,-8.29903E-002,-4.33572E-003,1.97265E-001,-8.30573E-002,-8.86329E-001,1.98083E-001,1.21799E+000,-6.84312E-003,0.00000E+000,-2.77724E-003,9.24678E-001,0.00000E+000,-1.82200E-003,-9.67927E-002,1.00000E+000,30
859,1307,1.29939E+000,-1.76021E+000,2.24290E-001,6.18583E+000,-4.76216E-001,2.36630E-001,6.20865E+000,2.01672E-002,6.03024E-001,0,9.44196E+001,-8.69598E+000,9.96957E-001,5.07559E+001,-4.34909E+001,9.96831E-001,2.01158E-001,-8.29963E-002,-4.42647E-003,2.01227E-001,-8.30652E-002,-8.92248E-001,2.02244E-001,1.22284E+000,-6.74329E-003,0.00000E+000,-3.69531E-003,9.24659E-001,0.00000E+000,5.52477E-003,-9.66417E-002,1.00000E+000,30
859,1317,1.31338E+000,-1.18971E+000,1.13846E-001,6.19548E+000,-5.41178E-001,1.68612E-001,6.22136E+000,1.56431E-002,5.32336E-001,0,9.48093E+001,-9.56765E+000,9.96707E-001,5.08240E+001,-4.44790E+001,9.95190E-001,2.00179E-001,-8.29957E-002,-4.39709E-003,2.00247E-001,-8.30640E-002,-8.89393E-001,2.01214E-001,1.22163E+000,-6.75142E-003,0.00000E+000,-3.46692E-003,9.24660E-001,0.00000E+000,3.69709E-003,-9.66540E-002,1.00000E+000,30
999,1337,1.24036E+001,2.08953E-001,-4.61153E-002,8.11126E+000,-5.18500E-001,-6.76939E-002,8.12810E+000,1.37229E-002,3.93393E-001,0,1.23697E+002,-9.03233E+000,9.98867E-001,8.23873E+001,-4.11166E+001,9.98130E-001,1.87285E-001,-7.82705E-002,1.03773E-003,1.87289E-001,-7.82746E-002,2.23893E-001,1.88128E-001,1.20550E+000,-3.48230E-002,0.00000E+000,2.92831E-002,9.27128E-001,0.00000E+000,-9.95518E-003,-7.86377E-002,1.00000E+000,30
999,1347,1.24166E+001,8.20875E-001,-3.72585E-002,8.09906E+000,-5.60002E-001,-1.04656E-001,8.11907E+000,1.27067E-002,4.06278E-001,0,1.23629E+002,-9.62459E+000,9.98914E-001,8.26858E+001,-4.16580E+001,9.98478E-001,1.87227E-001,-7.82287E-002,1.33775E-003,1.87234E-001,-7.82355E-002,2.88728E-001,1.88074E-001,1.20541E+000,-3.48265E-002,0.00000E+000,2.96359E-002,9.27141E-001,0.00000E+000,-7.02055E-003,-7.85242E-002,1.00000E+000,30
999,1307,1.24356E+001,-1.56424E+000,1.08914E-001,8.18159E+000,-3.62072E-001,6.13809E-002,8.18983E+000,1.17558E-002,4.59510E-001,0,1.24284E+002,-6.76240E+000,9.98170E-001,8.29413E+001,-3.88701E+001,9.98013E-001,1.87406E-001,-7.83598E-002,1.40875E-004,1.87406E-001,-7.83599E-002,3.03710E-002,1.88242E-001,1.20578E+000,-3.48176E-002,0.00000E+000,2.82341E-002,9.27107E-001,0.00000E+000,-1.86822E-002,-7.88102E-002,1.00000E+000,30
999,1317,1.24168E+001,-9.73823E-001,2.86162E-002,8.15541E+000,-4.12899E-001,1.36911E-002,8.16586E+000,1.81914E-002,5.17618E-001,0,1.24071E+002,-7.50505E+000,9.97011E-001,8.25761E+001,-3.95274E+001,9.94044E-001,1.87374E-001,-7.83352E-002,4.40459E-004,1.87375E-001,-7.83360E-002,9.49772E-002,1.88212E-001,1.20569E+000,-3.48187E-002,0.00000E+000,2.85838E-002,9.27111E-001,0.00000E+000,-1.57730E-002,-7.87770E-002,1.00000E+000,30
999,1327,1.24129E+001,-3.92136E-001,-2.50128E-002,8.13865E+000,-4.74888E-001,-3.16164E-002,8.15255E+000,2.07037E-002,4.86018E-001,0,1.23988E+002,-8.39765E+000,9.97678E-001,8.24917E+001,-4.04205E+001,9.95711E-001,1.87334E-001,-7.83054E-002,7.39648E-004,1.87336E-001,-7.83074E-002,1.59533E-001,1.88174E-001,1.20559E+000,-3.48205E-002,0.00000E+000,2.89337E-002,9.27118E-001,0.00000E+000,-1.28620E-002,-7.87191E-002,1.00000E+000,30
999,1297,1.24612E+001,-2.15627E+000,2.18323E-001,8.21250E+000,-3.14142E-001,1.29223E-001,8.21952E+000,1.25989E-002,4.86350E-001,0,1.24494E+002,-6.14935E+000,9.96783E-001,8.34649E+001,-3.82558E+001,9.94965E-001,1.87429E-001,-7.83823E-002,-1.58830E-004,1.87430E-001,-7.83824E-002,-3.42357E-002,1.88264E-001,1.20587E+000,-3.48169E-002,0.00000E+000,2.78847E-002,9.27104E-001,0.00000E+000,-2.15889E-002,-7.88342E-002,1.00000E+000,30
849,1337,5.54204E-001,-3.81642E-003,1.41978E-003,6.05616E+000,-6.36207E-001,4.22942E-002,6.08963E+000,2.05881E-002,5.65528E-001,0,9.31548E+001,-1.08281E+001,9.97247E-001,4.90623E+001,-4.60130E+001,9.96518E-001,1.98517E-001,-8.27403E-002,-3.93427E-003,1.98572E-001,-8.27953E-002,-8.01254E-001,1.99482E-001,1.21960E+000,-5.40147E-003,0.00000E+000,-3.27767E-003,9.24771E-001,0.00000E+000,-3.53427E-005,-9.52824E-002,1.00000E+000,30
849,1347,5.72959E-001,5.88323E-001,-1.19346E-002,6.05527E+000,-6.89549E-001,-3.75317E-003,6.09440E+000,1.79499E-002,4.85510E-001,0,9.32882E+001,-1.15712E+001,9.97727E-001,4.94264E+001,-4.68833E+001,9.97520E-001,1.97968E-001,-8.27387E-002,-3.91714E-003,1.98023E-001,-8.27933E-002,-7.99329E-001,1.98906E-001,1.21893E+000,-5.42129E-003,0.00000E+000,-3.07230E-003,9.24777E-001,0.00000E+000,-1.82016E-003,-9.53354E-002,1.00000E+000,30
849,1357,6.05788E-001,1.19608E+000,2.19905E-002,6.05800E+000,-7.36864E-001,-5.31922E-002,6.10288E+000,1.53684E-002,4.96388E-001,0,9.34753E+001,-1.22292E+001,9.97933E-001,5.01164E+001,-4.75726E+001,9.97923E-001,1.97411E-001,-8.27363E-002,-3.90416E-003,1.97465E-001,-8.27907E-002,-7.98272E-001,1.98322E-001,1.21825E+000,-5.45160E-003,0.00000E+000,-2.86511E-003,9.24787E-001,0.00000E+000,-3.62074E-003,-9.54163E-002,1.00000E+000,30
849,1327,5.39857E-001,-5.90690E-001,4.45125E-002,6.05705E+000,-5.79202E-001,9.62896E-002,6.08544E+000,2.04349E-002,5.49165E-001,0,9.29889E+001,-1.00233E+001,9.97446E-001,4.88351E+001,-4.51752E+001,9.97215E-001,1.99062E-001,-8.27415E-002,-3.95327E-003,1.99117E-001,-8.27969E-002,-8.03562E-001,2.00056E-001,1.22026E+000,-5.38607E-003,0.00000E+000,-3.48307E-003,9.24767E-001,0.00000E+000,1.74969E-003,-9.52413E-002,1.00000E+000,30
1009,1337,1.31998E+001,2.48802E-001,-6.04233E-002,8.25368E+000,-4.85441E-001,-7.36005E-002,8.26827E+000,2.05572E-002,4.37630E-001,0,1.25778E+002,-8.52424E+000,9.98579E-001,8.47275E+001,-4.03413E+001,9.98464E-001,1.87019E-001,-7.80761E-002,7.07468E-004,1.87021E-001,-7.80779E-002,1.52906E-001,1.87868E-001,1.20517E+000,-3.48003E-002,0.00000E+000,2.85017E-002,9.27135E-001,0.00000E+000,-7.96487E-003,-7.59439E-002,1.00000E+000,30
1009,1347,1.32043E+001,8.35234E-001,-4.34782E-002,8.23074E+000,-5.52043E-001,-1.11584E-001,8.24999E+000,1.36445E-002,4.09564E-001,0,1.25560E+002,-9.50970E+000,9.99342E-001,8.49038E+001,-4.13149E+001,9.99076E-001,1.87199E-001,-7.80438E-002,9.36654E-004,1.87203E-001,-7.80471E-002,2.02325E-001,1.88062E-001,1.20537E+000,-3.47917E-002,0.00000E+000,2.87443E-002,9.27145E-001,0.00000E+000,-5.46591E-003,-7.58387E-002,1.00000E+000,30
1009,1297,1.32460E+001,-2.13625E+000,2.04043E-001,8.34082E+000,-2.99365E-001,1.09506E-001,8.34691E+000,1.63003E-002,4.16626E-001,0,1.26411E+002,-5.87350E+000,9.95302E-001,8.56276E+001,-3.78537E+001,9.93770E-001,1.86239E-001,-7.81566E-002,-1.97879E-004,1.86239E-001,-7.81567E-002,-4.28812E-002,1.87039E-001,1.20435E+000,-3.48131E-002,0.00000E+000,2.75375E-002,9.27119E-001,0.00000E+000,-1.78982E-002,-7.61009E-002,1.00000E+000,30
1009,1307,1.32267E+001,-1.53962E+000,1.05074E-001,8.31617E+000,-3.42170E-001,5.21515E-002,8.32337E+000,1.60086E-002,4.14098E-001,0,1.26257E+002,-6.45470E+000,9.97285E-001,8.52221E+001,-3.84042E+001,9.97410E-001,1.86443E-001,-7.81399E-002,2.76136E-005,1.86443E-001,-7.81399E-002,5.97976E-003,1.87255E-001,1.20456E+000,-3.48114E-002,0.00000E+000,2.77780E-002,9.27121E-001,0.00000E+000,-1.54210E-002,-7.60803E-002,1.00000E+000,30
1009,1317,1.32127E+001,-9.48912E-001,3.47895E-002,8.29446E+000,-3.92804E-001,1.32492E-002,8.30376E+000,1.64564E-002,4.49730E-001,0,1.26079E+002,-7.20804E+000,9.97597E-001,8.49504E+001,-3.90874E+001,9.97672E-001,1.86641E-001,-7.81216E-002,2.53579E-004,1.86641E-001,-7.81218E-002,5.48754E-002,1.87465E-001,1.20476E+000,-3.48090E-002,0.00000E+000,2.80188E-002,9.27124E-001,0.00000E+000,-1.29397E-002,-7.60507E-002,1.00000E+000,30
849,1317,5.20729E-001,-1.17564E+000,1.22849E-001,6.05010E+000,-5.23177E-001,1.70661E-001,6.07507E+000,2.03282E-002,6.16442E-001,0,9.26324E+001,-9.30813E+000,9.97057E-001,4.86138E+001,-4.43431E+001,9.95791E-001,1.99602E-001,-8.27425E-002,-3.97351E-003,1.99658E-001,-8.27984E-002,-8.06125E-001,2.00624E-001,1.22093E+000,-5.37374E-003,0.00000E+000,-3.68791E-003,9.24763E-001,0.00000E+000,3.52985E-003,-9.52083E-002,1.00000E+000,30
1009,1327,1.32070E+001,-3.56332E-001,-2.32085E-002,8.27416E+000,-4.45850E-001,-4.36091E-002,8.28628E+000,1.59332E-002,4.40072E-001,0,1.25982E+002,-7.93797E+000,9.98608E-001,8.48314E+001,-3.97901E+001,9.98422E-001,1.86833E-001,-7.80984E-002,4.80843E-004,1.86834E-001,-7.80992E-002,1.03990E-001,1.87669E-001,1.20496E+000,-3.48044E-002,0.00000E+000,2.82604E-002,9.27130E-001,0.00000E+000,-1.04515E-002,-7.59946E-002,1.00000E+000,30
849,1307,4.99282E-001,-1.75697E+000,2.22503E-001,6.03300E+000,-4.68302E-001,2.28041E-001,6.05544E+000,2.18140E-002,6.28565E-001,0,9.21688E+001,-8.55482E+000,9.97290E-001,4.84060E+001,-4.35278E+001,9.96403E-001,2.00137E-001,-8.27429E-002,-3.99683E-003,2.00194E-001,-8.27993E-002,-8.09320E-001,2.01188E-001,1.22160E+000,-5.36927E-003,0.00000E+000,-3.89217E-003,9.24761E-001,0.00000E+000,5.30500E-003,-9.51964E-002,1.00000E+000,30
839,1337,-2.39498E-001,-1.35653E-002,2.42356E-002,5.90908E+000,-6.40922E-001,5.56425E-002,5.94400E+000,3.71108E-002,5.44003E-001,0,9.09159E+001,-1.09085E+001,9.97866E-001,4.68697E+001,-4.63322E+001,9.97026E-001,1.98520E-001,-8.28359E-002,-3.29642E-003,1.98558E-001,-8.28745E-002,-6.71167E-001,1.99460E-001,1.21960E+000,-4.18063E-003,0.00000E+000,-2.94495E-003,9.24522E-001,0.00000E+000,-7.29420E-004,-9.34776E-002,1.00000E+000,30
839,1347,-2.20347E-001,5.82497E-001,-8.23745E-003,5.91067E+000,-6.89091E-001,-2.02838E-005,5.95071E+000,1.50977E-002,4.82120E-001,0,9.11187E+001,-1.15536E+001,9.97971E-001,4.71981E+001,-4.70932E+001,9.97593E-001,1.98213E-001,-8.28342E-002,-3.26948E-003,1.98251E-001,-8.28722E-002,-6.66414E-001,1.99137E-001,1.21923E+000,-4.19054E-003,0.00000E+000,-2.72219E-003,9.24528E-001,0.00000E+000,-2.64157E-003,-9.35287E-002,1.00000E+000,30
839,1357,-1.85647E-001,1.19567E+000,2.09746E-002,5.91640E+000,-7.30018E-001,-4.98549E-002,5.96148E+000,1.25327E-002,4.83609E-001,0,9.13512E+001,-1.21087E+001,9.98454E-001,4.79098E+001,-4.76949E+001,9.98140E-001,1.97900E-001,-8.28314E-002,-3.24502E-003,1.97937E-001,-8.28689E-002,-6.62174E-001,1.98808E-001,1.21885E+000,-4.20687E-003,0.00000E+000,-2.49748E-003,9.24538E-001,0.00000E+000,-4.57047E-003,-9.36128E-002,1.00000E+000,30
1019,1337,1.40026E+001,2.77291E-001,-5.10755E-002,8.39614E+000,-4.67219E-001,-8.24501E-002,8.40953E+000,1.84462E-002,5.14301E-001,0,1.27866E+002,-8.26113E+000,9.98139E-001,8.72169E+001,-3.97770E+001,9.98091E-001,1.86753E-001,-7.79692E-002,3.77462E-004,1.86753E-001,-7.79697E-002,8.16968E-002,1.87599E-001,1.20484E+000,-3.47051E-002,0.00000E+000,2.76993E-002,9.27126E-001,0.00000E+000,-6.32299E-003,-7.40973E-002,1.00000E+000,30
1019,1347,1.39986E+001,8.65569E-001,-4.34690E-002,8.37026E+000,-5.29131E-001,-1.04587E-001,8.38762E+000,1.58889E-002,4.55542E-001,0,1.27550E+002,-9.18515E+000,9.98722E-001,8.72416E+001,-4.07164E+001,9.98630E-001,1.87070E-001,-7.79473E-002,5.60304E-004,1.87071E-001,-7.79485E-002,1.21135E-001,1.87935E-001,1.20521E+000,-3.46926E-002,0.00000E+000,2.78825E-002,9.27132E-001,0.00000E+000,-4.25807E-003,-7.40282E-002,1.00000E+000,30
839,1327,-2.72309E-001,-5.88598E-001,4.30140E-002,5.89586E+000,-5.69715E-001,1.07411E-001,5.92429E+000,3.38415E-002,5.52846E-001,0,9.05420E+001,-9.88006E+000,9.98265E-001,4.63036E+001,-4.52469E+001,9.97598E-001,1.98823E-001,-8.28378E-002,-3.32307E-003,1.98862E-001,-8.28770E-002,-6.75856E-001,1.99779E-001,1.21997E+000,-4.16958E-003,0.00000E+000,-3.16815E-003,9.24516E-001,0.00000E+000,1.18650E-003,-9.34207E-002,1.00000E+000,30
1019,1327,1.40002E+001,-3.31832E-001,-3.16492E-002,8.41204E+000,-4.27607E-001,-4.89676E-002,8.42304E+000,1.73761E-002,4.58514E-001,0,1.27993E+002,-7.66279E+000,9.97764E-001,8.71399E+001,-3.92805E+001,9.97843E-001,1.86431E-001,-7.79891E-002,1.95236E-004,1.86432E-001,-7.79893E-002,4.23047E-002,1.87259E-001,1.20447E+000,-3.47156E-002,0.00000E+000,2.75162E-002,9.27121E-001,0.00000E+000,-8.38737E-003,-7.41551E-002,1.00000E+000,30
1019,1317,1.40076E+001,-9.29875E-001,2.73608E-002,8.43046E+000,-3.81032E-001,-7.19955E-003,8.43907E+000,1.71534E-002,4.35619E-001,0,1.28114E+002,-6.99933E+000,9.98175E-001,8.72868E+001,-3.86825E+001,9.97968E-001,1.86106E-001,-7.80052E-002,1.49117E-005,1.86106E-001,-7.80052E-002,3.23491E-003,1.86916E-001,1.20409E+000,-3.47220E-002,0.00000E+000,2.73335E-002,9.27118E-001,0.00000E+000,-1.04468E-002,-7.41902E-002,1.00000E+000,30
839,1317,-2.76819E-001,-1.16998E+000,1.20681E-001,5.89931E+000,-5.11758E-001,1.60820E-001,5.92365E+000,1.68138E-002,5.49804E-001,0,9.04108E+001,-9.07870E+000,9.97233E-001,4.63077E+001,-4.43897E+001,9.95115E-001,1.99122E-001,-8.28386E-002,-3.35226E-003,1.99162E-001,-8.28785E-002,-6.81068E-001,2.00094E-001,1.22034E+000,-4.16505E-003,0.00000E+000,-3.39046E-003,9.24513E-001,0.00000E+000,3.09481E-003,-9.33974E-002,1.00000E+000,30
1019,1297,1.40308E+001,-2.10895E+000,1.84541E-001,8.46999E+000,-2.76995E-001,9.06352E-002,8.47501E+000,1.58906E-002,4.27101E-001,0,1.28334E+002,-5.51454E+000,9.98374E-001,8.77853E+001,-3.72880E+001,9.97871E-001,1.85446E-001,-7.80340E-002,-3.43792E-004,1.85446E-001,-7.80344E-002,-7.47602E-002,1.86220E-001,1.20335E+000,-3.47314E-002,0.00000E+000,2.69693E-002,9.27113E-001,0.00000E+000,-1.45526E-002,-7.42420E-002,1.00000E+000,30
1019,1307,1.40115E+001,-1.51836E+000,9.04510E-002,8.44457E+000,-3.28131E-001,3.50694E-002,8.45102E+000,1.99683E-002,4.52424E-001,0,1.28166E+002,-6.21722E+000,9.98578E-001,8.73891E+001,-3.79264E+001,9.98159E-001,1.85779E-001,-7.80207E-002,-1.64591E-004,1.85779E-001,-7.80208E-002,-3.57482E-002,1.86570E-001,1.20372E+000,-3.47278E-002,0.00000E+000,2.71516E-002,9.27115E-001,0.00000E+000,-1.24969E-002,-7.42224E-002,1.00000E+000,30
839,1307,-2.85266E-001,-1.74885E+000,2.24575E-001,5.89469E+000,-4.54584E-001,2.20118E-001,5.91629E+000,1.49509E-002,5.35550E-001,0,9.01323E+001,-8.28847E+000,9.96458E-001,4.63117E+001,-4.35548E+001,9.94251E-001,1.99416E-001,-8.28390E-002,-3.38233E-003,1.99457E-001,-8.28795E-002,-6.86456E-001,2.00403E-001,1.22071E+000,-4.16285E-003,0.00000E+000,-3.61216E-003,9.24512E-001,0.00000E+000,4.99787E-003,-9.33860E-002,1.00000E+000,30
829,1337,-1.03310E+000,-9.19880E-003,1.70587E-002,5.76491E+000,-6.28684E-001,5.47897E-002,5.79935E+000,2.66667E-002,5.44379E-001,0,8.87630E+001,-1.07145E+001,9.96483E-001,4.46182E+001,-4.63576E+001,9.95353E-001,1.97969E-001,-8.27901E-002,-2.63915E-003,1.97994E-001,-8.28149E-002,-5.38519E-001,1.98874E-001,1.21893E+000,-3.31032E-003,0.00000E+000,-2.30821E-003,9.24420E-001,0.00000E+000,-1.48862E-003,-9.18007E-002,1.00000E+000,30
829,1347,-1.01069E+000,5.84728E-001,1.11221E-003,5.76733E+000,-6.82126E-001,3.11949E-003,5.80753E+000,1.41750E-002,5.04695E-001,0,8.89636E+001,-1.14374E+001,9.96409E-001,4.50352E+001,-4.71780E+001,9.96005E-001,1.97849E-001,-8.27934E-002,-2.69465E-003,1.97875E-001,-8.28193E-002,-5.50070E-001,1.98748E-001,1.21879E+000,-3.31460E-003,0.00000E+000,-2.23318E-003,9.24422E-001,0.00000E+000,-3.56578E-003,-9.18641E-002,1.00000E+000,30
829,1357,-9.80683E-001,1.19420E+000,2.25383E-002,5.77003E+000,-7.25630E-001,-4.74746E-002,5.81567E+000,1.40707E-002,5.13078E-001,0,8.91539E+001,-1.20312E+001,9.97841E-001,4.56583E+001,-4.78187E+001,9.97715E-001,1.97724E-001,-8.27980E-002,-2.75122E-003,1.97751E-001,-8.28250E-002,-5.61856E-001,1.98618E-001,1.21865E+000,-3.32045E-003,0.00000E+000,-2.15782E-003,9.24425E-001,0.00000E+000,-5.65227E-003,-9.19506E-002,1.00000E+000,30
1029,1337,1.47779E+001,2.93615E-001,-6.21868E-002,8.51656E+000,-4.55381E-001,-8.64549E-002,8.52917E+000,1.56324E-002,4.75736E-001,0,1.29609E+002,-8.07958E+000,9.97335E-001,8.92463E+001,-3.94172E+001,9.96788E-001,1.86660E-001,-7.76616E-002,1.69098E-004,1.86660E-001,-7.76618E-002,3.66545E-002,1.87535E-001,1.20473E+000,-3.43848E-002,0.00000E+000,2.69510E-002,9.27316E-001,0.00000E+000,-4.56720E-003,-7.24272E-002,1.00000E+000,30
1029,1347,1.47771E+001,9.00258E-001,-5.59670E-002,8.49277E+000,-5.00735E-001,-1.13796E-001,8.50828E+000,1.49839E-002,4.99418E-001,0,1.29337E+002,-8.76296E+000,9.98129E-001,8.93174E+001,-4.00259E+001,9.97306E-001,1.87091E-001,-7.76406E-002,3.46266E-004,1.87091E-001,-7.76410E-002,7.49421E-002,1.87990E-001,1.20525E+000,-3.43667E-002,0.00000E+000,2.71343E-002,9.27323E-001,0.00000E+000,-2.71982E-003,-7.23626E-002,1.00000E+000,30
1029,1327,1.47878E+001,-3.08206E-001,-3.02297E-002,8.54219E+000,-4.09319E-001,-5.20181E-002,8.55215E+000,1.66364E-002,4.46171E-001,0,1.29872E+002,-7.40697E+000,9.97391E-001,8.93842E+001,-3.88222E+001,9.97177E-001,1.86227E-001,-7.76790E-002,-5.58436E-006,1.86227E-001,-7.76790E-002,-1.21240E-003,1.87077E-001,1.20422E+000,-3.43972E-002,0.00000E+000,2.67681E-002,9.27312E-001,0.00000E+000,-6.41003E-003,-7.24716E-002,1.00000E+000,30
829,1327,-1.05918E+000,-5.89545E-001,3.98737E-002,5.75442E+000,-5.65533E-001,9.16399E-002,5.78287E+000,2.71424E-002,5.51713E-001,0,8.84793E+001,-9.78158E+000,9.97281E-001,4.41631E+001,-4.53612E+001,9.97185E-001,1.98085E-001,-8.27874E-002,-2.58433E-003,1.98108E-001,-8.28112E-002,-5.27125E-001,1.98994E-001,1.21907E+000,-3.30697E-003,0.00000E+000,-2.38297E-003,9.24418E-001,0.00000E+000,5.81284E-004,-9.17512E-002,1.00000E+000,30
829,1307,-1.06005E+000,-1.75569E+000,2.47467E-001,5.76585E+000,-4.56542E-001,2.33516E-001,5.78860E+000,1.79130E-002,4.70960E-001,0,8.81731E+001,-8.31525E+000,9.97243E-001,4.44185E+001,-4.38417E+001,9.94704E-001,1.98302E-001,-8.27853E-002,-2.47691E-003,1.98324E-001,-8.28071E-002,-5.04831E-001,1.99221E-001,1.21935E+000,-3.30431E-003,0.00000E+000,-2.53194E-003,9.24417E-001,0.00000E+000,4.70548E-003,-9.17119E-002,1.00000E+000,30
829,1317,-1.06526E+000,-1.17163E+000,1.27542E-001,5.75757E+000,-5.08129E-001,1.61776E-001,5.78221E+000,2.09402E-002,5.07330E-001,0,8.82917E+001,-8.99579E+000,9.96674E-001,4.41666E+001,-4.45552E+001,9.96237E-001,1.98196E-001,-8.27858E-002,-2.53028E-003,1.98218E-001,-8.28086E-002,-5.15902E-001,1.99110E-001,1.21921E+000,-3.30498E-003,0.00000E+000,-2.45755E-003,9.24417E-001,0.00000E+000,2.64589E-003,-9.17218E-002,1.00000E+000,30
1029,1317,1.47962E+001,-9.11620E-001,1.71103E-002,8.56199E+000,-3.69566E-001,-2.07186E-002,8.56999E+000,1.75338E-002,4.59259E-001,0,1.30056E+002,-6.81493E+000,9.98373E-001,8.95262E+001,-3.82658E+001,9.97441E-001,1.85792E-001,-7.76942E-002,-1.78217E-004,1.85792E-001,-7.76943E-002,-3.87537E-002,1.86619E-001,1.20370E+000,-3.44061E-002,0.00000E+000,2.65861E-002,9.27309E-001,0.00000E+000,-8.24372E-003,-7.25037E-002,1.00000E+000,30
1029,1307,1.48088E+001,-1.49944E+000,9.94489E-002,8.58336E+000,-3.16083E-001,3.44508E-002,8.58925E+000,1.48034E-002,5.14145E-001,0,1.30165E+002,-6.07998E+000,9.98581E-001,8.97968E+001,-3.75222E+001,9.96622E-001,1.85354E-001,-7.77079E-002,-3.49927E-004,1.85355E-001,-7.77084E-002,-7.62151E-002,1.86159E-001,1.20319E+000,-3.44131E-002,0.00000E+000,2.64044E-002,9.27306E-001,0.00000E+000,-1.00747E-002,-7.25286E-002,1.00000E+000,30
1029,1297,1.48246E+001,-2.08428E+000,1.93293E-001,8.60578E+000,-2.59185E-001,9.15158E-002,8.61016E+000,1.46284E-002,4.66658E-001,0,1.30279E+002,-5.27251E+000,9.98000E-001,9.01390E+001,-3.68072E+001,9.96772E-001,1.84912E-001,-7.77206E-002,-5.21398E-004,1.84913E-001,-7.77216E-002,-1.13747E-001,1.85694E-001,1.20268E+000,-3.44183E-002,0.00000E+000,2.62224E-002,9.27305E-001,0.00000E+000,-1.19091E-002,-7.25473E-002,1.00000E+000,30
819,1317,-1.85042E+000,-1.18242E+000,1.36486E-001,5.61797E+000,-5.14430E-001,1.61172E-001,5.64378E+000,2.04005E-002,4.94042E-001,0,8.62099E+001,-9.07487E+000,9.95852E-001,4.20848E+001,-4.48515E+001,9.94861E-001,1.96822E-001,-8.25012E-002,-1.94174E-003,1.96836E-001,-8.25147E-002,-3.98272E-001,1.97690E-001,1.21753E+000,-3.12607E-003,0.00000E+000,-1.42474E-003,9.24517E-001,0.00000E+000,1.90493E-003,-8.97820E-002,1.00000E+000,30
819,1327,-1.84687E+000,-6.00618E-001,5.45546E-002,5.61458E+000,-5.70051E-001,1.07698E-001,5.64447E+000,2.01390E-002,5.04561E-001,0,8.63398E+001,-9.85663E+000,9.96941E-001,4.20553E+001,-4.56935E+001,9.96115E-001,1.96837E-001,-8.25042E-002,-2.06837E-003,1.96852E-001,-8.25195E-002,-4.24213E-001,1.97707E-001,1.21755E+000,-3.12590E-003,0.00000E+000,-1.50096E-003,9.24517E-001,0.00000E+000,-4.04273E-005,-8.98029E-002,1.00000E+000,30
819,1337,-1.82709E+000,-8.43396E-003,1.32161E-002,5.61956E+000,-6.21629E-001,5.57297E-002,5.65411E+000,1.73377E-002,5.28063E-001,0,8.65842E+001,-1.05756E+001,9.96416E-001,4.23728E+001,-4.64545E+001,9.95705E-001,1.96848E-001,-8.25102E-002,-2.19567E-003,1.96865E-001,-8.25275E-002,-4.50290E-001,1.97720E-001,1.21756E+000,-3.12553E-003,0.00000E+000,-1.57760E-003,9.24515E-001,0.00000E+000,-1.99635E-003,-8.98475E-002,1.00000E+000,30
819,1307,-1.85575E+000,-1.76352E+000,2.23043E-001,5.61653E+000,-4.61481E-001,2.04117E-001,5.63915E+000,1.94421E-002,5.05833E-001,0,8.60377E+001,-8.30289E+000,9.96851E-001,4.20978E+001,-4.39969E+001,9.95391E-001,1.96804E-001,-8.24994E-002,-1.81556E-003,1.96815E-001,-8.25112E-002,-3.72421E-001,1.97670E-001,1.21751E+000,-3.12616E-003,0.00000E+000,-1.34878E-003,9.24518E-001,0.00000E+000,3.84339E-003,-8.97701E-002,1.00000E+000,30
819,1347,-1.79798E+000,5.93658E-001,2.37768E-003,5.62848E+000,-6.67240E-001,7.29237E-003,5.66790E+000,1.63472E-002,5.29403E-001,0,8.68702E+001,-1.12006E+001,9.97725E-001,4.29076E+001,-4.71407E+001,9.97726E-001,1.96855E-001,-8.25184E-002,-2.32343E-003,1.96875E-001,-8.25377E-002,-4.76459E-001,1.97729E-001,1.21758E+000,-3.12504E-003,0.00000E+000,-1.65447E-003,9.24513E-001,0.00000E+000,-3.95824E-003,-8.99081E-002,1.00000E+000,30
819,1357,-1.77157E+000,1.18610E+000,3.08389E-002,5.62724E+000,-7.27754E-001,-3.90697E-002,5.67423E+000,2.03664E-002,5.23976E-001,0,8.69906E+001,-1.20636E+001,9.97053E-001,4.34907E+001,-4.80689E+001,9.96770E-001,1.96859E-001,-8.25295E-002,-2.45179E-003,1.96880E-001,-8.25510E-002,-5.02751E-001,1.97733E-001,1.21759E+000,-3.12437E-003,0.00000E+000,-1.73165E-003,9.24509E-001,0.00000E+000,-5.92781E-003,-8.99912E-002,1.00000E+000,30
1039,1337,1.55692E+001,3.19044E-001,-6.60277E-002,8.65087E+000,-4.36798E-001,-9.00396E-002,8.66236E+000,1.35779E-002,4.77546E-001,0,1.31552E+002,-7.79676E+000,9.98180E-001,9.15423E+001,-3.89104E+001,9.96905E-001,1.86703E-001,-7.72296E-002,-2.89197E-004,1.86703E-001,-7.72299E-002,-6.27803E-002,1.87629E-001,1.20478E+000,-3.42427E-002,0.00000E+000,2.58732E-002,9.27668E-001,0.00000E+000,-2.76385E-003,-7.12683E-002,1.00000E+000,30
1039,1347,1.55666E+001,9.09669E-001,-6.28246E-002,8.62560E+000,-4.96090E-001,-1.18622E-001,8.64067E+000,1.34217E-002,4.22955E-001,0,1.31270E+002,-8.68488E+000,9.98902E-001,9.15771E+001,-3.97981E+001,9.98308E-001,1.87229E-001,-7.72187E-002,-1.86605E-004,1.87229E-001,-7.72188E-002,-4.04303E-002,1.88183E-001,1.20542E+000,-3.42208E-002,0.00000E+000,2.59266E-002,9.27670E-001,0.00000E+000,-1.11639E-003,-7.12115E-002,1.00000E+000,30
1039,1317,1.55818E+001,-8.78965E-001,1.36866E-002,8.69170E+000,-3.41687E-001,-2.01287E-002,8.69844E+000,1.46709E-002,4.29547E-001,0,1.31910E+002,-6.39698E+000,9.98043E-001,9.17367E+001,-3.76678E+001,9.96940E-001,1.85643E-001,-7.72470E-002,-4.88090E-004,1.85644E-001,-7.72479E-002,-1.06376E-001,1.86513E-001,1.20352E+000,-3.42700E-002,0.00000E+000,2.57665E-002,9.27665E-001,0.00000E+000,-6.05658E-003,-7.13394E-002,1.00000E+000,30
1039,1327,1.55770E+001,-2.84807E-001,-3.05582E-002,8.67468E+000,-3.91062E-001,-5.13931E-002,8.68365E+000,1.27670E-002,4.10989E-001,0,1.31772E+002,-7.14031E+000,9.98305E-001,9.16542E+001,-3.83749E+001,9.97337E-001,1.86173E-001,-7.72388E-002,-3.89675E-004,1.86173E-001,-7.72394E-002,-8.47596E-002,1.87071E-001,1.20415E+000,-3.42582E-002,0.00000E+000,2.58196E-002,9.27666E-001,0.00000E+000,-4.41627E-003,-7.13087E-002,1.00000E+000,30
1039,1307,1.55960E+001,-1.47660E+000,8.02498E-002,8.71527E+000,-2.97225E-001,2.11496E-002,8.72036E+000,1.50865E-002,4.50086E-001,0,1.32108E+002,-5.75852E+000,9.97878E-001,9.20042E+001,-3.70613E+001,9.96803E-001,1.85111E-001,-7.72544E-002,-5.85444E-004,1.85113E-001,-7.72557E-002,-1.27849E-001,1.85954E-001,1.20288E+000,-3.42791E-002,0.00000E+000,2.57133E-002,9.27665E-001,0.00000E+000,-7.69574E-003,-7.13629E-002,1.00000E+000,30
1039,1297,1.56145E+001,-2.06635E+000,1.76465E-001,8.73984E+000,-2.45748E-001,7.81168E-002,8.74365E+000,1.61129E-002,4.32139E-001,0,1.32254E+002,-5.04314E+000,9.96590E-001,9.23909E+001,-3.64144E+001,9.96020E-001,1.84576E-001,-7.72609E-002,-6.81672E-004,1.84578E-001,-7.72627E-002,-1.49164E-001,1.85392E-001,1.20225E+000,-3.42850E-002,0.00000E+000,2.56602E-002,9.27664E-001,0.00000E+000,-9.33551E-003,-7.13783E-002,1.00000E+000,30
1049,1337,1.63690E+001,3.44596E-001,-6.09821E-002,8.79256E+000,-4.16062E-001,-8.77177E-002,8.80284E+000,1.90380E-002,4.54892E-001,0,1.33579E+002,-7.52124E+000,9.99097E-001,9.39901E+001,-3.84325E+001,9.98049E-001,1.86706E-001,-7.71677E-002,-9.28270E-004,1.86709E-001,-7.71710E-002,-2.01555E-001,1.87642E-001,1.20479E+000,-3.40183E-002,0.00000E+000,2.44131E-002,9.27668E-001,0.00000E+000,-1.33628E-003,-6.98107E-002,1.00000E+000,30
1049,1347,1.63756E+001,9.39827E-001,-4.95019E-002,8.77399E+000,-4.74679E-001,-1.17555E-001,8.78761E+000,1.54360E-002,4.52162E-001,0,1.33400E+002,-8.38830E+000,9.98811E-001,9.41803E+001,-3.92387E+001,9.97395E-001,1.87338E-001,-7.71678E-002,-9.08655E-004,1.87342E-001,-7.71710E-002,-1.96824E-001,1.88308E-001,1.20556E+000,-3.39892E-002,0.00000E+000,2.43336E-002,9.27665E-001,0.00000E+000,-1.34974E-004,-6.97650E-002,1.00000E+000,30
1049,1307,1.63925E+001,-1.44914E+000,9.34042E-002,8.85214E+000,-2.75369E-001,2.37524E-002,8.85645E+000,1.88799E-002,3.88242E-001,0,1.34055E+002,-5.43814E+000,9.98226E-001,9.44175E+001,-3.65957E+001,9.97250E-001,1.84810E-001,-7.71675E-002,-9.68924E-004,1.84813E-001,-7.71711E-002,-2.11905E-001,1.85649E-001,1.20251E+000,-3.40602E-002,0.00000E+000,2.46500E-002,9.27672E-001,0.00000E+000,-4.91402E-003,-6.98765E-002,1.00000E+000,30
1049,1317,1.63757E+001,-8.53810E-001,2.50256E-002,8.82552E+000,-3.22984E-001,-2.06245E-002,8.83146E+000,1.57554E-002,4.11278E-001,0,1.33825E+002,-6.13390E+000,9.97531E-001,9.41049E+001,-3.72113E+001,9.96156E-001,1.85443E-001,-7.71676E-002,-9.56389E-004,1.85446E-001,-7.71711E-002,-2.08659E-001,1.86313E-001,1.20327E+000,-3.40489E-002,0.00000E+000,2.45712E-002,9.27671E-001,0.00000E+000,-3.72350E-003,-6.98587E-002,1.00000E+000,30
1049,1327,1.63684E+001,-2.66231E-001,-3.16449E-002,8.80913E+000,-3.78588E-001,-5.07587E-002,8.81741E+000,1.04670E-002,3.88132E-001,0,1.33700E+002,-6.95310E+000,9.98504E-001,9.39616E+001,-3.79945E+001,9.96807E-001,1.86074E-001,-7.71677E-002,-9.44205E-004,1.86077E-001,-7.71710E-002,-2.05507E-001,1.86977E-001,1.20403E+000,-3.40383E-002,0.00000E+000,2.44923E-002,9.27670E-001,0.00000E+000,-2.53216E-003,-6.98420E-002,1.00000E+000,30
809,1347,-2.60019E+000,5.79440E-001,-4.32844E-003,5.47461E+000,-6.73960E-001,4.98942E-003,5.51594E+000,1.35151E-002,5.17496E-001,0,8.45711E+001,-1.12853E+001,9.98595E-001,4.05325E+001,-4.74634E+001,9.98617E-001,1.95735E-001,-8.21949E-002,-1.96377E-003,1.95749E-001,-8.22087E-002,-4.04808E-001,1.96583E-001,1.21621E+000,-3.33245E-003,0.00000E+000,-8.20536E-004,9.24657E-001,0.00000E+000,-4.08325E-003,-8.80123E-002,1.00000E+000,30
809,1357,-2.57292E+000,1.17756E+000,3.22758E-002,5.47374E+000,-7.29653E-001,-3.67416E-002,5.52228E+000,1.63340E-002,5.02214E-001,0,8.46796E+001,-1.20695E+001,9.97981E-001,4.11518E+001,-4.83284E+001,9.97368E-001,1.95893E-001,-8.22153E-002,-2.19052E-003,1.95910E-001,-8.22326E-002,-4.51253E-001,1.96750E-001,1.21642E+000,-3.32371E-003,0.00000E+000,-1.10495E-003,9.24644E-001,0.00000E+000,-5.88311E-003,-8.80897E-002,1.00000E+000,30
809,1327,-2.63900E+000,-6.15599E-001,4.32482E-002,5.46987E+000,-5.81051E-001,9.80445E-002,5.50152E+000,1.28221E-002,5.47329E-001,0,8.42076E+001,-9.98024E+000,9.98442E-001,3.98222E+001,-4.59860E+001,9.97226E-001,1.95413E-001,-8.21694E-002,-1.51206E-003,1.95421E-001,-8.21777E-002,-3.12092E-001,1.96242E-001,1.21581E+000,-3.34305E-003,0.00000E+000,-2.56833E-004,9.24671E-001,0.00000E+000,-5.16032E-004,-8.79184E-002,1.00000E+000,30
809,1337,-2.61820E+000,-2.21589E-002,1.48514E-002,5.47557E+000,-6.29997E-001,5.66670E-002,5.51198E+000,1.17979E-002,5.27230E-001,0,8.44268E+001,-1.06824E+001,9.98302E-001,4.01871E+001,-4.67790E+001,9.98316E-001,1.95575E-001,-8.21808E-002,-1.73780E-003,1.95586E-001,-8.21917E-002,-3.58456E-001,1.96414E-001,1.21601E+000,-3.33835E-003,0.00000E+000,-5.38295E-004,9.24665E-001,0.00000E+000,-2.29717E-003,-8.79600E-002,1.00000E+000,30
809,1307,-2.64906E+000,-1.76413E+000,2.31945E-001,5.47060E+000,-4.57176E-001,2.14957E-001,5.49387E+000,2.35093E-002,5.96225E-001,0,8.38182E+001,-8.27887E+000,9.92362E-001,3.98976E+001,-4.40835E+001,9.91840E-001,1.95079E-001,-8.21602E-002,-1.06018E-003,1.95083E-001,-8.21642E-002,-2.19099E-001,1.95889E-001,1.21541E+000,-3.34643E-003,0.00000E+000,3.03738E-004,9.24676E-001,0.00000E+000,3.03137E-003,-8.78885E-002,1.00000E+000,30
809,1317,-2.64086E+000,-1.18877E+000,1.25566E-001,5.47512E+000,-5.16811E-001,1.53125E-001,5.50159E+000,2.09202E-002,5.70040E-001,0,8.40998E+001,-9.08624E+000,9.97459E-001,3.98804E+001,-4.49932E+001,9.96138E-001,1.95247E-001,-8.21636E-002,-1.28612E-003,1.95253E-001,-8.21696E-002,-2.65624E-001,1.96067E-001,1.21561E+000,-3.34527E-003,0.00000E+000,2.37114E-005,9.24675E-001,0.00000E+000,1.25931E-003,-8.78987E-002,1.00000E+000,30
1049,1297,1.64017E+001,-2.05030E+000,1.73837E-001,8.86982E+000,-2.34488E-001,7.51754E-002,8.87324E+000,1.67527E-002,3.81344E-001,0,1.34124E+002,-4.86490E+000,9.96872E-001,9.46295E+001,-3.60895E+001,9.94784E-001,1.84176E-001,-7.71675E-002,-9.80969E-004,1.84179E-001,-7.71712E-002,-2.15060E-001,1.84983E-001,1.20176E+000,-3.40702E-002,0.00000E+000,2.47288E-002,9.27674E-001,0.00000E+000,-6.10361E-003,-6.98921E-002,1.00000E+000,30
799,1337,-3.41038E+000,-3.05743E-002,1.06686E-002,5.33102E+000,-6.31834E-001,5.64210E-002,5.36862E+000,1.22576E-002,5.09797E-001,0,8.22599E+001,-1.06856E+001,9.98486E-001,3.79775E+001,-4.70176E+001,9.98413E-001,1.93863E-001,-8.18322E-002,-1.22659E-003,1.93869E-001,-8.18377E-002,-2.54906E-001,1.94651E-001,1.21393E+000,-3.64569E-003,0.00000E+000,6.72861E-004,9.24825E-001,0.00000E+000,-2.59742E-003,-8.59470E-002,1.00000E+000,30
799,1347,-3.39101E+000,5.67703E-001,-2.92651E-003,5.33192E+000,-6.79002E-001,1.21287E-002,5.37499E+000,1.44830E-002,5.15665E-001,0,8.24098E+001,-1.13566E+001,9.97856E-001,3.83575E+001,-4.77592E+001,9.97640E-001,1.94097E-001,-8.18518E-002,-1.54192E-003,1.94106E-001,-8.18604E-002,-3.20137E-001,1.94897E-001,1.21422E+000,-3.63739E-003,0.00000E+000,1.99137E-004,9.24812E-001,0.00000E+000,-4.13870E-003,-8.59909E-002,1.00000E+000,30
799,1357,-3.35854E+000,1.17445E+000,3.27562E-002,5.33631E+000,-7.25746E-001,-3.14318E-002,5.38553E+000,1.51212E-002,5.09783E-001,0,8.26016E+001,-1.20063E+001,9.97304E-001,3.90588E+001,-4.84857E+001,9.96692E-001,1.94331E-001,-8.18807E-002,-1.85793E-003,1.94343E-001,-8.18932E-002,-3.85375E-001,1.95142E-001,1.21451E+000,-3.62477E-003,0.00000E+000,-2.78021E-004,9.24791E-001,0.00000E+000,-5.69115E-003,-8.60577E-002,1.00000E+000,30
799,1327,-3.42239E+000,-6.29094E-001,5.54505E-002,5.33355E+000,-5.87406E-001,1.11941E-001,5.36697E+000,2.01556E-002,5.19741E-001,0,8.21240E+001,-1.00986E+001,9.98805E-001,3.77853E+001,-4.63403E+001,9.97433E-001,1.93627E-001,-8.18164E-002,-9.11163E-004,1.93630E-001,-8.18194E-002,-1.89531E-001,1.94402E-001,1.21364E+000,-3.65224E-003,0.00000E+000,1.14577E-003,9.24836E-001,0.00000E+000,-1.05880E-003,-8.59123E-002,1.00000E+000,30
1059,1327,1.71616E+001,-2.51519E-001,-3.01189E-002,8.94412E+000,-3.70377E-001,-5.10775E-002,8.95194E+000,1.58242E-002,4.15315E-001,0,1.35636E+002,-6.85665E+000,9.98801E-001,9.63060E+001,-3.76547E+001,9.97458E-001,1.86187E-001,-7.74938E-002,-1.28578E-003,1.86193E-001,-7.75001E-002,-2.79381E-001,1.87062E-001,1.20419E+000,-3.31980E-002,0.00000E+000,2.30892E-002,9.27327E-001,0.00000E+000,-8.26767E-004,-6.86829E-002,1.00000E+000,30
1059,1337,1.71659E+001,3.64232E-001,-5.55292E-002,8.93064E+000,-4.03338E-001,-8.57325E-002,8.94015E+000,1.28959E-002,4.43624E-001,0,1.35552E+002,-7.34335E+000,9.99252E-001,9.63969E+001,-3.80421E+001,9.98590E-001,1.86868E-001,-7.74995E-002,-1.32054E-003,1.86874E-001,-7.75061E-002,-2.86189E-001,1.87778E-001,1.20502E+000,-3.31758E-002,0.00000E+000,2.29438E-002,9.27323E-001,0.00000E+000,-1.04950E-004,-6.86635E-002,1.00000E+000,30
1059,1347,1.71740E+001,9.61935E-001,-4.21773E-002,8.91324E+000,-4.58872E-001,-1.14724E-001,8.92578E+000,1.88590E-002,4.03905E-001,0,1.35386E+002,-8.16267E+000,9.99031E-001,9.66131E+001,-3.88310E+001,9.97207E-001,1.87550E-001,-7.75064E-002,-1.35150E-003,1.87557E-001,-7.75133E-002,-2.92136E-001,1.88495E-001,1.20584E+000,-3.31439E-002,0.00000E+000,2.27979E-002,9.27318E-001,0.00000E+000,6.19137E-004,-6.86355E-002,1.00000E+000,30
1059,1297,1.71881E+001,-2.02938E+000,1.59622E-001,9.00069E+000,-2.16675E-001,6.92273E-002,9.00356E+000,1.58647E-002,3.29659E-001,0,1.36016E+002,-4.58693E+000,9.97463E-001,9.68427E+001,-3.56650E+001,9.94546E-001,1.84144E-001,-7.74805E-002,-1.17043E-003,1.84149E-001,-7.74857E-002,-2.56318E-001,1.84918E-001,1.20173E+000,-3.32359E-002,0.00000E+000,2.35238E-002,9.27334E-001,0.00000E+000,-2.98412E-003,-6.87161E-002,1.00000E+000,30
1059,1307,1.71800E+001,-1.43226E+000,8.92548E-002,8.98396E+000,-2.60912E-001,2.78328E-002,8.98779E+000,1.67121E-002,3.27271E-001,0,1.35926E+002,-5.24336E+000,9.98474E-001,9.66635E+001,-3.62581E+001,9.97539E-001,1.84824E-001,-7.74847E-002,-1.20943E-003,1.84829E-001,-7.74902E-002,-2.64168E-001,1.85631E-001,1.20255E+000,-3.32250E-002,0.00000E+000,2.33794E-002,9.27332E-001,0.00000E+000,-2.26729E-003,-6.87066E-002,1.00000E+000,30
1059,1317,1.71629E+001,-8.41394E-001,1.31544E-002,8.95753E+000,-3.13818E-001,-2.19239E-002,8.96305E+000,1.72350E-002,4.01697E-001,0,1.35724E+002,-6.02064E+000,9.98078E-001,9.63326E+001,-3.68987E+001,9.96279E-001,1.85505E-001,-7.74890E-002,-1.24827E-003,1.85511E-001,-7.74949E-002,-2.71941E-001,1.86346E-001,1.20337E+000,-3.32133E-002,0.00000E+000,2.32345E-002,9.27330E-001,0.00000E+000,-1.54800E-003,-6.86964E-002,1.00000E+000,30
799,1307,-3.42929E+000,-1.77143E+000,2.49375E-001,5.33615E+000,-4.58835E-001,2.28190E-001,5.36070E+000,3.04592E-002,5.75213E-001,0,8.17657E+001,-8.32299E+000,9.94565E-001,3.79245E+001,-4.43455E+001,9.94821E-001,1.93149E-001,-8.18037E-002,-2.80836E-004,1.93149E-001,-8.18040E-002,-5.85216E-002,1.93901E-001,1.21306E+000,-3.65654E-003,0.00000E+000,2.08562E-003,9.24843E-001,0.00000E+000,1.99905E-003,-8.58896E-002,1.00000E+000,30
799,1317,-3.42883E+000,-1.19948E+000,1.25379E-001,5.33564E+000,-5.20065E-001,1.62221E-001,5.36338E+000,2.52221E-002,5.72707E-001,0,8.19847E+001,-9.15251E+000,9.96933E-001,3.77441E+001,-4.52615E+001,9.95545E-001,1.93389E-001,-8.18064E-002,-5.96221E-004,1.93390E-001,-8.18077E-002,-1.24133E-001,1.94153E-001,1.21335E+000,-3.65608E-003,0.00000E+000,1.61639E-003,9.24842E-001,0.00000E+000,4.72377E-004,-8.58920E-002,1.00000E+000,30
789,1327,-4.20608E+000,-6.33702E-001,5.77810E-002,5.19718E+000,-5.85219E-001,1.19508E-001,5.23139E+000,1.87519E-002,5.42414E-001,0,8.00550E+001,-1.00826E+001,9.98360E-001,3.57270E+001,-4.65114E+001,9.97198E-001,1.91886E-001,-8.14533E-002,-5.68574E-004,1.91887E-001,-8.14545E-002,-1.19180E-001,1.92615E-001,1.21153E+000,-4.18122E-003,0.00000E+000,2.22829E-003,9.25038E-001,0.00000E+000,-1.54568E-003,-8.42331E-002,1.00000E+000,30
789,1337,-4.19283E+000,-3.11446E-002,1.60319E-002,5.19537E+000,-6.25869E-001,6.36870E-002,5.23332E+000,1.48886E-002,5.08802E-001,0,8.02000E+001,-1.05978E+001,9.97794E-001,3.59472E+001,-4.71466E+001,9.97411E-001,1.92230E-001,-8.14745E-002,-9.66131E-004,1.92233E-001,-8.14779E-002,-2.02241E-001,1.92975E-001,1.21195E+000,-4.17141E-003,0.00000E+000,1.58051E-003,9.25023E-001,0.00000E+000,-2.87481E-003,-8.42641E-002,1.00000E+000,30
789,1347,-4.16938E+000,5.66496E-001,3.66545E-003,5.20005E+000,-6.74705E-001,1.84068E-002,5.24368E+000,1.60954E-002,5.38620E-001,0,8.04107E+001,-1.12904E+001,9.97106E-001,3.63940E+001,-4.78902E+001,9.96238E-001,1.92573E-001,-8.15001E-002,-1.36400E-003,1.92579E-001,-8.15069E-002,-2.85140E-001,1.93334E-001,1.21237E+000,-4.15919E-003,0.00000E+000,9.30712E-004,9.25004E-001,0.00000E+000,-4.20807E-003,-8.43027E-002,1.00000E+000,30
789,1357,-4.14461E+000,1.16840E+000,3.18303E-002,5.19827E+000,-7.25099E-001,-2.61377E-002,5.24866E+000,1.48011E-002,5.42420E-001,0,8.05124E+001,-1.19984E+001,9.96392E-001,3.69601E+001,-4.86730E+001,9.95867E-001,1.92915E-001,-8.15352E-002,-1.76186E-003,1.92926E-001,-8.15465E-002,-3.67795E-001,1.93693E-001,1.21279E+000,-4.14191E-003,0.00000E+000,2.77771E-004,9.24977E-001,0.00000E+000,-5.54778E-003,-8.43574E-002,1.00000E+000,30
1069,1327,1.79553E+001,-2.36255E-001,-3.64971E-002,9.08014E+000,-3.61795E-001,-5.46102E-002,9.08751E+000,1.69661E-002,4.54878E-001,0,1.37599E+002,-6.74107E+000,9.98471E-001,9.86475E+001,-3.72829E+001,9.96768E-001,1.86367E-001,-7.75199E-002,-1.61169E-003,1.86377E-001,-7.75297E-002,-3.49917E-001,1.87252E-001,1.20443E+000,-3.24717E-002,0.00000E+000,2.18520E-002,9.27262E-001,0.00000E+000,2.37800E-004,-6.75543E-002,1.00000E+000,30
1069,1337,1.79513E+001,3.74221E-001,-6.01676E-002,9.05927E+000,-3.98195E-001,-8.38655E-002,9.06841E+000,1.11398E-002,4.07557E-001,0,1.37386E+002,-7.27810E+000,9.98840E-001,9.86131E+001,-3.77930E+001,9.97884E-001,1.87003E-001,-7.75289E-002,-1.68207E-003,1.87014E-001,-7.75395E-002,-3.64306E-001,1.87920E-001,1.20520E+000,-3.24519E-002,0.00000E+000,2.16753E-002,9.27257E-001,0.00000E+000,4.55809E-004,-6.75487E-002,1.00000E+000,30
1069,1347,1.79574E+001,9.76460E-001,-5.74058E-002,9.04147E+000,-4.49110E-001,-1.15684E-001,9.05335E+000,1.16381E-002,4.11872E-001,0,1.37226E+002,-8.02970E+000,9.99064E-001,9.87777E+001,-3.84646E+001,9.98091E-001,1.87643E-001,-7.75397E-002,-1.74964E-003,1.87654E-001,-7.75512E-002,-3.78009E-001,1.88593E-001,1.20597E+000,-3.24239E-002,0.00000E+000,2.14974E-002,9.27251E-001,0.00000E+000,6.75227E-004,-6.75408E-002,1.00000E+000,30
789,1307,-4.20628E+000,-1.78242E+000,2.42269E-001,5.20668E+000,-4.63659E-001,2.27942E-001,5.23226E+000,1.98924E-002,5.37917E-001,0,7.98333E+001,-8.36396E+000,9.96940E-001,3.59475E+001,-4.46203E+001,9.93754E-001,1.91197E-001,-8.14357E-002,2.26234E-004,1.91198E-001,-8.14359E-002,4.75446E-002,1.91896E-001,1.21069E+000,-4.18757E-003,0.00000E+000,3.51471E-003,9.25048E-001,0.00000E+000,1.09382E-003,-8.42130E-002,1.00000E+000,30
789,1317,-4.20783E+000,-1.21236E+000,1.51055E-001,5.20137E+000,-5.27797E-001,1.80342E-001,5.23119E+000,2.08860E-002,5.49243E-001,0,7.99166E+001,-9.29716E+000,9.97073E-001,3.58133E+001,-4.56304E+001,9.93382E-001,1.91543E-001,-8.14433E-002,-1.71110E-004,1.91543E-001,-8.14434E-002,-3.59134E-002,1.92256E-001,1.21111E+000,-4.18511E-003,0.00000E+000,2.87207E-003,9.25044E-001,0.00000E+000,-2.24769E-004,-8.42208E-002,1.00000E+000,30
1069,1297,1.79629E+001,-2.01124E+000,1.37926E-001,9.12120E+000,-2.01852E-001,6.33539E-002,9.12366E+000,2.02984E-002,3.62439E-001,0,1.37752E+002,-4.37686E+000,9.95861E-001,9.88657E+001,-3.52272E+001,9.92384E-001,1.84456E-001,-7.74974E-002,-1.39237E-003,1.84464E-001,-7.75048E-002,-3.04535E-001,1.85246E-001,1.20213E+000,-3.25111E-002,0.00000E+000,2.23820E-002,9.27271E-001,0.00000E+000,-4.16097E-004,-6.75655E-002,1.00000E+000,30
1069,1307,1.79596E+001,-1.41772E+000,5.96508E-002,9.11040E+000,-2.49020E-001,1.89995E-002,9.11382E+000,1.41364E-002,3.37023E-001,0,1.37766E+002,-5.06449E+000,9.98277E-001,9.87479E+001,-3.58679E+001,9.96662E-001,1.85091E-001,-7.75040E-002,-1.46684E-003,1.85099E-001,-7.75121E-002,-3.20037E-001,1.85912E-001,1.20289E+000,-3.25022E-002,0.00000E+000,2.22062E-002,9.27269E-001,0.00000E+000,-1.99206E-004,-6.75630E-002,1.00000E+000,30
1069,1317,1.79595E+001,-8.19235E-001,1.01426E-002,9.09742E+000,-2.97507E-001,-1.87630E-002,9.10230E+000,1.43884E-002,4.54955E-001,0,1.37715E+002,-5.80947E+000,9.98883E-001,9.87275E+001,-3.64219E+001,9.96960E-001,1.85729E-001,-7.75119E-002,-1.53930E-003,1.85738E-001,-7.75209E-002,-3.35021E-001,1.86582E-001,1.20366E+000,-3.24871E-002,0.00000E+000,2.20292E-002,9.27265E-001,0.00000E+000,1.92584E-005,-6.75587E-002,1.00000E+000,30
779,1327,-4.98217E+000,-6.32951E-001,6.74188E-002,5.06699E+000,-5.80291E-001,1.29518E-001,5.10175E+000,2.66584E-002,5.88536E-001,0,7.80689E+001,-1.00122E+001,9.98076E-001,3.38098E+001,-4.66031E+001,9.96500E-001,1.90065E-001,-8.08249E-002,-5.00600E-004,1.90066E-001,-8.08258E-002,-1.05881E-001,1.90772E-001,1.20932E+000,-4.98201E-003,0.00000E+000,2.98615E-003,9.25512E-001,0.00000E+000,-1.76111E-003,-8.28554E-002,1.00000E+000,30
779,1337,-4.96912E+000,-4.63314E-002,1.92357E-002,5.06545E+000,-6.35553E-001,6.89203E-002,5.10563E+000,1.44477E-002,5.12669E-001,0,7.82371E+001,-1.07362E+001,9.97122E-001,3.40089E+001,-4.74932E+001,9.96773E-001,1.90606E-001,-8.08520E-002,-1.00772E-003,1.90610E-001,-8.08558E-002,-2.12692E-001,1.91339E-001,1.20998E+000,-4.96708E-003,0.00000E+000,2.10987E-003,9.25492E-001,0.00000E+000,-2.86638E-003,-8.28805E-002,1.00000E+000,30
779,1347,-4.95201E+000,5.57274E-001,6.46389E-003,5.06342E+000,-6.77481E-001,2.02966E-002,5.10859E+000,1.79569E-002,5.19436E-001,0,7.83513E+001,-1.13189E+001,9.95878E-001,3.43599E+001,-4.81582E+001,9.95135E-001,1.91148E-001,-8.08860E-002,-1.51464E-003,1.91156E-001,-8.08945E-002,-3.19000E-001,1.91906E-001,1.21064E+000,-4.94750E-003,0.00000E+000,1.23074E-003,9.25466E-001,0.00000E+000,-3.97525E-003,-8.29133E-002,1.00000E+000,30
779,1357,-4.93007E+000,1.16303E+000,3.24686E-002,5.05975E+000,-7.23593E-001,-2.26401E-002,5.11128E+000,1.43893E-002,5.38809E-001,0,7.84177E+001,-1.19656E+001,9.96248E-001,3.48802E+001,-4.88714E+001,9.96322E-001,1.91690E-001,-8.09300E-002,-2.02222E-003,1.91705E-001,-8.09450E-002,-4.24972E-001,1.92477E-001,1.21130E+000,-4.92131E-003,0.00000E+000,3.45974E-004,9.25431E-001,0.00000E+000,-5.09123E-003,-8.29573E-002,1.00000E+000,30
779,1317,-4.97867E+000,-1.20664E+000,1.46859E-001,5.07625E+000,-5.16254E-001,1.75676E-001,5.10546E+000,2.61813E-002,5.44407E-001,0,7.80542E+001,-9.09796E+000,9.98469E-001,3.39452E+001,-4.56388E+001,9.96866E-001,1.89522E-001,-8.08115E-002,9.32742E-006,1.89522E-001,-8.08115E-002,1.97690E-003,1.90206E-001,1.20866E+000,-4.98792E-003,0.00000E+000,3.86092E-003,9.25519E-001,0.00000E+000,-6.57740E-004,-8.28455E-002,1.00000E+000,30
1079,1337,1.87436E+001,3.90654E-001,-7.83016E-002,9.19351E+000,-3.88177E-001,-9.83262E-002,9.20222E+000,1.73435E-002,4.06251E-001,0,1.39361E+002,-7.10268E+000,9.98019E-001,1.00917E+002,-3.73962E+001,9.98036E-001,1.87451E-001,-7.77466E-002,-1.99477E-003,1.87466E-001,-7.77616E-002,-4.30937E-001,1.88371E-001,1.20576E+000,-3.17048E-002,0.00000E+000,2.04693E-002,9.27054E-001,0.00000E+000,1.00382E-003,-6.70728E-002,1.00000E+000,30
1079,1347,1.87549E+001,9.94474E-001,-6.50511E-002,9.18065E+000,-4.37693E-001,-1.20052E-001,9.19186E+000,9.85119E-003,4.28205E-001,0,1.39236E+002,-7.86667E+000,9.99164E-001,1.01178E+002,-3.80552E+001,9.99112E-001,1.88038E-001,-7.77628E-002,-2.10786E-003,1.88055E-001,-7.77795E-002,-4.54330E-001,1.88989E-001,1.20647E+000,-3.16789E-002,0.00000E+000,2.02323E-002,9.27045E-001,0.00000E+000,8.53135E-004,-6.70783E-002,1.00000E+000,30
1079,1297,1.87597E+001,-1.98676E+000,1.49014E-001,9.25944E+000,-1.83275E-001,7.43109E-002,9.26156E+000,1.92203E-002,4.32304E-001,0,1.39680E+002,-4.16024E+000,9.97046E-001,1.01291E+002,-3.47394E+001,9.94982E-001,1.85112E-001,-7.77005E-002,-1.52513E-003,1.85121E-001,-7.77093E-002,-3.32479E-001,1.85913E-001,1.20294E+000,-3.17586E-002,0.00000E+000,2.14110E-002,9.27072E-001,0.00000E+000,1.60253E-003,-6.70613E-002,1.00000E+000,30
1079,1307,1.87489E+001,-1.40316E+000,5.40364E-002,9.24252E+000,-2.40392E-001,1.92572E-002,9.24567E+000,1.62763E-002,3.94908E-001,0,1.39651E+002,-4.96230E+000,9.98403E-001,1.01028E+002,-3.55038E+001,9.96928E-001,1.85695E-001,-7.77095E-002,-1.64476E-003,1.85705E-001,-7.77198E-002,-3.57750E-001,1.86525E-001,1.20364E+000,-3.17519E-002,0.00000E+000,2.11766E-002,9.27069E-001,0.00000E+000,1.45355E-003,-6.70627E-002,1.00000E+000,30
1079,1327,1.87471E+001,-2.19434E-001,-4.73513E-002,9.21359E+000,-3.51152E-001,-6.38775E-002,9.22050E+000,1.88172E-002,4.50240E-001,0,1.39540E+002,-6.56999E+000,9.98447E-001,1.00959E+002,-3.68997E+001,9.97802E-001,1.86867E-001,-7.77335E-002,-1.87910E-003,1.86880E-001,-7.77469E-002,-4.06867E-001,1.87756E-001,1.20506E+000,-3.17226E-002,0.00000E+000,2.07048E-002,9.27060E-001,0.00000E+000,1.15357E-003,-6.70690E-002,1.00000E+000,30
1079,1317,1.87448E+001,-8.01395E-001,-4.12058E-003,9.22565E+000,-2.85964E-001,-2.64261E-002,9.23012E+000,1.53875E-002,4.54261E-001,0,1.39572E+002,-5.61258E+000,9.98358E-001,1.00932E+002,-3.60162E+001,9.97438E-001,1.86281E-001,-7.77212E-002,-1.76233E-003,1.86293E-001,-7.77330E-002,-3.82452E-001,1.87141E-001,1.20435E+000,-3.17381E-002,0.00000E+000,2.09406E-002,9.27065E-001,0.00000E+000,1.30349E-003,-6.70657E-002,1.00000E+000,30
779,1307,-4.98935E+000,-1.79797E+000,2.49613E-001,5.06905E+000,-4.74820E-001,2.33799E-001,5.09661E+000,1.86270E-002,5.55999E-001,0,7.77533E+001,-8.53469E+000,9.98150E-001,3.39157E+001,-4.49694E+001,9.95379E-001,1.88982E-001,-8.08014E-002,5.16854E-004,1.88983E-001,-8.08024E-002,1.09768E-001,1.89642E-001,1.20801E+000,-4.99152E-003,0.00000E+000,4.72993E-003,9.25524E-001,0.00000E+000,4.38361E-004,-8.28394E-002,1.00000E+000,30
1089,1337,1.95343E+001,4.11807E-001,-8.95608E-002,9.32582E+000,-3.74072E-001,-1.05680E-001,9.33392E+000,1.52792E-002,4.76346E-001,0,1.41274E+002,-6.90552E+000,9.97616E-001,1.03214E+002,-3.69061E+001,9.97215E-001,1.88402E-001,-7.80960E-002,-2.13195E-003,1.88420E-001,-7.81130E-002,-4.58318E-001,1.89334E-001,1.20694E+000,-3.05975E-002,0.00000E+000,1.93129E-002,9.26724E-001,0.00000E+000,1.39252E-003,-6.65674E-002,1.00000E+000,30
1089,1347,1.95432E+001,1.01359E+000,-7.91665E-002,9.31051E+000,-4.24790E-001,-1.29823E-001,9.32110E+000,1.11209E-002,4.39570E-001,0,1.41123E+002,-7.66882E+000,9.98729E-001,1.03432E+002,-3.76182E+001,9.98051E-001,1.89087E-001,-7.81169E-002,-2.28408E-003,1.89107E-001,-7.81364E-002,-4.89722E-001,1.90055E-001,1.20777E+000,-3.05672E-002,0.00000E+000,1.90127E-002,9.26713E-001,0.00000E+000,9.93898E-004,-6.65820E-002,1.00000E+000,30
769,1347,-5.73339E+000,5.47419E-001,1.12483E-002,4.92839E+000,-6.81028E-001,2.81993E-002,4.97530E+000,1.45888E-002,5.17898E-001,0,7.62957E+001,-1.13709E+001,9.96306E-001,3.23550E+001,-4.84316E+001,9.96189E-001,1.89254E-001,-8.02708E-002,-1.52353E-003,1.89262E-001,-8.02794E-002,-3.23860E-001,1.89986E-001,1.20834E+000,-5.55812E-003,0.00000E+000,1.65086E-003,9.25943E-001,0.00000E+000,-3.54194E-003,-8.16974E-002,1.00000E+000,30
769,1357,-5.70884E+000,1.15678E+000,3.46639E-002,4.92789E+000,-7.23133E-001,-1.55554E-002,4.98069E+000,1.43031E-002,5.45399E-001,0,7.64121E+001,-1.19564E+001,9.97082E-001,3.29121E+001,-4.90810E+001,9.97189E-001,1.89688E-001,-8.03129E-002,-2.01609E-003,1.89703E-001,-8.03280E-002,-4.27793E-001,1.90443E-001,1.20887E+000,-5.53767E-003,0.00000E+000,7.87849E-004,9.25909E-001,0.00000E+000,-4.53480E-003,-8.17356E-002,1.00000E+000,30
769,1327,-5.76146E+000,-6.41326E-001,7.74862E-002,4.93088E+000,-5.83688E-001,1.27701E-001,4.96694E+000,1.96079E-002,6.00333E-001,0,7.60263E+001,-1.00675E+001,9.97600E-001,3.18487E+001,-4.68542E+001,9.95793E-001,1.88387E-001,-8.02157E-002,-5.39830E-004,1.88388E-001,-8.02168E-002,-1.15151E-001,1.89078E-001,1.20729E+000,-5.58309E-003,0.00000E+000,3.36341E-003,9.25983E-001,0.00000E+000,-1.57173E-003,-8.16507E-002,1.00000E+000,30
769,1337,-5.75181E+000,-6.13104E-002,2.17522E-002,4.92848E+000,-6.44803E-001,7.22170E-002,4.97101E+000,1.30576E-002,5.21916E-001,0,7.61682E+001,-1.08722E+001,9.97239E-001,3.19758E+001,-4.78335E+001,9.96784E-001,1.88820E-001,-8.02385E-002,-1.03215E-003,1.88824E-001,-8.02424E-002,-2.19790E-001,1.89532E-001,1.20782E+000,-5.57325E-003,0.00000E+000,2.50818E-003,9.25967E-001,0.00000E+000,-2.55563E-003,-8.16691E-002,1.00000E+000,30
1089,1327,1.95348E+001,-1.92062E-001,-6.83238E-002,9.34461E+000,-3.27244E-001,-7.44185E-002,9.35063E+000,1.67075E-002,4.24684E-001,0,1.41444E+002,-6.20420E+000,9.97658E-001,1.03195E+002,-3.63419E+001,9.96615E-001,1.87717E-001,-7.80780E-002,-1.97684E-003,1.87732E-001,-7.80927E-002,-4.26104E-001,1.88613E-001,1.20611E+000,-3.06205E-002,0.00000E+000,1.96129E-002,9.26732E-001,0.00000E+000,1.79104E-003,-6.65563E-002,1.00000E+000,30
1089,1317,1.95389E+001,-7.92305E-001,-1.67887E-002,9.36168E+000,-2.81762E-001,-3.48771E-002,9.36598E+000,1.54514E-002,4.55503E-001,0,1.41548E+002,-5.55617E+000,9.98441E-001,1.03280E+002,-3.57478E+001,9.97891E-001,1.87034E-001,-7.80629E-002,-1.81987E-003,1.87047E-001,-7.80754E-002,-3.93305E-001,1.87896E-001,1.20529E+000,-3.06369E-002,0.00000E+000,1.99114E-002,9.26738E-001,0.00000E+000,2.18742E-003,-6.65485E-002,1.00000E+000,30
1089,1297,1.95552E+001,-1.96371E+000,1.49878E-001,9.39612E+000,-1.66836E-001,7.58610E-002,9.39790E+000,1.38378E-002,4.62586E-001,0,1.41618E+002,-3.92481E+000,9.98634E-001,1.03683E+002,-3.42725E+001,9.97915E-001,1.85670E-001,-7.80366E-002,-1.50271E-003,1.85679E-001,-7.80451E-002,-3.26481E-001,1.86463E-001,1.20365E+000,-3.06599E-002,0.00000E+000,2.05069E-002,9.26746E-001,0.00000E+000,2.97836E-003,-6.65374E-002,1.00000E+000,30
1089,1307,1.95448E+001,-1.38272E+000,5.21078E-002,9.37920E+000,-2.27096E-001,1.66776E-002,9.38196E+000,1.34112E-002,4.44463E-001,0,1.41607E+002,-4.77473E+000,9.98862E-001,1.03423E+002,-3.50599E+001,9.98521E-001,1.86351E-001,-7.80484E-002,-1.66231E-003,1.86362E-001,-7.80588E-002,-3.60206E-001,1.87178E-001,1.20447E+000,-3.06516E-002,0.00000E+000,2.02097E-002,9.26743E-001,0.00000E+000,2.58363E-003,-6.65414E-002,1.00000E+000,30
769,1317,-5.76889E+000,-1.21767E+000,1.43895E-001,4.93146E+000,-5.24212E-001,1.73307E-001,4.96228E+000,2.29005E-002,5.57954E-001,0,7.58846E+001,-9.16906E+000,9.98488E-001,3.17835E+001,-4.59016E+001,9.97741E-001,1.87954E-001,-8.01988E-002,-4.92199E-005,1.87954E-001,-8.01988E-002,-1.05167E-002,1.88627E-001,1.20677E+000,-5.58966E-003,0.00000E+000,4.21340E-003,9.25994E-001,0.00000E+000,-5.93861E-004,-8.16384E-002,1.00000E+000,30
1099,1327,2.03215E+001,-1.74476E-001,-7.48333E-002,9.47405E+000,-3.14957E-001,-7.08458E-002,9.47955E+000,1.85816E-002,4.49786E-001,0,1.43270E+002,-6.04580E+000,9.95249E-001,1.05442E+002,-3.59425E+001,9.93039E-001,1.88711E-001,-7.83542E-002,-2.14573E-003,1.88728E-001,-7.83714E-002,-4.60303E-001,1.89629E-001,1.20734E+000,-2.97734E-002,0.00000E+000,1.85949E-002,9.26507E-001,0.00000E+000,2.20109E-003,-6.67026E-002,1.00000E+000,30
1099,1337,2.03301E+001,4.34278E-001,-8.67772E-002,9.46255E+000,-3.57340E-001,-9.97520E-002,9.46982E+000,1.81375E-002,4.73171E-001,0,1.43198E+002,-6.68388E+000,9.96038E-001,1.05618E+002,-3.64627E+001,9.95321E-001,1.89551E-001,-7.83730E-002,-2.29846E-003,1.89570E-001,-7.83927E-002,-4.91480E-001,1.90513E-001,1.20835E+000,-2.97424E-002,0.00000E+000,1.82961E-002,9.26497E-001,0.00000E+000,1.70684E-003,-6.67177E-002,1.00000E+000,30
1099,1347,2.03411E+001,1.04098E+000,-7.49908E-002,9.44709E+000,-4.04976E-001,-1.30871E-001,9.45667E+000,1.43183E-002,4.70625E-001,0,1.43068E+002,-7.39643E+000,9.97397E-001,1.05867E+002,-3.70829E+001,9.96899E-001,1.90391E-001,-7.83951E-002,-2.44765E-003,1.90414E-001,-7.84174E-002,-5.21695E-001,1.91398E-001,1.20937E+000,-2.97018E-002,0.00000E+000,1.79966E-002,9.26485E-001,0.00000E+000,1.21142E-003,-6.67375E-002,1.00000E+000,30
759,1347,-6.50777E+000,5.43945E-001,9.22238E-003,4.80004E+000,-6.78467E-001,2.99010E-002,4.84785E+000,1.34620E-002,5.26178E-001,0,7.43580E+001,-1.13146E+001,9.96184E-001,3.04476E+001,-4.85861E+001,9.95810E-001,1.87382E-001,-7.97141E-002,-1.45382E-003,1.87390E-001,-7.97220E-002,-3.11852E-001,1.88083E-001,1.20608E+000,-5.94322E-003,0.00000E+000,2.04997E-003,9.26380E-001,0.00000E+000,-3.11706E-003,-8.06699E-002,1.00000E+000,30
759,1357,-6.48853E+000,1.14694E+000,3.00612E-002,4.79475E+000,-7.26358E-001,-1.48797E-002,4.84948E+000,1.46396E-002,5.46711E-001,0,7.44050E+001,-1.19851E+001,9.96606E-001,3.09176E+001,-4.93338E+001,9.96164E-001,1.87584E-001,-7.97451E-002,-1.82165E-003,1.87597E-001,-7.97575E-002,-3.90403E-001,1.88296E-001,1.20633E+000,-5.93384E-003,0.00000E+000,1.42417E-003,9.26357E-001,0.00000E+000,-4.05546E-003,-8.07053E-002,1.00000E+000,30
1099,1297,2.03428E+001,-1.95286E+000,1.27737E-001,9.52629E+000,-1.61089E-001,6.17229E-002,9.52785E+000,1.31601E-002,5.03114E-001,0,1.43523E+002,-3.83262E+000,9.97756E-001,1.05920E+002,-3.39417E+001,9.96387E-001,1.86202E-001,-7.83132E-002,-1.67248E-003,1.86213E-001,-7.83237E-002,-3.62252E-001,1.86993E-001,1.20432E+000,-2.98213E-002,0.00000E+000,1.94852E-002,9.26521E-001,0.00000E+000,3.67371E-003,-6.66793E-002,1.00000E+000,30
1099,1307,2.03377E+001,-1.36289E+000,4.01457E-002,9.51458E+000,-2.12995E-001,1.28273E-002,9.51697E+000,1.54149E-002,4.71218E-001,0,1.43549E+002,-4.56376E+000,9.98263E-001,1.05759E+002,-3.46160E+001,9.97428E-001,1.87038E-001,-7.83249E-002,-1.83227E-003,1.87051E-001,-7.83375E-002,-3.95588E-001,1.87871E-001,1.20532E+000,-2.98110E-002,0.00000E+000,1.91890E-002,9.26518E-001,0.00000E+000,3.18376E-003,-6.66843E-002,1.00000E+000,30
1099,1317,2.03280E+001,-7.71077E-001,-2.91761E-002,9.49446E+000,-2.65267E-001,-3.39068E-002,9.49823E+000,1.95310E-002,4.65414E-001,0,1.43434E+002,-5.31790E+000,9.96873E-001,1.05557E+002,-3.52881E+001,9.95781E-001,1.87874E-001,-7.83387E-002,-1.98989E-003,1.87889E-001,-7.83535E-002,-4.28243E-001,1.88749E-001,1.20633E+000,-2.97948E-002,0.00000E+000,1.88923E-002,9.26513E-001,0.00000E+000,2.69292E-003,-6.66922E-002,1.00000E+000,30
759,1327,-6.54379E+000,-6.54991E-001,7.11437E-002,4.79350E+000,-5.91416E-001,1.20835E-001,4.83136E+000,1.58166E-002,5.33543E-001,0,7.39802E+001,-1.01292E+001,9.97472E-001,2.98050E+001,-4.71913E+001,9.97722E-001,1.86977E-001,-7.96741E-002,-7.20355E-004,1.86979E-001,-7.96760E-002,-1.54782E-001,1.87658E-001,1.20559E+000,-5.95451E-003,0.00000E+000,3.29287E-003,9.26409E-001,0.00000E+000,-1.25328E-003,-8.06273E-002,1.00000E+000,30
759,1337,-6.52589E+000,-5.50167E-002,2.80394E-002,4.79919E+000,-6.32835E-001,7.64838E-002,4.84133E+000,1.32573E-002,5.37452E-001,0,7.42046E+001,-1.06898E+001,9.96563E-001,3.00943E+001,-4.78500E+001,9.96301E-001,1.87180E-001,-7.96913E-002,-1.08706E-003,1.87184E-001,-7.96957E-002,-2.33381E-001,1.87871E-001,1.20583E+000,-5.94983E-003,0.00000E+000,2.67211E-003,9.26397E-001,0.00000E+000,-2.18413E-003,-8.06450E-002,1.00000E+000,30
759,1317,-6.54811E+000,-1.23500E+000,1.49593E-001,4.79621E+000,-5.35988E-001,1.73677E-001,4.82919E+000,2.06207E-002,5.55608E-001,0,7.38502E+001,-9.35106E+000,9.97770E-001,2.98166E+001,-4.62865E+001,9.97654E-001,1.86774E-001,-7.96626E-002,-3.55240E-004,1.86775E-001,-7.96631E-002,-7.63922E-002,1.87446E-001,1.20534E+000,-5.95720E-003,0.00000E+000,3.90960E-003,9.26416E-001,0.00000E+000,-3.28468E-004,-8.06171E-002,1.00000E+000,30
749,1317,-7.31486E+000,-1.23746E+000,1.71200E-001,4.67181E+000,-5.35186E-001,1.83696E-001,4.70595E+000,1.54641E-002,5.75756E-001,0,7.19459E+001,-9.34927E+000,9.97907E-001,2.80898E+001,-4.64635E+001,9.96778E-001,1.85579E-001,-7.92042E-002,-5.68646E-004,1.85581E-001,-7.92055E-002,-1.23047E-001,1.86242E-001,1.20390E+000,-5.82064E-003,0.00000E+000,3.41697E-003,9.26780E-001,0.00000E+000,-3.74579E-004,-7.97658E-002,1.00000E+000,30
749,1327,-7.31187E+000,-6.55183E-001,7.65372E-002,4.66937E+000,-5.87582E-001,1.22756E-001,4.70780E+000,1.25980E-002,5.18584E-001,0,7.21042E+001,-1.00351E+001,9.97092E-001,2.80172E+001,-4.73185E+001,9.96912E-001,1.85584E-001,-7.92111E-002,-8.35090E-004,1.85586E-001,-7.92137E-002,-1.80693E-001,1.86247E-001,1.20391E+000,-5.82059E-003,0.00000E+000,2.97093E-003,9.26776E-001,0.00000E+000,-1.08400E-003,-7.97718E-002,1.00000E+000,30
749,1337,-7.30242E+000,-5.82300E-002,2.98480E-002,4.66693E+000,-6.30985E-001,7.58698E-002,4.71001E+000,1.27959E-002,5.67373E-001,0,7.22107E+001,-1.06527E+001,9.96977E-001,2.81672E+001,-4.79967E+001,9.96819E-001,1.85587E-001,-7.92232E-002,-1.10295E-003,1.85592E-001,-7.92278E-002,-2.38634E-001,1.86252E-001,1.20391E+000,-5.82049E-003,0.00000E+000,2.52250E-003,9.26768E-001,0.00000E+000,-1.79724E-003,-7.97850E-002,1.00000E+000,30
749,1347,-7.28792E+000,5.37926E-001,6.64369E-003,4.66504E+000,-6.78217E-001,2.85838E-002,4.71417E+000,1.42345E-002,5.29257E-001,0,7.23241E+001,-1.12934E+001,9.97088E-001,2.84546E+001,-4.87823E+001,9.96961E-001,1.85590E-001,-7.92390E-002,-1.37141E-003,1.85597E-001,-7.92461E-002,-2.96694E-001,1.86256E-001,1.20392E+000,-5.82034E-003,0.00000E+000,2.07305E-003,9.26756E-001,0.00000E+000,-2.51208E-003,-7.98032E-002,1.00000E+000,30
1109,1297,2.11360E+001,-1.93654E+000,1.19624E-001,9.66323E+000,-1.47691E-001,6.84859E-002,9.66461E+000,1.40500E-002,5.07768E-001,0,1.45444E+002,-3.66924E+000,9.96767E-001,1.08271E+002,-3.35733E+001,9.94428E-001,1.86940E-001,-7.88438E-002,-1.74039E-003,1.86951E-001,-7.88552E-002,-3.75159E-001,1.87712E-001,1.20525E+000,-2.83656E-002,0.00000E+000,1.81750E-002,9.26061E-001,0.00000E+000,4.35324E-003,-6.67718E-002,1.00000E+000,30
1109,1307,2.11269E+001,-1.34546E+000,3.03561E-002,9.64763E+000,-1.98412E-001,1.81163E-002,9.64969E+000,1.59037E-002,4.40843E-001,0,1.45417E+002,-4.36603E+000,9.97395E-001,1.08047E+002,-3.42429E+001,9.96440E-001,1.87846E-001,-7.88526E-002,-1.86041E-003,1.87859E-001,-7.88656E-002,-3.99653E-001,1.88662E-001,1.20633E+000,-2.83544E-002,0.00000E+000,1.79644E-002,9.26059E-001,0.00000E+000,3.66157E-003,-6.67789E-002,1.00000E+000,30
1109,1317,2.11189E+001,-7.52381E-001,-3.83909E-002,9.62915E+000,-2.49752E-001,-2.73104E-002,9.63242E+000,1.80511E-002,4.28815E-001,0,1.45323E+002,-5.10307E+000,9.96087E-001,1.07871E+002,-3.48978E+001,9.95259E-001,1.88753E-001,-7.88629E-002,-1.97818E-003,1.88767E-001,-7.88775E-002,-4.23493E-001,1.89614E-001,1.20743E+000,-2.83370E-002,0.00000E+000,1.77533E-002,9.26056E-001,0.00000E+000,2.96811E-003,-6.67900E-002,1.00000E+000,30
749,1357,-7.26442E+000,1.13998E+000,3.18767E-002,4.66452E+000,-7.26254E-001,-1.02976E-002,4.72073E+000,1.70468E-002,5.37877E-001,0,7.24263E+001,-1.19793E+001,9.97066E-001,2.90032E+001,-4.95613E+001,9.96814E-001,1.85592E-001,-7.92611E-002,-1.64156E-003,1.85602E-001,-7.92713E-002,-3.55101E-001,1.86259E-001,1.20392E+000,-5.82013E-003,0.00000E+000,1.62078E-003,9.26740E-001,0.00000E+000,-3.23143E-003,-7.98297E-002,1.00000E+000,30
1109,1327,2.11141E+001,-1.57311E-001,-8.13544E-002,9.60918E+000,-3.02075E-001,-6.67089E-002,9.61416E+000,1.60262E-002,4.31070E-001,0,1.45177E+002,-5.87340E+000,9.95143E-001,1.07787E+002,-3.55709E+001,9.93988E-001,1.89660E-001,-7.88751E-002,-2.09304E-003,1.89677E-001,-7.88914E-002,-4.46543E-001,1.90569E-001,1.20852E+000,-2.83115E-002,0.00000E+000,1.75417E-002,9.26051E-001,0.00000E+000,2.27274E-003,-6.68062E-002,1.00000E+000,30
1109,1337,2.11172E+001,4.51706E-001,-9.67206E-002,9.59163E+000,-3.44814E-001,-1.00295E-001,9.59835E+000,1.66196E-002,4.82513E-001,0,1.45032E+002,-6.51708E+000,9.97238E-001,1.07869E+002,-3.60644E+001,9.96892E-001,1.90571E-001,-7.88896E-002,-2.20489E-003,1.90589E-001,-7.89076E-002,-4.68786E-001,1.91526E-001,1.20962E+000,-2.82772E-002,0.00000E+000,1.73290E-002,9.26044E-001,0.00000E+000,1.57412E-003,-6.68280E-002,1.00000E+000,30
1109,1347,2.11356E+001,1.05851E+000,-6.82432E-002,9.58001E+000,-3.94887E-001,-1.28635E-001,9.58901E+000,1.61647E-002,4.82677E-001,0,1.44945E+002,-7.27159E+000,9.97501E-001,1.08258E+002,-3.67163E+001,9.96545E-001,1.91484E-001,-7.89079E-002,-2.31093E-003,1.91504E-001,-7.89276E-002,-4.89635E-001,1.92487E-001,1.21073E+000,-2.82272E-002,0.00000E+000,1.71155E-002,9.26034E-001,0.00000E+000,8.72520E-004,-6.68597E-002,1.00000E+000,30
739,1337,-8.07564E+000,-7.18077E-002,2.96478E-002,4.53775E+000,-6.38802E-001,7.39978E-002,4.58309E+000,1.46795E-002,5.58433E-001,0,7.02681E+001,-1.07537E+001,9.96619E-001,2.62894E+001,-4.83178E+001,9.96472E-001,1.83906E-001,-7.85395E-002,-1.23877E-003,1.83912E-001,-7.85453E-002,-2.70434E-001,1.84563E-001,1.20189E+000,-5.78948E-003,0.00000E+000,2.23881E-003,9.27390E-001,0.00000E+000,-1.58842E-003,-7.96161E-002,1.00000E+000,30
739,1347,-8.06638E+000,5.28001E-001,8.76437E-003,4.53106E+000,-6.82059E-001,3.06151E-002,4.58221E+000,1.07934E-002,5.34195E-001,0,7.02937E+001,-1.13451E+001,9.98422E-001,2.65041E+001,-4.90479E+001,9.98369E-001,1.83667E-001,-7.85551E-002,-1.51542E-003,1.83676E-001,-7.85639E-002,-3.31105E-001,1.84315E-001,1.20161E+000,-5.79651E-003,0.00000E+000,1.78092E-003,9.27379E-001,0.00000E+000,-2.31056E-003,-7.96340E-002,1.00000E+000,30
739,1357,-8.04275E+000,1.13382E+000,3.19569E-002,4.53125E+000,-7.25677E-001,-8.34745E-003,4.58900E+000,1.23413E-002,5.28507E-001,0,7.04057E+001,-1.19566E+001,9.97723E-001,2.70525E+001,-4.97734E+001,9.97750E-001,1.83426E-001,-7.85770E-002,-1.79504E-003,1.83439E-001,-7.85893E-002,-3.92520E-001,1.84064E-001,1.20132E+000,-5.80684E-003,0.00000E+000,1.32038E-003,9.27362E-001,0.00000E+000,-3.03686E-003,-7.96601E-002,1.00000E+000,30
739,1327,-8.08743E+000,-6.62236E-001,7.91644E-002,4.53770E+000,-5.88849E-001,1.23528E-001,4.57742E+000,1.35963E-002,4.99361E-001,0,7.01141E+001,-1.00389E+001,9.98276E-001,2.61116E+001,-4.75488E+001,9.98179E-001,1.84144E-001,-7.85273E-002,-9.63412E-004,1.84148E-001,-7.85309E-002,-2.10142E-001,1.84811E-001,1.20218E+000,-5.78430E-003,0.00000E+000,2.69587E-003,9.27398E-001,0.00000E+000,-8.67612E-004,-7.96030E-002,1.00000E+000,30
1119,1297,2.19246E+001,-1.92073E+000,1.11043E-001,9.79526E+000,-1.35010E-001,7.50626E-002,9.79648E+000,1.49551E-002,4.39326E-001,0,1.47288E+002,-3.47654E+000,9.98165E-001,1.10555E+002,-3.32492E+001,9.97307E-001,1.87936E-001,-7.87720E-002,-1.97295E-003,1.87950E-001,-7.87865E-002,-4.23810E-001,1.88767E-001,1.20647E+000,-2.71057E-002,0.00000E+000,1.67637E-002,9.26180E-001,0.00000E+000,4.20443E-003,-6.71614E-002,1.00000E+000,30
1119,1307,2.19177E+001,-1.33087E+000,2.97534E-002,9.78032E+000,-1.88067E-001,2.70256E-002,9.78216E+000,1.37135E-002,4.27771E-001,0,1.47263E+002,-4.24079E+000,9.98109E-001,1.10377E+002,-3.39251E+001,9.97763E-001,1.88776E-001,-7.87764E-002,-2.02610E-003,1.88791E-001,-7.87918E-002,-4.33851E-001,1.89649E-001,1.20749E+000,-2.70932E-002,0.00000E+000,1.66844E-002,9.26179E-001,0.00000E+000,3.43671E-003,-6.71709E-002,1.00000E+000,30
1119,1317,2.19162E+001,-7.35646E-001,-3.54518E-002,9.76763E+000,-2.37506E-001,-1.79963E-002,9.77054E+000,1.48925E-002,4.17570E-001,0,1.47253E+002,-4.95847E+000,9.97049E-001,1.10310E+002,-3.45509E+001,9.97035E-001,1.89616E-001,-7.87816E-002,-2.07735E-003,1.89632E-001,-7.87976E-002,-4.43424E-001,1.90532E-001,1.20850E+000,-2.70757E-002,0.00000E+000,1.66050E-002,9.26178E-001,0.00000E+000,2.66782E-003,-6.71842E-002,1.00000E+000,30
1119,1327,2.19129E+001,-1.38448E-001,-7.84108E-002,9.74823E+000,-2.88143E-001,-6.04578E-002,9.75267E+000,1.33673E-002,4.03844E-001,0,1.47126E+002,-5.69272E+000,9.97005E-001,1.10248E+002,-3.51973E+001,9.97000E-001,1.90458E-001,-7.87877E-002,-2.12579E-003,1.90474E-001,-7.88045E-002,-4.52334E-001,1.91417E-001,1.20951E+000,-2.70508E-002,0.00000E+000,1.65253E-002,9.26176E-001,0.00000E+000,1.89655E-003,-6.72031E-002,1.00000E+000,30
1119,1337,2.19157E+001,4.63071E-001,-9.34204E-002,9.72965E+000,-3.39309E-001,-9.62574E-002,9.73604E+000,1.17801E-002,4.67998E-001,0,1.46978E+002,-6.46279E+000,9.98440E-001,1.10324E+002,-3.58001E+001,9.97896E-001,1.91302E-001,-7.87949E-002,-2.17130E-003,1.91320E-001,-7.88123E-002,-4.60559E-001,1.92306E-001,1.21053E+000,-2.70178E-002,0.00000E+000,1.64452E-002,9.26173E-001,0.00000E+000,1.12102E-003,-6.72281E-002,1.00000E+000,30
1119,1347,2.19300E+001,1.06895E+000,-7.06895E-002,9.71446E+000,-3.89639E-001,-1.27433E-001,9.72311E+000,1.76458E-002,4.35360E-001,0,1.46851E+002,-7.20615E+000,9.98101E-001,1.10638E+002,-3.64689E+001,9.97444E-001,1.92148E-001,-7.88037E-002,-2.21194E-003,1.92166E-001,-7.88218E-002,-4.67699E-001,1.93196E-001,1.21156E+000,-2.69724E-002,0.00000E+000,1.63649E-002,9.26170E-001,0.00000E+000,3.43625E-004,-6.72626E-002,1.00000E+000,30
739,1317,-8.08544E+000,-1.24072E+000,1.73302E-001,4.54476E+000,-5.33408E-001,1.82438E-001,4.57959E+000,1.69484E-002,5.61977E-001,0,7.00338E+001,-9.30005E+000,9.97958E-001,2.62608E+001,-4.66289E+001,9.97390E-001,1.84380E-001,-7.85207E-002,-6.91014E-004,1.84382E-001,-7.85226E-002,-1.50596E-001,1.85056E-001,1.20246E+000,-5.78205E-003,0.00000E+000,3.15001E-003,9.27402E-001,0.00000E+000,-1.51393E-004,-7.95973E-002,1.00000E+000,30
1129,1297,2.27116E+001,-1.89691E+000,1.07775E-001,9.92414E+000,-1.14869E-001,8.21440E-002,9.92514E+000,1.50540E-002,4.06145E-001,0,1.49074E+002,-3.18967E+000,9.98832E-001,1.12828E+002,-3.27945E+001,9.97939E-001,1.88698E-001,-7.88946E-002,-2.28759E-003,1.88718E-001,-7.89141E-002,-4.89762E-001,1.89559E-001,1.20742E+000,-2.59777E-002,0.00000E+000,1.53308E-002,9.26126E-001,0.00000E+000,3.60141E-003,-6.76781E-002,1.00000E+000,30
1129,1307,2.27056E+001,-1.31757E+000,2.08606E-002,9.90978E+000,-1.78592E-001,2.77737E-002,9.91142E+000,2.14216E-002,3.82569E-001,0,1.49088E+002,-4.10167E+000,9.98609E-001,1.12654E+002,-3.36260E+001,9.95508E-001,1.89587E-001,-7.88939E-002,-2.26317E-003,1.89606E-001,-7.89130E-002,-4.82931E-001,1.90492E-001,1.20849E+000,-2.59640E-002,0.00000E+000,1.53982E-002,9.26127E-001,0.00000E+000,2.79628E-003,-6.76884E-002,1.00000E+000,30
1129,1317,2.27086E+001,-7.25109E-001,-4.19864E-002,9.90109E+000,-2.31215E-001,-1.64654E-002,9.90381E+000,1.26292E-002,3.87009E-001,0,1.49137E+002,-4.87870E+000,9.98588E-001,1.12660E+002,-3.42902E+001,9.96367E-001,1.90476E-001,-7.88931E-002,-2.23648E-003,1.90494E-001,-7.89117E-002,-4.75664E-001,1.91426E-001,1.20956E+000,-2.59448E-002,0.00000E+000,1.54658E-002,9.26128E-001,0.00000E+000,1.98963E-003,-6.77029E-002,1.00000E+000,30
729,1347,-8.82808E+000,5.12327E-001,1.91023E-002,4.41227E+000,-6.93071E-001,3.47363E-002,4.46650E+000,9.63058E-003,5.49684E-001,0,6.84901E+001,-1.15130E+001,9.99098E-001,2.48358E+001,-4.94125E+001,9.98901E-001,1.81704E-001,-7.79468E-002,-1.33978E-003,1.81711E-001,-7.79537E-002,-2.95631E-001,1.82321E-001,1.19925E+000,-5.14415E-003,0.00000E+000,1.61488E-003,9.27876E-001,0.00000E+000,-2.28497E-003,-7.87224E-002,1.00000E+000,30
729,1357,-8.81250E+000,1.12557E+000,3.37972E-002,4.40575E+000,-7.28325E-001,-6.62082E-003,4.46555E+000,1.18876E-002,5.47636E-001,0,6.85036E+001,-1.19866E+001,9.98174E-001,2.52427E+001,-5.00063E+001,9.98251E-001,1.81162E-001,-7.79623E-002,-1.55643E-003,1.81171E-001,-7.79716E-002,-3.44129E-001,1.81756E-001,1.19861E+000,-5.16608E-003,0.00000E+000,1.29538E-003,9.27865E-001,0.00000E+000,-3.20263E-003,-7.87536E-002,1.00000E+000,30
1129,1327,2.27118E+001,-1.23555E-001,-7.55093E-002,9.88861E+000,-2.76850E-001,-4.72797E-002,9.89260E+000,1.51072E-002,3.92381E-001,0,1.49067E+002,-5.58108E+000,9.98157E-001,1.12713E+002,-3.48776E+001,9.97673E-001,1.91365E-001,-7.88922E-002,-2.20723E-003,1.91383E-001,-7.89102E-002,-4.67902E-001,1.92361E-001,1.21063E+000,-2.59191E-002,0.00000E+000,1.55335E-002,9.26130E-001,0.00000E+000,1.18150E-003,-6.77222E-002,1.00000E+000,30
729,1337,-8.84748E+000,-7.79885E-002,3.82507E-002,4.40986E+000,-6.39032E-001,8.26345E-002,4.45669E+000,1.31184E-002,5.51439E-001,0,6.83089E+001,-1.07604E+001,9.97644E-001,2.44622E+001,-4.85431E+001,9.97294E-001,1.82243E-001,-7.79346E-002,-1.12601E-003,1.82248E-001,-7.79395E-002,-2.47962E-001,1.82882E-001,1.19990E+000,-5.12727E-003,0.00000E+000,1.93323E-003,9.27885E-001,0.00000E+000,-1.37060E-003,-7.86985E-002,1.00000E+000,30
729,1327,-8.85768E+000,-6.66616E-001,8.65486E-002,4.41039E+000,-5.89229E-001,1.26347E-001,4.45137E+000,1.33086E-002,5.38235E-001,0,6.81817E+001,-1.00419E+001,9.97618E-001,2.43053E+001,-4.77186E+001,9.97329E-001,1.82777E-001,-7.79263E-002,-9.16025E-004,1.82781E-001,-7.79295E-002,-2.01315E-001,1.83440E-001,1.20054E+000,-5.11659E-003,0.00000E+000,2.24976E-003,9.27890E-001,0.00000E+000,-4.61473E-004,-7.86833E-002,1.00000E+000,30
1129,1337,2.27246E+001,4.78610E-001,-8.12876E-002,9.87408E+000,-3.32314E-001,-9.73820E-002,9.88015E+000,1.72897E-002,4.75056E-001,0,1.49031E+002,-6.37647E+000,9.97668E-001,1.12958E+002,-3.54788E+001,9.97501E-001,1.92262E-001,-7.88909E-002,-2.17008E-003,1.92280E-001,-7.89083E-002,-4.58507E-001,1.93307E-001,1.21172E+000,-2.58745E-002,0.00000E+000,1.56020E-002,9.26132E-001,0.00000E+000,3.63744E-004,-6.77558E-002,1.00000E+000,30
729,1317,-8.86041E+000,-1.24958E+000,1.63156E-001,4.41411E+000,-5.36739E-001,1.75318E-001,4.45008E+000,1.51190E-002,5.63433E-001,0,6.80833E+001,-9.31864E+000,9.97534E-001,2.43370E+001,-4.68477E+001,9.97009E-001,1.83310E-001,-7.79207E-002,-7.08278E-004,1.83311E-001,-7.79226E-002,-1.55346E-001,1.83996E-001,1.20118E+000,-5.11015E-003,0.00000E+000,2.56558E-003,9.27893E-001,0.00000E+000,4.45626E-004,-7.86742E-002,1.00000E+000,30
1129,1347,2.27306E+001,1.08977E+000,-7.09371E-002,9.85320E+000,-3.76059E-001,-1.29336E-001,9.86122E+000,2.02711E-002,4.81963E-001,0,1.48824E+002,-7.03413E+000,9.97174E-001,1.13122E+002,-3.60180E+001,9.96336E-001,1.93155E-001,-7.88897E-002,-2.13348E-003,1.93172E-001,-7.89064E-002,-4.49299E-001,1.94248E-001,1.21280E+000,-2.58308E-002,0.00000E+000,1.56702E-002,9.26135E-001,0.00000E+000,-4.50760E-004,-6.77887E-002,1.00000E+000,30
719,1347,-9.60320E+000,5.13637E-001,2.22828E-002,4.28111E+000,-6.85622E-001,3.94119E-002,4.33584E+000,1.48132E-002,5.52447E-001,0,6.64867E+001,-1.13918E+001,9.98204E-001,2.29526E+001,-4.95085E+001,9.97926E-001,1.80167E-001,-7.75847E-002,-1.21973E-003,1.80173E-001,-7.75905E-002,-2.71127E-001,1.80750E-001,1.19741E+000,-4.25311E-003,0.00000E+000,1.13917E-003,9.28107E-001,0.00000E+000,-2.02909E-003,-7.72515E-002,1.00000E+000,30
719,1357,-9.59115E+000,1.11556E+000,3.24893E-002,4.27140E+000,-7.32491E-001,-5.59662E-003,4.33375E+000,1.29275E-002,5.61660E-001,0,6.64647E+001,-1.20332E+001,9.98120E-001,2.32931E+001,-5.02636E+001,9.98274E-001,1.79355E-001,-7.75932E-002,-1.35126E-003,1.79363E-001,-7.76003E-002,-3.01299E-001,1.79904E-001,1.19644E+000,-4.28541E-003,0.00000E+000,9.96465E-004,9.28102E-001,0.00000E+000,-3.08948E-003,-7.72869E-002,1.00000E+000,30
719,1337,-9.61978E+000,-7.95125E-002,3.97055E-002,4.28055E+000,-6.35628E-001,8.13272E-002,4.32825E+000,1.67239E-002,5.81948E-001,0,6.63534E+001,-1.06978E+001,9.96452E-001,2.26157E+001,-4.86628E+001,9.95691E-001,1.80973E-001,-7.75783E-002,-1.09244E-003,1.80978E-001,-7.75829E-002,-2.42081E-001,1.81590E-001,1.19838E+000,-4.22927E-003,0.00000E+000,1.28109E-003,9.28110E-001,0.00000E+000,-9.74623E-004,-7.72254E-002,1.00000E+000,30
719,1327,-9.62676E+000,-6.67744E-001,9.14459E-002,4.28390E+000,-5.85971E-001,1.26826E-001,4.32565E+000,1.22280E-002,5.80236E-001,0,6.62651E+001,-9.99067E+000,9.96328E-001,2.25169E+001,-4.78314E+001,9.95856E-001,1.81773E-001,-7.75739E-002,-9.69264E-004,1.81777E-001,-7.75775E-002,-2.14129E-001,1.82425E-001,1.19934E+000,-4.21390E-003,0.00000E+000,1.42229E-003,9.28113E-001,0.00000E+000,7.45757E-005,-7.72086E-002,1.00000E+000,30
719,1317,-9.63170E+000,-1.25251E+000,1.74940E-001,4.28427E+000,-5.35830E-001,1.76910E-001,4.32127E+000,1.59852E-002,5.58832E-001,0,6.61127E+001,-9.29029E+000,9.96239E-001,2.25327E+001,-4.70245E+001,9.95459E-001,1.82570E-001,-7.75713E-002,-8.49395E-004,1.82573E-001,-7.75741E-002,-1.87076E-001,1.83258E-001,1.20029E+000,-4.20594E-003,0.00000E+000,1.56324E-003,9.28114E-001,0.00000E+000,1.12185E-003,-7.71999E-002,1.00000E+000,30
1139,1297,2.35210E+001,-1.88845E+000,1.06126E-001,1.00734E+001,-1.09769E-001,8.50056E-002,1.00743E+001,1.00466E-002,3.59320E-001,0,1.51183E+002,-3.13873E+000,9.99332E-001,1.15453E+002,-3.25863E+001,9.98517E-001,1.89334E-001,-7.91200E-002,-2.52735E-003,1.89357E-001,-7.91438E-002,-5.39346E-001,1.90205E-001,1.20820E+000,-2.48223E-002,0.00000E+000,1.40488E-002,9.25980E-001,0.00000E+000,2.53442E-003,-6.83117E-002,1.00000E+000,30
1139,1307,2.35106E+001,-1.31064E+000,8.01042E-003,1.00559E+001,-1.75070E-001,2.41735E-002,1.00574E+001,1.39210E-002,3.25570E-001,0,1.51180E+002,-4.04875E+000,9.98955E-001,1.15197E+002,-3.34213E+001,9.97682E-001,1.90343E-001,-7.91168E-002,-2.46005E-003,1.90365E-001,-7.91393E-002,-5.23029E-001,1.91264E-001,1.20942E+000,-2.48087E-002,0.00000E+000,1.41923E-002,9.25982E-001,0.00000E+000,1.77981E-003,-6.83201E-002,1.00000E+000,30
1139,1337,2.35211E+001,5.02939E-001,-8.18071E-002,1.00093E+001,-3.13914E-001,-9.58930E-002,1.00147E+001,1.75044E-002,4.94466E-001,0,1.50934E+002,-6.13227E+000,9.96951E-001,1.15384E+002,-3.49887E+001,9.95868E-001,1.93382E-001,-7.91016E-002,-2.23061E-003,1.93400E-001,-7.91199E-002,-4.68993E-001,1.94463E-001,1.21310E+000,-2.47027E-002,0.00000E+000,1.46262E-002,9.25994E-001,0.00000E+000,-5.01598E-004,-6.83859E-002,1.00000E+000,30
1139,1347,2.35411E+001,1.10710E+000,-5.73545E-002,9.99824E+000,-3.67818E-001,-1.30224E-001,1.00058E+001,1.78137E-002,5.02544E-001,0,1.50881E+002,-6.93543E+000,9.96733E-001,1.15785E+002,-3.56641E+001,9.95267E-001,1.94398E-001,-7.90946E-002,-2.14483E-003,1.94415E-001,-7.91114E-002,-4.49298E-001,1.95535E-001,1.21433E+000,-2.46451E-002,0.00000E+000,1.47718E-002,9.26001E-001,0.00000E+000,-1.26732E-003,-6.84216E-002,1.00000E+000,30
1139,1327,2.35145E+001,-1.09666E-001,-8.52846E-002,1.00300E+001,-2.70426E-001,-5.58902E-002,1.00338E+001,1.67003E-002,4.31086E-001,0,1.51106E+002,-5.48297E+000,9.97637E-001,1.15222E+002,-3.45205E+001,9.95920E-001,1.92365E-001,-7.91080E-002,-2.31355E-003,1.92385E-001,-7.91278E-002,-4.88239E-001,1.93392E-001,1.21187E+000,-2.47534E-002,0.00000E+000,1.44808E-002,9.25988E-001,0.00000E+000,2.62832E-004,-6.83544E-002,1.00000E+000,30
1139,1317,2.35007E+001,-7.16149E-001,-6.06524E-002,1.00352E+001,-2.25977E-001,-2.14278E-002,1.00378E+001,1.46973E-002,3.79709E-001,0,1.51057E+002,-4.80873E+000,9.99068E-001,1.14992E+002,-3.40163E+001,9.97263E-001,1.91352E-001,-7.91131E-002,-2.39001E-003,1.91373E-001,-7.91342E-002,-5.06252E-001,1.92325E-001,1.21064E+000,-2.47886E-002,0.00000E+000,1.43361E-002,9.25984E-001,0.00000E+000,1.02346E-003,-6.83326E-002,1.00000E+000,30
709,1347,-1.03838E+001,5.13511E-001,1.59645E-002,4.14410E+000,-6.79523E-001,3.49488E-002,4.19959E+000,1.45636E-002,5.53438E-001,0,6.44176E+001,-1.12702E+001,9.97585E-001,2.09653E+001,-4.96077E+001,9.97483E-001,1.78716E-001,-7.64128E-002,-1.36199E-003,1.78723E-001,-7.64201E-002,-3.05860E-001,1.79347E-001,1.19568E+000,-3.38279E-003,0.00000E+000,1.92498E-004,9.29114E-001,0.00000E+000,-1.85030E-003,-7.60961E-002,1.00000E+000,30
709,1357,-1.03668E+001,1.11662E+000,3.09275E-002,4.14011E+000,-7.23644E-001,-2.26550E-003,4.20287E+000,1.35574E-002,5.52356E-001,0,6.44598E+001,-1.18955E+001,9.98132E-001,2.13962E+001,-5.03613E+001,9.98243E-001,1.77775E-001,-7.64256E-002,-1.56476E-003,1.77785E-001,-7.64352E-002,-3.52672E-001,1.78366E-001,1.19456E+000,-3.41882E-003,0.00000E+000,-8.62262E-005,9.29105E-001,0.00000E+000,-2.85227E-003,-7.61283E-002,1.00000E+000,30
709,1337,-1.03880E+001,-8.80453E-002,4.51876E-002,4.15430E+000,-6.39265E-001,8.06601E-002,4.20397E+000,1.32073E-002,5.60769E-001,0,6.44420E+001,-1.07280E+001,9.97363E-001,2.08463E+001,-4.89246E+001,9.96950E-001,1.79650E-001,-7.64038E-002,-1.16485E-003,1.79655E-001,-7.64091E-002,-2.60646E-001,1.80322E-001,1.19679E+000,-3.35801E-003,0.00000E+000,4.69903E-004,9.29120E-001,0.00000E+000,-8.53081E-004,-7.60739E-002,1.00000E+000,30
709,1317,-1.03968E+001,-1.25385E+000,1.93925E-001,4.15944E+000,-5.34271E-001,1.81193E-001,4.19752E+000,1.68086E-002,5.61413E-001,0,6.42080E+001,-9.25745E+000,9.97600E-001,2.08488E+001,-4.71879E+001,9.97281E-001,1.81501E-001,-7.63943E-002,-7.83465E-004,1.81503E-001,-7.63967E-002,-1.74058E-001,1.82259E-001,1.19901E+000,-3.33401E-003,0.00000E+000,1.02149E-003,9.29126E-001,0.00000E+000,1.12978E-003,-7.60525E-002,1.00000E+000,30
709,1327,-1.03902E+001,-6.70846E-001,1.09757E-001,4.16022E+000,-5.85787E-001,1.27693E-001,4.20320E+000,1.85028E-002,5.89769E-001,0,6.43871E+001,-9.98432E+000,9.97629E-001,2.08546E+001,-4.80191E+001,9.97081E-001,1.80577E-001,-7.63984E-002,-9.73158E-004,1.80581E-001,-7.64021E-002,-2.16973E-001,1.81291E-001,1.19790E+000,-3.34396E-003,0.00000E+000,7.45889E-004,9.29124E-001,0.00000E+000,1.39040E-004,-7.60614E-002,1.00000E+000,30
1149,1297,2.43168E+001,-1.88059E+000,9.33501E-002,1.02107E+001,-1.06654E-001,8.46884E-002,1.02116E+001,2.39623E-002,3.90801E-001,0,1.53125E+002,-3.11058E+000,9.98191E-001,1.17857E+002,-3.23264E+001,9.95331E-001,1.89866E-001,-7.92634E-002,-2.73192E-003,1.89894E-001,-7.92911E-002,-5.81526E-001,1.90752E-001,1.20887E+000,-2.37052E-002,0.00000E+000,1.28999E-002,9.25919E-001,0.00000E+000,9.55874E-004,-6.91411E-002,1.00000E+000,30
1149,1307,2.43212E+001,-1.28480E+000,1.16010E-002,1.02066E+001,-1.53960E-001,3.52115E-002,1.02078E+001,1.54996E-002,3.85092E-001,0,1.53268E+002,-3.79946E+000,9.98610E-001,1.17856E+002,-3.28997E+001,9.97018E-001,1.90997E-001,-7.92602E-002,-2.66397E-003,1.91023E-001,-7.92865E-002,-5.64700E-001,1.91940E-001,1.21023E+000,-2.36873E-002,0.00000E+000,1.30310E-002,9.25921E-001,0.00000E+000,3.51026E-004,-6.91490E-002,1.00000E+000,30
1149,1317,2.43152E+001,-6.92195E-001,-5.26000E-002,1.01876E+001,-2.08493E-001,-1.45703E-002,1.01897E+001,1.44323E-002,4.16298E-001,0,1.53187E+002,-4.59172E+000,9.98500E-001,1.17718E+002,-3.35432E+001,9.96534E-001,1.92131E-001,-7.92564E-002,-2.59200E-003,1.92156E-001,-7.92811E-002,-5.47160E-001,1.93133E-001,1.21161E+000,-2.36600E-002,0.00000E+000,1.31626E-002,9.25924E-001,0.00000E+000,-2.56664E-004,-6.91611E-002,1.00000E+000,30
1149,1327,2.43132E+001,-8.71399E-002,-9.05838E-002,1.01682E+001,-2.51476E-001,-5.59046E-002,1.01715E+001,1.51418E-002,3.88112E-001,0,1.53054E+002,-5.22183E+000,9.98039E-001,1.17683E+002,-3.40804E+001,9.96196E-001,1.93264E-001,-7.92518E-002,-2.51643E-003,1.93287E-001,-7.92750E-002,-5.29012E-001,1.94325E-001,1.21298E+000,-2.36236E-002,0.00000E+000,1.32942E-002,9.25927E-001,0.00000E+000,-8.64270E-004,-6.91772E-002,1.00000E+000,30
1149,1337,2.43241E+001,5.12347E-001,-9.45493E-002,1.01532E+001,-3.09429E-001,-9.66460E-002,1.01583E+001,2.27515E-002,4.77017E-001,0,1.52979E+002,-6.07313E+000,9.97804E-001,1.17897E+002,-3.47209E+001,9.96991E-001,1.94408E-001,-7.92459E-002,-2.43310E-003,1.94430E-001,-7.92675E-002,-5.09372E-001,1.95531E-001,1.21437E+000,-2.35696E-002,0.00000E+000,1.34274E-002,9.25932E-001,0.00000E+000,-1.47894E-003,-6.92011E-002,1.00000E+000,30
1149,1347,2.43528E+001,1.11976E+000,-5.26215E-002,1.01467E+001,-3.63224E-001,-1.28605E-001,1.01540E+001,2.12040E-002,4.79557E-001,0,1.52981E+002,-6.86789E+000,9.98065E-001,1.18456E+002,-3.53848E+001,9.96763E-001,1.95553E-001,-7.92386E-002,-2.34198E-003,1.95573E-001,-7.92585E-002,-4.88271E-001,1.96739E-001,1.21576E+000,-2.34964E-002,0.00000E+000,1.35609E-002,9.25939E-001,0.00000E+000,-2.09518E-003,-6.92335E-002,1.00000E+000,30
699,1347,-1.11432E+001,5.08248E-001,2.82390E-002,4.02646E+000,-6.81021E-001,4.13390E-002,4.08385E+000,1.51372E-002,5.84788E-001,0,6.26145E+001,-1.12891E+001,9.98199E-001,1.93562E+001,-4.98087E+001,9.98110E-001,1.77129E-001,-7.53653E-002,-1.18755E-003,1.77135E-001,-7.53709E-002,-2.69469E-001,1.77789E-001,1.19379E+000,-1.86511E-003,0.00000E+000,-6.62220E-004,9.29998E-001,0.00000E+000,-1.72051E-003,-7.48186E-002,1.00000E+000,30
699,1357,-1.11282E+001,1.10256E+000,3.42905E-002,4.02103E+000,-7.33454E-001,-3.05046E-003,4.08738E+000,1.46412E-002,5.74697E-001,0,6.26577E+001,-1.20231E+001,9.98125E-001,1.97339E+001,-5.06847E+001,9.97977E-001,1.76132E-001,-7.53747E-002,-1.34929E-003,1.76140E-001,-7.53819E-002,-3.07371E-001,1.76748E-001,1.19260E+000,-1.90228E-003,0.00000E+000,-8.79776E-004,9.29991E-001,0.00000E+000,-2.51705E-003,-7.48436E-002,1.00000E+000,30
699,1337,-1.11585E+001,-9.72800E-002,5.12974E-002,4.02564E+000,-6.43574E-001,8.19082E-002,4.07758E+000,1.12326E-002,5.47675E-001,0,6.24852E+001,-1.07747E+001,9.98227E-001,1.90493E+001,-4.91949E+001,9.98066E-001,1.78122E-001,-7.53586E-002,-1.03072E-003,1.78126E-001,-7.53628E-002,-2.32974E-001,1.78827E-001,1.19497E+000,-1.83876E-003,0.00000E+000,-4.45206E-004,9.30003E-001,0.00000E+000,-9.25946E-004,-7.48009E-002,1.00000E+000,30
699,1317,-1.11694E+001,-1.25536E+000,2.08144E-001,4.02629E+000,-5.33951E-001,1.78501E-001,4.06546E+000,1.62716E-002,6.16045E-001,0,6.21925E+001,-9.24260E+000,9.98274E-001,1.90428E+001,-4.73191E+001,9.97794E-001,1.80084E-001,-7.53529E-002,-7.32973E-004,1.80086E-001,-7.53550E-002,-1.64408E-001,1.80883E-001,1.19732E+000,-1.81766E-003,0.00000E+000,-1.52229E-005,9.30007E-001,0.00000E+000,6.48365E-004,-7.47868E-002,1.00000E+000,30
699,1327,-1.11641E+001,-6.73107E-001,1.13480E-001,4.02754E+000,-5.86214E-001,1.23630E-001,4.07185E+000,1.26437E-002,6.91940E-001,0,6.23832E+001,-9.97843E+000,9.98232E-001,1.90009E+001,-4.81180E+001,9.97122E-001,1.79102E-001,-7.53550E-002,-8.80845E-004,1.79105E-001,-7.53580E-002,-1.98336E-001,1.79854E-001,1.19614E+000,-1.82511E-003,0.00000E+000,-2.30655E-004,9.30005E-001,0.00000E+000,-1.40403E-004,-7.47918E-002,1.00000E+000,30
1159,1307,2.51109E+001,-1.27750E+000,-1.06928E-002,1.03371E+001,-1.50763E-001,2.52459E-002,1.03382E+001,1.82920E-002,3.93899E-001,0,1.55146E+002,-3.75192E+000,9.96008E-001,1.20154E+002,-3.26384E+001,9.94124E-001,1.91755E-001,-7.96590E-002,-2.73612E-003,1.91782E-001,-7.96866E-002,-5.77520E-001,1.92693E-001,1.21117E+000,-2.26565E-002,0.00000E+000,1.21823E-002,9.25604E-001,0.00000E+000,-1.05811E-003,-6.97628E-002,1.00000E+000,30
1159,1317,2.51160E+001,-6.74135E-001,-6.50054E-002,1.03291E+001,-1.95362E-001,-1.47442E-002,1.03309E+001,1.91050E-002,4.35642E-001,0,1.55186E+002,-4.41098E+000,9.96427E-001,1.20205E+002,-3.31275E+001,9.96254E-001,1.92965E-001,-7.96607E-002,-2.73826E-003,1.92993E-001,-7.96882E-002,-5.75404E-001,1.93966E-001,1.21264E+000,-2.26270E-002,0.00000E+000,1.21737E-002,9.25604E-001,0.00000E+000,-1.66814E-003,-6.97751E-002,1.00000E+000,30
1159,1327,2.51256E+001,-7.54120E-002,-9.17710E-002,1.03188E+001,-2.47394E-001,-5.42149E-002,1.03219E+001,1.29210E-002,4.23908E-001,0,1.55183E+002,-5.17636E+000,9.98245E-001,1.20366E+002,-3.37762E+001,9.97613E-001,1.94176E-001,-7.96629E-002,-2.73443E-003,1.94203E-001,-7.96902E-002,-5.72053E-001,1.95241E-001,1.21411E+000,-2.25825E-002,0.00000E+000,1.21651E-002,9.25604E-001,0.00000E+000,-2.27941E-003,-6.97935E-002,1.00000E+000,30
1159,1297,2.51108E+001,-1.86772E+000,6.96552E-002,1.03463E+001,-9.79381E-002,7.63414E-002,1.03471E+001,1.75424E-002,4.48755E-001,0,1.55070E+002,-2.99566E+000,9.97151E-001,1.20220E+002,-3.19525E+001,9.92973E-001,1.90550E-001,-7.96575E-002,-2.73066E-003,1.90578E-001,-7.96851E-002,-5.78941E-001,1.91427E-001,1.20971E+000,-2.26774E-002,0.00000E+000,1.21909E-002,9.25604E-001,0.00000E+000,-4.51928E-004,-6.97541E-002,1.00000E+000,30
1159,1337,2.51486E+001,5.23347E-001,-8.34733E-002,1.03122E+001,-3.06563E-001,-9.65850E-002,1.03172E+001,1.70326E-002,4.50789E-001,0,1.55236E+002,-6.04115E+000,9.99207E-001,1.20784E+002,-3.44831E+001,9.98963E-001,1.95394E-001,-7.96659E-002,-2.72218E-003,1.95421E-001,-7.96928E-002,-5.66963E-001,1.96525E-001,1.21559E+000,-2.25168E-002,0.00000E+000,1.21564E-002,9.25603E-001,0.00000E+000,-2.89546E-003,-6.98208E-002,1.00000E+000,30
1159,1347,2.51662E+001,1.13287E+000,-5.62007E-002,1.02972E+001,-3.55400E-001,-1.32390E-001,1.03041E+001,1.85145E-002,4.39999E-001,0,1.55128E+002,-6.76733E+000,9.98381E-001,1.21146E+002,-3.50882E+001,9.97675E-001,1.96610E-001,-7.96690E-002,-2.70728E-003,1.96636E-001,-7.96955E-002,-5.61374E-001,1.97809E-001,1.21707E+000,-2.24443E-002,0.00000E+000,1.21478E-002,9.25603E-001,0.00000E+000,-3.51128E-003,-6.98510E-002,1.00000E+000,30
689,1347,-1.19081E+001,4.97668E-001,3.18888E-002,3.90254E+000,-6.87949E-001,3.66046E-002,3.96288E+000,1.31297E-002,6.14717E-001,0,6.07455E+001,-1.13705E+001,9.98728E-001,1.76454E+001,-5.00743E+001,9.97967E-001,1.75425E-001,-7.45437E-002,-1.17585E-003,1.75431E-001,-7.45492E-002,-2.69509E-001,1.76088E-001,1.19176E+000,-5.47939E-004,0.00000E+000,-1.64843E-003,9.30730E-001,0.00000E+000,-1.91111E-003,-7.43771E-002,1.00000E+000,30
689,1357,-1.18969E+001,1.09060E+000,3.01638E-002,3.89561E+000,-7.39270E-001,-3.80167E-003,3.96514E+000,1.37894E-002,5.78306E-001,0,6.07544E+001,-1.20907E+001,9.98520E-001,1.79452E+001,-5.09700E+001,9.98343E-001,1.74208E-001,-7.45540E-002,-1.38071E-003,1.74215E-001,-7.45617E-002,-3.17997E-001,1.74817E-001,1.19031E+000,-5.88221E-004,0.00000E+000,-1.94667E-003,9.30722E-001,0.00000E+000,-2.69340E-003,-7.43989E-002,1.00000E+000,30
689,1337,-1.19183E+001,-9.08427E-002,5.57370E-002,3.90763E+000,-6.32068E-001,8.32692E-002,3.95930E+000,1.37700E-002,5.73020E-001,0,6.06862E+001,-1.05941E+001,9.98689E-001,1.74211E+001,-4.92000E+001,9.98856E-001,1.76643E-001,-7.45349E-002,-9.73289E-004,1.76647E-001,-7.45387E-002,-2.22011E-001,1.77363E-001,1.19321E+000,-5.13849E-004,0.00000E+000,-1.34962E-003,9.30738E-001,0.00000E+000,-1.12734E-003,-7.43587E-002,1.00000E+000,30
1169,1327,2.59236E+001,-6.48277E-002,-1.02358E-001,1.04551E+001,-2.42443E-001,-5.97850E-002,1.04581E+001,1.24408E-002,4.32876E-001,0,1.57125E+002,-5.11292E+000,9.98808E-001,1.22815E+002,-3.34846E+001,9.98240E-001,1.94796E-001,-7.99768E-002,-2.69796E-003,1.94822E-001,-8.00033E-002,-5.62508E-001,1.95856E-001,1.21489E+000,-2.14143E-002,0.00000E+000,1.14354E-002,9.25340E-001,0.00000E+000,-3.86262E-003,-7.00535E-002,1.00000E+000,30
1169,1337,2.59508E+001,5.43567E-001,-8.15885E-002,1.04507E+001,-2.92299E-001,-9.71138E-002,1.04552E+001,1.58414E-002,4.49666E-001,0,1.57183E+002,-5.85728E+000,9.99078E-001,1.23315E+002,-3.40723E+001,9.98525E-001,1.95991E-001,-7.99851E-002,-2.72640E-003,1.96018E-001,-8.00120E-002,-5.65957E-001,1.97117E-001,1.21634E+000,-2.13452E-002,0.00000E+000,1.13506E-002,9.25336E-001,0.00000E+000,-4.49367E-003,-7.00834E-002,1.00000E+000,30
1169,1347,2.59783E+001,1.14893E+000,-4.75890E-002,1.04434E+001,-3.46951E-001,-1.33679E-001,1.04500E+001,1.57963E-002,4.30593E-001,0,1.57194E+002,-6.66381E+000,9.98077E-001,1.23838E+002,-3.47584E+001,9.97832E-001,1.97187E-001,-7.99940E-002,-2.75227E-003,1.97214E-001,-8.00213E-002,-5.68844E-001,1.98379E-001,1.21780E+000,-2.12692E-002,0.00000E+000,1.12658E-002,9.25332E-001,0.00000E+000,-5.12579E-003,-7.01163E-002,1.00000E+000,30
689,1327,-1.19401E+001,-6.82085E-001,1.02199E-001,3.89544E+000,-5.87235E-001,1.21533E-001,3.94133E+000,1.50724E-002,6.39623E-001,0,6.03821E+001,-9.96593E+000,9.97568E-001,1.70786E+001,-4.83656E+001,9.97405E-001,1.77847E-001,-7.45294E-002,-7.77848E-004,1.77850E-001,-7.45318E-002,-1.76589E-001,1.78625E-001,1.19464E+000,-4.92362E-004,0.00000E+000,-1.05369E-003,9.30742E-001,0.00000E+000,-3.51119E-004,-7.43471E-002,1.00000E+000,30
1169,1317,2.59172E+001,-6.64372E-001,-6.43326E-002,1.04684E+001,-1.88844E-001,-1.08522E-002,1.04701E+001,2.31138E-002,3.55725E-001,0,1.57131E+002,-4.33706E+000,9.97737E-001,1.22722E+002,-3.29189E+001,9.97572E-001,1.93603E-001,-7.99709E-002,-2.65933E-003,1.93628E-001,-7.99968E-002,-5.56887E-001,1.94600E-001,1.21343E+000,-2.14575E-002,0.00000E+000,1.15197E-002,9.25343E-001,0.00000E+000,-3.23409E-003,-7.00348E-002,1.00000E+000,30
1169,1307,2.59101E+001,-1.26583E+000,-1.69847E-002,1.04759E+001,-1.44888E-001,2.80349E-002,1.04770E+001,1.86601E-002,4.17488E-001,0,1.57090E+002,-3.68025E+000,9.97781E-001,1.22631E+002,-3.23351E+001,9.96465E-001,1.92420E-001,-7.99660E-002,-2.61689E-003,1.92445E-001,-7.99911E-002,-5.50389E-001,1.93356E-001,1.21200E+000,-2.14897E-002,0.00000E+000,1.16032E-002,9.25345E-001,0.00000E+000,-2.61202E-003,-7.00208E-002,1.00000E+000,30
1169,1297,2.59136E+001,-1.85692E+000,6.87760E-002,1.04878E+001,-9.18899E-002,8.07947E-002,1.04885E+001,1.49696E-002,4.75677E-001,0,1.57044E+002,-2.94689E+000,9.98179E-001,1.22758E+002,-3.16741E+001,9.95148E-001,1.91235E-001,-7.99623E-002,-2.56905E-003,1.91260E-001,-7.99866E-002,-5.42698E-001,1.92111E-001,1.21056E+000,-2.15085E-002,0.00000E+000,1.16867E-002,9.25346E-001,0.00000E+000,-1.98996E-003,-7.00127E-002,1.00000E+000,30
689,1317,-1.19450E+001,-1.26337E+000,1.96078E-001,3.89442E+000,-5.35804E-001,1.74921E-001,3.93500E+000,1.73956E-002,5.98354E-001,0,6.02008E+001,-9.23482E+000,9.97509E-001,1.71259E+001,-4.75309E+001,9.95650E-001,1.79047E-001,-7.45272E-002,-5.88119E-004,1.79048E-001,-7.45286E-002,-1.32886E-001,1.79884E-001,1.19608E+000,-4.83731E-004,0.00000E+000,-7.58304E-004,9.30744E-001,0.00000E+000,4.23688E-004,-7.43424E-002,1.00000E+000,30
679,1347,-1.26829E+001,4.91073E-001,2.63252E-002,3.77008E+000,-6.86114E-001,3.25683E-002,3.83214E+000,2.08035E-002,5.98535E-001,0,5.87376E+001,-1.13444E+001,9.97914E-001,1.57630E+001,-5.02831E+001,9.97118E-001,1.73650E-001,-7.37743E-002,-1.19723E-003,1.73655E-001,-7.37801E-002,-2.77233E-001,1.74308E-001,1.18964E+000,8.77470E-004,0.00000E+000,-2.79189E-003,9.31414E-001,0.00000E+000,-2.01920E-003,-7.39449E-002,1.00000E+000,30
679,1357,-1.26546E+001,1.08593E+000,2.70357E-002,3.78181E+000,-7.36615E-001,2.79620E-003,3.85288E+000,1.01573E-002,5.98147E-001,0,5.90056E+001,-1.20570E+001,9.98706E-001,1.63325E+001,-5.11358E+001,9.98351E-001,1.72118E-001,-7.37900E-002,-1.54595E-003,1.72128E-001,-7.37997E-002,-3.60181E-001,1.72710E-001,1.18783E+000,8.31385E-004,0.00000E+000,-3.35456E-003,9.31400E-001,0.00000E+000,-2.84327E-003,-7.39658E-002,1.00000E+000,30
1179,1297,2.67060E+001,-1.85097E+000,4.30230E-002,1.06231E+001,-8.83257E-002,7.84973E-002,1.06238E+001,2.47124E-002,5.15635E-001,0,1.58958E+002,-2.92500E+000,9.98787E-001,1.25104E+002,-3.14128E+001,9.96302E-001,1.91720E-001,-8.01093E-002,-2.55608E-003,1.91744E-001,-8.01333E-002,-5.38703E-001,1.92603E-001,1.21117E+000,-2.06600E-002,0.00000E+000,1.11626E-002,9.25246E-001,0.00000E+000,-3.62723E-003,-7.04481E-002,1.00000E+000,30
1179,1307,2.67130E+001,-1.25832E+000,-2.74831E-002,1.06192E+001,-1.39088E-001,3.11051E-002,1.06201E+001,1.20564E-002,3.50049E-001,0,1.59096E+002,-3.61939E+000,9.98992E-001,1.25162E+002,-3.21329E+001,9.97502E-001,1.92812E-001,-8.01094E-002,-2.54065E-003,1.92836E-001,-8.01330E-002,-5.33310E-001,1.93751E-001,1.21249E+000,-2.06376E-002,0.00000E+000,1.11857E-002,9.25246E-001,0.00000E+000,-4.07253E-003,-7.04557E-002,1.00000E+000,30
1179,1317,2.67157E+001,-6.56202E-001,-1.08222E-001,1.06118E+001,-1.81451E-001,-2.24884E-002,1.06134E+001,2.64553E-002,3.29959E-001,0,1.59208E+002,-4.21819E+000,9.98940E-001,1.25138E+002,-3.26115E+001,9.98294E-001,1.93906E-001,-8.01095E-002,-2.52607E-003,1.93929E-001,-8.01328E-002,-5.28134E-001,1.94900E-001,1.21382E+000,-2.06170E-002,0.00000E+000,1.12088E-002,9.25246E-001,0.00000E+000,-4.51871E-003,-7.04626E-002,1.00000E+000,30
1179,1337,2.67578E+001,5.50969E-001,-9.39949E-002,1.05941E+001,-2.90214E-001,-1.09545E-001,1.05986E+001,1.34688E-002,4.43701E-001,0,1.59255E+002,-5.83694E+000,9.98659E-001,1.25904E+002,-3.38309E+001,9.97529E-001,1.96119E-001,-8.01098E-002,-2.46449E-003,1.96141E-001,-8.01318E-002,-5.11134E-001,1.97232E-001,1.21652E+000,-2.04959E-002,0.00000E+000,1.12557E-002,9.25248E-001,0.00000E+000,-5.42414E-003,-7.05032E-002,1.00000E+000,30
1179,1347,2.67986E+001,1.16400E+000,-4.69925E-002,1.05975E+001,-3.40062E-001,-1.42451E-001,1.06039E+001,1.29072E-002,4.37591E-001,0,1.59405E+002,-6.56759E+000,9.98758E-001,1.26652E+002,-3.44171E+001,9.98491E-001,1.97229E-001,-8.01101E-002,-2.42773E-003,1.97250E-001,-8.01313E-002,-5.01497E-001,1.98403E-001,1.21787E+000,-2.04203E-002,0.00000E+000,1.12792E-002,9.25250E-001,0.00000E+000,-5.87920E-003,-7.05286E-002,1.00000E+000,30
679,1327,-1.27068E+001,-6.88620E-001,1.12046E-001,3.77026E+000,-5.88018E-001,1.29403E-001,3.81803E+000,1.77146E-002,5.99726E-001,0,5.84548E+001,-9.96971E+000,9.96995E-001,1.53619E+001,-4.86136E+001,9.96548E-001,1.76680E-001,-7.37517E-002,-5.15490E-004,1.76681E-001,-7.37527E-002,-1.17937E-001,1.77482E-001,1.19325E+000,9.44568E-004,0.00000E+000,-1.67480E-003,9.31435E-001,0.00000E+000,-3.83125E-004,-7.39145E-002,1.00000E+000,30
679,1337,-1.26939E+001,-9.87797E-002,5.03585E-002,3.77447E+000,-6.34244E-001,8.07753E-002,3.82824E+000,2.03921E-002,5.82824E-001,0,5.86654E+001,-1.06062E+001,9.97697E-001,1.55264E+001,-4.94152E+001,9.97782E-001,1.75170E-001,-7.37597E-002,-8.51661E-004,1.75173E-001,-7.37626E-002,-1.96023E-001,1.75899E-001,1.19145E+000,9.20300E-004,0.00000E+000,-2.23202E-003,9.31428E-001,0.00000E+000,-1.19922E-003,-7.39255E-002,1.00000E+000,30
1179,1327,2.67285E+001,-6.03622E-002,-1.07619E-001,1.05988E+001,-2.40676E-001,-5.65582E-002,1.06017E+001,1.81067E-002,4.22413E-001,0,1.59138E+002,-5.14652E+000,9.98958E-001,1.25382E+002,-3.33088E+001,9.96562E-001,1.95010E-001,-8.01096E-002,-2.49858E-003,1.95032E-001,-8.01323E-002,-5.20292E-001,1.96063E-001,1.21516E+000,-2.05647E-002,0.00000E+000,1.12322E-002,9.25247E-001,0.00000E+000,-4.96999E-003,-7.04801E-002,1.00000E+000,30
679,1317,-1.27127E+001,-1.26949E+000,2.07889E-001,3.76826E+000,-5.36465E-001,1.85417E-001,3.81076E+000,1.47415E-002,6.33869E-001,0,5.82518E+001,-9.27810E+000,9.97863E-001,1.53988E+001,-4.77373E+001,9.96399E-001,1.78183E-001,-7.37484E-002,-1.85834E-004,1.78183E-001,-7.37485E-002,-4.22635E-002,1.79062E-001,1.19504E+000,9.55535E-004,0.00000E+000,-1.11911E-003,9.31438E-001,0.00000E+000,4.30725E-004,-7.39095E-002,1.00000E+000,30
669,1327,-1.34674E+001,-7.03249E-001,1.16984E-001,3.65143E+000,-5.95839E-001,1.36332E-001,3.70223E+000,1.22998E-002,5.86487E-001,0,5.66290E+001,-1.01038E+001,9.99062E-001,1.37280E+001,-4.89616E+001,9.98691E-001,1.75379E-001,-7.30949E-002,-1.65850E-004,1.75379E-001,-7.30950E-002,-3.82433E-002,1.76187E-001,1.19169E+000,3.25638E-003,0.00000E+000,-2.80895E-003,9.31994E-001,0.00000E+000,-5.26436E-004,-7.31860E-002,1.00000E+000,30
669,1337,-1.34575E+001,-1.05108E-001,5.80049E-002,3.65226E+000,-6.35726E-001,8.80920E-002,3.70822E+000,1.26056E-002,5.96342E-001,0,5.67828E+001,-1.06261E+001,9.98295E-001,1.38554E+001,-4.96305E+001,9.98249E-001,1.73503E-001,-7.31040E-002,-5.87387E-004,1.73505E-001,-7.31054E-002,-1.36470E-001,1.74219E-001,1.18946E+000,3.22511E-003,0.00000E+000,-3.52671E-003,9.31984E-001,0.00000E+000,-1.32461E-003,-7.31972E-002,1.00000E+000,30
669,1347,-1.34429E+001,4.83636E-001,2.06299E-002,3.65501E+000,-6.85922E-001,4.49480E-002,3.71909E+000,1.13581E-002,5.74652E-001,0,5.69527E+001,-1.13295E+001,9.98033E-001,1.41136E+001,-5.05065E+001,9.97880E-001,1.71624E-001,-7.31165E-002,-1.01307E-003,1.71628E-001,-7.31207E-002,-2.37162E-001,1.72252E-001,1.18723E+000,3.18391E-003,0.00000E+000,-4.24414E-003,9.31971E-001,0.00000E+000,-2.12244E-003,-7.32119E-002,1.00000E+000,30
669,1357,-1.34179E+001,1.08727E+000,2.81593E-002,3.66059E+000,-7.27697E-001,4.75311E-003,3.73222E+000,1.16155E-002,5.70287E-001,0,5.71498E+001,-1.19142E+001,9.98013E-001,1.46549E+001,-5.12436E+001,9.98044E-001,1.69729E-001,-7.31383E-002,-1.45189E-003,1.69738E-001,-7.31470E-002,-3.42505E-001,1.70277E-001,1.18499E+000,3.11702E-003,0.00000E+000,-4.96544E-003,9.31949E-001,0.00000E+000,-2.92456E-003,-7.32358E-002,1.00000E+000,30
1189,1337,2.75709E+001,5.61868E-001,-1.06227E-001,1.07426E+001,-2.86884E-001,-1.23486E-001,1.07472E+001,1.71411E-002,4.36188E-001,0,1.61405E+002,-5.76405E+000,9.98926E-001,1.28595E+002,-3.35358E+001,9.98016E-001,1.95745E-001,-8.04118E-002,-2.18546E-003,1.95762E-001,-8.04291E-002,-4.53393E-001,1.96796E-001,1.21608E+000,-1.96958E-002,0.00000E+000,1.12088E-002,9.24956E-001,0.00000E+000,-5.97362E-003,-7.03140E-002,1.00000E+000,30
669,1317,-1.34702E+001,-1.27867E+000,2.21017E-001,3.65130E+000,-5.39296E-001,1.93715E-001,3.69599E+000,1.50398E-002,6.02597E-001,0,5.64503E+001,-9.33968E+000,9.98939E-001,1.38372E+001,-4.80253E+001,9.98691E-001,1.77240E-001,-7.30937E-002,2.44169E-004,1.77241E-001,-7.30939E-002,5.58848E-002,1.78145E-001,1.19391E+000,3.26562E-003,0.00000E+000,-2.09511E-003,9.31997E-001,0.00000E+000,2.67398E-004,-7.31827E-002,1.00000E+000,30
1189,1297,2.75192E+001,-1.84371E+000,4.85035E-002,1.07685E+001,-8.72330E-002,6.74146E-002,1.07691E+001,1.67555E-002,4.54679E-001,0,1.61041E+002,-2.90256E+000,9.98652E-001,1.27823E+002,-3.12461E+001,9.96222E-001,1.92062E-001,-8.04061E-002,-2.20090E-003,1.92080E-001,-8.04239E-002,-4.62776E-001,1.92924E-001,1.21160E+000,-1.98277E-002,0.00000E+000,1.13090E-002,9.24959E-001,0.00000E+000,-5.54787E-003,-7.03015E-002,1.00000E+000,30
1189,1307,2.75118E+001,-1.25340E+000,-4.34848E-002,1.07547E+001,-1.41001E-001,1.65423E-002,1.07556E+001,1.37785E-002,4.30368E-001,0,1.61055E+002,-3.65897E+000,9.97812E-001,1.27626E+002,-3.18859E+001,9.97388E-001,1.92978E-001,-8.04069E-002,-2.20572E-003,1.92995E-001,-8.04247E-002,-4.62233E-001,1.93886E-001,1.21271E+000,-1.98164E-002,0.00000E+000,1.12841E-002,9.24959E-001,0.00000E+000,-5.65356E-003,-7.03026E-002,1.00000E+000,30
1189,1317,2.75313E+001,-6.37898E-001,-8.27363E-002,1.07546E+001,-1.78236E-001,-3.20734E-002,1.07561E+001,1.62601E-002,4.37914E-001,0,1.61240E+002,-4.16220E+000,9.98834E-001,1.27922E+002,-3.22292E+001,9.98814E-001,1.93901E-001,-8.04083E-002,-2.20176E-003,1.93918E-001,-8.04260E-002,-4.59849E-001,1.94856E-001,1.21383E+000,-1.97832E-002,0.00000E+000,1.12590E-002,9.24958E-001,0.00000E+000,-5.76023E-003,-7.03057E-002,1.00000E+000,30
1189,1327,2.75495E+001,-4.28430E-002,-9.87849E-002,1.07492E+001,-2.36099E-001,-7.35757E-002,1.07520E+001,1.92848E-002,4.47916E-001,0,1.61319E+002,-5.03140E+000,9.99061E-001,1.28227E+002,-3.29415E+001,9.98675E-001,1.94822E-001,-8.04099E-002,-2.19507E-003,1.94839E-001,-8.04274E-002,-4.56914E-001,1.95825E-001,1.21495E+000,-1.97432E-002,0.00000E+000,1.12340E-002,9.24957E-001,0.00000E+000,-5.86679E-003,-7.03095E-002,1.00000E+000,30
659,1327,-1.42250E+001,-6.90038E-001,1.22124E-001,3.53405E+000,-5.78090E-001,1.36736E-001,3.58362E+000,1.91684E-002,5.82356E-001,0,5.48340E+001,-9.80809E+000,9.98805E-001,1.21535E+001,-4.88771E+001,9.97283E-001,1.73794E-001,-7.26432E-002,-1.24647E-004,1.73794E-001,-7.26433E-002,-2.89801E-002,1.74571E-001,1.18980E+000,5.57627E-003,0.00000E+000,-4.52032E-003,9.32374E-001,0.00000E+000,-9.00566E-004,-7.26713E-002,1.00000E+000,30
659,1337,-1.41962E+001,-1.19398E-001,8.18415E-002,3.55384E+000,-6.45415E-001,1.06987E-001,3.61356E+000,2.85722E-002,6.49783E-001,0,5.52367E+001,-1.08305E+001,9.98358E-001,1.26149E+001,-4.99798E+001,9.98069E-001,1.71757E-001,-7.26507E-002,-5.48964E-004,1.71758E-001,-7.26519E-002,-1.28691E-001,1.72436E-001,1.18738E+000,5.54261E-003,0.00000E+000,-5.25197E-003,9.32363E-001,0.00000E+000,-1.61096E-003,-7.26811E-002,1.00000E+000,30
659,1347,-1.41867E+001,4.79616E-001,4.02406E-002,3.55139E+000,-6.85041E-001,5.86701E-002,3.61733E+000,1.68677E-002,6.23386E-001,0,5.53363E+001,-1.13575E+001,9.98831E-001,1.27855E+001,-5.06942E+001,9.98799E-001,1.69716E-001,-7.26618E-002,-9.77732E-004,1.69720E-001,-7.26657E-002,-2.31121E-001,1.70303E-001,1.18496E+000,5.49783E-003,0.00000E+000,-5.98292E-003,9.32350E-001,0.00000E+000,-2.32067E-003,-7.26943E-002,1.00000E+000,30
659,1357,-1.41725E+001,1.08744E+000,4.03752E-002,3.54686E+000,-7.21819E-001,1.42803E-002,3.61959E+000,1.19910E-002,5.88801E-001,0,5.53867E+001,-1.18399E+001,9.98316E-001,1.31433E+001,-5.13696E+001,9.98512E-001,1.67661E-001,-7.26812E-002,-1.41917E-003,1.67669E-001,-7.26895E-002,-3.38304E-001,1.68163E-001,1.18253E+000,5.42817E-003,0.00000E+000,-6.71749E-003,9.32329E-001,0.00000E+000,-3.03390E-003,-7.27147E-002,1.00000E+000,30
1199,1307,2.83191E+001,-1.24221E+000,-3.82542E-002,1.08951E+001,-1.37878E-001,1.12946E-002,1.08960E+001,1.79003E-002,4.34695E-001,0,1.63040E+002,-3.61199E+000,9.97950E-001,1.30257E+002,-3.16246E+001,9.97077E-001,1.92951E-001,-8.03549E-002,-1.78652E-003,1.92963E-001,-8.03666E-002,-3.74504E-001,1.93858E-001,1.21270E+000,-1.88046E-002,0.00000E+000,1.13577E-002,9.25007E-001,0.00000E+000,-6.53515E-003,-7.03355E-002,1.00000E+000,30
1199,1317,2.83282E+001,-6.41994E-001,-9.52116E-002,1.08870E+001,-1.87499E-001,-4.57192E-002,1.08887E+001,1.59327E-002,4.29422E-001,0,1.63149E+002,-4.30755E+000,9.97141E-001,1.30365E+002,-3.21729E+001,9.95640E-001,1.93746E-001,-8.03573E-002,-1.80035E-003,1.93758E-001,-8.03691E-002,-3.76304E-001,1.94694E-001,1.21366E+000,-1.87793E-002,0.00000E+000,1.12970E-002,9.25006E-001,0.00000E+000,-6.47368E-003,-7.03339E-002,1.00000E+000,30
1199,1327,2.83468E+001,-3.60849E-002,-1.28293E-001,1.08856E+001,-2.32516E-001,-8.96278E-002,1.08884E+001,1.65045E-002,4.10568E-001,0,1.63298E+002,-4.96357E+000,9.98020E-001,1.30653E+002,-3.26916E+001,9.96972E-001,1.94541E-001,-8.03599E-002,-1.81258E-003,1.94553E-001,-8.03719E-002,-3.77762E-001,1.95530E-001,1.21463E+000,-1.87499E-002,0.00000E+000,1.12364E-002,9.25004E-001,0.00000E+000,-6.41217E-003,-7.03320E-002,1.00000E+000,30
659,1317,-1.42392E+001,-1.28054E+000,1.97903E-001,3.52486E+000,-5.35695E-001,1.79867E-001,3.56986E+000,1.48774E-002,5.93492E-001,0,5.45621E+001,-9.21750E+000,9.97918E-001,1.20071E+001,-4.81149E+001,9.94945E-001,1.75815E-001,-7.26405E-002,2.91204E-004,1.75815E-001,-7.26408E-002,6.71538E-002,1.76697E-001,1.19220E+000,5.59528E-003,0.00000E+000,-3.79261E-003,9.32379E-001,0.00000E+000,-1.93994E-004,-7.26657E-002,1.00000E+000,30
1199,1337,2.83815E+001,5.74434E-001,-1.02346E-001,1.08855E+001,-2.82775E-001,-1.31597E-001,1.08900E+001,1.30612E-002,4.38926E-001,0,1.63439E+002,-5.70601E+000,9.98854E-001,1.31272E+002,-3.32460E+001,9.97669E-001,1.95343E-001,-8.03639E-002,-1.81635E-003,1.95355E-001,-8.03759E-002,-3.77442E-001,1.96374E-001,1.21560E+000,-1.86991E-002,0.00000E+000,1.11751E-002,9.25001E-001,0.00000E+000,-6.35001E-003,-7.03288E-002,1.00000E+000,30
1199,1297,2.83239E+001,-1.82587E+000,4.59903E-002,1.09072E+001,-7.68212E-002,5.70599E-002,1.09076E+001,1.38691E-002,4.22847E-001,0,1.63016E+002,-2.71501E+000,9.97640E-001,1.30404E+002,-3.08847E+001,9.96244E-001,1.92160E-001,-8.03534E-002,-1.76695E-003,1.92171E-001,-8.03649E-002,-3.71479E-001,1.93027E-001,1.21174E+000,-1.88154E-002,0.00000E+000,1.14180E-002,9.25008E-001,0.00000E+000,-6.59633E-003,-7.03362E-002,1.00000E+000,30
649,1347,-1.49553E+001,4.84912E-001,3.54757E-002,3.42280E+000,-6.75041E-001,4.96185E-002,3.48908E+000,1.69018E-002,6.51984E-001,0,5.33918E+001,-1.11714E+001,9.98092E-001,1.10182E+001,-5.06994E+001,9.97000E-001,1.67641E-001,-7.20235E-002,-8.74164E-004,1.67644E-001,-7.20267E-002,-2.08980E-001,1.68197E-001,1.18249E+000,8.08367E-003,0.00000E+000,-7.80971E-003,9.32889E-001,0.00000E+000,-2.65007E-003,-7.20661E-002,1.00000E+000,30
649,1357,-1.49343E+001,1.08474E+000,4.53639E-002,3.42579E+000,-7.18756E-001,1.75087E-002,3.50042E+000,1.13355E-002,5.99168E-001,0,5.35262E+001,-1.17888E+001,9.98651E-001,1.15082E+001,-5.15289E+001,9.98193E-001,1.65303E-001,-7.20399E-002,-1.30375E-003,1.65310E-001,-7.20471E-002,-3.14719E-001,1.65764E-001,1.17973E+000,8.00725E-003,0.00000E+000,-8.51894E-003,9.32869E-001,0.00000E+000,-3.42713E-003,-7.20876E-002,1.00000E+000,30
649,1337,-1.49757E+001,-1.08715E-001,7.07011E-002,3.41415E+000,-6.28507E-001,9.05179E-002,3.47270E+000,1.79213E-002,6.33087E-001,0,5.31393E+001,-1.05253E+001,9.98496E-001,1.06652E+001,-4.99108E+001,9.97742E-001,1.69970E-001,-7.20148E-002,-4.56421E-004,1.69971E-001,-7.20157E-002,-1.08068E-001,1.70630E-001,1.18525E+000,8.13341E-003,0.00000E+000,-7.10119E-003,9.32901E-001,0.00000E+000,-1.87377E-003,-7.20520E-002,1.00000E+000,30
649,1327,-1.49958E+001,-6.82524E-001,1.19455E-001,3.40252E+000,-5.66760E-001,1.26630E-001,3.45173E+000,1.40735E-002,6.05307E-001,0,5.28475E+001,-9.59625E+000,9.99106E-001,1.03586E+001,-4.88522E+001,9.98758E-001,1.72281E-001,-7.20099E-002,-4.66002E-005,1.72281E-001,-7.20099E-002,-1.09295E-002,1.73052E-001,1.18799E+000,8.16947E-003,0.00000E+000,-6.39623E-003,9.32911E-001,0.00000E+000,-1.10137E-003,-7.20419E-002,1.00000E+000,30
1209,1307,2.91245E+001,-1.22742E+000,-4.58167E-002,1.10338E+001,-1.29882E-001,-4.13547E-003,1.10346E+001,1.38961E-002,4.37155E-001,0,1.65036E+002,-3.48171E+000,9.98301E-001,1.32846E+002,-3.12808E+001,9.97058E-001,1.92510E-001,-7.99047E-002,-1.32472E-003,1.92517E-001,-7.99111E-002,-2.78613E-001,1.93440E-001,1.21218E+000,-1.76907E-002,0.00000E+000,1.14001E-002,9.25398E-001,0.00000E+000,-6.77659E-003,-6.99672E-002,1.00000E+000,30
1209,1317,2.91344E+001,-6.33393E-001,-9.65699E-002,1.10282E+001,-1.84896E-001,-4.79143E-002,1.10298E+001,1.58485E-002,4.25314E-001,0,1.65133E+002,-4.28635E+000,9.98223E-001,1.32973E+002,-3.19405E+001,9.95847E-001,1.93332E-001,-7.99061E-002,-1.32918E-003,1.93339E-001,-7.99126E-002,-2.78709E-001,1.94305E-001,1.21318E+000,-1.76671E-002,0.00000E+000,1.13478E-002,9.25397E-001,0.00000E+000,-6.54862E-003,-6.99618E-002,1.00000E+000,30
1209,1327,2.91634E+001,-2.06488E-002,-1.17235E-001,1.10325E+001,-2.25355E-001,-9.70623E-002,1.10352E+001,1.53731E-002,3.95168E-001,0,1.65380E+002,-4.86517E+000,9.98502E-001,1.33440E+002,-3.23830E+001,9.97348E-001,1.94156E-001,-7.99081E-002,-1.32808E-003,1.94163E-001,-7.99146E-002,-2.77640E-001,1.95172E-001,1.21418E+000,-1.76296E-002,0.00000E+000,1.12954E-002,9.25395E-001,0.00000E+000,-6.31987E-003,-6.99532E-002,1.00000E+000,30
1209,1337,2.91952E+001,5.86691E-001,-9.20056E-002,1.10290E+001,-2.80277E-001,-1.40767E-001,1.10334E+001,1.51683E-002,4.49488E-001,0,1.65479E+002,-5.67146E+000,9.98353E-001,1.34009E+002,-3.29714E+001,9.96591E-001,1.94988E-001,-7.99108E-002,-1.32068E-003,1.94995E-001,-7.99171E-002,-2.75253E-001,1.96048E-001,1.21519E+000,-1.75762E-002,0.00000E+000,1.12424E-002,9.25392E-001,0.00000E+000,-6.08871E-003,-6.99410E-002,1.00000E+000,30
1209,1297,2.91303E+001,-1.81307E+000,3.76798E-002,1.10488E+001,-6.90957E-002,4.77576E-002,1.10491E+001,1.26744E-002,4.04323E-001,0,1.65031E+002,-2.59930E+000,9.98304E-001,1.33006E+002,-3.05824E+001,9.96516E-001,1.91689E-001,-7.99036E-002,-1.31639E-003,1.91695E-001,-7.99100E-002,-2.77701E-001,1.92577E-001,1.21119E+000,-1.77048E-002,0.00000E+000,1.14522E-002,9.25399E-001,0.00000E+000,-7.00412E-003,-6.99704E-002,1.00000E+000,30
649,1317,-1.50007E+001,-1.27532E+000,2.02240E-001,3.40130E+000,-5.27890E-001,1.69300E-001,3.44619E+000,1.18396E-002,6.03644E-001,0,5.27020E+001,-9.05542E+000,9.98543E-001,1.03743E+001,-4.81432E+001,9.98223E-001,1.74580E-001,-7.20107E-002,3.53474E-004,1.74580E-001,-7.20112E-002,8.21301E-002,1.75469E-001,1.19072E+000,8.18524E-003,0.00000E+000,-5.69327E-003,9.32915E-001,0.00000E+000,-3.31176E-004,-7.20374E-002,1.00000E+000,30
639,1347,-1.57194E+001,4.91285E-001,3.45690E-002,3.29952E+000,-6.62435E-001,5.04747E-002,3.36574E+000,1.71524E-002,6.12614E-001,0,5.14994E+001,-1.09434E+001,9.97407E-001,9.33857E+000,-5.07299E+001,9.96614E-001,1.65712E-001,-7.11955E-002,-7.88063E-004,1.65715E-001,-7.11981E-002,-1.90589E-001,1.66261E-001,1.18019E+000,1.10167E-002,0.00000E+000,-9.95217E-003,9.33580E-001,0.00000E+000,-3.03070E-003,-7.11616E-002,1.00000E+000,30
639,1357,-1.56958E+001,1.09463E+000,4.29748E-002,3.30507E+000,-7.03250E-001,1.58230E-002,3.37910E+000,1.14334E-002,5.92922E-001,0,5.16794E+001,-1.15160E+001,9.98290E-001,9.86632E+000,-5.14872E+001,9.98135E-001,1.63179E-001,-7.12095E-002,-1.20511E-003,1.63185E-001,-7.12157E-002,-2.94575E-001,1.63625E-001,1.17721E+000,1.09341E-002,0.00000E+000,-1.06320E-002,9.33561E-001,0.00000E+000,-3.94396E-003,-7.11869E-002,1.00000E+000,30
639,1317,-1.57548E+001,-1.28412E+000,2.25317E-001,3.28507E+000,-5.35319E-001,1.79178E-001,3.33322E+000,1.57522E-002,6.75662E-001,0,5.09000E+001,-9.18652E+000,9.98403E-001,8.90894E+000,-4.83951E+001,9.97403E-001,1.73205E-001,-7.11923E-002,3.89078E-004,1.73206E-001,-7.11930E-002,9.12139E-002,1.74117E-001,1.18906E+000,1.11130E-002,0.00000E+000,-7.92892E-003,9.33602E-001,0.00000E+000,-3.12651E-004,-7.11321E-002,1.00000E+000,30
639,1327,-1.57482E+001,-7.02301E-001,1.35231E-001,3.28939E+000,-5.81782E-001,1.36964E-001,3.34325E+000,1.16469E-002,6.15487E-001,0,5.10946E+001,-9.84854E+000,9.98741E-001,8.89558E+000,-4.92901E+001,9.97993E-001,1.70730E-001,-7.11879E-002,8.18957E-006,1.70730E-001,-7.11879E-002,1.93962E-003,1.71513E-001,1.18612E+000,1.11026E-002,0.00000E+000,-8.59931E-003,9.33600E-001,0.00000E+000,-1.21325E-003,-7.11352E-002,1.00000E+000,30
639,1337,-1.57389E+001,-1.04494E-001,6.39831E-002,3.29208E+000,-6.19759E-001,8.87822E-002,3.35109E+000,1.42436E-002,6.58162E-001,0,5.12750E+001,-1.03545E+001,9.98112E-001,8.98012E+000,-4.99276E+001,9.97530E-001,1.68225E-001,-7.11885E-002,-3.84518E-004,1.68226E-001,-7.11891E-002,-9.20214E-002,1.68886E-001,1.18316E+000,1.10722E-002,0.00000E+000,-9.27562E-003,9.33593E-001,0.00000E+000,-2.12183E-003,-7.11446E-002,1.00000E+000,30
1219,1317,2.99467E+001,-6.21383E-001,-9.68203E-002,1.11714E+001,-1.83204E-001,-6.27433E-002,1.11731E+001,1.91902E-002,4.76444E-001,0,1.67191E+002,-4.24375E+000,9.98286E-001,1.35683E+002,-3.16294E+001,9.95873E-001,1.92690E-001,-7.98649E-002,-7.51819E-004,1.92692E-001,-7.98670E-002,-1.58044E-001,1.93629E-001,1.21242E+000,-1.62263E-002,0.00000E+000,1.13299E-002,9.25382E-001,0.00000E+000,-6.42484E-003,-6.91584E-002,1.00000E+000,30
1219,1327,2.99721E+001,-9.15881E-003,-1.18436E-001,1.11741E+001,-2.22136E-001,-1.04866E-001,1.11768E+001,9.59247E-003,4.20238E-001,0,1.67388E+002,-4.81954E+000,9.99248E-001,1.36092E+002,-3.20898E+001,9.98362E-001,1.93479E-001,-7.98651E-002,-7.35413E-004,1.93480E-001,-7.98671E-002,-1.54149E-001,1.94459E-001,1.21337E+000,-1.61932E-002,0.00000E+000,1.12930E-002,9.25381E-001,0.00000E+000,-5.91506E-003,-6.91408E-002,1.00000E+000,30
1219,1337,3.00079E+001,6.03272E-001,-9.27362E-002,1.11736E+001,-2.72539E-001,-1.50644E-001,1.11780E+001,1.42715E-002,4.86986E-001,0,1.67539E+002,-5.56015E+000,9.98532E-001,1.36721E+002,-3.25919E+001,9.97144E-001,1.94277E-001,-7.98654E-002,-7.11090E-004,1.94279E-001,-7.98672E-002,-1.48617E-001,1.95300E-001,1.21434E+000,-1.61407E-002,0.00000E+000,1.12557E-002,9.25379E-001,0.00000E+000,-5.39835E-003,-6.91127E-002,1.00000E+000,30
1219,1297,2.99410E+001,-1.80100E+000,3.03383E-002,1.11930E+001,-6.41131E-002,3.52840E-002,1.11933E+001,1.38077E-002,3.76482E-001,0,1.67095E+002,-2.49324E+000,9.98341E-001,1.35682E+002,-3.02980E+001,9.96464E-001,1.91109E-001,-7.98646E-002,-7.74040E-004,1.91111E-001,-7.98668E-002,-1.63664E-001,1.91968E-001,1.21051E+000,-1.62663E-002,0.00000E+000,1.14036E-002,9.25384E-001,0.00000E+000,-7.44465E-003,-6.91798E-002,1.00000E+000,30
1219,1307,2.99417E+001,-1.21212E+000,-3.68403E-002,1.11820E+001,-1.23363E-001,-9.84110E-003,1.11827E+001,1.78693E-002,4.07526E-001,0,1.67127E+002,-3.36517E+000,9.98299E-001,1.35644E+002,-3.09798E+001,9.95714E-001,1.91899E-001,-7.98647E-002,-7.64076E-004,1.91901E-001,-7.98669E-002,-1.61088E-001,1.92797E-001,1.21146E+000,-1.62491E-002,0.00000E+000,1.13668E-002,9.25383E-001,0.00000E+000,-6.93537E-003,-6.91706E-002,1.00000E+000,30
629,1347,-1.64760E+001,4.84996E-001,3.06404E-002,3.18374E+000,-6.62358E-001,5.09756E-002,3.25231E+000,1.56260E-002,6.02240E-001,0,4.97257E+001,-1.09226E+001,9.96903E-001,7.76618E+000,-5.09332E+001,9.96252E-001,1.64095E-001,-7.15346E-002,-7.64744E-004,1.64098E-001,-7.15371E-002,-1.85953E-001,1.64546E-001,1.17825E+000,1.40861E-002,0.00000E+000,-1.23405E-002,9.33205E-001,0.00000E+000,-3.01365E-003,-7.07165E-002,1.00000E+000,30
629,1357,-1.64469E+001,1.08902E+000,4.47698E-002,3.19461E+000,-7.02586E-001,2.02161E-002,3.27102E+000,1.31188E-002,5.86696E-001,0,4.99771E+001,-1.14967E+001,9.97342E-001,8.39537E+000,-5.16916E+001,9.96994E-001,1.61654E-001,-7.15406E-002,-9.81428E-004,1.61659E-001,-7.15447E-002,-2.41130E-001,1.62014E-001,1.17538E+000,1.40064E-002,0.00000E+000,-1.26553E-002,9.33196E-001,0.00000E+000,-3.86649E-003,-7.07402E-002,1.00000E+000,30
629,1327,-1.65049E+001,-7.00734E-001,1.33593E-001,3.17302E+000,-5.74441E-001,1.37637E-001,3.22753E+000,1.22814E-002,5.88088E-001,0,4.93108E+001,-9.70868E+000,9.97903E-001,7.33054E+000,-4.93823E+001,9.97505E-001,1.68932E-001,-7.15334E-002,-3.67038E-004,1.68933E-001,-7.15339E-002,-8.74541E-002,1.69591E-001,1.18396E+000,1.41658E-002,0.00000E+000,-1.17139E-002,9.33214E-001,0.00000E+000,-1.31631E-003,-7.06928E-002,1.00000E+000,30
629,1337,-1.64906E+001,-1.10136E-001,6.41973E-002,3.18070E+000,-6.19323E-001,9.08438E-002,3.24171E+000,1.41684E-002,6.32266E-001,0,4.95659E+001,-1.03293E+001,9.97662E-001,7.49472E+000,-5.01351E+001,9.97400E-001,1.66518E-001,-7.15325E-002,-5.61277E-004,1.66519E-001,-7.15338E-002,-1.35092E-001,1.67068E-001,1.18111E+000,1.41367E-002,0.00000E+000,-1.20271E-002,9.33211E-001,0.00000E+000,-2.16476E-003,-7.07014E-002,1.00000E+000,30
1229,1317,3.07607E+001,-5.98709E-001,-1.08773E-001,1.13189E+001,-1.66911E-001,-7.75893E-002,1.13204E+001,1.99541E-002,4.66526E-001,0,1.69307E+002,-3.98371E+000,9.98216E-001,1.38409E+002,-3.11574E+001,9.96926E-001,1.92316E-001,-7.94679E-002,-8.76506E-005,1.92316E-001,-7.94679E-002,-1.84779E-002,1.93279E-001,1.21198E+000,-1.47768E-002,0.00000E+000,1.14320E-002,9.25711E-001,0.00000E+000,-5.72845E-003,-6.85786E-002,1.00000E+000,30
1229,1327,3.07786E+001,-1.89255E-003,-1.21779E-001,1.13135E+001,-2.24539E-001,-1.12421E-001,1.13162E+001,1.26964E-002,4.71074E-001,0,1.69362E+002,-4.84641E+000,9.98648E-001,1.38709E+002,-3.18452E+001,9.97509E-001,1.93022E-001,-7.94650E-002,-4.14215E-005,1.93022E-001,-7.94650E-002,-8.70971E-003,1.94023E-001,1.21283E+000,-1.47465E-002,0.00000E+000,1.14487E-002,9.25711E-001,0.00000E+000,-5.11580E-003,-6.85568E-002,1.00000E+000,30
1229,1337,3.08170E+001,6.15792E-001,-1.03460E-001,1.13184E+001,-2.64678E-001,-1.54443E-001,1.13226E+001,1.35029E-002,4.33776E-001,0,1.69578E+002,-5.44423E+000,9.97994E-001,1.39368E+002,-3.22993E+001,9.96882E-001,1.93727E-001,-7.94613E-002,1.01121E-005,1.93727E-001,-7.94613E-002,2.12080E-003,1.94767E-001,1.21368E+000,-1.47032E-002,0.00000E+000,1.14655E-002,9.25712E-001,0.00000E+000,-4.50206E-003,-6.85257E-002,1.00000E+000,30
629,1317,-1.65183E+001,-1.28104E+000,2.30412E-001,3.16161E+000,-5.26281E-001,1.85478E-001,3.21047E+000,1.37039E-002,6.28767E-001,0,4.89907E+001,-9.03071E+000,9.98185E-001,7.25917E+000,-4.84871E+001,9.97525E-001,1.71321E-001,-7.15369E-002,-1.82633E-004,1.71321E-001,-7.15370E-002,-4.30873E-002,1.72096E-001,1.18679E+000,1.41749E-002,0.00000E+000,-1.14031E-002,9.33215E-001,0.00000E+000,-4.74348E-004,-7.06901E-002,1.00000E+000,30
1229,1297,3.07510E+001,-1.78578E+000,2.47198E-002,1.13361E+001,-5.62789E-002,2.46637E-002,1.13363E+001,1.54428E-002,4.30188E-001,0,1.69129E+002,-2.38288E+000,9.97508E-001,1.38353E+002,-2.99277E+001,9.94832E-001,1.90910E-001,-7.94718E-002,-1.69473E-004,1.90910E-001,-7.94719E-002,-3.59125E-002,1.91800E-001,1.21028E+000,-1.48118E-002,0.00000E+000,1.13988E-002,9.25710E-001,0.00000E+000,-6.94728E-003,-6.86038E-002,1.00000E+000,30
1229,1307,3.07640E+001,-1.18837E+000,-3.28734E-002,1.13388E+001,-1.05935E-001,-5.57765E-003,1.13393E+001,2.27841E-002,4.36999E-001,0,1.69299E+002,-3.13897E+000,9.96968E-001,1.38521E+002,-3.05068E+001,9.95502E-001,1.91612E-001,-7.94701E-002,-1.30234E-004,1.91612E-001,-7.94702E-002,-2.75261E-002,1.92539E-001,1.21113E+000,-1.47983E-002,0.00000E+000,1.14154E-002,9.25710E-001,0.00000E+000,-6.33891E-003,-6.85940E-002,1.00000E+000,30
619,1327,-1.72639E+001,-7.00910E-001,1.35494E-001,3.05360E+000,-5.69083E-001,1.40529E-001,3.10935E+000,1.00982E-002,5.73428E-001,0,4.74713E+001,-9.61025E+000,9.97968E-001,5.74353E+000,-4.95030E+001,9.98023E-001,1.67537E-001,-7.08976E-002,-6.16008E-004,1.67539E-001,-7.08992E-002,-1.48025E-001,1.68197E-001,1.18227E+000,1.73644E-002,0.00000E+000,-1.47054E-002,9.33756E-001,0.00000E+000,-1.52313E-003,-7.05598E-002,1.00000E+000,30
619,1337,-1.72454E+001,-1.09127E-001,7.12694E-002,3.06476E+000,-6.13174E-001,9.43007E-002,3.12692E+000,1.21827E-002,6.27273E-001,0,4.77774E+001,-1.02258E+001,9.96535E-001,5.98641E+000,-5.02453E+001,9.96662E-001,1.65000E-001,-7.08968E-002,-7.08090E-004,1.65002E-001,-7.08990E-002,-1.71982E-001,1.65545E-001,1.17927E+000,1.73309E-002,0.00000E+000,-1.48400E-002,9.33754E-001,0.00000E+000,-2.23298E-003,-7.05678E-002,1.00000E+000,30
619,1347,-1.72258E+001,4.88557E-001,2.92934E-002,3.07417E+000,-6.52458E-001,5.32297E-002,3.14309E+000,1.46790E-002,6.05656E-001,0,4.80389E+001,-1.07616E+001,9.96432E-001,6.31178E+000,-5.09830E+001,9.96045E-001,1.62457E-001,-7.08969E-002,-8.05640E-004,1.62460E-001,-7.08997E-002,-1.97807E-001,1.62897E-001,1.17628E+000,1.72842E-002,0.00000E+000,-1.49746E-002,9.33752E-001,0.00000E+000,-2.94243E-003,-7.05788E-002,1.00000E+000,30
619,1357,-1.71973E+001,1.09267E+000,3.67491E-002,3.08569E+000,-6.91445E-001,2.15018E-002,3.16229E+000,1.31212E-002,5.92680E-001,0,4.83031E+001,-1.13166E+001,9.97826E-001,6.91615E+000,-5.17261E+001,9.97632E-001,1.59896E-001,-7.08990E-002,-9.16733E-004,1.59899E-001,-7.09026E-002,-2.27578E-001,1.60240E-001,1.17328E+000,1.72064E-002,0.00000E+000,-1.51097E-002,9.33749E-001,0.00000E+000,-3.65493E-003,-7.05973E-002,1.00000E+000,30
619,1317,-1.72745E+001,-1.27754E+000,2.30578E-001,3.04513E+000,-5.15803E-001,1.87139E-001,3.09417E+000,1.68339E-002,6.12687E-001,0,4.72001E+001,-8.87409E+000,9.97276E-001,5.71255E+000,-4.85460E+001,9.97053E-001,1.70054E-001,-7.08999E-002,-5.34286E-004,1.70055E-001,-7.09011E-002,-1.27046E-001,1.70836E-001,1.18524E+000,1.73742E-002,0.00000E+000,-1.45715E-002,9.33756E-001,0.00000E+000,-8.17036E-004,-7.05575E-002,1.00000E+000,30
1239,1307,3.15618E+001,-1.18009E+000,-5.38133E-002,1.14713E+001,-1.02372E-001,-2.32825E-002,1.14718E+001,2.37994E-002,4.52483E-001,0,1.71208E+002,-3.08621E+000,9.96666E-001,1.40986E+002,-3.02305E+001,9.94885E-001,1.91000E-001,-7.87560E-002,1.60395E-004,1.91000E-001,-7.87561E-002,3.40676E-002,1.91976E-001,1.21040E+000,-1.37221E-002,0.00000E+000,1.11499E-002,9.26338E-001,0.00000E+000,-6.31498E-003,-6.80154E-002,1.00000E+000,30
1239,1317,3.15725E+001,-5.76091E-001,-1.19609E-001,1.14657E+001,-1.48193E-001,-8.38883E-002,1.14669E+001,2.28943E-002,4.42773E-001,0,1.71376E+002,-3.72038E+000,9.97205E-001,1.41108E+002,-3.06962E+001,9.96193E-001,1.91789E-001,-7.87476E-002,2.89677E-004,1.91789E-001,-7.87479E-002,6.13494E-002,1.92808E-001,1.21135E+000,-1.36984E-002,0.00000E+000,1.13023E-002,9.26342E-001,0.00000E+000,-5.30836E-003,-6.79902E-002,1.00000E+000,30
1239,1327,3.15937E+001,2.03337E-002,-1.11426E-001,1.14587E+001,-2.11149E-001,-1.14858E-001,1.14612E+001,1.76676E-002,5.08087E-001,0,1.71387E+002,-4.66934E+000,9.97659E-001,1.41482E+002,-3.14045E+001,9.96738E-001,1.92584E-001,-7.87348E-002,4.27130E-004,1.92584E-001,-7.87355E-002,9.01990E-002,1.93649E-001,1.21231E+000,-1.36575E-002,0.00000E+000,1.14563E-002,9.26348E-001,0.00000E+000,-4.29103E-003,-6.79468E-002,1.00000E+000,30
1239,1337,3.16184E+001,6.35048E-001,-9.96114E-002,1.14535E+001,-2.51515E-001,-1.49490E-001,1.14572E+001,1.50448E-002,4.19570E-001,0,1.71426E+002,-5.27580E+000,9.97006E-001,1.41918E+002,-3.19161E+001,9.94934E-001,1.93372E-001,-7.87215E-002,5.64640E-004,1.93373E-001,-7.87227E-002,1.18898E-001,1.94482E-001,1.21326E+000,-1.36140E-002,0.00000E+000,1.16092E-002,9.26355E-001,0.00000E+000,-3.28104E-003,-6.79008E-002,1.00000E+000,30
1239,1297,3.15586E+001,-1.77311E+000,2.50639E-002,1.14774E+001,-4.86994E-002,2.42134E-002,1.14776E+001,1.45759E-002,4.64124E-001,0,1.71091E+002,-2.31459E+000,9.97580E-001,1.40998E+002,-2.96205E+001,9.95674E-001,1.90211E-001,-7.87621E-002,3.54245E-005,1.90211E-001,-7.87621E-002,7.54601E-003,1.91145E-001,1.20945E+000,-1.37359E-002,0.00000E+000,1.09979E-002,9.26336E-001,0.00000E+000,-7.31919E-003,-6.80300E-002,1.00000E+000,30
609,1347,-1.79756E+001,4.86958E-001,3.15154E-002,2.96337E+000,-6.48952E-001,5.36396E-002,3.03406E+000,1.84424E-002,6.33126E-001,0,4.63367E+001,-1.07018E+001,9.96030E-001,4.87303E+000,-5.11081E+001,9.95930E-001,1.60892E-001,-6.95091E-002,-1.08196E-003,1.60898E-001,-6.95142E-002,-2.69052E-001,1.61392E-001,1.17439E+000,2.02367E-002,0.00000E+000,-1.78911E-002,9.34929E-001,0.00000E+000,-2.76401E-003,-6.95189E-002,1.00000E+000,30
609,1357,-1.79495E+001,1.09751E+000,3.07162E-002,2.97348E+000,-6.80388E-001,1.90112E-002,3.05039E+000,1.46208E-002,6.03881E-001,0,4.65851E+001,-1.11249E+001,9.97600E-001,5.41912E+000,-5.17447E+001,9.97282E-001,1.58275E-001,-6.95099E-002,-1.15605E-003,1.58281E-001,-6.95158E-002,-2.90777E-001,1.58671E-001,1.17133E+000,2.01625E-002,0.00000E+000,-1.79538E-002,9.34927E-001,0.00000E+000,-3.67980E-003,-6.95411E-002,1.00000E+000,30
609,1317,-1.80354E+001,-1.28146E+000,2.26950E-001,2.92291E+000,-5.14158E-001,1.81704E-001,2.97334E+000,1.67685E-002,6.26766E-001,0,4.53388E+001,-8.84029E+000,9.97761E-001,4.08580E+000,-4.86967E+001,9.96917E-001,1.68664E-001,-6.95124E-002,-9.15933E-004,1.68667E-001,-6.95159E-002,-2.20333E-001,1.69533E-001,1.18355E+000,2.03273E-002,0.00000E+000,-1.77037E-002,9.34931E-001,0.00000E+000,-2.81471E-005,-6.94918E-002,1.00000E+000,30
609,1327,-1.80201E+001,-7.06843E-001,1.33655E-001,2.93660E+000,-5.70501E-001,1.39778E-001,2.99477E+000,1.20621E-002,6.28612E-001,0,4.56788E+001,-9.62981E+000,9.98150E-001,4.19248E+000,-4.96692E+001,9.97567E-001,1.66085E-001,-6.95103E-002,-9.61778E-004,1.66089E-001,-6.95142E-002,-2.33895E-001,1.66822E-001,1.18050E+000,2.03197E-002,0.00000E+000,-1.77660E-002,9.34931E-001,0.00000E+000,-9.38785E-004,-6.94941E-002,1.00000E+000,30
609,1337,-1.79982E+001,-1.08523E-001,7.14783E-002,2.95120E+000,-6.06356E-001,9.51250E-002,3.01435E+000,1.51028E-002,6.15405E-001,0,4.60313E+001,-1.01101E+001,9.96462E-001,4.49521E+000,-5.03503E+001,9.96286E-001,1.63497E-001,-6.95094E-002,-1.01864E-003,1.63502E-001,-6.95139E-002,-2.50476E-001,1.64111E-001,1.17745E+000,2.02857E-002,0.00000E+000,-1.78285E-002,9.34930E-001,0.00000E+000,-1.84979E-003,-6.95043E-002,1.00000E+000,30
1249,1297,3.23694E+001,-1.75435E+000,3.00434E-002,1.16199E+001,-3.70108E-002,2.27245E-002,1.16200E+001,1.68128E-002,5.08932E-001,0,1.73067E+002,-2.16898E+000,9.97802E-001,1.43702E+002,-2.92226E+001,9.96198E-001,1.89102E-001,-7.79623E-002,2.52812E-004,1.89103E-001,-7.79625E-002,5.42379E-002,1.90070E-001,1.20814E+000,-1.21339E-002,0.00000E+000,1.02379E-002,9.27051E-001,0.00000E+000,-7.95609E-003,-6.74656E-002,1.00000E+000,30
1249,1307,3.23655E+001,-1.16738E+000,-6.08966E-002,1.16091E+001,-9.50754E-002,-2.73891E-002,1.16096E+001,2.12694E-002,4.69936E-001,0,1.73134E+002,-2.99744E+000,9.97692E-001,1.43566E+002,-2.99138E+001,9.95519E-001,1.90102E-001,-7.79489E-002,5.76159E-004,1.90103E-001,-7.79502E-002,1.23153E-001,1.91126E-001,1.20933E+000,-1.21211E-002,0.00000E+000,1.07297E-002,9.27056E-001,0.00000E+000,-6.43880E-003,-6.74493E-002,1.00000E+000,30
1249,1317,3.23738E+001,-5.68962E-001,-1.09246E-001,1.16020E+001,-1.45795E-001,-6.67123E-002,1.16031E+001,2.05130E-002,4.29049E-001,0,1.73193E+002,-3.74283E+000,9.96006E-001,1.43669E+002,-3.05186E+001,9.94316E-001,1.91101E-001,-7.79272E-002,9.06741E-004,1.91104E-001,-7.79303E-002,1.93109E-001,1.92184E-001,1.21053E+000,-1.20926E-002,0.00000E+000,1.12231E-002,9.27068E-001,0.00000E+000,-4.91653E-003,-6.74132E-002,1.00000E+000,30
1249,1327,3.23904E+001,4.34368E-002,-1.23589E-001,1.15931E+001,-1.89644E-001,-1.09989E-001,1.15952E+001,1.92047E-002,4.56298E-001,0,1.73224E+002,-4.38438E+000,9.96252E-001,1.43945E+002,-3.09470E+001,9.95399E-001,1.92104E-001,-7.78954E-002,1.24704E-003,1.92109E-001,-7.79012E-002,2.64624E-001,1.93250E-001,1.21174E+000,-1.20456E-002,0.00000E+000,1.17201E-002,9.27087E-001,0.00000E+000,-3.38312E-003,-6.73535E-002,1.00000E+000,30
1249,1337,3.24180E+001,6.57819E-001,-1.05142E-001,1.15877E+001,-2.34324E-001,-1.48162E-001,1.15910E+001,1.51463E-002,4.23642E-001,0,1.73274E+002,-5.04243E+000,9.98031E-001,1.44430E+002,-3.14488E+001,9.97402E-001,1.93104E-001,-7.78565E-002,1.59308E-003,1.93114E-001,-7.78658E-002,3.36849E-001,1.94316E-001,1.21295E+000,-1.19850E-002,0.00000E+000,1.22179E-002,9.27112E-001,0.00000E+000,-1.84716E-003,-6.72767E-002,1.00000E+000,30
1259,1327,3.31934E+001,5.57796E-002,-1.32943E-001,1.17296E+001,-1.81927E-001,-1.15868E-001,1.17316E+001,1.48813E-002,4.05261E-001,0,1.75135E+002,-4.27140E+000,9.98377E-001,1.46513E+002,-3.06622E+001,9.97781E-001,1.91900E-001,-7.74497E-002,1.93510E-003,1.91914E-001,-7.74636E-002,4.11603E-001,1.93098E-001,1.21150E+000,-1.11535E-002,0.00000E+000,1.22263E-002,9.27462E-001,0.00000E+000,-1.62582E-003,-6.68272E-002,1.00000E+000,30
1259,1337,3.32230E+001,6.68852E-001,-1.06790E-001,1.17256E+001,-2.28699E-001,-1.47971E-001,1.17288E+001,1.38544E-002,3.98689E-001,0,1.75181E+002,-4.98353E+000,9.98893E-001,1.47036E+002,-3.11866E+001,9.98703E-001,1.92972E-001,-7.73942E-002,2.41019E-003,1.92993E-001,-7.74157E-002,5.10711E-001,1.94247E-001,1.21280E+000,-1.10870E-002,0.00000E+000,1.29264E-002,9.27498E-001,0.00000E+000,5.02436E-004,-6.67185E-002,1.00000E+000,30
599,1347,-1.87171E+001,4.98689E-001,3.97240E-002,2.85983E+000,-6.32092E-001,5.70526E-002,2.92940E+000,1.81335E-002,6.43861E-001,0,4.47338E+001,-1.04394E+001,9.97583E-001,3.58460E+000,-5.10490E+001,9.97831E-001,1.60092E-001,-6.95318E-002,-8.32499E-004,1.60095E-001,-6.95349E-002,-2.07721E-001,1.60555E-001,1.17341E+000,2.25516E-002,0.00000E+000,-1.92902E-002,9.34792E-001,0.00000E+000,-2.51786E-003,-6.81491E-002,1.00000E+000,30
599,1357,-1.86874E+001,1.09639E+000,3.57608E-002,2.87420E+000,-6.76055E-001,2.20552E-002,2.95272E+000,1.21973E-002,6.28671E-001,0,4.50528E+001,-1.10609E+001,9.98013E-001,4.17515E+000,-5.18704E+001,9.97911E-001,1.57645E-001,-6.95304E-002,-6.22170E-004,1.57647E-001,-6.95321E-002,-1.56916E-001,1.58011E-001,1.17055E+000,2.24850E-002,0.00000E+000,-1.88218E-002,9.34802E-001,0.00000E+000,-3.51505E-003,-6.81723E-002,1.00000E+000,30
1259,1287,3.31762E+001,-2.33100E+000,1.12183E-001,1.17636E+001,2.65225E-002,5.20238E-002,1.17637E+001,1.74818E-002,4.42153E-001,0,1.74913E+002,-1.21551E+000,9.96882E-001,1.46409E+002,-2.83128E+001,9.93156E-001,1.87591E-001,-7.75554E-002,1.14301E-004,1.87591E-001,-7.75555E-002,2.46994E-002,1.88526E-001,1.20634E+000,-1.12550E-002,0.00000E+000,9.45115E-003,9.27408E-001,0.00000E+000,-1.00615E-002,-6.69931E-002,1.00000E+000,30
1259,1297,3.31698E+001,-1.74413E+000,2.53811E-003,1.17557E+001,-3.04764E-002,4.38889E-003,1.17558E+001,1.57123E-002,4.66240E-001,0,1.75022E+002,-2.04138E+000,9.97340E-001,1.46210E+002,-2.89331E+001,9.94453E-001,1.88673E-001,-7.75450E-002,5.59159E-004,1.88675E-001,-7.75461E-002,1.20342E-001,1.89668E-001,1.20763E+000,-1.12522E-002,0.00000E+000,1.01426E-002,9.27409E-001,0.00000E+000,-7.95951E-003,-6.69885E-002,1.00000E+000,30
1259,1307,3.31702E+001,-1.15090E+000,-7.57145E-002,1.17479E+001,-8.39679E-002,-3.76471E-002,1.17482E+001,1.54950E-002,4.55353E-001,0,1.75094E+002,-2.81950E+000,9.97800E-001,1.46156E+002,-2.95378E+001,9.96060E-001,1.89752E-001,-7.75248E-002,1.01022E-003,1.89756E-001,-7.75286E-002,2.16555E-001,1.90811E-001,1.20892E+000,-1.12358E-002,0.00000E+000,1.08354E-002,9.27418E-001,0.00000E+000,-5.85379E-003,-6.69616E-002,1.00000E+000,30
599,1327,-1.87721E+001,-6.88667E-001,1.40909E-001,2.82203E+000,-5.48246E-001,1.39861E-001,2.87819E+000,1.33193E-002,6.17761E-001,0,4.39125E+001,-9.25866E+000,9.98156E-001,2.74348E+000,-4.95170E+001,9.97472E-001,1.64946E-001,-6.95258E-002,-1.27552E-003,1.64953E-001,-6.95328E-002,-3.11674E-001,1.65629E-001,1.17912E+000,2.26263E-002,0.00000E+000,-2.02232E-002,9.34779E-001,0.00000E+000,-5.31207E-004,-6.81231E-002,1.00000E+000,30
599,1337,-1.87486E+001,-9.99525E-002,6.95932E-002,2.83983E+000,-5.92162E-001,9.46985E-002,2.90246E+000,1.23848E-002,6.21744E-001,0,4.43184E+001,-9.87454E+000,9.97755E-001,3.04259E+000,-5.03193E+001,9.97963E-001,1.62529E-001,-6.95307E-002,-1.04944E-003,1.62533E-001,-6.95355E-002,-2.59101E-001,1.63097E-001,1.17627E+000,2.26013E-002,0.00000E+000,-1.97577E-002,9.34783E-001,0.00000E+000,-1.52226E-003,-6.81318E-002,1.00000E+000,30
1259,1317,3.31779E+001,-5.50937E-001,-1.17853E-001,1.17398E+001,-1.34123E-001,-7.19006E-002,1.17408E+001,1.58701E-002,4.37097E-001,0,1.75117E+002,-3.56967E+000,9.98204E-001,1.46258E+002,-3.01191E+001,9.96872E-001,1.90827E-001,-7.74941E-002,1.46820E-003,1.90835E-001,-7.75021E-002,3.13499E-001,1.91953E-001,1.21021E+000,-1.12044E-002,0.00000E+000,1.15298E-002,9.27435E-001,0.00000E+000,-3.74305E-003,-6.69103E-002,1.00000E+000,30
599,1317,-1.87960E+001,-1.27636E+000,2.34573E-001,2.79956E+000,-5.05954E-001,1.81129E-001,2.85067E+000,1.66784E-002,5.99638E-001,0,4.34418E+001,-8.66907E+000,9.97886E-001,2.50502E+000,-4.87533E+001,9.97674E-001,1.67356E-001,-6.95181E-002,-1.50920E-003,1.67366E-001,-6.95277E-002,-3.65031E-001,1.68162E-001,1.18196E+000,2.26324E-002,0.00000E+000,-2.06884E-002,9.34778E-001,0.00000E+000,4.59371E-004,-6.81209E-002,1.00000E+000,30
589,1347,-1.94700E+001,5.11440E-001,4.59405E-002,2.74537E+000,-6.13721E-001,6.29976E-002,2.81384E+000,1.32144E-002,6.32561E-001,0,4.29517E+001,-1.01437E+001,9.97949E-001,2.12426E+000,-5.09828E+001,9.97891E-001,1.59371E-001,-6.91845E-002,-1.57044E-004,1.59371E-001,-6.91846E-002,-3.93689E-002,1.59831E-001,1.17250E+000,2.57809E-002,0.00000E+000,-2.06134E-002,9.35005E-001,0.00000E+000,-2.41000E-003,-6.68331E-002,1.00000E+000,30
589,1357,-1.94352E+001,1.10813E+000,4.54397E-002,2.76444E+000,-6.59702E-001,2.81439E-002,2.84220E+000,1.06393E-002,6.43433E-001,0,4.33434E+001,-1.07995E+001,9.98219E-001,2.80366E+000,-5.18157E+001,9.98438E-001,1.56875E-001,-6.91837E-002,5.81550E-005,1.56875E-001,-6.91838E-002,1.47397E-002,1.57239E-001,1.16958E+000,2.57115E-002,0.00000E+000,-2.01505E-002,9.35016E-001,0.00000E+000,-3.27435E-003,-6.68536E-002,1.00000E+000,30
589,1337,-1.94959E+001,-9.25394E-002,7.89666E-002,2.72991E+000,-5.79842E-001,9.80686E-002,2.79253E+000,9.55667E-003,6.20386E-001,0,4.26155E+001,-9.67898E+000,9.98764E-001,1.67486E+000,-5.03340E+001,9.98792E-001,1.61851E-001,-6.91817E-002,-3.81340E-004,1.61852E-001,-6.91823E-002,-9.45713E-002,1.62419E-001,1.17541E+000,2.58267E-002,0.00000E+000,-2.10750E-002,9.34997E-001,0.00000E+000,-1.54825E-003,-6.68195E-002,1.00000E+000,30
589,1327,-1.95123E+001,-6.65844E-001,1.53281E-001,2.71938E+000,-5.21325E-001,1.47569E-001,2.77283E+000,1.70353E-002,6.83773E-001,0,4.23088E+001,-8.86670E+000,9.98821E-001,1.49707E+000,-4.92648E+001,9.97932E-001,1.64310E-001,-6.91759E-002,-6.12398E-004,1.64312E-001,-6.91775E-002,-1.50276E-001,1.64994E-001,1.17830E+000,2.58527E-002,0.00000E+000,-2.15339E-002,9.34993E-001,0.00000E+000,-6.91405E-004,-6.68118E-002,1.00000E+000,30
1269,1327,3.40042E+001,7.18810E-002,-1.34152E-001,1.18730E+001,-1.72558E-001,-1.15139E-001,1.18748E+001,1.30351E-002,4.22361E-001,0,1.77115E+002,-4.15372E+000,9.98580E-001,1.49217E+002,-3.03022E+001,9.97993E-001,1.91805E-001,-7.67831E-002,2.54506E-003,1.91829E-001,-7.68072E-002,5.42853E-001,1.93093E-001,1.21140E+000,-1.01266E-002,0.00000E+000,1.25309E-002,9.27950E-001,0.00000E+000,-5.88662E-004,-6.47047E-002,1.00000E+000,30
1269,1337,3.40400E+001,6.76228E-001,-1.11526E-001,1.18741E+001,-2.28112E-001,-1.54084E-001,1.18773E+001,1.32212E-002,4.03078E-001,0,1.77269E+002,-4.99017E+000,9.98331E-001,1.49830E+002,-3.09586E+001,9.97158E-001,1.93006E-001,-7.67116E-002,3.14090E-003,1.93043E-001,-7.67481E-002,6.67096E-001,1.94388E-001,1.21286E+000,-1.00494E-002,0.00000E+000,1.34411E-002,9.27998E-001,0.00000E+000,1.76012E-003,-6.45808E-002,1.00000E+000,30
589,1317,-1.95414E+001,-1.25617E+000,2.51469E-001,2.69133E+000,-4.81654E-001,1.91629E-001,2.74080E+000,1.38113E-002,6.01093E-001,0,4.17448E+001,-8.29786E+000,9.97105E-001,1.19194E+000,-4.85817E+001,9.96293E-001,1.66766E-001,-6.91669E-002,-8.52405E-004,1.66769E-001,-6.91700E-002,-2.07001E-001,1.67574E-001,1.18120E+000,2.58575E-002,0.00000E+000,-2.19933E-002,9.34993E-001,0.00000E+000,1.66518E-004,-6.68104E-002,1.00000E+000,30
1269,1317,3.39935E+001,-5.33386E-001,-1.18460E-001,1.18859E+001,-1.23211E-001,-7.88597E-002,1.18868E+001,1.34783E-002,4.07122E-001,0,1.77166E+002,-3.40442E+000,9.98430E-001,1.49040E+002,-2.97622E+001,9.97524E-001,1.90600E-001,-7.68353E-002,1.96076E-003,1.90615E-001,-7.68496E-002,4.20047E-001,1.91803E-001,1.20994E+000,-1.01792E-002,0.00000E+000,1.16244E-002,9.27917E-001,0.00000E+000,-2.92814E-003,-6.47892E-002,1.00000E+000,30
1269,1307,3.39826E+001,-1.13523E+000,-7.15929E-002,1.18910E+001,-7.51533E-002,-3.98551E-002,1.18913E+001,1.44141E-002,4.40850E-001,0,1.77078E+002,-2.69565E+000,9.97690E-001,1.48894E+002,-2.92145E+001,9.96434E-001,1.89394E-001,-7.68737E-002,1.38541E-003,1.89401E-001,-7.68810E-002,2.98104E-001,1.90515E-001,1.20849E+000,-1.02148E-002,0.00000E+000,1.07218E-002,9.27895E-001,0.00000E+000,-5.25744E-003,-6.48463E-002,1.00000E+000,30
1269,1297,3.39745E+001,-1.73347E+000,-2.58061E-003,1.18937E+001,-2.54280E-002,2.24935E-003,1.18937E+001,1.53501E-002,4.24416E-001,0,1.76933E+002,-1.95569E+000,9.97435E-001,1.48816E+002,-2.86842E+001,9.95862E-001,1.88181E-001,-7.69030E-002,8.14937E-004,1.88183E-001,-7.69055E-002,1.76140E-001,1.89227E-001,1.20704E+000,-1.02390E-002,0.00000E+000,9.82016E-003,9.27880E-001,0.00000E+000,-7.58429E-003,-6.48851E-002,1.00000E+000,30
1269,1287,3.39845E+001,-2.32322E+000,1.15450E-001,1.19029E+001,2.74501E-002,4.99501E-002,1.19030E+001,1.98599E-002,4.08142E-001,0,1.76841E+002,-1.19128E+000,9.97859E-001,1.49079E+002,-2.81238E+001,9.95280E-001,1.86965E-001,-7.69116E-002,2.57031E-004,1.86966E-001,-7.69118E-002,5.58092E-002,1.87942E-001,1.20559E+000,-1.02372E-002,0.00000E+000,8.92197E-003,9.27881E-001,0.00000E+000,-9.90223E-003,-6.48823E-002,1.00000E+000,30
579,1347,-2.02150E+001,5.19404E-001,5.49634E-002,2.63772E+000,-6.01005E-001,6.75153E-002,2.70617E+000,1.11823E-002,6.43321E-001,0,4.12788E+001,-9.94176E+000,9.98006E-001,7.97055E-001,-5.09843E+001,9.98336E-001,1.58049E-001,-6.86335E-002,6.00174E-004,1.58051E-001,-6.86351E-002,1.51697E-001,1.58506E-001,1.17087E+000,2.91080E-002,0.00000E+000,-2.18467E-002,9.35442E-001,0.00000E+000,-2.87854E-003,-6.60272E-002,1.00000E+000,30
579,1357,-2.01737E+001,1.12564E+000,5.57615E-002,2.66313E+000,-6.37777E-001,3.20934E-002,2.73863E+000,1.16965E-002,6.52066E-001,0,4.17683E+001,-1.04475E+001,9.98775E-001,1.58304E+000,-5.16760E+001,9.98852E-001,1.55367E-001,-6.86336E-002,8.74395E-004,1.55370E-001,-6.86370E-002,2.23652E-001,1.55721E-001,1.16774E+000,2.90330E-002,0.00000E+000,-2.12727E-002,9.35456E-001,0.00000E+000,-3.86108E-003,-6.60507E-002,1.00000E+000,30
579,1337,-2.02475E+001,-8.15515E-002,8.75439E-002,2.61548E+000,-5.64340E-001,1.02110E-001,2.67761E+000,1.13186E-002,6.31714E-001,0,4.08375E+001,-9.43143E+000,9.97586E-001,2.44802E-001,-5.02866E+001,9.98114E-001,1.60714E-001,-6.86286E-002,3.16027E-004,1.60714E-001,-6.86290E-002,7.89518E-002,1.61283E-001,1.17399E+000,2.91564E-002,0.00000E+000,-2.24187E-002,9.35433E-001,0.00000E+000,-1.89949E-003,-6.60120E-002,1.00000E+000,30
579,1327,-2.02749E+001,-6.59134E-001,1.46996E-001,2.59446E+000,-5.10312E-001,1.40456E-001,2.64790E+000,1.17618E-002,6.93452E-001,0,4.03988E+001,-8.65433E+000,9.98728E-001,-1.45359E-001,-4.92516E+001,9.97944E-001,1.63353E-001,-6.86205E-002,2.63571E-005,1.63353E-001,-6.86205E-002,6.51001E-003,1.64047E-001,1.17709E+000,2.91866E-002,0.00000E+000,-2.29872E-002,9.35427E-001,0.00000E+000,-9.26448E-004,-6.60025E-002,1.00000E+000,30
579,1317,-2.02942E+001,-1.24025E+000,2.47247E-001,2.57645E+000,-4.62961E-001,1.88198E-001,2.62447E+000,1.70751E-002,6.70247E-001,0,3.99812E+001,-7.98096E+000,9.97204E-001,-2.91427E-001,-4.83986E+001,9.95892E-001,1.65983E-001,-6.86080E-002,-2.73004E-004,1.65983E-001,-6.86083E-002,-6.66777E-002,1.66812E-001,1.18019E+000,2.91928E-002,0.00000E+000,-2.35554E-002,9.35426E-001,0.00000E+000,4.61498E-005,-6.60006E-002,1.00000E+000,30
1279,1317,3.47970E+001,-5.25847E-001,-1.18347E-001,1.20229E+001,-1.19952E-001,-7.26171E-002,1.20237E+001,1.17419E-002,3.94612E-001,0,1.79026E+002,-3.40054E+000,9.98084E-001,1.51636E+002,-2.95558E+001,9.96747E-001,1.90150E-001,-7.58417E-002,2.39137E-003,1.90172E-001,-7.58632E-002,5.15057E-001,1.91463E-001,1.20941E+000,-8.94061E-003,0.00000E+000,1.14496E-002,9.28697E-001,0.00000E+000,-2.16319E-003,-6.23027E-002,1.00000E+000,30
1279,1327,3.48235E+001,8.64582E-002,-1.26162E-001,1.20240E+001,-1.64744E-001,-1.06458E-001,1.20256E+001,1.94382E-002,4.36458E-001,0,1.79168E+002,-4.07932E+000,9.97358E-001,1.52067E+002,-2.99870E+001,9.96997E-001,1.91522E-001,-7.57772E-002,3.08583E-003,1.91558E-001,-7.58129E-002,6.61331E-001,1.92940E-001,1.21107E+000,-8.87648E-003,0.00000E+000,1.25498E-002,9.28740E-001,0.00000E+000,3.62993E-004,-6.22053E-002,1.00000E+000,30
1279,1337,3.48564E+001,6.90068E-001,-1.06515E-001,1.20222E+001,-2.22589E-001,-1.47893E-001,1.20251E+001,1.53699E-002,4.19653E-001,0,1.79291E+002,-4.92587E+000,9.98094E-001,1.52631E+002,-3.06460E+001,9.97539E-001,1.92890E-001,-7.56929E-002,3.79130E-003,1.92943E-001,-7.57464E-002,8.08570E-001,1.94422E-001,1.21274E+000,-8.78836E-003,0.00000E+000,1.36534E-002,9.28798E-001,0.00000E+000,2.89708E-003,-6.20715E-002,1.00000E+000,30
1279,1307,3.47774E+001,-1.12710E+000,-8.46874E-002,1.20205E+001,-7.12850E-002,-4.23067E-002,1.20207E+001,1.31869E-002,4.39398E-001,0,1.78866E+002,-2.65452E+000,9.98061E-001,1.51339E+002,-2.89672E+001,9.96054E-001,1.88780E-001,-7.58890E-002,1.70996E-003,1.88791E-001,-7.59000E-002,3.70153E-001,1.89995E-001,1.20776E+000,-8.98436E-003,0.00000E+000,1.03583E-002,9.28668E-001,0.00000E+000,-4.66915E-003,-6.23691E-002,1.00000E+000,30
1279,1297,3.47797E+001,-1.71573E+000,9.23632E-003,1.20302E+001,-1.24505E-002,1.18436E-002,1.20302E+001,2.41146E-002,3.53895E-001,0,1.78763E+002,-1.78407E+000,9.97332E-001,1.51453E+002,-2.83758E+001,9.95718E-001,1.87401E-001,-7.59157E-002,1.03827E-003,1.87405E-001,-7.59198E-002,2.25915E-001,1.88526E-001,1.20610E+000,-9.00336E-003,0.00000E+000,9.26699E-003,9.28656E-001,0.00000E+000,-7.17490E-003,-6.23980E-002,1.00000E+000,30
1279,1287,3.47834E+001,-2.32726E+000,9.59682E-002,1.20370E+001,2.04165E-002,4.28197E-002,1.20371E+001,2.25946E-002,3.03529E-001,0,1.78722E+002,-1.26426E+000,9.97618E-001,1.51580E+002,-2.81069E+001,9.94855E-001,1.86017E-001,-7.59328E-002,3.72871E-004,1.86017E-001,-7.59333E-002,8.15571E-002,1.87059E-001,1.20446E+000,-9.01133E-003,0.00000E+000,8.17911E-003,9.28651E-001,0.00000E+000,-9.67285E-003,-6.24101E-002,1.00000E+000,30
569,1347,-2.09579E+001,5.37149E-001,6.29537E-002,2.53201E+000,-5.78603E-001,7.26763E-002,2.59830E+000,1.16582E-002,6.68170E-001,0,3.96303E+001,-9.59162E+000,9.97847E-001,-4.93863E-001,-5.08265E+001,9.97803E-001,1.57198E-001,-6.79660E-002,1.22791E-003,1.57204E-001,-6.79727E-002,3.12446E-001,1.57683E-001,1.16979E+000,3.25736E-002,0.00000E+000,-2.34548E-002,9.35989E-001,0.00000E+000,-3.00490E-003,-6.53830E-002,1.00000E+000,30
569,1357,-2.09196E+001,1.13459E+000,5.43143E-002,2.55584E+000,-6.21816E-001,3.54792E-002,2.63063E+000,1.10548E-002,6.51314E-001,0,4.01017E+001,-1.01968E+001,9.98438E-001,2.17337E-001,-5.16476E+001,9.98246E-001,1.54380E-001,-6.79698E-002,1.62642E-003,1.54392E-001,-6.79817E-002,4.19071E-001,1.54758E-001,1.16651E+000,3.25022E-002,0.00000E+000,-2.26457E-002,9.36007E-001,0.00000E+000,-4.23707E-003,-6.54098E-002,1.00000E+000,30
569,1327,-2.10202E+001,-6.56100E-001,1.45946E-001,2.48726E+000,-5.01912E-001,1.42781E-001,2.54141E+000,1.79051E-002,7.04178E-001,0,3.87396E+001,-8.51410E+000,9.98886E-001,-1.50267E+000,-4.93033E+001,9.98460E-001,1.62781E-001,-6.79443E-002,4.11348E-004,1.62782E-001,-6.79450E-002,1.02149E-001,1.63520E-001,1.17633E+000,3.26602E-002,0.00000E+000,-2.50669E-002,9.35968E-001,0.00000E+000,-5.50034E-004,-6.53505E-002,1.00000E+000,30
569,1337,-2.09914E+001,-6.20662E-002,9.43091E-002,2.50804E+000,-5.41192E-001,1.02297E-001,2.56780E+000,1.08575E-002,6.60554E-001,0,3.91749E+001,-9.05643E+000,9.98049E-001,-1.06509E+000,-5.00954E+001,9.98183E-001,1.59999E-001,-6.79561E-002,8.20265E-004,1.60002E-001,-6.79591E-002,2.06167E-001,1.60605E-001,1.17306E+000,3.26207E-002,0.00000E+000,-2.42624E-002,9.35977E-001,0.00000E+000,-1.77511E-003,-6.53653E-002,1.00000E+000,30
1289,1327,3.56212E+001,9.14391E-002,-1.39570E-001,1.21559E+001,-1.64257E-001,-1.08351E-001,1.21575E+001,1.78205E-002,4.19155E-001,0,1.80990E+002,-4.08652E+000,9.96744E-001,1.54560E+002,-2.97923E+001,9.95653E-001,1.91236E-001,-7.44382E-002,3.62541E-003,1.91285E-001,-7.44877E-002,7.81668E-001,1.92839E-001,1.21074E+000,-7.25588E-003,0.00000E+000,1.22928E-002,9.29837E-001,0.00000E+000,1.27557E-003,-5.94651E-002,1.00000E+000,30
1289,1337,3.56594E+001,7.04889E-001,-1.10848E-001,1.21593E+001,-2.12704E-001,-1.40030E-001,1.21620E+001,1.67187E-002,4.41610E-001,0,1.81143E+002,-4.82708E+000,9.97905E-001,1.55214E+002,-3.02966E+001,9.96998E-001,1.92853E-001,-7.43450E-002,4.41783E-003,1.92926E-001,-7.44180E-002,9.46980E-001,1.94598E-001,1.21271E+000,-7.15147E-003,0.00000E+000,1.35445E-002,9.29903E-001,0.00000E+000,4.01683E-003,-5.93203E-002,1.00000E+000,30
569,1317,-2.10473E+001,-1.22869E+000,2.45713E-001,2.45992E+000,-4.46370E-001,1.80789E-001,2.50662E+000,1.95111E-002,6.60595E-001,0,3.81995E+001,-7.69797E+000,9.97636E-001,-1.76583E+000,-4.83278E+001,9.95902E-001,1.65550E-001,-6.79225E-002,-1.37808E-005,1.65550E-001,-6.79225E-002,-3.38191E-003,1.66436E-001,1.17959E+000,3.26590E-002,0.00000E+000,-2.58708E-002,9.35968E-001,0.00000E+000,6.74064E-004,-6.53509E-002,1.00000E+000,30
1289,1317,3.55978E+001,-5.18512E-001,-1.20431E-001,1.21555E+001,-1.20704E-001,-7.20897E-002,1.21563E+001,1.83586E-002,4.64689E-001,0,1.80844E+002,-3.43524E+000,9.98176E-001,1.54190E+002,-2.93070E+001,9.95709E-001,1.89621E-001,-7.45036E-002,2.85270E-003,1.89652E-001,-7.45344E-002,6.18731E-001,1.91093E-001,1.20878E+000,-7.32477E-003,0.00000E+000,1.10516E-002,9.29793E-001,0.00000E+000,-1.44272E-003,-5.95606E-002,1.00000E+000,30
1289,1287,3.55810E+001,-2.30349E+000,8.37284E-002,1.21677E+001,3.85546E-002,3.66521E-002,1.21679E+001,2.32003E-002,4.15511E-001,0,1.80531E+002,-1.03458E+000,9.97686E-001,1.54074E+002,-2.75647E+001,9.94294E-001,1.84726E-001,-7.46038E-002,5.87130E-004,1.84727E-001,-7.46051E-002,1.29719E-001,1.85862E-001,1.20292E+000,-7.41207E-003,0.00000E+000,7.34032E-003,9.29738E-001,0.00000E+000,-9.57043E-003,-5.96817E-002,1.00000E+000,30
1289,1297,3.55769E+001,-1.70845E+000,-6.59979E-003,1.21571E+001,-1.05798E-002,-1.09326E-002,1.21571E+001,2.64180E-002,3.26367E-001,0,1.80590E+002,-1.73394E+000,9.97878E-001,1.53939E+002,-2.81505E+001,9.94810E-001,1.86360E-001,-7.45783E-002,1.33538E-003,1.86367E-001,-7.45851E-002,2.93207E-001,1.87600E-001,1.20486E+000,-7.39212E-003,0.00000E+000,8.57136E-003,9.29751E-001,0.00000E+000,-6.87442E-003,-5.96540E-002,1.00000E+000,30
1289,1307,3.55863E+001,-1.11796E+000,-7.77976E-002,1.21601E+001,-6.91123E-002,-3.78845E-002,1.21603E+001,1.54639E-002,4.48560E-001,0,1.80766E+002,-2.64788E+000,9.99032E-001,1.54032E+002,-2.87408E+001,9.97191E-001,1.87997E-001,-7.45524E-002,2.08859E-003,1.88013E-001,-7.45690E-002,4.55753E-001,1.89348E-001,1.20682E+000,-7.37292E-003,0.00000E+000,9.81182E-003,9.29763E-001,0.00000E+000,-4.15782E-003,-5.96274E-002,1.00000E+000,30
559,1327,-2.17583E+001,-6.46357E-001,1.40402E-001,2.38586E+000,-4.88423E-001,1.34999E-001,2.43908E+000,3.07907E-002,8.29365E-001,0,3.71933E+001,-8.31799E+000,9.99147E-001,-2.75857E+000,-4.91846E+001,9.98323E-001,1.62164E-001,-6.77304E-002,1.02087E-003,1.62169E-001,-6.77350E-002,2.54420E-001,1.62900E-001,1.17550E+000,3.63257E-002,0.00000E+000,-2.68674E-002,9.36049E-001,0.00000E+000,-2.40619E-004,-6.41859E-002,1.00000E+000,30
559,1337,-2.17352E+001,-4.86747E-002,9.13027E-002,2.40131E+000,-5.22903E-001,9.85500E-002,2.45956E+000,9.25274E-003,6.87671E-001,0,3.75332E+001,-8.75432E+000,9.99208E-001,-2.39812E+000,-4.99777E+001,9.99135E-001,1.59467E-001,-6.77411E-002,1.33303E-003,1.59474E-001,-6.77489E-002,3.36140E-001,1.60074E-001,1.17233E+000,3.62893E-002,0.00000E+000,-2.62456E-002,9.36056E-001,0.00000E+000,-1.61892E-003,-6.42017E-002,1.00000E+000,30
559,1347,-2.17071E+001,5.49982E-001,5.88978E-002,2.41990E+000,-5.59115E-001,6.72656E-002,2.48456E+000,1.44169E-002,6.42248E-001,0,3.79080E+001,-9.26433E+000,9.97922E-001,-1.91176E+000,-5.07444E+001,9.97343E-001,1.56753E-001,-6.77501E-002,1.64260E-003,1.56765E-001,-6.77621E-002,4.19181E-001,1.57244E-001,1.16916E+000,3.62440E-002,0.00000E+000,-2.56222E-002,9.36065E-001,0.00000E+000,-3.00076E-003,-6.42215E-002,1.00000E+000,30
559,1357,-2.16657E+001,1.14756E+000,5.17656E-002,2.44766E+000,-6.01127E-001,3.53182E-002,2.52064E+000,1.25206E-002,6.30715E-001,0,3.84270E+001,-9.87058E+000,9.97963E-001,-1.14675E+000,-5.15655E+001,9.97855E-001,1.54019E-001,-6.77553E-002,1.94515E-003,1.54036E-001,-6.77724E-002,5.02483E-001,1.54406E-001,1.16598E+000,3.61786E-002,0.00000E+000,-2.49966E-002,9.36078E-001,0.00000E+000,-4.38761E-003,-6.42499E-002,1.00000E+000,30
559,1317,-2.17920E+001,-1.20864E+000,2.56211E-001,2.35146E+000,-4.23200E-001,1.86319E-001,2.39649E+000,3.04364E-002,7.04489E-001,0,3.65064E+001,-7.33674E+000,9.98624E-001,-3.07007E+000,-4.81246E+001,9.97538E-001,1.64852E-001,-6.77124E-002,6.92345E-004,1.64854E-001,-6.77145E-002,1.70568E-001,1.65727E-001,1.17866E+000,3.63224E-002,0.00000E+000,-2.74893E-002,9.36050E-001,0.00000E+000,1.13809E-003,-6.41873E-002,1.00000E+000,30
1299,1327,3.64293E+001,1.07014E-001,-1.35976E-001,1.22936E+001,-1.56111E-001,-1.08209E-001,1.22951E+001,2.27991E-002,4.30283E-001,0,1.82874E+002,-3.98502E+000,9.96563E-001,1.57238E+002,-2.94552E+001,9.95712E-001,1.91036E-001,-7.29036E-002,4.16674E-003,1.91102E-001,-7.29693E-002,9.04211E-001,1.92873E-001,1.21051E+000,-5.00433E-003,0.00000E+000,1.15836E-002,9.31119E-001,0.00000E+000,1.74171E-003,-5.65043E-002,1.00000E+000,30
1299,1337,3.64800E+001,7.17301E-001,-1.06272E-001,1.23081E+001,-2.09381E-001,-1.43455E-001,1.23107E+001,2.13174E-002,4.65923E-001,0,1.83207E+002,-4.78876E+000,9.96201E-001,1.58086E+002,-3.00014E+001,9.95279E-001,1.92941E-001,-7.27998E-002,5.04304E-003,1.93037E-001,-7.28954E-002,1.08679E+000,1.94955E-001,1.21284E+000,-4.87624E-003,0.00000E+000,1.29782E-002,9.31196E-001,0.00000E+000,4.64130E-003,-5.63448E-002,1.00000E+000,30
1299,1287,3.63906E+001,-2.29382E+000,9.29926E-002,1.23056E+001,3.93979E-002,3.62161E-002,1.23057E+001,1.68273E-002,4.88680E-001,0,1.82417E+002,-1.04751E+000,9.98014E-001,1.56782E+002,-2.73061E+001,9.96229E-001,1.83383E-001,-7.30720E-002,8.31764E-004,1.83386E-001,-7.30747E-002,1.85826E-001,1.84642E-001,1.20132E+000,-5.18319E-003,0.00000E+000,6.07868E-003,9.31012E-001,0.00000E+000,-9.70405E-003,-5.67269E-002,1.00000E+000,30
1299,1297,3.63945E+001,-1.70358E+000,1.90291E-002,1.23043E+001,-1.42920E-002,1.03739E-002,1.23043E+001,1.76978E-002,4.73615E-001,0,1.82525E+002,-1.89639E+000,9.98643E-001,1.56789E+002,-2.79626E+001,9.96719E-001,1.85306E-001,-7.30501E-002,1.65144E-003,1.85317E-001,-7.30607E-002,3.66220E-001,1.86693E-001,1.20360E+000,-5.16468E-003,0.00000E+000,7.44783E-003,9.31023E-001,0.00000E+000,-6.85731E-003,-5.67039E-002,1.00000E+000,30
1299,1307,3.64148E+001,-1.09922E+000,-3.88229E-002,1.23139E+001,-5.94919E-002,-1.86192E-002,1.23141E+001,3.42284E-002,4.99984E-001,0,1.82796E+002,-2.58686E+000,9.98158E-001,1.57068E+002,-2.84117E+001,9.96736E-001,1.87229E-001,-7.30137E-002,2.48385E-003,1.87252E-001,-7.30374E-002,5.46786E-001,1.88756E-001,1.20591E+000,-5.12725E-003,0.00000E+000,8.82617E-003,9.31046E-001,0.00000E+000,-3.99149E-003,-5.66573E-002,1.00000E+000,30
1299,1317,3.64217E+001,-4.98672E-001,-1.03120E-001,1.23054E+001,-1.09876E-001,-7.19474E-002,1.23061E+001,2.93840E-002,4.74177E-001,0,1.82900E+002,-3.29516E+000,9.96842E-001,1.57131E+002,-2.89339E+001,9.95331E-001,1.89139E-001,-7.29640E-002,3.32286E-003,1.89181E-001,-7.30061E-002,7.26223E-001,1.90816E-001,1.20821E+000,-5.07267E-003,0.00000E+000,1.02049E-002,9.31079E-001,0.00000E+000,-1.12493E-003,-5.65894E-002,1.00000E+000,30
559,1307,-2.18216E+001,-1.78962E+000,3.70190E-001,2.31940E+000,-3.77814E-001,2.24761E-001,2.36070E+000,1.46226E-002,6.85160E-001,0,3.58933E+001,-6.69796E+000,9.97441E-001,-3.32985E+000,-4.72923E+001,9.96421E-001,1.67530E-001,-6.76928E-002,3.60839E-004,1.67530E-001,-6.76933E-002,8.78933E-002,1.68555E-001,1.18182E+000,3.63107E-002,0.00000E+000,-2.81111E-002,9.36052E-001,0.00000E+000,2.51655E-003,-6.41924E-002,1.00000E+000,30
549,1347,-2.24446E+001,5.66775E-001,5.69484E-002,2.31914E+000,-5.37954E-001,6.41137E-002,2.38158E+000,1.28145E-002,6.84568E-001,0,3.63548E+001,-8.91620E+000,9.97723E-001,-3.13862E+000,-5.05706E+001,9.97208E-001,1.56350E-001,-6.74071E-002,2.10486E-003,1.56370E-001,-6.74269E-002,5.38913E-001,1.56863E-001,1.16858E+000,3.96800E-002,0.00000E+000,-2.75201E-002,9.36250E-001,0.00000E+000,-3.00477E-003,-6.27990E-002,1.00000E+000,30
549,1357,-2.24032E+001,1.17319E+000,5.52811E-002,2.34614E+000,-5.71929E-001,3.23482E-002,2.41506E+000,1.37302E-002,6.68662E-001,0,3.68589E+001,-9.39050E+000,9.97806E-001,-2.35433E+000,-5.12723E+001,9.97620E-001,1.53733E-001,-6.74129E-002,2.39404E-003,1.53759E-001,-6.74388E-002,6.20165E-001,1.54145E-001,1.16554E+000,3.96146E-002,0.00000E+000,-2.69176E-002,9.36263E-001,0.00000E+000,-4.52229E-003,-6.28316E-002,1.00000E+000,30
549,1327,-2.25275E+001,-6.19549E-001,1.71335E-001,2.25147E+000,-4.57233E-001,1.53715E-001,2.30256E+000,2.38338E-002,7.55231E-001,0,3.50546E+001,-7.82928E+000,9.98182E-001,-4.36635E+000,-4.89861E+001,9.96316E-001,1.61532E-001,-6.73840E-002,1.50412E-003,1.61542E-001,-6.73938E-002,3.76447E-001,1.62279E-001,1.17464E+000,3.97490E-002,0.00000E+000,-2.87197E-002,9.36236E-001,0.00000E+000,1.66725E-005,-6.27646E-002,1.00000E+000,30
549,1337,-2.24779E+001,-2.86128E-002,9.67921E-002,2.29499E+000,-4.96560E-001,1.00802E-001,2.35026E+000,9.93678E-003,6.74092E-001,0,3.58780E+001,-8.34578E+000,9.98695E-001,-3.68070E+000,-4.97965E+001,9.98758E-001,1.58956E-001,-6.73967E-002,1.80603E-003,1.58970E-001,-6.74112E-002,4.57116E-001,1.59580E-001,1.17162E+000,3.97214E-002,0.00000E+000,-2.81222E-002,9.36242E-001,0.00000E+000,-1.48836E-003,-6.27784E-002,1.00000E+000,30
1309,1317,3.72146E+001,-4.97434E-001,-1.26862E-001,1.24318E+001,-1.12437E-001,-8.38774E-002,1.24326E+001,2.34636E-002,4.46482E-001,0,1.84678E+002,-3.32789E+000,9.96766E-001,1.59547E+002,-2.87829E+001,9.95129E-001,1.89080E-001,-7.17027E-002,3.90429E-003,1.89138E-001,-7.17612E-002,8.57544E-001,1.90963E-001,1.20815E+000,-2.06817E-003,0.00000E+000,9.00037E-003,9.32124E-001,0.00000E+000,-1.16870E-003,-5.37256E-002,1.00000E+000,30
1309,1327,3.72414E+001,1.14705E-001,-1.45374E-001,1.24365E+001,-1.54193E-001,-1.15532E-001,1.24379E+001,2.77267E-002,4.23112E-001,0,1.84868E+002,-3.96734E+000,9.95934E-001,1.59970E+002,-2.92210E+001,9.94059E-001,1.91275E-001,-7.16432E-002,4.69932E-003,1.91359E-001,-7.17271E-002,1.02365E+000,1.93347E-001,1.21082E+000,-1.97784E-003,0.00000E+000,1.02832E-002,9.32167E-001,0.00000E+000,1.70629E-003,-5.36281E-002,1.00000E+000,30
1309,1337,3.72868E+001,7.30054E-001,-1.17650E-001,1.24466E+001,-2.01735E-001,-1.47888E-001,1.24492E+001,2.76357E-002,4.50793E-001,0,1.85124E+002,-4.68929E+000,9.97064E-001,1.60730E+002,-2.96870E+001,9.96412E-001,1.93475E-001,-7.15527E-002,5.52138E-003,1.93590E-001,-7.16677E-002,1.19296E+000,1.95752E-001,1.21350E+000,-1.83464E-003,0.00000E+000,1.15775E-002,9.32236E-001,0.00000E+000,4.60680E-003,-5.34736E-002,1.00000E+000,30
549,1317,-2.25421E+001,-1.19354E+000,2.76000E-001,2.23724E+000,-4.04345E-001,2.01250E-001,2.28237E+000,2.15016E-002,7.69387E-001,0,3.46980E+001,-7.08360E+000,9.98381E-001,-4.42430E+000,-4.80073E+001,9.97298E-001,1.64099E-001,-6.73665E-002,1.19187E-003,1.64105E-001,-6.73726E-002,2.95020E-001,1.64978E-001,1.17766E+000,3.97510E-002,0.00000E+000,-2.93172E-002,9.36236E-001,0.00000E+000,1.52161E-003,-6.27636E-002,1.00000E+000,30
549,1307,-2.25665E+001,-1.77417E+000,3.64204E-001,2.21132E+000,-3.57984E-001,2.19551E-001,2.25084E+000,1.48540E-002,6.98852E-001,0,3.42339E+001,-6.36059E+000,9.97578E-001,-4.68034E+000,-4.71382E+001,9.97297E-001,1.66662E-001,-6.73472E-002,8.75639E-004,1.66665E-001,-6.73505E-002,2.14391E-001,1.67683E-001,1.18069E+000,3.97440E-002,0.00000E+000,-2.99160E-002,9.36237E-001,0.00000E+000,3.02972E-003,-6.27671E-002,1.00000E+000,30
1309,1287,3.71979E+001,-2.29251E+000,8.67204E-002,1.24398E+001,3.48969E-002,1.69227E-002,1.24399E+001,1.47638E-002,4.89074E-001,0,1.84331E+002,-1.11970E+000,9.98198E-001,1.59443E+002,-2.71814E+001,9.96223E-001,1.82440E-001,-7.17789E-002,1.59514E-003,1.82450E-001,-7.17889E-002,3.59493E-001,1.83825E-001,1.20020E+000,-2.16895E-003,0.00000E+000,5.16928E-003,9.32075E-001,0.00000E+000,-9.75443E-003,-5.38344E-002,1.00000E+000,30
1309,1297,3.71994E+001,-1.70657E+000,-1.10670E-003,1.24378E+001,-2.47902E-002,-1.60509E-002,1.24379E+001,2.02938E-002,4.85885E-001,0,1.84466E+002,-2.01444E+000,9.97818E-001,1.59397E+002,-2.78679E+001,9.95753E-001,1.84665E-001,-7.17654E-002,2.35664E-003,1.84686E-001,-7.17871E-002,5.26500E-001,1.86205E-001,1.20285E+000,-2.15462E-003,0.00000E+000,6.44499E-003,9.32082E-001,0.00000E+000,-6.89546E-003,-5.38190E-002,1.00000E+000,30
1309,1307,3.72009E+001,-1.09806E+000,-8.64063E-002,1.24344E+001,-6.02962E-002,-5.17530E-002,1.24347E+001,2.24987E-002,3.93805E-001,0,1.84579E+002,-2.52707E+000,9.97675E-001,1.59354E+002,-2.82518E+001,9.96979E-001,1.86869E-001,-7.17478E-002,3.11777E-003,1.86907E-001,-7.17854E-002,6.90597E-001,1.88574E-001,1.20549E+000,-2.13469E-003,0.00000E+000,7.71685E-003,9.32092E-001,0.00000E+000,-4.04514E-003,-5.37974E-002,1.00000E+000,30
539,1347,-2.31871E+001,5.87325E-001,6.01212E-002,2.21278E+000,-5.11670E-001,6.49960E-002,2.27210E+000,1.14993E-002,6.72576E-001,0,3.47002E+001,-8.49212E+000,9.98084E-001,-4.42043E+000,-5.03784E+001,9.97995E-001,1.55991E-001,-6.68764E-002,2.25519E-003,1.56013E-001,-6.68992E-002,5.79696E-001,1.56540E-001,1.16806E+000,4.27315E-002,0.00000E+000,-2.97042E-002,9.36585E-001,0.00000E+000,-3.08024E-003,-6.11508E-002,1.00000E+000,30
539,1357,-2.31449E+001,1.19700E+000,5.28490E-002,2.24169E+000,-5.41698E-001,3.36102E-002,2.30645E+000,1.05532E-002,6.54886E-001,0,3.52325E+001,-8.89810E+000,9.98736E-001,-3.63877E+000,-5.10209E+001,9.98418E-001,1.53556E-001,-6.68831E-002,2.49950E-003,1.53585E-001,-6.69115E-002,6.49548E-001,1.54008E-001,1.16523E+000,4.26755E-002,0.00000E+000,-2.91893E-002,9.36595E-001,0.00000E+000,-4.71537E-003,-6.11831E-002,1.00000E+000,30
539,1327,-2.32568E+001,-5.96241E-001,1.51956E-001,2.15862E+000,-4.26415E-001,1.34797E-001,2.20446E+000,1.31579E-002,6.46379E-001,0,3.36627E+001,-7.27056E+000,9.96339E-001,-5.51413E+000,-4.87458E+001,9.96106E-001,1.60817E-001,-6.68553E-002,1.74925E-003,1.60830E-001,-6.68687E-002,4.40181E-001,1.61589E-001,1.17370E+000,4.27966E-002,0.00000E+000,-3.07308E-002,9.36573E-001,0.00000E+000,1.80036E-004,-6.11131E-002,1.00000E+000,30
539,1337,-2.32216E+001,-4.08440E-003,9.73666E-002,2.18726E+000,-4.66574E-001,9.87194E-002,2.23865E+000,1.19925E-002,6.54375E-001,0,3.42089E+001,-7.85264E+000,9.97594E-001,-4.98814E+000,-4.95398E+001,9.97621E-001,1.58413E-001,-6.68667E-002,2.00362E-003,1.58431E-001,-6.68845E-002,5.09529E-001,1.59070E-001,1.17088E+000,4.27691E-002,0.00000E+000,-3.02186E-002,9.36578E-001,0.00000E+000,-1.44656E-003,-6.11290E-002,1.00000E+000,30
1319,1297,3.79849E+001,-1.69898E+000,-3.22436E-002,1.25563E+001,-1.93457E-002,-3.57781E-002,1.25564E+001,1.79006E-002,3.74880E-001,0,1.86154E+002,-1.88579E+000,9.98127E-001,1.61694E+002,-2.76485E+001,9.96405E-001,1.84111E-001,-7.04829E-002,3.28324E-003,1.84153E-001,-7.05253E-002,7.38722E-001,1.85827E-001,1.20219E+000,1.65260E-003,0.00000E+000,5.25602E-003,9.33154E-001,0.00000E+000,-7.36124E-003,-5.10048E-002,1.00000E+000,30
1319,1307,3.79969E+001,-1.09976E+000,-1.03267E-001,1.25602E+001,-6.69489E-002,-6.88449E-002,1.25605E+001,2.18526E-002,3.68937E-001,0,1.86364E+002,-2.61748E+000,9.97809E-001,1.61831E+002,-2.81620E+001,9.97165E-001,1.86656E-001,-7.04621E-002,4.02354E-003,1.86719E-001,-7.05251E-002,8.96307E-001,1.88571E-001,1.20524E+000,1.69095E-003,0.00000E+000,6.48895E-003,9.33170E-001,0.00000E+000,-4.47455E-003,-5.09684E-002,1.00000E+000,30
539,1307,-2.33120E+001,-1.76228E+000,3.49470E-001,2.10177E+000,-3.40101E-001,2.02386E-001,2.13871E+000,1.05033E-002,6.53411E-001,0,3.25797E+001,-6.02962E+000,9.97999E-001,-6.06205E+000,-4.70504E+001,9.97984E-001,1.65584E-001,-6.68226E-002,1.21716E-003,1.65590E-001,-6.68290E-002,3.00059E-001,1.66613E-001,1.17931E+000,4.27897E-002,0.00000E+000,-3.17524E-002,9.36575E-001,0.00000E+000,3.42444E-003,-6.11171E-002,1.00000E+000,30
539,1317,-2.32854E+001,-1.18680E+000,2.41060E-001,2.13070E+000,-3.89415E-001,1.68730E-001,2.17256E+000,1.23475E-002,6.67385E-001,0,3.31310E+001,-6.75648E+000,9.97179E-001,-5.83549E+000,-4.79854E+001,9.96621E-001,1.63206E-001,-6.68400E-002,1.48553E-003,1.63216E-001,-6.68496E-002,3.69968E-001,1.64103E-001,1.17650E+000,4.27997E-002,0.00000E+000,-3.12419E-002,9.36573E-001,0.00000E+000,1.80339E-003,-6.11113E-002,1.00000E+000,30
1319,1287,3.79924E+001,-2.29921E+000,6.49670E-002,1.25650E+001,2.33867E-002,-2.05627E-003,1.25650E+001,1.83935E-002,4.37858E-001,0,1.86117E+002,-1.25496E+000,9.97877E-001,1.61891E+002,-2.71761E+001,9.96852E-001,1.81559E-001,-7.04871E-002,2.55850E-003,1.81585E-001,-7.05130E-002,5.81526E-001,1.83089E-001,1.19915E+000,1.64732E-003,0.00000E+000,4.02704E-003,9.33152E-001,0.00000E+000,-1.02387E-002,-5.10098E-002,1.00000E+000,30
529,1327,-2.39964E+001,-5.78983E-001,1.53172E-001,2.05417E+000,-4.03837E-001,1.30980E-001,2.09758E+000,1.18514E-002,6.55437E-001,0,3.20493E+001,-6.91163E+000,9.96064E-001,-6.75391E+000,-4.85853E+001,9.95856E-001,1.60236E-001,-6.58182E-002,2.11773E-003,1.60255E-001,-6.58381E-002,5.36698E-001,1.61103E-001,1.17293E+000,4.48925E-002,0.00000E+000,-3.17956E-002,9.37424E-001,0.00000E+000,8.27854E-004,-5.95296E-002,1.00000E+000,30
529,1307,-2.40527E+001,-1.74202E+000,3.53182E-001,1.99565E+000,-3.15221E-001,1.97594E-001,2.03004E+000,1.41128E-002,6.34824E-001,0,3.09431E+001,-5.62160E+000,9.98318E-001,-7.30784E+000,-4.68589E+001,9.97926E-001,1.64369E-001,-6.58137E-002,1.98182E-003,1.64386E-001,-6.58308E-002,4.93255E-001,1.65468E-001,1.17780E+000,4.48844E-002,0.00000E+000,-3.20915E-002,9.37425E-001,0.00000E+000,4.31797E-003,-5.95354E-002,1.00000E+000,30
529,1317,-2.40263E+001,-1.16614E+000,2.38133E-001,2.02583E+000,-3.63103E-001,1.66495E-001,2.06484E+000,1.17853E-002,6.27864E-001,0,3.15072E+001,-6.31330E+000,9.98133E-001,-7.10558E+000,-4.77863E+001,9.97682E-001,1.62307E-001,-6.58162E-002,2.05374E-003,1.62326E-001,-6.58347E-002,5.15763E-001,1.63288E-001,1.17537E+000,4.48984E-002,0.00000E+000,-3.19436E-002,9.37424E-001,0.00000E+000,2.57400E-003,-5.95254E-002,1.00000E+000,30
