Coordinates.Image X [Pixel],Coordinates.Image Y [Pixel],coor.X [mm],coor.Y [mm],coor.Z [mm],disp.Horizontal Displacement U [mm],disp.Vertical Displacement V [mm],disp.Out-Of-Plane: W [mm],disp.Displacement Magnitude [mm],stats.Sigma [mm],stats.Epipolar Distance [Pixel],stats.Shape Index [-],SameCamera.Horizontal: u [Pixel],SameCamera.Vertical: v [Pixel],SameCamera.Correlation Value 2D [-],CrossCamera.Horizontal: q [Pixel],CrossCamera.Vertical: r [Pixel],CrossCamera.Correlation Value Persp [-],strain.Strain-global frame: Exx [ ],strain.Strain-global frame: Eyy [ ],strain.Strain-global frame: Exy [ ],strain.Maximum Principal Strain: EI [ ],strain.Minimum Principal Strain: EII [ ],strain.Shear Angle Gamma [deg],strain.Von Mises Equivalent Strain [ ],defgradient.F[0,0] [-],defgradient.F[0,1] [-],defgradient.F[0,2] [-],defgradient.F[1,0] [-],defgradient.F[1,1] [-],defgradient.F[1,2] [-],defgradient.F[2,0] [-],defgradient.F[2,1] [-],defgradient.F[2,2] [-],ext.Current Image [#]
929,1317,5.17401E+000,-1.12447E+000,7.65800E-002,5.51008E+000,-5.08107E-001,1.63301E-001,5.53586E+000,1.21525E-002,4.74971E-001,0,8.39114E+001,-8.95091E+000,9.98861E-001,4.04087E+001,-4.29152E+001,9.97710E-001,1.51924E-001,-6.34475E-002,-1.39354E-004,1.51924E-001,-6.34476E-002,-3.70726E-002,1.52610E-001,1.16402E+000,-1.93915E-002,0.00000E+000,1.65685E-002,9.42164E-001,0.00000E+000,-1.50162E-002,-8.96773E-002,1.00000E+000,23
919,1307,4.41440E+000,-1.73690E+000,1.39112E-001,5.41702E+000,-4.71268E-001,2.30629E-001,5.44237E+000,1.49396E-002,5.14949E-001,0,8.23213E+001,-8.49802E+000,9.97743E-001,3.86959E+001,-4.25940E+001,9.95322E-001,1.55013E-001,-6.31962E-002,-6.94010E-004,1.55015E-001,-6.31985E-002,-1.82226E-001,1.55893E-001,1.16763E+000,-1.72931E-002,0.00000E+000,1.36912E-002,9.42521E-001,0.00000E+000,-1.36616E-002,-9.06018E-002,1.00000E+000,23
919,1317,4.40123E+000,-1.14774E+000,2.95291E-002,5.40104E+000,-5.17107E-001,1.71958E-001,5.42846E+000,1.74597E-002,4.77567E-001,0,8.22903E+001,-9.10917E+000,9.96595E-001,3.83536E+001,-4.32734E+001,9.94491E-001,1.52935E-001,-6.32035E-002,-9.07571E-004,1.52938E-001,-6.32073E-002,-2.40581E-001,1.53703E-001,1.16519E+000,-1.73039E-002,0.00000E+000,1.31846E-002,9.42519E-001,0.00000E+000,-1.20116E-002,-9.05945E-002,1.00000E+000,23
919,1327,4.40672E+000,-5.47672E-001,-1.86755E-002,5.38941E+000,-5.64104E-001,1.08622E-001,5.41994E+000,1.35205E-002,5.10014E-001,0,8.23296E+001,-9.72174E+000,9.98373E-001,3.84323E+001,-4.38782E+001,9.96636E-001,1.50828E-001,-6.32194E-002,-1.14630E-003,1.50834E-001,-6.32255E-002,-3.06827E-001,1.51489E-001,1.16271E+000,-1.73687E-002,0.00000E+000,1.26726E-002,9.42505E-001,0.00000E+000,-1.03441E-002,-9.05507E-002,1.00000E+000,23
929,1307,5.18287E+000,-1.71445E+000,1.68564E-001,5.52612E+000,-4.59810E-001,2.24264E-001,5.54975E+000,1.22736E-002,5.06339E-001,0,8.39367E+001,-8.30625E+000,9.98972E-001,4.06461E+001,-4.22154E+001,9.98000E-001,1.54049E-001,-6.34458E-002,-8.05867E-005,1.54049E-001,-6.34459E-002,-2.12294E-002,1.54845E-001,1.16653E+000,-1.93635E-002,0.00000E+000,1.67967E-002,9.42167E-001,0.00000E+000,-1.70650E-002,-8.97002E-002,1.00000E+000,23
929,1327,5.17219E+000,-5.22728E-001,1.04230E-002,5.49482E+000,-5.48712E-001,9.93230E-002,5.52304E+000,1.11641E-002,4.62809E-001,0,8.39001E+001,-9.48002E+000,9.98978E-001,4.03365E+001,-4.34778E+001,9.98244E-001,1.49786E-001,-6.34497E-002,-2.08740E-004,1.49786E-001,-6.34499E-002,-5.60879E-002,1.50368E-001,1.16150E+000,-1.94439E-002,0.00000E+000,1.63398E-002,9.42160E-001,0.00000E+000,-1.29621E-002,-8.96346E-002,1.00000E+000,23
939,1307,5.94413E+000,-1.69643E+000,1.51358E-001,5.63304E+000,-4.48696E-001,1.96665E-001,5.65431E+000,1.33737E-002,5.06098E-001,0,8.55953E+001,-8.08646E+000,9.99008E-001,4.23900E+001,-4.18032E+001,9.98194E-001,1.52920E-001,-6.29491E-002,3.89775E-004,1.52920E-001,-6.29498E-002,1.03454E-001,1.53714E-001,1.16521E+000,-2.17777E-002,0.00000E+000,1.98338E-002,9.42454E-001,0.00000E+000,-1.95478E-002,-8.81367E-002,1.00000E+000,23
939,1317,5.93456E+000,-1.10492E+000,6.79529E-002,5.61550E+000,-4.95403E-001,1.40858E-001,5.63906E+000,1.32715E-002,4.48930E-001,0,8.55295E+001,-8.71666E+000,9.98715E-001,4.21606E+001,-4.25086E+001,9.97333E-001,1.50990E-001,-6.29485E-002,3.68650E-004,1.50991E-001,-6.29491E-002,9.87292E-002,1.51684E-001,1.16292E+000,-2.18062E-002,0.00000E+000,1.96604E-002,9.42452E-001,0.00000E+000,-1.72568E-002,-8.81082E-002,1.00000E+000,23
939,1327,5.93458E+000,-4.96370E-001,1.00357E-002,5.60042E+000,-5.32470E-001,7.83224E-002,5.62622E+000,1.06684E-002,4.82759E-001,0,8.55148E+001,-9.18546E+000,9.98588E-001,4.21347E+001,-4.29587E+001,9.97776E-001,1.49038E-001,-6.29477E-002,3.36540E-004,1.49038E-001,-6.29483E-002,9.09603E-002,1.49636E-001,1.16061E+000,-2.18601E-002,0.00000E+000,1.94858E-002,9.42448E-001,0.00000E+000,-1.49488E-002,-8.80543E-002,1.00000E+000,23
919,1337,4.41960E+000,6.37976E-002,-3.91253E-002,5.38024E+000,-6.01227E-001,4.99700E-002,5.41396E+000,1.19898E-002,4.81758E-001,0,8.23825E+001,-1.01910E+001,9.98028E-001,3.86867E+001,-4.43978E+001,9.97508E-001,1.48715E-001,-6.32383E-002,-1.39313E-003,1.48724E-001,-6.32474E-002,-3.76574E-001,1.49277E-001,1.16024E+000,-1.74521E-002,0.00000E+000,1.21610E-002,9.42488E-001,0.00000E+000,-8.67751E-003,-9.04945E-002,1.00000E+000,23
929,1337,5.18036E+000,8.19307E-002,-2.57244E-002,5.48339E+000,-5.92004E-001,3.70687E-002,5.51537E+000,1.12826E-002,4.63054E-001,0,8.39365E+001,-1.00382E+001,9.99067E-001,4.04827E+001,-4.40536E+001,9.98607E-001,1.47628E-001,-6.34526E-002,-2.88869E-004,1.47628E-001,-6.34530E-002,-7.84106E-002,1.48112E-001,1.15897E+000,-1.95203E-002,0.00000E+000,1.61098E-002,9.42153E-001,0.00000E+000,-1.08975E-002,-8.95723E-002,1.00000E+000,23
939,1337,5.94087E+000,1.08262E-001,-2.39038E-002,5.58796E+000,-5.74769E-001,2.28570E-002,5.61748E+000,9.89857E-003,4.84189E-001,0,8.55138E+001,-9.75328E+000,9.99022E-001,4.22553E+001,-4.35378E+001,9.98577E-001,1.47076E-001,-6.29469E-002,2.98546E-004,1.47077E-001,-6.29473E-002,8.14453E-002,1.47584E-001,1.15830E+000,-2.19269E-002,0.00000E+000,1.93111E-002,9.42443E-001,0.00000E+000,-1.26411E-002,-8.79875E-002,1.00000E+000,23
949,1317,6.70139E+000,-1.07642E+000,6.70656E-002,5.72537E+000,-4.76472E-001,1.20335E-001,5.74643E+000,1.90035E-002,4.93348E-001,0,8.72037E+001,-8.39723E+000,9.97048E-001,4.40314E+001,-4.19445E+001,9.95595E-001,1.50026E-001,-6.23820E-002,7.59449E-004,1.50029E-001,-6.23847E-002,2.04853E-001,1.50736E-001,1.16179E+000,-2.40402E-002,0.00000E+000,2.23392E-002,9.42775E-001,0.00000E+000,-1.89732E-002,-8.61745E-002,1.00000E+000,23
949,1327,6.69734E+000,-4.70011E-001,8.65536E-003,5.70731E+000,-5.13769E-001,6.26169E-002,5.73073E+000,1.68463E-002,4.73661E-001,0,8.71293E+001,-8.87465E+000,9.97742E-001,4.39412E+001,-4.24521E+001,9.96633E-001,1.48401E-001,-6.23780E-002,7.71091E-004,1.48404E-001,-6.23808E-002,2.09601E-001,1.49030E-001,1.15985E+000,-2.40823E-002,0.00000E+000,2.22138E-002,9.42773E-001,0.00000E+000,-1.63549E-002,-8.61176E-002,1.00000E+000,23
949,1337,6.70273E+000,1.33979E-001,-2.34311E-002,5.69445E+000,-5.56763E-001,1.19686E-002,5.72162E+000,1.27364E-002,4.86056E-001,0,8.71074E+001,-9.46588E+000,9.98340E-001,4.40508E+001,-4.30381E+001,9.97605E-001,1.46762E-001,-6.23734E-002,7.77059E-004,1.46764E-001,-6.23762E-002,2.12884E-001,1.47314E-001,1.15791E+000,-2.41372E-002,0.00000E+000,2.20881E-002,9.42769E-001,0.00000E+000,-1.37297E-002,-8.60433E-002,1.00000E+000,23
949,1307,6.71382E+000,-1.67405E+000,1.52853E-001,5.74549E+000,-4.35084E-001,1.76745E-001,5.76465E+000,1.50210E-002,5.20537E-001,0,8.73066E+001,-7.84820E+000,9.98129E-001,4.43089E+001,-4.13551E+001,9.97256E-001,1.51637E-001,-6.23851E-002,7.39687E-004,1.51639E-001,-6.23877E-002,1.98018E-001,1.52431E-001,1.16372E+000,-2.40171E-002,0.00000E+000,2.24641E-002,9.42777E-001,0.00000E+000,-2.15817E-002,-8.62058E-002,1.00000E+000,23
909,1317,3.64580E+000,-1.16371E+000,2.45261E-002,5.29732E+000,-5.25268E-001,1.69262E-001,5.32599E+000,1.68563E-002,4.69915E-001,0,8.07764E+001,-9.24297E+000,9.95364E-001,3.66610E+001,-4.36118E+001,9.93493E-001,1.53950E-001,-6.37039E-002,-1.69503E-003,1.53964E-001,-6.37171E-002,-4.46166E-001,1.54724E-001,1.16637E+000,-1.50179E-002,0.00000E+000,9.55531E-003,9.42095E-001,0.00000E+000,-8.61078E-003,-9.06925E-002,1.00000E+000,23
909,1327,3.65599E+000,-5.57651E-001,-1.97827E-002,5.29088E+000,-5.66822E-001,1.11592E-001,5.32232E+000,1.29974E-002,4.81891E-001,0,8.08726E+001,-9.75772E+000,9.96949E-001,3.68222E+001,-4.41437E+001,9.96679E-001,1.51906E-001,-6.37179E-002,-1.92192E-003,1.51923E-001,-6.37351E-002,-5.10641E-001,1.52577E-001,1.16398E+000,-1.50785E-002,0.00000E+000,9.11066E-003,9.42084E-001,0.00000E+000,-7.56117E-003,-9.06659E-002,1.00000E+000,23
909,1337,3.66684E+000,5.70311E-002,-3.79612E-002,5.27957E+000,-6.03640E-001,5.42342E-002,5.31424E+000,1.38441E-002,5.33494E-001,0,8.08869E+001,-1.02181E+001,9.98090E-001,3.70512E+001,-4.45807E+001,9.97765E-001,1.49850E-001,-6.37351E-002,-2.15815E-003,1.49871E-001,-6.37569E-002,-5.78863E-001,1.50426E-001,1.16158E+000,-1.51591E-002,0.00000E+000,8.66473E-003,9.42069E-001,0.00000E+000,-6.50853E-003,-9.06306E-002,1.00000E+000,23
909,1307,3.65365E+000,-1.75248E+000,1.39172E-001,5.30695E+000,-4.79229E-001,2.28303E-001,5.33343E+000,1.67078E-002,4.55144E-001,0,8.07098E+001,-8.61374E+000,9.96108E-001,3.69332E+001,-4.29621E+001,9.91846E-001,1.55967E-001,-6.36985E-002,-1.49333E-003,1.55977E-001,-6.37087E-002,-3.89484E-001,1.56846E-001,1.16874E+000,-1.50112E-002,0.00000E+000,9.99487E-003,9.42096E-001,0.00000E+000,-9.64837E-003,-9.06955E-002,1.00000E+000,23
919,1347,4.44004E+000,6.84480E-001,-4.52776E-002,5.37538E+000,-6.33091E-001,-9.29394E-003,5.41255E+000,1.87622E-002,5.07526E-001,0,8.24984E+001,-1.05803E+001,9.98843E-001,3.90896E+001,-4.47808E+001,9.98363E-001,1.46586E-001,-6.32591E-002,-1.64651E-003,1.46599E-001,-6.32721E-002,-4.49524E-001,1.47055E-001,1.15776E+000,-1.75478E-002,0.00000E+000,1.16471E-002,9.42468E-001,0.00000E+000,-7.00381E-003,-9.04299E-002,1.00000E+000,23
929,1347,5.19724E+000,6.96495E-001,-3.30860E-002,5.47548E+000,-6.28992E-001,-2.02221E-002,5.51153E+000,1.08798E-002,4.58945E-001,0,8.40027E+001,-1.05083E+001,9.98971E-001,4.08256E+001,-4.45425E+001,9.98613E-001,1.45455E-001,-6.34559E-002,-3.78092E-004,1.45456E-001,-6.34566E-002,-1.03695E-001,1.45849E-001,1.15643E+000,-1.96168E-002,0.00000E+000,1.58793E-002,9.42144E-001,0.00000E+000,-8.82780E-003,-8.94935E-002,1.00000E+000,23
939,1347,5.95795E+000,7.22517E-001,-2.69985E-002,5.58057E+000,-6.12169E-001,-2.78572E-002,5.61411E+000,1.53252E-002,4.87017E-001,0,8.55666E+001,-1.02452E+001,9.98863E-001,4.26088E+001,-4.40358E+001,9.97642E-001,1.45098E-001,-6.29459E-002,2.51427E-004,1.45099E-001,-6.29462E-002,6.92434E-002,1.45522E-001,1.15599E+000,-2.20142E-002,0.00000E+000,1.91358E-002,9.42436E-001,0.00000E+000,-1.03241E-002,-8.79002E-002,1.00000E+000,23
949,1347,6.72292E+000,7.46691E-001,-1.35546E-002,5.68811E+000,-5.98081E-001,-3.40966E-002,5.71957E+000,1.29161E-002,4.98866E-001,0,8.71606E+001,-1.00201E+001,9.97937E-001,4.44769E+001,-4.35815E+001,9.97036E-001,1.45103E-001,-6.23675E-002,7.72247E-004,1.45106E-001,-6.23704E-002,2.13263E-001,1.45581E-001,1.15595E+000,-2.42170E-002,0.00000E+000,2.19616E-002,9.42764E-001,0.00000E+000,-1.10882E-002,-8.59355E-002,1.00000E+000,23
959,1317,7.45975E+000,-1.05467E+000,5.09471E-002,5.82823E+000,-4.61796E-001,9.32179E-002,5.84724E+000,1.71694E-002,4.83594E-001,0,8.87958E+001,-8.12153E+000,9.97524E-001,4.57439E+001,-4.14802E+001,9.96847E-001,1.49156E-001,-6.17517E-002,8.32134E-004,1.49159E-001,-6.17550E-002,2.26055E-001,1.49892E-001,1.16074E+000,-2.63668E-002,0.00000E+000,2.44155E-002,9.43145E-001,0.00000E+000,-1.98036E-002,-8.39454E-002,1.00000E+000,23
959,1327,7.45813E+000,-4.48705E-001,-7.46931E-003,5.81427E+000,-4.98774E-001,4.35683E-002,5.83578E+000,2.33440E-002,4.56685E-001,0,8.87582E+001,-8.60614E+000,9.98938E-001,4.56910E+001,-4.19959E+001,9.98010E-001,1.47785E-001,-6.17424E-002,9.11813E-004,1.47789E-001,-6.17464E-002,2.49331E-001,1.48453E-001,1.15910E+000,-2.63984E-002,0.00000E+000,2.44044E-002,9.43145E-001,0.00000E+000,-1.70704E-002,-8.38929E-002,1.00000E+000,23
959,1337,7.46629E+000,1.55133E-001,-2.51403E-002,5.80180E+000,-5.44450E-001,-2.58641E-003,5.82729E+000,1.81473E-002,4.58946E-001,0,8.87266E+001,-9.23051E+000,9.98095E-001,4.58719E+001,-4.26186E+001,9.97323E-001,1.46398E-001,-6.17302E-002,9.82750E-004,1.46402E-001,-6.17348E-002,2.70535E-001,1.47000E-001,1.15744E+000,-2.64512E-002,0.00000E+000,2.43933E-002,9.43144E-001,0.00000E+000,-1.43219E-002,-8.38050E-002,1.00000E+000,23
959,1307,7.46918E+000,-1.64953E+000,1.39685E-001,5.84624E+000,-4.16011E-001,1.56115E-001,5.86310E+000,1.29209E-002,5.08593E-001,0,8.88412E+001,-7.53093E+000,9.98022E-001,4.59811E+001,-4.08578E+001,9.97408E-001,1.50515E-001,-6.17598E-002,7.48262E-004,1.50518E-001,-6.17624E-002,2.01962E-001,1.51323E-001,1.16238E+000,-2.63449E-002,0.00000E+000,2.44266E-002,9.43145E-001,0.00000E+000,-2.25329E-002,-8.39819E-002,1.00000E+000,23
959,1347,7.48166E+000,7.63392E-001,-2.76995E-002,5.79255E+000,-5.87982E-001,-5.17191E-002,5.82255E+000,1.30590E-002,4.61482E-001,0,8.87498E+001,-9.82394E+000,9.98095E-001,4.61956E+001,-4.32074E+001,9.97559E-001,1.44999E-001,-6.17166E-002,1.04900E-003,1.45004E-001,-6.17220E-002,2.90743E-001,1.45538E-001,1.15579E+000,-2.65143E-002,0.00000E+000,2.43821E-002,9.43144E-001,0.00000E+000,-1.15699E-002,-8.37002E-002,1.00000E+000,23
909,1347,3.68823E+000,6.74333E-001,-3.20648E-002,5.27377E+000,-6.38389E-001,-2.97705E-003,5.31227E+000,1.58545E-002,5.32376E-001,0,8.09795E+001,-1.06692E+001,9.98920E-001,3.74960E+001,-4.50576E+001,9.97590E-001,1.47792E-001,-6.37552E-002,-2.40206E-003,1.47820E-001,-6.37825E-002,-6.50463E-001,1.48282E-001,1.15919E+000,-1.52580E-002,0.00000E+000,8.21970E-003,9.42050E-001,0.00000E+000,-5.45804E-003,-9.05872E-002,1.00000E+000,23
899,1327,2.90316E+000,-5.58267E-001,1.49122E-002,5.18173E+000,-5.67383E-001,1.12613E-001,5.21391E+000,9.68898E-003,4.98128E-001,0,7.92501E+001,-9.74917E+000,9.97836E-001,3.52636E+001,-4.43203E+001,9.97664E-001,1.52669E-001,-6.41032E-002,-2.58015E-003,1.52700E-001,-6.41340E-002,-6.81838E-001,1.53350E-001,1.16488E+000,-1.29525E-002,0.00000E+000,5.91099E-003,9.41792E-001,0.00000E+000,-4.73673E-003,-9.12006E-002,1.00000E+000,23
899,1337,2.91869E+000,5.19010E-002,-2.50962E-002,5.17898E+000,-6.04320E-001,5.06188E-002,5.21436E+000,1.42261E-002,5.20491E-001,0,7.94128E+001,-1.02140E+001,9.99130E-001,3.55180E+001,-4.47959E+001,9.98817E-001,1.50822E-001,-6.41149E-002,-2.77176E-003,1.50858E-001,-6.41506E-002,-7.38704E-001,1.51419E-001,1.16273E+000,-1.30122E-002,0.00000E+000,5.58025E-003,9.41782E-001,0.00000E+000,-4.31122E-003,-9.11888E-002,1.00000E+000,23
899,1347,2.94743E+000,6.65541E-001,-1.87539E-002,5.18069E+000,-6.42908E-001,-6.29139E-003,5.22044E+000,1.23055E-002,5.00043E-001,0,7.96196E+001,-1.07108E+001,9.98959E-001,3.60785E+001,-4.53409E+001,9.98490E-001,1.48966E-001,-6.41308E-002,-2.97616E-003,1.49007E-001,-6.41723E-002,-7.99999E-001,1.49484E-001,1.16057E+000,-1.31003E-002,0.00000E+000,5.24848E-003,9.41769E-001,0.00000E+000,-3.88440E-003,-9.11713E-002,1.00000E+000,23
899,1317,2.89952E+000,-1.15863E+000,8.44262E-002,5.19074E+000,-5.24450E-001,1.77679E-001,5.22019E+000,1.31478E-002,5.02802E-001,0,7.91656E+001,-9.21320E+000,9.97193E-001,3.52588E+001,-4.37427E+001,9.95750E-001,1.54508E-001,-6.40943E-002,-2.39690E-003,1.54534E-001,-6.41206E-002,-6.28128E-001,1.55278E-001,1.16703E+000,-1.29110E-002,0.00000E+000,6.24081E-003,9.41798E-001,0.00000E+000,-5.16104E-003,-9.12088E-002,1.00000E+000,23
899,1307,2.89910E+000,-1.74989E+000,1.76364E-001,5.19733E+000,-4.76773E-001,2.38582E-001,5.22460E+000,1.31591E-002,4.53632E-001,0,7.90517E+001,-8.55802E+000,9.97333E-001,3.53547E+001,-4.30986E+001,9.94531E-001,1.56336E-001,-6.40880E-002,-2.22216E-003,1.56358E-001,-6.41104E-002,-5.77537E-001,1.57200E-001,1.16917E+000,-1.28880E-002,0.00000E+000,6.56943E-003,9.41802E-001,0.00000E+000,-5.58382E-003,-9.12133E-002,1.00000E+000,23
889,1327,2.14938E+000,-5.65677E-001,2.39706E-002,5.07597E+000,-5.71096E-001,1.10105E-001,5.10918E+000,8.57177E-003,5.00032E-001,0,7.76940E+001,-9.78278E+000,9.98461E-001,3.36389E+001,-4.45538E+001,9.98235E-001,1.53453E-001,-6.34565E-002,-3.28266E-003,1.53502E-001,-6.35062E-002,-8.66838E-001,1.54262E-001,1.16581E+000,-1.11610E-002,0.00000E+000,2.89617E-003,9.42483E-001,0.00000E+000,-1.85234E-003,-9.19581E-002,1.00000E+000,23
889,1337,2.15952E+000,4.53629E-002,-1.76244E-002,5.06911E+000,-6.05535E-001,5.17622E-002,5.10541E+000,1.31381E-002,5.19627E-001,0,7.77804E+001,-1.02247E+001,9.98972E-001,3.38075E+001,-4.50166E+001,9.98710E-001,1.51700E-001,-6.34565E-002,-3.31034E-003,1.51751E-001,-6.35074E-002,-8.81259E-001,1.52422E-001,1.16377E+000,-1.12137E-002,0.00000E+000,2.95236E-003,9.42484E-001,0.00000E+000,-2.43174E-003,-9.19731E-002,1.00000E+000,23
889,1347,2.18929E+000,6.56840E-001,-1.47129E-002,5.07263E+000,-6.45551E-001,-5.92617E-003,5.11355E+000,1.08376E-002,4.99115E-001,0,7.80174E+001,-1.07437E+001,9.98665E-001,3.43777E+001,-4.55892E+001,9.98529E-001,1.49937E-001,-6.34565E-002,-3.35027E-003,1.49989E-001,-6.35091E-002,-8.99247E-001,1.50575E-001,1.16172E+000,-1.12947E-002,0.00000E+000,3.00880E-003,9.42486E-001,0.00000E+000,-3.01368E-003,-9.19961E-002,1.00000E+000,23
969,1297,8.25402E+000,-2.21782E+000,2.36205E-001,5.97640E+000,-3.54512E-001,1.82481E-001,5.98969E+000,1.87419E-002,4.82707E-001,0,9.06416E+001,-6.61500E+000,9.98686E-001,4.82480E+001,-3.97688E+001,9.97300E-001,1.50463E-001,-6.14064E-002,5.82140E-004,1.50465E-001,-6.14080E-002,1.57426E-001,1.51309E-001,1.16235E+000,-2.83233E-002,0.00000E+000,2.59186E-002,9.43256E-001,0.00000E+000,-2.57623E-002,-8.15317E-002,1.00000E+000,23
969,1307,8.22981E+000,-1.63310E+000,1.34869E-001,5.95020E+000,-4.07228E-001,1.36890E-001,5.96569E+000,2.90493E-002,4.69224E-001,0,9.04204E+001,-7.34400E+000,9.98226E-001,4.77557E+001,-4.05165E+001,9.96510E-001,1.49373E-001,-6.13984E-002,7.09343E-004,1.49375E-001,-6.14008E-002,1.92824E-001,1.50161E-001,1.16101E+000,-2.83275E-002,0.00000E+000,2.59693E-002,9.43256E-001,0.00000E+000,-2.29233E-002,-8.15229E-002,1.00000E+000,23
969,1317,8.22206E+000,-1.03850E+000,5.14771E-002,5.93282E+000,-4.53488E-001,7.48805E-002,5.95059E+000,1.13129E-002,4.70425E-001,0,9.03822E+001,-7.96728E+000,9.99234E-001,4.75555E+001,-4.11393E+001,9.98570E-001,1.48272E-001,-6.13869E-002,8.29899E-004,1.48275E-001,-6.13902E-002,2.26791E-001,1.49004E-001,1.15967E+000,-2.83476E-002,0.00000E+000,2.60201E-002,9.43257E-001,0.00000E+000,-2.00813E-002,-8.14801E-002,1.00000E+000,23
889,1317,2.14146E+000,-1.16452E+000,9.18661E-002,5.08014E+000,-5.27267E-001,1.71402E-001,5.11030E+000,1.18209E-002,5.21892E-001,0,7.75489E+001,-9.23138E+000,9.98427E-001,3.35647E+001,-4.39393E+001,9.97733E-001,1.55199E-001,-6.34565E-002,-3.26148E-003,1.55248E-001,-6.35051E-002,-8.54375E-001,1.56101E-001,1.16785E+000,-1.11235E-002,0.00000E+000,2.84007E-003,9.42482E-001,0.00000E+000,-1.27393E-003,-9.19475E-002,1.00000E+000,23
969,1327,8.21778E+000,-4.30553E-001,-7.91903E-003,5.91549E+000,-4.89003E-001,2.15813E-002,5.93571E+000,1.40025E-002,4.97954E-001,0,9.03065E+001,-8.45009E+000,9.98911E-001,4.74590E+001,-4.15937E+001,9.98457E-001,1.47159E-001,-6.13738E-002,9.47432E-004,1.47164E-001,-6.13781E-002,2.60306E-001,1.47837E-001,1.15833E+000,-2.83750E-002,0.00000E+000,2.60710E-002,9.43258E-001,0.00000E+000,-1.72333E-002,-8.14223E-002,1.00000E+000,23
889,1307,2.13696E+000,-1.75665E+000,1.85746E-001,5.08193E+000,-4.81269E-001,2.31248E-001,5.10991E+000,1.49057E-002,4.77644E-001,0,7.73668E+001,-8.59965E+000,9.97912E-001,3.36023E+001,-4.33090E+001,9.95447E-001,1.56935E-001,-6.34565E-002,-3.24795E-003,1.56983E-001,-6.35044E-002,-8.44133E-001,1.57934E-001,1.16988E+000,-1.11038E-002,0.00000E+000,2.78420E-003,9.42481E-001,0.00000E+000,-6.97792E-004,-9.19419E-002,1.00000E+000,23
969,1337,8.22335E+000,1.70780E-001,-3.62071E-002,5.90249E+000,-5.34232E-001,-2.54991E-002,5.92667E+000,1.48128E-002,4.23145E-001,0,9.02728E+001,-9.05481E+000,9.98522E-001,4.75773E+001,-4.22689E+001,9.98113E-001,1.46036E-001,-6.13583E-002,1.05995E-003,1.46041E-001,-6.13637E-002,2.92818E-001,1.46660E-001,1.15698E+000,-2.84139E-002,0.00000E+000,2.61220E-002,9.43259E-001,0.00000E+000,-1.43803E-002,-8.13398E-002,1.00000E+000,23
969,1347,8.23220E+000,7.94526E-001,-3.63860E-002,5.88796E+000,-5.63181E-001,-6.56032E-002,5.91520E+000,1.26879E-002,4.56222E-001,0,9.01808E+001,-9.43220E+000,9.98390E-001,4.78053E+001,-4.26075E+001,9.97763E-001,1.44895E-001,-6.13405E-002,1.16865E-003,1.44902E-001,-6.13471E-002,3.24657E-001,1.45468E-001,1.15562E+000,-2.84629E-002,0.00000E+000,2.61733E-002,9.43261E-001,0.00000E+000,-1.15076E-002,-8.12362E-002,1.00000E+000,23
879,1327,1.39996E+000,-5.67983E-001,3.94713E-002,4.97404E+000,-5.69516E-001,1.13356E-001,5.00782E+000,1.21462E-002,5.09431E-001,0,7.61729E+001,-9.75586E+000,9.98542E-001,3.21020E+001,-4.47184E+001,9.98216E-001,1.54128E-001,-6.36531E-002,-3.72757E-003,1.54192E-001,-6.37169E-002,-9.80299E-001,1.54964E-001,1.16662E+000,-9.64511E-003,0.00000E+000,6.58278E-004,9.42260E-001,0.00000E+000,1.91054E-004,-9.14399E-002,1.00000E+000,23
879,1337,1.40988E+000,3.81350E-002,-9.69197E-003,4.96763E+000,-6.07988E-001,4.98914E-002,5.00494E+000,1.16691E-002,4.94584E-001,0,7.62838E+001,-1.02366E+001,9.97964E-001,3.22502E+001,-4.52600E+001,9.97841E-001,1.52556E-001,-6.36499E-002,-3.69655E-003,1.52619E-001,-6.37130E-002,-9.79226E-001,1.53310E-001,1.16478E+000,-9.69058E-003,0.00000E+000,8.65534E-004,9.42265E-001,0.00000E+000,-9.69108E-004,-9.14686E-002,1.00000E+000,23
879,1347,1.43508E+000,6.53954E-001,-1.00281E-002,4.96809E+000,-6.43922E-001,-4.72409E-003,5.00964E+000,1.37963E-002,5.19089E-001,0,7.64624E+001,-1.06992E+001,9.97950E-001,3.27448E+001,-4.57385E+001,9.97874E-001,1.50969E-001,-6.36453E-002,-3.67518E-003,1.51032E-001,-6.37082E-002,-9.80784E-001,1.51646E-001,1.16293E+000,-9.75929E-003,0.00000E+000,1.07417E-003,9.42273E-001,0.00000E+000,-2.13697E-003,-9.15121E-002,1.00000E+000,23
879,1307,1.37703E+000,-1.75629E+000,2.05471E-001,4.96780E+000,-4.78781E-001,2.31500E-001,4.99618E+000,1.64825E-002,4.93660E-001,0,7.56699E+001,-8.54937E+000,9.97265E-001,3.19136E+001,-4.34352E+001,9.95496E-001,1.57251E-001,-6.36569E-002,-3.80817E-003,1.57316E-001,-6.37225E-002,-9.87317E-001,1.58259E-001,1.17027E+000,-9.59830E-003,0.00000E+000,2.45251E-004,9.42255E-001,0.00000E+000,2.50307E-003,-9.14102E-002,1.00000E+000,23
879,1317,1.38765E+000,-1.16495E+000,1.13097E-001,4.97354E+000,-5.23457E-001,1.79444E-001,5.00423E+000,1.18360E-002,4.55728E-001,0,7.59407E+001,-9.15288E+000,9.98644E-001,3.19735E+001,-4.41234E+001,9.97753E-001,1.55697E-001,-6.36556E-002,-3.76399E-003,1.55761E-001,-6.37201E-002,-9.82783E-001,1.56617E-001,1.16845E+000,-9.61214E-003,0.00000E+000,4.51018E-004,9.42256E-001,0.00000E+000,1.35124E-003,-9.14190E-002,1.00000E+000,23
979,1307,9.01343E+000,-1.61412E+000,1.35397E-001,6.07347E+000,-3.97948E-001,1.08857E-001,6.08747E+000,1.72168E-002,4.62678E-001,0,9.23195E+001,-7.14890E+000,9.99345E-001,4.99019E+001,-4.01280E+001,9.99173E-001,1.48352E-001,-6.09826E-002,6.72308E-004,1.48354E-001,-6.09848E-002,1.84011E-001,1.49134E-001,1.15977E+000,-2.98705E-002,0.00000E+000,2.70589E-002,9.43394E-001,0.00000E+000,-2.20570E-002,-7.85567E-002,1.00000E+000,23
979,1317,8.99169E+000,-1.01220E+000,5.37549E-002,6.04361E+000,-4.36490E-001,5.57901E-002,6.05961E+000,1.00410E-002,4.63946E-001,0,9.20600E+001,-7.66509E+000,9.99018E-001,4.94897E+001,-4.06412E+001,9.98469E-001,1.47613E-001,-6.09685E-002,8.38353E-004,1.47617E-001,-6.09718E-002,2.30284E-001,1.48359E-001,1.15885E+000,-2.98821E-002,0.00000E+000,2.71958E-002,9.43396E-001,0.00000E+000,-1.92962E-002,-7.85217E-002,1.00000E+000,23
979,1327,8.98036E+000,-4.08476E-001,-7.70954E-003,6.02005E+000,-4.75453E-001,4.41322E-003,6.03880E+000,1.15240E-002,4.81055E-001,0,9.18861E+001,-8.20655E+000,9.97914E-001,4.92791E+001,-4.11610E+001,9.97012E-001,1.46866E-001,-6.09519E-002,1.00188E-003,1.46870E-001,-6.09567E-002,2.76212E-001,1.47576E-001,1.15793E+000,-2.98997E-002,0.00000E+000,2.73328E-002,9.43398E-001,0.00000E+000,-1.65321E-002,-7.84689E-002,1.00000E+000,23
979,1337,8.98070E+000,2.01102E-001,-4.17418E-002,6.00398E+000,-5.11601E-001,-3.80619E-002,6.02586E+000,1.54413E-002,4.47003E-001,0,9.17894E+001,-8.69478E+000,9.96885E-001,4.93049E+001,-4.16749E+001,9.96256E-001,1.46108E-001,-6.09329E-002,1.16300E-003,1.46114E-001,-6.09394E-002,3.21831E-001,1.46783E-001,1.15701E+000,-2.99232E-002,0.00000E+000,2.74702E-002,9.43402E-001,0.00000E+000,-1.37612E-002,-7.83982E-002,1.00000E+000,23
979,1347,8.98865E+000,8.22036E-001,-3.76869E-002,5.98704E+000,-5.43106E-001,-8.00337E-002,6.01216E+000,1.59844E-002,4.51527E-001,0,9.16678E+001,-9.11471E+000,9.95879E-001,4.95253E+001,-4.20789E+001,9.94925E-001,1.45338E-001,-6.09089E-002,1.31960E-003,1.45346E-001,-6.09174E-002,3.66568E-001,1.45979E-001,1.15609E+000,-2.99588E-002,0.00000E+000,2.76083E-002,9.43407E-001,0.00000E+000,-1.09743E-002,-7.82908E-002,1.00000E+000,23
979,1297,9.01613E+000,-2.19762E+000,2.26878E-001,6.08268E+000,-3.41528E-001,1.64582E-001,6.09448E+000,1.48167E-002,4.74618E-001,0,9.22477E+001,-6.37264E+000,9.98967E-001,5.00408E+001,-3.93458E+001,9.98474E-001,1.49083E-001,-6.09958E-002,5.05072E-004,1.49084E-001,-6.09971E-002,1.37750E-001,1.49902E-001,1.16068E+000,-2.98612E-002,0.00000E+000,2.69221E-002,9.43393E-001,0.00000E+000,-2.48180E-002,-7.85848E-002,1.00000E+000,23
869,1317,6.23087E-001,-1.16372E+000,1.10401E-001,4.85736E+000,-5.18210E-001,1.71273E-001,4.88793E+000,9.34935E-003,4.84098E-001,0,7.42384E+001,-9.04281E+000,9.98912E-001,3.01679E+001,-4.41851E+001,9.97612E-001,1.55874E-001,-6.39820E-002,-3.86239E-003,1.55942E-001,-6.40498E-002,-1.00615E+000,1.56768E-001,1.16867E+000,-7.90448E-003,0.00000E+000,-1.24277E-003,9.41904E-001,0.00000E+000,3.02247E-003,-9.08890E-002,1.00000E+000,23
869,1327,6.37058E-001,-5.66948E-001,3.95575E-002,4.86000E+000,-5.63024E-001,1.09608E-001,4.89373E+000,1.21885E-002,5.35655E-001,0,7.44869E+001,-9.65009E+000,9.98366E-001,3.03280E+001,-4.47918E+001,9.97565E-001,1.54596E-001,-6.39798E-002,-3.82200E-003,1.54663E-001,-6.40466E-002,-1.00146E+000,1.55421E-001,1.16718E+000,-7.93036E-003,0.00000E+000,-1.00289E-003,9.41908E-001,0.00000E+000,1.44330E-003,-9.09163E-002,1.00000E+000,23
869,1337,6.53770E-001,3.46378E-002,-1.62378E-003,4.85991E+000,-6.06788E-001,5.12805E-002,4.89791E+000,1.33596E-002,5.08423E-001,0,7.46777E+001,-1.02097E+001,9.97391E-001,3.05988E+001,-4.54277E+001,9.96966E-001,1.53310E-001,-6.39767E-002,-3.78677E-003,1.53376E-001,-6.40427E-002,-9.98121E-001,1.54070E-001,1.16567E+000,-7.96857E-003,0.00000E+000,-7.62324E-004,9.41914E-001,0.00000E+000,-1.40462E-004,-9.09565E-002,1.00000E+000,23
869,1347,6.76036E-001,6.51775E-001,-1.17279E-002,4.86017E+000,-6.38069E-001,-1.09557E-003,4.90187E+000,1.69286E-002,5.05082E-001,0,7.48454E+001,-1.06119E+001,9.97988E-001,3.10281E+001,-4.58807E+001,9.97702E-001,1.52018E-001,-6.39728E-002,-3.75655E-003,1.52083E-001,-6.40381E-002,-9.96098E-001,1.52713E-001,1.16417E+000,-8.01852E-003,0.00000E+000,-5.21284E-004,9.41922E-001,0.00000E+000,-1.72732E-003,-9.10092E-002,1.00000E+000,23
869,1307,6.18089E-001,-1.75431E+000,2.13180E-001,4.85671E+000,-4.72756E-001,2.31326E-001,4.88514E+000,1.35277E-002,5.16697E-001,0,7.40194E+001,-8.45205E+000,9.97655E-001,3.02191E+001,-4.35074E+001,9.96438E-001,1.57141E-001,-6.39831E-002,-3.90921E-003,1.57210E-001,-6.40521E-002,-1.01250E+000,1.58106E-001,1.17017E+000,-7.89438E-003,0.00000E+000,-1.48147E-003,9.41903E-001,0.00000E+000,4.59396E-003,-9.08783E-002,1.00000E+000,23
989,1307,9.76391E+000,-1.57956E+000,1.19913E-001,6.16714E+000,-3.70357E-001,8.27635E-002,6.17881E+000,1.39887E-002,4.82226E-001,0,9.37574E+001,-6.68786E+000,9.98359E-001,5.15096E+001,-3.94554E+001,9.98069E-001,1.47510E-001,-6.08482E-002,5.71046E-004,1.47512E-001,-6.08498E-002,1.57028E-001,1.48263E-001,1.15873E+000,-3.07243E-002,0.00000E+000,2.74135E-002,9.43318E-001,0.00000E+000,-2.03843E-002,-7.59553E-002,1.00000E+000,23
989,1317,9.73897E+000,-9.75768E-001,3.69623E-002,6.13522E+000,-4.08182E-001,3.39093E-002,6.14888E+000,1.39856E-002,5.29102E-001,0,9.34539E+001,-7.19830E+000,9.98840E-001,5.10455E+001,-3.99127E+001,9.98167E-001,1.47071E-001,-6.08308E-002,7.90782E-004,1.47074E-001,-6.08338E-002,2.17928E-001,1.47804E-001,1.15817E+000,-3.07304E-002,0.00000E+000,2.76505E-002,9.43320E-001,0.00000E+000,-1.76613E-002,-7.59257E-002,1.00000E+000,23
989,1327,9.74075E+000,-3.74975E-001,-1.12250E-002,6.12268E+000,-4.52373E-001,-1.27775E-002,6.13938E+000,1.73903E-002,5.30580E-001,0,9.34319E+001,-7.81172E+000,9.98065E-001,5.10634E+001,-4.05107E+001,9.96797E-001,1.46624E-001,-6.08081E-002,1.00792E-003,1.46629E-001,-6.08130E-002,2.78394E-001,1.47337E-001,1.15761E+000,-3.07430E-002,0.00000E+000,2.78878E-002,9.43326E-001,0.00000E+000,-1.49351E-002,-7.58652E-002,1.00000E+000,23
989,1297,9.78270E+000,-2.17427E+000,2.19879E-001,6.19164E+000,-3.24896E-001,1.43066E-001,6.20181E+000,1.28975E-002,4.76361E-001,0,9.39029E+001,-6.09255E+000,9.98214E-001,5.19125E+001,-3.88736E+001,9.97636E-001,1.47941E-001,-6.08646E-002,3.50973E-004,1.47942E-001,-6.08652E-002,9.63058E-002,1.48714E-001,1.15929E+000,-3.07193E-002,0.00000E+000,2.71769E-002,9.43316E-001,0.00000E+000,-2.31029E-002,-7.59795E-002,1.00000E+000,23
989,1337,9.74091E+000,2.30320E-001,-3.60365E-002,6.10357E+000,-4.92697E-001,-5.83617E-002,6.12370E+000,1.37871E-002,4.54321E-001,0,9.33000E+001,-8.36937E+000,9.96606E-001,5.11033E+001,-4.11305E+001,9.96449E-001,1.46170E-001,-6.07818E-002,1.22252E-003,1.46177E-001,-6.07890E-002,3.38447E-001,1.46865E-001,1.15704E+000,-3.07598E-002,0.00000E+000,2.81246E-002,9.43333E-001,0.00000E+000,-1.22135E-002,-7.57836E-002,1.00000E+000,23
989,1347,9.74760E+000,8.50306E-001,-3.24868E-002,6.08747E+000,-5.22988E-001,-9.08490E-002,6.11057E+000,1.46315E-002,4.53610E-001,0,9.31596E+001,-8.80428E+000,9.98256E-001,5.13012E+001,-4.15493E+001,9.98259E-001,1.45705E-001,-6.07528E-002,1.43660E-003,1.45715E-001,-6.07628E-002,3.98656E-001,1.46383E-001,1.15648E+000,-3.07797E-002,0.00000E+000,2.83628E-002,9.43341E-001,0.00000E+000,-9.47735E-003,-7.56872E-002,1.00000E+000,23
859,1327,-1.21721E-001,-5.63812E-001,3.81164E-002,4.74946E+000,-5.55203E-001,1.03432E-001,4.78292E+000,1.15647E-002,5.46521E-001,0,7.28594E+001,-9.50140E+000,9.97744E-001,2.86195E+001,-4.48367E+001,9.97061E-001,1.54854E-001,-6.40907E-002,-3.71325E-003,1.54917E-001,-6.41537E-002,-9.71351E-001,1.55677E-001,1.16749E+000,-6.46006E-003,0.00000E+000,-2.02347E-003,9.41731E-001,0.00000E+000,2.03339E-003,-9.00775E-002,1.00000E+000,23
859,1337,-1.02209E-001,3.95512E-002,-3.75985E-003,4.75247E+000,-5.96133E-001,4.50665E-002,4.78992E+000,1.35665E-002,5.41748E-001,0,7.30957E+001,-1.00397E+001,9.97354E-001,2.89326E+001,-4.54339E+001,9.96787E-001,1.53892E-001,-6.40898E-002,-3.70975E-003,1.53955E-001,-6.41529E-002,-9.74719E-001,1.54665E-001,1.16636E+000,-6.48822E-003,0.00000E+000,-1.83867E-003,9.41735E-001,0.00000E+000,2.48436E-004,-9.01221E-002,1.00000E+000,23
859,1347,-7.97461E-002,6.47859E-001,-1.14702E-002,4.75246E+000,-6.36517E-001,-8.01065E-003,4.79491E+000,1.87319E-002,5.03438E-001,0,7.32633E+001,-1.05629E+001,9.98317E-001,2.93705E+001,-4.60475E+001,9.97908E-001,1.52922E-001,-6.40887E-002,-3.71059E-003,1.52985E-001,-6.41521E-002,-9.79298E-001,1.53648E-001,1.16523E+000,-6.52647E-003,0.00000E+000,-1.65319E-003,9.41742E-001,0.00000E+000,-1.54299E-003,-9.01827E-002,1.00000E+000,23
859,1307,-1.42267E-001,-1.75103E+000,2.14952E-001,4.74418E+000,-4.67041E-001,2.27292E-001,4.77253E+000,1.64959E-002,6.00338E-001,0,7.23575E+001,-8.35209E+000,9.98103E-001,2.84942E+001,-4.35172E+001,9.97503E-001,1.56755E-001,-6.40916E-002,-3.73295E-003,1.56818E-001,-6.41547E-002,-9.68096E-001,1.57680E-001,1.16973E+000,-6.43377E-003,0.00000E+000,-2.39106E-003,9.41726E-001,0.00000E+000,5.58373E-003,-9.00358E-002,1.00000E+000,23
859,1317,-1.31386E-001,-1.16626E+000,1.08221E-001,4.75072E+000,-5.17728E-001,1.62987E-001,4.78162E+000,1.27937E-002,5.27389E-001,0,7.26810E+001,-9.00137E+000,9.97942E-001,2.85230E+001,-4.42976E+001,9.96225E-001,1.55808E-001,-6.40913E-002,-3.72076E-003,1.55871E-001,-6.41543E-002,-9.69092E-001,1.56681E-001,1.16861E+000,-6.44135E-003,0.00000E+000,-2.20758E-003,9.41728E-001,0.00000E+000,3.81159E-003,-9.00478E-002,1.00000E+000,23
999,1337,1.04961E+001,2.55588E-001,-3.96799E-002,6.20375E+000,-4.71865E-001,-6.12585E-002,6.22198E+000,1.13750E-002,4.16443E-001,0,9.47599E+001,-8.06159E+000,9.99214E-001,5.28092E+001,-4.06501E+001,9.98609E-001,1.46072E-001,-6.07339E-002,1.05994E-003,1.46078E-001,-6.07394E-002,2.93648E-001,1.46766E-001,1.15690E+000,-3.11863E-002,0.00000E+000,2.80042E-002,9.43185E-001,0.00000E+000,-1.02404E-002,-7.30394E-002,1.00000E+000,23
999,1347,1.05089E+001,8.76517E-001,-3.12190E-002,6.19129E+000,-5.04360E-001,-9.86166E-002,6.21259E+000,1.02570E-002,4.08093E-001,0,9.46917E+001,-8.49395E+000,9.99359E-001,5.31093E+001,-4.10666E+001,9.98789E-001,1.45889E-001,-6.07049E-002,1.27026E-003,1.45896E-001,-6.07127E-002,3.52272E-001,1.46579E-001,1.15667E+000,-3.11953E-002,0.00000E+000,2.82418E-002,9.43194E-001,0.00000E+000,-7.72287E-003,-7.29420E-002,1.00000E+000,23
999,1307,1.05214E+001,-1.55102E+000,1.13479E-001,6.26742E+000,-3.48855E-001,6.59461E-002,6.27747E+000,9.50421E-003,4.78611E-001,0,9.52629E+001,-6.32928E+000,9.98734E-001,5.32483E+001,-3.89062E+001,9.98616E-001,1.46580E-001,-6.07953E-002,4.27526E-004,1.46581E-001,-6.07962E-002,1.18120E-001,1.47290E-001,1.15759E+000,-3.11726E-002,0.00000E+000,2.72979E-002,9.43171E-001,0.00000E+000,-1.77237E-002,-7.31875E-002,1.00000E+000,23
999,1317,1.05030E+001,-9.50552E-001,2.89068E-002,6.24165E+000,-3.89628E-001,1.39817E-002,6.25382E+000,1.54912E-002,5.25473E-001,0,9.50662E+001,-6.89218E+000,9.97974E-001,5.28821E+001,-3.94087E+001,9.95045E-001,1.46417E-001,-6.07785E-002,6.39320E-004,1.46419E-001,-6.07805E-002,1.76789E-001,1.47121E-001,1.15736E+000,-3.11753E-002,0.00000E+000,2.75333E-002,9.43173E-001,0.00000E+000,-1.52296E-002,-7.31590E-002,1.00000E+000,23
999,1327,1.05006E+001,-3.54826E-001,-2.01904E-002,6.22641E+000,-4.37578E-001,-2.67940E-002,6.24182E+000,1.69709E-002,5.10272E-001,0,9.49858E+001,-7.57681E+000,9.98368E-001,5.28327E+001,-4.00902E+001,9.97003E-001,1.46248E-001,-6.07580E-002,8.50287E-004,1.46251E-001,-6.07615E-002,2.35340E-001,1.46946E-001,1.15713E+000,-3.11798E-002,0.00000E+000,2.77689E-002,9.43178E-001,0.00000E+000,-1.27335E-002,-7.31093E-002,1.00000E+000,23
999,1297,1.05428E+001,-2.15294E+000,2.13817E-001,6.29407E+000,-3.10809E-001,1.24718E-001,6.30298E+000,1.02999E-002,4.87056E-001,0,9.54472E+001,-5.84968E+000,9.97803E-001,5.36894E+001,-3.84311E+001,9.96352E-001,1.46737E-001,-6.08106E-002,2.15447E-004,1.46737E-001,-6.08108E-002,5.94763E-002,1.47452E-001,1.15782E+000,-3.11707E-002,0.00000E+000,2.70628E-002,9.43169E-001,0.00000E+000,-2.02155E-002,-7.32081E-002,1.00000E+000,23
849,1337,-8.59217E-001,3.99821E-002,4.49282E-003,4.64274E+000,-5.92408E-001,4.53673E-002,4.68060E+000,1.64799E-002,5.64353E-001,0,7.14563E+001,-9.95694E+000,9.98230E-001,2.72785E+001,-4.55377E+001,9.97692E-001,1.54182E-001,-6.39166E-002,-3.37208E-003,1.54234E-001,-6.39687E-002,-8.85582E-001,1.54980E-001,1.16670E+000,-5.21719E-003,0.00000E+000,-2.20981E-003,9.41779E-001,0.00000E+000,1.37307E-004,-8.87390E-002,1.00000E+000,23
849,1347,-8.41458E-001,6.43747E-001,-1.09917E-002,4.64085E+000,-6.34125E-001,-2.81021E-003,4.68397E+000,1.49356E-002,4.91618E-001,0,7.15806E+001,-1.05116E+001,9.98443E-001,2.76267E+001,-4.62241E+001,9.98177E-001,1.53582E-001,-6.39159E-002,-3.37068E-003,1.53634E-001,-6.39681E-002,-8.87658E-001,1.54349E-001,1.16600E+000,-5.23797E-003,0.00000E+000,-2.04348E-003,9.41784E-001,0.00000E+000,-1.60170E-003,-8.87907E-002,1.00000E+000,23
849,1357,-8.09606E-001,1.26229E+000,2.54765E-002,4.64261E+000,-6.70659E-001,-4.97063E-002,4.69106E+000,1.22357E-002,5.05085E-001,0,7.17463E+001,-1.10025E+001,9.98714E-001,2.83140E+001,-4.67553E+001,9.98556E-001,1.52973E-001,-6.39149E-002,-3.37399E-003,1.53026E-001,-6.39674E-002,-8.91025E-001,1.53710E-001,1.16530E+000,-5.26972E-003,0.00000E+000,-1.87559E-003,9.41792E-001,0.00000E+000,-3.35694E-003,-8.88696E-002,1.00000E+000,23
849,1327,-8.72727E-001,-5.59690E-001,4.21203E-002,4.64446E+000,-5.48201E-001,9.38973E-002,4.67765E+000,1.57190E-002,5.30958E-001,0,7.13239E+001,-9.33726E+000,9.98526E-001,2.70484E+001,-4.48906E+001,9.98202E-001,1.54779E-001,-6.39171E-002,-3.37553E-003,1.54831E-001,-6.39692E-002,-8.84068E-001,1.55607E-001,1.16740E+000,-5.20105E-003,0.00000E+000,-2.37612E-003,9.41776E-001,0.00000E+000,1.87615E-003,-8.86989E-002,1.00000E+000,23
1009,1337,1.12596E+001,2.91960E-001,-4.94487E-002,6.31349E+000,-4.42283E-001,-6.26259E-002,6.32927E+000,1.58125E-002,4.48879E-001,0,9.63549E+001,-7.60572E+000,9.99100E-001,5.46383E+001,-3.99482E+001,9.99047E-001,1.45920E-001,-6.06171E-002,7.59923E-004,1.45923E-001,-6.06199E-002,2.10808E-001,1.46617E-001,1.15670E+000,-3.12945E-002,0.00000E+000,2.73891E-002,9.43142E-001,0.00000E+000,-8.40022E-003,-7.05790E-002,1.00000E+000,23
1009,1347,1.12669E+001,8.92873E-001,-3.31700E-002,6.29329E+000,-4.94404E-001,-1.01276E-001,6.31349E+000,1.07930E-002,4.24514E-001,0,9.61802E+001,-8.35946E+000,9.99583E-001,5.48632E+001,-4.06987E+001,9.99318E-001,1.45962E-001,-6.05940E-002,9.25144E-004,1.45966E-001,-6.05982E-002,2.56615E-001,1.46665E-001,1.15674E+000,-3.12930E-002,0.00000E+000,2.75609E-002,9.43149E-001,0.00000E+000,-6.30331E-003,-7.04908E-002,1.00000E+000,23
1009,1297,1.12977E+001,-2.13172E+000,2.04225E-001,6.39249E+000,-2.94833E-001,1.09688E-001,6.40022E+000,1.31330E-002,4.22245E-001,0,9.69176E+001,-5.56315E+000,9.96816E-001,5.53851E+001,-3.80211E+001,9.95744E-001,1.45708E-001,-6.06738E-002,1.03322E-004,1.45708E-001,-6.06738E-002,2.86844E-002,1.46385E-001,1.15656E+000,-3.12968E-002,0.00000E+000,2.67068E-002,9.43131E-001,0.00000E+000,-1.67304E-002,-7.07108E-002,1.00000E+000,23
1009,1307,1.12809E+001,-1.52654E+000,1.10748E-001,6.37039E+000,-3.29088E-001,5.78251E-002,6.37914E+000,1.28373E-002,4.37518E-001,0,9.67773E+001,-6.02331E+000,9.98126E-001,5.50289E+001,-3.84461E+001,9.98256E-001,1.45767E-001,-6.06621E-002,2.67131E-004,1.45768E-001,-6.06625E-002,7.41436E-002,1.46449E-001,1.15660E+000,-3.12965E-002,0.00000E+000,2.68769E-002,9.43133E-001,0.00000E+000,-1.46534E-002,-7.06935E-002,1.00000E+000,23
1009,1317,1.12697E+001,-9.25466E-001,3.76668E-002,6.35148E+000,-3.69357E-001,1.61265E-002,6.36223E+000,1.30249E-002,4.64865E-001,0,9.66481E+001,-6.59705E+000,9.98603E-001,5.47969E+001,-3.89711E+001,9.98336E-001,1.45822E-001,-6.06493E-002,4.31155E-004,1.45823E-001,-6.06502E-002,1.19645E-001,1.46509E-001,1.15663E+000,-3.12960E-002,0.00000E+000,2.70473E-002,9.43135E-001,0.00000E+000,-1.25727E-002,-7.06687E-002,1.00000E+000,23
849,1317,-8.89476E-001,-1.15486E+000,1.16652E-001,4.63989E+000,-5.02404E-001,1.64464E-001,4.66991E+000,1.65656E-002,5.94405E-001,0,7.10196E+001,-8.77811E+000,9.98048E-001,2.68539E+001,-4.42064E+001,9.96937E-001,1.55370E-001,-6.39175E-002,-3.38037E-003,1.55423E-001,-6.39696E-002,-8.82947E-001,1.56230E-001,1.16810E+000,-5.18811E-003,0.00000E+000,-2.54196E-003,9.41772E-001,0.00000E+000,3.60998E-003,-8.86667E-002,1.00000E+000,23
1009,1327,1.12634E+001,-3.21707E-001,-1.62918E-002,6.33053E+000,-4.11225E-001,-3.66924E-002,6.34397E+000,1.25175E-002,4.52487E-001,0,9.65223E+001,-7.15206E+000,9.99101E-001,5.46777E+001,-3.95154E+001,9.99000E-001,1.45873E-001,-6.06328E-002,5.95719E-004,1.45875E-001,-6.06345E-002,1.65282E-001,1.46565E-001,1.15667E+000,-3.12952E-002,0.00000E+000,2.72183E-002,9.43139E-001,0.00000E+000,-1.04858E-002,-7.06216E-002,1.00000E+000,23
849,1307,-9.05934E-001,-1.74835E+000,2.13693E-001,4.62778E+000,-4.59677E-001,2.19231E-001,4.65572E+000,1.85667E-002,5.99718E-001,0,7.06459E+001,-8.21222E+000,9.97945E-001,2.67166E+001,-4.35726E+001,9.97239E-001,1.55957E-001,-6.39177E-002,-3.38866E-003,1.56009E-001,-6.39699E-002,-8.82752E-001,1.56848E-001,1.16879E+000,-5.18340E-003,0.00000E+000,-2.70727E-003,9.41771E-001,0.00000E+000,5.33826E-003,-8.86550E-002,1.00000E+000,23
839,1337,-1.61536E+000,3.21046E-002,2.66293E-002,4.53322E+000,-5.95252E-001,5.80362E-002,4.57250E+000,3.10505E-002,5.55217E-001,0,6.97794E+001,-1.00185E+001,9.98479E-001,2.56741E+001,-4.58158E+001,9.97680E-001,1.54219E-001,-6.40158E-002,-2.86307E-003,1.54256E-001,-6.40533E-002,-7.51505E-001,1.54993E-001,1.16675E+000,-4.14391E-003,0.00000E+000,-2.05309E-003,9.41554E-001,0.00000E+000,-5.13916E-004,-8.71787E-002,1.00000E+000,23
839,1347,-1.59958E+000,6.37450E-001,-5.12732E-003,4.53145E+000,-6.34139E-001,3.08984E-003,4.57560E+000,1.22499E-002,4.91941E-001,0,6.99272E+001,-1.05132E+001,9.98658E-001,2.59553E+001,-4.64399E+001,9.98249E-001,1.53824E-001,-6.40148E-002,-2.85087E-003,1.53862E-001,-6.40521E-002,-7.49661E-001,1.54579E-001,1.16629E+000,-4.15616E-003,0.00000E+000,-1.87042E-003,9.41559E-001,0.00000E+000,-2.33346E-003,-8.72273E-002,1.00000E+000,23
839,1357,-1.56664E+000,1.26031E+000,2.51063E-002,4.53541E+000,-6.65379E-001,-4.57231E-002,4.58419E+000,9.80630E-003,4.85831E-001,0,7.01314E+001,-1.09096E+001,9.99001E-001,2.66482E+001,-4.69022E+001,9.98762E-001,1.53423E-001,-6.40132E-002,-2.84201E-003,1.53460E-001,-6.40504E-002,-7.48717E-001,1.54157E-001,1.16583E+000,-4.17632E-003,0.00000E+000,-1.68605E-003,9.41567E-001,0.00000E+000,-4.16991E-003,-8.73074E-002,1.00000E+000,23
1019,1337,1.20279E+001,3.19203E-001,-4.49054E-002,6.42142E+000,-4.25307E-001,-7.62799E-002,6.43595E+000,1.41038E-002,5.00030E-001,0,9.79638E+001,-7.33294E+000,9.98866E-001,5.65716E+001,-3.94093E+001,9.98841E-001,1.45752E-001,-6.05528E-002,4.62385E-004,1.45753E-001,-6.05538E-002,1.28415E-001,1.46446E-001,1.15650E+000,-3.13141E-002,0.00000E+000,2.67211E-002,9.43106E-001,0.00000E+000,-6.61685E-003,-6.88737E-002,1.00000E+000,23
1019,1347,1.20266E+001,9.21686E-001,-3.80346E-002,6.39832E+000,-4.73015E-001,-9.91528E-002,6.41655E+000,1.26819E-002,4.59379E-001,0,9.76920E+001,-8.03620E+000,9.99144E-001,5.66450E+001,-4.01225E+001,9.99141E-001,1.45943E-001,-6.05359E-002,6.05957E-004,1.45945E-001,-6.05377E-002,1.68145E-001,1.46649E-001,1.15671E+000,-3.13070E-002,0.00000E+000,2.68662E-002,9.43111E-001,0.00000E+000,-4.81690E-003,-6.88134E-002,1.00000E+000,23
839,1327,-1.64588E+000,-5.60582E-001,3.48543E-002,4.52228E+000,-5.41699E-001,9.92518E-002,4.55569E+000,2.69978E-002,5.43580E-001,0,6.94777E+001,-9.23750E+000,9.98968E-001,2.51136E+001,-4.49867E+001,9.98176E-001,1.54611E-001,-6.40169E-002,-2.87482E-003,1.54648E-001,-6.40547E-002,-7.53230E-001,1.55406E-001,1.16721E+000,-4.13026E-003,0.00000E+000,-2.23613E-003,9.41549E-001,0.00000E+000,1.30938E-003,-8.71244E-002,1.00000E+000,23
1019,1327,1.20249E+001,-2.97945E-001,-2.11095E-002,6.43674E+000,-3.93720E-001,-3.84279E-002,6.44889E+000,1.34291E-002,4.57533E-001,0,9.80653E+001,-6.88436E+000,9.98691E-001,5.64893E+001,-3.90353E+001,9.98602E-001,1.45557E-001,-6.05682E-002,3.19178E-004,1.45558E-001,-6.05687E-002,8.87202E-002,1.46239E-001,1.15628E+000,-3.13201E-002,0.00000E+000,2.65761E-002,9.43102E-001,0.00000E+000,-8.41610E-003,-6.89240E-002,1.00000E+000,23
1019,1317,1.20316E+001,-9.05298E-001,3.36746E-002,6.45447E+000,-3.56455E-001,-8.85744E-004,6.46431E+000,1.39207E-002,4.57205E-001,0,9.81952E+001,-6.37637E+000,9.98909E-001,5.66155E+001,-3.85566E+001,9.98487E-001,1.45360E-001,-6.05804E-002,1.77209E-004,1.45360E-001,-6.05806E-002,4.93021E-002,1.46030E-001,1.15607E+000,-3.13237E-002,0.00000E+000,2.64314E-002,9.43099E-001,0.00000E+000,-1.02106E-002,-6.89546E-002,1.00000E+000,23
839,1317,-1.65179E+000,-1.15344E+000,1.14066E-001,4.52434E+000,-4.95214E-001,1.54206E-001,4.55397E+000,1.37315E-002,5.41999E-001,0,6.93239E+001,-8.62524E+000,9.98254E-001,2.50982E+001,-4.43062E+001,9.96282E-001,1.54997E-001,-6.40173E-002,-2.88994E-003,1.55035E-001,-6.40555E-002,-7.55853E-001,1.55813E-001,1.16766E+000,-4.12465E-003,0.00000E+000,-2.41835E-003,9.41547E-001,0.00000E+000,3.12443E-003,-8.71021E-002,1.00000E+000,23
1019,1297,1.20524E+001,-2.10613E+000,1.87583E-001,6.49165E+000,-2.74184E-001,9.36776E-002,6.49811E+000,1.35125E-002,4.30756E-001,0,9.84005E+001,-5.23124E+000,9.98842E-001,5.70696E+001,-3.74923E+001,9.98224E-001,1.44958E-001,-6.06024E-002,-1.05372E-004,1.44958E-001,-6.06024E-002,-2.93704E-002,1.45605E-001,1.15565E+000,-3.13291E-002,0.00000E+000,2.61431E-002,9.43096E-001,0.00000E+000,-1.37879E-002,-6.89998E-002,1.00000E+000,23
1019,1307,1.20359E+001,-1.50540E+000,9.47314E-002,6.46898E+000,-3.15164E-001,3.93498E-002,6.47678E+000,1.68042E-002,4.79965E-001,0,9.82640E+001,-5.78196E+000,9.99027E-001,5.67182E+001,-3.79684E+001,9.98522E-001,1.45161E-001,-6.05923E-002,3.58704E-005,1.45161E-001,-6.05923E-002,9.98877E-003,1.45819E-001,1.15586E+000,-3.13271E-002,0.00000E+000,2.62874E-002,9.43097E-001,0.00000E+000,-1.19969E-002,-6.89827E-002,1.00000E+000,23
839,1307,-1.65881E+000,-1.74329E+000,2.11952E-001,4.52115E+000,-4.49024E-001,2.07495E-001,4.54813E+000,1.22549E-002,5.25293E-001,0,6.90918E+001,-7.99864E+000,9.97606E-001,2.51100E+001,-4.36260E+001,9.95812E-001,1.55379E-001,-6.40176E-002,-2.90623E-003,1.55418E-001,-6.40561E-002,-7.58789E-001,1.56215E-001,1.16812E+000,-4.12192E-003,0.00000E+000,-2.60003E-003,9.41546E-001,0.00000E+000,4.93414E-003,-8.70913E-002,1.00000E+000,23
829,1337,-2.37716E+000,3.17697E-002,1.23683E-002,4.42085E+000,-5.87716E-001,5.00993E-002,4.46003E+000,2.20605E-002,5.54782E-001,0,6.81223E+001,-9.88583E+000,9.97560E-001,2.39039E+001,-4.58950E+001,9.96782E-001,1.53824E-001,-6.40022E-002,-2.33002E-003,1.53849E-001,-6.40271E-002,-6.12782E-001,1.54568E-001,1.16629E+000,-3.34997E-003,0.00000E+000,-1.61676E-003,9.41446E-001,0.00000E+000,-1.30571E-003,-8.57107E-002,1.00000E+000,23
829,1347,-2.35509E+000,6.37860E-001,8.64993E-004,4.42294E+000,-6.28994E-001,2.87228E-003,4.46744E+000,1.09345E-002,5.07068E-001,0,6.83023E+001,-1.04190E+001,9.97748E-001,2.43306E+001,-4.65450E+001,9.97474E-001,1.53583E-001,-6.40056E-002,-2.38724E-003,1.53610E-001,-6.40318E-002,-6.28509E-001,1.54316E-001,1.16601E+000,-3.35838E-003,0.00000E+000,-1.55942E-003,9.41448E-001,0.00000E+000,-3.27698E-003,-8.57708E-002,1.00000E+000,23
829,1357,-2.32554E+000,1.25791E+000,2.38597E-002,4.42517E+000,-6.61922E-001,-4.61532E-002,4.47464E+000,1.08444E-002,5.02182E-001,0,6.84817E+001,-1.08390E+001,9.98649E-001,2.49561E+001,-4.70363E+001,9.98561E-001,1.53338E-001,-6.40101E-002,-2.44619E-003,1.53365E-001,-6.40377E-002,-6.44739E-001,1.54059E-001,1.16573E+000,-3.36986E-003,0.00000E+000,-1.50181E-003,9.41451E-001,0.00000E+000,-5.25776E-003,-8.58530E-002,1.00000E+000,23
1029,1337,1.27744E+001,3.36828E-001,-4.97992E-002,6.51300E+000,-4.12168E-001,-7.40674E-002,6.52645E+000,1.23473E-002,4.78111E-001,0,9.92716E+001,-7.14859E+000,9.98319E-001,5.81524E+001,-3.90379E+001,9.97917E-001,1.45735E-001,-6.03188E-002,2.39770E-004,1.45735E-001,-6.03191E-002,6.66707E-002,1.46454E-001,1.15647E+000,-3.11732E-002,0.00000E+000,2.60626E-002,9.43267E-001,0.00000E+000,-4.67720E-003,-6.77186E-002,1.00000E+000,23
1029,1347,1.27761E+001,9.53338E-001,-4.59412E-002,6.49175E+000,-4.47655E-001,-1.03770E-001,6.50800E+000,1.16609E-002,4.82358E-001,0,9.90481E+001,-7.65553E+000,9.98763E-001,5.82654E+001,-3.95029E+001,9.98271E-001,1.46046E-001,-6.03018E-002,3.85480E-004,1.46047E-001,-6.03025E-002,1.07034E-001,1.46784E-001,1.15683E+000,-3.11607E-002,0.00000E+000,2.62167E-002,9.43273E-001,0.00000E+000,-3.03607E-003,-6.76612E-002,1.00000E+000,23
1029,1327,1.27820E+001,-2.75177E-001,-2.19604E-002,6.53639E+000,-3.76291E-001,-4.37488E-002,6.54736E+000,1.33047E-002,4.47079E-001,0,9.95178E+001,-6.63282E+000,9.98469E-001,5.82440E+001,-3.85878E+001,9.97987E-001,1.45422E-001,-6.03328E-002,9.59326E-005,1.45422E-001,-6.03328E-002,2.67140E-002,1.46122E-001,1.15612E+000,-3.11818E-002,0.00000E+000,2.59090E-002,9.43264E-001,0.00000E+000,-6.31394E-003,-6.77580E-002,1.00000E+000,23
829,1327,-2.40026E+000,-5.61532E-001,3.90547E-002,4.41334E+000,-5.37520E-001,9.08209E-002,4.44688E+000,2.12490E-002,5.69101E-001,0,6.78735E+001,-9.17314E+000,9.98470E-001,2.34998E+001,-4.50998E+001,9.98021E-001,1.54059E-001,-6.39995E-002,-2.27389E-003,1.54083E-001,-6.40232E-002,-5.97387E-001,1.54815E-001,1.16656E+000,-3.34341E-003,0.00000E+000,-1.67389E-003,9.41445E-001,0.00000E+000,6.58281E-004,-8.56637E-002,1.00000E+000,23
829,1307,-2.40278E+000,-1.75082E+000,2.32267E-001,4.42311E+000,-4.51675E-001,2.18316E-001,4.45147E+000,1.43677E-002,4.58505E-001,0,6.75987E+001,-8.03369E+000,9.98180E-001,2.36949E+001,-4.39155E+001,9.96139E-001,1.54517E-001,-6.39973E-002,-2.16560E-003,1.54539E-001,-6.40188E-002,-5.67760E-001,1.55294E-001,1.16711E+000,-3.33818E-003,0.00000E+000,-1.78767E-003,9.41444E-001,0.00000E+000,4.56973E-003,-8.56263E-002,1.00000E+000,23
829,1317,-2.40644E+000,-1.15686E+000,1.15055E-001,4.41639E+000,-4.93353E-001,1.49289E-001,4.44637E+000,1.70540E-002,5.03517E-001,0,6.77270E+001,-8.56359E+000,9.98007E-001,2.34728E+001,-4.44804E+001,9.97306E-001,1.54291E-001,-6.39979E-002,-2.21912E-003,1.54313E-001,-6.40205E-002,-5.82389E-001,1.55057E-001,1.16683E+000,-3.33950E-003,0.00000E+000,-1.73086E-003,9.41444E-001,0.00000E+000,2.61666E-003,-8.56357E-002,1.00000E+000,23
1029,1317,1.27894E+001,-8.86896E-001,2.62858E-002,6.55520E+000,-3.44842E-001,-1.15432E-002,6.56427E+000,1.40821E-002,4.64358E-001,0,9.96852E+001,-6.18286E+000,9.99102E-001,5.83695E+001,-3.81552E+001,9.98122E-001,1.45107E-001,-6.03449E-002,-4.63149E-005,1.45107E-001,-6.03449E-002,-1.29161E-002,1.45790E-001,1.15576E+000,-3.11880E-002,0.00000E+000,2.57561E-002,9.43261E-001,0.00000E+000,-7.94233E-003,-6.77866E-002,1.00000E+000,23
1029,1307,1.28001E+001,-1.48594E+000,1.06560E-001,6.57466E+000,-3.02586E-001,4.15618E-002,6.58175E+000,1.22752E-002,5.01409E-001,0,9.97785E+001,-5.61765E+000,9.99136E-001,5.86062E+001,-3.75857E+001,9.97278E-001,1.44790E-001,-6.03559E-002,-1.87857E-004,1.44791E-001,-6.03561E-002,-5.24669E-002,1.45456E-001,1.15541E+000,-3.11928E-002,0.00000E+000,2.56035E-002,9.43259E-001,0.00000E+000,-9.56816E-003,-6.78087E-002,1.00000E+000,23
1029,1297,1.28140E+001,-2.08215E+000,1.93857E-001,6.59520E+000,-2.57063E-001,9.20799E-002,6.60085E+000,1.18436E-002,4.60680E-001,0,9.98942E+001,-4.98492E+000,9.98723E-001,5.89073E+001,-3.70253E+001,9.97582E-001,1.44470E-001,-6.03660E-002,-3.29247E-004,1.44471E-001,-6.03665E-002,-9.20950E-002,1.45119E-001,1.15506E+000,-3.11964E-002,0.00000E+000,2.54506E-002,9.43257E-001,0.00000E+000,-1.11969E-002,-6.78254E-002,1.00000E+000,23
819,1317,-3.15719E+000,-1.16592E+000,1.27344E-001,4.31120E+000,-4.97928E-001,1.52031E-001,4.34252E+000,1.64750E-002,4.81541E-001,0,6.61467E+001,-8.62352E+000,9.97512E-001,2.19380E+001,-4.47574E+001,9.96379E-001,1.53203E-001,-6.37676E-002,-1.71266E-003,1.53216E-001,-6.37811E-002,-4.52228E-001,1.53931E-001,1.16556E+000,-3.04183E-003,0.00000E+000,-9.37321E-004,9.41512E-001,0.00000E+000,1.76597E-003,-8.37722E-002,1.00000E+000,23
819,1327,-3.15350E+000,-5.71546E-001,4.86171E-002,4.30795E+000,-5.40979E-001,1.01760E-001,4.34297E+000,1.64100E-002,4.98403E-001,0,6.62640E+001,-9.21341E+000,9.98271E-001,2.19200E+001,-4.54122E+001,9.96984E-001,1.53083E-001,-6.37702E-002,-1.82163E-003,1.53098E-001,-6.37855E-002,-4.81255E-001,1.53806E-001,1.16542E+000,-3.04337E-003,0.00000E+000,-9.98577E-004,9.41512E-001,0.00000E+000,-6.31643E-005,-8.37919E-002,1.00000E+000,23
819,1337,-3.13521E+000,3.18156E-002,7.42006E-003,4.31144E+000,-5.81379E-001,4.99337E-002,4.35075E+000,1.34264E-002,5.31334E-001,0,6.64832E+001,-9.75701E+000,9.97751E-001,2.22180E+001,-4.59998E+001,9.97394E-001,1.52959E-001,-6.37754E-002,-1.93201E-003,1.52976E-001,-6.37926E-002,-5.10691E-001,1.53677E-001,1.16528E+000,-3.04662E-003,0.00000E+000,-1.06019E-003,9.41510E-001,0.00000E+000,-1.90290E-003,-8.38338E-002,1.00000E+000,23
819,1307,-3.16230E+000,-1.75704E+000,2.16487E-001,4.30998E+000,-4.55005E-001,1.97561E-001,4.33843E+000,1.58119E-002,4.99950E-001,0,6.59734E+001,-8.02308E+000,9.97893E-001,2.19597E+001,-4.40566E+001,9.96726E-001,1.53319E-001,-6.37660E-002,-1.60441E-003,1.53331E-001,-6.37779E-002,-4.23424E-001,1.54052E-001,1.16570E+000,-3.04097E-003,0.00000E+000,-8.76290E-004,9.41513E-001,0.00000E+000,3.58836E-003,-8.37610E-002,1.00000E+000,23
819,1347,-3.10890E+000,6.43610E-001,-1.76044E-003,4.31756E+000,-6.17288E-001,3.15424E-003,4.36146E+000,1.23019E-002,5.05396E-001,0,6.67209E+001,-1.02144E+001,9.98669E-001,2.27178E+001,-4.65572E+001,9.98593E-001,1.52831E-001,-6.37824E-002,-2.04335E-003,1.52850E-001,-6.38017E-002,-5.40419E-001,1.53543E-001,1.16513E+000,-3.05105E-003,0.00000E+000,-1.12200E-003,9.41508E-001,0.00000E+000,-3.74871E-003,-8.38909E-002,1.00000E+000,23
819,1357,-3.08279E+000,1.25024E+000,3.16245E-002,4.31602E+000,-6.63610E-001,-3.82842E-002,4.36691E+000,1.53910E-002,5.11957E-001,0,6.68212E+001,-1.08678E+001,9.98223E-001,2.33147E+001,-4.72749E+001,9.98003E-001,1.52698E-001,-6.37919E-002,-2.15602E-003,1.52720E-001,-6.38133E-002,-5.70532E-001,1.53406E-001,1.16499E+000,-3.05711E-003,0.00000E+000,-1.18408E-003,9.41506E-001,0.00000E+000,-5.60237E-003,-8.39690E-002,1.00000E+000,23
1039,1337,1.35335E+001,3.60849E-001,-5.50709E-002,6.61515E+000,-3.94992E-001,-7.90828E-002,6.62740E+000,1.09844E-002,4.92969E-001,0,1.00760E+002,-6.88531E+000,9.98771E-001,5.99338E+001,-3.85468E+001,9.97859E-001,1.45768E-001,-5.99554E-002,-1.77887E-004,1.45768E-001,-5.99556E-002,-4.95431E-002,1.46530E-001,1.15651E+000,-3.11064E-002,0.00000E+000,2.51036E-002,9.43582E-001,0.00000E+000,-2.78178E-003,-6.69135E-002,1.00000E+000,23
1039,1347,1.35345E+001,9.65072E-001,-5.25588E-002,6.59349E+000,-4.40687E-001,-1.08357E-001,6.60909E+000,1.06993E-002,4.26090E-001,0,1.00534E+002,-7.54704E+000,9.99311E-001,6.00303E+001,-3.92329E+001,9.98844E-001,1.46180E-001,-5.99459E-002,-8.79985E-005,1.46180E-001,-5.99459E-002,-2.44605E-002,1.46966E-001,1.15699E+000,-3.10900E-002,0.00000E+000,2.51563E-002,9.43584E-001,0.00000E+000,-1.28449E-003,-6.68617E-002,1.00000E+000,23
1039,1317,1.35442E+001,-8.57148E-001,2.25473E-002,6.65406E+000,-3.19870E-001,-1.12680E-002,6.66175E+000,1.15693E-002,4.42810E-001,0,1.01101E+002,-5.80804E+000,9.98813E-001,6.00878E+001,-3.76009E+001,9.97898E-001,1.44937E-001,-5.99705E-002,-3.52651E-004,1.44938E-001,-5.99711E-002,-9.86071E-002,1.45655E-001,1.15556E+000,-3.11270E-002,0.00000E+000,2.49982E-002,9.43580E-001,0.00000E+000,-5.77365E-003,-6.69781E-002,1.00000E+000,23
1039,1327,1.35394E+001,-2.53085E-001,-2.47901E-002,6.63710E+000,-3.59341E-001,-4.56249E-002,6.64697E+000,1.06181E-002,4.21840E-001,0,1.00973E+002,-6.38050E+000,9.98844E-001,6.00036E+001,-3.81539E+001,9.97996E-001,1.45352E-001,-5.99634E-002,-2.66121E-004,1.45353E-001,-5.99638E-002,-7.42639E-002,1.46092E-001,1.15603E+000,-3.11181E-002,0.00000E+000,2.50507E-002,9.43581E-001,0.00000E+000,-4.28330E-003,-6.69502E-002,1.00000E+000,23
1039,1307,1.35560E+001,-1.46413E+000,8.62877E-002,6.67525E+000,-2.84759E-001,2.71874E-002,6.68138E+000,1.20127E-002,4.51817E-001,0,1.01277E+002,-5.31205E+000,9.98714E-001,6.03120E+001,-3.71345E+001,9.97729E-001,1.44520E-001,-5.99768E-002,-4.38331E-004,1.44521E-001,-5.99778E-002,-1.22810E-001,1.45216E-001,1.15508E+000,-3.11338E-002,0.00000E+000,2.49457E-002,9.43579E-001,0.00000E+000,-7.26282E-003,-6.69995E-002,1.00000E+000,23
1039,1297,1.35717E+001,-2.06497E+000,1.75155E-001,6.69699E+000,-2.44364E-001,7.68069E-002,6.70188E+000,1.22847E-002,4.17036E-001,0,1.01414E+002,-4.75358E+000,9.98004E-001,6.06416E+001,-3.66479E+001,9.97454E-001,1.44101E-001,-5.99824E-002,-5.23117E-004,1.44102E-001,-5.99838E-002,-1.46862E-001,1.44774E-001,1.15461E+000,-3.11383E-002,0.00000E+000,2.48932E-002,9.43578E-001,0.00000E+000,-8.75242E-003,-6.70136E-002,1.00000E+000,23
1049,1337,1.43018E+001,3.84979E-001,-5.37543E-002,6.72539E+000,-3.75680E-001,-8.04899E-002,6.73635E+000,1.54804E-002,4.68417E-001,0,1.02354E+002,-6.61724E+000,9.99452E-001,6.18744E+001,-3.80871E+001,9.98577E-001,1.45756E-001,-5.98847E-002,-7.33637E-004,1.45759E-001,-5.98873E-002,-2.04403E-001,1.46529E-001,1.15650E+000,-3.09370E-002,0.00000E+000,2.38273E-002,9.43595E-001,0.00000E+000,-1.39479E-003,-6.55419E-002,1.00000E+000,23
1049,1347,1.43087E+001,9.93610E-001,-4.13057E-002,6.70713E+000,-4.20897E-001,-1.09359E-001,6.72121E+000,1.24713E-002,4.74815E-001,0,1.02176E+002,-7.27465E+000,9.99308E-001,6.20782E+001,-3.86882E+001,9.98150E-001,1.46277E-001,-5.98834E-002,-7.07399E-004,1.46280E-001,-5.98858E-002,-1.96596E-001,1.47078E-001,1.15711E+000,-3.09139E-002,0.00000E+000,2.37787E-002,9.43593E-001,0.00000E+000,-3.13162E-004,-6.55007E-002,1.00000E+000,23
1049,1307,1.43204E+001,-1.43866E+000,9.38033E-002,6.77996E+000,-2.64888E-001,2.41516E-002,6.78518E+000,1.52063E-002,3.97163E-001,0,1.02788E+002,-5.00858E+000,9.98825E-001,6.22042E+001,-3.66876E+001,9.98163E-001,1.44197E-001,-5.98873E-002,-7.97055E-004,1.44200E-001,-5.98904E-002,-2.23765E-001,1.44887E-001,1.15470E+000,-3.09701E-002,0.00000E+000,2.39720E-002,9.43597E-001,0.00000E+000,-4.61494E-003,-6.56011E-002,1.00000E+000,23
1049,1317,1.43060E+001,-8.32721E-001,3.30593E-002,6.75588E+000,-3.01894E-001,-1.25909E-002,6.76263E+000,1.31386E-002,4.17302E-001,0,1.02564E+002,-5.54565E+000,9.98346E-001,6.19461E+001,-3.71610E+001,9.97095E-001,1.44717E-001,-5.98865E-002,-7.76778E-004,1.44720E-001,-5.98894E-002,-2.17519E-001,1.45435E-001,1.15530E+000,-3.09611E-002,0.00000E+000,2.39238E-002,9.43597E-001,0.00000E+000,-3.54347E-003,-6.55851E-002,1.00000E+000,23
1049,1327,1.42996E+001,-2.33636E-001,-2.32558E-002,6.74033E+000,-3.45994E-001,-4.23696E-002,6.74934E+000,8.73824E-003,4.10307E-001,0,1.02446E+002,-6.18625E+000,9.98976E-001,6.18189E+001,-3.77633E+001,9.97500E-001,1.45237E-001,-5.98857E-002,-7.56781E-004,1.45239E-001,-5.98885E-002,-2.11384E-001,1.45981E-001,1.15590E+000,-3.09527E-002,0.00000E+000,2.38756E-002,9.43596E-001,0.00000E+000,-2.47130E-003,-6.55701E-002,1.00000E+000,23
809,1347,-3.87371E+000,6.31220E-001,-2.95787E-003,4.20109E+000,-6.22180E-001,6.35999E-003,4.24691E+000,1.03471E-002,5.07742E-001,0,6.49625E+001,-1.02957E+001,9.99163E-001,2.09405E+001,-4.68520E+001,9.99103E-001,1.51982E-001,-6.35371E-002,-1.72839E-003,1.51996E-001,-6.35509E-002,-4.59452E-001,1.52674E-001,1.16415E+000,-3.09134E-003,0.00000E+000,-4.75160E-004,9.41604E-001,0.00000E+000,-4.03936E-003,-8.21502E-002,1.00000E+000,23
809,1357,-3.84709E+000,1.24287E+000,3.51465E-002,4.19957E+000,-6.64341E-001,-3.38710E-002,4.25192E+000,1.25380E-002,5.04328E-001,0,6.50569E+001,-1.08729E+001,9.98850E-001,2.15600E+001,-4.75094E+001,9.98262E-001,1.51999E-001,-6.35543E-002,-1.92301E-003,1.52016E-001,-6.35715E-002,-5.11097E-001,1.52693E-001,1.16418E+000,-3.09007E-003,0.00000E+000,-7.09851E-004,9.41593E-001,0.00000E+000,-5.78479E-003,-8.22253E-002,1.00000E+000,23
809,1327,-3.91166E+000,-5.83920E-001,3.90368E-002,4.19720E+000,-5.49372E-001,9.38331E-002,4.23404E+000,1.11159E-002,5.44536E-001,0,6.46316E+001,-9.30677E+000,9.98907E-001,2.02226E+001,-4.56624E+001,9.97499E-001,1.51940E-001,-6.35156E-002,-1.34284E-003,1.51949E-001,-6.35240E-002,-3.57080E-001,1.52627E-001,1.16409E+000,-3.09288E-003,0.00000E+000,-1.02477E-005,9.41616E-001,0.00000E+000,-5.81737E-004,-8.20593E-002,1.00000E+000,23
809,1337,-3.89152E+000,2.03923E-002,1.26948E-002,4.20225E+000,-5.87446E-001,5.45103E-002,4.24346E+000,9.07874E-003,5.20972E-001,0,6.48329E+001,-9.83632E+000,9.98968E-001,2.05860E+001,-4.62971E+001,9.98916E-001,1.51963E-001,-6.35252E-002,-1.53532E-003,1.51974E-001,-6.35362E-002,-4.08196E-001,1.52652E-001,1.16412E+000,-3.09219E-003,0.00000E+000,-2.42362E-004,9.41610E-001,0.00000E+000,-2.30800E-003,-8.20996E-002,1.00000E+000,23
809,1307,-3.92114E+000,-1.75944E+000,2.18601E-001,4.19852E+000,-4.52490E-001,2.01613E-001,4.22764E+000,1.86538E-002,5.76555E-001,0,6.42906E+001,-8.00978E+000,9.95584E-001,2.02824E+001,-4.41593E+001,9.94064E-001,1.51887E-001,-6.35078E-002,-9.59421E-004,1.51891E-001,-6.35121E-002,-2.55203E-001,1.52568E-001,1.16403E+000,-3.09337E-003,0.00000E+000,4.51837E-004,9.41620E-001,0.00000E+000,2.85485E-003,-8.20303E-002,1.00000E+000,23
809,1317,-3.91382E+000,-1.17134E+000,1.19298E-001,4.20216E+000,-4.99376E-001,1.46857E-001,4.23427E+000,1.69003E-002,5.59110E-001,0,6.45309E+001,-8.63206E+000,9.98373E-001,2.02694E+001,-4.48860E+001,9.97211E-001,1.51915E-001,-6.35108E-002,-1.15096E-003,1.51921E-001,-6.35169E-002,-3.06103E-001,1.52599E-001,1.16406E+000,-3.09320E-003,0.00000E+000,2.21026E-004,9.41618E-001,0.00000E+000,1.13828E-003,-8.20402E-002,1.00000E+000,23
1049,1297,1.43279E+001,-2.04828E+000,1.72714E-001,6.79607E+000,-2.32466E-001,7.40526E-002,6.80045E+000,1.29011E-002,3.74067E-001,0,1.02843E+002,-4.56510E+000,9.98158E-001,6.23888E+001,-3.63129E+001,9.96587E-001,1.43675E-001,-5.98880E-002,-8.16914E-004,1.43679E-001,-5.98913E-002,-2.29927E-001,1.44339E-001,1.15410E+000,-3.09780E-002,0.00000E+000,2.40201E-002,9.43598E-001,0.00000E+000,-5.68552E-003,-6.56152E-002,1.00000E+000,23
799,1337,-4.64936E+000,1.19767E-002,1.10343E-002,4.09204E+000,-5.89283E-001,5.67867E-002,4.13464E+000,9.75050E-003,5.06269E-001,0,6.31712E+001,-9.85133E+000,9.99018E-001,1.89193E+001,-4.65356E+001,9.98917E-001,1.50604E-001,-6.32429E-002,-1.09280E-003,1.50609E-001,-6.32485E-002,-2.92782E-001,1.51251E-001,1.16254E+000,-3.22084E-003,0.00000E+000,7.23483E-004,9.41743E-001,0.00000E+000,-2.63892E-003,-8.03575E-002,1.00000E+000,23
799,1347,-4.63070E+000,6.20094E-001,-3.35406E-003,4.09223E+000,-6.26611E-001,1.17012E-002,4.13994E+000,1.11144E-002,5.17062E-001,0,6.33122E+001,-1.03640E+001,9.98578E-001,1.92904E+001,-4.71247E+001,9.98645E-001,1.50700E-001,-6.32590E-002,-1.35659E-003,1.50708E-001,-6.32676E-002,-3.63260E-001,1.51353E-001,1.16265E+000,-3.21748E-003,0.00000E+000,3.33224E-004,9.41731E-001,0.00000E+000,-4.12321E-003,-8.03998E-002,1.00000E+000,23
799,1357,-4.59963E+000,1.23843E+000,3.48751E-002,4.09522E+000,-6.61760E-001,-2.93128E-002,4.14845E+000,1.16858E-002,5.00525E-001,0,6.34757E+001,-1.08278E+001,9.98273E-001,1.99826E+001,-4.76870E+001,9.97956E-001,1.50794E-001,-6.32829E-002,-1.62180E-003,1.50806E-001,-6.32952E-002,-4.34026E-001,1.51453E-001,1.16277E+000,-3.21237E-003,0.00000E+000,-6.00261E-005,9.41714E-001,0.00000E+000,-5.61889E-003,-8.04641E-002,1.00000E+000,23
799,1327,-4.66218E+000,-5.95591E-001,5.48027E-002,4.09376E+000,-5.53903E-001,1.11293E-001,4.13256E+000,1.79046E-002,5.25549E-001,0,6.30274E+001,-9.41354E+000,9.99087E-001,1.87094E+001,-4.59879E+001,9.97680E-001,1.50505E-001,-6.32299E-002,-8.29271E-004,1.50509E-001,-6.32331E-002,-2.22297E-001,1.51147E-001,1.16242E+000,-3.22348E-003,0.00000E+000,1.11300E-003,9.41751E-001,0.00000E+000,-1.15743E-003,-8.03242E-002,1.00000E+000,23
1059,1327,1.50602E+001,-2.16103E-001,-1.96161E-002,6.84271E+000,-3.34961E-001,-4.05747E-002,6.85102E+000,1.33887E-002,4.14657E-001,0,1.03908E+002,-6.03435E+000,9.99236E-001,6.36485E+001,-3.73993E+001,9.97825E-001,1.45284E-001,-6.01124E-002,-1.06156E-003,1.45290E-001,-6.01179E-002,-2.96113E-001,1.46008E-001,1.15597E+000,-3.02585E-002,0.00000E+000,2.26325E-002,9.43344E-001,0.00000E+000,-9.25870E-004,-6.44841E-002,1.00000E+000,23
1059,1337,1.50647E+001,4.05148E-001,-4.75697E-002,6.82950E+000,-3.62422E-001,-7.77730E-002,6.83956E+000,1.06055E-002,4.59041E-001,0,1.03839E+002,-6.42812E+000,9.99536E-001,6.37430E+001,-3.76928E+001,9.98896E-001,1.45863E-001,-6.01154E-002,-1.07516E-003,1.45869E-001,-6.01210E-002,-2.99058E-001,1.46618E-001,1.15665E+000,-3.02404E-002,0.00000E+000,2.25392E-002,9.43342E-001,0.00000E+000,-2.89853E-004,-6.44670E-002,1.00000E+000,23
1059,1347,1.50740E+001,1.01496E+000,-3.63530E-002,6.81331E+000,-4.05846E-001,-1.08900E-001,6.82625E+000,1.41856E-002,4.30898E-001,0,1.03700E+002,-7.05201E+000,9.99515E-001,6.39812E+001,-3.82883E+001,9.98244E-001,1.46444E-001,-6.01191E-002,-1.08546E-003,1.46449E-001,-6.01248E-002,-3.01070E-001,1.47228E-001,1.15732E+000,-3.02144E-002,0.00000E+000,2.24455E-002,9.43338E-001,0.00000E+000,3.48300E-004,-6.44423E-002,1.00000E+000,23
1059,1297,1.50841E+001,-2.02782E+000,1.60486E-001,6.89660E+000,-2.15114E-001,7.00911E-002,6.90031E+000,1.25400E-002,3.25400E-001,0,1.04296E+002,-4.29522E+000,9.98459E-001,6.41212E+001,-3.59014E+001,9.96234E-001,1.43549E-001,-6.01055E-002,-1.01117E-003,1.43554E-001,-6.01105E-002,-2.84472E-001,1.44185E-001,1.15397E+000,-3.02894E-002,0.00000E+000,2.29116E-002,9.43349E-001,0.00000E+000,-2.82638E-003,-6.45134E-002,1.00000E+000,23
1059,1307,1.50776E+001,-1.42167E+000,8.94824E-002,6.88150E+000,-2.50325E-001,2.80604E-002,6.88611E+000,1.40923E-002,3.29096E-001,0,1.04229E+002,-4.80353E+000,9.98971E-001,6.39670E+001,-3.63547E+001,9.98100E-001,1.44127E-001,-6.01077E-002,-1.02849E-003,1.44132E-001,-6.01128E-002,-2.88523E-001,1.44791E-001,1.15463E+000,-3.02805E-002,0.00000E+000,2.28189E-002,9.43347E-001,0.00000E+000,-2.19492E-003,-6.45050E-002,1.00000E+000,23
1059,1317,1.50636E+001,-8.19451E-001,1.99965E-002,6.85829E+000,-2.91876E-001,-1.50817E-002,6.86452E+000,1.46275E-002,4.08532E-001,0,1.04045E+002,-5.41238E+000,9.98732E-001,6.36991E+001,-3.68353E+001,9.96910E-001,1.44705E-001,-6.01099E-002,-1.04562E-003,1.44710E-001,-6.01153E-002,-2.92495E-001,1.45399E-001,1.15530E+000,-3.02710E-002,0.00000E+000,2.27258E-002,9.43346E-001,0.00000E+000,-1.56128E-003,-6.44960E-002,1.00000E+000,23
799,1307,-4.66960E+000,-1.76717E+000,2.30512E-001,4.09584E+000,-4.54580E-001,2.09327E-001,4.12630E+000,2.41383E-002,5.82222E-001,0,6.27299E+001,-8.06642E+000,9.96881E-001,1.87932E+001,-4.43991E+001,9.96351E-001,1.50303E-001,-6.32196E-002,-3.04370E-004,1.50304E-001,-6.32200E-002,-8.16732E-002,1.50934E-001,1.16218E+000,-3.22522E-003,0.00000E+000,1.88680E-003,9.41757E-001,0.00000E+000,1.78560E-003,-8.03022E-002,1.00000E+000,23
799,1317,-4.66990E+000,-1.18182E+000,1.18207E-001,4.09457E+000,-5.02403E-001,1.55050E-001,4.12819E+000,2.04419E-002,5.79585E-001,0,6.28939E+001,-8.70608E+000,9.98023E-001,1.86299E+001,-4.51362E+001,9.96664E-001,1.50405E-001,-6.32217E-002,-5.66676E-004,1.50407E-001,-6.32232E-002,-1.51984E-001,1.51042E-001,1.16230E+000,-3.22504E-003,0.00000E+000,1.50053E-003,9.41756E-001,0.00000E+000,3.16499E-004,-8.03046E-002,1.00000E+000,23
789,1327,-5.41362E+000,-6.02001E-001,5.02364E-002,3.98964E+000,-5.53518E-001,1.11963E-001,4.02941E+000,1.57657E-002,5.44308E-001,0,6.14628E+001,-9.41278E+000,9.98859E-001,1.71384E+001,-4.61700E+001,9.97778E-001,1.49098E-001,-6.29227E-002,-5.28334E-004,1.49099E-001,-6.29240E-002,-1.42774E-001,1.49702E-001,1.16078E+000,-3.54018E-003,0.00000E+000,1.97536E-003,9.41918E-001,0.00000E+000,-1.62941E-003,-7.87001E-002,1.00000E+000,23
789,1337,-5.39928E+000,9.82578E-003,1.36697E-002,3.98892E+000,-5.84898E-001,6.13247E-002,4.03204E+000,1.18438E-002,5.09528E-001,0,6.16071E+001,-9.78871E+000,9.98527E-001,1.73909E+001,-4.66770E+001,9.98307E-001,1.49299E-001,-6.29398E-002,-8.56280E-004,1.49302E-001,-6.29433E-002,-2.31156E-001,1.49913E-001,1.16102E+000,-3.53464E-003,0.00000E+000,1.44271E-003,9.41906E-001,0.00000E+000,-2.89002E-003,-7.87295E-002,1.00000E+000,23
789,1347,-5.37739E+000,6.18374E-001,4.45106E-003,3.99204E+000,-6.22827E-001,1.91925E-002,4.04038E+000,1.28977E-002,5.39484E-001,0,6.17831E+001,-1.03128E+001,9.97968E-001,1.78255E+001,-4.72626E+001,9.97617E-001,1.49499E-001,-6.29605E-002,-1.18478E-003,1.49505E-001,-6.29671E-002,-3.19496E-001,1.50124E-001,1.16126E+000,-3.52776E-003,0.00000E+000,9.08315E-004,9.41890E-001,0.00000E+000,-4.15473E-003,-7.87662E-002,1.00000E+000,23
789,1357,-5.35242E+000,1.23179E+000,3.22996E-002,3.99046E+000,-6.61709E-001,-2.56684E-002,4.04503E+000,1.14460E-002,5.30824E-001,0,6.18897E+001,-1.08291E+001,9.97649E-001,1.84000E+001,-4.78767E+001,9.97597E-001,1.49698E-001,-6.29891E-002,-1.51386E-003,1.49709E-001,-6.29999E-002,-4.07791E-001,1.50333E-001,1.16150E+000,-3.51801E-003,0.00000E+000,3.71153E-004,9.41868E-001,0.00000E+000,-5.42601E-003,-7.88180E-002,1.00000E+000,23
1069,1327,1.58222E+001,-2.00934E-001,-3.11046E-002,6.94708E+000,-3.26474E-001,-4.92176E-002,6.95492E+000,1.43113E-002,4.38125E-001,0,1.05440E+002,-5.89603E+000,9.99095E-001,6.54764E+001,-3.70292E+001,9.97282E-001,1.45366E-001,-6.01313E-002,-1.35054E-003,1.45375E-001,-6.01402E-002,-3.76529E-001,1.46095E-001,1.15609E+000,-2.96472E-002,0.00000E+000,2.15241E-002,9.43303E-001,0.00000E+000,1.07864E-004,-6.36767E-002,1.00000E+000,23
1069,1337,1.58197E+001,4.17082E-001,-5.31721E-002,6.92760E+000,-3.55333E-001,-7.68701E-002,6.93713E+000,9.33281E-003,3.91493E-001,0,1.05242E+002,-6.31012E+000,9.99219E-001,6.54706E+001,-3.74304E+001,9.98305E-001,1.45920E-001,-6.01362E-002,-1.38462E-003,1.45929E-001,-6.01455E-002,-3.84982E-001,1.46678E-001,1.15673E+000,-2.96306E-002,0.00000E+000,2.14194E-002,9.43301E-001,0.00000E+000,3.26306E-004,-6.36710E-002,1.00000E+000,23
1069,1347,1.58265E+001,1.02935E+000,-5.43668E-002,6.91055E+000,-3.96216E-001,-1.12645E-001,6.92281E+000,9.24535E-003,4.49849E-001,0,1.05109E+002,-6.91495E+000,9.99418E-001,6.56460E+001,-3.79157E+001,9.98656E-001,1.46477E-001,-6.01420E-002,-1.41607E-003,1.46486E-001,-6.01517E-002,-3.92655E-001,1.47264E-001,1.15737E+000,-2.96072E-002,0.00000E+000,2.13141E-002,9.43297E-001,0.00000E+000,5.46198E-004,-6.36631E-002,1.00000E+000,23
789,1307,-5.41506E+000,-1.77554E+000,2.30724E-001,3.99790E+000,-4.56784E-001,2.16398E-001,4.02972E+000,1.65850E-002,5.61387E-001,0,6.12440E+001,-8.09484E+000,9.97919E-001,1.73269E+001,-4.46370E+001,9.95299E-001,1.48693E-001,-6.29088E-002,1.25721E-004,1.48693E-001,-6.29089E-002,3.40417E-002,1.49278E-001,1.16031E+000,-3.54376E-003,0.00000E+000,3.03267E-003,9.41926E-001,0.00000E+000,8.72860E-004,-7.86810E-002,1.00000E+000,23
789,1317,-5.41603E+000,-1.19332E+000,1.38624E-001,3.99317E+000,-5.08758E-001,1.67910E-001,4.02895E+000,1.82291E-002,5.55191E-001,0,6.13344E+001,-8.82188E+000,9.97805E-001,1.72010E+001,-4.54690E+001,9.94465E-001,1.48896E-001,-6.29147E-002,-2.01169E-004,1.48896E-001,-6.29149E-002,-5.44170E-002,1.49491E-001,1.16055E+000,-3.54237E-003,0.00000E+000,2.50450E-003,9.41923E-001,0.00000E+000,-3.77116E-004,-7.86884E-002,1.00000E+000,23
1069,1297,1.58301E+001,-2.00973E+000,1.40292E-001,6.98838E+000,-2.00338E-001,6.57192E-002,6.99156E+000,1.64163E-002,3.49206E-001,0,1.05619E+002,-4.08016E+000,9.97397E-001,6.56867E+001,-3.54750E+001,9.94540E-001,1.43703E-001,-6.01193E-002,-1.24120E-003,1.43711E-001,-6.01269E-002,-3.48891E-001,1.44347E-001,1.15416E+000,-2.96801E-002,0.00000E+000,2.18380E-002,9.43309E-001,0.00000E+000,-5.47235E-004,-6.36879E-002,1.00000E+000,23
1069,1307,1.58264E+001,-1.40633E+000,6.62979E-002,6.97717E+000,-2.37632E-001,2.56467E-002,6.98126E+000,1.14725E-002,3.20248E-001,0,1.05607E+002,-4.61199E+000,9.98975E-001,6.55706E+001,-3.59783E+001,9.97411E-001,1.44255E-001,-6.01228E-002,-1.27896E-003,1.44263E-001,-6.01308E-002,-3.58527E-001,1.44927E-001,1.15480E+000,-2.96727E-002,0.00000E+000,2.17339E-002,9.43307E-001,0.00000E+000,-3.29965E-004,-6.36854E-002,1.00000E+000,23
1069,1317,1.58261E+001,-7.97769E-001,1.66019E-002,6.96398E+000,-2.76041E-001,-1.23038E-002,6.96946E+000,1.25578E-002,4.20883E-001,0,1.05551E+002,-5.18196E+000,9.99211E-001,6.55493E+001,-3.63892E+001,9.97419E-001,1.44811E-001,-6.01270E-002,-1.31478E-003,1.44819E-001,-6.01355E-002,-3.67561E-001,1.45511E-001,1.15544E+000,-2.96600E-002,0.00000E+000,2.16290E-002,9.43305E-001,0.00000E+000,-1.11090E-004,-6.36811E-002,1.00000E+000,23
779,1327,-6.15720E+000,-6.02591E-001,5.73412E-002,3.89196E+000,-5.49931E-001,1.19440E-001,3.93243E+000,2.24778E-002,5.98931E-001,0,5.99723E+001,-9.36648E+000,9.98702E-001,1.57226E+001,-4.62687E+001,9.97363E-001,1.47628E-001,-6.24408E-002,-4.70805E-004,1.47629E-001,-6.24419E-002,-1.28410E-001,1.48212E-001,1.15908E+000,-4.08743E-003,0.00000E+000,2.54509E-003,9.42269E-001,0.00000E+000,-1.83777E-003,-7.73145E-002,1.00000E+000,23
779,1337,-6.14354E+000,-3.64340E-003,1.74827E-002,3.89103E+000,-5.92865E-001,6.71673E-002,3.93651E+000,1.14187E-002,5.35943E-001,0,6.01213E+001,-9.91778E+000,9.98111E-001,1.59549E+001,-4.69831E+001,9.97890E-001,1.48006E-001,-6.24620E-002,-8.78365E-004,1.48010E-001,-6.24657E-002,-2.39112E-001,1.48608E-001,1.15952E+000,-4.07742E-003,0.00000E+000,1.83663E-003,9.42253E-001,0.00000E+000,-2.83661E-003,-7.73372E-002,1.00000E+000,23
779,1347,-6.12675E+000,6.09538E-001,6.36281E-003,3.88868E+000,-6.25217E-001,2.01955E-002,3.93867E+000,1.42505E-002,5.20834E-001,0,6.02251E+001,-1.03382E+001,9.97278E-001,1.63091E+001,-4.75183E+001,9.96806E-001,1.48384E-001,-6.24888E-002,-1.28605E-003,1.48392E-001,-6.24966E-002,-3.49412E-001,1.49006E-001,1.15996E+000,-4.06430E-003,0.00000E+000,1.12573E-003,9.42232E-001,0.00000E+000,-3.83890E-003,-7.73669E-002,1.00000E+000,23
779,1357,-6.10448E+000,1.22582E+000,3.32781E-002,3.88535E+000,-6.60804E-001,-2.18306E-002,3.94120E+000,1.10430E-002,5.29299E-001,0,6.02948E+001,-1.08123E+001,9.97638E-001,1.68425E+001,-4.80799E+001,9.97735E-001,1.48763E-001,-6.25235E-002,-1.69466E-003,1.48777E-001,-6.25371E-002,-4.59512E-001,1.49405E-001,1.16041E+000,-4.04674E-003,0.00000E+000,4.10061E-004,9.42204E-001,0.00000E+000,-4.84792E-003,-7.74066E-002,1.00000E+000,23
779,1317,-6.15603E+000,-1.18863E+000,1.40211E-001,3.89888E+000,-4.98242E-001,1.69029E-001,3.93422E+000,2.27145E-002,5.47163E-001,0,5.99152E+001,-8.65368E+000,9.98919E-001,1.58287E+001,-4.55036E+001,9.97411E-001,1.47249E-001,-6.24306E-002,-6.15397E-005,1.47249E-001,-6.24306E-002,-1.68160E-002,1.47815E-001,1.15864E+000,-4.09140E-003,0.00000E+000,3.25204E-003,9.42276E-001,0.00000E+000,-8.41041E-004,-7.73056E-002,1.00000E+000,23
1079,1337,1.65809E+001,4.35148E-001,-6.65134E-002,7.03079E+000,-3.43684E-001,-8.65380E-002,7.03972E+000,1.26969E-002,4.07136E-001,0,1.06757E+002,-6.12337E+000,9.98898E-001,6.72868E+001,-3.70137E+001,9.98787E-001,1.46208E-001,-6.03121E-002,-1.65887E-003,1.46221E-001,-6.03254E-002,-4.60188E-001,1.46965E-001,1.15708E+000,-2.89833E-002,0.00000E+000,2.03393E-002,9.43134E-001,0.00000E+000,7.42307E-004,-6.32483E-002,1.00000E+000,23
1079,1347,1.65912E+001,1.04896E+000,-5.82865E-002,7.01699E+000,-3.83206E-001,-1.13288E-001,7.02836E+000,7.85578E-003,4.57380E-001,0,1.06639E+002,-6.72569E+000,9.99480E-001,6.75315E+001,-3.74978E+001,9.99350E-001,1.46740E-001,-6.03218E-002,-1.72368E-003,1.46754E-001,-6.03361E-002,-4.76913E-001,1.47525E-001,1.15770E+000,-2.89608E-002,0.00000E+000,2.01933E-002,9.43128E-001,0.00000E+000,6.07322E-004,-6.32532E-002,1.00000E+000,23
1079,1297,1.65938E+001,-1.98685E+000,1.49411E-001,7.09353E+000,-1.83365E-001,7.47084E-002,7.09629E+000,1.55737E-002,4.21446E-001,0,1.07086E+002,-3.88015E+000,9.98067E-001,6.75822E+001,-3.50103E+001,9.96474E-001,1.44093E-001,-6.02844E-002,-1.38313E-003,1.44102E-001,-6.02938E-002,-3.87726E-001,1.44741E-001,1.15463E+000,-2.90300E-002,0.00000E+000,2.09190E-002,9.43145E-001,0.00000E+000,1.27849E-003,-6.32381E-002,1.00000E+000,23
1079,1307,1.65831E+001,-1.39080E+000,5.82198E-002,7.07678E+000,-2.28035E-001,2.34406E-002,7.08049E+000,1.32254E-002,3.65223E-001,0,1.07038E+002,-4.47825E+000,9.98987E-001,6.73286E+001,-3.56037E+001,9.97639E-001,1.44620E-001,-6.02898E-002,-1.45423E-003,1.44630E-001,-6.03001E-002,-4.06596E-001,1.45294E-001,1.15524E+000,-2.90242E-002,0.00000E+000,2.07748E-002,9.43143E-001,0.00000E+000,1.14509E-003,-6.32393E-002,1.00000E+000,23
1079,1327,1.65820E+001,-1.84341E-001,-3.94806E-002,7.04846E+000,-3.16059E-001,-5.60068E-002,7.05576E+000,1.45171E-002,4.19264E-001,0,1.06916E+002,-5.72153E+000,9.99140E-001,6.72799E+001,-3.66655E+001,9.98516E-001,1.45680E-001,-6.03042E-002,-1.59151E-003,1.45692E-001,-6.03165E-002,-4.42654E-001,1.46408E-001,1.15647E+000,-2.89988E-002,0.00000E+000,2.04843E-002,9.43137E-001,0.00000E+000,8.76435E-004,-6.32449E-002,1.00000E+000,23
1079,1317,1.65799E+001,-7.79620E-001,1.71405E-003,7.06070E+000,-2.64190E-001,-2.05915E-002,7.06567E+000,1.25112E-002,4.27012E-001,0,1.06962E+002,-4.97730E+000,9.99012E-001,6.72497E+001,-3.59772E+001,9.98069E-001,1.45150E-001,-6.02968E-002,-1.52321E-003,1.45161E-001,-6.03081E-002,-4.24768E-001,1.45852E-001,1.15586E+000,-2.90122E-002,0.00000E+000,2.06294E-002,9.43141E-001,0.00000E+000,1.01070E-003,-6.32420E-002,1.00000E+000,23
779,1307,-6.16602E+000,-1.79015E+000,2.34919E-001,3.89239E+000,-4.67002E-001,2.19105E-001,3.92642E+000,1.54747E-002,5.52547E-001,0,5.96543E+001,-8.23482E+000,9.98565E-001,1.57895E+001,-4.49744E+001,9.96816E-001,1.46871E-001,-6.24231E-002,3.45648E-004,1.46872E-001,-6.24237E-002,9.46232E-002,1.47421E-001,1.15820E+000,-4.09381E-003,0.00000E+000,3.95426E-003,9.42280E-001,0.00000E+000,1.49017E-004,-7.73001E-002,1.00000E+000,23
1089,1337,1.73405E+001,4.55580E-001,-7.33230E-002,7.13197E+000,-3.30299E-001,-8.94419E-002,7.14018E+000,1.15021E-002,4.85098E-001,0,1.08213E+002,-5.94570E+000,9.98740E-001,6.90937E+001,-3.65439E+001,9.98203E-001,1.46938E-001,-6.05294E-002,-1.77574E-003,1.46953E-001,-6.05445E-002,-4.90353E-001,1.47710E-001,1.15795E+000,-2.80639E-002,0.00000E+000,1.93223E-002,9.42920E-001,0.00000E+000,1.23373E-003,-6.27397E-002,1.00000E+000,23
1089,1347,1.73496E+001,1.06847E+000,-6.91540E-002,7.11693E+000,-3.69913E-001,-1.19811E-001,7.12755E+000,9.09945E-003,4.47853E-001,0,1.08091E+002,-6.51355E+000,9.99233E-001,6.93115E+001,-3.70755E+001,9.98451E-001,1.47571E-001,-6.05420E-002,-1.86360E-003,1.47588E-001,-6.05587E-002,-5.13015E-001,1.48377E-001,1.15868E+000,-2.80370E-002,0.00000E+000,1.91385E-002,9.42913E-001,0.00000E+000,9.05804E-004,-6.27517E-002,1.00000E+000,23
769,1347,-6.87601E+000,5.99739E-001,7.63085E-003,3.78577E+000,-6.28708E-001,2.45818E-002,3.83770E+000,1.14327E-002,5.25599E-001,0,5.86622E+001,-1.03893E+001,9.97565E-001,1.47972E+001,-4.77759E+001,9.97520E-001,1.46912E-001,-6.19996E-002,-1.27272E-003,1.46920E-001,-6.20074E-002,-3.49036E-001,1.47514E-001,1.15825E+000,-4.43520E-003,0.00000E+000,1.42498E-003,9.42610E-001,0.00000E+000,-3.44715E-003,-7.62097E-002,1.00000E+000,23
769,1357,-6.85154E+000,1.21904E+000,3.37078E-002,3.78519E+000,-6.60869E-001,-1.65115E-002,3.84248E+000,1.09816E-002,5.46005E-001,0,5.87701E+001,-1.08170E+001,9.98109E-001,1.53650E+001,-4.82847E+001,9.98300E-001,1.47226E-001,-6.20320E-002,-1.65936E-003,1.47239E-001,-6.20451E-002,-4.54303E-001,1.47845E-001,1.15862E+000,-4.42102E-003,0.00000E+000,7.41786E-004,9.42583E-001,0.00000E+000,-4.30807E-003,-7.62428E-002,1.00000E+000,23
769,1327,-6.90314E+000,-6.10449E-001,7.00994E-002,3.78919E+000,-5.52811E-001,1.20314E-001,3.83119E+000,1.65459E-002,5.77727E-001,0,5.84222E+001,-9.40749E+000,9.98425E-001,1.42892E+001,-4.65300E+001,9.96622E-001,1.46285E-001,-6.19577E-002,-5.01263E-004,1.46287E-001,-6.19589E-002,-1.37916E-001,1.46856E-001,1.15752E+000,-4.45252E-003,0.00000E+000,2.78011E-003,9.42642E-001,0.00000E+000,-1.73949E-003,-7.61692E-002,1.00000E+000,23
769,1337,-6.89349E+000,-1.71270E-002,1.88293E-002,3.78681E+000,-6.00620E-001,6.92942E-002,3.83477E+000,1.04112E-002,5.32519E-001,0,5.85469E+001,-1.00260E+001,9.98109E-001,1.44304E+001,-4.73000E+001,9.97893E-001,1.46599E-001,-6.19749E-002,-8.87232E-004,1.46603E-001,-6.19787E-002,-2.43719E-001,1.47184E-001,1.15788E+000,-4.44569E-003,0.00000E+000,2.10347E-003,9.42629E-001,0.00000E+000,-2.59216E-003,-7.61852E-002,1.00000E+000,23
1089,1327,1.73388E+001,-1.58716E-001,-5.72416E-002,7.14857E+000,-2.93898E-001,-6.33364E-002,7.15489E+000,1.30186E-002,4.18674E-001,0,1.08370E+002,-5.39680E+000,9.98744E-001,6.90263E+001,-3.61325E+001,9.97626E-001,1.46305E-001,-6.05185E-002,-1.68514E-003,1.46318E-001,-6.05323E-002,-4.66788E-001,1.47043E-001,1.15722E+000,-2.80843E-002,0.00000E+000,1.95061E-002,9.42925E-001,0.00000E+000,1.56153E-003,-6.27306E-002,1.00000E+000,23
1089,1317,1.73426E+001,-7.67979E-001,-5.19971E-003,7.16540E+000,-2.57436E-001,-2.32881E-002,7.17006E+000,1.23576E-002,4.52553E-001,0,1.08471E+002,-4.90123E+000,9.99005E-001,6.91069E+001,-3.56728E+001,9.98550E-001,1.45674E-001,-6.05094E-002,-1.59254E-003,1.45686E-001,-6.05217E-002,-4.42512E-001,1.46379E-001,1.15649E+000,-2.80988E-002,0.00000E+000,1.96889E-002,9.42929E-001,0.00000E+000,1.88752E-003,-6.27241E-002,1.00000E+000,23
1089,1297,1.73562E+001,-1.96507E+000,1.44729E-001,7.19720E+000,-1.68194E-001,7.07129E-002,7.19951E+000,1.10960E-002,4.58980E-001,0,1.08578E+002,-3.65101E+000,9.99105E-001,6.94395E+001,-3.45510E+001,9.98584E-001,1.44414E-001,-6.04937E-002,-1.40418E-003,1.44424E-001,-6.05033E-002,-3.92608E-001,1.45055E-001,1.15503E+000,-2.81192E-002,0.00000E+000,2.00536E-002,9.42934E-001,0.00000E+000,2.53795E-003,-6.27150E-002,1.00000E+000,23
1089,1307,1.73471E+001,-1.37135E+000,5.41238E-002,7.18148E+000,-2.15733E-001,1.86936E-002,7.18475E+000,1.11191E-002,4.36938E-001,0,1.08551E+002,-4.30726E+000,9.99265E-001,6.92091E+001,-3.51630E+001,9.98844E-001,1.45043E-001,-6.05007E-002,-1.49939E-003,1.45054E-001,-6.05117E-002,-4.17929E-001,1.45716E-001,1.15576E+000,-2.81118E-002,0.00000E+000,1.98716E-002,9.42932E-001,0.00000E+000,2.21336E-003,-6.27183E-002,1.00000E+000,23
769,1317,-6.91134E+000,-1.19713E+000,1.42779E-001,3.78901E+000,-5.03668E-001,1.72191E-001,3.82622E+000,1.90724E-002,5.62763E-001,0,5.82522E+001,-8.70315E+000,9.99021E-001,1.42257E+001,-4.57337E+001,9.98203E-001,1.45973E-001,-6.19452E-002,-1.16786E-004,1.45973E-001,-6.19452E-002,-3.21825E-002,1.46529E-001,1.15716E+000,-4.45708E-003,0.00000E+000,3.45247E-003,9.42650E-001,0.00000E+000,-8.92219E-004,-7.61586E-002,1.00000E+000,23
1099,1327,1.80953E+001,-1.41307E-001,-6.30925E-002,7.24790E+000,-2.81788E-001,-5.91050E-002,7.25362E+000,1.49895E-002,4.56445E-001,0,1.09769E+002,-5.24380E+000,9.97085E-001,7.07931E+001,-3.57341E+001,9.95073E-001,1.47011E-001,-6.06725E-002,-1.82777E-003,1.47027E-001,-6.06886E-002,-5.04194E-001,1.47771E-001,1.15805E+000,-2.73079E-002,0.00000E+000,1.85687E-002,9.42801E-001,0.00000E+000,1.86961E-003,-6.27607E-002,1.00000E+000,23
1099,1337,1.81031E+001,4.76524E-001,-7.73928E-002,7.23557E+000,-3.15095E-001,-9.03675E-002,7.24300E+000,1.43141E-002,4.70438E-001,0,1.09694E+002,-5.72114E+000,9.97462E-001,7.09574E+001,-3.61184E+001,9.96861E-001,1.47779E-001,-6.06832E-002,-1.90956E-003,1.47796E-001,-6.07007E-002,-5.24783E-001,1.48580E-001,1.15894E+000,-2.72808E-002,0.00000E+000,1.84007E-002,9.42796E-001,0.00000E+000,1.41986E-003,-6.27744E-002,1.00000E+000,23
1099,1347,1.81154E+001,1.09421E+000,-6.63658E-002,7.22139E+000,-3.51741E-001,-1.22246E-001,7.23098E+000,1.16698E-002,4.64875E-001,0,1.09588E+002,-6.25075E+000,9.98318E-001,7.12328E+001,-3.65731E+001,9.97663E-001,1.48547E-001,-6.06959E-002,-1.98799E-003,1.48566E-001,-6.07148E-002,-5.44294E-001,1.49390E-001,1.15984E+000,-2.72452E-002,0.00000E+000,1.82323E-002,9.42789E-001,0.00000E+000,9.68987E-004,-6.27924E-002,1.00000E+000,23
759,1347,-7.61914E+000,5.95729E-001,7.86990E-003,3.68867E+000,-6.26684E-001,2.85485E-002,3.74163E+000,1.02542E-002,5.30969E-001,0,5.71867E+001,-1.03493E+001,9.97634E-001,1.33829E+001,-4.79412E+001,9.97518E-001,1.45424E-001,-6.15716E-002,-1.19889E-003,1.45431E-001,-6.15786E-002,-3.31834E-001,1.45998E-001,1.15653E+000,-4.62190E-003,0.00000E+000,1.69889E-003,9.42946E-001,0.00000E+000,-3.15225E-003,-7.52772E-002,1.00000E+000,23
759,1357,-7.59888E+000,1.21032E+000,3.23817E-002,3.68440E+000,-6.62980E-001,-1.25591E-002,3.74360E+000,1.10159E-002,5.56926E-001,0,5.72385E+001,-1.08454E+001,9.97877E-001,1.38834E+001,-4.85187E+001,9.97839E-001,1.45546E-001,-6.15950E-002,-1.48354E-003,1.45556E-001,-6.16056E-002,-4.10324E-001,1.46127E-001,1.15667E+000,-4.61644E-003,0.00000E+000,1.21547E-003,9.42928E-001,0.00000E+000,-4.01010E-003,-7.53095E-002,1.00000E+000,23
1099,1297,1.81140E+001,-1.95212E+000,1.32438E-001,7.29747E+000,-1.60346E-001,6.64234E-002,7.29954E+000,1.07577E-002,4.96106E-001,0,1.10022E+002,-3.54112E+000,9.98494E-001,7.12138E+001,-3.42134E+001,9.97388E-001,1.44718E-001,-6.06493E-002,-1.56755E-003,1.44730E-001,-6.06613E-002,-4.37300E-001,1.45359E-001,1.15540E+000,-2.73499E-002,0.00000E+000,1.90690E-002,9.42809E-001,0.00000E+000,3.20929E-003,-6.27395E-002,1.00000E+000,23
1099,1307,1.81086E+001,-1.35100E+000,4.84238E-002,7.28553E+000,-2.01110E-001,2.11054E-002,7.28834E+000,1.23224E-002,4.67759E-001,0,1.10024E+002,-4.09878E+000,9.98976E-001,7.10553E+001,-3.47255E+001,9.98101E-001,1.45481E-001,-6.06559E-002,-1.65624E-003,1.45495E-001,-6.06692E-002,-4.60311E-001,1.46162E-001,1.15629E+000,-2.73409E-002,0.00000E+000,1.89026E-002,9.42807E-001,0.00000E+000,2.76361E-003,-6.27440E-002,1.00000E+000,23
1099,1317,1.81008E+001,-7.47758E-001,-1.60874E-002,7.26724E+000,-2.41948E-001,-2.08180E-002,7.27129E+000,1.54249E-002,4.78642E-001,0,1.09914E+002,-4.68458E+000,9.98177E-001,7.08912E+001,-3.52272E+001,9.97112E-001,1.46246E-001,-6.06637E-002,-1.74287E-003,1.46260E-001,-6.06784E-002,-4.82576E-001,1.46965E-001,1.15717E+000,-2.73267E-002,0.00000E+000,1.87358E-002,9.42805E-001,0.00000E+000,2.31708E-003,-6.27512E-002,1.00000E+000,23
759,1327,-7.65401E+000,-6.21549E-001,6.99504E-002,3.68328E+000,-5.57973E-001,1.19642E-001,3.72723E+000,1.25587E-002,5.47402E-001,0,5.68283E+001,-9.46562E+000,9.98338E-001,1.27522E+001,-4.68188E+001,9.98487E-001,1.45179E-001,-6.15418E-002,-6.32034E-004,1.45181E-001,-6.15438E-002,-1.75175E-001,1.45740E-001,1.15624E+000,-4.62847E-003,0.00000E+000,2.65862E-003,9.42968E-001,0.00000E+000,-1.44918E-003,-7.52383E-002,1.00000E+000,23
759,1337,-7.63726E+000,-1.34476E-002,2.55011E-002,3.68782E+000,-5.91266E-001,7.39455E-002,3.73565E+000,1.02973E-002,5.46695E-001,0,5.70379E+001,-9.88864E+000,9.97755E-001,1.30228E+001,-4.73547E+001,9.97719E-001,1.45302E-001,-6.15546E-002,-9.15341E-004,1.45306E-001,-6.15586E-002,-2.53528E-001,1.45869E-001,1.15638E+000,-4.62575E-003,0.00000E+000,2.17935E-003,9.42959E-001,0.00000E+000,-2.29967E-003,-7.52544E-002,1.00000E+000,23
759,1317,-7.65800E+000,-1.21372E+000,1.45812E-001,3.68632E+000,-5.14710E-001,1.69895E-001,3.72596E+000,1.66864E-002,5.59705E-001,0,5.67153E+001,-8.87192E+000,9.98560E-001,1.27604E+001,-4.60980E+001,9.98288E-001,1.45056E-001,-6.15335E-002,-3.50156E-004,1.45057E-001,-6.15341E-002,-9.71122E-002,1.45611E-001,1.15610E+000,-4.63005E-003,0.00000E+000,3.13468E-003,9.42974E-001,0.00000E+000,-6.04402E-004,-7.52290E-002,1.00000E+000,23
749,1317,-8.39544E+000,-1.21698E+000,1.63230E-001,3.59122E+000,-5.14702E-001,1.75725E-001,3.63217E+000,1.26395E-002,5.78422E-001,0,5.52645E+001,-8.87654E+000,9.98660E-001,1.14807E+001,-4.62754E+001,9.97634E-001,1.44172E-001,-6.12077E-002,-5.00415E-004,1.44173E-001,-6.12089E-002,-1.39602E-001,1.44719E-001,1.15507E+000,-4.43069E-003,0.00000E+000,2.67895E-003,9.43216E-001,0.00000E+000,-4.13590E-004,-7.42768E-002,1.00000E+000,23
749,1327,-8.39154E+000,-6.23312E-001,7.29717E-002,3.58970E+000,-5.55710E-001,1.19190E-001,3.63442E+000,9.97492E-003,5.33448E-001,0,5.54194E+001,-9.39532E+000,9.98150E-001,1.14348E+001,-4.69608E+001,9.97922E-001,1.44122E-001,-6.12125E-002,-7.03758E-004,1.44124E-001,-6.12149E-002,-1.96371E-001,1.44668E-001,1.15502E+000,-4.43118E-003,0.00000E+000,2.34432E-003,9.43213E-001,0.00000E+000,-1.13159E-003,-7.42830E-002,1.00000E+000,23
749,1337,-8.38162E+000,-1.65030E-002,2.87333E-002,3.58774E+000,-5.89258E-001,7.47551E-002,3.63658E+000,9.86142E-003,5.64887E-001,0,5.55240E+001,-9.85068E+000,9.98129E-001,1.16012E+001,-4.75039E+001,9.98056E-001,1.44071E-001,-6.12213E-002,-9.08509E-004,1.44075E-001,-6.12254E-002,-2.53552E-001,1.44615E-001,1.15496E+000,-4.43223E-003,0.00000E+000,2.00778E-003,9.43207E-001,0.00000E+000,-1.85366E-003,-7.42963E-002,1.00000E+000,23
749,1347,-8.36694E+000,5.89632E-001,7.22590E-003,3.58602E+000,-6.26511E-001,2.91660E-002,3.64046E+000,1.05980E-002,5.24136E-001,0,5.56339E+001,-1.03332E+001,9.98326E-001,1.18992E+001,-4.81436E+001,9.98209E-001,1.44020E-001,-6.12330E-002,-1.11395E-003,1.44026E-001,-6.12390E-002,-3.10944E-001,1.44562E-001,1.15490E+000,-4.43369E-003,0.00000E+000,1.67042E-003,9.43198E-001,0.00000E+000,-2.57750E-003,-7.43146E-002,1.00000E+000,23
1109,1297,1.88739E+001,-1.93631E+000,1.24024E-001,7.40118E+000,-1.47465E-001,7.28861E-002,7.40300E+000,1.11621E-002,4.89070E-001,0,1.11474E+002,-3.37414E+000,9.97999E-001,7.30334E+001,-3.38616E+001,9.96085E-001,1.45185E-001,-6.10045E-002,-1.65494E-003,1.45199E-001,-6.10178E-002,-4.59833E-001,1.45813E-001,1.15598E+000,-2.61184E-002,0.00000E+000,1.78479E-002,9.42511E-001,0.00000E+000,3.83741E-003,-6.29655E-002,1.00000E+000,23
1109,1307,1.88662E+001,-1.33449E+000,3.76013E-002,7.38686E+000,-1.87441E-001,2.53614E-002,7.38928E+000,1.23198E-002,4.31087E-001,0,1.11450E+002,-3.90467E+000,9.98601E-001,7.28347E+001,-3.43709E+001,9.97536E-001,1.46005E-001,-6.10086E-002,-1.70765E-003,1.46019E-001,-6.10227E-002,-4.72590E-001,1.46674E-001,1.15692E+000,-2.61087E-002,0.00000E+000,1.77622E-002,9.42510E-001,0.00000E+000,3.16480E-003,-6.29724E-002,1.00000E+000,23
1109,1317,1.88594E+001,-7.29928E-001,-2.48736E-002,7.36972E+000,-2.27299E-001,-1.37931E-002,7.37324E+000,1.40694E-002,4.47246E-001,0,1.11346E+002,-4.48134E+000,9.97747E-001,7.26905E+001,-3.48520E+001,9.96831E-001,1.46826E-001,-6.10135E-002,-1.75820E-003,1.46841E-001,-6.10283E-002,-4.84642E-001,1.47536E-001,1.15787E+000,-2.60936E-002,0.00000E+000,1.76763E-002,9.42509E-001,0.00000E+000,2.49038E-003,-6.29832E-002,1.00000E+000,23
749,1357,-8.34298E+000,1.20283E+000,3.45336E-002,3.58595E+000,-6.63403E-001,-7.64074E-003,3.64681E+000,1.29144E-002,5.47366E-001,0,5.57372E+001,-1.08528E+001,9.98217E-001,1.24654E+001,-4.87513E+001,9.98107E-001,1.43967E-001,-6.12494E-002,-1.32106E-003,1.43976E-001,-6.12579E-002,-3.68816E-001,1.44508E-001,1.15484E+000,-4.43582E-003,0.00000E+000,1.33083E-003,9.43185E-001,0.00000E+000,-3.30614E-003,-7.43415E-002,1.00000E+000,23
1109,1327,1.88558E+001,-1.23913E-001,-6.95981E-002,7.35081E+000,-2.68677E-001,-5.49525E-002,7.35592E+000,1.28100E-002,4.49643E-001,0,1.11220E+002,-5.06849E+000,9.96896E-001,7.26233E+001,-3.53564E+001,9.95855E-001,1.47648E-001,-6.10193E-002,-1.80596E-003,1.47664E-001,-6.10349E-002,-4.95832E-001,1.48401E-001,1.15882E+000,-2.60715E-002,0.00000E+000,1.75901E-002,9.42507E-001,0.00000E+000,1.81403E-003,-6.29989E-002,1.00000E+000,23
1109,1337,1.88601E+001,4.93772E-001,-8.68141E-002,7.33454E+000,-3.02748E-001,-9.03887E-002,7.34134E+000,1.38241E-002,4.71499E-001,0,1.11102E+002,-5.54900E+000,9.98088E-001,7.27271E+001,-3.57313E+001,9.97622E-001,1.48472E-001,-6.10262E-002,-1.85075E-003,1.48489E-001,-6.10426E-002,-5.06110E-001,1.49269E-001,1.15978E+000,-2.60417E-002,0.00000E+000,1.75035E-002,9.42504E-001,0.00000E+000,1.13443E-003,-6.30201E-002,1.00000E+000,23
1109,1347,1.88780E+001,1.11240E+000,-5.77861E-002,7.32243E+000,-3.40996E-001,-1.18178E-001,7.33132E+000,1.33473E-002,4.57867E-001,0,1.11009E+002,-6.10503E+000,9.98348E-001,7.31187E+001,-3.62132E+001,9.97341E-001,1.49299E-001,-6.10350E-002,-1.89006E-003,1.49316E-001,-6.10520E-002,-5.14804E-001,1.50141E-001,1.16074E+000,-2.59984E-002,0.00000E+000,1.74165E-002,9.42500E-001,0.00000E+000,4.51786E-004,-6.30509E-002,1.00000E+000,23
739,1337,-9.12384E+000,-2.86582E-002,2.82445E-002,3.48955E+000,-5.95653E-001,7.25945E-002,3.54077E+000,1.12450E-002,5.64710E-001,0,5.40486E+001,-9.93757E+000,9.98003E-001,1.02059E+001,-4.77942E+001,9.97761E-001,1.42759E-001,-6.06927E-002,-1.01107E-003,1.42764E-001,-6.06977E-002,-2.84727E-001,1.43296E-001,1.15345E+000,-4.31709E-003,0.00000E+000,1.70466E-003,9.43662E-001,0.00000E+000,-1.56248E-003,-7.36696E-002,1.00000E+000,23
739,1347,-9.11342E+000,5.80708E-001,1.01150E-002,3.48402E+000,-6.29352E-001,3.19657E-002,3.54055E+000,8.45711E-003,5.33322E-001,0,5.40829E+001,-1.03778E+001,9.99031E-001,1.04491E+001,-4.83892E+001,9.98902E-001,1.42518E-001,-6.07043E-002,-1.22375E-003,1.42526E-001,-6.07116E-002,-3.45004E-001,1.43045E-001,1.15317E+000,-4.32388E-003,0.00000E+000,1.36089E-003,9.43654E-001,0.00000E+000,-2.32726E-003,-7.36885E-002,1.00000E+000,23
739,1357,-9.08996E+000,1.19613E+000,3.49008E-002,3.48404E+000,-6.63369E-001,-5.40352E-003,3.54664E+000,9.44580E-003,5.24776E-001,0,5.41882E+001,-1.08370E+001,9.98659E-001,1.10041E+001,-4.89749E+001,9.98553E-001,1.42276E-001,-6.07206E-002,-1.43913E-003,1.42286E-001,-6.07308E-002,-4.06166E-001,1.42793E-001,1.15289E+000,-4.33384E-003,0.00000E+000,1.01500E-003,9.43642E-001,0.00000E+000,-3.09673E-003,-7.37162E-002,1.00000E+000,23
739,1327,-9.13506E+000,-6.30415E-001,7.47461E-002,3.49007E+000,-5.57028E-001,1.19110E-001,3.53625E+000,1.04830E-002,5.07347E-001,0,5.39148E+001,-9.39890E+000,9.99017E-001,1.00261E+001,-4.71894E+001,9.98775E-001,1.42998E-001,-6.06838E-002,-7.99605E-004,1.43001E-001,-6.06870E-002,-2.24925E-001,1.43545E-001,1.15372E+000,-4.31208E-003,0.00000E+000,2.04774E-003,9.43669E-001,0.00000E+000,-7.99262E-004,-7.36557E-002,1.00000E+000,23
1119,1297,1.96310E+001,-1.92147E+000,1.10911E-001,7.50167E+000,-1.35742E-001,7.49298E-002,7.50328E+000,1.18251E-002,4.36704E-001,0,1.12892E+002,-3.18961E+000,9.98884E-001,7.48058E+001,-3.35378E+001,9.98074E-001,1.45853E-001,-6.08949E-002,-1.85217E-003,1.45870E-001,-6.09115E-002,-5.13234E-001,1.46529E-001,1.15677E+000,-2.50251E-002,0.00000E+000,1.65723E-002,9.42675E-001,0.00000E+000,3.82337E-003,-6.35701E-002,1.00000E+000,23
1119,1307,1.96247E+001,-1.32052E+000,3.01356E-002,7.48738E+000,-1.77716E-001,2.74078E-002,7.48954E+000,1.03879E-002,4.27585E-001,0,1.12869E+002,-3.77397E+000,9.98915E-001,7.46392E+001,-3.40464E+001,9.98606E-001,1.46630E-001,-6.08955E-002,-1.84974E-003,1.46647E-001,-6.09120E-002,-5.10640E-001,1.47345E-001,1.15767E+000,-2.50140E-002,0.00000E+000,1.65988E-002,9.42675E-001,0.00000E+000,3.03595E-003,-6.35799E-002,1.00000E+000,23
1119,1317,1.96233E+001,-7.14354E-001,-2.96361E-002,7.47469E+000,-2.16214E-001,-1.21805E-002,7.47782E+000,1.13794E-002,4.30298E-001,0,1.12834E+002,-4.32970E+000,9.98259E-001,7.45818E+001,-3.45128E+001,9.98132E-001,1.47407E-001,-6.08963E-002,-1.84549E-003,1.47424E-001,-6.09126E-002,-5.07565E-001,1.48162E-001,1.15857E+000,-2.49985E-002,0.00000E+000,1.66253E-002,9.42676E-001,0.00000E+000,2.24729E-003,-6.35935E-002,1.00000E+000,23
1119,1327,1.96218E+001,-1.05926E-001,-6.89501E-002,7.45710E+000,-2.55621E-001,-5.09971E-002,7.46166E+000,1.06902E-002,4.19126E-001,0,1.12717E+002,-4.88918E+000,9.98038E-001,7.45573E+001,-3.49964E+001,9.97896E-001,1.48185E-001,-6.08972E-002,-1.83848E-003,1.48201E-001,-6.09133E-002,-5.03754E-001,1.48982E-001,1.15947E+000,-2.49764E-002,0.00000E+000,1.66520E-002,9.42676E-001,0.00000E+000,1.45609E-003,-6.36129E-002,1.00000E+000,23
1119,1337,1.96262E+001,5.06031E-001,-8.77134E-002,7.44011E+000,-2.96349E-001,-9.05504E-002,7.44656E+000,1.00001E-002,4.64213E-001,0,1.12608E+002,-5.46994E+000,9.98862E-001,7.46575E+001,-3.54436E+001,9.98312E-001,1.48966E-001,-6.08982E-002,-1.82848E-003,1.48982E-001,-6.09142E-002,-4.99147E-001,1.49805E-001,1.16037E+000,-2.49472E-002,0.00000E+000,1.66787E-002,9.42677E-001,0.00000E+000,6.60423E-004,-6.36386E-002,1.00000E+000,23
1119,1347,1.96405E+001,1.12375E+000,-6.10526E-002,7.42490E+000,-3.34835E-001,-1.17796E-001,7.43338E+000,1.40967E-002,4.30356E-001,0,1.12467E+002,-6.02809E+000,9.98917E-001,7.49863E+001,-3.59432E+001,9.98090E-001,1.49748E-001,-6.08995E-002,-1.81386E-003,1.49764E-001,-6.09152E-002,-4.93318E-001,1.50629E-001,1.16128E+000,-2.49070E-002,0.00000E+000,1.67056E-002,9.42678E-001,0.00000E+000,-1.37293E-004,-6.36739E-002,1.00000E+000,23
739,1317,-9.13465E+000,-1.22108E+000,1.63672E-001,3.49555E+000,-5.13767E-001,1.72809E-001,3.53733E+000,1.37515E-002,5.46421E-001,0,5.38303E+001,-8.83168E+000,9.98763E-001,1.01361E+001,-4.64555E+001,9.98046E-001,1.43235E-001,-6.06792E-002,-5.90772E-004,1.43236E-001,-6.06809E-002,-1.65994E-001,1.43792E-001,1.15399E+000,-4.30991E-003,0.00000E+000,2.38852E-003,9.43671E-001,0.00000E+000,-4.11496E-005,-7.36497E-002,1.00000E+000,23
1129,1297,2.03867E+001,-1.89923E+000,1.06687E-001,7.59916E+000,-1.17197E-001,8.10558E-002,7.60049E+000,1.28238E-002,4.23471E-001,0,1.14242E+002,-2.93006E+000,9.99227E-001,7.65756E+001,-3.30991E+001,9.98297E-001,1.46297E-001,-6.09542E-002,-2.10138E-003,1.46319E-001,-6.09755E-002,-5.80857E-001,1.46993E-001,1.15731E+000,-2.40054E-002,0.00000E+000,1.53010E-002,9.42676E-001,0.00000E+000,3.14157E-003,-6.41268E-002,1.00000E+000,23
1129,1307,2.03809E+001,-1.30653E+000,2.45372E-002,7.58510E+000,-1.67550E-001,3.14503E-002,7.58701E+000,1.76938E-002,3.90249E-001,0,1.14235E+002,-3.63009E+000,9.99102E-001,7.64137E+001,-3.37429E+001,9.96577E-001,1.47143E-001,-6.09510E-002,-2.03789E-003,1.47163E-001,-6.09709E-002,-5.61033E-001,1.47882E-001,1.15828E+000,-2.39928E-002,0.00000E+000,1.54426E-002,9.42678E-001,0.00000E+000,2.34204E-003,-6.41370E-002,1.00000E+000,23
1129,1317,2.03839E+001,-7.02838E-001,-3.62403E-002,7.57639E+000,-2.08944E-001,-1.07193E-002,7.57928E+000,1.04017E-002,3.85799E-001,0,1.14272E+002,-4.22273E+000,9.99081E-001,7.64239E+001,-3.42469E+001,9.97243E-001,1.47989E-001,-6.09472E-002,-1.97217E-003,1.48008E-001,-6.09659E-002,-5.40756E-001,1.48771E-001,1.15926E+000,-2.39753E-002,0.00000E+000,1.55844E-002,9.42680E-001,0.00000E+000,1.54094E-003,-6.41515E-002,1.00000E+000,23
729,1347,-9.84622E+000,5.67017E-001,1.70596E-002,3.39412E+000,-6.38381E-001,3.26936E-002,3.45379E+000,7.64159E-003,5.51853E-001,0,5.27243E+001,-1.05127E+001,9.99378E-001,9.22316E+000,-4.87107E+001,9.99280E-001,1.40966E-001,-6.02301E-002,-1.08386E-003,1.40971E-001,-6.02360E-002,-3.08646E-001,1.41467E-001,1.15138E+000,-3.66076E-003,0.00000E+000,1.09395E-003,9.44028E-001,0.00000E+000,-2.39050E-003,-7.26168E-002,1.00000E+000,23
729,1357,-9.82934E+000,1.18857E+000,3.43660E-002,3.38891E+000,-6.65327E-001,-6.05204E-003,3.45361E+000,9.12778E-003,5.45227E-001,0,5.27510E+001,-1.08558E+001,9.98826E-001,9.66133E+000,-4.91875E+001,9.98975E-001,1.40459E-001,-6.02423E-002,-1.26072E-003,1.40467E-001,-6.02502E-002,-3.59888E-001,1.40939E-001,1.15080E+000,-3.68042E-003,0.00000E+000,8.46755E-004,9.44019E-001,0.00000E+000,-3.42244E-003,-7.26518E-002,1.00000E+000,23
1129,1327,2.03873E+001,-9.12853E-002,-7.18331E-002,7.56413E+000,-2.44581E-001,-4.36035E-002,7.56821E+000,1.21501E-002,3.91740E-001,0,1.14212E+002,-4.75541E+000,9.98845E-001,7.64808E+001,-3.46794E+001,9.98378E-001,1.48835E-001,-6.09429E-002,-1.90393E-003,1.48852E-001,-6.09602E-002,-5.19955E-001,1.49662E-001,1.16024E+000,-2.39519E-002,0.00000E+000,1.57266E-002,9.42684E-001,0.00000E+000,7.38311E-004,-6.41706E-002,1.00000E+000,23
729,1337,-9.86523E+000,-3.55539E-002,3.40252E-002,3.39211E+000,-5.96597E-001,7.84091E-002,3.44507E+000,1.01851E-002,5.58884E-001,0,5.25573E+001,-9.95398E+000,9.98609E-001,8.84581E+000,-4.80199E+001,9.98180E-001,1.41469E-001,-6.02206E-002,-9.09657E-004,1.41473E-001,-6.02247E-002,-2.58407E-001,1.41993E-001,1.15196E+000,-3.64563E-003,0.00000E+000,1.34019E-003,9.44034E-001,0.00000E+000,-1.36252E-003,-7.25899E-002,1.00000E+000,23
729,1327,-9.87539E+000,-6.35357E-001,8.06383E-002,3.39268E+000,-5.57969E-001,1.20436E-001,3.44037E+000,1.05655E-002,5.41135E-001,0,5.24381E+001,-9.40882E+000,9.98587E-001,8.68211E+000,-4.73635E+001,9.98082E-001,1.41968E-001,-6.02142E-002,-7.38899E-004,1.41971E-001,-6.02169E-002,-2.09390E-001,1.42514E-001,1.15253E+000,-3.63605E-003,0.00000E+000,1.58495E-003,9.44038E-001,0.00000E+000,-3.40749E-004,-7.25728E-002,1.00000E+000,23
1129,1337,2.04008E+001,5.23509E-001,-7.11332E-002,7.55027E+000,-2.87416E-001,-8.72276E-002,7.55624E+000,1.31267E-002,4.67859E-001,0,1.14161E+002,-5.35627E+000,9.98600E-001,7.67535E+001,-3.51073E+001,9.98504E-001,1.49690E-001,-6.09367E-002,-1.82767E-003,1.49706E-001,-6.09526E-002,-4.97123E-001,1.50564E-001,1.16123E+000,-2.39112E-002,0.00000E+000,1.58704E-002,9.42690E-001,0.00000E+000,-7.40914E-005,-6.42040E-002,1.00000E+000,23
729,1317,-9.87884E+000,-1.22878E+000,1.58523E-001,3.39568E+000,-5.15942E-001,1.70684E-001,3.43889E+000,1.22510E-002,5.62119E-001,0,5.23281E+001,-8.85433E+000,9.98514E-001,8.70428E+000,-4.66562E+001,9.97713E-001,1.42465E-001,-6.02100E-002,-5.70216E-004,1.42466E-001,-6.02116E-002,-1.61197E-001,1.43034E-001,1.15311E+000,-3.63027E-003,0.00000E+000,1.82911E-003,9.44041E-001,0.00000E+000,6.78521E-004,-7.25625E-002,1.00000E+000,23
1129,1347,2.04081E+001,1.14463E+000,-6.15705E-002,7.53071E+000,-3.21199E-001,-1.19970E-001,7.53851E+000,1.57391E-002,4.72824E-001,0,1.13978E+002,-5.84683E+000,9.98485E-001,7.69434E+001,-3.54964E+001,9.97545E-001,1.50540E-001,-6.09307E-002,-1.75210E-003,1.50555E-001,-6.09452E-002,-4.74671E-001,1.51461E-001,1.16222E+000,-2.38713E-002,0.00000E+000,1.60137E-002,9.42695E-001,0.00000E+000,-8.83255E-004,-6.42366E-002,1.00000E+000,23
719,1347,-1.05903E+001,5.67008E-001,1.71647E-002,3.29402E+000,-6.32251E-001,3.42938E-002,3.35432E+000,1.20233E-002,5.57387E-001,0,5.11996E+001,-1.04109E+001,9.98676E-001,7.81481E+000,-4.88149E+001,9.98712E-001,1.39777E-001,-5.99469E-002,-1.00913E-003,1.39782E-001,-5.99520E-002,-2.89485E-001,1.40253E-001,1.15002E+000,-2.81930E-003,0.00000E+000,5.43692E-004,9.44196E-001,0.00000E+000,-2.30598E-003,-7.11428E-002,1.00000E+000,23
719,1357,-1.05754E+001,1.18003E+000,3.65077E-002,3.28712E+000,-6.68020E-001,-1.57822E-003,3.35431E+000,1.01260E-002,5.68261E-001,0,5.11936E+001,-1.08966E+001,9.98761E-001,8.22725E+000,-4.94209E+001,9.98902E-001,1.39019E-001,-5.99546E-002,-1.13163E-003,1.39026E-001,-5.99610E-002,-3.25844E-001,1.39463E-001,1.14915E+000,-2.84820E-003,0.00000E+000,4.21871E-004,9.44192E-001,0.00000E+000,-3.57542E-003,-7.11851E-002,1.00000E+000,23
719,1337,-1.06070E+001,-3.74114E-002,3.45183E-002,3.29332E+000,-5.93527E-001,7.61400E-002,3.34724E+000,1.34759E-002,5.85713E-001,0,5.10656E+001,-9.89665E+000,9.97602E-001,7.47162E+000,-4.81406E+001,9.97071E-001,1.40528E-001,-5.99412E-002,-8.90637E-004,1.40532E-001,-5.99451E-002,-2.54544E-001,1.41037E-001,1.15088E+000,-2.79798E-003,0.00000E+000,6.64801E-004,9.44199E-001,0.00000E+000,-1.04398E-003,-7.11116E-002,1.00000E+000,23
719,1327,-1.06144E+001,-6.36750E-001,8.67957E-002,3.29626E+000,-5.54977E-001,1.22176E-001,3.34489E+000,9.63400E-003,5.79313E-001,0,5.09720E+001,-9.36650E+000,9.97663E-001,7.36515E+000,-4.74813E+001,9.97230E-001,1.41274E-001,-5.99373E-002,-7.76035E-004,1.41277E-001,-5.99403E-002,-2.20975E-001,1.41816E-001,1.15174E+000,-2.78423E-003,0.00000E+000,7.85269E-004,9.44201E-001,0.00000E+000,2.11355E-004,-7.10914E-002,1.00000E+000,23
719,1317,-1.06190E+001,-1.23186E+000,1.66386E-001,3.29695E+000,-5.15175E-001,1.68356E-001,3.34120E+000,1.25611E-002,5.70191E-001,0,5.08394E+001,-8.83013E+000,9.97699E-001,7.37379E+000,-4.68167E+001,9.96864E-001,1.42015E-001,-5.99351E-002,-6.64549E-004,1.42017E-001,-5.99373E-002,-1.88538E-001,1.42591E-001,1.15259E+000,-2.77710E-003,0.00000E+000,9.05486E-004,9.44202E-001,0.00000E+000,1.46407E-003,-7.10810E-002,1.00000E+000,23
1139,1297,2.11600E+001,-1.88944E+000,1.08019E-001,7.71246E+000,-1.10755E-001,8.68982E-002,7.71375E+000,8.79448E-003,3.67001E-001,0,1.15831E+002,-2.85457E+000,9.99557E-001,7.86329E+001,-3.28849E+001,9.98632E-001,1.46713E-001,-6.11131E-002,-2.26040E-003,1.46737E-001,-6.11377E-002,-6.23074E-001,1.47415E-001,1.15781E+000,-2.29232E-002,0.00000E+000,1.41757E-002,9.42585E-001,0.00000E+000,2.04368E-003,-6.47679E-002,1.00000E+000,23
1139,1307,2.11518E+001,-1.29740E+000,1.51666E-002,7.69706E+000,-1.61829E-001,3.13297E-002,7.69882E+000,1.12166E-002,3.41959E-001,0,1.15830E+002,-3.54987E+000,9.99314E-001,7.84165E+001,-3.35107E+001,9.98333E-001,1.47667E-001,-6.11086E-002,-2.16992E-003,1.47690E-001,-6.11312E-002,-5.95420E-001,1.48417E-001,1.15891E+000,-2.29109E-002,0.00000E+000,1.43648E-002,9.42587E-001,0.00000E+000,1.29382E-003,-6.47763E-002,1.00000E+000,23
1139,1337,2.11644E+001,5.46452E-001,-7.23055E-002,7.65265E+000,-2.70401E-001,-8.63914E-002,7.65791E+000,1.37493E-002,4.87768E-001,0,1.15605E+002,-5.12647E+000,9.98205E-001,7.86525E+001,-3.46404E+001,9.97307E-001,1.50543E-001,-6.10868E-002,-1.87166E-003,1.50559E-001,-6.11033E-002,-5.06673E-001,1.51446E-001,1.16224E+000,-2.28148E-002,0.00000E+000,1.49366E-002,9.42603E-001,0.00000E+000,-9.73802E-004,-6.48416E-002,1.00000E+000,23
1139,1347,2.11844E+001,1.16268E+000,-4.55622E-002,7.64150E+000,-3.12241E-001,-1.18432E-001,7.64879E+000,1.43289E-002,4.98721E-001,0,1.15545E+002,-5.73938E+000,9.98011E-001,7.90649E+001,-3.51377E+001,9.96595E-001,1.51505E-001,-6.10767E-002,-1.76322E-003,1.51519E-001,-6.10913E-002,-4.75187E-001,1.52463E-001,1.16336E+000,-2.27626E-002,0.00000E+000,1.51285E-002,9.42612E-001,0.00000E+000,-1.73510E-003,-6.48771E-002,1.00000E+000,23
1139,1327,2.11551E+001,-7.66116E-002,-8.14480E-002,7.67064E+000,-2.37371E-001,-5.20536E-002,7.67449E+000,1.35089E-002,4.39942E-001,0,1.15757E+002,-4.64467E+000,9.98470E-001,7.84328E+001,-3.43091E+001,9.97106E-001,1.49581E-001,-6.10960E-002,-1.97736E-003,1.49599E-001,-6.11146E-002,-5.37701E-001,1.50431E-001,1.16113E+000,-2.28607E-002,0.00000E+000,1.47449E-002,9.42595E-001,0.00000E+000,-2.13854E-004,-6.48104E-002,1.00000E+000,23
1139,1317,2.11443E+001,-6.92455E-001,-5.11604E-002,7.67886E+000,-2.02284E-001,-1.19358E-002,7.68153E+000,1.24205E-002,3.95954E-001,0,1.15731E+002,-4.14259E+000,9.99314E-001,7.82540E+001,-3.39534E+001,9.97962E-001,1.48622E-001,-6.11033E-002,-2.07677E-003,1.48642E-001,-6.11239E-002,-5.67287E-001,1.49422E-001,1.16001E+000,-2.28926E-002,0.00000E+000,1.45543E-002,9.42590E-001,0.00000E+000,5.42178E-004,-6.47887E-002,1.00000E+000,23
709,1347,-1.13376E+001,5.66691E-001,1.58534E-002,3.19029E+000,-6.26343E-001,3.48377E-002,3.25138E+000,1.14501E-002,5.51595E-001,0,4.96199E+001,-1.03046E+001,9.98492E-001,6.35749E+000,-4.89272E+001,9.98398E-001,1.38648E-001,-5.90331E-002,-1.12291E-003,1.38654E-001,-5.90395E-002,-3.25450E-001,1.39162E-001,1.14872E+000,-1.97426E-003,0.00000E+000,-3.76564E-004,9.44987E-001,0.00000E+000,-2.09743E-003,-7.00457E-002,1.00000E+000,23
709,1357,-1.13202E+001,1.17834E+000,2.98498E-002,3.18676E+000,-6.61924E-001,-3.34318E-003,3.25478E+000,1.06760E-002,5.56339E-001,0,4.96726E+001,-1.07931E+001,9.98763E-001,6.79737E+000,-4.95469E+001,9.98888E-001,1.37745E-001,-5.90436E-002,-1.29744E-003,1.37754E-001,-5.90522E-002,-3.77733E-001,1.38220E-001,1.14769E+000,-2.00743E-003,0.00000E+000,-5.96185E-004,9.44979E-001,0.00000E+000,-3.35250E-003,-7.00861E-002,1.00000E+000,23
709,1337,-1.13444E+001,-4.30619E-002,4.08174E-002,3.19793E+000,-5.94281E-001,7.62899E-002,3.25357E+000,1.06718E-002,5.69599E-001,0,4.96181E+001,-9.89050E+000,9.98102E-001,6.18490E+000,-4.83533E+001,9.97937E-001,1.39543E-001,-5.90257E-002,-9.53753E-004,1.39548E-001,-5.90303E-002,-2.75191E-001,1.40098E-001,1.14975E+000,-1.95143E-003,0.00000E+000,-1.58054E-004,9.44991E-001,0.00000E+000,-8.48699E-004,-7.00180E-002,1.00000E+000,23
709,1317,-1.13541E+001,-1.23297E+000,1.82627E-001,3.20209E+000,-5.13389E-001,1.69895E-001,3.24744E+000,1.33023E-002,5.72089E-001,0,4.93965E+001,-8.79129E+000,9.98493E-001,6.14937E+000,-4.69672E+001,9.98110E-001,1.41316E-001,-5.90182E-002,-6.27726E-004,1.41318E-001,-5.90202E-002,-1.79528E-001,1.41956E-001,1.15179E+000,-1.92930E-003,0.00000E+000,2.76264E-004,9.44996E-001,0.00000E+000,1.63331E-003,-6.99911E-002,1.00000E+000,23
709,1327,-1.13481E+001,-6.38702E-001,1.04715E-001,3.20239E+000,-5.53643E-001,1.22651E-001,3.25221E+000,1.45496E-002,6.00495E-001,0,4.95462E+001,-9.35122E+000,9.98471E-001,6.16622E+000,-4.76409E+001,9.98080E-001,1.40432E-001,-5.90214E-002,-7.89784E-004,1.40435E-001,-5.90245E-002,-2.26872E-001,1.41028E-001,1.15077E+000,-1.93848E-003,0.00000E+000,5.92697E-005,9.44994E-001,0.00000E+000,3.93250E-004,-7.00022E-002,1.00000E+000,23
1149,1297,2.19222E+001,-1.87959E+000,9.26680E-002,7.81606E+000,-1.05648E-001,8.40063E-002,7.81723E+000,1.97891E-002,3.91379E-001,0,1.17309E+002,-2.78180E+000,9.98817E-001,8.04940E+001,-3.25954E+001,9.96300E-001,1.47088E-001,-6.12152E-002,-2.37599E-003,1.47115E-001,-6.12423E-002,-6.53428E-001,1.47800E-001,1.15826E+000,-2.18781E-002,0.00000E+000,1.31846E-002,9.42542E-001,0.00000E+000,6.54001E-004,-6.53865E-002,1.00000E+000,23
1149,1307,2.19253E+001,-1.27411E+000,1.52346E-002,7.81069E+000,-1.43276E-001,3.88451E-002,7.81210E+000,1.26551E-002,3.80249E-001,0,1.17412E+002,-3.31587E+000,9.99038E-001,8.04797E+001,-3.30356E+001,9.97837E-001,1.48148E-001,-6.12116E-002,-2.30020E-003,1.48173E-001,-6.12369E-002,-6.29400E-001,1.48914E-001,1.15948E+000,-2.18619E-002,0.00000E+000,1.33354E-002,9.42544E-001,0.00000E+000,1.19659E-005,-6.53950E-002,1.00000E+000,23
1149,1317,2.19214E+001,-6.70594E-001,-4.73933E-002,7.79375E+000,-1.86891E-001,-9.36361E-003,7.79599E+000,1.18410E-002,4.15063E-001,0,1.17351E+002,-3.93369E+000,9.98917E-001,8.03777E+001,-3.35160E+001,9.97526E-001,1.49211E-001,-6.12071E-002,-2.22057E-003,1.49235E-001,-6.12306E-002,-6.04559E-001,1.50033E-001,1.16072E+000,-2.18374E-002,0.00000E+000,1.34870E-002,9.42547E-001,0.00000E+000,-6.33152E-004,-6.54078E-002,1.00000E+000,23
1149,1327,2.19216E+001,-5.55887E-002,-8.32154E-002,7.77660E+000,-2.19925E-001,-4.85362E-002,7.77986E+000,1.20775E-002,3.88766E-001,0,1.17241E+002,-4.40459E+000,9.98734E-001,8.03839E+001,-3.39076E+001,9.97153E-001,1.50273E-001,-6.12019E-002,-2.13753E-003,1.50294E-001,-6.12235E-002,-5.79052E-001,1.51152E-001,1.16195E+000,-2.18047E-002,0.00000E+000,1.36386E-002,9.42551E-001,0.00000E+000,-1.27825E-003,-6.54249E-002,1.00000E+000,23
1149,1337,2.19334E+001,5.56777E-001,-8.54307E-002,7.76245E+000,-2.64999E-001,-8.75274E-002,7.76746E+000,1.85258E-002,4.85967E-001,0,1.17172E+002,-5.05443E+000,9.98714E-001,8.06202E+001,-3.43531E+001,9.97809E-001,1.51345E-001,-6.11950E-002,-2.04705E-003,1.51365E-001,-6.12147E-002,-5.51767E-001,1.52284E-001,1.16320E+000,-2.17562E-002,0.00000E+000,1.37920E-002,9.42557E-001,0.00000E+000,-1.93097E-003,-6.54502E-002,1.00000E+000,23
1149,1347,2.19597E+001,1.17617E+000,-4.52865E-002,7.75362E+000,-3.06806E-001,-1.21270E-001,7.76064E+000,1.77654E-002,4.99082E-001,0,1.17150E+002,-5.65437E+000,9.98742E-001,8.11501E+001,-3.48275E+001,9.97525E-001,1.52419E-001,-6.11865E-002,-1.94919E-003,1.52437E-001,-6.12043E-002,-5.22778E-001,1.53419E-001,1.16445E+000,-2.16906E-002,0.00000E+000,1.39458E-002,9.42565E-001,0.00000E+000,-2.58550E-003,-6.54846E-002,1.00000E+000,23
699,1347,-1.20688E+001,5.61004E-001,2.31921E-002,3.10083E+000,-6.28265E-001,3.62921E-002,3.16405E+000,1.13461E-002,5.83093E-001,0,4.82581E+001,-1.03231E+001,9.98940E-001,5.17392E+000,-4.91202E+001,9.98909E-001,1.37397E-001,-5.82097E-002,-1.00322E-003,1.37403E-001,-5.82148E-002,-2.93847E-001,1.37935E-001,1.14729E+000,-6.79599E-004,0.00000E+000,-1.22822E-003,9.45696E-001,0.00000E+000,-1.83713E-003,-6.90125E-002,1.00000E+000,23
699,1357,-1.20529E+001,1.16732E+000,3.55942E-002,3.09632E+000,-6.68699E-001,-1.74671E-003,3.16770E+000,1.13915E-002,5.64293E-001,0,4.82960E+001,-1.08756E+001,9.98761E-001,5.58741E+000,-4.98324E+001,9.98716E-001,1.36393E-001,-5.82167E-002,-1.13097E-003,1.36399E-001,-5.82233E-002,-3.32959E-001,1.36885E-001,1.14614E+000,-7.15598E-004,0.00000E+000,-1.36905E-003,9.45692E-001,0.00000E+000,-2.93634E-003,-6.90469E-002,1.00000E+000,23
699,1337,-1.20839E+001,-5.24924E-002,4.72789E-002,3.10024E+000,-5.98787E-001,7.78897E-002,3.15850E+000,8.81659E-003,5.71589E-001,0,4.81298E+001,-9.95286E+000,9.98831E-001,4.87004E+000,-4.86159E+001,9.98765E-001,1.38397E-001,-5.82047E-002,-8.80398E-004,1.38401E-001,-5.82087E-002,-2.56568E-001,1.38982E-001,1.14843E+000,-6.54071E-004,0.00000E+000,-1.08779E-003,9.45699E-001,0.00000E+000,-7.40984E-004,-6.89881E-002,1.00000E+000,23
699,1317,-1.20954E+001,-1.23402E+000,1.97771E-001,3.10030E+000,-5.12611E-001,1.68129E-001,3.14689E+000,1.34741E-002,6.19820E-001,0,4.78536E+001,-8.77184E+000,9.98811E-001,4.83309E+000,-4.70929E+001,9.98366E-001,1.40371E-001,-5.82008E-002,-6.50275E-004,1.40373E-001,-5.82029E-002,-1.87627E-001,1.41054E-001,1.15070E+000,-6.33612E-004,0.00000E+000,-8.09655E-004,9.45702E-001,0.00000E+000,1.42995E-003,-6.89685E-002,1.00000E+000,23
699,1327,-1.20902E+001,-6.40486E-001,1.09069E-001,3.10146E+000,-5.53593E-001,1.19219E-001,3.15273E+000,1.06278E-002,6.88442E-001,0,4.80216E+001,-9.33626E+000,9.98795E-001,4.80746E+000,-4.77368E+001,9.97719E-001,1.39383E-001,-5.82022E-002,-7.64246E-004,1.39386E-001,-5.82051E-002,-2.21611E-001,1.40016E-001,1.14957E+000,-6.40848E-004,0.00000E+000,-9.48993E-004,9.45701E-001,0.00000E+000,3.42352E-004,-6.89754E-002,1.00000E+000,23
1159,1307,2.26833E+001,-1.26622E+000,-7.00747E-003,7.90948E+000,-1.39482E-001,2.89312E-002,7.91076E+000,1.46975E-002,3.70885E-001,0,1.18844E+002,-3.24532E+000,9.97420E-001,8.22683E+001,-3.27773E+001,9.95900E-001,1.48732E-001,-6.15390E-002,-2.33713E-003,1.48758E-001,-6.15649E-002,-6.36729E-001,1.49492E-001,1.16018E+000,-2.09098E-002,0.00000E+000,1.25613E-002,9.42282E-001,0.00000E+000,-1.30335E-003,-6.59516E-002,1.00000E+000,23
1159,1317,2.26878E+001,-6.53159E-001,-5.95962E-002,7.90086E+000,-1.74386E-001,-9.33500E-003,7.90279E+000,1.49602E-002,4.30083E-001,0,1.18866E+002,-3.75514E+000,9.97891E-001,8.23140E+001,-3.31162E+001,9.97437E-001,1.49866E-001,-6.15394E-002,-2.32364E-003,1.49891E-001,-6.15650E-002,-6.29660E-001,1.50685E-001,1.16150E+000,-2.08833E-002,0.00000E+000,1.25849E-002,9.42283E-001,0.00000E+000,-1.93189E-003,-6.59642E-002,1.00000E+000,23
1159,1327,2.26977E+001,-4.23596E-002,-8.17787E-002,7.89084E+000,-2.14341E-001,-4.42226E-002,7.89387E+000,9.83050E-003,4.12322E-001,0,1.18847E+002,-4.32984E+000,9.99011E-001,8.24901E+001,-3.35957E+001,9.98431E-001,1.51000E-001,-6.15400E-002,-2.30449E-003,1.51025E-001,-6.15650E-002,-6.21139E-001,1.51881E-001,1.16282E+000,-2.08434E-002,0.00000E+000,1.26085E-002,9.42283E-001,0.00000E+000,-2.56180E-003,-6.59832E-002,1.00000E+000,23
1159,1297,2.26829E+001,-1.86767E+000,7.04067E-002,7.91842E+000,-9.78869E-002,7.70929E-002,7.91940E+000,1.46764E-002,4.37579E-001,0,1.18781E+002,-2.67362E+000,9.98047E-001,8.23253E+001,-3.22486E+001,9.94535E-001,1.47603E-001,-6.15386E-002,-2.34741E-003,1.47630E-001,-6.15649E-002,-6.42981E-001,1.48306E-001,1.15887E+000,-2.09286E-002,0.00000E+000,1.25379E-002,9.42282E-001,0.00000E+000,-6.78836E-004,-6.59426E-002,1.00000E+000,23
1159,1337,2.27200E+001,5.70344E-001,-6.80181E-002,7.88362E+000,-2.59566E-001,-8.11298E-002,7.88831E+000,1.34514E-002,4.30642E-001,0,1.18871E+002,-4.97641E+000,9.99500E-001,8.29142E+001,-3.41079E+001,9.99280E-001,1.52142E-001,-6.15409E-002,-2.27731E-003,1.52166E-001,-6.15651E-002,-6.10535E-001,1.53086E-001,1.16415E+000,-2.07845E-002,0.00000E+000,1.26323E-002,9.42284E-001,0.00000E+000,-3.19679E-003,-6.60114E-002,1.00000E+000,23
1159,1347,2.27374E+001,1.19073E+000,-4.62168E-002,7.86840E+000,-2.97538E-001,-1.22406E-001,7.87497E+000,1.51940E-002,4.42861E-001,0,1.18785E+002,-5.52321E+000,9.98891E-001,8.32743E+001,-3.45263E+001,9.98286E-001,1.53281E-001,-6.15417E-002,-2.24765E-003,1.53304E-001,-6.15652E-002,-5.99387E-001,1.54291E-001,1.16548E+000,-2.07194E-002,0.00000E+000,1.26562E-002,9.42285E-001,0.00000E+000,-3.83157E-003,-6.60424E-002,1.00000E+000,23
689,1347,-1.28037E+001,5.52294E-001,2.99134E-002,3.00686E+000,-6.33323E-001,3.46293E-002,3.07303E+000,1.02699E-002,6.09808E-001,0,4.68339E+001,-1.03847E+001,9.99234E-001,3.93680E+000,-4.93615E+001,9.98646E-001,1.36088E-001,-5.75596E-002,-9.86739E-004,1.36093E-001,-5.75647E-002,-2.91943E-001,1.36630E-001,1.14579E+000,5.42206E-004,0.00000E+000,-2.20187E-003,9.46259E-001,0.00000E+000,-1.84530E-003,-6.82371E-002,1.00000E+000,23
689,1357,-1.27906E+001,1.15728E+000,3.30697E-002,3.00183E+000,-6.72597E-001,-8.95762E-004,3.07626E+000,1.08910E-002,5.90734E-001,0,4.68569E+001,-1.09329E+001,9.98995E-001,4.28328E+000,-5.00762E+001,9.98936E-001,1.34893E-001,-5.75665E-002,-1.13184E-003,1.34900E-001,-5.75732E-002,-3.36936E-001,1.35381E-001,1.14442E+000,5.04180E-004,0.00000E+000,-2.38307E-003,9.46254E-001,0.00000E+000,-2.83297E-003,-6.82646E-002,1.00000E+000,23
689,1337,-1.28157E+001,-4.83813E-002,5.18246E-002,3.01018E+000,-5.89606E-001,7.93569E-002,3.06841E+000,1.10117E-002,5.74118E-001,0,4.67547E+001,-9.80093E+000,9.99159E-001,3.67612E+000,-4.86649E+001,9.99179E-001,1.37282E-001,-5.75539E-002,-8.44028E-004,1.37286E-001,-5.75575E-002,-2.48199E-001,1.37881E-001,1.14715E+000,5.74389E-004,0.00000E+000,-2.02036E-003,9.46263E-001,0.00000E+000,-8.55898E-004,-6.82138E-002,1.00000E+000,23
1169,1327,2.34625E+001,-3.06109E-002,-9.39734E-002,7.99403E+000,-2.08226E-001,-5.14006E-002,7.99690E+000,9.36872E-003,4.37486E-001,0,1.20331E+002,-4.24762E+000,9.99334E-001,8.44056E+001,-3.32776E+001,9.98910E-001,1.51538E-001,-6.18029E-002,-2.25174E-003,1.51561E-001,-6.18266E-002,-6.04649E-001,1.52415E-001,1.16346E+000,-1.97677E-002,0.00000E+000,1.19113E-002,9.42060E-001,0.00000E+000,-3.88708E-003,-6.62155E-002,1.00000E+000,23
1169,1337,2.34877E+001,5.89102E-001,-7.32134E-002,7.98764E+000,-2.46764E-001,-8.87387E-002,7.99194E+000,1.24725E-002,4.35321E-001,0,1.20365E+002,-4.79630E+000,9.99439E-001,8.48838E+001,-3.37048E+001,9.98993E-001,1.52679E-001,-6.18079E-002,-2.25635E-003,1.52703E-001,-6.18316E-002,-6.02649E-001,1.53620E-001,1.16480E+000,-1.97046E-002,0.00000E+000,1.18647E-002,9.42058E-001,0.00000E+000,-4.39333E-003,-6.62395E-002,1.00000E+000,23
1169,1347,2.35147E+001,1.20639E+000,-3.97228E-002,7.97980E+000,-2.89489E-001,-1.25813E-001,7.98604E+000,1.22499E-002,4.09729E-001,0,1.20373E+002,-5.40345E+000,9.98847E-001,8.54074E+001,-3.42133E+001,9.98549E-001,1.53820E-001,-6.18132E-002,-2.25845E-003,1.53844E-001,-6.18369E-002,-6.00003E-001,1.54827E-001,1.16613E+000,-1.96352E-002,0.00000E+000,1.18180E-002,9.42055E-001,0.00000E+000,-4.90046E-003,-6.62658E-002,1.00000E+000,23
689,1327,-1.28353E+001,-6.48814E-001,9.75016E-002,3.00025E+000,-5.53965E-001,1.16836E-001,3.05320E+000,1.22962E-002,6.42791E-001,0,4.64894E+001,-9.32039E+000,9.98460E-001,3.36343E+000,-4.79665E+001,9.98053E-001,1.38462E-001,-5.75503E-002,-7.07806E-004,1.38464E-001,-5.75529E-002,-2.06893E-001,1.39120E-001,1.14851E+000,5.94681E-004,0.00000E+000,-1.84066E-003,9.46266E-001,0.00000E+000,1.23673E-004,-6.81991E-002,1.00000E+000,23
1169,1317,2.34550E+001,-6.43668E-001,-6.16510E-002,8.00617E+000,-1.68140E-001,-8.17058E-003,8.00794E+000,1.78877E-002,3.70066E-001,0,1.20347E+002,-3.68381E+000,9.98716E-001,8.42832E+001,-3.28993E+001,9.98296E-001,1.50399E-001,-6.17993E-002,-2.23729E-003,1.50423E-001,-6.18229E-002,-6.04001E-001,1.51215E-001,1.16214E+000,-1.98072E-002,0.00000E+000,1.19577E-002,9.42061E-001,0.00000E+000,-3.38299E-003,-6.62005E-002,1.00000E+000,23
1169,1307,2.34486E+001,-1.25534E+000,-1.45412E-002,8.01437E+000,-1.34402E-001,3.04783E-002,8.01555E+000,1.50570E-002,3.98574E-001,0,1.20319E+002,-3.17984E+000,9.98654E-001,8.41995E+001,-3.24851E+001,9.97470E-001,1.49271E-001,-6.17964E-002,-2.21895E-003,1.49295E-001,-6.18197E-002,-6.02260E-001,1.50027E-001,1.16083E+000,-1.98366E-002,0.00000E+000,1.20036E-002,9.42062E-001,0.00000E+000,-2.88413E-003,-6.61893E-002,1.00000E+000,23
1169,1297,2.34509E+001,-1.85660E+000,6.70547E-002,8.02512E+000,-9.15669E-002,7.90733E-002,8.02603E+000,1.24534E-002,4.50805E-001,0,1.20278E+002,-2.60341E+000,9.98851E-001,8.43038E+001,-3.19710E+001,9.96076E-001,1.48142E-001,-6.17941E-002,-2.19545E-003,1.48165E-001,-6.18171E-002,-5.99096E-001,1.48840E-001,1.15951E+000,-1.98538E-002,0.00000E+000,1.20495E-002,9.42063E-001,0.00000E+000,-2.38535E-003,-6.61827E-002,1.00000E+000,23
689,1317,-1.28403E+001,-1.24085E+000,1.86782E-001,2.99908E+000,-5.13287E-001,1.65624E-001,3.04719E+000,1.39204E-002,6.04005E-001,0,4.63228E+001,-8.75284E+000,9.98437E-001,3.39445E+000,-4.72842E+001,9.96906E-001,1.39637E-001,-5.75490E-002,-5.77135E-004,1.39639E-001,-5.75507E-002,-1.67695E-001,1.40355E-001,1.14986E+000,6.02842E-004,0.00000E+000,-1.66133E-003,9.46267E-001,0.00000E+000,1.10116E-003,-6.81932E-002,1.00000E+000,23
679,1347,-1.35476E+001,5.45722E-001,2.32741E-002,2.90535E+000,-6.31464E-001,2.95173E-002,2.97333E+000,1.66294E-002,6.32001E-001,0,4.52993E+001,-1.03794E+001,9.98555E-001,2.53112E+000,-4.95444E+001,9.98152E-001,1.34733E-001,-5.69791E-002,-1.02504E-003,1.34739E-001,-5.69846E-002,-3.06335E-001,1.35271E-001,1.14423E+000,1.85215E-003,0.00000E+000,-3.35063E-003,9.46757E-001,0.00000E+000,-1.93948E-003,-6.74799E-002,1.00000E+000,23
679,1357,-1.35210E+001,1.15211E+000,2.95912E-002,2.91544E+000,-6.70440E-001,5.35166E-003,2.99154E+000,8.46050E-003,6.05407E-001,0,4.55250E+001,-1.09072E+001,9.99038E-001,3.09520E+000,-5.02480E+001,9.98842E-001,1.33267E-001,-5.69898E-002,-1.27619E-003,1.33276E-001,-5.69984E-002,-3.84300E-001,1.33740E-001,1.14256E+000,1.80968E-003,0.00000E+000,-3.73264E-003,9.46747E-001,0.00000E+000,-2.91852E-003,-6.75047E-002,1.00000E+000,23
1179,1297,2.42100E+001,-1.85005E+000,3.98109E-002,8.12717E+000,-8.74050E-002,7.52853E-002,8.12799E+000,2.01765E-002,5.02850E-001,0,1.21732E+002,-2.57009E+000,9.99303E-001,8.61134E+001,-3.16944E+001,9.96975E-001,1.48587E-001,-6.19317E-002,-2.12271E-003,1.48609E-001,-6.19531E-002,-5.77648E-001,1.49292E-001,1.16005E+000,-1.90046E-002,0.00000E+000,1.15813E-002,9.41962E-001,0.00000E+000,-3.81230E-003,-6.65389E-002,1.00000E+000,23
1179,1307,2.42165E+001,-1.24706E+000,-2.58076E-002,8.12262E+000,-1.27836E-001,3.27807E-002,8.12369E+000,9.45004E-003,3.59986E-001,0,1.21838E+002,-3.11438E+000,9.99431E-001,8.61697E+001,-3.22582E+001,9.98122E-001,1.49642E-001,-6.19318E-002,-2.10817E-003,1.49663E-001,-6.19528E-002,-5.70832E-001,1.50400E-001,1.16127E+000,-1.89838E-002,0.00000E+000,1.15992E-002,9.41962E-001,0.00000E+000,-4.19134E-003,-6.65454E-002,1.00000E+000,23
1179,1317,2.42183E+001,-6.36260E-001,-1.06154E-001,8.11442E+000,-1.61509E-001,-2.04196E-002,8.11606E+000,2.07254E-002,3.52935E-001,0,1.21931E+002,-3.57378E+000,9.99427E-001,8.61319E+001,-3.26016E+001,9.98704E-001,1.50697E-001,-6.19319E-002,-2.09443E-003,1.50718E-001,-6.19525E-002,-5.64300E-001,1.51511E-001,1.16250E+000,-1.89648E-002,0.00000E+000,1.16172E-002,9.41962E-001,0.00000E+000,-4.57111E-003,-6.65512E-002,1.00000E+000,23
1179,1337,2.42591E+001,5.97605E-001,-8.89269E-002,8.09539E+000,-2.43578E-001,-1.04477E-001,8.09973E+000,1.07920E-002,4.35927E-001,0,1.21949E+002,-4.74918E+000,9.99259E-001,8.68976E+001,-3.34391E+001,9.98052E-001,1.52835E-001,-6.19323E-002,-2.03551E-003,1.52854E-001,-6.19516E-002,-5.42971E-001,1.53765E-001,1.16499E+000,-1.88529E-002,0.00000E+000,1.16537E-002,9.41964E-001,0.00000E+000,-5.34214E-003,-6.65859E-002,1.00000E+000,23
1179,1347,2.42963E+001,1.22146E+000,-4.49626E-002,8.09521E+000,-2.82597E-001,-1.40421E-001,8.10136E+000,1.05964E-002,4.23039E-001,0,1.22064E+002,-5.29069E+000,9.99350E-001,8.75952E+001,-3.38598E+001,9.98630E-001,1.53907E-001,-6.19326E-002,-2.00025E-003,1.53926E-001,-6.19511E-002,-5.30916E-001,1.54898E-001,1.16625E+000,-1.87829E-002,0.00000E+000,1.16720E-002,9.41965E-001,0.00000E+000,-5.72972E-003,-6.66075E-002,1.00000E+000,23
679,1327,-1.35720E+001,-6.54799E-001,1.04411E-001,2.90506E+000,-5.54197E-001,1.21769E-001,2.95995E+000,1.47899E-002,6.09474E-001,0,4.50263E+001,-9.31626E+000,9.98129E-001,2.10438E+000,-4.81927E+001,9.97157E-001,1.37633E-001,-5.69639E-002,-5.36610E-004,1.37634E-001,-5.69653E-002,-1.57994E-001,1.38313E-001,1.14755E+000,1.91400E-003,0.00000E+000,-2.59241E-003,9.46771E-001,0.00000E+000,3.76969E-006,-6.74437E-002,1.00000E+000,23
679,1337,-1.35594E+001,-5.49033E-002,4.80824E-002,2.90896E+000,-5.90367E-001,7.84992E-002,2.96930E+000,1.62858E-002,5.98612E-001,0,4.52144E+001,-9.80638E+000,9.98625E-001,2.28116E+000,-4.88504E+001,9.98365E-001,1.36188E-001,-5.69691E-002,-7.76479E-004,1.36192E-001,-5.69722E-002,-2.30320E-001,1.36796E-001,1.14590E+000,1.89163E-003,0.00000E+000,-2.97055E-003,9.46766E-001,0.00000E+000,-9.65367E-004,-6.74568E-002,1.00000E+000,23
1179,1327,2.42326E+001,-2.46743E-002,-1.05098E-001,8.10295E+000,-2.04988E-001,-5.40377E-002,8.10572E+000,1.47467E-002,4.04299E-001,0,1.21883E+002,-4.22911E+000,9.99240E-001,8.64089E+001,-3.30808E+001,9.97622E-001,1.51763E-001,-6.19321E-002,-2.06818E-003,1.51783E-001,-6.19521E-002,-5.54449E-001,1.52634E-001,1.16374E+000,-1.89165E-002,0.00000E+000,1.16354E-002,9.41963E-001,0.00000E+000,-4.95537E-003,-6.65662E-002,1.00000E+000,23
679,1317,-1.35786E+001,-1.24657E+000,1.93074E-001,2.90236E+000,-5.13542E-001,1.70602E-001,2.95238E+000,1.21571E-002,6.33445E-001,0,4.48369E+001,-8.77843E+000,9.98670E-001,2.10960E+000,-4.74718E+001,9.97206E-001,1.39070E-001,-5.69620E-002,-3.02803E-004,1.39071E-001,-5.69624E-002,-8.85021E-002,1.39826E-001,1.14920E+000,1.92413E-003,0.00000E+000,-2.21542E-003,9.46773E-001,0.00000E+000,9.69976E-004,-6.74377E-002,1.00000E+000,23
669,1327,-1.43040E+001,-6.67954E-001,1.07163E-001,2.81485E+000,-5.60543E-001,1.26511E-001,2.87291E+000,1.11536E-002,5.96268E-001,0,4.36415E+001,-9.42624E+000,9.99297E-001,9.08762E-001,-4.85096E+001,9.98704E-001,1.36680E-001,-5.64659E-002,-2.99592E-004,1.36680E-001,-5.64664E-002,-8.88725E-002,1.37366E-001,1.14645E+000,3.90602E-003,0.00000E+000,-3.76950E-003,9.47183E-001,0.00000E+000,-2.09840E-004,-6.65762E-002,1.00000E+000,23
669,1337,-1.42945E+001,-6.11685E-002,5.14399E-002,2.81532E+000,-5.91787E-001,8.15270E-002,2.87800E+000,9.90215E-003,6.15226E-001,0,4.37785E+001,-9.82103E+000,9.98927E-001,1.04167E+000,-4.90502E+001,9.98825E-001,1.34923E-001,-5.64720E-002,-6.04728E-004,1.34924E-001,-5.64739E-002,-1.81029E-001,1.35520E-001,1.14444E+000,3.87779E-003,0.00000E+000,-4.27324E-003,9.47176E-001,0.00000E+000,-1.14696E-003,-6.65894E-002,1.00000E+000,23
669,1347,-1.42801E+001,5.39318E-001,2.08908E-002,2.81780E+000,-6.30240E-001,4.52088E-002,2.88777E+000,9.02770E-003,5.87868E-001,0,4.39225E+001,-1.03493E+001,9.98767E-001,1.31787E+000,-4.97656E+001,9.98555E-001,1.33162E-001,-5.64806E-002,-9.13792E-004,1.33166E-001,-5.64850E-002,-2.76071E-001,1.33676E-001,1.14243E+000,3.84061E-003,0.00000E+000,-4.77685E-003,9.47167E-001,0.00000E+000,-2.08382E-003,-6.66067E-002,1.00000E+000,23
669,1357,-1.42553E+001,1.15276E+000,3.28460E-002,2.82320E+000,-6.62206E-001,9.43981E-003,2.89984E+000,9.48728E-003,5.82015E-001,0,4.41041E+001,-1.07862E+001,9.98631E-001,1.87289E+000,-5.03650E+001,9.98637E-001,1.31387E-001,-5.64959E-002,-1.23480E-003,1.31395E-001,-5.65040E-002,-3.76538E-001,1.31823E-001,1.14041E+000,3.78026E-003,0.00000E+000,-5.28338E-003,9.47152E-001,0.00000E+000,-3.02613E-003,-6.66348E-002,1.00000E+000,23
1189,1337,2.50363E+001,6.08754E-001,-1.01128E-001,8.20798E+000,-2.39998E-001,-1.18387E-001,8.21234E+000,1.39022E-002,4.25306E-001,0,1.23596E+002,-4.66494E+000,9.99406E-001,8.90122E+001,-3.31453E+001,9.98388E-001,1.52593E-001,-6.21646E-002,-1.81495E-003,1.52608E-001,-6.21799E-002,-4.84169E-001,1.53477E-001,1.16473E+000,-1.80939E-002,0.00000E+000,1.14980E-002,9.41745E-001,0.00000E+000,-5.92972E-003,-6.65608E-002,1.00000E+000,23
669,1317,-1.43074E+001,-1.25476E+000,2.04733E-001,2.81406E+000,-5.15395E-001,1.77431E-001,2.86637E+000,1.32994E-002,5.97465E-001,0,4.34750E+001,-8.82268E+000,9.99269E-001,9.88647E-001,-4.77404E+001,9.98695E-001,1.38422E-001,-5.64655E-002,-4.85413E-006,1.38422E-001,-5.64655E-002,-1.42709E-003,1.39202E-001,1.14845E+000,3.91439E-003,0.00000E+000,-3.26869E-003,9.47186E-001,0.00000E+000,7.21830E-004,-6.65723E-002,1.00000E+000,23
1189,1297,2.49890E+001,-1.83949E+000,5.61623E-002,8.23834E+000,-8.30169E-002,7.50734E-002,8.23910E+000,1.43087E-002,4.57740E-001,0,1.23294E+002,-2.52277E+000,9.99113E-001,8.83002E+001,-3.14950E+001,9.96797E-001,1.48977E-001,-6.21570E-002,-1.80626E-003,1.48993E-001,-6.21725E-002,-4.90121E-001,1.49671E-001,1.16052E+000,-1.82181E-002,0.00000E+000,1.16311E-002,9.41749E-001,0.00000E+000,-5.33222E-003,-6.65431E-002,1.00000E+000,23
1189,1307,2.49819E+001,-1.23941E+000,-3.95769E-002,8.22476E+000,-1.27012E-001,2.04502E-002,8.22576E+000,1.08116E-002,4.12562E-001,0,1.23322E+002,-3.09792E+000,9.98704E-001,8.81019E+001,-3.19906E+001,9.98111E-001,1.49876E-001,-6.21580E-002,-1.81695E-003,1.49892E-001,-6.21736E-002,-4.90929E-001,1.50615E-001,1.16156E+000,-1.82074E-002,0.00000E+000,1.15980E-002,9.41749E-001,0.00000E+000,-5.48050E-003,-6.65446E-002,1.00000E+000,23
1189,1317,2.50008E+001,-6.14878E-001,-7.29825E-002,8.22413E+000,-1.55217E-001,-2.23196E-002,8.22563E+000,1.19740E-002,4.77120E-001,0,1.23474E+002,-3.48993E+000,9.99339E-001,8.83998E+001,-3.21833E+001,9.99286E-001,1.50782E-001,-6.21599E-002,-1.81905E-003,1.50798E-001,-6.21755E-002,-4.89398E-001,1.51569E-001,1.16262E+000,-1.81761E-002,0.00000E+000,1.15647E-002,9.41748E-001,0.00000E+000,-5.63020E-003,-6.65491E-002,1.00000E+000,23
1189,1327,2.50176E+001,-6.67699E-003,-9.13265E-002,8.21726E+000,-1.99933E-001,-6.61172E-002,8.21996E+000,1.51132E-002,4.49086E-001,0,1.23539E+002,-4.12094E+000,9.99453E-001,8.86843E+001,-3.27109E+001,9.99061E-001,1.51687E-001,-6.21621E-002,-1.81842E-003,1.51702E-001,-6.21776E-002,-4.87157E-001,1.52522E-001,1.16367E+000,-1.81385E-002,0.00000E+000,1.15314E-002,9.41747E-001,0.00000E+000,-5.77976E-003,-6.65544E-002,1.00000E+000,23
659,1327,-1.50349E+001,-6.57665E-001,1.09579E-001,2.72408E+000,-5.45717E-001,1.24191E-001,2.78098E+000,1.61591E-002,5.69197E-001,0,4.22595E+001,-9.16183E+000,9.99163E-001,-2.61025E-001,-4.84724E+001,9.97778E-001,1.35482E-001,-5.61089E-002,-2.57010E-004,1.35483E-001,-5.61092E-002,-7.68591E-002,1.36147E-001,1.14507E+000,5.97843E-003,0.00000E+000,-5.38599E-003,9.47470E-001,0.00000E+000,-4.56137E-004,-6.58694E-002,1.00000E+000,23
659,1337,-1.50077E+001,-7.25804E-002,7.85041E-002,2.74231E+000,-5.98597E-001,1.03650E-001,2.80879E+000,2.34173E-002,6.44015E-001,0,4.26090E+001,-9.97862E+000,9.98762E-001,2.05625E-001,-4.93713E+001,9.98598E-001,1.33586E-001,-5.61140E-002,-5.70010E-004,1.33588E-001,-5.61157E-002,-1.72160E-001,1.34156E-001,1.14291E+000,5.94821E-003,0.00000E+000,-5.90987E-003,9.47462E-001,0.00000E+000,-1.35418E-003,-6.58819E-002,1.00000E+000,23
659,1347,-1.49986E+001,5.36484E-001,4.46136E-002,2.73942E+000,-6.28173E-001,6.30431E-002,2.81122E+000,1.29683E-002,6.09673E-001,0,4.26782E+001,-1.03578E+001,9.99278E-001,3.93932E-001,-4.99542E+001,9.99226E-001,1.31687E-001,-5.61218E-002,-8.87249E-004,1.31691E-001,-5.61260E-002,-2.70670E-001,1.32168E-001,1.14074E+000,5.90801E-003,0.00000E+000,-6.43336E-003,9.47453E-001,0.00000E+000,-2.25155E-003,-6.58985E-002,1.00000E+000,23
659,1357,-1.49823E+001,1.15311E+000,4.04422E-002,2.73712E+000,-6.56147E-001,1.43473E-002,2.81470E+000,9.05386E-003,5.76258E-001,0,4.27752E+001,-1.06900E+001,9.98966E-001,7.77761E-001,-5.04865E+001,9.99134E-001,1.29772E-001,-5.61357E-002,-1.21599E-003,1.29780E-001,-5.61437E-002,-3.74739E-001,1.30173E-001,1.13856E+000,5.84550E-003,0.00000E+000,-6.95964E-003,9.47437E-001,0.00000E+000,-3.15371E-003,-6.59244E-002,1.00000E+000,23
1199,1307,2.57538E+001,-1.22691E+000,-3.88807E-002,8.32979E+000,-1.22575E-001,1.06681E-002,8.33070E+000,1.45398E-002,4.40420E-001,0,1.24831E+002,-3.02727E+000,9.98715E-001,9.01603E+001,-3.16907E+001,9.97795E-001,1.49936E-001,-6.21202E-002,-1.43709E-003,1.49946E-001,-6.21300E-002,-3.88265E-001,1.50678E-001,1.16165E+000,-1.72087E-002,0.00000E+000,1.15654E-002,9.41772E-001,0.00000E+000,-6.37107E-003,-6.63573E-002,1.00000E+000,23
1199,1317,2.57649E+001,-6.15486E-001,-8.46041E-002,8.32364E+000,-1.60990E-001,-3.51117E-002,8.32527E+000,1.30147E-002,4.33241E-001,0,1.24921E+002,-3.56120E+000,9.98114E-001,9.03167E+001,-3.20953E+001,9.96893E-001,1.50745E-001,-6.21231E-002,-1.45675E-003,1.50755E-001,-6.21330E-002,-3.92076E-001,1.51528E-001,1.16259E+000,-1.71840E-002,0.00000E+000,1.14912E-002,9.41770E-001,0.00000E+000,-6.27944E-003,-6.63549E-002,1.00000E+000,23
1199,1327,2.57821E+001,5.98448E-004,-1.17721E-001,8.32088E+000,-1.95832E-001,-7.90552E-002,8.32356E+000,1.36002E-002,4.13577E-001,0,1.25049E+002,-4.04734E+000,9.98720E-001,9.05875E+001,-3.24621E+001,9.97657E-001,1.51553E-001,-6.21262E-002,-1.47479E-003,1.51563E-001,-6.21364E-002,-3.95423E-001,1.52380E-001,1.16353E+000,-1.71554E-002,0.00000E+000,1.14168E-002,9.41768E-001,0.00000E+000,-6.18773E-003,-6.63521E-002,1.00000E+000,23
659,1317,-1.50486E+001,-1.25646E+000,1.84283E-001,2.71544E+000,-5.11616E-001,1.66247E-001,2.76822E+000,1.31778E-002,6.19382E-001,0,4.20014E+001,-8.72281E+000,9.98452E-001,-4.03898E-001,-4.78139E+001,9.95558E-001,1.37364E-001,-5.61073E-002,4.85078E-005,1.37364E-001,-5.61073E-002,1.43654E-002,1.38129E-001,1.14723E+000,5.99552E-003,0.00000E+000,-4.86504E-003,9.47474E-001,0.00000E+000,4.36874E-004,-6.58623E-002,1.00000E+000,23
1199,1337,2.58145E+001,6.22135E-001,-9.38987E-002,8.31850E+000,-2.35074E-001,-1.23150E-001,8.32273E+000,1.12090E-002,4.30510E-001,0,1.25169E+002,-4.59752E+000,9.99229E-001,9.11756E+001,-3.28521E+001,9.97988E-001,1.52369E-001,-6.21310E-002,-1.48424E-003,1.52380E-001,-6.21412E-002,-3.96435E-001,1.53241E-001,1.16448E+000,-1.71058E-002,0.00000E+000,1.13417E-002,9.41764E-001,0.00000E+000,-6.09503E-003,-6.63473E-002,1.00000E+000,23
1199,1297,2.57592E+001,-1.82236E+000,4.89552E-002,8.34244E+000,-7.33025E-002,6.00248E-002,8.34298E+000,1.13186E-002,4.45691E-001,0,1.24808E+002,-2.34023E+000,9.98536E-001,9.03213E+001,-3.11279E+001,9.97159E-001,1.49131E-001,-6.21185E-002,-1.41157E-003,1.49140E-001,-6.21279E-002,-3.82829E-001,1.49831E-001,1.16072E+000,-1.72193E-002,0.00000E+000,1.16393E-002,9.41773E-001,0.00000E+000,-6.46225E-003,-6.63583E-002,1.00000E+000,23
649,1347,-1.57364E+001,5.41084E-001,3.89258E-002,2.64177E+000,-6.18869E-001,5.30686E-002,2.71381E+000,1.29573E-002,6.57678E-001,0,4.12090E+001,-1.01946E+001,9.98911E-001,-8.97382E-001,-4.99544E+001,9.97971E-001,1.30055E-001,-5.56273E-002,-7.96733E-004,1.30059E-001,-5.56307E-002,-2.45841E-001,1.30511E-001,1.13887E+000,8.21161E-003,0.00000E+000,-8.17138E-003,9.47863E-001,0.00000E+000,-2.44045E-003,-6.51761E-002,1.00000E+000,23
649,1357,-1.57149E+001,1.15164E+000,4.72237E-002,2.64524E+000,-6.51855E-001,1.93684E-002,2.72445E+000,9.00318E-003,5.97002E-001,0,4.13548E+001,-1.06331E+001,9.99150E-001,-3.99976E-001,-5.06219E+001,9.98771E-001,1.27894E-001,-5.56392E-002,-1.11946E-003,1.27901E-001,-5.56460E-002,-3.49457E-001,1.28260E-001,1.13641E+000,8.14349E-003,0.00000E+000,-8.69182E-003,9.47848E-001,0.00000E+000,-3.27398E-003,-6.51993E-002,1.00000E+000,23
649,1337,-1.57561E+001,-6.34913E-002,7.17446E-002,2.63372E+000,-5.83283E-001,9.15614E-002,2.69909E+000,1.41500E-002,6.05995E-001,0,4.09744E+001,-9.70125E+000,9.99021E-001,-1.25102E+000,-4.93428E+001,9.98406E-001,1.32207E-001,-5.56210E-002,-4.84975E-004,1.32209E-001,-5.56223E-002,-1.47937E-001,1.32761E-001,1.14132E+000,8.25596E-003,0.00000E+000,-7.65166E-003,9.47872E-001,0.00000E+000,-1.60807E-003,-6.51611E-002,1.00000E+000,23
649,1327,-1.57750E+001,-6.50688E-001,1.11757E-001,2.62332E+000,-5.34924E-001,1.18932E-001,2.67994E+000,1.11923E-002,5.91833E-001,0,4.07290E+001,-8.97292E+000,9.99396E-001,-1.56696E+000,-4.84623E+001,9.99156E-001,1.34343E-001,-5.56176E-002,-1.80182E-004,1.34343E-001,-5.56178E-002,-5.43464E-002,1.35004E-001,1.14376E+000,8.28812E-003,0.00000E+000,-7.13466E-003,9.47879E-001,0.00000E+000,-7.80039E-004,-6.51501E-002,1.00000E+000,23
1209,1307,2.65276E+001,-1.21144E+000,-4.10277E-002,8.43693E+000,-1.13908E-001,6.53548E-004,8.43770E+000,1.15933E-002,4.47848E-001,0,1.26369E+002,-2.89549E+000,9.98877E-001,9.22490E+001,-3.13487E+001,9.97685E-001,1.49653E-001,-6.17764E-002,-1.01119E-003,1.49658E-001,-6.17813E-002,-2.74016E-001,1.50414E-001,1.16134E+000,-1.61139E-002,0.00000E+000,1.15101E-002,9.42071E-001,0.00000E+000,-6.63359E-003,-6.59631E-002,1.00000E+000,23
1209,1317,2.65368E+001,-6.06664E-001,-9.03206E-002,8.43065E+000,-1.58167E-001,-4.16650E-002,8.43224E+000,1.31848E-002,4.42092E-001,0,1.26448E+002,-3.52807E+000,9.98858E-001,9.23707E+001,-3.18468E+001,9.96773E-001,1.50497E-001,-6.17786E-002,-1.02456E-003,1.50502E-001,-6.17835E-002,-2.76532E-001,1.51303E-001,1.16232E+000,-1.60906E-002,0.00000E+000,1.14375E-002,9.42070E-001,0.00000E+000,-6.35223E-003,-6.59564E-002,1.00000E+000,23
1209,1327,2.65628E+001,1.53724E-002,-1.10048E-001,8.43188E+000,-1.89333E-001,-8.98757E-002,8.43449E+000,1.26091E-002,3.95530E-001,0,1.26648E+002,-3.94444E+000,9.99051E-001,9.27957E+001,-3.21611E+001,9.97898E-001,1.51343E-001,-6.17815E-002,-1.03222E-003,1.51348E-001,-6.17865E-002,-2.77490E-001,1.52196E-001,1.16330E+000,-1.60537E-002,0.00000E+000,1.13645E-002,9.42067E-001,0.00000E+000,-6.06983E-003,-6.59458E-002,1.00000E+000,23
1209,1337,2.65951E+001,6.34740E-001,-8.40465E-002,8.42888E+000,-2.32228E-001,-1.32808E-001,8.43312E+000,1.28200E-002,4.42061E-001,0,1.26755E+002,-4.55151E+000,9.98976E-001,9.33826E+001,-3.25737E+001,9.97033E-001,1.52198E-001,-6.17853E-002,-1.03346E-003,1.52203E-001,-6.17903E-002,-2.76709E-001,1.53097E-001,1.16430E+000,-1.60011E-002,0.00000E+000,1.12908E-002,9.42063E-001,0.00000E+000,-5.78440E-003,-6.59307E-002,1.00000E+000,23
1209,1297,2.65310E+001,-1.81002E+000,3.80816E-002,8.44946E+000,-6.60485E-002,4.81594E-002,8.44986E+000,1.09241E-002,4.23715E-001,0,1.26353E+002,-2.21915E+000,9.98843E-001,9.23664E+001,-3.08326E+001,9.96951E-001,1.48809E-001,-6.17749E-002,-9.93847E-004,1.48814E-001,-6.17796E-002,-2.70398E-001,1.49527E-001,1.16036E+000,-1.61277E-002,0.00000E+000,1.15827E-002,9.42073E-001,0.00000E+000,-6.91438E-003,-6.59671E-002,1.00000E+000,23
649,1317,-1.57809E+001,-1.25129E+000,1.89301E-001,2.62108E+000,-5.03861E-001,1.56361E-001,2.67365E+000,9.33665E-003,6.11263E-001,0,4.05846E+001,-8.55734E+000,9.99043E-001,-1.58300E+000,-4.78499E+001,9.98863E-001,1.36466E-001,-5.56185E-002,1.15748E-004,1.36466E-001,-5.56186E-002,3.45257E-002,1.37241E-001,1.14619E+000,8.30221E-003,0.00000E+000,-6.61927E-003,9.47882E-001,0.00000E+000,4.53922E-005,-6.51454E-002,1.00000E+000,23
639,1347,-1.64706E+001,5.45219E-001,3.07689E-002,2.54828E+000,-6.08502E-001,4.66746E-002,2.62034E+000,1.34985E-002,6.12549E-001,0,3.97927E+001,-9.98616E+000,9.98415E-001,-2.13714E+000,-5.00025E+001,9.97729E-001,1.28560E-001,-5.50064E-002,-7.22998E-004,1.28563E-001,-5.50093E-002,-2.25661E-001,1.29008E-001,1.13715E+000,1.07814E-002,0.00000E+000,-1.01682E-002,9.48381E-001,0.00000E+000,-2.67958E-003,-6.43552E-002,1.00000E+000,23
639,1357,-1.64468E+001,1.15839E+000,4.42098E-002,2.55408E+000,-6.39493E-001,1.70581E-002,2.63298E+000,8.72147E-003,5.99194E-001,0,3.99622E+001,-1.04162E+001,9.98985E-001,-1.58739E+000,-5.06190E+001,9.98841E-001,1.26232E-001,-5.50168E-002,-1.03871E-003,1.26238E-001,-5.50228E-002,-3.28339E-001,1.26583E-001,1.13451E+000,1.07082E-002,0.00000E+000,-1.06761E-002,9.48367E-001,0.00000E+000,-3.54278E-003,-6.43792E-002,1.00000E+000,23
639,1317,-1.65080E+001,-1.25742E+000,2.12590E-001,2.53184E+000,-5.08624E-001,1.66451E-001,2.58778E+000,1.23983E-002,6.52694E-001,0,3.91935E+001,-8.63506E+000,9.99000E-001,-2.62878E+000,-4.80730E+001,9.98201E-001,1.35448E-001,-5.50044E-002,1.57265E-004,1.35448E-001,-5.50045E-002,4.73116E-002,1.36242E-001,1.14500E+000,1.08670E-002,0.00000E+000,-8.65764E-003,9.48398E-001,0.00000E+000,-1.12254E-004,-6.43273E-002,1.00000E+000,23
639,1327,-1.65006E+001,-6.65382E-001,1.26121E-001,2.53699E+000,-5.44864E-001,1.27853E-001,2.59799E+000,9.41317E-003,6.05758E-001,0,3.93877E+001,-9.14797E+000,9.99167E-001,-2.61766E+000,-4.88137E+001,9.98538E-001,1.33173E-001,-5.50010E-002,-1.25929E-004,1.33173E-001,-5.50010E-002,-3.83433E-002,1.33843E-001,1.14240E+000,1.08577E-002,0.00000E+000,-9.15802E-003,9.48396E-001,0.00000E+000,-9.62665E-004,-6.43303E-002,1.00000E+000,23
639,1337,-1.64901E+001,-5.96445E-002,6.09797E-002,2.54093E+000,-5.74909E-001,8.57789E-002,2.60657E+000,1.13732E-002,6.45925E-001,0,3.95687E+001,-9.53852E+000,9.98815E-001,-2.49491E+000,-4.93455E+001,9.98264E-001,1.30870E-001,-5.50013E-002,-4.19453E-004,1.30871E-001,-5.50022E-002,-1.29298E-001,1.31425E-001,1.13977E+000,1.08307E-002,0.00000E+000,-9.66296E-003,9.48391E-001,0.00000E+000,-1.82083E-003,-6.43391E-002,1.00000E+000,23
1219,1317,2.73166E+001,-5.92254E-001,-8.29887E-002,8.54129E+000,-1.54075E-001,-4.89117E-002,8.54282E+000,1.56138E-002,5.01990E-001,0,1.28026E+002,-3.46413E+000,9.98980E-001,9.45683E+001,-3.15136E+001,9.96806E-001,1.50086E-001,-6.17515E-002,-5.30504E-004,1.50087E-001,-6.17529E-002,-1.43484E-001,1.50870E-001,1.16186E+000,-1.48262E-002,0.00000E+000,1.13386E-002,9.42053E-001,0.00000E+000,-6.08981E-003,-6.52749E-002,1.00000E+000,23
1219,1327,2.73389E+001,2.78744E-002,-1.05188E-001,8.54085E+000,-1.85103E-001,-9.16172E-002,8.54335E+000,8.26007E-003,4.19440E-001,0,1.28180E+002,-3.89049E+000,9.99496E-001,9.49322E+001,-3.18692E+001,9.98559E-001,1.50886E-001,-6.17534E-002,-5.31948E-004,1.50887E-001,-6.17548E-002,-1.43333E-001,1.51713E-001,1.16278E+000,-1.47940E-002,0.00000E+000,1.12699E-002,9.42051E-001,0.00000E+000,-5.59663E-003,-6.52578E-002,1.00000E+000,23
1219,1337,2.73740E+001,6.51061E-001,-7.94363E-002,8.53970E+000,-2.24750E-001,-1.37344E-001,8.54376E+000,1.15099E-002,4.70477E-001,0,1.28325E+002,-4.44557E+000,9.99133E-001,9.55594E+001,-3.22179E+001,9.97758E-001,1.51695E-001,-6.17562E-002,-5.25560E-004,1.51697E-001,-6.17575E-002,-1.41072E-001,1.52567E-001,1.16372E+000,-1.47429E-002,0.00000E+000,1.12003E-002,9.42047E-001,0.00000E+000,-5.09660E-003,-6.52306E-002,1.00000E+000,23
1219,1297,2.73072E+001,-1.79759E+000,3.12577E-002,8.55927E+000,-6.06962E-002,3.62034E-002,8.55956E+000,1.19640E-002,3.92199E-001,0,1.27938E+002,-2.10133E+000,9.98889E-001,9.44902E+001,-3.05486E+001,9.96837E-001,1.48484E-001,-6.17489E-002,-5.16793E-004,1.48485E-001,-6.17501E-002,-1.40843E-001,1.49184E-001,1.16000E+000,-1.48651E-002,0.00000E+000,1.14759E-002,9.42056E-001,0.00000E+000,-7.07619E-003,-6.52955E-002,1.00000E+000,23
1219,1307,2.73102E+001,-1.19621E+000,-2.92980E-002,8.55055E+000,-1.07454E-001,-2.29877E-003,8.55123E+000,1.49522E-002,4.33849E-001,0,1.27971E+002,-2.78798E+000,9.98985E-001,9.44982E+001,-3.10502E+001,9.96375E-001,1.49284E-001,-6.17501E-002,-5.24797E-004,1.49286E-001,-6.17514E-002,-1.42481E-001,1.50026E-001,1.16093E+000,-1.48484E-002,0.00000E+000,1.14073E-002,9.42055E-001,0.00000E+000,-6.58363E-003,-6.52867E-002,1.00000E+000,23
629,1347,-1.71996E+001,5.40206E-001,2.60881E-002,2.46015E+000,-6.07147E-001,4.64233E-002,2.53439E+000,1.21906E-002,6.01622E-001,0,3.84434E+001,-9.94700E+000,9.98155E-001,-3.28386E+000,-5.01811E+001,9.97558E-001,1.27303E-001,-5.53158E-002,-7.18368E-004,1.27306E-001,-5.53186E-002,-2.25380E-001,1.27669E-001,1.13569E+000,1.34210E-002,0.00000E+000,-1.23709E-002,9.48016E-001,0.00000E+000,-2.56916E-003,-6.36139E-002,1.00000E+000,23
629,1357,-1.71717E+001,1.15314E+000,3.94672E-002,2.46985E+000,-6.38469E-001,1.49135E-002,2.55108E+000,1.02061E-002,5.92566E-001,0,3.86784E+001,-1.03798E+001,9.98397E-001,-2.67091E+000,-5.08002E+001,9.98088E-001,1.25068E-001,-5.53197E-002,-8.62791E-004,1.25073E-001,-5.53238E-002,-2.74036E-001,1.25350E-001,1.13316E+000,1.33505E-002,0.00000E+000,-1.25623E-002,9.48011E-001,0.00000E+000,-3.38896E-003,-6.36368E-002,1.00000E+000,23
629,1327,-1.72302E+001,-6.64324E-001,1.22564E-001,2.44766E+000,-5.38031E-001,1.26608E-001,2.50929E+000,1.00263E-002,5.85139E-001,0,3.80222E+001,-9.01863E+000,9.98623E-001,-3.77018E+000,-4.89028E+001,9.98116E-001,1.31730E-001,-5.53149E-002,-4.61821E-004,1.31732E-001,-5.53160E-002,-1.41464E-001,1.32294E-001,1.14072E+000,1.34916E-002,0.00000E+000,-1.19901E-002,9.48022E-001,0.00000E+000,-9.38518E-004,-6.35911E-002,1.00000E+000,23
629,1337,-1.72153E+001,-6.41783E-002,5.87011E-002,2.45594E+000,-5.73365E-001,8.53475E-002,2.52343E+000,1.15591E-002,6.26995E-001,0,3.82693E+001,-9.49745E+000,9.98446E-001,-3.57886E+000,-4.95236E+001,9.98072E-001,1.29521E-001,-5.53144E-002,-5.85860E-004,1.29522E-001,-5.53162E-002,-1.81605E-001,1.29981E-001,1.13821E+000,1.34658E-002,0.00000E+000,-1.21804E-002,9.48020E-001,0.00000E+000,-1.75349E-003,-6.35994E-002,1.00000E+000,23
1229,1317,2.80965E+001,-5.71099E-001,-8.96783E-002,8.65464E+000,-1.39301E-001,-5.84944E-002,8.65596E+000,1.52431E-002,4.82753E-001,0,1.29649E+002,-3.22821E+000,9.98881E-001,9.67533E+001,-3.10847E+001,9.98125E-001,1.49827E-001,-6.14275E-002,3.39905E-005,1.49828E-001,-6.14275E-002,9.21877E-003,1.50635E-001,1.16157E+000,-1.35442E-002,0.00000E+000,1.13389E-002,9.42313E-001,0.00000E+000,-5.48409E-003,-6.45451E-002,1.00000E+000,23
1229,1327,2.81131E+001,3.76001E-002,-1.09590E-001,8.64792E+000,-1.85047E-001,-1.00232E-001,8.65048E+000,1.05478E-002,4.83023E-001,0,1.29713E+002,-3.87843E+000,9.99108E-001,9.70287E+001,-3.15807E+001,9.97992E-001,1.50555E-001,-6.14275E-002,5.14396E-005,1.50555E-001,-6.14275E-002,1.39034E-002,1.51402E-001,1.16241E+000,-1.35143E-002,0.00000E+000,1.13005E-002,9.42312E-001,0.00000E+000,-4.83552E-003,-6.45221E-002,1.00000E+000,23
1229,1337,2.81488E+001,6.64243E-001,-9.02332E-002,8.65023E+000,-2.16227E-001,-1.41217E-001,8.65409E+000,1.12479E-002,4.31038E-001,0,1.29890E+002,-4.32017E+000,9.98732E-001,9.76562E+001,-3.19112E+001,9.97461E-001,1.51283E-001,-6.14274E-002,7.43458E-005,1.51283E-001,-6.14274E-002,2.00258E-002,1.52171E-001,1.16326E+000,-1.34715E-002,0.00000E+000,1.12619E-002,9.42310E-001,0.00000E+000,-4.18563E-003,-6.44891E-002,1.00000E+000,23
629,1317,-1.72425E+001,-1.25425E+000,2.15995E-001,2.43737E+000,-4.99490E-001,1.71061E-001,2.49390E+000,1.10713E-002,6.33162E-001,0,3.77321E+001,-8.49150E+000,9.98918E-001,-3.83560E+000,-4.81427E+001,9.98061E-001,1.33917E-001,-5.53172E-002,-3.46419E-004,1.33918E-001,-5.53178E-002,-1.04887E-001,1.34591E-001,1.14322E+000,1.34996E-002,0.00000E+000,-1.18013E-002,9.48022E-001,0.00000E+000,-1.30010E-004,-6.35885E-002,1.00000E+000,23
1229,1297,2.80841E+001,-1.78202E+000,3.06106E-002,8.66926E+000,-5.25228E-002,3.05544E-002,8.66947E+000,1.31240E-002,4.42614E-001,0,1.29495E+002,-1.98946E+000,9.98397E-001,9.66365E+001,-3.01884E+001,9.95569E-001,1.48377E-001,-6.14276E-002,9.82529E-006,1.48377E-001,-6.14276E-002,2.68320E-003,1.49107E-001,1.15989E+000,-1.35789E-002,0.00000E+000,1.14155E-002,9.42315E-001,0.00000E+000,-6.77409E-003,-6.45718E-002,1.00000E+000,23
1229,1307,2.80950E+001,-1.17493E+000,-3.28831E-002,8.66974E+000,-9.24970E-002,-5.58737E-003,8.67023E+000,1.85065E-002,4.51017E-001,0,1.29655E+002,-2.57132E+000,9.98171E-001,9.67642E+001,-3.06090E+001,9.96532E-001,1.49101E-001,-6.14275E-002,2.02220E-005,1.49101E-001,-6.14275E-002,5.50346E-003,1.49870E-001,1.16073E+000,-1.35655E-002,0.00000E+000,1.13773E-002,9.42314E-001,0.00000E+000,-6.13025E-003,-6.45615E-002,1.00000E+000,23
619,1327,-1.79617E+001,-6.64239E-001,1.22708E-001,2.35584E+000,-5.32412E-001,1.27743E-001,2.41863E+000,8.15077E-003,5.83793E-001,0,3.66098E+001,-8.92244E+000,9.98700E-001,-4.93598E+000,-4.90055E+001,9.98571E-001,1.30627E-001,-5.48525E-002,-6.71961E-004,1.30629E-001,-5.48549E-002,-2.07569E-001,1.31187E-001,1.13943E+000,1.62519E-002,0.00000E+000,-1.46988E-002,9.48387E-001,0.00000E+000,-9.13732E-004,-6.30020E-002,1.00000E+000,23
619,1337,-1.79434E+001,-6.27886E-002,6.49568E-002,2.36678E+000,-5.66836E-001,8.79881E-002,2.43530E+000,9.65773E-003,6.31468E-001,0,3.68926E+001,-9.39437E+000,9.97801E-001,-4.67556E+000,-4.96180E+001,9.97756E-001,1.28336E-001,-5.48522E-002,-7.08431E-004,1.28339E-001,-5.48550E-002,-2.21572E-001,1.28788E-001,1.13682E+000,1.62225E-002,0.00000E+000,-1.47312E-002,9.48387E-001,0.00000E+000,-1.64175E-003,-6.30102E-002,1.00000E+000,23
619,1347,-1.79238E+001,5.43822E-001,2.84020E-002,2.37615E+000,-5.97193E-001,5.23383E-002,2.45061E+000,1.14000E-002,6.19068E-001,0,3.71373E+001,-9.80385E+000,9.97841E-001,-4.33255E+000,-5.02278E+001,9.97548E-001,1.26040E-001,-5.48523E-002,-7.49884E-004,1.26043E-001,-5.48554E-002,-2.37513E-001,1.26395E-001,1.13422E+000,1.61817E-002,0.00000E+000,-1.47636E-002,9.48386E-001,0.00000E+000,-2.36950E-003,-6.30216E-002,1.00000E+000,23
619,1357,-1.78965E+001,1.15624E+000,3.34301E-002,2.38643E+000,-6.27880E-001,1.81829E-002,2.46771E+000,1.02484E-002,6.04694E-001,0,3.73886E+001,-1.02194E+001,9.98673E-001,-3.75056E+000,-5.08411E+001,9.98496E-001,1.23726E-001,-5.48532E-002,-8.03428E-004,1.23730E-001,-5.48568E-002,-2.57767E-001,1.23994E-001,1.13160E+000,1.61137E-002,0.00000E+000,-1.47962E-002,9.48385E-001,0.00000E+000,-3.10072E-003,-6.30406E-002,1.00000E+000,23
619,1317,-1.79709E+001,-1.25086E+000,2.17330E-001,2.34873E+000,-4.89125E-001,1.73891E-001,2.40542E+000,1.34477E-002,6.15708E-001,0,3.63643E+001,-8.34189E+000,9.98462E-001,-4.94911E+000,-4.82029E+001,9.97737E-001,1.32899E-001,-5.48534E-002,-6.44653E-004,1.32901E-001,-5.48557E-002,-1.96723E-001,1.33574E-001,1.14202E+000,1.62605E-002,0.00000E+000,-1.46666E-002,9.48387E-001,0.00000E+000,-1.89836E-004,-6.29996E-002,1.00000E+000,23
1239,1307,2.88613E+001,-1.16593E+000,-5.22988E-002,8.77073E+000,-8.82106E-002,-2.17680E-002,8.77120E+000,1.90530E-002,4.39523E-001,0,1.31124E+002,-2.49239E+000,9.97976E-001,9.87233E+001,-3.03411E+001,9.96648E-001,1.48630E-001,-6.08888E-002,2.66283E-004,1.48631E-001,-6.08892E-002,7.28185E-002,1.49437E-001,1.16019E+000,-1.25963E-002,0.00000E+000,1.10674E-002,9.42793E-001,0.00000E+000,-6.12356E-003,-6.40110E-002,1.00000E+000,23
1239,1317,2.88737E+001,-5.50543E-001,-1.00866E-001,8.76689E+000,-1.22644E-001,-6.51455E-002,8.76799E+000,1.76867E-002,4.42093E-001,0,1.31242E+002,-2.98132E+000,9.98237E-001,9.88960E+001,-3.06665E+001,9.97714E-001,1.49423E-001,-6.08830E-002,3.60522E-004,1.49423E-001,-6.08836E-002,9.82203E-002,1.50274E-001,1.16111E+000,-1.25734E-002,0.00000E+000,1.11527E-002,9.42795E-001,0.00000E+000,-5.01326E-003,-6.39832E-002,1.00000E+000,23
1239,1327,2.88942E+001,5.84605E-002,-9.73882E-002,8.75920E+000,-1.73022E-001,-1.00820E-001,8.76148E+000,1.41670E-002,5.11993E-001,0,1.31264E+002,-3.71656E+000,9.98481E-001,9.92601E+001,-3.11724E+001,9.97691E-001,1.50222E-001,-6.08743E-002,4.62661E-004,1.50223E-001,-6.08753E-002,1.25575E-001,1.51119E-001,1.16203E+000,-1.25340E-002,0.00000E+000,1.12388E-002,9.42798E-001,0.00000E+000,-3.89086E-003,-6.39353E-002,1.00000E+000,23
1239,1337,2.89188E+001,6.83093E-001,-8.56886E-002,8.75389E+000,-2.03470E-001,-1.35567E-001,8.75731E+000,1.23005E-002,4.12469E-001,0,1.31306E+002,-4.15175E+000,9.98084E-001,9.97019E+001,-3.15411E+001,9.96123E-001,1.51013E-001,-6.08651E-002,5.65125E-004,1.51014E-001,-6.08666E-002,1.52819E-001,1.51958E-001,1.16295E+000,-1.24922E-002,0.00000E+000,1.13244E-002,9.42802E-001,0.00000E+000,-2.77649E-003,-6.38844E-002,1.00000E+000,23
1239,1297,2.88578E+001,-1.76970E+000,2.71127E-002,8.77668E+000,-4.52801E-002,2.62621E-002,8.77684E+000,1.20494E-002,4.58326E-001,0,1.31007E+002,-1.90391E+000,9.98494E-001,9.87326E+001,-2.98904E+001,9.96595E-001,1.47838E-001,-6.08929E-002,1.76336E-004,1.47838E-001,-6.08931E-002,4.84035E-002,1.48602E-001,1.15928E+000,-1.26096E-002,0.00000E+000,1.09824E-002,9.42791E-001,0.00000E+000,-7.23101E-003,-6.40270E-002,1.00000E+000,23
609,1347,-1.86476E+001,5.43851E-001,3.16020E-002,2.29133E+000,-5.92060E-001,5.37262E-002,2.36719E+000,1.44604E-002,6.41579E-001,0,3.58301E+001,-9.72167E+000,9.97657E-001,-5.36663E+000,-5.03291E+001,9.97291E-001,1.24834E-001,-5.37663E-002,-9.91289E-004,1.24839E-001,-5.37718E-002,-3.17998E-001,1.25238E-001,1.13281E+000,1.87176E-002,0.00000E+000,-1.73952E-002,9.49313E-001,0.00000E+000,-2.03766E-003,-6.20220E-002,1.00000E+000,23
609,1357,-1.86223E+001,1.16155E+000,3.10853E-002,2.30069E+000,-6.16348E-001,1.93803E-002,2.38189E+000,1.14955E-002,6.30674E-001,0,3.60658E+001,-1.00397E+001,9.98534E-001,-4.82834E+000,-5.08496E+001,9.98196E-001,1.22489E-001,-5.37664E-002,-1.00865E-003,1.22495E-001,-5.37722E-002,-3.27872E-001,1.22798E-001,1.13016E+000,1.86532E-002,0.00000E+000,-1.73626E-002,9.49314E-001,0.00000E+000,-2.85862E-003,-6.20419E-002,1.00000E+000,23
609,1317,-1.87044E+001,-1.25292E+000,2.14083E-001,2.25389E+000,-4.85616E-001,1.68837E-001,2.31179E+000,1.37750E-002,6.31842E-001,0,3.49207E+001,-8.28408E+000,9.98683E-001,-6.15196E+000,-4.83212E+001,9.97609E-001,1.31795E-001,-5.37667E-002,-9.89184E-004,1.31801E-001,-5.37719E-002,-3.05418E-001,1.32543E-001,1.14072E+000,1.87964E-002,0.00000E+000,-1.74926E-002,9.49312E-001,0.00000E+000,4.13316E-004,-6.19975E-002,1.00000E+000,23
609,1327,-1.86898E+001,-6.67287E-001,1.21230E-001,2.26691E+000,-5.30945E-001,1.27352E-001,2.33174E+000,1.00154E-002,6.41215E-001,0,3.52457E+001,-8.90229E+000,9.98726E-001,-6.05235E+000,-4.91234E+001,9.98102E-001,1.29485E-001,-5.37664E-002,-9.81401E-004,1.29490E-001,-5.37717E-002,-3.06835E-001,1.30109E-001,1.13809E+000,1.87898E-002,0.00000E+000,-1.74602E-002,9.49313E-001,0.00000E+000,-4.02221E-004,-6.19996E-002,1.00000E+000,23
609,1337,-1.86691E+001,-6.14334E-002,6.56115E-002,2.28035E+000,-5.59266E-001,8.92582E-002,2.34963E+000,1.20541E-002,6.19177E-001,0,3.55609E+001,-9.27111E+000,9.97798E-001,-5.74644E+000,-4.97092E+001,9.97389E-001,1.27167E-001,-5.37663E-002,-9.83530E-004,1.27172E-001,-5.37716E-002,-3.11440E-001,1.27676E-001,1.13546E+000,1.87602E-002,0.00000E+000,-1.74278E-002,9.49313E-001,0.00000E+000,-1.21841E-003,-6.20088E-002,1.00000E+000,23
1249,1297,2.96350E+001,-1.75185E+000,3.20138E-002,8.88558E+000,-3.45133E-002,2.46949E-002,8.88568E+000,1.39674E-002,4.78593E-001,0,1.32524E+002,-1.75480E+000,9.98635E-001,1.00899E+002,-2.95221E+001,9.97064E-001,1.46965E-001,-6.02847E-002,3.65651E-004,1.46966E-001,-6.02853E-002,1.01087E-001,1.47754E-001,1.15829E+000,-1.11925E-002,0.00000E+000,1.02379E-002,9.43344E-001,0.00000E+000,-7.78943E-003,-6.35322E-002,1.00000E+000,23
1249,1307,2.96328E+001,-1.15222E+000,-5.37504E-002,8.87644E+000,-7.99164E-002,-2.02429E-002,8.87683E+000,1.73223E-002,4.48678E-001,0,1.32586E+002,-2.39103E+000,9.98523E-001,1.00793E+002,-3.00282E+001,9.96842E-001,1.47934E-001,-6.02741E-002,6.28828E-004,1.47936E-001,-6.02760E-002,1.73042E-001,1.48779E-001,1.15940E+000,-1.11806E-002,0.00000E+000,1.06227E-002,9.43348E-001,0.00000E+000,-6.18600E-003,-6.35150E-002,1.00000E+000,23
1249,1317,2.96406E+001,-5.43518E-001,-1.03660E-001,8.86878E+000,-1.20351E-001,-6.11263E-002,8.86981E+000,1.65029E-002,4.22692E-001,0,1.32641E+002,-2.96877E+000,9.97324E-001,1.00889E+002,-3.04678E+001,9.96277E-001,1.48903E-001,-6.02567E-002,8.98965E-004,1.48907E-001,-6.02606E-002,2.46250E-001,1.49806E-001,1.16052E+000,-1.11541E-002,0.00000E+000,1.10090E-002,9.43357E-001,0.00000E+000,-4.57700E-003,-6.34769E-002,1.00000E+000,23
1249,1327,2.96591E+001,7.87504E-002,-1.15828E-001,8.86176E+000,-1.54330E-001,-1.02228E-001,8.86369E+000,1.53456E-002,4.52790E-001,0,1.32692E+002,-3.45151E+000,9.97564E-001,1.01203E+002,-3.07516E+001,9.96922E-001,1.49875E-001,-6.02313E-002,1.17828E-003,1.49882E-001,-6.02379E-002,3.21303E-001,1.50840E-001,1.16164E+000,-1.11104E-002,0.00000E+000,1.13981E-002,9.43372E-001,0.00000E+000,-2.95585E-003,-6.34137E-002,1.00000E+000,23
1249,1337,2.96863E+001,7.03230E-001,-9.64989E-002,8.85608E+000,-1.88913E-001,-1.39518E-001,8.85919E+000,1.18388E-002,4.32265E-001,0,1.32738E+002,-3.94892E+000,9.98812E-001,1.01692E+002,-3.10981E+001,9.98180E-001,1.50845E-001,-6.02001E-002,1.46317E-003,1.50855E-001,-6.02102E-002,3.97205E-001,1.51875E-001,1.16277E+000,-1.10540E-002,0.00000E+000,1.17880E-002,9.43392E-001,0.00000E+000,-1.33173E-003,-6.33325E-002,1.00000E+000,23
1259,1327,3.04304E+001,9.17026E-002,-1.20845E-001,8.96657E+000,-1.46004E-001,-1.03769E-001,8.96836E+000,1.22433E-002,4.26820E-001,0,1.34152E+002,-3.34544E+000,9.98921E-001,1.03265E+002,-3.04572E+001,9.98316E-001,1.49676E-001,-5.99306E-002,1.82596E-003,1.49692E-001,-5.99465E-002,4.99076E-001,1.50677E-001,1.16142E+000,-1.01633E-002,0.00000E+000,1.17799E-002,9.43606E-001,0.00000E+000,-1.52866E-003,-6.26327E-002,1.00000E+000,23
1259,1337,3.04580E+001,7.13301E-001,-1.05528E-001,8.96063E+000,-1.84250E-001,-1.46710E-001,8.96372E+000,1.13372E-002,4.07057E-001,0,1.34220E+002,-3.88264E+000,9.99312E-001,1.03753E+002,-3.08376E+001,9.98970E-001,1.50678E-001,-5.98849E-002,2.22618E-003,1.50702E-001,-5.99084E-002,6.05671E-001,1.51753E-001,1.16258E+000,-1.01037E-002,0.00000E+000,1.23590E-002,9.43636E-001,0.00000E+000,5.90923E-004,-6.25245E-002,1.00000E+000,23
599,1347,-1.93646E+001,5.54608E-001,3.87172E-002,2.21235E+000,-5.76173E-001,5.60458E-002,2.28683E+000,1.40614E-002,6.44701E-001,0,3.46070E+001,-9.47130E+000,9.98609E-001,-6.27891E+000,-5.02832E+001,9.98486E-001,1.24221E-001,-5.38637E-002,-7.40765E-004,1.24224E-001,-5.38668E-002,-2.38323E-001,1.24588E-001,1.13208E+000,2.07860E-002,0.00000E+000,-1.86762E-002,9.49129E-001,0.00000E+000,-1.70106E-003,-6.08617E-002,1.00000E+000,23
599,1357,-1.93359E+001,1.16251E+000,3.65730E-002,2.22570E+000,-6.09939E-001,2.28674E-002,2.30787E+000,9.55798E-003,6.35642E-001,0,3.49042E+001,-9.93737E+000,9.98807E-001,-5.69505E+000,-5.09511E+001,9.98630E-001,1.22025E-001,-5.38616E-002,-5.10825E-004,1.22026E-001,-5.38631E-002,-1.66402E-001,1.22305E-001,1.12960E+000,2.07281E-002,0.00000E+000,-1.81797E-002,9.49140E-001,0.00000E+000,-2.53763E-003,-6.08813E-002,1.00000E+000,23
1259,1287,3.04088E+001,-2.34050E+000,1.16142E-001,8.99620E+000,1.70271E-002,5.59828E-002,8.99639E+000,1.49441E-002,4.26197E-001,0,1.33915E+002,-1.00520E+000,9.98004E-001,1.03078E+002,-2.87934E+001,9.94128E-001,1.45647E-001,-6.00174E-002,2.99297E-004,1.45647E-001,-6.00179E-002,8.33807E-002,1.46396E-001,1.15679E+000,-1.02543E-002,0.00000E+000,9.48562E-003,9.43561E-001,0.00000E+000,-9.92578E-003,-6.27979E-002,1.00000E+000,23
1259,1297,3.04029E+001,-1.74201E+000,9.22108E-003,8.98886E+000,-2.83583E-002,1.10719E-002,8.98891E+000,1.31648E-002,4.39760E-001,0,1.34012E+002,-1.63956E+000,9.98104E-001,1.02888E+002,-2.92496E+001,9.95590E-001,1.46659E-001,-6.00090E-002,6.71240E-004,1.46661E-001,-6.00112E-002,1.86089E-001,1.47465E-001,1.15794E+000,-1.02518E-002,0.00000E+000,1.00571E-002,9.43562E-001,0.00000E+000,-7.83398E-003,-6.27933E-002,1.00000E+000,23
1259,1307,3.04039E+001,-1.13719E+000,-6.80320E-002,8.98161E+000,-7.02558E-002,-2.99646E-002,8.98193E+000,1.28901E-002,4.47977E-001,0,1.34083E+002,-2.23759E+000,9.98402E-001,1.02843E+002,-2.96720E+001,9.97026E-001,1.47667E-001,-5.99925E-002,1.04903E-003,1.47673E-001,-5.99978E-002,2.89429E-001,1.48535E-001,1.15910E+000,-1.02370E-002,0.00000E+000,1.06298E-002,9.43570E-001,0.00000E+000,-5.73812E-003,-6.27665E-002,1.00000E+000,23
599,1327,-1.94145E+001,-6.51069E-001,1.31341E-001,2.17968E+000,-5.10648E-001,1.30293E-001,2.24249E+000,1.07013E-002,6.28896E-001,0,3.38920E+001,-8.57073E+000,9.98802E-001,-7.07182E+000,-4.90046E+001,9.98125E-001,1.28577E-001,-5.38581E-002,-1.22035E-003,1.28585E-001,-5.38662E-002,-3.83244E-001,1.29147E-001,1.13702E+000,2.08511E-002,0.00000E+000,-1.96650E-002,9.49116E-001,0.00000E+000,-3.51748E-005,-6.08398E-002,1.00000E+000,23
599,1337,-1.93932E+001,-5.34948E-002,6.39700E-002,2.19524E+000,-5.45704E-001,8.90753E-002,2.26380E+000,1.00264E-002,6.24285E-001,0,3.42503E+001,-9.04873E+000,9.98595E-001,-6.79339E+000,-4.96855E+001,9.98462E-001,1.26407E-001,-5.38629E-002,-9.76559E-004,1.26412E-001,-5.38682E-002,-3.10371E-001,1.26871E-001,1.13456E+000,2.08293E-002,0.00000E+000,-1.91719E-002,9.49120E-001,0.00000E+000,-8.66052E-004,-6.08471E-002,1.00000E+000,23
1259,1317,3.04138E+001,-5.25599E-001,-1.06487E-001,8.97570E+000,-1.08785E-001,-6.05344E-002,8.97656E+000,1.29514E-002,4.49705E-001,0,1.34121E+002,-2.81367E+000,9.98771E-001,1.02987E+002,-3.00759E+001,9.97729E-001,1.48673E-001,-5.99672E-002,1.43332E-003,1.48683E-001,-5.99771E-002,3.93586E-001,1.49605E-001,1.16026E+000,-1.02089E-002,0.00000E+000,1.12039E-002,9.43584E-001,0.00000E+000,-3.63686E-003,-6.27154E-002,1.00000E+000,23
599,1317,-1.94358E+001,-1.24704E+000,2.21540E-001,2.15974E+000,-4.76634E-001,1.68096E-001,2.21809E+000,1.33162E-002,6.15925E-001,0,3.34725E+001,-8.10954E+000,9.98719E-001,-7.28320E+000,-4.83562E+001,9.98348E-001,1.30739E-001,-5.38500E-002,-1.47095E-003,1.30750E-001,-5.38617E-002,-4.56541E-001,1.31424E-001,1.13948E+000,2.08565E-002,0.00000E+000,-2.01578E-002,9.49115E-001,0.00000E+000,7.95060E-004,-6.08380E-002,1.00000E+000,23
589,1347,-2.00900E+001,5.65607E-001,4.17473E-002,2.12543E+000,-5.59554E-001,5.88043E-002,2.19863E+000,1.02912E-002,6.36280E-001,0,3.32573E+001,-9.20090E+000,9.98763E-001,-7.32451E+000,-5.02318E+001,9.98598E-001,1.23676E-001,-5.36423E-002,-1.23717E-004,1.23676E-001,-5.36424E-002,-3.99760E-002,1.24037E-001,1.13141E+000,2.35978E-002,0.00000E+000,-1.98757E-002,9.49256E-001,0.00000E+000,-1.55811E-003,-5.98467E-002,1.00000E+000,23
589,1357,-2.00566E+001,1.17299E+000,4.42036E-002,2.14302E+000,-5.94851E-001,2.69078E-002,2.22420E+000,8.09480E-003,6.37599E-001,0,3.36171E+001,-9.68822E+000,9.98854E-001,-6.65507E+000,-5.09140E+001,9.99065E-001,1.21463E-001,-5.36409E-002,1.08175E-004,1.21463E-001,-5.36409E-002,3.53959E-002,1.21739E-001,1.12891E+000,2.35381E-002,0.00000E+000,-1.93858E-002,9.49268E-001,0.00000E+000,-2.29761E-003,-5.98644E-002,1.00000E+000,23
589,1337,-2.01151E+001,-4.64299E-002,6.98966E-002,2.11067E+000,-5.33732E-001,8.89987E-002,2.17893E+000,7.56323E-003,6.14819E-001,0,3.29461E+001,-8.84989E+000,9.99286E-001,-7.78007E+000,-4.96989E+001,9.99142E-001,1.25875E-001,-5.36399E-002,-3.63540E-004,1.25876E-001,-5.36406E-002,-1.16031E-001,1.26332E-001,1.13390E+000,2.36372E-002,0.00000E+000,-2.03640E-002,9.49248E-001,0.00000E+000,-8.21091E-004,-5.98351E-002,1.00000E+000,23
589,1327,-2.01314E+001,-6.32342E-001,1.36712E-001,2.10023E+000,-4.87823E-001,1.30999E-001,2.16011E+000,1.40360E-002,6.86973E-001,0,3.26637E+001,-8.22614E+000,9.99266E-001,-7.98159E+000,-4.88013E+001,9.98377E-001,1.28055E-001,-5.36342E-002,-6.09129E-004,1.28057E-001,-5.36362E-002,-1.92086E-001,1.28618E-001,1.13637E+000,2.36597E-002,0.00000E+000,-2.08494E-002,9.49244E-001,0.00000E+000,-8.84853E-005,-5.98284E-002,1.00000E+000,23
1269,1327,3.12068E+001,1.06510E-001,-1.20443E-001,9.07563E+000,-1.37930E-001,-1.01430E-001,9.07724E+000,1.08796E-002,4.40377E-001,0,1.35655E+002,-3.24336E+000,9.99092E-001,1.05420E+002,-3.01259E+001,9.98383E-001,1.49562E-001,-5.93958E-002,2.38728E-003,1.49589E-001,-5.94231E-002,6.54473E-001,1.50638E-001,1.16129E+000,-9.16926E-003,0.00000E+000,1.19957E-002,9.43980E-001,0.00000E+000,-6.54066E-004,-6.03786E-002,1.00000E+000,23
1269,1337,3.12413E+001,7.23317E-001,-9.68139E-002,9.07548E+000,-1.81022E-001,-1.39372E-001,9.07835E+000,1.10298E-002,4.08950E-001,0,1.35789E+002,-3.87150E+000,9.98908E-001,1.06023E+002,-3.06027E+001,9.97704E-001,1.50641E-001,-5.93371E-002,2.88561E-003,1.50681E-001,-5.93767E-002,7.87185E-001,1.51804E-001,1.16255E+000,-9.10283E-003,0.00000E+000,1.27547E-002,9.44020E-001,0.00000E+000,1.57364E-003,-6.02612E-002,1.00000E+000,23
589,1317,-2.01559E+001,-1.23069E+000,2.33435E-001,2.07685E+000,-4.56177E-001,1.73596E-001,2.13343E+000,1.13992E-002,5.90414E-001,0,3.21790E+001,-7.77684E+000,9.98158E-001,-8.22094E+000,-4.82433E+001,9.97119E-001,1.30232E-001,-5.36250E-002,-8.62712E-004,1.30236E-001,-5.36290E-002,-2.68841E-001,1.30910E-001,1.13885E+000,2.36639E-002,0.00000E+000,-2.13352E-002,9.49243E-001,0.00000E+000,6.44806E-004,-5.98272E-002,1.00000E+000,23
1269,1317,3.11938E+001,-5.09442E-001,-1.06059E-001,9.08624E+000,-9.92675E-002,-6.64593E-002,9.08702E+000,1.10210E-002,4.33646E-001,0,1.35677E+002,-2.67270E+000,9.98951E-001,1.05199E+002,-2.97394E+001,9.98180E-001,1.48480E-001,-5.94386E-002,1.89941E-003,1.48497E-001,-5.94560E-002,5.23359E-001,1.49477E-001,1.16004E+000,-9.21458E-003,0.00000E+000,1.12398E-002,9.43953E-001,0.00000E+000,-2.87235E-003,-6.04588E-002,1.00000E+000,23
1269,1307,3.11827E+001,-1.12165E+000,-6.19297E-002,9.09110E+000,-6.15785E-002,-3.01919E-002,9.09136E+000,1.19297E-002,4.47225E-001,0,1.35600E+002,-2.12125E+000,9.98346E-001,1.05044E+002,-2.93514E+001,9.97421E-001,1.47397E-001,-5.94701E-002,1.41959E-003,1.47407E-001,-5.94798E-002,3.93159E-001,1.48319E-001,1.15879E+000,-9.24519E-003,0.00000E+000,1.04873E-002,9.43934E-001,0.00000E+000,-5.08055E-003,-6.05129E-002,1.00000E+000,23
1269,1297,3.11741E+001,-1.73091E+000,1.56783E-003,9.09333E+000,-2.28683E-002,6.39778E-003,9.09336E+000,1.29760E-002,4.38213E-001,0,1.35475E+002,-1.55628E+000,9.98212E-001,1.04952E+002,-2.89713E+001,9.96904E-001,1.46309E-001,-5.94939E-002,9.44248E-004,1.46313E-001,-5.94983E-002,2.62873E-001,1.47160E-001,1.15754E+000,-9.26601E-003,0.00000E+000,9.73578E-003,9.43922E-001,0.00000E+000,-7.28617E-003,-6.05497E-002,1.00000E+000,23
1269,1287,3.11828E+001,-2.33169E+000,1.14246E-001,9.10113E+000,1.89873E-002,4.87466E-002,9.10128E+000,1.76642E-002,4.39628E-001,0,1.35394E+002,-9.72468E-001,9.98538E-001,1.05191E+002,-2.85567E+001,9.95835E-001,1.45218E-001,-5.95008E-002,4.80281E-004,1.45219E-001,-5.95019E-002,1.34418E-001,1.46006E-001,1.15630E+000,-9.26448E-003,0.00000E+000,8.98733E-003,9.43923E-001,0.00000E+000,-9.48268E-003,-6.05470E-002,1.00000E+000,23
579,1347,-2.08090E+001,5.73298E-001,4.79847E-002,2.04369E+000,-5.47111E-001,6.05366E-002,2.11652E+000,8.37194E-003,6.52787E-001,0,3.19905E+001,-9.00328E+000,9.98828E-001,-8.26070E+000,-5.02251E+001,9.99033E-001,1.22629E-001,-5.32721E-002,5.23989E-004,1.22631E-001,-5.32737E-002,1.70675E-001,1.22982E-001,1.13016E+000,2.64193E-002,0.00000E+000,-2.10081E-002,9.49548E-001,0.00000E+000,-2.00795E-003,-5.92311E-002,1.00000E+000,23
579,1357,-2.07696E+001,1.18872E+000,5.36572E-002,2.06721E+000,-5.74697E-001,2.99891E-002,2.14582E+000,8.46855E-003,6.77270E-001,0,3.24372E+001,-9.38119E+000,9.99280E-001,-7.48571E+000,-5.07807E+001,9.99418E-001,1.20274E-001,-5.32714E-002,7.94861E-004,1.20277E-001,-5.32750E-002,2.62415E-001,1.20538E-001,1.12751E+000,2.63554E-002,0.00000E+000,-2.04412E-002,9.49562E-001,0.00000E+000,-2.89103E-003,-5.92523E-002,1.00000E+000,23
579,1337,-2.08396E+001,-3.58297E-002,7.99156E-002,2.02341E+000,-5.18618E-001,9.44817E-002,2.09095E+000,8.75641E-003,6.28343E-001,0,3.15827E+001,-8.61619E+000,9.98559E-001,-8.78754E+000,-4.96559E+001,9.98766E-001,1.24969E-001,-5.32681E-002,2.44507E-004,1.24969E-001,-5.32684E-002,7.85984E-002,1.25422E-001,1.13281E+000,2.64606E-002,0.00000E+000,-2.15728E-002,9.49539E-001,0.00000E+000,-1.12833E-003,-5.92174E-002,1.00000E+000,23
579,1327,-2.08643E+001,-6.24839E-001,1.36657E-001,2.00507E+000,-4.76017E-001,1.30116E-001,2.06490E+000,9.76552E-003,6.81984E-001,0,3.11956E+001,-8.01141E+000,9.99178E-001,-9.14771E+000,-4.87927E+001,9.98373E-001,1.27287E-001,-5.32608E-002,-3.96624E-005,1.27287E-001,-5.32609E-002,-1.25866E-002,1.27850E-001,1.13544E+000,2.64865E-002,0.00000E+000,-2.21339E-002,9.49534E-001,0.00000E+000,-2.54320E-004,-5.92088E-002,1.00000E+000,23
579,1317,-2.08822E+001,-1.21559E+000,2.36134E-001,1.98846E+000,-4.38300E-001,1.77086E-001,2.04388E+000,1.42833E-002,6.54472E-001,0,3.08047E+001,-7.48847E+000,9.98138E-001,-9.27653E+000,-4.80865E+001,9.96841E-001,1.29597E-001,-5.32493E-002,-3.32350E-004,1.29597E-001,-5.32499E-002,-1.04143E-001,1.30281E-001,1.13806E+000,2.64918E-002,0.00000E+000,-2.26946E-002,9.49533E-001,0.00000E+000,6.18992E-004,-5.92070E-002,1.00000E+000,23
1279,1317,3.19641E+001,-5.02032E-001,-1.11279E-001,9.18990E+000,-9.61367E-002,-6.55493E-002,9.19063E+000,9.70476E-003,3.99070E-001,0,1.37106E+002,-2.64302E+000,9.98752E-001,1.07254E+002,-2.95373E+001,9.97486E-001,1.48066E-001,-5.86221E-002,2.28457E-003,1.48091E-001,-5.86474E-002,6.33200E-001,1.49155E-001,1.15957E+000,-8.13274E-003,0.00000E+000,1.10624E-002,9.44596E-001,0.00000E+000,-2.18965E-003,-5.81085E-002,1.00000E+000,23
1279,1327,3.19900E+001,1.20273E-001,-1.16242E-001,9.19055E+000,-1.30930E-001,-9.65379E-002,9.19199E+000,1.57237E-002,4.51734E-001,0,1.37231E+002,-3.16570E+000,9.98280E-001,1.07687E+002,-2.98197E+001,9.97914E-001,1.49275E-001,-5.85693E-002,2.86347E-003,1.49314E-001,-5.86087E-002,7.89166E-001,1.50460E-001,1.16097E+000,-8.07861E-003,0.00000E+000,1.19810E-002,9.44631E-001,0.00000E+000,1.91360E-004,-5.80167E-002,1.00000E+000,23
1279,1337,3.20236E+001,7.37383E-001,-9.28927E-002,9.18933E+000,-1.75274E-001,-1.34271E-001,9.19199E+000,1.25787E-002,4.27045E-001,0,1.37350E+002,-3.79616E+000,9.98702E-001,1.08273E+002,-3.02866E+001,9.98203E-001,1.50480E-001,-5.85000E-002,3.45224E-003,1.50537E-001,-5.85570E-002,9.46152E-001,1.51769E-001,1.16238E+000,-8.00425E-003,0.00000E+000,1.29026E-002,9.44680E-001,0.00000E+000,2.58036E-003,-5.78906E-002,1.00000E+000,23
1279,1307,3.19464E+001,-1.11282E+000,-7.45106E-002,9.18951E+000,-5.70084E-002,-3.21299E-002,9.18974E+000,1.12928E-002,4.43099E-001,0,1.36963E+002,-2.06408E+000,9.98702E-001,1.06988E+002,-2.90984E+001,9.96676E-001,1.46859E-001,-5.86609E-002,1.71710E-003,1.46873E-001,-5.86752E-002,4.78657E-001,1.47859E-001,1.15817E+000,-8.16967E-003,0.00000E+000,1.01513E-002,9.44572E-001,0.00000E+000,-4.55113E-003,-5.81711E-002,1.00000E+000,23
1279,1297,3.19460E+001,-1.71562E+000,8.22239E-003,9.19655E+000,-1.23424E-002,1.08297E-002,9.19657E+000,2.02837E-002,3.64129E-001,0,1.36875E+002,-1.40398E+000,9.98176E-001,1.07048E+002,-2.86947E+001,9.97037E-001,1.45645E-001,-5.86827E-002,1.15844E-003,1.45652E-001,-5.86893E-002,3.24827E-001,1.46564E-001,1.15678E+000,-8.18570E-003,0.00000E+000,9.24056E-003,9.44561E-001,0.00000E+000,-6.91184E-003,-5.81983E-002,1.00000E+000,23
1279,1287,3.19493E+001,-2.33273E+000,1.00729E-001,9.20297E+000,1.49437E-002,4.75802E-002,9.20310E+000,1.87443E-002,3.45835E-001,0,1.36808E+002,-1.01270E+000,9.98449E-001,1.07177E+002,-2.85034E+001,9.96067E-001,1.44427E-001,-5.86966E-002,6.05361E-004,1.44429E-001,-5.86984E-002,1.70754E-001,1.45270E-001,1.15539E+000,-8.19244E-003,0.00000E+000,8.33274E-003,9.44557E-001,0.00000E+000,-9.26495E-003,-5.82097E-002,1.00000E+000,23
569,1347,-2.15272E+001,5.88903E-001,5.48087E-002,1.96272E+000,-5.26849E-001,6.45313E-002,2.03322E+000,9.12412E-003,6.80556E-001,0,3.07265E+001,-8.68865E+000,9.98634E-001,-9.17463E+000,-5.00929E+001,9.98588E-001,1.21969E-001,-5.27844E-002,1.04457E-003,1.21975E-001,-5.27907E-002,3.42461E-001,1.22342E-001,1.12935E+000,2.93406E-002,0.00000E+000,-2.24758E-002,9.49946E-001,0.00000E+000,-2.28766E-003,-5.86547E-002,1.00000E+000,23
569,1357,-2.14906E+001,1.19647E+000,5.13108E-002,1.98484E+000,-5.59937E-001,3.24757E-002,2.06257E+000,8.87300E-003,6.69447E-001,0,3.11569E+001,-9.14689E+000,9.98989E-001,-8.47052E+000,-5.07689E+001,9.98788E-001,1.19515E-001,-5.27866E-002,1.39971E-003,1.19526E-001,-5.27979E-002,4.65407E-001,1.19796E-001,1.12659E+000,2.92801E-002,0.00000E+000,-2.17433E-002,9.49962E-001,0.00000E+000,-3.46625E-003,-5.86805E-002,1.00000E+000,23
569,1327,-2.15845E+001,-6.20555E-001,1.36715E-001,1.92296E+000,-4.66367E-001,1.33550E-001,1.98321E+000,1.45050E-002,6.85576E-001,0,2.99194E+001,-7.85348E+000,9.99313E-001,-1.01152E+001,-4.88278E+001,9.98918E-001,1.26834E-001,-5.27676E-002,3.17232E-004,1.26835E-001,-5.27681E-002,1.01202E-001,1.27429E-001,1.13485E+000,2.94139E-002,0.00000E+000,-2.39346E-002,9.49927E-001,0.00000E+000,5.95972E-005,-5.86235E-002,1.00000E+000,23
569,1337,-2.15578E+001,-1.85903E-002,8.50733E-002,1.94169E+000,-4.97716E-001,9.30613E-002,2.00662E+000,8.51873E-003,6.54467E-001,0,3.03211E+001,-8.27466E+000,9.98817E-001,-9.70684E+000,-4.94937E+001,9.98765E-001,1.24410E-001,-5.27769E-002,6.81463E-004,1.24413E-001,-5.27795E-002,2.20356E-001,1.24888E-001,1.13210E+000,2.93805E-002,0.00000E+000,-2.32066E-002,9.49936E-001,0.00000E+000,-1.11172E-003,-5.86377E-002,1.00000E+000,23
1289,1327,3.27565E+001,1.26393E-001,-1.28151E-001,9.29122E+000,-1.29302E-001,-9.69312E-002,9.29262E+000,1.42155E-002,4.13344E-001,0,1.38621E+002,-3.14319E+000,9.97975E-001,1.09677E+002,-2.96237E+001,9.96896E-001,1.48948E-001,-5.74767E-002,3.30576E-003,1.49001E-001,-5.75296E-002,9.17242E-001,1.50284E-001,1.16060E+000,-6.72131E-003,0.00000E+000,1.17043E-002,9.45536E-001,0.00000E+000,7.91508E-004,-5.55014E-002,1.00000E+000,23
1289,1337,3.27924E+001,7.50786E-001,-1.00535E-001,9.29231E+000,-1.66808E-001,-1.29717E-001,9.29471E+000,1.40643E-002,4.36892E-001,0,1.38751E+002,-3.69987E+000,9.98546E-001,1.10303E+002,-2.99610E+001,9.97587E-001,1.50344E-001,-5.74009E-002,3.95920E-003,1.50419E-001,-5.74763E-002,1.09141E+000,1.51807E-001,1.16224E+000,-6.63513E-003,0.00000E+000,1.27399E-002,9.45590E-001,0.00000E+000,3.30831E-003,-5.53686E-002,1.00000E+000,23
569,1317,-2.16086E+001,-1.20474E+000,2.34686E-001,1.89862E+000,-4.22429E-001,1.69762E-001,1.95244E+000,1.61212E-002,6.51243E-001,0,2.94341E+001,-7.22349E+000,9.98375E-001,-1.03405E+001,-4.80201E+001,9.97139E-001,1.29246E-001,-5.27494E-002,-6.11138E-005,1.29246E-001,-5.27494E-002,-1.92398E-002,1.29972E-001,1.13759E+000,2.94130E-002,0.00000E+000,-2.46616E-002,9.49927E-001,0.00000E+000,1.22934E-003,-5.86238E-002,1.00000E+000,23
1289,1317,3.27331E+001,-4.93241E-001,-1.10861E-001,9.29084E+000,-9.54328E-002,-6.25199E-002,9.29154E+000,1.52574E-002,4.58707E-001,0,1.38482E+002,-2.65060E+000,9.98919E-001,1.09300E+002,-2.92793E+001,9.96410E-001,1.47555E-001,-5.75297E-002,2.66942E-003,1.47590E-001,-5.75645E-002,7.45603E-001,1.48775E-001,1.15899E+000,-6.77817E-003,0.00000E+000,1.06777E-002,9.45500E-001,0.00000E+000,-1.70349E-003,-5.55890E-002,1.00000E+000,23
1289,1287,3.27151E+001,-2.31165E+000,8.55513E-002,9.30189E+000,3.03896E-002,3.84749E-002,9.30202E+000,1.92099E-002,4.12033E-001,0,1.38199E+002,-7.90364E-001,9.98546E-001,1.09156E+002,-2.80226E+001,9.95765E-001,1.43339E-001,-5.76112E-002,8.06747E-004,1.43342E-001,-5.76144E-002,2.30018E-001,1.44258E-001,1.15415E+000,-6.85028E-003,0.00000E+000,7.60919E-003,9.45454E-001,0.00000E+000,-9.16112E-003,-5.57001E-002,1.00000E+000,23
1289,1297,3.27188E+001,-1.70627E+000,1.57612E-002,9.29891E+000,-8.40738E-003,1.14284E-002,9.29892E+000,2.01521E-002,3.06624E-001,0,1.38278E+002,-1.35281E+000,9.98552E-001,1.09163E+002,-2.85043E+001,9.97185E-001,1.44746E-001,-5.75904E-002,1.42167E-003,1.44756E-001,-5.76004E-002,4.02548E-001,1.45759E-001,1.15575E+000,-6.83379E-003,0.00000E+000,8.62696E-003,9.45464E-001,0.00000E+000,-6.68757E-003,-5.56747E-002,1.00000E+000,23
1289,1307,3.27216E+001,-1.10369E+000,-7.26181E-002,9.29535E+000,-5.48408E-002,-3.27050E-002,9.29557E+000,1.36779E-002,4.52730E-001,0,1.38425E+002,-2.04173E+000,9.99344E-001,1.09133E+002,-2.88640E+001,9.97470E-001,1.46155E-001,-5.75694E-002,2.04070E-003,1.46176E-001,-5.75898E-002,5.73853E-001,1.47267E-001,1.15737E+000,-6.81793E-003,0.00000E+000,9.65251E-003,9.45474E-001,0.00000E+000,-4.19513E-003,-5.56503E-002,1.00000E+000,23
559,1327,-2.22948E+001,-6.10243E-001,1.35304E-001,1.84936E+000,-4.52310E-001,1.29902E-001,1.90830E+000,2.49940E-002,8.42815E-001,0,2.87915E+001,-7.67745E+000,9.99490E-001,-1.09318E+001,-4.86895E+001,9.98766E-001,1.26331E-001,-5.26112E-002,8.50953E-004,1.26335E-001,-5.26153E-002,2.72460E-001,1.26921E-001,1.13419E+000,3.24832E-002,0.00000E+000,-2.55122E-002,9.49974E-001,0.00000E+000,3.43407E-004,-5.75054E-002,1.00000E+000,23
559,1337,-2.22759E+001,-6.09065E-003,8.06353E-002,1.86067E+000,-4.80319E-001,8.78826E-002,1.92368E+000,7.57939E-003,6.77551E-001,0,2.90799E+001,-7.98440E+000,9.99411E-001,-1.06491E+001,-4.93852E+001,9.99419E-001,1.23968E-001,-5.26198E-002,1.13426E-003,1.23975E-001,-5.26271E-002,3.68002E-001,1.24446E-001,1.13152E+000,3.24522E-002,0.00000E+000,-2.49388E-002,9.49980E-001,0.00000E+000,-9.68029E-004,-5.75206E-002,1.00000E+000,23
559,1347,-2.22499E+001,6.00350E-001,5.02096E-002,1.87717E+000,-5.08747E-001,5.85774E-002,1.94577E+000,1.13836E-002,6.44844E-001,0,2.94157E+001,-8.38036E+000,9.98612E-001,-1.01862E+001,-5.00321E+001,9.98304E-001,1.21591E-001,-5.26268E-002,1.41526E-003,1.21603E-001,-5.26383E-002,4.65402E-001,1.21968E-001,1.12884E+000,3.24136E-002,0.00000E+000,-2.43638E-002,9.49989E-001,0.00000E+000,-2.28300E-003,-5.75395E-002,1.00000E+000,23
559,1357,-2.22114E+001,1.20792E+000,4.83315E-002,1.90194E+000,-5.40764E-001,3.18840E-002,1.97758E+000,1.00345E-002,6.32285E-001,0,2.98733E+001,-8.83824E+000,9.98610E-001,-9.44745E+000,-5.07140E+001,9.98601E-001,1.19198E-001,-5.26304E-002,1.69013E-003,1.19214E-001,-5.26470E-002,5.63500E-001,1.19485E-001,1.12615E+000,3.23580E-002,0.00000E+000,-2.37866E-002,9.50001E-001,0.00000E+000,-3.60309E-003,-5.75668E-002,1.00000E+000,23
559,1317,-2.23273E+001,-1.18840E+000,2.32580E-001,1.81614E+000,-4.02954E-001,1.62689E-001,1.86741E+000,2.55584E-002,6.93642E-001,0,2.81754E+001,-6.89479E+000,9.99066E-001,-1.12841E+001,-4.78444E+001,9.98193E-001,1.28684E-001,-5.25959E-002,5.53301E-004,1.28686E-001,-5.25976E-002,1.74875E-001,1.29399E-001,1.13687E+000,3.24805E-002,0.00000E+000,-2.60855E-002,9.49974E-001,0.00000E+000,1.65451E-003,-5.75067E-002,1.00000E+000,23
1299,1327,3.35313E+001,1.41525E-001,-1.25677E-001,9.39565E+000,-1.21600E-001,-9.79093E-002,9.39695E+000,1.87298E-002,4.27159E-001,0,1.40059E+002,-3.04152E+000,9.97956E-001,1.11819E+002,-2.92927E+001,9.96868E-001,1.48706E-001,-5.62445E-002,3.73029E-003,1.48774E-001,-5.63124E-002,1.04238E+000,1.50230E-001,1.16034E+000,-4.90718E-003,0.00000E+000,1.10262E-002,9.46570E-001,0.00000E+000,1.36564E-003,-5.27049E-002,1.00000E+000,23
1299,1337,3.35771E+001,7.63761E-001,-9.33526E-002,9.40511E+000,-1.62920E-001,-1.30536E-001,9.40742E+000,1.70501E-002,4.64105E-001,0,1.40312E+002,-3.65384E+000,9.97890E-001,1.12602E+002,-2.96647E+001,9.96624E-001,1.50326E-001,-5.61610E-002,4.44296E-003,1.50422E-001,-5.62566E-002,1.23207E+000,1.52006E-001,1.16223E+000,-4.80294E-003,0.00000E+000,1.21595E-002,9.46632E-001,0.00000E+000,4.07810E-003,-5.25559E-002,1.00000E+000,23
1299,1287,3.34923E+001,-2.30105E+000,9.44664E-002,9.40731E+000,3.21635E-002,3.76899E-002,9.40744E+000,1.39000E-002,4.83449E-001,0,1.39648E+002,-7.82607E-001,9.98855E-001,1.11343E+002,-2.77524E+001,9.96843E-001,1.42205E-001,-5.63807E-002,1.02568E-003,1.42211E-001,-5.63860E-002,2.95917E-001,1.43223E-001,1.15285E+000,-5.05279E-003,0.00000E+000,6.55508E-003,9.46483E-001,0.00000E+000,-9.33549E-003,-5.29131E-002,1.00000E+000,23
1299,1297,3.34963E+001,-1.70053E+000,1.72955E-002,9.40606E+000,-1.12418E-002,8.64034E-003,9.40607E+000,1.40894E-002,4.66055E-001,0,1.39766E+002,-1.45122E+000,9.99310E-001,1.11346E+002,-2.82486E+001,9.97478E-001,1.43838E-001,-5.63627E-002,1.68974E-003,1.43852E-001,-5.63770E-002,4.83546E-001,1.44968E-001,1.15471E+000,-5.03771E-003,0.00000E+000,7.66692E-003,9.46492E-001,0.00000E+000,-6.67442E-003,-5.28915E-002,1.00000E+000,23
1299,1307,3.35124E+001,-1.08591E+000,-3.95882E-002,9.41153E+000,-4.61748E-002,-1.93844E-002,9.41167E+000,2.66132E-002,5.10814E-001,0,1.39968E+002,-1.97997E+000,9.99040E-001,1.11562E+002,-2.85368E+001,9.97743E-001,1.45471E-001,-5.63332E-002,2.36462E-003,1.45498E-001,-5.63609E-002,6.71236E-001,1.46724E-001,1.15659E+000,-5.00724E-003,0.00000E+000,8.78635E-003,9.46510E-001,0.00000E+000,-3.99518E-003,-5.28480E-002,1.00000E+000,23
1299,1317,3.35194E+001,-4.74902E-001,-9.68096E-002,9.40311E+000,-8.61055E-002,-6.56371E-002,9.40374E+000,2.35632E-002,4.81862E-001,0,1.40040E+002,-2.52685E+000,9.98092E-001,1.11636E+002,-2.89190E+001,9.96773E-001,1.47093E-001,-5.62931E-002,3.04529E-003,1.47139E-001,-5.63387E-002,8.57629E-001,1.48478E-001,1.15846E+000,-4.96281E-003,0.00000E+000,9.90620E-003,9.46537E-001,0.00000E+000,-1.31493E-003,-5.27845E-002,1.00000E+000,23
559,1307,-2.23528E+001,-1.77768E+000,3.47939E-001,1.78818E+000,-3.65872E-001,2.02510E-001,1.83643E+000,1.21279E-002,6.72552E-001,0,2.76255E+001,-6.39205E+000,9.98223E-001,-1.14785E+001,-4.71418E+001,9.97431E-001,1.31030E-001,-5.25790E-002,2.52971E-004,1.31030E-001,-5.25794E-002,7.89403E-002,1.31879E-001,1.13954E+000,3.24707E-002,0.00000E+000,-2.66586E-002,9.49977E-001,0.00000E+000,2.96521E-003,-5.75115E-002,1.00000E+000,23
549,1347,-2.29629E+001,6.15962E-001,4.92699E-002,1.80087E+000,-4.88767E-001,5.64352E-002,1.86687E+000,1.00449E-002,6.69390E-001,0,2.82377E+001,-8.04705E+000,9.98512E-001,-1.10344E+001,-4.98842E+001,9.98254E-001,1.21232E-001,-5.23932E-002,1.85493E-003,1.21252E-001,-5.24130E-002,6.12028E-001,1.21622E-001,1.12835E+000,3.53136E-002,0.00000E+000,-2.59977E-002,9.50106E-001,0.00000E+000,-1.94074E-003,-5.63674E-002,1.00000E+000,23
549,1357,-2.29246E+001,1.23012E+000,5.25585E-002,1.82474E+000,-5.14998E-001,2.96255E-002,1.89626E+000,1.08031E-002,6.50936E-001,0,2.86798E+001,-8.40691E+000,9.98541E-001,-1.02796E+001,-5.04814E+001,9.98489E-001,1.18922E-001,-5.23973E-002,2.12574E-003,1.18949E-001,-5.24237E-002,7.10780E-001,1.19227E-001,1.12575E+000,3.52574E-002,0.00000E+000,-2.54323E-002,9.50118E-001,0.00000E+000,-3.26526E-003,-5.63961E-002,1.00000E+000,23
549,1327,-2.30352E+001,-5.88065E-001,1.52868E-001,1.74376E+000,-4.25750E-001,1.35248E-001,1.80007E+000,2.06235E-002,7.81323E-001,0,2.71339E+001,-7.24166E+000,9.98640E-001,-1.21389E+001,-4.85233E+001,9.96983E-001,1.25806E-001,-5.23740E-002,1.29359E-003,1.25816E-001,-5.23834E-002,4.15938E-001,1.26401E-001,1.13351E+000,3.53730E-002,0.00000E+000,-2.71230E-002,9.50093E-001,0.00000E+000,6.95244E-004,-5.63371E-002,1.00000E+000,23
549,1337,-2.29944E+001,1.18300E-002,8.45742E-002,1.77849E+000,-4.56117E-001,8.85846E-002,1.83818E+000,7.97311E-003,6.72842E-001,0,2.78015E+001,-7.61353E+000,9.99135E-001,-1.15660E+001,-4.92259E+001,9.99178E-001,1.23532E-001,-5.23848E-002,1.57559E-003,1.23546E-001,-5.23989E-002,5.13112E-001,1.24019E-001,1.13094E+000,3.53491E-002,0.00000E+000,-2.65625E-002,9.50098E-001,0.00000E+000,-6.17655E-004,-5.63493E-002,1.00000E+000,23
1309,1317,3.42822E+001,-4.72328E-001,-1.22350E-001,9.49936E+000,-8.73311E-002,-7.93662E-002,9.50009E+000,1.91617E-002,4.64416E-001,0,1.41418E+002,-2.53536E+000,9.97863E-001,1.13562E+002,-2.87407E+001,9.96599E-001,1.46974E-001,-5.52811E-002,3.50485E-003,1.47035E-001,-5.53418E-002,9.92473E-001,1.48525E-001,1.15833E+000,-2.60418E-003,0.00000E+000,8.85940E-003,9.47372E-001,0.00000E+000,-1.20234E-003,-4.99663E-002,1.00000E+000,23
1309,1327,3.43080E+001,1.49773E-001,-1.35303E-001,9.50301E+000,-1.19125E-001,-1.05462E-001,9.50434E+000,2.25873E-002,4.36422E-001,0,1.41570E+002,-3.01696E+000,9.97513E-001,1.13980E+002,-2.90442E+001,9.95829E-001,1.48809E-001,-5.52328E-002,4.14887E-003,1.48893E-001,-5.53172E-002,1.16438E+000,1.50523E-001,1.16047E+000,-2.53184E-003,0.00000E+000,9.89565E-003,9.47407E-001,0.00000E+000,1.54204E-003,-4.98732E-002,1.00000E+000,23
1309,1337,3.43514E+001,7.76805E-001,-9.94345E-002,9.51121E+000,-1.54984E-001,-1.29673E-001,9.51336E+000,2.14220E-002,4.70189E-001,0,1.41768E+002,-3.56609E+000,9.98341E-001,1.14727E+002,-2.93498E+001,9.97570E-001,1.50648E-001,-5.51598E-002,4.81568E-003,1.50761E-001,-5.52724E-002,1.33968E+000,1.52538E-001,1.16262E+000,-2.41717E-003,0.00000E+000,1.09414E-002,9.47463E-001,0.00000E+000,4.31161E-003,-4.97257E-002,1.00000E+000,23
549,1317,-2.30503E+001,-1.17364E+000,2.48771E-001,1.72909E+000,-3.84445E-001,1.74021E-001,1.77984E+000,1.75283E-002,7.55169E-001,0,2.67961E+001,-6.64063E+000,9.98945E-001,-1.22322E+001,-4.77229E+001,9.97951E-001,1.28072E-001,-5.23588E-002,1.00242E-003,1.28078E-001,-5.23643E-002,3.18304E-001,1.28785E-001,1.13609E+000,3.53748E-002,0.00000E+000,-2.76832E-002,9.50093E-001,0.00000E+000,2.00756E-003,-5.63362E-002,1.00000E+000,23
549,1307,-2.30724E+001,-1.76281E+000,3.39538E-001,1.70544E+000,-3.46626E-001,1.94885E-001,1.75119E+000,1.25796E-002,6.97122E-001,0,2.63632E+001,-6.06705E+000,9.98364E-001,-1.24478E+001,-4.69829E+001,9.97774E-001,1.30336E-001,-5.23418E-002,7.07626E-004,1.30338E-001,-5.23446E-002,2.21939E-001,1.31177E-001,1.13866E+000,3.53689E-002,0.00000E+000,-2.82444E-002,9.50094E-001,0.00000E+000,3.32244E-003,-5.63392E-002,1.00000E+000,23
1309,1287,3.42673E+001,-2.29844E+000,9.15860E-002,9.50919E+000,2.89667E-002,2.17883E-002,9.50926E+000,1.24958E-002,4.87509E-001,0,1.41109E+002,-8.38922E-001,9.98922E-001,1.13486E+002,-2.76155E+001,9.96693E-001,1.41428E-001,-5.53441E-002,1.63737E-003,1.41441E-001,-5.53577E-002,4.76723E-001,1.42550E-001,1.15197E+000,-2.68490E-003,0.00000E+000,5.76577E-003,9.47333E-001,0.00000E+000,-9.39537E-003,-5.00702E-002,1.00000E+000,23
1309,1297,3.42689E+001,-1.70032E+000,2.74434E-003,9.50725E+000,-1.85397E-002,-1.21998E-002,9.50728E+000,1.64510E-002,4.76165E-001,0,1.41243E+002,-1.52634E+000,9.98781E-001,1.13438E+002,-2.81198E+001,9.96691E-001,1.43286E-001,-5.53325E-002,2.25284E-003,1.43312E-001,-5.53581E-002,6.49769E-001,1.44542E-001,1.15409E+000,-2.67342E-003,0.00000E+000,6.79581E-003,9.47338E-001,0.00000E+000,-6.66747E-003,-5.00554E-002,1.00000E+000,23
1309,1307,3.42684E+001,-1.08435E+000,-8.24972E-002,9.50191E+000,-4.65873E-002,-4.78439E-002,9.50215E+000,1.78238E-002,3.96683E-001,0,1.41323E+002,-1.91509E+000,9.98698E-001,1.13364E+002,-2.83875E+001,9.97907E-001,1.45127E-001,-5.53178E-002,2.86817E-003,1.45168E-001,-5.53589E-002,8.19621E-001,1.46525E-001,1.15620E+000,-2.65745E-003,0.00000E+000,7.82276E-003,9.47346E-001,0.00000E+000,-3.94773E-003,-5.00348E-002,1.00000E+000,23
539,1347,-2.36806E+001,6.34741E-001,5.04864E-002,1.71934E+000,-4.64255E-001,5.53612E-002,1.78177E+000,8.63945E-003,6.53213E-001,0,2.69724E+001,-7.64732E+000,9.98850E-001,-1.19413E+001,-4.97137E+001,9.98844E-001,1.20956E-001,-5.20731E-002,2.05572E-003,1.20980E-001,-5.20975E-002,6.80590E-001,1.21368E-001,1.12795E+000,3.78854E-002,0.00000E+000,-2.78085E-002,9.50296E-001,0.00000E+000,-1.69819E-003,-5.51606E-002,1.00000E+000,23
539,1357,-2.36415E+001,1.25120E+000,4.78279E-002,1.74512E+000,-4.87498E-001,2.85891E-002,1.81216E+000,8.02804E-003,6.50577E-001,0,2.74438E+001,-7.96227E+000,9.99208E-001,-1.11905E+001,-5.02566E+001,9.99075E-001,1.18809E-001,-5.20787E-002,2.30570E-003,1.18840E-001,-5.21098E-002,7.72877E-001,1.19139E-001,1.12554E+000,3.78373E-002,0.00000E+000,-2.72906E-002,9.50307E-001,0.00000E+000,-3.02537E-003,-5.51871E-002,1.00000E+000,23
539,1327,-2.37440E+001,-5.67938E-001,1.37258E-001,1.67140E+000,-3.98112E-001,1.20098E-001,1.72236E+000,1.01443E-002,6.58471E-001,0,2.60486E+001,-6.73650E+000,9.97754E-001,-1.29615E+001,-4.83443E+001,9.97673E-001,1.25216E-001,-5.20538E-002,1.54056E-003,1.25229E-001,-5.20672E-002,4.97878E-001,1.25820E-001,1.13276E+000,3.79415E-002,0.00000E+000,-2.88407E-002,9.50284E-001,0.00000E+000,9.47069E-004,-5.51297E-002,1.00000E+000,23
539,1337,-2.37123E+001,3.35047E-002,8.40002E-002,1.69654E+000,-4.28985E-001,8.53530E-002,1.75202E+000,9.11761E-003,6.49723E-001,0,2.65348E+001,-7.16409E+000,9.98547E-001,-1.24820E+001,-4.90087E+001,9.98602E-001,1.23094E-001,-5.20643E-002,1.79932E-003,1.23112E-001,-5.20828E-002,5.88491E-001,1.23597E-001,1.13036E+000,3.79178E-002,0.00000E+000,-2.83258E-002,9.50289E-001,0.00000E+000,-3.72580E-004,-5.51428E-002,1.00000E+000,23
1319,1297,3.50249E+001,-1.69310E+000,-2.23410E-002,9.59642E+000,-1.34665E-002,-2.58755E-002,9.59646E+000,1.44958E-002,3.56448E-001,0,1.42510E+002,-1.40691E+000,9.98861E-001,1.15265E+002,-2.79261E+001,9.97275E-001,1.42791E-001,-5.42501E-002,2.98764E-003,1.42836E-001,-5.42954E-002,8.68483E-001,1.44198E-001,1.15353E+000,3.01116E-004,0.00000E+000,5.76953E-003,9.48220E-001,0.00000E+000,-7.24476E-003,-4.66745E-002,1.00000E+000,23
1319,1307,3.50353E+001,-1.08418E+000,-9.29154E-002,9.59859E+000,-5.13694E-002,-5.84935E-002,9.59890E+000,1.72735E-002,3.39823E-001,0,1.42689E+002,-1.97044E+000,9.98659E-001,1.15376E+002,-2.83008E+001,9.98059E-001,1.44900E-001,-5.42321E-002,3.59257E-003,1.44965E-001,-5.42969E-002,1.03323E+000,1.46478E-001,1.15595E+000,3.31594E-004,0.00000E+000,6.76695E-003,9.48233E-001,0.00000E+000,-4.24719E-003,-4.66367E-002,1.00000E+000,23
539,1307,-2.37915E+001,-1.75039E+000,3.32159E-001,1.62225E+000,-3.28211E-001,1.85075E-001,1.66543E+000,8.70906E-003,6.69151E-001,0,2.50974E+001,-5.75581E+000,9.98746E-001,-1.34035E+001,-4.68901E+001,9.98344E-001,1.29425E-001,-5.20224E-002,1.00242E-003,1.29431E-001,-5.20279E-002,3.16522E-001,1.30257E-001,1.13754E+000,3.79359E-002,0.00000E+000,-2.98673E-002,9.50286E-001,0.00000E+000,3.57791E-003,-5.51328E-002,1.00000E+000,23
539,1317,-2.37691E+001,-1.16570E+000,2.25992E-001,1.64704E+000,-3.68312E-001,1.53662E-001,1.69470E+000,9.68105E-003,6.84900E-001,0,2.55755E+001,-6.34065E+000,9.98343E-001,-1.32314E+001,-4.76892E+001,9.97710E-001,1.27326E-001,-5.20392E-002,1.27355E-003,1.27335E-001,-5.20482E-002,4.06792E-001,1.28039E-001,1.13515E+000,3.79443E-002,0.00000E+000,-2.93544E-002,9.50284E-001,0.00000E+000,2.26357E-003,-5.51282E-002,1.00000E+000,23
1319,1287,3.50317E+001,-2.30149E+000,7.25555E-002,9.60426E+000,2.11076E-002,5.53226E-003,9.60428E+000,1.53579E-002,4.44448E-001,0,1.42477E+002,-9.23750E-001,9.98597E-001,1.15449E+002,-2.75574E+001,9.97677E-001,1.40674E-001,-5.42547E-002,2.39581E-003,1.40703E-001,-5.42841E-002,7.04062E-001,1.41921E-001,1.15112E+000,2.96923E-004,0.00000E+000,4.77544E-003,9.48219E-001,0.00000E+000,-1.02323E-002,-4.66797E-002,1.00000E+000,23
529,1327,-2.44586E+001,-5.51539E-001,1.39128E-001,1.59196E+000,-3.76393E-001,1.16937E-001,1.64003E+000,9.16979E-003,6.58532E-001,0,2.48209E+001,-6.39105E+000,9.97561E-001,-1.38160E+001,-4.81994E+001,9.97456E-001,1.24757E-001,-5.13889E-002,1.82801E-003,1.24776E-001,-5.14078E-002,5.94520E-001,1.25418E-001,1.13218E+000,3.97043E-002,0.00000E+000,-2.98357E-002,9.50827E-001,0.00000E+000,1.58463E-003,-5.39391E-002,1.00000E+000,23
529,1307,-2.45075E+001,-1.73286E+000,3.36721E-001,1.54086E+000,-3.06062E-001,1.81132E-001,1.58137E+000,1.15548E-002,6.34663E-001,0,2.38421E+001,-5.38729E+000,9.98974E-001,-1.42683E+001,-4.67470E+001,9.98406E-001,1.28407E-001,-5.13748E-002,1.56507E-003,1.28420E-001,-5.13884E-002,4.98731E-001,1.29271E-001,1.13633E+000,3.96976E-002,0.00000E+000,-3.03535E-002,9.50828E-001,0.00000E+000,4.37348E-003,-5.39436E-002,1.00000E+000,23
529,1317,-2.44854E+001,-1.14715E+000,2.24992E-001,1.56682E+000,-3.44116E-001,1.53355E-001,1.61147E+000,9.16728E-003,6.42983E-001,0,2.43288E+001,-5.93669E+000,9.98979E-001,-1.41183E+001,-4.75245E+001,9.98379E-001,1.26586E-001,-5.13826E-002,1.70002E-003,1.26602E-001,-5.13989E-002,5.47244E-001,1.27346E-001,1.13426E+000,3.97094E-002,0.00000E+000,-3.00948E-002,9.50826E-001,0.00000E+000,2.98018E-003,-5.39356E-002,1.00000E+000,23
