Coordinates.Image X [Pixel],Coordinates.Image Y [Pixel],coor.X [mm],coor.Y [mm],coor.Z [mm],disp.Horizontal Displacement U [mm],disp.Vertical Displacement V [mm],disp.Out-Of-Plane: W [mm],disp.Displacement Magnitude [mm],stats.Sigma [mm],stats.Epipolar Distance [Pixel],stats.Shape Index [-],SameCamera.Horizontal: u [Pixel],SameCamera.Vertical: v [Pixel],SameCamera.Correlation Value 2D [-],CrossCamera.Horizontal: q [Pixel],CrossCamera.Vertical: r [Pixel],CrossCamera.Correlation Value Persp [-],strain.Strain-global frame: Exx [ ],strain.Strain-global frame: Eyy [ ],strain.Strain-global frame: Exy [ ],strain.Maximum Principal Strain: EI [ ],strain.Minimum Principal Strain: EII [ ],strain.Shear Angle Gamma [deg],strain.Von Mises Equivalent Strain [ ],defgradient.F[0,0] [-],defgradient.F[0,1] [-],defgradient.F[0,2] [-],defgradient.F[1,0] [-],defgradient.F[1,1] [-],defgradient.F[1,2] [-],defgradient.F[2,0] [-],defgradient.F[2,1] [-],defgradient.F[2,2] [-],ext.Current Image [#]
929,1317,4.69604E+000,-1.12832E+000,7.32579E-002,5.03211E+000,-5.11958E-001,1.59979E-001,5.06062E+000,1.16029E-002,4.67264E-001,0,7.66326E+001,-8.93664E+000,9.98884E-001,3.30088E+001,-4.30336E+001,9.97942E-001,1.39328E-001,-5.80893E-002,1.60339E-005,1.39328E-001,-5.80893E-002,4.65349E-003,1.39967E-001,1.14945E+000,-1.85239E-002,0.00000E+000,1.64039E-002,9.47067E-001,0.00000E+000,-1.48533E-002,-8.77268E-002,1.00000E+000,21
919,1307,3.94501E+000,-1.74449E+000,1.37416E-001,4.94763E+000,-4.78855E-001,2.28934E-001,4.97602E+000,1.40836E-002,4.96041E-001,0,7.51632E+001,-8.54333E+000,9.98038E-001,3.14341E+001,-4.27772E+001,9.95647E-001,1.42200E-001,-5.78471E-002,-4.94726E-004,1.42201E-001,-5.78483E-002,-1.41694E-001,1.43022E-001,1.15277E+000,-1.65252E-002,0.00000E+000,1.36637E-002,9.47418E-001,0.00000E+000,-1.35070E-002,-8.87182E-002,1.00000E+000,21
919,1317,3.93262E+000,-1.15131E+000,3.05611E-002,4.93243E+000,-5.20677E-001,1.72990E-001,4.96285E+000,1.60628E-002,4.65589E-001,0,7.51327E+001,-9.09930E+000,9.97281E-001,3.11098E+001,-4.33979E+001,9.94952E-001,1.40208E-001,-5.78546E-002,-7.16264E-004,1.40211E-001,-5.78571E-002,-2.07198E-001,1.40922E-001,1.15046E+000,-1.65354E-002,0.00000E+000,1.31467E-002,9.47416E-001,0.00000E+000,-1.19357E-002,-8.87112E-002,1.00000E+000,21
919,1327,3.93850E+000,-5.47664E-001,-1.83443E-002,4.92119E+000,-5.64096E-001,1.08953E-001,4.95461E+000,1.23734E-002,5.11141E-001,0,7.51795E+001,-9.65914E+000,9.98773E-001,3.11939E+001,-4.39404E+001,9.96904E-001,1.38189E-001,-5.78711E-002,-9.62148E-004,1.38194E-001,-5.78758E-002,-2.81165E-001,1.38800E-001,1.14812E+000,-1.65968E-002,0.00000E+000,1.26241E-002,9.47402E-001,0.00000E+000,-1.03475E-002,-8.86696E-002,1.00000E+000,21
929,1307,4.70412E+000,-1.72201E+000,1.66373E-001,5.04737E+000,-4.67368E-001,2.22073E-001,5.07382E+000,1.13469E-002,5.00755E-001,0,7.66438E+001,-8.35529E+000,9.99085E-001,3.32362E+001,-4.23915E+001,9.98295E-001,1.41370E-001,-5.80868E-002,9.02041E-005,1.41370E-001,-5.80868E-002,2.59120E-002,1.42116E-001,1.15184E+000,-1.84972E-002,0.00000E+000,1.66548E-002,9.47070E-001,0.00000E+000,-1.68164E-002,-8.77488E-002,1.00000E+000,21
929,1327,4.69496E+000,-5.22781E-001,1.06790E-002,5.01759E+000,-5.48765E-001,9.95790E-002,5.04850E+000,1.04912E-002,4.57832E-001,0,7.66190E+001,-9.41368E+000,9.99137E-001,3.29563E+001,-4.35449E+001,9.98358E-001,1.37272E-001,-5.80928E-002,-6.83965E-005,1.37272E-001,-5.80928E-002,-2.00590E-002,1.37811E-001,1.14706E+000,-1.85736E-002,0.00000E+000,1.61522E-002,9.47062E-001,0.00000E+000,-1.28849E-002,-8.76859E-002,1.00000E+000,21
939,1307,5.45589E+000,-1.70343E+000,1.50749E-001,5.14481E+000,-4.55698E-001,1.96056E-001,5.16867E+000,1.27592E-002,4.93512E-001,0,7.81579E+001,-8.12536E+000,9.99055E-001,3.48338E+001,-4.19787E+001,9.98354E-001,1.40368E-001,-5.76318E-002,5.19212E-004,1.40370E-001,-5.76332E-002,1.50244E-001,1.41116E-001,1.15069E+000,-2.08374E-002,0.00000E+000,1.95783E-002,9.47332E-001,0.00000E+000,-1.91955E-002,-8.62818E-002,1.00000E+000,21
939,1317,5.44753E+000,-1.10869E+000,6.44774E-002,5.12847E+000,-4.99174E-001,1.37382E-001,5.15454E+000,1.28793E-002,4.38200E-001,0,7.81189E+001,-8.69788E+000,9.98673E-001,3.46173E+001,-4.26281E+001,9.97584E-001,1.38512E-001,-5.76325E-002,4.80700E-004,1.38513E-001,-5.76336E-002,1.40416E-001,1.39162E-001,1.14851E+000,-2.08646E-002,0.00000E+000,1.93755E-002,9.47330E-001,0.00000E+000,-1.69491E-002,-8.62538E-002,1.00000E+000,21
939,1327,5.44799E+000,-4.97659E-001,8.21055E-003,5.11383E+000,-5.33759E-001,7.64973E-002,5.14218E+000,9.80703E-003,4.58776E-001,0,7.81046E+001,-9.12268E+000,9.98862E-001,3.46023E+001,-4.30510E+001,9.97986E-001,1.36633E-001,-5.76333E-002,4.31465E-004,1.36634E-001,-5.76343E-002,1.27253E-001,1.37190E-001,1.14631E+000,-2.09158E-002,0.00000E+000,1.91711E-002,9.47325E-001,0.00000E+000,-1.46857E-002,-8.62010E-002,1.00000E+000,21
919,1337,3.95156E+000,6.59551E-002,-3.96495E-002,4.91220E+000,-5.99069E-001,4.94458E-002,4.94885E+000,1.11064E-002,4.78916E-001,0,7.52382E+001,-1.00888E+001,9.98291E-001,3.14503E+001,-4.44280E+001,9.97778E-001,1.36164E-001,-5.78906E-002,-1.21580E-003,1.36172E-001,-5.78983E-002,-3.58954E-001,1.36679E-001,1.14578E+000,-1.66757E-002,0.00000E+000,1.21018E-002,9.47384E-001,0.00000E+000,-8.76009E-003,-8.86160E-002,1.00000E+000,21
929,1337,4.70334E+000,8.49814E-002,-2.37807E-002,5.00636E+000,-5.88953E-001,3.90123E-002,5.04103E+000,1.04545E-002,4.78736E-001,0,7.66522E+001,-9.93558E+000,9.99145E-001,3.31100E+001,-4.40672E+001,9.98848E-001,1.35198E-001,-5.80972E-002,-1.63244E-004,1.35198E-001,-5.80973E-002,-4.83881E-002,1.35643E-001,1.14466E+000,-1.86461E-002,0.00000E+000,1.58993E-002,9.47054E-001,0.00000E+000,-1.09064E-002,-8.76261E-002,1.00000E+000,21
939,1337,5.45483E+000,1.10553E-001,-2.20601E-002,5.10191E+000,-5.72477E-001,2.47007E-002,5.13399E+000,9.01739E-003,4.77036E-001,0,7.80986E+001,-9.64916E+000,9.99205E-001,3.47401E+001,-4.35754E+001,9.98772E-001,1.34746E-001,-5.76343E-002,3.76564E-004,1.34747E-001,-5.76350E-002,1.12150E-001,1.35216E-001,1.14412E+000,-2.09794E-002,0.00000E+000,1.89668E-002,9.47319E-001,0.00000E+000,-1.24225E-002,-8.61354E-002,1.00000E+000,21
949,1317,6.20532E+000,-1.08103E+000,6.67831E-002,5.22930E+000,-4.81078E-001,1.20052E-001,5.25275E+000,1.78908E-002,4.76339E-001,0,7.96506E+001,-8.39379E+000,9.97450E-001,3.63518E+001,-4.20879E+001,9.96031E-001,1.37663E-001,-5.71495E-002,8.56772E-004,1.37666E-001,-5.71532E-002,2.51977E-001,1.38325E-001,1.14752E+000,-2.29799E-002,0.00000E+000,2.19448E-002,9.47583E-001,0.00000E+000,-1.84976E-002,-8.43314E-002,1.00000E+000,21
949,1327,6.20119E+000,-4.72620E-001,6.52886E-003,5.21116E+000,-5.16378E-001,6.04904E-002,5.23703E+000,1.54286E-002,4.63290E-001,0,7.95810E+001,-8.83703E+000,9.98118E-001,3.62570E+001,-4.25585E+001,9.97259E-001,1.36083E-001,-5.71473E-002,8.48136E-004,1.36086E-001,-5.71511E-002,2.51479E-001,1.36666E-001,1.14566E+000,-2.30204E-002,0.00000E+000,2.17863E-002,9.47580E-001,0.00000E+000,-1.59346E-002,-8.42755E-002,1.00000E+000,21
949,1337,6.20629E+000,1.35708E-001,-2.37467E-002,5.19801E+000,-5.55034E-001,1.16530E-002,5.22757E+000,1.15854E-002,4.69875E-001,0,7.95474E+001,-9.35950E+000,9.98707E-001,3.63671E+001,-4.30855E+001,9.97939E-001,1.34490E-001,-5.71449E-002,8.33927E-004,1.34493E-001,-5.71485E-002,2.49325E-001,1.34998E-001,1.14380E+000,-2.30732E-002,0.00000E+000,2.16274E-002,9.47575E-001,0.00000E+000,-1.33647E-002,-8.42027E-002,1.00000E+000,21
949,1307,6.21625E+000,-1.68123E+000,1.53072E-001,5.24792E+000,-4.42271E-001,1.76964E-001,5.26950E+000,1.42628E-002,4.91028E-001,0,7.97302E+001,-7.88189E+000,9.98349E-001,3.66071E+001,-4.15448E+001,9.97460E-001,1.39228E-001,-5.71511E-002,8.57428E-004,1.39232E-001,-5.71548E-002,2.50158E-001,1.39973E-001,1.14937E+000,-2.29577E-002,0.00000E+000,2.21027E-002,9.47585E-001,0.00000E+000,-2.10509E-002,-8.43620E-002,1.00000E+000,21
909,1317,3.18700E+000,-1.16782E+000,2.63282E-002,4.83852E+000,-5.29376E-001,1.71065E-001,4.87040E+000,1.56968E-002,4.42291E-001,0,7.37606E+001,-9.23666E+000,9.96093E-001,2.95732E+001,-4.37529E+001,9.94139E-001,1.41127E-001,-5.82944E-002,-1.50300E-003,1.41138E-001,-5.83058E-002,-4.31793E-001,1.41847E-001,1.15152E+000,-1.44129E-002,0.00000E+000,9.63205E-003,9.47061E-001,0.00000E+000,-8.67565E-003,-8.89975E-002,1.00000E+000,21
909,1327,3.19732E+000,-5.58210E-001,-1.91124E-002,4.83221E+000,-5.67381E-001,1.12262E-001,4.86670E+000,1.19283E-002,4.84421E-001,0,7.38620E+001,-9.70676E+000,9.97491E-001,2.97348E+001,-4.42135E+001,9.97076E-001,1.39174E-001,-5.83089E-002,-1.73578E-003,1.39189E-001,-5.83241E-002,-5.03552E-001,1.39796E-001,1.14926E+000,-1.44700E-002,0.00000E+000,9.17647E-003,9.47050E-001,0.00000E+000,-7.68042E-003,-8.89723E-002,1.00000E+000,21
909,1337,3.20929E+000,5.92382E-002,-3.86515E-002,4.82202E+000,-6.01433E-001,5.35439E-002,4.85968E+000,1.31022E-002,5.33434E-001,0,7.38979E+001,-1.01177E+001,9.98359E-001,2.99795E+001,-4.46071E+001,9.97783E-001,1.37210E-001,-5.83267E-002,-1.97754E-003,1.37230E-001,-5.83467E-002,-5.79377E-001,1.37741E-001,1.14700E+000,-1.45461E-002,0.00000E+000,8.71954E-003,9.47034E-001,0.00000E+000,-6.68226E-003,-8.89388E-002,1.00000E+000,21
909,1307,3.19454E+000,-1.76014E+000,1.37518E-001,4.84784E+000,-4.86891E-001,2.26649E-001,4.87750E+000,1.56486E-002,4.22444E-001,0,7.37030E+001,-8.65485E+000,9.96645E-001,2.98334E+001,-4.31522E+001,9.92667E-001,1.43053E-001,-5.82889E-002,-1.29450E-003,1.43062E-001,-5.82972E-002,-3.68355E-001,1.43875E-001,1.15374E+000,-1.44066E-002,0.00000E+000,1.00823E-002,9.47062E-001,0.00000E+000,-9.65930E-003,-8.90003E-002,1.00000E+000,21
919,1347,3.97246E+000,6.89954E-001,-4.24473E-002,4.90780E+000,-6.27617E-001,-6.46367E-003,4.94778E+000,1.74269E-002,4.96596E-001,0,7.53497E+001,-1.04278E+001,9.98989E-001,3.18690E+001,-4.47722E+001,9.98546E-001,1.34124E-001,-5.79123E-002,-1.47579E-003,1.34135E-001,-5.79236E-002,-4.40281E-001,1.34550E-001,1.14343E+000,-1.67663E-002,0.00000E+000,1.15772E-002,9.47364E-001,0.00000E+000,-7.16581E-003,-8.85545E-002,1.00000E+000,21
929,1347,4.72038E+000,7.01990E-001,-3.34606E-002,4.99862E+000,-6.23497E-001,-2.05967E-002,5.03740E+000,9.91747E-003,4.59082E-001,0,7.67292E+001,-1.03524E+001,9.99082E-001,3.34520E+001,-4.45221E+001,9.98888E-001,1.33111E-001,-5.81024E-002,-2.66873E-004,1.33111E-001,-5.81027E-002,-7.99665E-002,1.33468E-001,1.14225E+000,-1.87377E-002,0.00000E+000,1.56457E-002,9.47044E-001,0.00000E+000,-8.92269E-003,-8.75506E-002,1.00000E+000,21
939,1347,5.47227E+000,7.28148E-001,-2.41896E-002,5.09488E+000,-6.06538E-001,-2.50483E-002,5.13092E+000,1.41617E-002,4.53952E-001,0,7.81535E+001,-1.00762E+001,9.99050E-001,3.51028E+001,-4.40379E+001,9.97916E-001,1.32843E-001,-5.76355E-002,3.12799E-004,1.32844E-001,-5.76360E-002,9.40891E-002,1.33231E-001,1.14192E+000,-2.10624E-002,0.00000E+000,1.87616E-002,9.47311E-001,0.00000E+000,-1.01501E-002,-8.60497E-002,1.00000E+000,21
949,1347,6.22722E+000,7.52520E-001,-9.22596E-003,5.19241E+000,-5.92251E-001,-2.97680E-002,5.22616E+000,1.15112E-002,4.86193E-001,0,7.95956E+001,-9.86002E+000,9.98358E-001,3.68162E+001,-4.35751E+001,9.97564E-001,1.32878E-001,-5.71418E-002,8.09100E-004,1.32881E-001,-5.71453E-002,2.43959E-001,1.33314E-001,1.14192E+000,-2.31498E-002,0.00000E+000,2.14675E-002,9.47569E-001,0.00000E+000,-1.07784E-002,-8.40970E-002,1.00000E+000,21
959,1317,6.95433E+000,-1.05959E+000,5.37489E-002,5.32282E+000,-4.66706E-001,9.60197E-002,5.34410E+000,1.59382E-002,4.77910E-001,0,8.10956E+001,-8.13359E+000,9.97942E-001,3.79227E+001,-4.16305E+001,9.97183E-001,1.36914E-001,-5.65853E-002,9.31692E-004,1.36918E-001,-5.65898E-002,2.75869E-001,1.37603E-001,1.14663E+000,-2.51776E-002,0.00000E+000,2.39435E-002,9.47912E-001,0.00000E+000,-1.92317E-002,-8.22705E-002,1.00000E+000,21
959,1327,6.95330E+000,-4.50891E-001,-6.63339E-003,5.30944E+000,-5.00960E-001,4.44043E-002,5.33321E+000,2.12353E-002,4.50820E-001,0,8.10731E+001,-8.56919E+000,9.99081E-001,3.78754E+001,-4.21010E+001,9.98410E-001,1.35564E-001,-5.65778E-002,9.92410E-004,1.35569E-001,-5.65829E-002,2.95922E-001,1.36184E-001,1.14503E+000,-2.52084E-002,0.00000E+000,2.39024E-002,9.47911E-001,0.00000E+000,-1.65451E-002,-8.22188E-002,1.00000E+000,21
959,1337,6.96091E+000,1.56872E-001,-2.43596E-002,5.29642E+000,-5.42711E-001,-1.80570E-003,5.32416E+000,1.70985E-002,4.65802E-001,0,8.10328E+001,-9.13646E+000,9.98355E-001,3.80490E+001,-4.26577E+001,9.97667E-001,1.34197E-001,-5.65679E-002,1.04441E-003,1.34202E-001,-5.65736E-002,3.13673E-001,1.34752E-001,1.14342E+000,-2.52598E-002,0.00000E+000,2.38610E-002,9.47910E-001,0.00000E+000,-1.38434E-002,-8.21323E-002,1.00000E+000,21
959,1307,6.96286E+000,-1.65747E+000,1.41932E-001,5.33992E+000,-4.23945E-001,1.58363E-001,5.35906E+000,1.21132E-002,4.95573E-001,0,8.11307E+001,-7.58734E+000,9.98316E-001,3.81447E+001,-4.10562E+001,9.97607E-001,1.38254E-001,-5.65917E-002,8.66815E-004,1.38257E-001,-5.65956E-002,2.54887E-001,1.39013E-001,1.14822E+000,-2.51563E-002,0.00000E+000,2.39846E-002,9.47912E-001,0.00000E+000,-2.19142E-002,-8.23064E-002,1.00000E+000,21
959,1347,6.97630E+000,7.69528E-001,-2.64540E-002,5.28719E+000,-5.81846E-001,-5.04737E-002,5.31935E+000,1.21324E-002,4.64503E-001,0,8.10543E+001,-9.65851E+000,9.98297E-001,3.83758E+001,-4.31827E+001,9.97913E-001,1.32819E-001,-5.65569E-002,1.09176E-003,1.32825E-001,-5.65632E-002,3.30299E-001,1.33311E-001,1.14181E+000,-2.53212E-002,0.00000E+000,2.38195E-002,9.47908E-001,0.00000E+000,-1.11381E-002,-8.20291E-002,1.00000E+000,21
909,1347,3.23034E+000,6.79596E-001,-3.00653E-002,4.81587E+000,-6.33126E-001,-9.77517E-004,4.85731E+000,1.55173E-002,5.12877E-001,0,7.39763E+001,-1.05154E+001,9.98974E-001,3.04264E+001,-4.50535E+001,9.97568E-001,1.35245E-001,-5.83474E-002,-2.22659E-003,1.35271E-001,-5.83730E-002,-6.58868E-001,1.35693E-001,1.14474E+000,-1.46393E-002,0.00000E+000,8.26352E-003,9.47015E-001,0.00000E+000,-5.68607E-003,-8.88976E-002,1.00000E+000,21
899,1327,2.45476E+000,-5.59779E-001,1.53824E-002,4.73332E+000,-5.68895E-001,1.13083E-001,4.76872E+000,9.04597E-003,4.89083E-001,0,7.23923E+001,-9.70830E+000,9.98007E-001,2.83376E+001,-4.44089E+001,9.98036E-001,1.39845E-001,-5.86377E-002,-2.39383E-003,1.39874E-001,-5.86666E-002,-6.90889E-001,1.40478E-001,1.15004E+000,-1.24541E-002,0.00000E+000,6.05085E-003,9.46810E-001,0.00000E+000,-5.04100E-003,-8.95381E-002,1.00000E+000,21
899,1337,2.47155E+000,5.40542E-002,-2.37162E-002,4.73184E+000,-6.02167E-001,5.19989E-002,4.77028E+000,1.36012E-002,5.11003E-001,0,7.25708E+001,-1.01160E+001,9.99217E-001,2.86145E+001,-4.48310E+001,9.98902E-001,1.38074E-001,-5.86498E-002,-2.59071E-003,1.38108E-001,-5.86839E-002,-7.54368E-001,1.38626E-001,1.14801E+000,-1.25106E-002,0.00000E+000,5.71106E-003,9.46801E-001,0.00000E+000,-4.67596E-003,-8.95280E-002,1.00000E+000,21
899,1347,2.49922E+000,6.71864E-001,-1.41914E-002,4.73249E+000,-6.36584E-001,-1.72888E-003,4.77511E+000,1.16749E-002,5.00190E-001,0,7.27503E+001,-1.05577E+001,9.99124E-001,2.91672E+001,-4.53151E+001,9.98553E-001,1.36294E-001,-5.86662E-002,-2.79989E-003,1.36334E-001,-5.87064E-002,-8.22617E-001,1.36771E-001,1.14596E+000,-1.25939E-002,0.00000E+000,5.37019E-003,9.46787E-001,0.00000E+000,-4.30975E-003,-8.95130E-002,1.00000E+000,21
899,1317,2.45039E+000,-1.16344E+000,8.35955E-002,4.74161E+000,-5.29263E-001,1.76849E-001,4.77434E+000,1.19931E-002,4.91676E-001,0,7.23023E+001,-9.22187E+000,9.97593E-001,2.83182E+001,-4.38796E+001,9.96535E-001,1.41608E-001,-5.86285E-002,-2.20501E-003,1.41632E-001,-5.86527E-002,-6.30839E-001,1.42327E-001,1.15207E+000,-1.24149E-002,0.00000E+000,6.38966E-003,9.46817E-001,0.00000E+000,-5.40499E-003,-8.95451E-002,1.00000E+000,21
899,1307,2.44986E+000,-1.75782E+000,1.74797E-001,4.74808E+000,-4.84702E-001,2.37015E-001,4.77864E+000,1.21575E-002,4.35674E-001,0,7.21904E+001,-8.61229E+000,9.97748E-001,2.84106E+001,-4.32844E+001,9.95180E-001,1.43361E-001,-5.86220E-002,-2.02439E-003,1.43382E-001,-5.86423E-002,-5.74174E-001,1.44171E-001,1.15410E+000,-1.23931E-002,0.00000E+000,6.72722E-003,9.46821E-001,0.00000E+000,-5.76764E-003,-8.95490E-002,1.00000E+000,21
889,1327,1.71014E+000,-5.66900E-001,2.52364E-002,4.63673E+000,-5.72319E-001,1.11370E-001,4.67324E+000,7.77208E-003,4.97349E-001,0,7.09686E+001,-9.74368E+000,9.98674E-001,2.68591E+001,-4.46355E+001,9.98570E-001,1.40545E-001,-5.80215E-002,-3.06225E-003,1.40592E-001,-5.80688E-002,-8.83324E-001,1.41299E-001,1.15086E+000,-1.07097E-002,0.00000E+000,3.12551E-003,9.47466E-001,0.00000E+000,-2.32751E-003,-9.01942E-002,1.00000E+000,21
889,1337,1.72092E+000,4.64945E-002,-1.86837E-002,4.63051E+000,-6.04404E-001,5.07029E-002,4.67006E+000,1.22610E-002,5.02546E-001,0,7.10723E+001,-1.01346E+001,9.99125E-001,2.70332E+001,-4.50650E+001,9.98843E-001,1.38860E-001,-5.80223E-002,-3.10031E-003,1.38909E-001,-5.80711E-002,-9.01938E-001,1.39530E-001,1.14893E+000,-1.07595E-002,0.00000E+000,3.16002E-003,9.47467E-001,0.00000E+000,-2.92450E-003,-9.02095E-002,1.00000E+000,21
889,1347,1.75000E+000,6.62397E-001,-9.97979E-003,4.63335E+000,-6.39995E-001,-1.19303E-003,4.67734E+000,1.02736E-002,4.92912E-001,0,7.12791E+001,-1.06010E+001,9.98912E-001,2.76073E+001,-4.55777E+001,9.98514E-001,1.37165E-001,-5.80234E-002,-3.15018E-003,1.37216E-001,-5.80742E-002,-9.24383E-001,1.37754E-001,1.14698E+000,-1.08363E-002,0.00000E+000,3.19469E-003,9.47468E-001,0.00000E+000,-3.52417E-003,-9.02332E-002,1.00000E+000,21
969,1297,7.73690E+000,-2.23036E+000,2.34979E-001,5.45929E+000,-3.67051E-001,1.81256E-001,5.47461E+000,1.71548E-002,4.53942E-001,0,8.27876E+001,-6.72840E+000,9.98974E-001,4.02342E+001,-4.00390E+001,9.97519E-001,1.38316E-001,-5.62739E-002,7.00156E-004,1.38318E-001,-5.62765E-002,2.06153E-001,1.39116E-001,1.14833E+000,-2.70641E-002,0.00000E+000,2.54398E-002,9.47995E-001,0.00000E+000,-2.51689E-002,-7.98416E-002,1.00000E+000,21
969,1307,7.71388E+000,-1.64120E+000,1.35772E-001,5.43427E+000,-4.15328E-001,1.37793E-001,5.45186E+000,2.73774E-002,4.47239E-001,0,8.25747E+001,-7.39420E+000,9.98479E-001,3.97646E+001,-4.07202E+001,9.96643E-001,1.37225E-001,-5.62671E-002,8.09351E-004,1.37229E-001,-5.62705E-002,2.39654E-001,1.37967E-001,1.14701E+000,-2.70683E-002,0.00000E+000,2.54608E-002,9.47995E-001,0.00000E+000,-2.23414E-002,-7.98328E-002,1.00000E+000,21
969,1317,7.70727E+000,-1.04291E+000,5.53223E-002,5.41803E+000,-4.57896E-001,7.87258E-002,5.43791E+000,1.07390E-002,4.34858E-001,0,8.25418E+001,-7.95748E+000,9.99296E-001,3.95884E+001,-4.12999E+001,9.98693E-001,1.36125E-001,-5.62573E-002,9.11874E-004,1.36129E-001,-5.62616E-002,2.71569E-001,1.36810E-001,1.14568E+000,-2.70882E-002,0.00000E+000,2.54819E-002,9.47995E-001,0.00000E+000,-1.95106E-002,-7.97901E-002,1.00000E+000,21
889,1317,1.70213E+000,-1.16921E+000,9.19720E-002,4.64081E+000,-5.31959E-001,1.71508E-001,4.67435E+000,1.05269E-002,5.16030E-001,0,7.08271E+001,-9.24422E+000,9.98740E-001,2.67803E+001,-4.40726E+001,9.98182E-001,1.42224E-001,-5.80210E-002,-3.03046E-003,1.42269E-001,-5.80668E-002,-8.66838E-001,1.43067E-001,1.15279E+000,-1.06741E-002,0.00000E+000,3.09106E-003,9.47465E-001,0.00000E+000,-1.73158E-003,-9.01832E-002,1.00000E+000,21
969,1327,7.70408E+000,-4.32043E-001,1.00043E-003,5.40179E+000,-4.90494E-001,3.05008E-002,5.42410E+000,1.28621E-002,4.67701E-001,0,8.24638E+001,-8.40646E+000,9.98940E-001,3.95197E+001,-4.17188E+001,9.98792E-001,1.35012E-001,-5.62461E-002,1.01134E-003,1.35018E-001,-5.62515E-002,3.02957E-001,1.35642E-001,1.14436E+000,-2.71152E-002,0.00000E+000,2.55029E-002,9.47996E-001,0.00000E+000,-1.66736E-002,-7.97324E-002,1.00000E+000,21
889,1307,1.69798E+000,-1.76484E+000,1.85175E-001,4.64295E+000,-4.89451E-001,2.30677E-001,4.67438E+000,1.39003E-002,4.73884E-001,0,7.06540E+001,-8.66855E+000,9.98239E-001,2.68216E+001,-4.34926E+001,9.95878E-001,1.43892E-001,-5.80206E-002,-3.00605E-003,1.43937E-001,-5.80653E-002,-8.52760E-001,1.44829E-001,1.15472E+000,-1.06554E-002,0.00000E+000,3.05675E-003,9.47465E-001,0.00000E+000,-1.13805E-003,-9.01774E-002,1.00000E+000,21
969,1337,7.71011E+000,1.72796E-001,-3.13110E-002,5.38925E+000,-5.32216E-001,-2.06030E-002,5.41550E+000,1.37939E-002,4.11552E-001,0,8.24509E+001,-8.95497E+000,9.98777E-001,3.96381E+001,-4.23230E+001,9.98265E-001,1.33889E-001,-5.62327E-002,1.10575E-003,1.33895E-001,-5.62392E-002,3.33219E-001,1.34465E-001,1.14303E+000,-2.71537E-002,0.00000E+000,2.55241E-002,9.47996E-001,0.00000E+000,-1.38315E-002,-7.96501E-002,1.00000E+000,21
969,1347,7.71879E+000,7.98577E-001,-3.79084E-002,5.37456E+000,-5.59131E-001,-6.71256E-002,5.40398E+000,1.20157E-002,4.64432E-001,0,8.23796E+001,-9.29395E+000,9.98566E-001,3.98519E+001,-4.26073E+001,9.97932E-001,1.32749E-001,-5.62174E-002,1.19622E-003,1.32756E-001,-5.62250E-002,3.62683E-001,1.33273E-001,1.14169E+000,-2.72021E-002,0.00000E+000,2.55453E-002,9.47997E-001,0.00000E+000,-1.09696E-002,-7.95466E-002,1.00000E+000,21
879,1327,9.70147E-001,-5.68847E-001,4.31047E-002,4.54423E+000,-5.70379E-001,1.16989E-001,4.58138E+000,1.10501E-002,5.00225E-001,0,6.95788E+001,-9.71458E+000,9.98748E-001,2.54760E+001,-4.48017E+001,9.98552E-001,1.41170E-001,-5.82249E-002,-3.48210E-003,1.41231E-001,-5.82857E-002,-1.00017E+000,1.41947E-001,1.15160E+000,-9.22255E-003,0.00000E+000,9.43275E-004,9.47229E-001,0.00000E+000,-3.78945E-004,-8.95890E-002,1.00000E+000,21
879,1337,9.80061E-001,4.00215E-002,-8.48553E-003,4.53781E+000,-6.06101E-001,5.10978E-002,4.57839E+000,1.08490E-002,4.90923E-001,0,6.96972E+001,-1.01478E+001,9.98284E-001,2.56194E+001,-4.52939E+001,9.98027E-001,1.39663E-001,-5.82225E-002,-3.46336E-003,1.39723E-001,-5.82831E-002,-1.00238E+000,1.40361E-001,1.14986E+000,-9.26549E-003,0.00000E+000,1.11941E-003,9.47233E-001,0.00000E+000,-1.48868E-003,-8.96165E-002,1.00000E+000,21
879,1347,1.00496E+000,6.59346E-001,-4.64499E-003,4.53797E+000,-6.38530E-001,6.59055E-004,4.58267E+000,1.27347E-002,5.18296E-001,0,6.98573E+001,-1.05647E+001,9.98390E-001,2.61202E+001,-4.57272E+001,9.97973E-001,1.38141E-001,-5.82190E-002,-3.45394E-003,1.38202E-001,-5.82798E-002,-1.00741E+000,1.38766E-001,1.14811E+000,-9.33035E-003,0.00000E+000,1.29673E-003,9.47240E-001,0.00000E+000,-2.60591E-003,-8.96580E-002,1.00000E+000,21
879,1307,9.48593E-001,-1.76535E+000,2.02746E-001,4.53937E+000,-4.87843E-001,2.28775E-001,4.57123E+000,1.51348E-002,4.76865E-001,0,6.91211E+001,-8.62227E+000,9.97624E-001,2.52937E+001,-4.36330E+001,9.96126E-001,1.44164E-001,-5.82277E-002,-3.53739E-003,1.44226E-001,-5.82896E-002,-1.00100E+000,1.45106E-001,1.15505E+000,-9.17829E-003,0.00000E+000,5.92308E-004,9.47225E-001,0.00000E+000,1.83235E-003,-8.95607E-002,1.00000E+000,21
879,1317,9.58388E-001,-1.17007E+000,1.13042E-001,4.54428E+000,-5.28577E-001,1.79388E-001,4.57843E+000,1.06540E-002,4.38564E-001,0,6.93688E+001,-9.16776E+000,9.98837E-001,2.53472E+001,-4.42674E+001,9.98202E-001,1.42674E-001,-5.82267E-002,-3.50599E-003,1.42735E-001,-5.82879E-002,-9.99481E-001,1.43532E-001,1.15333E+000,-9.19140E-003,0.00000E+000,7.67149E-004,9.47226E-001,0.00000E+000,7.30754E-004,-8.95691E-002,1.00000E+000,21
979,1307,8.48685E+000,-1.62171E+000,1.37350E-001,5.54688E+000,-4.05536E-001,1.10809E-001,5.56279E+000,1.59317E-002,4.39678E-001,0,8.43145E+001,-7.19131E+000,9.99519E-001,4.17447E+001,-4.03277E+001,9.99192E-001,1.36294E-001,-5.59250E-002,7.27848E-004,1.36297E-001,-5.59278E-002,2.16950E-001,1.37025E-001,1.14588E+000,-2.86111E-002,0.00000E+000,2.64955E-002,9.48080E-001,0.00000E+000,-2.15925E-002,-7.70016E-002,1.00000E+000,21
979,1317,8.46693E+000,-1.01715E+000,5.78379E-002,5.51886E+000,-4.41442E-001,5.98731E-002,5.53681E+000,9.34647E-003,4.41529E-001,0,8.40740E+001,-7.66916E+000,9.99162E-001,4.13654E+001,-4.08055E+001,9.98610E-001,1.35538E-001,-5.59125E-002,8.75084E-004,1.35542E-001,-5.59165E-002,2.61880E-001,1.36232E-001,1.14496E+000,-2.86228E-002,0.00000E+000,2.66002E-002,9.48082E-001,0.00000E+000,-1.88207E-002,-7.69664E-002,1.00000E+000,21
979,1327,8.45711E+000,-4.10381E-001,-1.07823E-003,5.49680E+000,-4.77357E-001,1.10445E-002,5.51750E+000,1.06362E-002,4.54295E-001,0,8.39128E+001,-8.16448E+000,9.98258E-001,4.11839E+001,-4.12869E+001,9.97327E-001,1.34774E-001,-5.58979E-002,1.01973E-003,1.34779E-001,-5.59034E-002,3.06410E-001,1.35430E-001,1.14403E+000,-2.86405E-002,0.00000E+000,2.67050E-002,9.48084E-001,0.00000E+000,-1.60455E-002,-7.69133E-002,1.00000E+000,21
979,1337,8.45820E+000,2.02043E-001,-3.91441E-002,5.48148E+000,-5.10660E-001,-3.54642E-002,5.50533E+000,1.44307E-002,4.50641E-001,0,8.38413E+001,-8.61261E+000,9.97374E-001,4.12141E+001,-4.17340E+001,9.96544E-001,1.33999E-001,-5.58812E-002,1.16186E-003,1.34006E-001,-5.58883E-002,3.50571E-001,1.34619E-001,1.14311E+000,-2.86643E-002,0.00000E+000,2.68101E-002,9.48086E-001,0.00000E+000,-1.32634E-002,-7.68422E-002,1.00000E+000,21
979,1347,8.46637E+000,8.25573E-001,-3.70841E-002,5.46477E+000,-5.39568E-001,-7.94310E-002,5.49191E+000,1.50298E-002,4.53209E-001,0,8.37307E+001,-8.98432E+000,9.96412E-001,4.14357E+001,-4.20957E+001,9.95430E-001,1.33211E-001,-5.58600E-002,1.29926E-003,1.33220E-001,-5.58689E-002,3.93700E-001,1.33796E-001,1.14217E+000,-2.87002E-002,0.00000E+000,2.69158E-002,9.48091E-001,0.00000E+000,-1.04649E-002,-7.67342E-002,1.00000E+000,21
979,1297,8.48914E+000,-2.20968E+000,2.22402E-001,5.55570E+000,-3.53592E-001,1.60106E-001,5.56924E+000,1.37321E-002,4.69294E-001,0,8.42615E+001,-6.48198E+000,9.99165E-001,4.18644E+001,-3.95912E+001,9.98561E-001,1.37041E-001,-5.59366E-002,5.79399E-004,1.37043E-001,-5.59383E-002,1.72023E-001,1.37811E-001,1.14681E+000,-2.86017E-002,0.00000E+000,2.63908E-002,9.48079E-001,0.00000E+000,-2.43644E-002,-7.70298E-002,1.00000E+000,21
869,1317,2.04340E-001,-1.16943E+000,1.11980E-001,4.43862E+000,-5.23916E-001,1.72853E-001,4.47277E+000,8.55881E-003,4.59723E-001,0,6.78172E+001,-9.06821E+000,9.99023E-001,2.37101E+001,-4.43439E+001,9.98022E-001,1.42849E-001,-5.85235E-002,-3.59147E-003,1.42913E-001,-5.85875E-002,-1.02143E+000,1.43684E-001,1.15355E+000,-7.51703E-003,0.00000E+000,-9.01231E-004,9.46899E-001,0.00000E+000,2.42192E-003,-8.90121E-002,1.00000E+000,21
869,1327,2.17582E-001,-5.68547E-001,4.30859E-002,4.44052E+000,-5.64624E-001,1.13136E-001,4.47771E+000,1.13658E-002,5.10921E-001,0,6.80469E+001,-9.61372E+000,9.98447E-001,2.38640E+001,-4.48927E+001,9.98017E-001,1.41620E-001,-5.85218E-002,-3.56367E-003,1.41683E-001,-5.85853E-002,-1.01976E+000,1.42388E-001,1.15213E+000,-7.54156E-003,0.00000E+000,-6.92088E-004,9.46902E-001,0.00000E+000,8.87578E-004,-8.90386E-002,1.00000E+000,21
869,1337,2.33623E-001,3.66629E-002,1.71372E-003,4.43976E+000,-6.04763E-001,5.46180E-002,4.48110E+000,1.24351E-002,4.98140E-001,0,6.82273E+001,-1.01217E+001,9.97771E-001,2.41249E+001,-4.54662E+001,9.97288E-001,1.40382E-001,-5.85195E-002,-3.54086E-003,1.40445E-001,-5.85825E-002,-1.01955E+000,1.41087E-001,1.15070E+000,-7.57777E-003,0.00000E+000,-4.82323E-004,9.46908E-001,0.00000E+000,-6.51340E-004,-8.90777E-002,1.00000E+000,21
869,1347,2.55526E-001,6.56447E-001,-7.47608E-003,4.43966E+000,-6.33397E-001,3.15622E-003,4.48461E+000,1.58509E-002,4.99211E-001,0,6.83865E+001,-1.04850E+001,9.98382E-001,2.45519E+001,-4.58793E+001,9.97842E-001,1.39139E-001,-5.85166E-002,-3.52288E-003,1.39202E-001,-5.85793E-002,-1.02077E+000,1.39782E-001,1.14927E+000,-7.62508E-003,0.00000E+000,-2.72132E-004,9.46915E-001,0.00000E+000,-2.19338E-003,-8.91287E-002,1.00000E+000,21
869,1307,1.99267E-001,-1.76358E+000,2.14258E-001,4.43789E+000,-4.82021E-001,2.32405E-001,4.47003E+000,1.25255E-002,5.02201E-001,0,6.76004E+001,-8.53868E+000,9.97919E-001,2.37588E+001,-4.37142E+001,9.96996E-001,1.44069E-001,-5.85243E-002,-3.62550E-003,1.44134E-001,-5.85892E-002,-1.02490E+000,1.44972E-001,1.15496E+000,-7.50743E-003,0.00000E+000,-1.10934E-003,9.46897E-001,0.00000E+000,3.94865E-003,-8.90018E-002,1.00000E+000,21
989,1307,9.22890E+000,-1.58807E+000,1.23543E-001,5.63213E+000,-3.78869E-001,8.63942E-002,5.64552E+000,1.29586E-002,4.76674E-001,0,8.56248E+001,-6.75547E+000,9.98681E-001,4.32216E+001,-3.96654E+001,9.98173E-001,1.35519E-001,-5.58104E-002,6.09829E-004,1.35521E-001,-5.58124E-002,1.82618E-001,1.36221E-001,1.14494E+000,-2.94614E-002,0.00000E+000,2.68258E-002,9.47994E-001,0.00000E+000,-1.98980E-002,-7.44623E-002,1.00000E+000,21
989,1317,9.20688E+000,-9.81401E-001,4.12010E-002,5.60313E+000,-4.13815E-001,3.81480E-002,5.61852E+000,1.29956E-002,5.30931E-001,0,8.53621E+001,-7.22405E+000,9.99085E-001,4.28042E+001,-4.00766E+001,9.98272E-001,1.35051E-001,-5.57950E-002,8.07884E-004,1.35054E-001,-5.57984E-002,2.42537E-001,1.35732E-001,1.14435E+000,-2.94678E-002,0.00000E+000,2.70287E-002,9.47996E-001,0.00000E+000,-1.72033E-002,-7.44330E-002,1.00000E+000,21
989,1327,9.20867E+000,-3.77135E-001,-4.70789E-003,5.59061E+000,-4.54533E-001,-6.26038E-003,5.60906E+000,1.65498E-002,5.21068E-001,0,8.53314E+001,-7.78052E+000,9.98328E-001,4.28278E+001,-4.06327E+001,9.96951E-001,1.34575E-001,-5.57747E-002,1.00317E-003,1.34580E-001,-5.57800E-002,3.01946E-001,1.35235E-001,1.14376E+000,-2.94809E-002,0.00000E+000,2.72319E-002,9.48001E-001,0.00000E+000,-1.45051E-002,-7.43730E-002,1.00000E+000,21
989,1297,9.24626E+000,-2.18667E+000,2.16467E-001,5.65520E+000,-3.37295E-001,1.39654E-001,5.66697E+000,1.19975E-002,4.71800E-001,0,8.57760E+001,-6.20822E+000,9.98515E-001,4.35885E+001,-3.91272E+001,9.97809E-001,1.35979E-001,-5.58250E-002,4.11386E-004,1.35980E-001,-5.58259E-002,1.22889E-001,1.36703E-001,1.14552E+000,-2.94562E-002,0.00000E+000,2.66232E-002,9.47992E-001,0.00000E+000,-2.25885E-002,-7.44863E-002,1.00000E+000,21
989,1337,9.20933E+000,2.31107E-001,-3.04367E-002,5.57199E+000,-4.91910E-001,-5.27618E-002,5.59391E+000,1.28959E-002,4.38143E-001,0,8.52100E+001,-8.28476E+000,9.96999E-001,4.28747E+001,-4.12095E+001,9.96919E-001,1.34092E-001,-5.57512E-002,1.19587E-003,1.34100E-001,-5.57587E-002,3.60902E-001,1.34732E-001,1.14318E+000,-2.94985E-002,0.00000E+000,2.74348E-002,9.48007E-001,0.00000E+000,-1.18114E-002,-7.42922E-002,1.00000E+000,21
989,1347,9.21664E+000,8.53216E-001,-2.96119E-002,5.55652E+000,-5.20078E-001,-8.79742E-002,5.58150E+000,1.36165E-002,4.29527E-001,0,8.50894E+001,-8.67424E+000,9.98444E-001,4.30787E+001,-4.15948E+001,9.98536E-001,1.33600E-001,-5.57253E-002,1.38788E-003,1.33610E-001,-5.57354E-002,4.19987E-001,1.34220E-001,1.14259E+000,-2.95193E-002,0.00000E+000,2.76388E-002,9.48014E-001,0.00000E+000,-9.10316E-003,-7.41966E-002,1.00000E+000,21
859,1327,-5.31119E-001,-5.66155E-001,3.92329E-002,4.34006E+000,-5.57546E-001,1.04549E-001,4.37698E+000,1.08051E-002,5.24752E-001,0,6.65771E+001,-9.47419E+000,9.98014E-001,2.23079E+001,-4.49412E+001,9.97394E-001,1.41864E-001,-5.86001E-002,-3.48287E-003,1.41924E-001,-5.86605E-002,-9.95060E-001,1.42633E-001,1.15242E+000,-6.15364E-003,0.00000E+000,-1.72227E-003,9.46765E-001,0.00000E+000,1.50948E-003,-8.83036E-002,1.00000E+000,21
859,1337,-5.11689E-001,4.09002E-002,1.81025E-003,4.34299E+000,-5.94783E-001,5.06366E-002,4.38382E+000,1.26173E-002,5.29983E-001,0,6.67969E+001,-9.96795E+000,9.97797E-001,2.26310E+001,-4.54872E+001,9.97130E-001,1.40932E-001,-5.85995E-002,-3.48475E-003,1.40993E-001,-5.86603E-002,-1.00024E+000,1.41654E-001,1.15134E+000,-6.18049E-003,0.00000E+000,-1.55612E-003,9.46770E-001,0.00000E+000,-2.11094E-004,-8.83466E-002,1.00000E+000,21
859,1347,-4.88777E-001,6.52603E-001,-4.13828E-003,4.34343E+000,-6.31773E-001,-6.78686E-004,4.38914E+000,1.72804E-002,4.97080E-001,0,6.69655E+001,-1.04433E+001,9.98665E-001,2.30811E+001,-4.60506E+001,9.98100E-001,1.39993E-001,-5.85987E-002,-3.49083E-003,1.40055E-001,-5.86601E-002,-1.00672E+000,1.40669E-001,1.15026E+000,-6.21694E-003,0.00000E+000,-1.38935E-003,9.46775E-001,0.00000E+000,-1.93804E-003,-8.84049E-002,1.00000E+000,21
859,1307,-5.50868E-001,-1.75998E+000,2.15890E-001,4.33558E+000,-4.75987E-001,2.28230E-001,4.36759E+000,1.52816E-002,5.94047E-001,0,6.60905E+001,-8.43904E+000,9.98305E-001,2.21939E+001,-4.37135E+001,9.97853E-001,1.43705E-001,-5.86006E-002,-3.49146E-003,1.43766E-001,-5.86609E-002,-9.88435E-001,1.44574E-001,1.15456E+000,-6.12854E-003,0.00000E+000,-2.05272E-003,9.46762E-001,0.00000E+000,4.93138E-003,-8.82635E-002,1.00000E+000,21
859,1317,-5.40753E-001,-1.17165E+000,1.08262E-001,4.34135E+000,-5.23114E-001,1.63027E-001,4.37579E+000,1.19731E-002,5.13863E-001,0,6.64036E+001,-9.02521E+000,9.98139E-001,2.22090E+001,-4.44416E+001,9.96757E-001,1.42788E-001,-5.86004E-002,-3.48490E-003,1.42848E-001,-5.86607E-002,-9.91071E-001,1.43607E-001,1.15349E+000,-6.13580E-003,0.00000E+000,-1.88778E-003,9.46763E-001,0.00000E+000,3.22343E-003,-8.82751E-002,1.00000E+000,21
999,1337,9.95582E+000,2.55632E-001,-3.47529E-002,5.66348E+000,-4.71821E-001,-5.63315E-002,5.68338E+000,1.11962E-002,3.83296E-001,0,8.65472E+001,-7.97698E+000,9.99248E-001,4.44415E+001,-4.07486E+001,9.98613E-001,1.34015E-001,-5.56879E-002,1.04217E-003,1.34020E-001,-5.56936E-002,3.14754E-001,1.34656E-001,1.14306E+000,-2.99302E-002,0.00000E+000,2.73436E-002,9.47878E-001,0.00000E+000,-9.84427E-003,-7.15778E-002,1.00000E+000,21
999,1347,9.96837E+000,8.79433E-001,-2.72091E-002,5.65081E+000,-5.01444E-001,-9.46067E-002,5.67380E+000,9.81388E-003,3.87897E-001,0,8.64795E+001,-8.36665E+000,9.99389E-001,4.47382E+001,-4.11136E+001,9.98909E-001,1.33796E-001,-5.56613E-002,1.23582E-003,1.33804E-001,-5.56693E-002,3.73716E-001,1.34431E-001,1.14279E+000,-2.99406E-002,0.00000E+000,2.75576E-002,9.47886E-001,0.00000E+000,-7.35594E-003,-7.14814E-002,1.00000E+000,21
999,1307,9.97812E+000,-1.56053E+000,1.16525E-001,5.72411E+000,-3.58362E-001,6.89915E-002,5.73573E+000,8.59734E-003,4.69299E-001,0,8.70134E+001,-6.40771E+000,9.99111E-001,4.48271E+001,-3.91331E+001,9.98665E-001,1.34627E-001,-5.57439E-002,4.58479E-004,1.34629E-001,-5.57450E-002,1.37987E-001,1.35290E-001,1.14385E+000,-2.99144E-002,0.00000E+000,2.67075E-002,9.47865E-001,0.00000E+000,-1.72399E-002,-7.17243E-002,1.00000E+000,21
999,1317,9.96156E+000,-9.56806E-001,3.54793E-002,5.70019E+000,-3.95882E-001,2.05542E-002,5.71396E+000,1.46159E-002,5.13596E-001,0,8.68304E+001,-6.92426E+000,9.98430E-001,4.44968E+001,-3.95951E+001,9.95098E-001,1.34429E-001,-5.57286E-002,6.54155E-004,1.34432E-001,-5.57309E-002,1.97098E-001,1.35084E-001,1.14359E+000,-2.99175E-002,0.00000E+000,2.69195E-002,9.47868E-001,0.00000E+000,-1.47752E-002,-7.16961E-002,1.00000E+000,21
999,1327,9.95958E+000,-3.57655E-001,-1.25036E-002,5.68534E+000,-4.40408E-001,-1.91072E-002,5.70241E+000,1.67435E-002,4.96994E-001,0,8.67512E+001,-7.55513E+000,9.98523E-001,4.44566E+001,-4.02281E+001,9.96838E-001,1.34225E-001,-5.57099E-002,8.48866E-004,1.34229E-001,-5.57137E-002,2.56062E-001,1.34873E-001,1.14332E+000,-2.99228E-002,0.00000E+000,2.71317E-002,9.47872E-001,0.00000E+000,-1.23083E-002,-7.16469E-002,1.00000E+000,21
999,1297,9.99832E+000,-2.16581E+000,2.12062E-001,5.74964E+000,-3.23679E-001,1.22962E-001,5.76005E+000,9.56397E-003,4.90462E-001,0,8.71999E+001,-5.97886E+000,9.98289E-001,4.52414E+001,-3.86924E+001,9.96534E-001,1.34819E-001,-5.57578E-002,2.62461E-004,1.34820E-001,-5.57581E-002,7.89070E-002,1.35489E-001,1.14412E+000,-2.99122E-002,0.00000E+000,2.64956E-002,9.47864E-001,0.00000E+000,-1.97023E-002,-7.17447E-002,1.00000E+000,21
849,1337,-1.25928E+000,4.06473E-002,8.07936E-003,4.24267E+000,-5.91743E-001,4.89538E-002,4.28402E+000,1.50645E-002,5.52359E-001,0,6.53040E+001,-9.89270E+000,9.98597E-001,2.11200E+001,-4.55962E+001,9.97976E-001,1.41235E-001,-5.84330E-002,-3.16994E-003,1.41285E-001,-5.84833E-002,-9.09325E-001,1.41981E-001,1.15169E+000,-4.96693E-003,0.00000E+000,-1.95069E-003,9.46815E-001,0.00000E+000,-2.02509E-004,-8.70268E-002,1.00000E+000,21
849,1347,-1.24129E+000,6.48095E-001,-5.35744E-003,4.24102E+000,-6.29777E-001,2.82402E-003,4.28753E+000,1.33036E-002,4.92204E-001,0,6.54249E+001,-1.03992E+001,9.98840E-001,2.14779E+001,-4.62250E+001,9.98487E-001,1.40648E-001,-5.84322E-002,-3.16634E-003,1.40699E-001,-5.84826E-002,-9.10971E-001,1.41364E-001,1.15102E+000,-4.98694E-003,0.00000E+000,-1.79012E-003,9.46820E-001,0.00000E+000,-1.84968E-003,-8.70757E-002,1.00000E+000,21
849,1357,-1.21013E+000,1.26940E+000,2.71011E-002,4.24208E+000,-6.63548E-001,-4.80817E-002,4.29393E+000,1.11139E-002,4.89937E-001,0,6.55937E+001,-1.08283E+001,9.98980E-001,2.21471E+001,-4.67137E+001,9.98750E-001,1.40053E-001,-5.84311E-002,-3.16729E-003,1.40103E-001,-5.84816E-002,-9.13982E-001,1.40739E-001,1.15034E+000,-5.01751E-003,0.00000E+000,-1.62804E-003,9.46827E-001,0.00000E+000,-3.51243E-003,-8.71503E-002,1.00000E+000,21
849,1327,-1.27253E+000,-5.62504E-001,4.11404E-002,4.24466E+000,-5.51015E-001,9.29174E-002,4.28129E+000,1.47342E-002,5.22103E-001,0,6.51912E+001,-9.32060E+000,9.98783E-001,2.08825E+001,-4.49902E+001,9.98255E-001,1.41819E-001,-5.84337E-002,-3.17554E-003,1.41869E-001,-5.84840E-002,-9.08275E-001,1.42596E-001,1.15237E+000,-4.95137E-003,0.00000E+000,-2.11123E-003,9.46812E-001,0.00000E+000,1.44441E-003,-8.69888E-002,1.00000E+000,21
1009,1337,1.07092E+001,2.90742E-001,-4.35608E-002,5.76305E+000,-4.43500E-001,-5.67380E-002,5.78036E+000,1.52009E-002,4.28790E-001,0,8.79915E+001,-7.54744E+000,9.99239E-001,4.61110E+001,-4.00632E+001,9.98991E-001,1.33869E-001,-5.55838E-002,7.44450E-004,1.33871E-001,-5.55868E-002,2.25138E-001,1.34511E-001,1.14287E+000,-3.00682E-002,0.00000E+000,2.67712E-002,9.47836E-001,0.00000E+000,-8.18161E-003,-6.92857E-002,1.00000E+000,21
1009,1347,1.07171E+001,8.95762E-001,-2.82978E-002,5.74357E+000,-4.91516E-001,-9.64035E-002,5.76536E+000,1.00002E-002,4.08364E-001,0,8.78313E+001,-8.23495E+000,9.99663E-001,4.63472E+001,-4.07471E+001,9.99364E-001,1.33862E-001,-5.55630E-002,8.94038E-004,1.33867E-001,-5.55672E-002,2.70413E-001,1.34509E-001,1.14285E+000,-3.00690E-002,0.00000E+000,2.69246E-002,9.47843E-001,0.00000E+000,-6.16482E-003,-6.92008E-002,1.00000E+000,21
1009,1297,1.07447E+001,-2.14430E+000,2.05169E-001,5.83952E+000,-3.07412E-001,1.10632E-001,5.84866E+000,1.25218E-002,4.11450E-001,0,8.85378E+001,-5.68513E+000,9.97388E-001,4.68069E+001,-3.82917E+001,9.95684E-001,1.33852E-001,-5.56348E-002,1.47773E-004,1.33852E-001,-5.56349E-002,4.46825E-002,1.34486E-001,1.14295E+000,-3.00670E-002,0.00000E+000,2.61618E-002,9.47827E-001,0.00000E+000,-1.61923E-002,-6.94126E-002,1.00000E+000,21
1009,1307,1.07288E+001,-1.53686E+000,1.13285E-001,5.81826E+000,-3.39409E-001,6.03620E-002,5.82846E+000,1.23532E-002,4.28950E-001,0,8.84030E+001,-6.11214E+000,9.98517E-001,4.64667E+001,-3.86852E+001,9.98101E-001,1.33862E-001,-5.56244E-002,2.96787E-004,1.33863E-001,-5.56248E-002,8.97402E-002,1.34498E-001,1.14293E+000,-3.00671E-002,0.00000E+000,2.63138E-002,9.47828E-001,0.00000E+000,-1.41950E-002,-6.93959E-002,1.00000E+000,21
1009,1317,1.07185E+001,-9.32697E-001,4.36046E-002,5.80021E+000,-3.76589E-001,2.20643E-002,5.81247E+000,1.22031E-002,4.48963E-001,0,8.82732E+001,-6.63921E+000,9.98889E-001,4.62551E+001,-3.91745E+001,9.98373E-001,1.33868E-001,-5.56128E-002,4.45923E-004,1.33869E-001,-5.56139E-002,1.34838E-001,1.34506E-001,1.14291E+000,-3.00674E-002,0.00000E+000,2.64660E-002,9.47830E-001,0.00000E+000,-1.21942E-002,-6.93720E-002,1.00000E+000,21
849,1317,-1.28920E+000,-1.16162E+000,1.13022E-001,4.24016E+000,-5.09161E-001,1.60834E-001,4.27365E+000,1.53654E-002,5.88702E-001,0,6.48978E+001,-8.82059E+000,9.98465E-001,2.06823E+001,-4.43587E+001,9.97214E-001,1.42398E-001,-5.84342E-002,-3.18249E-003,1.42448E-001,-5.84846E-002,-9.07637E-001,1.43206E-001,1.15304E+000,-4.93891E-003,0.00000E+000,-2.27130E-003,9.46809E-001,0.00000E+000,3.08652E-003,-8.69584E-002,1.00000E+000,21
1009,1327,1.07135E+001,-3.25332E-001,-5.25661E-003,5.78060E+000,-4.14850E-001,-2.56572E-002,5.79552E+000,1.18260E-002,4.31423E-001,0,8.81482E+001,-7.14455E+000,9.99267E-001,4.61673E+001,-3.96778E+001,9.98996E-001,1.33871E-001,-5.55980E-002,5.95327E-004,1.33872E-001,-5.55999E-002,1.80026E-001,1.34511E-001,1.14289E+000,-3.00678E-002,0.00000E+000,2.66186E-002,9.47833E-001,0.00000E+000,-1.01872E-002,-6.93267E-002,1.00000E+000,21
849,1307,-1.30323E+000,-1.75769E+000,2.15593E-001,4.23049E+000,-4.69021E-001,2.21131E-001,4.26215E+000,1.68659E-002,5.75535E-001,0,6.45447E+001,-8.30000E+000,9.98377E-001,2.05955E+001,-4.37845E+001,9.97517E-001,1.42972E-001,-5.84344E-002,-3.19281E-003,1.43022E-001,-5.84850E-002,-9.07982E-001,1.43811E-001,1.15371E+000,-4.93435E-003,0.00000E+000,-2.43084E-003,9.46808E-001,0.00000E+000,4.72322E-003,-8.69473E-002,1.00000E+000,21
839,1337,-2.00829E+000,3.19703E-002,2.91622E-002,4.14029E+000,-5.95386E-001,6.05690E-002,4.18331E+000,2.83734E-002,5.31613E-001,0,6.37360E+001,-9.95960E+000,9.98863E-001,1.96259E+001,-4.58892E+001,9.98006E-001,1.41307E-001,-5.84945E-002,-2.69380E-003,1.41343E-001,-5.85308E-002,-7.72296E-001,1.42037E-001,1.15178E+000,-3.95352E-003,0.00000E+000,-1.82953E-003,9.46633E-001,0.00000E+000,-7.47760E-004,-8.55267E-002,1.00000E+000,21
839,1347,-1.99018E+000,6.41870E-001,-3.25262E-003,4.14084E+000,-6.29718E-001,4.96454E-003,4.18845E+000,1.09389E-002,4.86333E-001,0,6.39207E+001,-1.03896E+001,9.98968E-001,1.99426E+001,-4.64333E+001,9.98563E-001,1.40913E-001,-5.84934E-002,-2.67898E-003,1.40949E-001,-5.85294E-002,-7.69572E-001,1.41622E-001,1.15133E+000,-3.96557E-003,0.00000E+000,-1.65365E-003,9.46637E-001,0.00000E+000,-2.44512E-003,-8.55721E-002,1.00000E+000,21
839,1357,-1.95771E+000,1.26790E+000,2.80574E-002,4.14434E+000,-6.57786E-001,-4.27721E-002,4.19643E+000,8.94997E-003,4.88029E-001,0,6.41149E+001,-1.07411E+001,9.99188E-001,2.06326E+001,-4.68463E+001,9.98907E-001,1.40512E-001,-5.84916E-002,-2.66746E-003,1.40548E-001,-5.85273E-002,-7.67813E-001,1.41201E-001,1.15087E+000,-3.98541E-003,0.00000E+000,-1.47610E-003,9.46645E-001,0.00000E+000,-4.15849E-003,-8.56467E-002,1.00000E+000,21
1019,1337,1.14684E+001,3.18422E-001,-3.73775E-002,5.86196E+000,-4.26088E-001,-6.87520E-002,5.87783E+000,1.31164E-002,4.98513E-001,0,8.94644E+001,-7.27920E+000,9.99050E-001,4.79042E+001,-3.95129E+001,9.98924E-001,1.33708E-001,-5.55102E-002,4.53992E-004,1.33709E-001,-5.55113E-002,1.37469E-001,1.34349E-001,1.14268E+000,-3.01260E-002,0.00000E+000,2.61592E-002,9.47818E-001,0.00000E+000,-6.56327E-003,-6.77199E-002,1.00000E+000,21
1019,1347,1.14682E+001,9.23231E-001,-3.36523E-002,5.83992E+000,-4.71469E-001,-9.47705E-002,5.85969E+000,1.20295E-002,4.39298E-001,0,8.92208E+001,-7.92783E+000,9.99306E-001,4.79900E+001,-4.01935E+001,9.99114E-001,1.33849E-001,-5.54948E-002,5.84804E-004,1.33851E-001,-5.54967E-002,1.76961E-001,1.34500E-001,1.14283E+000,-3.01209E-002,0.00000E+000,2.62911E-002,9.47823E-001,0.00000E+000,-4.85394E-003,-6.76627E-002,1.00000E+000,21
839,1327,-2.03502E+000,-5.62739E-001,4.08528E-002,4.13314E+000,-5.43856E-001,1.05250E-001,4.17010E+000,2.53404E-002,5.35765E-001,0,6.34811E+001,-9.22808E+000,9.99148E-001,1.91309E+001,-4.50894E+001,9.98304E-001,1.41699E-001,-5.84958E-002,-2.70814E-003,1.41735E-001,-5.85324E-002,-7.74883E-001,1.42449E-001,1.15223E+000,-3.94007E-003,0.00000E+000,-2.00579E-003,9.46627E-001,0.00000E+000,9.53144E-004,-8.54762E-002,1.00000E+000,21
1019,1327,1.14649E+001,-3.01643E-001,-1.39949E-002,5.87670E+000,-3.97419E-001,-3.13133E-002,5.89021E+000,1.27238E-002,4.47207E-001,0,8.95590E+001,-6.87307E+000,9.98894E-001,4.78110E+001,-3.91862E+001,9.98640E-001,1.33565E-001,-5.55241E-002,3.23433E-004,1.33565E-001,-5.55247E-002,9.80029E-002,1.34196E-001,1.14252E+000,-3.01303E-002,0.00000E+000,2.60273E-002,9.47815E-001,0.00000E+000,-8.27189E-003,-6.77678E-002,1.00000E+000,21
1019,1317,1.14711E+001,-9.12773E-001,3.83246E-002,5.89399E+000,-3.63929E-001,3.76426E-003,5.90522E+000,1.35073E-002,4.59571E-001,0,8.96922E+001,-6.42710E+000,9.99101E-001,4.79247E+001,-3.87529E+001,9.98348E-001,1.33419E-001,-5.55352E-002,1.93833E-004,1.33419E-001,-5.55354E-002,5.87752E-002,1.34041E-001,1.14237E+000,-3.01329E-002,0.00000E+000,2.58958E-002,9.47812E-001,0.00000E+000,-9.97590E-003,-6.77968E-002,1.00000E+000,21
839,1317,-2.04093E+000,-1.16013E+000,1.12629E-001,4.13521E+000,-5.01900E-001,1.52768E-001,4.16835E+000,1.26552E-002,5.24721E-001,0,6.33530E+001,-8.66711E+000,9.98501E-001,1.90975E+001,-4.44665E+001,9.96762E-001,1.42086E-001,-5.84963E-002,-2.72584E-003,1.42123E-001,-5.85333E-002,-7.78440E-001,1.42857E-001,1.15268E+000,-3.93455E-003,0.00000E+000,-2.18122E-003,9.46625E-001,0.00000E+000,2.64613E-003,-8.54554E-002,1.00000E+000,21
1019,1297,1.14906E+001,-2.11909E+000,1.88418E-001,5.92977E+000,-2.87141E-001,9.45123E-002,5.93747E+000,1.29326E-002,4.22992E-001,0,8.98928E+001,-5.35893E+000,9.98984E-001,4.83494E+001,-3.77680E+001,9.98277E-001,1.33119E-001,-5.55550E-002,-6.42530E-005,1.33119E-001,-5.55550E-002,-1.95121E-002,1.33724E-001,1.14206E+000,-3.01368E-002,0.00000E+000,2.56336E-002,9.47809E-001,0.00000E+000,-1.33727E-002,-6.78398E-002,1.00000E+000,21
1019,1307,1.14761E+001,-1.51481E+000,1.02114E-001,5.90910E+000,-3.24580E-001,4.67321E-002,5.91819E+000,1.66118E-002,4.82170E-001,0,8.97606E+001,-5.87133E+000,9.99189E-001,4.80414E+001,-3.81993E+001,9.98355E-001,1.33270E-001,-5.55459E-002,6.47932E-005,1.33270E-001,-5.55459E-002,1.96613E-002,1.33884E-001,1.14222E+000,-3.01353E-002,0.00000E+000,2.57649E-002,9.47810E-001,0.00000E+000,-1.16721E-002,-6.78235E-002,1.00000E+000,21
839,1307,-2.04710E+000,-1.75324E+000,2.15406E-001,4.13285E+000,-4.58980E-001,2.10949E-001,4.16361E+000,1.13175E-002,5.01709E-001,0,6.31193E+001,-8.10087E+000,9.98034E-001,1.91335E+001,-4.38492E+001,9.96262E-001,1.42468E-001,-5.84966E-002,-2.74471E-003,1.42506E-001,-5.85341E-002,-7.82331E-001,1.43261E-001,1.15313E+000,-3.93185E-003,0.00000E+000,-2.35613E-003,9.46624E-001,0.00000E+000,4.33405E-003,-8.54453E-002,1.00000E+000,21
829,1337,-2.75726E+000,3.21603E-002,1.57680E-002,4.04075E+000,-5.87325E-001,5.34990E-002,4.08356E+000,2.03640E-002,5.44526E-001,0,6.22684E+001,-9.82934E+000,9.97960E-001,1.80578E+001,-4.59539E+001,9.97128E-001,1.40961E-001,-5.84809E-002,-2.19970E-003,1.40985E-001,-5.85052E-002,-6.31829E-001,1.41663E-001,1.15138E+000,-3.22429E-003,0.00000E+000,-1.44030E-003,9.46527E-001,0.00000E+000,-1.32586E-003,-8.40610E-002,1.00000E+000,21
829,1347,-2.73535E+000,6.42606E-001,6.48776E-003,4.04268E+000,-6.24248E-001,8.49504E-003,4.09060E+000,1.00834E-002,5.15897E-001,0,6.24383E+001,-1.03076E+001,9.98015E-001,1.84887E+001,-4.65331E+001,9.97846E-001,1.40712E-001,-5.84836E-002,-2.24680E-003,1.40737E-001,-5.85090E-002,-6.46150E-001,1.41402E-001,1.15110E+000,-3.23289E-003,0.00000E+000,-1.37806E-003,9.46529E-001,0.00000E+000,-3.14560E-003,-8.41165E-002,1.00000E+000,21
829,1357,-2.70636E+000,1.26594E+000,3.21488E-002,4.04435E+000,-6.53895E-001,-3.78641E-002,4.09705E+000,9.78945E-003,5.30113E-001,0,6.26008E+001,-1.06903E+001,9.98838E-001,1.91134E+001,-4.69714E+001,9.98844E-001,1.40459E-001,-5.84873E-002,-2.29562E-003,1.40485E-001,-5.85138E-002,-6.61013E-001,1.41136E-001,1.15082E+000,-3.24464E-003,0.00000E+000,-1.31552E-003,9.46531E-001,0.00000E+000,-4.97428E-003,-8.41923E-002,1.00000E+000,21
1029,1337,1.22071E+001,3.36058E-001,-4.40188E-002,5.94576E+000,-4.12938E-001,-6.82869E-002,5.96048E+000,1.16603E-002,4.63460E-001,0,9.06676E+001,-7.08290E+000,9.98566E-001,4.93577E+001,-3.91449E+001,9.98104E-001,1.33697E-001,-5.52885E-002,2.58507E-004,1.33697E-001,-5.52888E-002,7.83728E-002,1.34362E-001,1.14266E+000,-2.99750E-002,0.00000E+000,2.55463E-002,9.47963E-001,0.00000E+000,-4.70912E-003,-6.64708E-002,1.00000E+000,21
1029,1347,1.22091E+001,9.54557E-001,-4.39396E-002,5.92479E+000,-4.46436E-001,-1.01768E-001,5.94246E+000,1.12050E-002,4.78145E-001,0,9.04629E+001,-7.55318E+000,9.98903E-001,4.94696E+001,-3.95668E+001,9.98251E-001,1.33958E-001,-5.52725E-002,3.95833E-004,1.33959E-001,-5.52733E-002,1.19851E-001,1.34639E-001,1.14295E+000,-2.99647E-002,0.00000E+000,2.56923E-002,9.47968E-001,0.00000E+000,-3.10611E-003,-6.64147E-002,1.00000E+000,21
1029,1327,1.22140E+001,-2.78575E-001,-1.25314E-002,5.96837E+000,-3.79689E-001,-3.43198E-002,5.98054E+000,1.24188E-002,4.35728E-001,0,9.08889E+001,-6.62003E+000,9.98653E-001,4.94428E+001,-3.87405E+001,9.98269E-001,1.33434E-001,-5.53016E-002,1.22786E-004,1.33434E-001,-5.53016E-002,3.72749E-002,1.34084E-001,1.14236E+000,-2.99821E-002,0.00000E+000,2.54007E-002,9.47959E-001,0.00000E+000,-6.30774E-003,-6.65093E-002,1.00000E+000,21
829,1327,-2.77868E+000,-5.63352E-001,4.72852E-002,4.03491E+000,-5.39340E-001,9.90514E-002,4.07201E+000,1.95467E-002,5.59532E-001,0,6.20299E+001,-9.16401E+000,9.98623E-001,1.76900E+001,-4.52017E+001,9.98347E-001,1.41205E-001,-5.84788E-002,-2.15367E-003,1.41229E-001,-5.85020E-002,-6.17862E-001,1.41920E-001,1.15166E+000,-3.21756E-003,0.00000E+000,-1.50230E-003,9.46525E-001,0.00000E+000,4.87060E-004,-8.40176E-002,1.00000E+000,21
829,1307,-2.78267E+000,-1.76049E+000,2.33768E-001,4.04322E+000,-4.61339E-001,2.19817E-001,4.07539E+000,1.38557E-002,4.57356E-001,0,6.17573E+001,-8.13956E+000,9.98347E-001,1.78459E+001,-4.41180E+001,9.96222E-001,1.41683E-001,-5.84770E-002,-2.06561E-003,1.41704E-001,-5.84983E-002,-5.91198E-001,1.42420E-001,1.15222E+000,-3.21221E-003,0.00000E+000,-1.62577E-003,9.46524E-001,0.00000E+000,4.09723E-003,-8.39831E-002,1.00000E+000,21
829,1317,-2.78530E+000,-1.16264E+000,1.22653E-001,4.03753E+000,-4.99137E-001,1.56887E-001,4.07129E+000,1.57754E-002,4.96105E-001,0,6.18800E+001,-8.61754E+000,9.98287E-001,1.76542E+001,-4.46400E+001,9.97660E-001,1.41446E-001,-5.84775E-002,-2.10901E-003,1.41468E-001,-5.84997E-002,-6.04327E-001,1.42172E-001,1.15194E+000,-3.21357E-003,0.00000E+000,-1.56412E-003,9.46524E-001,0.00000E+000,2.29466E-003,-8.39919E-002,1.00000E+000,21
1029,1317,1.22208E+001,-8.93550E-001,3.44493E-002,5.98652E+000,-3.51496E-001,-3.37962E-003,5.99683E+000,1.34236E-002,4.46206E-001,0,9.10517E+001,-6.21691E+000,9.99160E-001,4.95549E+001,-3.83576E+001,9.98289E-001,1.33170E-001,-5.53129E-002,-1.15319E-005,1.33170E-001,-5.53129E-002,-3.50552E-003,1.33804E-001,1.14207E+000,-2.99873E-002,0.00000E+000,2.52559E-002,9.47957E-001,0.00000E+000,-7.89816E-003,-6.65372E-002,1.00000E+000,21
1029,1307,1.22312E+001,-1.49541E+000,1.13312E-001,6.00573E+000,-3.12055E-001,4.83138E-002,6.01403E+000,1.18921E-002,4.87991E-001,0,9.11477E+001,-5.69721E+000,9.99221E-001,4.97849E+001,-3.78249E+001,9.97318E-001,1.32903E-001,-5.53231E-002,-1.45240E-004,1.32903E-001,-5.53232E-002,-4.42109E-002,1.33523E-001,1.14178E+000,-2.99912E-002,0.00000E+000,2.51113E-002,9.47955E-001,0.00000E+000,-9.48604E-003,-6.65588E-002,1.00000E+000,21
1029,1297,1.22434E+001,-2.09614E+000,1.94188E-001,6.02462E+000,-2.71051E-001,9.24109E-002,6.03142E+000,1.12932E-002,4.65602E-001,0,9.12641E+001,-5.13241E+000,9.98889E-001,5.00479E+001,-3.73105E+001,9.97689E-001,1.32633E-001,-5.53325E-002,-2.78853E-004,1.32633E-001,-5.53329E-002,-8.49998E-002,1.33239E-001,1.14149E+000,-2.99942E-002,0.00000E+000,2.49665E-002,9.47953E-001,0.00000E+000,-1.10768E-002,-6.65751E-002,1.00000E+000,21
819,1317,-3.52714E+000,-1.17212E+000,1.31974E-001,3.94124E+000,-5.04133E-001,1.56660E-001,3.97644E+000,1.52973E-002,4.84509E-001,0,6.04422E+001,-8.68408E+000,9.97945E-001,1.62521E+001,-4.49107E+001,9.96695E-001,1.40456E-001,-5.82909E-002,-1.64654E-003,1.40469E-001,-5.83045E-002,-4.74630E-001,1.41143E-001,1.15080E+000,-2.94166E-003,0.00000E+000,-8.41427E-004,9.46572E-001,0.00000E+000,1.51928E-003,-8.23590E-002,1.00000E+000,21
819,1327,-3.52356E+000,-5.75404E-001,4.99973E-002,3.93789E+000,-5.44837E-001,1.03140E-001,3.97674E+000,1.52271E-002,4.90924E-001,0,6.05675E+001,-9.22322E+000,9.98402E-001,1.62251E+001,-4.55287E+001,9.97476E-001,1.40305E-001,-5.82931E-002,-1.73942E-003,1.40321E-001,-5.83083E-002,-5.01771E-001,1.40986E-001,1.15062E+000,-2.94355E-003,0.00000E+000,-8.88352E-004,9.46572E-001,0.00000E+000,-1.27776E-004,-8.23768E-002,1.00000E+000,21
819,1337,-3.50548E+000,3.15521E-002,1.21538E-002,3.94117E+000,-5.81642E-001,5.46675E-002,3.98424E+000,1.26607E-002,5.41687E-001,0,6.07720E+001,-9.72548E+000,9.97899E-001,1.65287E+001,-4.60601E+001,9.97695E-001,1.40151E-001,-5.82975E-002,-1.83379E-003,1.40168E-001,-5.83144E-002,-5.29389E-001,1.40826E-001,1.15045E+000,-2.94754E-003,0.00000E+000,-9.35553E-004,9.46571E-001,0.00000E+000,-1.78451E-003,-8.24145E-002,1.00000E+000,21
819,1307,-3.53272E+000,-1.76655E+000,2.19437E-001,3.93956E+000,-4.64512E-001,2.00511E-001,3.97192E+000,1.46733E-002,5.06786E-001,0,6.02684E+001,-8.13499E+000,9.98355E-001,1.62622E+001,-4.42546E+001,9.96808E-001,1.40603E-001,-5.82896E-002,-1.55437E-003,1.40615E-001,-5.83017E-002,-4.47739E-001,1.41296E-001,1.15097E+000,-2.94060E-003,0.00000E+000,-7.94677E-004,9.46572E-001,0.00000E+000,3.16020E-003,-8.23489E-002,1.00000E+000,21
819,1347,-3.47981E+000,6.47686E-001,7.62191E-003,3.94665E+000,-6.13212E-001,1.25366E-002,3.99402E+000,1.14563E-002,5.37009E-001,0,6.09845E+001,-1.01347E+001,9.98765E-001,1.70311E+001,-4.65513E+001,9.98795E-001,1.39994E-001,-5.83034E-002,-1.92919E-003,1.40013E-001,-5.83222E-002,-5.57348E-001,1.40662E-001,1.15027E+000,-2.95298E-003,0.00000E+000,-9.82913E-004,9.46569E-001,0.00000E+000,-3.44682E-003,-8.24659E-002,1.00000E+000,21
819,1357,-3.45336E+000,1.25750E+000,3.65875E-002,3.94545E+000,-6.56350E-001,-3.33212E-002,3.99981E+000,1.36546E-002,5.23665E-001,0,6.11045E+001,-1.07170E+001,9.98575E-001,1.76245E+001,-4.72212E+001,9.98426E-001,1.39834E-001,-5.83115E-002,-2.02600E-003,1.39854E-001,-5.83322E-002,-5.85756E-001,1.40494E-001,1.15010E+000,-2.96042E-003,0.00000E+000,-1.03048E-003,9.46567E-001,0.00000E+000,-5.11633E-003,-8.25363E-002,1.00000E+000,21
1039,1337,1.29571E+001,3.59039E-001,-5.20268E-002,6.03873E+000,-3.96803E-001,-7.60387E-002,6.05223E+000,1.08232E-002,4.61667E-001,0,9.20350E+001,-6.81976E+000,9.98861E-001,5.09882E+001,-3.86733E+001,9.97802E-001,1.33742E-001,-5.49622E-002,-1.10559E-004,1.33742E-001,-5.49623E-002,-3.35687E-002,1.34447E-001,1.14271E+000,-2.98782E-002,0.00000E+000,2.46582E-002,9.48234E-001,0.00000E+000,-2.93314E-003,-6.55407E-002,1.00000E+000,21
1039,1347,1.29575E+001,9.67490E-001,-4.41823E-002,6.01652E+000,-4.38269E-001,-9.99802E-002,6.03329E+000,1.04050E-002,4.21230E-001,0,9.17805E+001,-7.43841E+000,9.99383E-001,5.10877E+001,-3.92939E+001,9.98830E-001,1.34108E-001,-5.49527E-002,-2.11872E-005,1.34108E-001,-5.49527E-002,-6.42087E-003,1.34834E-001,1.14313E+000,-2.98637E-002,0.00000E+000,2.47179E-002,9.48236E-001,0.00000E+000,-1.48435E-003,-6.54907E-002,1.00000E+000,21
1039,1317,1.29663E+001,-8.64279E-001,2.96677E-002,6.07618E+000,-3.27001E-001,-4.14762E-003,6.08497E+000,1.08368E-002,4.24604E-001,0,9.23392E+001,-5.84561E+000,9.98970E-001,5.11250E+001,-3.78096E+001,9.98083E-001,1.33004E-001,-5.49772E-002,-2.84831E-004,1.33005E-001,-5.49777E-002,-8.68146E-002,1.33669E-001,1.14187E+000,-2.98962E-002,0.00000E+000,2.45389E-002,9.48232E-001,0.00000E+000,-5.82785E-003,-6.56033E-002,1.00000E+000,21
1039,1327,1.29618E+001,-2.57478E-001,-1.87459E-002,6.05954E+000,-3.63733E-001,-3.95808E-002,6.07057E+000,9.93949E-003,4.02136E-001,0,9.22191E+001,-6.36994E+000,9.98997E-001,5.10445E+001,-3.83198E+001,9.98204E-001,1.33373E-001,-5.49702E-002,-1.98487E-004,1.33373E-001,-5.49704E-002,-6.03814E-002,1.34058E-001,1.14229E+000,-2.98884E-002,0.00000E+000,2.45984E-002,9.48233E-001,0.00000E+000,-4.38592E-003,-6.55763E-002,1.00000E+000,21
1039,1307,1.29776E+001,-1.47402E+000,9.05242E-002,6.09687E+000,-2.94644E-001,3.14240E-002,6.10406E+000,1.10278E-002,4.39871E-001,0,9.25189E+001,-5.39180E+000,9.98926E-001,5.13354E+001,-3.73752E+001,9.98011E-001,1.32634E-001,-5.49836E-002,-3.70411E-004,1.32634E-001,-5.49843E-002,-1.13118E-001,1.33278E-001,1.14146E+000,-2.99022E-002,0.00000E+000,2.44796E-002,9.48231E-001,0.00000E+000,-7.26861E-003,-6.56240E-002,1.00000E+000,21
1039,1297,1.29922E+001,-2.07913E+000,1.73681E-001,6.11752E+000,-2.58529E-001,7.53323E-002,6.12345E+000,1.18446E-002,4.15892E-001,0,9.26628E+001,-4.89546E+000,9.98040E-001,5.16374E+001,-3.69361E+001,9.97686E-001,1.32261E-001,-5.49891E-002,-4.55198E-004,1.32262E-001,-5.49902E-002,-1.39283E-001,1.32886E-001,1.14104E+000,-2.99061E-002,0.00000E+000,2.44202E-002,9.48230E-001,0.00000E+000,-8.70973E-003,-6.56376E-002,1.00000E+000,21
1049,1337,1.37146E+001,3.81460E-001,-5.26818E-002,6.13814E+000,-3.79199E-001,-7.94174E-002,6.15036E+000,1.50816E-002,4.31695E-001,0,9.34802E+001,-6.56912E+000,9.99462E-001,5.27536E+001,-3.82397E+001,9.98644E-001,1.33747E-001,-5.48940E-002,-6.25862E-004,1.33749E-001,-5.48961E-002,-1.90090E-001,1.34462E-001,1.14272E+000,-2.97451E-002,0.00000E+000,2.34821E-002,9.48245E-001,0.00000E+000,-1.53022E-003,-6.42056E-002,1.00000E+000,21
1049,1347,1.37216E+001,9.94391E-001,-3.77304E-002,6.12003E+000,-4.20115E-001,-1.05784E-001,6.13535E+000,1.21658E-002,4.52491E-001,0,9.32949E+001,-7.17005E+000,9.99336E-001,5.29664E+001,-3.87738E+001,9.98229E-001,1.34225E-001,-5.48915E-002,-5.91331E-004,1.34227E-001,-5.48933E-002,-1.79150E-001,1.34967E-001,1.14327E+000,-2.97242E-002,0.00000E+000,2.34573E-002,9.48244E-001,0.00000E+000,-5.15424E-004,-6.41670E-002,1.00000E+000,21
1049,1307,1.37322E+001,-1.44955E+000,9.70502E-002,6.19178E+000,-2.75779E-001,2.73985E-002,6.19798E+000,1.40824E-002,3.89373E-001,0,9.38937E+001,-5.10221E+000,9.99093E-001,5.30704E+001,-3.69408E+001,9.98296E-001,1.32313E-001,-5.48991E-002,-7.15128E-004,1.32316E-001,-5.49018E-002,-2.18859E-001,1.32952E-001,1.14108E+000,-2.97752E-002,0.00000E+000,2.35559E-002,9.48247E-001,0.00000E+000,-4.55106E-003,-6.42612E-002,1.00000E+000,21
1049,1317,1.37188E+001,-8.40515E-001,3.67186E-002,6.16871E+000,-3.09688E-001,-8.93154E-003,6.17648E+000,1.25936E-002,4.18423E-001,0,9.36819E+001,-5.59398E+000,9.98666E-001,5.28292E+001,-3.73639E+001,9.97037E-001,1.32791E-001,-5.48975E-002,-6.86188E-004,1.32794E-001,-5.49000E-002,-2.09469E-001,1.33456E-001,1.14163E+000,-2.97670E-002,0.00000E+000,2.35313E-002,9.48246E-001,0.00000E+000,-3.54594E-003,-6.42462E-002,1.00000E+000,21
1049,1327,1.37126E+001,-2.38313E-001,-2.01121E-002,6.15336E+000,-3.50671E-001,-3.92260E-002,6.16347E+000,8.32730E-003,4.00221E-001,0,9.35679E+001,-6.17682E+000,9.99100E-001,5.27050E+001,-3.79237E+001,9.97630E-001,1.33269E-001,-5.48960E-002,-6.57495E-004,1.33271E-001,-5.48983E-002,-2.00203E-001,1.33958E-001,1.14217E+000,-2.97594E-002,0.00000E+000,2.35068E-002,9.48246E-001,0.00000E+000,-2.54015E-003,-6.42320E-002,1.00000E+000,21
809,1347,-4.23446E+000,6.34985E-001,5.14205E-003,3.84033E+000,-6.18415E-001,1.44599E-002,3.88983E+000,9.73172E-003,5.04779E-001,0,5.93825E+001,-1.02020E+001,9.99281E-001,1.54098E+001,-4.68641E+001,9.99128E-001,1.39206E-001,-5.80806E-002,-1.61776E-003,1.39219E-001,-5.80938E-002,-4.69785E-001,1.39853E-001,1.14937E+000,-2.94470E-003,0.00000E+000,-3.83818E-004,9.46651E-001,0.00000E+000,-3.67637E-003,-8.07948E-002,1.00000E+000,21
809,1357,-4.20800E+000,1.24994E+000,3.96690E-002,3.83866E+000,-6.57272E-001,-2.93485E-002,3.89463E+000,1.15085E-002,5.03351E-001,0,5.94862E+001,-1.07191E+001,9.99015E-001,1.60201E+001,-4.74628E+001,9.98490E-001,1.39171E-001,-5.80960E-002,-1.79281E-003,1.39187E-001,-5.81123E-002,-5.20661E-001,1.39817E-001,1.14933E+000,-2.94609E-003,0.00000E+000,-5.94110E-004,9.46642E-001,0.00000E+000,-5.26406E-003,-8.08631E-002,1.00000E+000,21
809,1327,-4.27191E+000,-5.87670E-001,4.03346E-002,3.83695E+000,-5.53122E-001,9.51308E-002,3.87778E+000,1.03163E-002,5.21038E-001,0,5.90819E+001,-9.30808E+000,9.99016E-001,1.46808E+001,-4.57837E+001,9.97847E-001,1.39269E-001,-5.80615E-002,-1.27183E-003,1.39277E-001,-5.80697E-002,-3.69261E-001,1.39916E-001,1.14943E+000,-2.94300E-003,0.00000E+000,3.27129E-005,9.46662E-001,0.00000E+000,-5.31589E-004,-8.07120E-002,1.00000E+000,21
809,1337,-4.25252E+000,2.05447E-002,1.68324E-002,3.84125E+000,-5.87293E-001,5.86480E-002,3.88633E+000,8.25394E-003,5.20870E-001,0,5.92620E+001,-9.79310E+000,9.99099E-001,1.50406E+001,-4.63538E+001,9.99098E-001,1.39239E-001,-5.80700E-002,-1.44445E-003,1.39249E-001,-5.80806E-002,-4.19420E-001,1.39886E-001,1.14940E+000,-2.94375E-003,0.00000E+000,-1.75242E-004,9.46657E-001,0.00000E+000,-2.10163E-003,-8.07487E-002,1.00000E+000,21
809,1307,-4.28194E+000,-1.76898E+000,2.22780E-001,3.83772E+000,-4.62025E-001,2.05792E-001,3.87090E+000,1.75922E-002,5.86382E-001,0,5.87255E+001,-8.12768E+000,9.96001E-001,1.47384E+001,-4.43576E+001,9.94594E-001,1.39321E-001,-5.80545E-002,-9.28735E-004,1.39326E-001,-5.80589E-002,-2.69592E-001,1.39968E-001,1.14949E+000,-2.94246E-003,0.00000E+000,4.46658E-004,9.46666E-001,0.00000E+000,2.59367E-003,-8.06856E-002,1.00000E+000,21
809,1317,-4.27411E+000,-1.17781E+000,1.24471E-001,3.84186E+000,-5.05847E-001,1.52030E-001,3.87800E+000,1.61213E-002,5.49154E-001,0,5.89691E+001,-8.69275E+000,9.98645E-001,1.47358E+001,-4.50499E+001,9.97259E-001,1.39296E-001,-5.80571E-002,-1.10006E-003,1.39302E-001,-5.80632E-002,-3.19357E-001,1.39944E-001,1.14946E+000,-2.94265E-003,0.00000E+000,2.39897E-004,9.46665E-001,0.00000E+000,1.03264E-003,-8.06947E-002,1.00000E+000,21
1049,1297,1.37398E+001,-2.06241E+000,1.71196E-001,6.20794E+000,-2.46591E-001,7.25349E-002,6.21326E+000,1.20544E-002,3.83028E-001,0,9.39687E+001,-4.70988E+000,9.98391E-001,5.32467E+001,-3.65963E+001,9.96900E-001,1.31834E-001,-5.49006E-002,-7.43673E-004,1.31837E-001,-5.49036E-002,-2.28177E-001,1.32449E-001,1.14054E+000,-2.97823E-002,0.00000E+000,2.35804E-002,9.48247E-001,0.00000E+000,-5.55535E-003,-6.42744E-002,1.00000E+000,21
799,1337,-5.00065E+000,1.21096E-002,1.27724E-002,3.74074E+000,-5.89150E-001,5.85248E-002,3.78731E+000,8.67158E-003,5.08070E-001,0,5.77532E+001,-9.80552E+000,9.99250E-001,1.35197E+001,-4.65851E+001,9.99093E-001,1.37979E-001,-5.78261E-002,-1.01257E-003,1.37984E-001,-5.78313E-002,-2.96284E-001,1.38585E-001,1.14795E+000,-3.00177E-003,0.00000E+000,7.15411E-004,9.46761E-001,0.00000E+000,-2.40217E-003,-7.90661E-002,1.00000E+000,21
799,1347,-4.98143E+000,6.24020E-001,3.27889E-003,3.74150E+000,-6.22685E-001,1.83341E-002,3.79301E+000,1.07285E-002,5.08621E-001,0,5.78872E+001,-1.02634E+001,9.98818E-001,1.39130E+001,-4.71324E+001,9.98529E-001,1.38015E-001,-5.78409E-002,-1.25741E-003,1.38023E-001,-5.78490E-002,-3.67822E-001,1.38624E-001,1.14800E+000,-3.00044E-003,0.00000E+000,3.54090E-004,9.46750E-001,0.00000E+000,-3.81172E-003,-7.91064E-002,1.00000E+000,21
799,1357,-4.95064E+000,1.24560E+000,4.14671E-002,3.74421E+000,-6.54594E-001,-2.27208E-002,3.80107E+000,1.09602E-002,5.04752E-001,0,5.80469E+001,-1.06814E+001,9.98538E-001,1.46024E+001,-4.76396E+001,9.98051E-001,1.38049E-001,-5.78629E-002,-1.50396E-003,1.38061E-001,-5.78745E-002,-4.39809E-001,1.38661E-001,1.14804E+000,-2.99842E-003,0.00000E+000,-1.00379E-005,9.46735E-001,0.00000E+000,-5.23222E-003,-7.91675E-002,1.00000E+000,21
799,1327,-5.01351E+000,-5.98142E-001,5.56872E-002,3.74243E+000,-5.56455E-001,1.12177E-001,3.78523E+000,1.64442E-002,5.25383E-001,0,5.76120E+001,-9.40839E+000,9.99300E-001,1.33064E+001,-4.60771E+001,9.97949E-001,1.37941E-001,-5.78141E-002,-7.68148E-004,1.37944E-001,-5.78171E-002,-2.24826E-001,1.38544E-001,1.14790E+000,-3.00282E-003,0.00000E+000,1.07603E-003,9.46769E-001,0.00000E+000,-9.95355E-004,-7.90344E-002,1.00000E+000,21
1059,1327,1.44643E+001,-2.20839E-001,-1.70433E-002,6.24680E+000,-3.39697E-001,-3.80019E-002,6.25614E+000,1.26731E-002,4.17233E-001,0,9.49050E+001,-6.02949E+000,9.99339E-001,5.43912E+001,-3.75539E+001,9.97993E-001,1.33300E-001,-5.50928E-002,-9.63660E-004,1.33305E-001,-5.50977E-002,-2.93067E-001,1.33971E-001,1.14222E+000,-2.91617E-002,0.00000E+000,2.23357E-002,9.48025E-001,0.00000E+000,-1.06690E-003,-6.32214E-002,1.00000E+000,21
1059,1337,1.44688E+001,4.02357E-001,-4.37049E-002,6.23361E+000,-3.65213E-001,-7.39082E-002,6.24474E+000,1.02903E-002,4.32678E-001,0,9.48314E+001,-6.37853E+000,9.99536E-001,5.44897E+001,-3.78361E+001,9.98981E-001,1.33839E-001,-5.50945E-002,-9.66669E-004,1.33844E-001,-5.50995E-002,-2.93141E-001,1.34538E-001,1.14284E+000,-2.91451E-002,0.00000E+000,2.22690E-002,9.48023E-001,0.00000E+000,-4.96207E-004,-6.32060E-002,1.00000E+000,21
1059,1347,1.44790E+001,1.01593E+000,-3.14983E-002,6.21824E+000,-4.04881E-001,-1.04045E-001,6.23228E+000,1.44432E-002,4.18761E-001,0,9.47015E+001,-6.95095E+000,9.99470E-001,5.47445E+001,-3.83698E+001,9.98238E-001,1.34379E-001,-5.50967E-002,-9.66572E-004,1.34384E-001,-5.51016E-002,-2.92272E-001,1.35108E-001,1.14346E+000,-2.91211E-002,0.00000E+000,2.22022E-002,9.48021E-001,0.00000E+000,7.64347E-005,-6.31839E-002,1.00000E+000,21
1059,1297,1.44869E+001,-2.04199E+000,1.65267E-001,6.29946E+000,-2.29286E-001,7.48719E-002,6.30408E+000,1.14728E-002,3.48083E-001,0,9.52695E+001,-4.45950E+000,9.98732E-001,5.48469E+001,-3.61930E+001,9.96733E-001,1.31684E-001,-5.50888E-002,-9.45571E-004,1.31689E-001,-5.50935E-002,-2.90060E-001,1.32273E-001,1.14038E+000,-2.91901E-002,0.00000E+000,2.25348E-002,9.48028E-001,0.00000E+000,-2.77209E-003,-6.32477E-002,1.00000E+000,21
1059,1307,1.44806E+001,-1.43277E+000,9.42922E-002,6.28456E+000,-2.61424E-001,3.28702E-002,6.29009E+000,1.27829E-002,3.43107E-001,0,9.52040E+001,-4.91313E+000,9.99222E-001,5.46964E+001,-3.66045E+001,9.98355E-001,1.32222E-001,-5.50900E-002,-9.52121E-004,1.32226E-001,-5.50949E-002,-2.91229E-001,1.32837E-001,1.14099E+000,-2.91820E-002,0.00000E+000,2.24686E-002,9.48027E-001,0.00000E+000,-2.20553E-003,-6.32401E-002,1.00000E+000,21
1059,1317,1.44676E+001,-8.27473E-001,2.28851E-002,6.26223E+000,-2.99897E-001,-1.21931E-002,6.26941E+000,1.35695E-002,4.11873E-001,0,9.50394E+001,-5.46219E+000,9.99023E-001,5.44390E+001,-3.70399E+001,9.97032E-001,1.32760E-001,-5.50913E-002,-9.58456E-004,1.32765E-001,-5.50962E-002,-2.92324E-001,1.33403E-001,1.14160E+000,-2.91732E-002,0.00000E+000,2.24022E-002,9.48026E-001,0.00000E+000,-1.63701E-003,-6.32320E-002,1.00000E+000,21
799,1307,-5.02153E+000,-1.77774E+000,2.31903E-001,3.74391E+000,-4.65148E-001,2.10718E-001,3.77857E+000,2.26609E-002,5.75474E-001,0,5.73065E+001,-8.18720E+000,9.97155E-001,1.33813E+001,-4.46146E+001,9.96807E-001,1.37859E-001,-5.78047E-002,-2.82137E-004,1.37859E-001,-5.78051E-002,-8.26174E-002,1.38457E-001,1.14781E+000,-3.00351E-003,0.00000E+000,1.79235E-003,9.46774E-001,0.00000E+000,1.79907E-003,-7.90136E-002,1.00000E+000,21
799,1317,-5.02110E+000,-1.18767E+000,1.21398E-001,3.74336E+000,-5.08255E-001,1.58240E-001,3.78102E+000,1.89178E-002,5.83437E-001,0,5.74741E+001,-8.76114E+000,9.98422E-001,1.32337E+001,-4.52782E+001,9.96883E-001,1.37901E-001,-5.78066E-002,-5.24846E-004,1.37902E-001,-5.78080E-002,-1.53654E-001,1.38501E-001,1.14786E+000,-3.00344E-003,0.00000E+000,1.43479E-003,9.46773E-001,0.00000E+000,4.04204E-004,-7.90158E-002,1.00000E+000,21
789,1327,-5.75439E+000,-6.04536E-001,5.34064E-002,3.64887E+000,-5.56053E-001,1.15133E-001,3.69279E+000,1.46145E-002,5.49904E-001,0,5.61989E+001,-9.41683E+000,9.99028E-001,1.19055E+001,-4.62596E+001,9.98097E-001,1.36649E-001,-5.75614E-002,-4.61760E-004,1.36650E-001,-5.75625E-002,-1.36227E-001,1.37214E-001,1.14642E+000,-3.22493E-003,0.00000E+000,1.87637E-003,9.46901E-001,0.00000E+000,-1.45105E-003,-7.76106E-002,1.00000E+000,21
789,1337,-5.74098E+000,9.70461E-003,1.64498E-002,3.64721E+000,-5.85019E-001,6.41049E-002,3.69439E+000,1.04729E-002,5.08057E-001,0,5.63297E+001,-9.74894E+000,9.98833E-001,1.21436E+001,-4.67331E+001,9.98662E-001,1.36779E-001,-5.75771E-002,-7.65608E-004,1.36782E-001,-5.75802E-002,-2.25695E-001,1.37351E-001,1.14657E+000,-3.22137E-003,0.00000E+000,1.37994E-003,9.46890E-001,0.00000E+000,-2.60277E-003,-7.76375E-002,1.00000E+000,21
789,1347,-5.71951E+000,6.21684E-001,7.84179E-003,3.64993E+000,-6.19516E-001,2.25832E-002,3.70220E+000,1.18829E-002,5.31914E-001,0,5.64973E+001,-1.02162E+001,9.98396E-001,1.25749E+001,-4.72712E+001,9.97784E-001,1.36908E-001,-5.75962E-002,-1.07013E-003,1.36914E-001,-5.76021E-002,-3.15218E-001,1.37487E-001,1.14673E+000,-3.21694E-003,0.00000E+000,8.81882E-004,9.46875E-001,0.00000E+000,-3.75829E-003,-7.76710E-002,1.00000E+000,21
789,1357,-5.69447E+000,1.23866E+000,3.64724E-002,3.64841E+000,-6.54837E-001,-2.14956E-002,3.70677E+000,1.08241E-002,5.38354E-001,0,5.66026E+001,-1.06849E+001,9.98075E-001,1.31539E+001,-4.78257E+001,9.97609E-001,1.37037E-001,-5.76225E-002,-1.37554E-003,1.37047E-001,-5.76322E-002,-4.04848E-001,1.37623E-001,1.14688E+000,-3.21066E-003,0.00000E+000,3.81201E-004,9.46855E-001,0.00000E+000,-4.91989E-003,-7.77184E-002,1.00000E+000,21
1069,1327,1.52175E+001,-2.05032E-001,-2.32227E-002,6.34236E+000,-3.30572E-001,-4.13358E-002,6.35111E+000,1.34133E-002,4.42031E-001,0,9.62907E+001,-5.89198E+000,9.99203E-001,5.60882E+001,-3.71859E+001,9.97541E-001,1.33358E-001,-5.51032E-002,-1.25397E-003,1.33366E-001,-5.51115E-002,-3.81209E-001,1.34034E-001,1.14230E+000,-2.86322E-002,0.00000E+000,2.12864E-002,9.47999E-001,0.00000E+000,-9.20578E-005,-6.25439E-002,1.00000E+000,21
1069,1337,1.52158E+001,4.15786E-001,-4.63393E-002,6.32376E+000,-3.56630E-001,-7.00372E-002,6.33420E+000,8.78249E-003,3.84353E-001,0,9.61102E+001,-6.25224E+000,9.99281E-001,5.60957E+001,-3.75483E+001,9.98489E-001,1.33883E-001,-5.51069E-002,-1.27860E-003,1.33892E-001,-5.51156E-002,-3.87608E-001,1.34587E-001,1.14290E+000,-2.86167E-002,0.00000E+000,2.12046E-002,9.47997E-001,0.00000E+000,6.82610E-005,-6.25398E-002,1.00000E+000,21
1069,1347,1.52228E+001,1.03115E+000,-4.76142E-002,6.30685E+000,-3.94423E-001,-1.05893E-001,6.32006E+000,9.20693E-003,4.22133E-001,0,9.59801E+001,-6.79615E+000,9.99401E-001,5.62750E+001,-3.79972E+001,9.98671E-001,1.34412E-001,-5.51115E-002,-1.30070E-003,1.34421E-001,-5.51204E-002,-3.93196E-001,1.35144E-001,1.14351E+000,-2.85948E-002,0.00000E+000,2.11223E-002,9.47994E-001,0.00000E+000,2.29651E-004,-6.25339E-002,1.00000E+000,21
789,1307,-5.75803E+000,-1.78624E+000,2.30591E-001,3.65493E+000,-4.67478E-001,2.16264E-001,3.69105E+000,1.61100E-002,5.47246E-001,0,5.59596E+001,-8.21188E+000,9.98156E-001,1.20513E+001,-4.48538E+001,9.95372E-001,1.36385E-001,-5.75489E-002,1.43314E-004,1.36385E-001,-5.75490E-002,4.23407E-002,1.36938E-001,1.14612E+000,-3.22724E-003,0.00000E+000,2.86167E-003,9.46909E-001,0.00000E+000,8.34882E-004,-7.75932E-002,1.00000E+000,21
789,1317,-5.75691E+000,-1.19831E+000,1.46947E-001,3.65229E+000,-5.13745E-001,1.76234E-001,3.69245E+000,1.75687E-002,5.51375E-001,0,5.60538E+001,-8.87224E+000,9.98186E-001,1.19791E+001,-4.56113E+001,9.94460E-001,1.36517E-001,-5.75542E-002,-1.59045E-004,1.36517E-001,-5.75543E-002,-4.69550E-002,1.37076E-001,1.14627E+000,-3.22634E-003,0.00000E+000,2.36948E-003,9.46906E-001,0.00000E+000,-3.07011E-004,-7.76000E-002,1.00000E+000,21
1069,1297,1.52246E+001,-2.02406E+000,1.46883E-001,6.38285E+000,-2.14668E-001,7.23108E-002,6.38687E+000,1.53333E-002,3.68187E-001,0,9.64662E+001,-4.24747E+000,9.97744E-001,5.62815E+001,-3.57758E+001,9.95232E-001,1.31780E-001,-5.50938E-002,-1.17332E-003,1.31787E-001,-5.51012E-002,-3.59722E-001,1.32375E-001,1.14050E+000,-2.86630E-002,0.00000E+000,2.15317E-002,9.48003E-001,0.00000E+000,-5.72827E-004,-6.25521E-002,1.00000E+000,21
1069,1307,1.52205E+001,-1.41809E+000,6.88426E-002,6.37133E+000,-2.49398E-001,2.81914E-002,6.37627E+000,1.06970E-002,3.35656E-001,0,9.64630E+001,-4.72625E+000,9.99107E-001,5.61537E+001,-3.62339E+001,9.97742E-001,1.32304E-001,-5.50965E-002,-1.20149E-003,1.32311E-001,-5.51042E-002,-3.67322E-001,1.32925E-001,1.14110E+000,-2.86561E-002,0.00000E+000,2.14503E-002,9.48002E-001,0.00000E+000,-4.13379E-004,-6.25503E-002,1.00000E+000,21
1069,1317,1.52205E+001,-8.06062E-001,2.07590E-002,6.35840E+000,-2.84334E-001,-8.14663E-003,6.36476E+000,1.19014E-002,4.37018E-001,0,9.64041E+001,-5.24343E+000,9.99316E-001,5.61401E+001,-3.65954E+001,9.97587E-001,1.32831E-001,-5.50998E-002,-1.22776E-003,1.32839E-001,-5.51078E-002,-3.74295E-001,1.33479E-001,1.14170E+000,-2.86442E-002,0.00000E+000,2.13684E-002,9.48000E-001,0.00000E+000,-2.52748E-004,-6.25471E-002,1.00000E+000,21
779,1327,-6.48993E+000,-6.05736E-001,6.26906E-002,3.55923E+000,-5.53077E-001,1.24789E-001,3.60411E+000,2.11950E-002,5.88349E-001,0,5.48223E+001,-9.37784E+000,9.98828E-001,1.06213E+001,-4.63795E+001,9.97648E-001,1.35290E-001,-5.71112E-002,-3.98448E-004,1.35290E-001,-5.71120E-002,-1.18655E-001,1.35836E-001,1.14486E+000,-3.68134E-003,0.00000E+000,2.38661E-003,9.47227E-001,0.00000E+000,-1.61151E-003,-7.62280E-002,1.00000E+000,21
779,1337,-6.47618E+000,-3.09127E-003,2.19760E-002,3.55839E+000,-5.92313E-001,7.16606E-002,3.60806E+000,1.01639E-002,5.29934E-001,0,5.49745E+001,-9.87038E+000,9.98529E-001,1.08536E+001,-4.70337E+001,9.98278E-001,1.35579E-001,-5.71307E-002,-7.78924E-004,1.35582E-001,-5.71339E-002,-2.31582E-001,1.36139E-001,1.14520E+000,-3.67376E-003,0.00000E+000,1.72614E-003,9.47212E-001,0.00000E+000,-2.58376E-003,-7.62501E-002,1.00000E+000,21
779,1347,-6.45936E+000,6.13113E-001,1.02455E-002,3.55608E+000,-6.21642E-001,2.40782E-002,3.61008E+000,1.27626E-002,5.26276E-001,0,5.50806E+001,-1.02465E+001,9.97909E-001,1.12081E+001,-4.75162E+001,9.97268E-001,1.35868E-001,-5.71555E-002,-1.15975E-003,1.35875E-001,-5.71625E-002,-3.44236E-001,1.36443E-001,1.14553E+000,-3.66383E-003,0.00000E+000,1.06335E-003,9.47192E-001,0.00000E+000,-3.55941E-003,-7.62790E-002,1.00000E+000,21
779,1357,-6.43723E+000,1.23197E+000,3.41708E-002,3.55260E+000,-6.54647E-001,-2.09379E-002,3.61248E+000,1.01853E-002,5.36507E-001,0,5.51577E+001,-1.06730E+001,9.98134E-001,1.17333E+001,-4.80315E+001,9.97849E-001,1.36158E-001,-5.71877E-002,-1.54179E-003,1.36170E-001,-5.72000E-002,-4.56852E-001,1.36749E-001,1.14587E+000,-3.65054E-003,0.00000E+000,3.96085E-004,9.47166E-001,0.00000E+000,-4.54166E-003,-7.63177E-002,1.00000E+000,21
779,1317,-6.48957E+000,-1.19600E+000,1.41221E-001,3.56535E+000,-5.05605E-001,1.70039E-001,3.60503E+000,2.15517E-002,5.36394E-001,0,5.47676E+001,-8.72260E+000,9.99075E-001,1.07034E+001,-4.56694E+001,9.97495E-001,1.35000E-001,-5.71019E-002,-1.68421E-005,1.35000E-001,-5.71019E-002,-5.02328E-003,1.35532E-001,1.14453E+000,-3.68434E-003,0.00000E+000,3.04564E-003,9.47233E-001,0.00000E+000,-6.41402E-004,-7.62193E-002,1.00000E+000,21
1079,1337,1.59670E+001,4.32538E-001,-6.58609E-002,6.41696E+000,-3.46294E-001,-8.58855E-002,6.42687E+000,1.23051E-002,3.93876E-001,0,9.75057E+001,-6.06730E+000,9.98960E-001,5.77417E+001,-3.71425E+001,9.98858E-001,1.34138E-001,-5.52559E-002,-1.53822E-003,1.34151E-001,-5.52684E-002,-4.65303E-001,1.34842E-001,1.14321E+000,-2.80138E-002,0.00000E+000,2.01790E-002,9.47859E-001,0.00000E+000,4.90491E-004,-6.22096E-002,1.00000E+000,21
1079,1347,1.59777E+001,1.04968E+000,-5.64122E-002,6.40346E+000,-3.82488E-001,-1.11413E-001,6.41584E+000,7.12108E-003,4.37209E-001,0,9.73880E+001,-6.61463E+000,9.99565E-001,5.79954E+001,-3.75825E+001,9.99466E-001,1.34652E-001,-5.52636E-002,-1.58711E-003,1.34665E-001,-5.52768E-002,-4.78771E-001,1.35383E-001,1.14380E+000,-2.79923E-002,0.00000E+000,2.00665E-002,9.47854E-001,0.00000E+000,3.13773E-004,-6.22161E-002,1.00000E+000,21
1079,1297,1.59790E+001,-2.00129E+000,1.53543E-001,6.47872E+000,-1.97808E-001,7.88401E-002,6.48222E+000,1.45432E-002,4.18121E-001,0,9.78103E+001,-4.03143E+000,9.98370E-001,5.80253E+001,-3.53197E+001,9.96731E-001,1.32095E-001,-5.52342E-002,-1.32640E-003,1.32104E-001,-5.52436E-002,-4.05659E-001,1.32693E-001,1.14088E+000,-2.80583E-002,0.00000E+000,2.06260E-002,9.47867E-001,0.00000E+000,1.19239E-003,-6.21962E-002,1.00000E+000,21
1079,1307,1.59689E+001,-1.40191E+000,6.36256E-002,6.46257E+000,-2.39142E-001,2.88465E-002,6.46706E+000,1.24485E-002,3.65326E-001,0,9.77645E+001,-4.57939E+000,9.99128E-001,5.77832E+001,-3.58639E+001,9.97806E-001,1.32604E-001,-5.52384E-002,-1.38150E-003,1.32614E-001,-5.52486E-002,-4.21356E-001,1.33227E-001,1.14146E+000,-2.80528E-002,0.00000E+000,2.05148E-002,9.47866E-001,0.00000E+000,1.01777E-003,-6.21979E-002,1.00000E+000,21
1079,1327,1.59680E+001,-1.88593E-001,-3.29175E-002,6.43443E+000,-3.20311E-001,-4.94437E-002,6.44259E+000,1.43260E-002,4.22666E-001,0,9.76388E+001,-5.71519E+000,9.99170E-001,5.77409E+001,-3.68230E+001,9.98503E-001,1.33628E-001,-5.52497E-002,-1.48679E-003,1.33639E-001,-5.52614E-002,-4.50979E-001,1.34304E-001,1.14263E+000,-2.80285E-002,0.00000E+000,2.02908E-002,9.47861E-001,0.00000E+000,6.66077E-004,-6.22052E-002,1.00000E+000,21
1079,1317,1.59666E+001,-7.88536E-001,8.77708E-003,6.44741E+000,-2.73105E-001,-1.35285E-002,6.45321E+000,1.17368E-002,4.16710E-001,0,9.76957E+001,-5.04016E+000,9.99126E-001,5.77221E+001,-3.62134E+001,9.98265E-001,1.33116E-001,-5.52439E-002,-1.43447E-003,1.33127E-001,-5.52548E-002,-4.36306E-001,1.33766E-001,1.14204E+000,-2.80413E-002,0.00000E+000,2.04028E-002,9.47864E-001,0.00000E+000,8.41837E-004,-6.22013E-002,1.00000E+000,21
779,1307,-6.49878E+000,-1.79868E+000,2.36264E-001,3.55963E+000,-4.75527E-001,2.20449E-001,3.59801E+000,1.52341E-002,5.44881E-001,0,5.45181E+001,-8.32592E+000,9.98789E-001,1.06770E+001,-4.51563E+001,9.96526E-001,1.34710E-001,-5.70951E-002,3.62706E-004,1.34711E-001,-5.70958E-002,1.08346E-001,1.35231E-001,1.14420E+000,-3.68616E-003,0.00000E+000,3.70024E-003,9.47236E-001,0.00000E+000,3.22202E-004,-7.62140E-002,1.00000E+000,21
1089,1337,1.67175E+001,4.53039E-001,-7.25475E-002,6.50896E+000,-3.32840E-001,-8.86664E-002,6.51807E+000,1.10216E-002,4.61218E-001,0,9.88304E+001,-5.88194E+000,9.98766E-001,5.94027E+001,-3.66783E+001,9.98398E-001,1.34787E-001,-5.54517E-002,-1.66725E-003,1.34801E-001,-5.54663E-002,-5.02089E-001,1.35504E-001,1.14398E+000,-2.71586E-002,0.00000E+000,1.91817E-002,9.47675E-001,0.00000E+000,9.62036E-004,-6.18940E-002,1.00000E+000,21
1089,1347,1.67274E+001,1.07009E+000,-6.38749E-002,6.49472E+000,-3.68291E-001,-1.14531E-001,6.50616E+000,8.44558E-003,4.47450E-001,0,9.87032E+001,-6.40436E+000,9.99379E-001,5.96426E+001,-3.71449E+001,9.98579E-001,1.35396E-001,-5.54623E-002,-1.73906E-003,1.35412E-001,-5.54781E-002,-5.22009E-001,1.36146E-001,1.14467E+000,-2.71330E-002,0.00000E+000,1.90325E-002,9.47670E-001,0.00000E+000,5.75963E-004,-6.19082E-002,1.00000E+000,21
769,1347,-7.19910E+000,6.03833E-001,1.20686E-002,3.46268E+000,-6.24614E-001,2.90195E-002,3.51868E+000,1.03672E-002,5.28958E-001,0,5.36590E+001,-1.02912E+001,9.98020E-001,9.84607E+000,-4.77668E+001,9.97834E-001,1.34511E-001,-5.67131E-002,-1.12366E-003,1.34518E-001,-5.67197E-002,-3.36662E-001,1.35067E-001,1.14398E+000,-3.92521E-003,0.00000E+000,1.32251E-003,9.47520E-001,0.00000E+000,-3.19680E-003,-7.50130E-002,1.00000E+000,21
769,1357,-7.17451E+000,1.22550E+000,3.60782E-002,3.46222E+000,-6.54415E-001,-1.41411E-002,3.52355E+000,9.97701E-003,5.45444E-001,0,5.37755E+001,-1.06740E+001,9.98551E-001,1.04120E+001,-4.82375E+001,9.98414E-001,1.34739E-001,-5.67429E-002,-1.48278E-003,1.34751E-001,-5.67544E-002,-4.43645E-001,1.35308E-001,1.14424E+000,-3.91499E-003,0.00000E+000,6.94312E-004,9.47496E-001,0.00000E+000,-4.09765E-003,-7.50477E-002,1.00000E+000,21
769,1327,-7.22740E+000,-6.13882E-001,7.31426E-002,3.46494E+000,-5.56244E-001,1.23358E-001,3.51147E+000,1.58527E-002,5.76617E-001,0,5.34066E+001,-9.42430E+000,9.98625E-001,9.31443E+000,-4.66344E+001,9.96653E-001,1.34056E-001,-5.66748E-002,-4.08129E-004,1.34057E-001,-5.66757E-002,-1.22602E-001,1.34589E-001,1.14345E+000,-3.93768E-003,0.00000E+000,2.56847E-003,9.47550E-001,0.00000E+000,-1.41009E-003,-7.49706E-002,1.00000E+000,21
769,1337,-7.21720E+000,-1.58078E-002,2.17557E-002,3.46309E+000,-5.99301E-001,7.22206E-002,3.51531E+000,9.64480E-003,5.39665E-001,0,5.35389E+001,-9.97110E+000,9.98423E-001,9.46483E+000,-4.73277E+001,9.98081E-001,1.34284E-001,-5.66904E-002,-7.65950E-004,1.34287E-001,-5.66935E-002,-2.29794E-001,1.34828E-001,1.14371E+000,-3.93277E-003,0.00000E+000,1.94636E-003,9.47538E-001,0.00000E+000,-2.30220E-003,-7.49873E-002,1.00000E+000,21
1089,1327,1.67151E+001,-1.64197E-001,-5.50742E-002,6.52491E+000,-2.99379E-001,-6.11690E-002,6.53206E+000,1.27777E-002,4.18205E-001,0,9.89724E+001,-5.39610E+000,9.98755E-001,5.93260E+001,-3.63025E+001,9.97709E-001,1.34177E-001,-5.54427E-002,-1.59281E-003,1.34190E-001,-5.54560E-002,-4.81241E-001,1.34862E-001,1.14328E+000,-2.71780E-002,0.00000E+000,1.93308E-002,9.47679E-001,0.00000E+000,1.34795E-003,-6.18833E-002,1.00000E+000,21
1089,1317,1.67194E+001,-7.76474E-001,-2.55343E-003,6.54212E+000,-2.65932E-001,-2.06418E-002,6.54756E+000,1.14915E-002,4.47089E-001,0,9.90786E+001,-4.94885E+000,9.99184E-001,5.94126E+001,-3.58916E+001,9.98671E-001,1.33570E-001,-5.54351E-002,-1.51639E-003,1.33582E-001,-5.54473E-002,-4.59645E-001,1.34223E-001,1.14259E+000,-2.71917E-002,0.00000E+000,1.94791E-002,9.47682E-001,0.00000E+000,1.73172E-003,-6.18757E-002,1.00000E+000,21
1089,1297,1.67323E+001,-1.97974E+000,1.49476E-001,6.57322E+000,-1.82859E-001,7.54592E-002,6.57619E+000,1.07082E-002,4.44042E-001,0,9.91695E+001,-3.79971E+000,9.99135E-001,5.97375E+001,-3.48720E+001,9.98688E-001,1.32357E-001,-5.54220E-002,-1.36044E-003,1.32367E-001,-5.54319E-002,-4.15074E-001,1.32948E-001,1.14120E+000,-2.72112E-002,0.00000E+000,1.97750E-002,9.47686E-001,0.00000E+000,2.49742E-003,-6.18649E-002,1.00000E+000,21
1089,1307,1.67233E+001,-1.38276E+000,5.83837E-002,6.55775E+000,-2.27138E-001,2.29534E-002,6.56173E+000,1.05869E-002,4.33302E-001,0,9.91458E+001,-4.40720E+000,9.99339E-001,5.95100E+001,-3.54281E+001,9.98889E-001,1.32963E-001,-5.54279E-002,-1.43943E-003,1.32974E-001,-5.54389E-002,-4.37746E-001,1.33584E-001,1.14189E+000,-2.72042E-002,0.00000E+000,1.96274E-002,9.47685E-001,0.00000E+000,2.11531E-003,-6.18688E-002,1.00000E+000,21
769,1317,-7.23428E+000,-1.20455E+000,1.44125E-001,3.46608E+000,-5.11086E-001,1.73537E-001,3.50785E+000,1.84113E-002,5.32000E-001,0,5.32634E+001,-8.76506E+000,9.99161E-001,9.26645E+000,-4.59097E+001,9.98234E-001,1.33828E-001,-5.66634E-002,-5.18982E-005,1.33828E-001,-5.66634E-002,-1.56099E-002,1.34351E-001,1.14319E+000,-3.94097E-003,0.00000E+000,3.18662E-003,9.47558E-001,0.00000E+000,-5.23654E-004,-7.49595E-002,1.00000E+000,21
1099,1327,1.74636E+001,-1.47161E-001,-6.30707E-002,6.61618E+000,-2.87642E-001,-5.90832E-002,6.62269E+000,1.39394E-002,4.42706E-001,0,1.00267E+002,-5.23612E+000,9.97607E-001,6.09603E+001,-3.59127E+001,9.95488E-001,1.34804E-001,-5.55765E-002,-1.72779E-003,1.34819E-001,-5.55922E-002,-5.19928E-001,1.35508E-001,1.14402E+000,-2.64344E-002,0.00000E+000,1.84202E-002,9.47574E-001,0.00000E+000,1.74626E-003,-6.19371E-002,1.00000E+000,21
1099,1337,1.74722E+001,4.73894E-001,-7.27939E-002,6.60465E+000,-3.17725E-001,-8.57687E-002,6.61284E+000,1.33277E-002,4.40625E-001,0,1.00186E+002,-5.66279E+000,9.97900E-001,6.11463E+001,-3.62664E+001,9.97156E-001,1.35551E-001,-5.55859E-002,-1.79892E-003,1.35567E-001,-5.56029E-002,-5.39187E-001,1.36295E-001,1.14487E+000,-2.64083E-002,0.00000E+000,1.82753E-002,9.47569E-001,0.00000E+000,1.25666E-003,-6.19521E-002,1.00000E+000,21
1099,1347,1.74847E+001,1.09574E+000,-5.66442E-002,6.59069E+000,-3.50214E-001,-1.12525E-001,6.60094E+000,1.09270E-002,4.48489E-001,0,1.00064E+002,-6.14333E+000,9.98612E-001,6.14361E+001,-3.66628E+001,9.97852E-001,1.36298E-001,-5.55971E-002,-1.86678E-003,1.36316E-001,-5.56153E-002,-5.57308E-001,1.37084E-001,1.14573E+000,-2.63741E-002,0.00000E+000,1.81300E-002,9.47564E-001,0.00000E+000,7.65828E-004,-6.19717E-002,1.00000E+000,21
759,1347,-7.93388E+000,5.99122E-001,9.60583E-003,3.37393E+000,-6.23290E-001,3.02845E-002,3.43115E+000,9.67072E-003,5.22307E-001,0,5.23174E+001,-1.02512E+001,9.97940E-001,8.55534E+000,-4.79419E+001,9.97663E-001,1.33189E-001,-5.63234E-002,-1.04263E-003,1.33195E-001,-5.63291E-002,-3.15209E-001,1.33722E-001,1.14246E+000,-4.03505E-003,0.00000E+000,1.54605E-003,9.47812E-001,0.00000E+000,-2.86421E-003,-7.39087E-002,1.00000E+000,21
759,1357,-7.91299E+000,1.21695E+000,3.38684E-002,3.37029E+000,-6.56345E-001,-1.10724E-002,3.43363E+000,1.03596E-002,5.48007E-001,0,5.23798E+001,-1.06946E+001,9.98302E-001,9.06650E+000,-4.84698E+001,9.97834E-001,1.33252E-001,-5.63447E-002,-1.30596E-003,1.33261E-001,-5.63537E-002,-3.94634E-001,1.33788E-001,1.14254E+000,-4.03222E-003,0.00000E+000,1.10678E-003,9.47795E-001,0.00000E+000,-3.78265E-003,-7.39434E-002,1.00000E+000,21
1099,1297,1.74810E+001,-1.96698E+000,1.32688E-001,6.66451E+000,-1.75202E-001,6.66730E-002,6.66714E+000,9.89292E-003,4.70480E-001,0,1.00503E+002,-3.67649E+000,9.98702E-001,6.13608E+001,-3.45341E+001,9.97787E-001,1.32574E-001,-5.55562E-002,-1.49978E-003,1.32586E-001,-5.55681E-002,-4.56727E-001,1.33163E-001,1.14147E+000,-2.64747E-002,0.00000E+000,1.88519E-002,9.47581E-001,0.00000E+000,3.20455E-003,-6.19140E-002,1.00000E+000,21
1099,1307,1.74753E+001,-1.36286E+000,5.04190E-002,6.65225E+000,-2.12969E-001,2.31006E-002,6.65569E+000,1.13790E-002,4.38654E-001,0,1.00493E+002,-4.18662E+000,9.99071E-001,6.12003E+001,-3.50066E+001,9.98447E-001,1.33316E-001,-5.55619E-002,-1.57769E-003,1.33330E-001,-5.55751E-002,-4.78545E-001,1.33943E-001,1.14232E+000,-2.64661E-002,0.00000E+000,1.87083E-002,9.47579E-001,0.00000E+000,2.71942E-003,-6.19190E-002,1.00000E+000,21
1099,1317,1.74683E+001,-7.56474E-001,-1.58305E-002,6.63471E+000,-2.50664E-001,-2.05612E-002,6.63948E+000,1.44982E-002,4.65360E-001,0,1.00399E+002,-4.72497E+000,9.98511E-001,6.10454E+001,-3.54492E+001,9.97309E-001,1.34060E-001,-5.55688E-002,-1.65359E-003,1.34074E-001,-5.55832E-002,-4.99576E-001,1.34725E-001,1.14317E+000,-2.64524E-002,0.00000E+000,1.85644E-002,9.47577E-001,0.00000E+000,2.23336E-003,-6.19268E-002,1.00000E+000,21
759,1327,-7.96837E+000,-6.24312E-001,6.81234E-002,3.36892E+000,-5.60736E-001,1.17815E-001,3.41730E+000,1.18228E-002,5.45394E-001,0,5.19765E+001,-9.46212E+000,9.98576E-001,7.91930E+000,-4.69016E+001,9.98545E-001,1.33063E-001,-5.62963E-002,-5.19061E-004,1.33064E-001,-5.62977E-002,-1.57054E-001,1.33588E-001,1.14232E+000,-4.03845E-003,0.00000E+000,2.41803E-003,9.47832E-001,0.00000E+000,-1.04104E-003,-7.38671E-002,1.00000E+000,21
759,1337,-7.95220E+000,-1.30493E-002,2.55339E-002,3.37288E+000,-5.90868E-001,7.39782E-002,3.42504E+000,9.84398E-003,5.42369E-001,0,5.21709E+001,-9.83709E+000,9.98020E-001,8.18671E+000,-4.73949E+001,9.97750E-001,1.33127E-001,-5.63078E-002,-7.80631E-004,1.33130E-001,-5.63110E-002,-2.36102E-001,1.33655E-001,1.14239E+000,-4.03704E-003,0.00000E+000,1.98258E-003,9.47823E-001,0.00000E+000,-1.95148E-003,-7.38844E-002,1.00000E+000,21
759,1317,-7.97199E+000,-1.21952E+000,1.43314E-001,3.37233E+000,-5.20503E-001,1.67397E-001,3.41636E+000,1.56417E-002,5.67198E-001,0,5.18721E+001,-8.92066E+000,9.98819E-001,7.93082E+000,-4.62206E+001,9.98375E-001,1.32999E-001,-5.62889E-002,-2.59021E-004,1.32999E-001,-5.62892E-002,-7.84033E-002,1.33521E-001,1.14224E+000,-4.03927E-003,0.00000E+000,2.85052E-003,9.47836E-001,0.00000E+000,-1.36760E-004,-7.38571E-002,1.00000E+000,21
749,1317,-8.70156E+000,-1.22194E+000,1.64468E-001,3.28510E+000,-5.19670E-001,1.76963E-001,3.33066E+000,1.17051E-002,5.82513E-001,0,5.05282E+001,-8.91996E+000,9.98857E-001,6.78405E+000,-4.63939E+001,9.97908E-001,1.32168E-001,-5.59964E-002,-4.16958E-004,1.32169E-001,-5.59974E-002,-1.26962E-001,1.32681E-001,1.14129E+000,-3.81545E-003,0.00000E+000,2.35573E-003,9.48047E-001,0.00000E+000,5.48277E-005,-7.28785E-002,1.00000E+000,21
749,1327,-8.69766E+000,-6.26038E-001,7.48481E-002,3.28358E+000,-5.58436E-001,1.21067E-001,3.33292E+000,9.26252E-003,5.25993E-001,0,5.06802E+001,-9.39790E+000,9.98456E-001,6.73989E+000,-4.70527E+001,9.98071E-001,1.32084E-001,-5.60007E-002,-6.03671E-004,1.32086E-001,-5.60026E-002,-1.83893E-001,1.32593E-001,1.14120E+000,-3.81627E-003,0.00000E+000,2.05568E-003,9.48045E-001,0.00000E+000,-7.33560E-004,-7.28852E-002,1.00000E+000,21
749,1337,-8.68756E+000,-1.63990E-002,3.17499E-002,3.28180E+000,-5.89154E-001,7.77717E-002,3.33517E+000,9.35464E-003,5.60920E-001,0,5.07836E+001,-9.81195E+000,9.98371E-001,6.91290E+000,-4.75536E+001,9.98098E-001,1.31998E-001,-5.60087E-002,-7.91885E-004,1.32001E-001,-5.60120E-002,-2.41324E-001,1.32504E-001,1.14110E+000,-3.81805E-003,0.00000E+000,1.75390E-003,9.48039E-001,0.00000E+000,-1.52647E-003,-7.28999E-002,1.00000E+000,21
749,1347,-8.67224E+000,5.92741E-001,7.90284E-003,3.28072E+000,-6.23402E-001,2.98429E-002,3.33956E+000,1.00499E-002,5.31208E-001,0,5.09101E+001,-1.02466E+001,9.98496E-001,7.21575E+000,-4.81373E+001,9.98302E-001,1.31912E-001,-5.60192E-002,-9.80882E-004,1.31917E-001,-5.60243E-002,-2.99037E-001,1.32415E-001,1.14100E+000,-3.82051E-003,0.00000E+000,1.45138E-003,9.48032E-001,0.00000E+000,-2.32137E-003,-7.29201E-002,1.00000E+000,21
1109,1297,1.82312E+001,-1.95153E+000,1.24255E-001,6.75845E+000,-1.62686E-001,7.31170E-002,6.76081E+000,1.04098E-002,4.71112E-001,0,1.01816E+002,-3.51733E+000,9.98221E-001,6.30249E+001,-3.41851E+001,9.96566E-001,1.33009E-001,-5.58931E-002,-1.56962E-003,1.33022E-001,-5.59061E-002,-4.76037E-001,1.33584E-001,1.14200E+000,-2.53424E-002,0.00000E+000,1.77155E-002,9.47294E-001,0.00000E+000,4.07590E-003,-6.21124E-002,1.00000E+000,21
1109,1307,1.82241E+001,-1.34592E+000,4.12650E-002,6.74482E+000,-1.98868E-001,2.90252E-002,6.74782E+000,1.17528E-002,4.20470E-001,0,1.01787E+002,-3.99715E+000,9.98600E-001,6.28425E+001,-3.46406E+001,9.97908E-001,1.33803E-001,-5.58966E-002,-1.61362E-003,1.33816E-001,-5.59103E-002,-4.87323E-001,1.34418E-001,1.14290E+000,-2.53332E-002,0.00000E+000,1.76484E-002,9.47294E-001,0.00000E+000,3.37185E-003,-6.21196E-002,1.00000E+000,21
1109,1317,1.82181E+001,-7.38522E-001,-2.27776E-002,6.72838E+000,-2.35892E-001,-1.16971E-002,6.73252E+000,1.30990E-002,4.29846E-001,0,1.01700E+002,-4.52015E+000,9.98194E-001,6.27070E+001,-3.50791E+001,9.97060E-001,1.34598E-001,-5.59007E-002,-1.65551E-003,1.34612E-001,-5.59151E-002,-4.97873E-001,1.35253E-001,1.14381E+000,-2.53187E-002,0.00000E+000,1.75812E-002,9.47293E-001,0.00000E+000,2.66589E-003,-6.21309E-002,1.00000E+000,21
749,1357,-8.64810E+000,1.20922E+000,3.24498E-002,3.28084E+000,-6.57015E-001,-9.72456E-003,3.34599E+000,1.21749E-002,5.40340E-001,0,5.10249E+001,-1.07002E+001,9.98539E-001,7.77949E+000,-4.86962E+001,9.98161E-001,1.31824E-001,-5.60341E-002,-1.17167E-003,1.31831E-001,-5.60415E-002,-3.57335E-001,1.32323E-001,1.14091E+000,-3.82411E-003,0.00000E+000,1.14682E-003,9.48020E-001,0.00000E+000,-3.12160E-003,-7.29496E-002,1.00000E+000,21
1109,1327,1.82156E+001,-1.29976E-001,-6.66927E-002,6.71065E+000,-2.74741E-001,-5.20472E-002,6.71647E+000,1.18338E-002,4.29538E-001,0,1.01587E+002,-5.06569E+000,9.97581E-001,6.26605E+001,-3.55486E+001,9.96173E-001,1.35393E-001,-5.59057E-002,-1.69468E-003,1.35408E-001,-5.59207E-002,-5.07518E-001,1.36090E-001,1.14472E+000,-2.52975E-002,0.00000E+000,1.75139E-002,9.47291E-001,0.00000E+000,1.95790E-003,-6.21473E-002,1.00000E+000,21
1109,1337,1.82207E+001,4.91206E-001,-8.06765E-002,6.69516E+000,-3.05314E-001,-8.42511E-002,6.70265E+000,1.23476E-002,4.67403E-001,0,1.01469E+002,-5.50427E+000,9.98552E-001,6.27833E+001,-3.58698E+001,9.97998E-001,1.36192E-001,-5.59116E-002,-1.73093E-003,1.36208E-001,-5.59272E-002,-5.16203E-001,1.36931E-001,1.14563E+000,-2.52690E-002,0.00000E+000,1.74462E-002,9.47289E-001,0.00000E+000,1.24647E-003,-6.21695E-002,1.00000E+000,21
1109,1347,1.82384E+001,1.11349E+000,-5.21214E-002,6.68290E+000,-3.39902E-001,-1.12513E-001,6.69248E+000,1.23925E-002,4.63542E-001,0,1.01376E+002,-6.00458E+000,9.98650E-001,6.31741E+001,-3.62905E+001,9.97562E-001,1.36993E-001,-5.59191E-002,-1.76185E-003,1.37009E-001,-5.59352E-002,-5.23219E-001,1.37775E-001,1.14655E+000,-2.52276E-002,0.00000E+000,1.73781E-002,9.47286E-001,0.00000E+000,5.31823E-004,-6.22018E-002,1.00000E+000,21
739,1337,-9.42051E+000,-2.80045E-002,3.20094E-002,3.19288E+000,-5.94999E-001,7.63594E-002,3.24875E+000,1.04091E-002,5.71005E-001,0,4.94458E+001,-9.89850E+000,9.98286E-001,5.66393E+000,-4.78308E+001,9.98012E-001,1.30796E-001,-5.55267E-002,-8.85719E-004,1.30800E-001,-5.55309E-002,-2.72358E-001,1.31295E-001,1.13973E+000,-3.64721E-003,0.00000E+000,1.41994E-003,9.48455E-001,0.00000E+000,-1.26215E-003,-7.22806E-002,1.00000E+000,21
739,1347,-9.40916E+000,5.84426E-001,1.21204E-002,3.18828E+000,-6.25634E-001,3.39712E-002,3.24926E+000,7.79430E-003,5.52834E-001,0,4.94994E+001,-1.02923E+001,9.99183E-001,5.91776E+000,-4.83690E+001,9.99008E-001,1.30526E-001,-5.55372E-002,-1.08193E-003,1.30532E-001,-5.55435E-002,-3.33150E-001,1.31014E-001,1.13942E+000,-3.65476E-003,0.00000E+000,1.11161E-003,9.48447E-001,0.00000E+000,-2.11142E-003,-7.23016E-002,1.00000E+000,21
739,1357,-9.38565E+000,1.20323E+000,3.70580E-002,3.18835E+000,-6.56267E-001,-3.24632E-003,3.25519E+000,8.87133E-003,5.25095E-001,0,4.96052E+001,-1.06880E+001,9.98721E-001,6.47569E+000,-4.89133E+001,9.98798E-001,1.30254E-001,-5.55520E-002,-1.28091E-003,1.30263E-001,-5.55609E-002,-3.94961E-001,1.30731E-001,1.13912E+000,-3.66583E-003,0.00000E+000,8.01365E-004,9.48436E-001,0.00000E+000,-2.96597E-003,-7.23324E-002,1.00000E+000,21
739,1327,-9.43213E+000,-6.32850E-001,7.70984E-002,3.19300E+000,-5.59463E-001,1.21462E-001,3.24391E+000,9.89675E-003,5.12647E-001,0,4.93107E+001,-9.40574E+000,9.99163E-001,5.47339E+000,-4.72703E+001,9.98804E-001,1.31064E-001,-5.55187E-002,-6.90804E-004,1.31066E-001,-5.55213E-002,-2.12128E-001,1.31575E-001,1.14004E+000,-3.64165E-003,0.00000E+000,1.72763E-003,9.48460E-001,0.00000E+000,-4.14645E-004,-7.22652E-002,1.00000E+000,21
1119,1297,1.89797E+001,-1.93568E+000,1.15411E-001,6.85038E+000,-1.49958E-001,7.94299E-002,6.85248E+000,1.12529E-002,4.33588E-001,0,1.03097E+002,-3.33230E+000,9.98950E-001,6.46671E+001,-3.38483E+001,9.98264E-001,1.33598E-001,-5.57960E-002,-1.73106E-003,1.33614E-001,-5.58118E-002,-5.23624E-001,1.34216E-001,1.14269E+000,-2.42827E-002,0.00000E+000,1.65237E-002,9.47450E-001,0.00000E+000,3.99237E-003,-6.28093E-002,1.00000E+000,21
1119,1307,1.89742E+001,-1.33137E+000,3.79253E-002,6.83687E+000,-1.88561E-001,3.51975E-002,6.83956E+000,1.00624E-002,4.23855E-001,0,1.03071E+002,-3.86827E+000,9.98907E-001,6.45182E+001,-3.43134E+001,9.98742E-001,1.34353E-001,-5.57963E-002,-1.72342E-003,1.34369E-001,-5.58119E-002,-5.19243E-001,1.35009E-001,1.14355E+000,-2.42720E-002,0.00000E+000,1.65598E-002,9.47451E-001,0.00000E+000,3.21973E-003,-6.28189E-002,1.00000E+000,21
1119,1317,1.89730E+001,-7.22711E-001,-2.31256E-002,6.82439E+000,-2.24572E-001,-5.67002E-003,6.82808E+000,1.04453E-002,4.21056E-001,0,1.03043E+002,-4.37696E+000,9.98495E-001,6.44626E+001,-3.47427E+001,9.98422E-001,1.35107E-001,-5.57966E-002,-1.71399E-003,1.35123E-001,-5.58120E-002,-5.14363E-001,1.35802E-001,1.14441E+000,-2.42571E-002,0.00000E+000,1.65960E-002,9.47451E-001,0.00000E+000,2.44585E-003,-6.28323E-002,1.00000E+000,21
1119,1327,1.89717E+001,-1.11629E-001,-6.29418E-002,6.80705E+000,-2.61324E-001,-4.49889E-002,6.81221E+000,9.67795E-003,4.04527E-001,0,1.02932E+002,-4.88860E+000,9.98404E-001,6.44420E+001,-3.51882E+001,9.98225E-001,1.35863E-001,-5.57970E-002,-1.70187E-003,1.35878E-001,-5.58121E-002,-5.08711E-001,1.36598E-001,1.14528E+000,-2.42359E-002,0.00000E+000,1.66323E-002,9.47452E-001,0.00000E+000,1.66947E-003,-6.28513E-002,1.00000E+000,21
1119,1337,1.89767E+001,5.04587E-001,-7.91230E-002,6.79062E+000,-2.97793E-001,-8.19600E-002,6.79764E+000,8.81055E-003,4.63381E-001,0,1.02820E+002,-5.41324E+000,9.99166E-001,6.45568E+001,-3.55696E+001,9.98584E-001,1.36622E-001,-5.57975E-002,-1.68680E-003,1.36636E-001,-5.58122E-002,-5.02220E-001,1.37397E-001,1.14614E+000,-2.42079E-002,0.00000E+000,1.66689E-002,9.47453E-001,0.00000E+000,8.88687E-004,-6.28765E-002,1.00000E+000,21
1119,1347,1.89916E+001,1.12618E+000,-5.53990E-002,6.77603E+000,-3.32403E-001,-1.12143E-001,6.78511E+000,1.33969E-002,4.42860E-001,0,1.02701E+002,-5.90880E+000,9.99008E-001,6.48929E+001,-3.59974E+001,9.98234E-001,1.37381E-001,-5.57980E-002,-1.66723E-003,1.37395E-001,-5.58124E-002,-4.94442E-001,1.38198E-001,1.14701E+000,-2.41693E-002,0.00000E+000,1.67055E-002,9.47455E-001,0.00000E+000,1.05862E-004,-6.29112E-002,1.00000E+000,21
739,1317,-9.43280E+000,-1.22661E+000,1.61467E-001,3.19740E+000,-5.19294E-001,1.70604E-001,3.24378E+000,1.26529E-002,5.60539E-001,0,4.92243E+001,-8.88250E+000,9.98955E-001,5.55459E+000,-4.65692E+001,9.98210E-001,1.31329E-001,-5.55146E-002,-4.98577E-004,1.31331E-001,-5.55160E-002,-1.52887E-001,1.31853E-001,1.14034E+000,-3.63924E-003,0.00000E+000,2.03324E-003,9.48463E-001,0.00000E+000,4.27127E-004,-7.22585E-002,1.00000E+000,21
1129,1297,1.97273E+001,-1.91461E+000,1.09069E-001,6.93983E+000,-1.32574E-001,8.34383E-002,6.94160E+000,1.21984E-002,4.20707E-001,0,1.04343E+002,-3.08482E+000,9.99309E-001,6.63047E+001,-3.34239E+001,9.98420E-001,1.33983E-001,-5.58075E-002,-1.96630E-003,1.34003E-001,-5.58279E-002,-5.93521E-001,1.34623E-001,1.14315E+000,-2.32779E-002,0.00000E+000,1.52924E-002,9.47486E-001,0.00000E+000,3.05667E-003,-6.32193E-002,1.00000E+000,21
1129,1307,1.97218E+001,-1.31777E+000,2.88498E-002,6.92604E+000,-1.78789E-001,3.57629E-002,6.92844E+000,1.66194E-002,3.86103E-001,0,1.04331E+002,-3.72138E+000,9.99214E-001,6.61503E+001,-3.40097E+001,9.96910E-001,1.34795E-001,-5.58041E-002,-1.90001E-003,1.34813E-001,-5.58231E-002,-5.71085E-001,1.35475E-001,1.14408E+000,-2.32660E-002,0.00000E+000,1.54354E-002,9.47488E-001,0.00000E+000,2.34497E-003,-6.32284E-002,1.00000E+000,21
1129,1317,1.97245E+001,-7.11322E-001,-3.11460E-002,6.91695E+000,-2.17428E-001,-5.62496E-003,6.92037E+000,9.72075E-003,3.80022E-001,0,1.04358E+002,-4.26907E+000,9.99192E-001,6.61563E+001,-3.44749E+001,9.97548E-001,1.35607E-001,-5.58002E-002,-1.83156E-003,1.35624E-001,-5.58177E-002,-5.48192E-001,1.36330E-001,1.14500E+000,-2.32493E-002,0.00000E+000,1.55786E-002,9.47491E-001,0.00000E+000,1.63186E-003,-6.32413E-002,1.00000E+000,21
729,1347,-1.01335E+001,5.71133E-001,2.02313E-002,3.10686E+000,-6.34265E-001,3.58653E-002,3.17114E+000,6.65082E-003,5.59574E-001,0,4.82654E+001,-1.04190E+001,9.99587E-001,4.82709E+000,-4.86916E+001,9.99382E-001,1.29104E-001,-5.51014E-002,-9.50067E-004,1.29109E-001,-5.51063E-002,-2.95501E-001,1.29569E-001,1.13781E+000,-2.98651E-003,0.00000E+000,8.17081E-004,9.48791E-001,0.00000E+000,-2.19565E-003,-7.12812E-002,1.00000E+000,21
729,1357,-1.01164E+001,1.19580E+000,3.74314E-002,3.10187E+000,-6.58095E-001,-2.98661E-003,3.17091E+000,8.29815E-003,5.39085E-001,0,4.82958E+001,-1.07049E+001,9.99028E-001,5.26990E+000,-4.91279E+001,9.99140E-001,1.28587E-001,-5.51123E-002,-1.11170E-003,1.28593E-001,-5.51190E-002,-3.46722E-001,1.29029E-001,1.13722E+000,-3.00637E-003,0.00000E+000,6.00388E-004,9.48784E-001,0.00000E+000,-3.28109E-003,-7.13180E-002,1.00000E+000,21
1129,1327,1.97275E+001,-9.66812E-002,-6.60687E-002,6.90432E+000,-2.49977E-001,-3.78391E-002,6.90894E+000,1.14112E-002,3.93920E-001,0,1.04289E+002,-4.75621E+000,9.99005E-001,6.62094E+001,-3.48586E+001,9.98492E-001,1.36419E-001,-5.57955E-002,-1.76066E-003,1.36435E-001,-5.58117E-002,-5.24763E-001,1.37185E-001,1.14593E+000,-2.32271E-002,0.00000E+000,1.57222E-002,9.47494E-001,0.00000E+000,9.17370E-004,-6.32583E-002,1.00000E+000,21
729,1337,-1.01527E+001,-3.41937E-002,3.79277E-002,3.10465E+000,-5.95237E-001,8.23116E-002,3.16227E+000,9.34177E-003,5.66033E-001,0,4.80934E+001,-9.90588E+000,9.98909E-001,4.44772E+000,-4.80443E+001,9.98335E-001,1.29618E-001,-5.50928E-002,-7.91087E-004,1.29621E-001,-5.50962E-002,-2.45383E-001,1.30106E-001,1.13839E+000,-2.97122E-003,0.00000E+000,1.03293E-003,9.48797E-001,0.00000E+000,-1.11444E-003,-7.12528E-002,1.00000E+000,21
729,1327,-1.01631E+001,-6.37008E-001,8.38877E-002,3.10495E+000,-5.59621E-001,1.23686E-001,3.15740E+000,9.83070E-003,5.47119E-001,0,4.79725E+001,-9.40701E+000,9.98777E-001,4.27723E+000,-4.74327E+001,9.98269E-001,1.30127E-001,-5.50872E-002,-6.35527E-004,1.30130E-001,-5.50894E-002,-1.96596E-001,1.30638E-001,1.13897E+000,-2.96154E-003,0.00000E+000,1.24746E-003,9.48800E-001,0.00000E+000,-3.98237E-005,-7.12348E-002,1.00000E+000,21
1129,1337,1.97412E+001,5.21977E-001,-6.66783E-002,6.89060E+000,-2.88947E-001,-8.27728E-002,6.89715E+000,1.19893E-002,4.65465E-001,0,1.04245E+002,-5.28920E+000,9.98817E-001,6.64841E+001,-3.52274E+001,9.98736E-001,1.37240E-001,-5.57890E-002,-1.68198E-003,1.37255E-001,-5.58037E-002,-4.99202E-001,1.38051E-001,1.14687E+000,-2.31885E-002,0.00000E+000,1.58675E-002,9.47500E-001,0.00000E+000,1.94136E-004,-6.32880E-002,1.00000E+000,21
729,1317,-1.01675E+001,-1.23450E+000,1.54796E-001,3.10702E+000,-5.21661E-001,1.66957E-001,3.15493E+000,1.17121E-002,5.64263E-001,0,4.78701E+001,-8.90006E+000,9.98698E-001,4.26613E+000,-4.67744E+001,9.97730E-001,1.30634E-001,-5.50835E-002,-4.82049E-004,1.30635E-001,-5.50847E-002,-1.48716E-001,1.31169E-001,1.13955E+000,-2.95570E-003,0.00000E+000,1.46146E-003,9.48803E-001,0.00000E+000,1.03211E-003,-7.12240E-002,1.00000E+000,21
1129,1347,1.97494E+001,1.14563E+000,-5.75137E-002,6.87197E+000,-3.20200E-001,-1.15913E-001,6.88040E+000,1.45130E-002,4.59006E-001,0,1.04079E+002,-5.73113E+000,9.98645E-001,6.66901E+001,-3.55834E+001,9.97969E-001,1.38057E-001,-5.57826E-002,-1.60398E-003,1.38070E-001,-5.57958E-002,-4.74066E-001,1.38914E-001,1.14781E+000,-2.31507E-002,0.00000E+000,1.60122E-002,9.47506E-001,0.00000E+000,-5.26213E-004,-6.33171E-002,1.00000E+000,21
719,1347,-1.08692E+001,5.70670E-001,1.73644E-002,3.01513E+000,-6.28589E-001,3.44936E-002,3.08015E+000,1.09465E-002,5.61087E-001,0,4.68762E+001,-1.03167E+001,9.98974E-001,3.54128E+000,-4.87972E+001,9.98838E-001,1.28034E-001,-5.48680E-002,-8.87892E-004,1.28038E-001,-5.48723E-002,-2.78132E-001,1.28473E-001,1.13659E+000,-2.17192E-003,0.00000E+000,2.52672E-004,9.48936E-001,0.00000E+000,-2.09251E-003,-7.01365E-002,1.00000E+000,21
719,1357,-1.08529E+001,1.18699E+000,3.46126E-002,3.00962E+000,-6.61054E-001,-3.47330E-003,3.08136E+000,9.27661E-003,5.53867E-001,0,4.68979E+001,-1.07358E+001,9.98928E-001,3.97113E+000,-4.93573E+001,9.99091E-001,1.27272E-001,-5.48746E-002,-9.96557E-004,1.27278E-001,-5.48801E-002,-3.13463E-001,1.27679E-001,1.13573E+000,-2.20064E-003,0.00000E+000,1.55998E-004,9.48933E-001,0.00000E+000,-3.37182E-003,-7.01792E-002,1.00000E+000,21
719,1337,-1.08859E+001,-3.63265E-002,3.86190E-002,3.01444E+000,-5.92442E-001,8.02407E-002,3.07315E+000,1.20183E-002,5.83717E-001,0,4.67310E+001,-9.84987E+000,9.98263E-001,3.20751E+000,-4.81732E+001,9.97424E-001,1.28789E-001,-5.48630E-002,-7.83165E-004,1.28792E-001,-5.48664E-002,-2.44327E-001,1.29261E-001,1.13745E+000,-2.15072E-003,0.00000E+000,3.48776E-004,9.48939E-001,0.00000E+000,-8.20755E-004,-7.01050E-002,1.00000E+000,21
719,1327,-1.08939E+001,-6.38603E-001,8.81932E-002,3.01677E+000,-5.56830E-001,1.23574E-001,3.07022E+000,8.71815E-003,5.80032E-001,0,4.66366E+001,-9.36227E+000,9.98110E-001,3.08374E+000,-4.75511E+001,9.97673E-001,1.29537E-001,-5.48598E-002,-6.82286E-004,1.29540E-001,-5.48623E-002,-2.11996E-001,1.30044E-001,1.13830E+000,-2.13704E-003,0.00000E+000,4.44367E-004,9.48940E-001,0.00000E+000,4.44220E-004,-7.00847E-002,1.00000E+000,21
719,1317,-1.08989E+001,-1.23675E+000,1.68327E-001,3.01704E+000,-5.20065E-001,1.70297E-001,3.06626E+000,1.15221E-002,5.49451E-001,0,4.64968E+001,-8.86495E+000,9.98000E-001,3.08698E+000,-4.69444E+001,9.97400E-001,1.30282E-001,-5.48579E-002,-5.84517E-004,1.30284E-001,-5.48598E-002,-1.80890E-001,1.30824E-001,1.13915E+000,-2.12996E-003,0.00000E+000,5.39755E-004,9.48941E-001,0.00000E+000,1.70650E-003,-7.00742E-002,1.00000E+000,21
1139,1297,2.04900E+001,-1.90485E+000,1.09514E-001,7.04247E+000,-1.26168E-001,8.83933E-002,7.04415E+000,8.34398E-003,3.58025E-001,0,1.05784E+002,-3.00332E+000,9.99638E-001,6.81909E+001,-3.32125E+001,9.98680E-001,1.34335E-001,-5.59310E-002,-2.11625E-003,1.34359E-001,-5.59545E-002,-6.37173E-001,1.34982E-001,1.14357E+000,-2.22320E-002,0.00000E+000,1.42037E-002,9.47416E-001,0.00000E+000,1.88625E-003,-6.36829E-002,1.00000E+000,21
1139,1307,2.04827E+001,-1.30853E+000,1.86643E-002,7.02794E+000,-1.72953E-001,3.48274E-002,7.03016E+000,1.02338E-002,3.34665E-001,0,1.05787E+002,-3.63440E+000,9.99472E-001,6.79913E+001,-3.37766E+001,9.98538E-001,1.35253E-001,-5.59264E-002,-2.02381E-003,1.35275E-001,-5.59478E-002,-6.06438E-001,1.35946E-001,1.14462E+000,-2.22203E-002,0.00000E+000,1.43912E-002,9.47418E-001,0.00000E+000,1.24946E-003,-6.36900E-002,1.00000E+000,21
1139,1337,2.04953E+001,5.43848E-001,-6.99282E-002,6.98353E+000,-2.73005E-001,-8.40140E-002,6.98937E+000,1.27096E-002,4.84527E-001,0,1.05564E+002,-5.06918E+000,9.98470E-001,6.82290E+001,-3.47740E+001,9.97684E-001,1.38021E-001,-5.59039E-002,-1.72046E-003,1.38037E-001,-5.59192E-002,-5.08261E-001,1.38863E-001,1.14779E+000,-2.21289E-002,0.00000E+000,1.49580E-002,9.47435E-001,0.00000E+000,-6.76402E-004,-6.37455E-002,1.00000E+000,21
1139,1347,2.05156E+001,1.16317E+000,-4.35215E-002,6.97272E+000,-3.11747E-001,-1.16391E-001,6.98065E+000,1.32725E-002,4.90347E-001,0,1.05512E+002,-5.62785E+000,9.98256E-001,6.86487E+001,-3.52265E+001,9.97140E-001,1.38948E-001,-5.58935E-002,-1.61058E-003,1.38961E-001,-5.59069E-002,-4.73571E-001,1.39842E-001,1.14885E+000,-2.20793E-002,0.00000E+000,1.51484E-002,9.47443E-001,0.00000E+000,-1.32301E-003,-6.37756E-002,1.00000E+000,21
1139,1327,2.04861E+001,-8.15892E-002,-7.44400E-002,7.00166E+000,-2.42349E-001,-4.50456E-002,7.00600E+000,1.26195E-002,4.34570E-001,0,1.05700E+002,-4.63636E+000,9.98710E-001,6.80168E+001,-3.44893E+001,9.97310E-001,1.37095E-001,-5.59134E-002,-1.82768E-003,1.37112E-001,-5.59307E-002,-5.42493E-001,1.37885E-001,1.14673E+000,-2.21726E-002,0.00000E+000,1.47681E-002,9.47427E-001,0.00000E+000,-3.09563E-005,-6.37190E-002,1.00000E+000,21
1139,1317,2.04755E+001,-7.00348E-001,-4.69317E-002,7.00999E+000,-2.10176E-001,-7.70705E-003,7.01314E+000,1.20449E-002,3.73248E-001,0,1.05686E+002,-4.16794E+000,9.99408E-001,6.78343E+001,-3.41799E+001,9.97922E-001,1.36172E-001,-5.59209E-002,-1.92878E-003,1.36191E-001,-5.59403E-002,-5.75223E-001,1.36913E-001,1.14567E+000,-2.22029E-002,0.00000E+000,1.45791E-002,9.47421E-001,0.00000E+000,6.11130E-004,-6.37005E-002,1.00000E+000,21
709,1347,-1.16075E+001,5.70627E-001,2.02745E-002,2.92042E+000,-6.22407E-001,3.92588E-002,2.98626E+000,1.05342E-002,5.51602E-001,0,4.54207E+001,-1.02151E+001,9.98740E-001,2.23525E+000,-4.89151E+001,9.98586E-001,1.27014E-001,-5.40500E-002,-9.97129E-004,1.27019E-001,-5.40555E-002,-3.15518E-001,1.27488E-001,1.13543E+000,-1.33196E-003,0.00000E+000,-6.64878E-004,9.49634E-001,0.00000E+000,-1.93462E-003,-6.89413E-002,1.00000E+000,21
709,1357,-1.15891E+001,1.18628E+000,3.57634E-002,2.91789E+000,-6.53981E-001,2.57042E-003,2.99028E+000,9.77437E-003,5.64166E-001,0,4.54842E+001,-1.06474E+001,9.99002E-001,2.69591E+000,-4.94733E+001,9.99004E-001,1.26124E-001,-5.40590E-002,-1.15011E-003,1.26131E-001,-5.40663E-002,-3.65699E-001,1.26558E-001,1.13443E+000,-1.36434E-003,0.00000E+000,-8.46140E-004,9.49628E-001,0.00000E+000,-3.19282E-003,-6.89817E-002,1.00000E+000,21
709,1337,-1.16152E+001,-4.24469E-002,4.19685E-002,2.92712E+000,-5.93666E-001,7.74410E-002,2.98772E+000,9.70112E-003,5.53735E-001,0,4.54145E+001,-9.83859E+000,9.98507E-001,2.03869E+000,-4.83925E+001,9.98201E-001,1.27897E-001,-5.40437E-002,-8.49369E-004,1.27901E-001,-5.40477E-002,-2.67471E-001,1.28411E-001,1.13644E+000,-1.30969E-003,0.00000E+000,-4.84544E-004,9.49638E-001,0.00000E+000,-6.82863E-004,-6.89134E-002,1.00000E+000,21
709,1317,-1.16253E+001,-1.23739E+000,1.85155E-001,2.93087E+000,-5.17810E-001,1.72423E-001,2.98125E+000,1.20663E-002,5.51039E-001,0,4.51838E+001,-8.82105E+000,9.98751E-001,1.99936E+000,-4.70881E+001,9.98436E-001,1.29646E-001,-5.40375E-002,-5.65758E-004,1.29647E-001,-5.40392E-002,-1.76473E-001,1.30244E-001,1.13843E+000,-1.28810E-003,0.00000E+000,-1.26131E-004,9.49642E-001,0.00000E+000,1.80500E-003,-6.88864E-002,1.00000E+000,21
709,1327,-1.16197E+001,-6.41124E-001,1.02377E-001,2.93079E+000,-5.56064E-001,1.20312E-001,2.98550E+000,1.31832E-002,5.68857E-001,0,4.53413E+001,-9.33231E+000,9.98823E-001,1.99792E+000,-4.77265E+001,9.98289E-001,1.28773E-001,-5.40401E-002,-7.06634E-004,1.28776E-001,-5.40429E-002,-2.21463E-001,1.29329E-001,1.13743E+000,-1.29705E-003,0.00000E+000,-3.05200E-004,9.49641E-001,0.00000E+000,5.62026E-004,-6.88976E-002,1.00000E+000,21
1149,1297,2.12426E+001,-1.89482E+000,9.60325E-002,7.13638E+000,-1.20884E-001,8.73708E-002,7.13794E+000,1.91853E-002,3.97282E-001,0,1.07118E+002,-2.93756E+000,9.98958E-001,6.99000E+001,-3.29179E+001,9.96306E-001,1.34656E-001,-5.60497E-002,-2.23031E-003,1.34682E-001,-5.60758E-002,-6.69954E-001,1.35309E-001,1.14395E+000,-2.12484E-002,0.00000E+000,1.32479E-002,9.47357E-001,0.00000E+000,5.37009E-004,-6.43022E-002,1.00000E+000,21
1149,1307,2.12452E+001,-1.28654E+000,1.78938E-002,7.13058E+000,-1.55701E-001,4.15042E-002,7.13240E+000,1.23453E-002,3.79505E-001,0,1.07216E+002,-3.42001E+000,9.99189E-001,6.98780E+001,-3.33178E+001,9.97775E-001,1.35679E-001,-5.60459E-002,-2.15071E-003,1.35703E-001,-5.60700E-002,-6.42618E-001,1.36383E-001,1.14512E+000,-2.12330E-002,0.00000E+000,1.34005E-002,9.47359E-001,0.00000E+000,9.74794E-006,-6.43091E-002,1.00000E+000,21
1149,1317,2.12420E+001,-6.78920E-001,-4.24471E-002,7.11438E+000,-1.95217E-001,-4.41744E-003,7.11706E+000,1.12438E-002,4.04882E-001,0,1.07155E+002,-3.97164E+000,9.99137E-001,6.97918E+001,-3.37457E+001,9.97507E-001,1.36705E-001,-5.60411E-002,-2.06735E-003,1.36727E-001,-5.60633E-002,-6.14449E-001,1.37463E-001,1.14630E+000,-2.12097E-002,0.00000E+000,1.35538E-002,9.47362E-001,0.00000E+000,-5.20061E-004,-6.43196E-002,1.00000E+000,21
1149,1327,2.12431E+001,-6.17208E-002,-7.89296E-002,7.09805E+000,-2.26057E-001,-4.42504E-002,7.10179E+000,1.11124E-002,3.87158E-001,0,1.07061E+002,-4.40825E+000,9.98963E-001,6.98107E+001,-3.40989E+001,9.97402E-001,1.37729E-001,-5.60355E-002,-1.98070E-003,1.37750E-001,-5.60557E-002,-5.85607E-001,1.38543E-001,1.14747E+000,-2.11785E-002,0.00000E+000,1.37072E-002,9.47366E-001,0.00000E+000,-1.04987E-003,-6.43337E-002,1.00000E+000,21
1149,1337,2.12544E+001,5.54456E-001,-8.24334E-002,7.08343E+000,-2.67320E-001,-8.45301E-002,7.08898E+000,1.69245E-002,4.66394E-001,0,1.06989E+002,-4.98437E+000,9.98936E-001,7.00397E+001,-3.44929E+001,9.98113E-001,1.38765E-001,-5.60281E-002,-1.88677E-003,1.38783E-001,-5.60464E-002,-5.54899E-001,1.39636E-001,1.14866E+000,-2.11323E-002,0.00000E+000,1.38623E-002,9.47372E-001,0.00000E+000,-1.58596E-003,-6.43545E-002,1.00000E+000,21
1149,1347,2.12813E+001,1.17797E+000,-4.01701E-002,7.07523E+000,-3.05007E-001,-1.16153E-001,7.08276E+000,1.66786E-002,4.75123E-001,0,1.06970E+002,-5.52019E+000,9.98862E-001,7.05855E+001,-3.49117E+001,9.97824E-001,1.39801E-001,-5.60190E-002,-1.78567E-003,1.39817E-001,-5.60353E-002,-5.22418E-001,1.40732E-001,1.14986E+000,-2.10697E-002,0.00000E+000,1.40179E-002,9.47380E-001,0.00000E+000,-2.12357E-003,-6.43827E-002,1.00000E+000,21
699,1347,-1.23303E+001,5.65682E-001,2.86862E-002,2.83942E+000,-6.23587E-001,4.17863E-002,2.90739E+000,1.07160E-002,5.82898E-001,0,4.41840E+001,-1.02256E+001,9.99072E-001,1.18621E+000,-4.90981E+001,9.98991E-001,1.25888E-001,-5.32586E-002,-8.84319E-004,1.25892E-001,-5.32629E-002,-2.82819E-001,1.26388E-001,1.13416E+000,-6.76131E-005,0.00000E+000,-1.51973E-003,9.50305E-001,0.00000E+000,-1.71380E-003,-6.77088E-002,1.00000E+000,21
699,1357,-1.23137E+001,1.17523E+000,4.16314E-002,2.83548E+000,-6.60781E-001,4.29044E-003,2.91146E+000,1.03297E-002,5.72733E-001,0,4.42293E+001,-1.07320E+001,9.98976E-001,1.61143E+000,-4.97581E+001,9.98901E-001,1.24903E-001,-5.32640E-002,-9.87114E-004,1.24908E-001,-5.32694E-002,-3.17428E-001,1.25358E-001,1.13304E+000,-1.02523E-004,0.00000E+000,-1.61526E-003,9.50302E-001,0.00000E+000,-2.82283E-003,-6.77436E-002,1.00000E+000,21
699,1337,-1.23465E+001,-5.07271E-002,4.86905E-002,2.83766E+000,-5.97022E-001,7.93013E-002,2.90087E+000,8.27124E-003,5.48650E-001,0,4.40499E+001,-9.88118E+000,9.98861E-001,8.52671E-001,-4.86405E+001,9.98996E-001,1.26868E-001,-5.32548E-002,-7.86294E-004,1.26872E-001,-5.32582E-002,-2.50108E-001,1.27415E-001,1.13527E+000,-4.28583E-005,0.00000E+000,-1.42447E-003,9.50307E-001,0.00000E+000,-6.07932E-004,-6.76842E-002,1.00000E+000,21
699,1317,-1.23581E+001,-1.23812E+000,1.98586E-001,2.83758E+000,-5.16706E-001,1.68944E-001,2.88918E+000,1.25961E-002,6.01519E-001,0,4.37749E+001,-8.79538E+000,9.98993E-001,8.10779E-001,-4.72025E+001,9.98465E-001,1.28803E-001,-5.32518E-002,-6.05055E-004,1.28805E-001,-5.32539E-002,-1.90419E-001,1.29446E-001,1.13747E+000,-2.30182E-005,0.00000E+000,-1.23583E-003,9.50309E-001,0.00000E+000,1.58203E-003,-6.76644E-002,1.00000E+000,21
699,1327,-1.23533E+001,-6.42262E-001,1.09022E-001,2.83832E+000,-5.55369E-001,1.19172E-001,2.89459E+000,1.01331E-002,6.64347E-001,0,4.39381E+001,-9.31737E+000,9.98958E-001,7.76734E-001,-4.78126E+001,9.97773E-001,1.27835E-001,-5.32529E-002,-6.94560E-004,1.27837E-001,-5.32555E-002,-2.19753E-001,1.28429E-001,1.13637E+000,-3.00349E-005,0.00000E+000,-1.33033E-003,9.50308E-001,0.00000E+000,4.84926E-004,-6.76714E-002,1.00000E+000,21
1159,1307,2.19945E+001,-1.27818E+000,-1.75369E-003,7.22076E+000,-1.51444E-001,3.41850E-002,7.22243E+000,1.35927E-002,3.71368E-001,0,1.08517E+002,-3.34703E+000,9.97783E-001,7.15324E+001,-3.30582E+001,9.96380E-001,1.36217E-001,-5.63569E-002,-2.17794E-003,1.36241E-001,-5.63815E-002,-6.47886E-001,1.36914E-001,1.14576E+000,-2.03072E-002,0.00000E+000,1.26497E-002,9.47100E-001,0.00000E+000,-1.25758E-003,-6.47065E-002,1.00000E+000,21
1159,1317,2.19987E+001,-6.62403E-001,-5.62046E-002,7.21183E+000,-1.83630E-001,-5.94338E-003,7.21417E+000,1.37613E-002,4.24790E-001,0,1.08541E+002,-3.80462E+000,9.98145E-001,7.15711E+001,-3.33553E+001,9.97890E-001,1.37306E-001,-5.63572E-002,-2.16342E-003,1.37330E-001,-5.63814E-002,-6.39945E-001,1.38061E-001,1.14700E+000,-2.02821E-002,0.00000E+000,1.26721E-002,9.47100E-001,0.00000E+000,-1.81390E-003,-6.47177E-002,1.00000E+000,21
1159,1327,2.20081E+001,-4.82979E-002,-7.89130E-002,7.20131E+000,-2.20280E-001,-4.13570E-002,7.20480E+000,9.26835E-003,4.04723E-001,0,1.08517E+002,-4.32263E+000,9.99117E-001,7.17400E+001,-3.37850E+001,9.98554E-001,1.38396E-001,-5.63576E-002,-2.14343E-003,1.38420E-001,-5.63812E-002,-6.30487E-001,1.39210E-001,1.14826E+000,-2.02442E-002,0.00000E+000,1.26946E-002,9.47101E-001,0.00000E+000,-2.37145E-003,-6.47346E-002,1.00000E+000,21
1159,1297,2.19942E+001,-1.88267E+000,7.47663E-002,7.22971E+000,-1.12884E-001,8.14524E-002,7.23105E+000,1.41957E-002,4.26151E-001,0,1.08459E+002,-2.81772E+000,9.98228E-001,7.15881E+001,-3.25791E+001,9.94688E-001,1.35133E-001,-5.63566E-002,-2.18937E-003,1.35158E-001,-5.63816E-002,-6.54971E-001,1.35775E-001,1.14451E+000,-2.03251E-002,0.00000E+000,1.26274E-002,9.47099E-001,0.00000E+000,-7.04846E-004,-6.46986E-002,1.00000E+000,21
1159,1337,2.20299E+001,5.68011E-001,-6.67801E-002,7.19353E+000,-2.61899E-001,-7.98918E-002,7.19874E+000,1.28771E-002,4.25874E-001,0,1.08539E+002,-4.90807E+000,9.99548E-001,7.21550E+001,-3.42378E+001,9.99318E-001,1.39493E-001,-5.63582E-002,-2.11570E-003,1.39516E-001,-5.63811E-002,-6.18844E-001,1.40369E-001,1.14952E+000,-2.01882E-002,0.00000E+000,1.27173E-002,9.47102E-001,0.00000E+000,-2.93353E-003,-6.47595E-002,1.00000E+000,21
1159,1347,2.20489E+001,1.19157E+000,-4.38270E-002,7.17991E+000,-2.96702E-001,-1.20016E-001,7.18704E+000,1.39970E-002,4.32998E-001,0,1.08473E+002,-5.40289E+000,9.99076E-001,7.25443E+001,-3.46134E+001,9.98498E-001,1.40589E-001,-5.63588E-002,-2.08556E-003,1.40611E-001,-5.63809E-002,-6.06639E-001,1.41527E-001,1.15078E+000,-2.01265E-002,0.00000E+000,1.27400E-002,9.47103E-001,0.00000E+000,-3.49546E-003,-6.47870E-002,1.00000E+000,21
689,1347,-1.30577E+001,5.56874E-001,3.34703E-002,2.75292E+000,-6.28743E-001,3.81862E-002,2.82406E+000,9.62226E-003,6.26396E-001,0,4.28787E+001,-1.02939E+001,9.99329E-001,6.00385E-002,-4.93272E+001,9.98791E-001,1.24701E-001,-5.26943E-002,-8.75133E-004,1.24706E-001,-5.26987E-002,-2.82644E-001,1.25203E-001,1.13281E+000,1.11366E-003,0.00000E+000,-2.49349E-003,9.50790E-001,0.00000E+000,-1.67643E-003,-6.69333E-002,1.00000E+000,21
689,1357,-1.30435E+001,1.16568E+000,3.70847E-002,2.74893E+000,-6.64191E-001,3.11923E-003,2.82804E+000,9.99768E-003,5.86619E-001,0,4.29163E+001,-1.07719E+001,9.99048E-001,4.25419E-001,-4.99951E+001,9.99160E-001,1.23543E-001,-5.27001E-002,-1.00106E-003,1.23549E-001,-5.27058E-002,-3.25427E-001,1.23992E-001,1.13150E+000,1.07717E-003,0.00000E+000,-2.64217E-003,9.50786E-001,0.00000E+000,-2.65278E-003,-6.69605E-002,1.00000E+000,21
689,1337,-1.30706E+001,-4.72879E-002,5.24597E-002,2.75532E+000,-5.88513E-001,7.99920E-002,2.81860E+000,1.03617E-002,5.69136E-001,0,4.27942E+001,-9.74823E+000,9.99170E-001,-2.23631E-001,-4.86881E+001,9.99327E-001,1.25859E-001,-5.26895E-002,-7.51546E-004,1.25863E-001,-5.26926E-002,-2.41163E-001,1.26417E-001,1.13412E+000,1.14454E-003,0.00000E+000,-2.34455E-003,9.50793E-001,0.00000E+000,-6.98409E-004,-6.69103E-002,1.00000E+000,21
1169,1327,2.27643E+001,-3.62064E-002,-8.82346E-002,7.29580E+000,-2.13821E-001,-4.56617E-002,7.29907E+000,8.92918E-003,4.40198E-001,0,1.09868E+002,-4.24493E+000,9.99417E-001,7.35201E+001,-3.34637E+001,9.98942E-001,1.38885E-001,-5.66162E-002,-2.09752E-003,1.38908E-001,-5.66387E-002,-6.14629E-001,1.39694E-001,1.14884E+000,-1.92049E-002,0.00000E+000,1.20014E-002,9.46877E-001,0.00000E+000,-3.74009E-003,-6.49195E-002,1.00000E+000,21
1169,1337,2.27895E+001,5.86647E-001,-6.65416E-002,7.28943E+000,-2.49219E-001,-8.20669E-002,7.29415E+000,1.17204E-002,4.35525E-001,0,1.09898E+002,-4.74266E+000,9.99534E-001,7.40025E+001,-3.38470E+001,9.99049E-001,1.39979E-001,-5.66209E-002,-2.10177E-003,1.40002E-001,-5.66434E-002,-6.12432E-001,1.40849E-001,1.15010E+000,-1.91451E-002,0.00000E+000,1.19561E-002,9.46875E-001,0.00000E+000,-4.21892E-003,-6.49422E-002,1.00000E+000,21
1169,1347,2.28160E+001,1.20812E+000,-3.34394E-002,7.28112E+000,-2.87763E-001,-1.19530E-001,7.28778E+000,1.09019E-002,4.12975E-001,0,1.09902E+002,-5.28271E+000,9.99038E-001,7.45207E+001,-3.42899E+001,9.98861E-001,1.41073E-001,-5.66260E-002,-2.10361E-003,1.41096E-001,-5.66484E-002,-6.09560E-001,1.42006E-001,1.15136E+000,-1.90795E-002,0.00000E+000,1.19108E-002,9.46873E-001,0.00000E+000,-4.69861E-003,-6.49672E-002,1.00000E+000,21
689,1327,-1.30888E+001,-6.50084E-001,9.75041E-002,2.74677E+000,-5.55235E-001,1.16838E-001,2.80476E+000,1.13910E-002,6.40133E-001,0,4.25525E+001,-9.30581E+000,9.98625E-001,-5.17592E-001,-4.80227E+001,9.98341E-001,1.27004E-001,-5.26865E-002,-6.34115E-004,1.27006E-001,-5.26888E-002,-2.02190E-001,1.27618E-001,1.13542E+000,1.16401E-003,0.00000E+000,-2.19711E-003,9.50796E-001,0.00000E+000,2.69835E-004,-6.68957E-002,1.00000E+000,21
1169,1317,2.27553E+001,-6.53401E-001,-5.84117E-002,7.30646E+000,-1.77872E-001,-4.93120E-003,7.30863E+000,1.63215E-002,3.52258E-001,0,1.09872E+002,-3.73247E+000,9.98862E-001,7.33697E+001,-3.31530E+001,9.98598E-001,1.37794E-001,-5.66128E-002,-2.08383E-003,1.37817E-001,-5.66351E-002,-6.14053E-001,1.38543E-001,1.14759E+000,-1.92423E-002,0.00000E+000,1.20464E-002,9.46878E-001,0.00000E+000,-3.26333E-003,-6.49053E-002,1.00000E+000,21
1169,1307,2.27492E+001,-1.26656E+000,-8.80253E-003,7.31500E+000,-1.45622E-001,3.62170E-002,7.31654E+000,1.38501E-002,3.78917E-001,0,1.09839E+002,-3.25953E+000,9.98847E-001,7.32945E+001,-3.27666E+001,9.97853E-001,1.36713E-001,-5.66100E-002,-2.06639E-003,1.36735E-001,-5.66321E-002,-6.12329E-001,1.37405E-001,1.14634E+000,-1.92701E-002,0.00000E+000,1.20910E-002,9.46879E-001,0.00000E+000,-2.79155E-003,-6.48947E-002,1.00000E+000,21
1169,1297,2.27521E+001,-1.87050E+000,7.09422E-002,7.32639E+000,-1.05463E-001,8.29608E-002,7.32762E+000,1.19152E-002,4.45764E-001,0,1.09816E+002,-2.73118E+000,9.98961E-001,7.34059E+001,-3.22813E+001,9.96276E-001,1.35631E-001,-5.66079E-002,-2.04401E-003,1.35653E-001,-5.66296E-002,-6.09114E-001,1.36267E-001,1.14510E+000,-1.92864E-002,0.00000E+000,1.21355E-002,9.46880E-001,0.00000E+000,-2.31986E-003,-6.48885E-002,1.00000E+000,21
689,1317,-1.30942E+001,-1.24574E+000,1.84806E-001,2.74523E+000,-5.18180E-001,1.63649E-001,2.79850E+000,1.33326E-002,6.03625E-001,0,4.23871E+001,-8.79300E+000,9.98576E-001,-4.98141E-001,-4.73901E+001,9.97053E-001,1.28143E-001,-5.26855E-002,-5.22047E-004,1.28145E-001,-5.26870E-002,-1.65409E-001,1.28817E-001,1.13672E+000,1.17184E-003,0.00000E+000,-2.04999E-003,9.50796E-001,0.00000E+000,1.23595E-003,-6.68899E-002,1.00000E+000,21
679,1347,-1.37926E+001,5.50538E-001,2.39400E-002,2.66041E+000,-6.26648E-001,3.01831E-002,2.73338E+000,1.52111E-002,6.19430E-001,0,4.14894E+001,-1.02650E+001,9.98741E-001,-1.21383E+000,-4.95135E+001,9.98454E-001,1.23469E-001,-5.21735E-002,-9.17795E-004,1.23473E-001,-5.21783E-002,-2.99381E-001,1.23966E-001,1.13141E+000,2.38112E-003,0.00000E+000,-3.64185E-003,9.51241E-001,0.00000E+000,-1.63390E-003,-6.62908E-002,1.00000E+000,21
679,1357,-1.37665E+001,1.16038E+000,2.95678E-002,2.66993E+000,-6.62173E-001,5.32832E-003,2.75083E+000,7.72605E-003,5.98848E-001,0,4.17081E+001,-1.07391E+001,9.99105E-001,-6.58850E-001,-5.01603E+001,9.99110E-001,1.22065E-001,-5.21829E-002,-1.14183E-003,1.22072E-001,-5.21904E-002,-3.75432E-001,1.22499E-001,1.12983E+000,2.34083E-003,0.00000E+000,-3.97719E-003,9.51232E-001,0.00000E+000,-2.60396E-003,-6.63155E-002,1.00000E+000,21
1179,1297,2.35030E+001,-1.86348E+000,4.83815E-002,7.42016E+000,-1.00840E-001,8.38558E-002,7.42132E+000,1.95070E-002,5.01035E-001,0,1.11136E+002,-2.70098E+000,9.99383E-001,7.50889E+001,-3.20067E+001,9.97063E-001,1.36027E-001,-5.67437E-002,-2.00349E-003,1.36048E-001,-5.67645E-002,-5.95398E-001,1.36667E-001,1.14557E+000,-1.84639E-002,0.00000E+000,1.16299E-002,9.46787E-001,0.00000E+000,-3.97059E-003,-6.53415E-002,1.00000E+000,21
1179,1307,2.35076E+001,-1.25772E+000,-1.94738E-002,7.41378E+000,-1.38487E-001,3.91145E-002,7.41518E+000,8.86490E-003,3.57653E-001,0,1.11223E+002,-3.19362E+000,9.99508E-001,7.51138E+001,-3.25245E+001,9.98294E-001,1.37048E-001,-5.67437E-002,-1.98704E-003,1.37068E-001,-5.67640E-002,-5.87401E-001,1.37740E-001,1.14674E+000,-1.84440E-002,0.00000E+000,1.16477E-002,9.46787E-001,0.00000E+000,-4.27298E-003,-6.53467E-002,1.00000E+000,21
1179,1317,2.35110E+001,-6.42674E-001,-9.06587E-002,7.40720E+000,-1.67923E-001,-4.92483E-003,7.40910E+000,2.02445E-002,3.49171E-001,0,1.11301E+002,-3.60358E+000,9.99499E-001,7.51149E+001,-3.28242E+001,9.98693E-001,1.38069E-001,-5.67436E-002,-1.97137E-003,1.38089E-001,-5.67636E-002,-5.79714E-001,1.38815E-001,1.14792E+000,-1.84258E-002,0.00000E+000,1.16655E-002,9.46787E-001,0.00000E+000,-4.57596E-003,-6.53514E-002,1.00000E+000,21
1179,1337,2.35512E+001,5.96815E-001,-7.64445E-002,7.38746E+000,-2.44368E-001,-9.19944E-002,7.39208E+000,1.00010E-002,4.16890E-001,0,1.11322E+002,-4.67156E+000,9.99393E-001,7.58694E+001,-3.35790E+001,9.98229E-001,1.40139E-001,-5.67435E-002,-1.90945E-003,1.40158E-001,-5.67620E-002,-5.55608E-001,1.40999E-001,1.15030E+000,-1.83187E-002,0.00000E+000,1.17018E-002,9.46789E-001,0.00000E+000,-5.19115E-003,-6.53790E-002,1.00000E+000,21
1179,1347,2.35871E+001,1.22423E+000,-3.48682E-002,7.38597E+000,-2.79831E-001,-1.30327E-001,7.39242E+000,9.66951E-003,4.13542E-001,0,1.11429E+002,-5.15427E+000,9.99424E-001,7.65459E+001,-3.39363E+001,9.98874E-001,1.41178E-001,-5.67434E-002,-1.87284E-003,1.41196E-001,-5.67611E-002,-5.42100E-001,1.42097E-001,1.15150E+000,-1.82519E-002,0.00000E+000,1.17200E-002,9.46790E-001,0.00000E+000,-5.50041E-003,-6.53962E-002,1.00000E+000,21
679,1327,-1.38172E+001,-6.56020E-001,1.02614E-001,2.65983E+000,-5.55419E-001,1.19971E-001,2.71984E+000,1.34014E-002,5.97009E-001,0,4.12200E+001,-9.29320E+000,9.98394E-001,-1.65348E+000,-4.82480E+001,9.97685E-001,1.26246E-001,-5.21603E-002,-4.82775E-004,1.26247E-001,-5.21617E-002,-1.55043E-001,1.26880E-001,1.13456E+000,2.43978E-003,0.00000E+000,-2.97629E-003,9.51253E-001,0.00000E+000,2.91433E-004,-6.62549E-002,1.00000E+000,21
679,1337,-1.38048E+001,-5.31842E-002,4.91594E-002,2.66356E+000,-5.88648E-001,7.95762E-002,2.72899E+000,1.49863E-002,5.82400E-001,0,4.13966E+001,-9.74049E+000,9.98742E-001,-1.47070E+000,-4.88693E+001,9.98674E-001,1.24862E-001,-5.21648E-002,-6.96154E-004,1.24865E-001,-5.21676E-002,-2.25309E-001,1.25426E-001,1.13299E+000,2.41856E-003,0.00000E+000,-3.30821E-003,9.51249E-001,0.00000E+000,-6.68736E-004,-6.62679E-002,1.00000E+000,21
1179,1327,2.35248E+001,-2.97870E-002,-9.37543E-002,7.39510E+000,-2.10101E-001,-4.26939E-002,7.39821E+000,1.40608E-002,4.32305E-001,0,1.11261E+002,-4.24201E+000,9.99414E-001,7.53775E+001,-3.32601E+001,9.97609E-001,1.39102E-001,-5.67436E-002,-1.94353E-003,1.39121E-001,-5.67628E-002,-5.68518E-001,1.39903E-001,1.14911E+000,-1.83795E-002,0.00000E+000,1.16836E-002,9.46788E-001,0.00000E+000,-4.88255E-003,-6.53633E-002,1.00000E+000,21
679,1317,-1.38238E+001,-1.25124E+000,1.89830E-001,2.65715E+000,-5.18212E-001,1.67358E-001,2.71238E+000,1.14446E-002,6.23828E-001,0,4.10361E+001,-8.80878E+000,9.98856E-001,-1.65256E+000,-4.75751E+001,9.97397E-001,1.27622E-001,-5.21588E-002,-2.75168E-004,1.27623E-001,-5.21593E-002,-8.76950E-002,1.28330E-001,1.13612E+000,2.44937E-003,0.00000E+000,-2.64539E-003,9.51255E-001,0.00000E+000,1.24865E-003,-6.62490E-002,1.00000E+000,21
669,1327,-1.45416E+001,-6.68411E-001,1.06798E-001,2.57727E+000,-5.61000E-001,1.26146E-001,2.64063E+000,1.03641E-002,5.77314E-001,0,3.99471E+001,-9.39206E+000,9.99383E-001,-2.72642E+000,-4.85585E+001,9.98875E-001,1.25398E-001,-5.16836E-002,-2.68401E-004,1.25398E-001,-5.16840E-002,-8.68423E-002,1.26042E-001,1.13359E+000,4.34550E-003,0.00000E+000,-4.14843E-003,9.51638E-001,0.00000E+000,5.57490E-005,-6.52208E-002,1.00000E+000,21
669,1337,-1.45308E+001,-5.89359E-002,5.23441E-002,2.57899E+000,-5.89555E-001,8.24313E-002,2.64680E+000,9.39724E-003,6.03382E-001,0,4.00994E+001,-9.75023E+000,9.98984E-001,-2.57014E+000,-4.90574E+001,9.98989E-001,1.23717E-001,-5.16889E-002,-5.41090E-004,1.23719E-001,-5.16905E-002,-1.76743E-001,1.24275E-001,1.13169E+000,4.31875E-003,0.00000E+000,-4.59871E-003,9.51632E-001,0.00000E+000,-8.16480E-004,-6.52331E-002,1.00000E+000,21
669,1347,-1.45167E+001,5.44370E-001,2.18448E-002,2.58122E+000,-6.25188E-001,4.61628E-002,2.65625E+000,8.18536E-003,5.81448E-001,0,4.02390E+001,-1.02361E+001,9.98969E-001,-2.29671E+000,-4.97275E+001,9.98801E-001,1.22033E-001,-5.16963E-002,-8.17549E-004,1.22037E-001,-5.17002E-002,-2.69619E-001,1.22510E-001,1.12979E+000,4.28352E-003,0.00000E+000,-5.04889E-003,9.51623E-001,0.00000E+000,-1.68850E-003,-6.52493E-002,1.00000E+000,21
669,1357,-1.44921E+001,1.16079E+000,3.32865E-002,2.58637E+000,-6.54175E-001,9.88033E-003,2.66784E+000,8.54819E-003,5.68949E-001,0,4.04182E+001,-1.06208E+001,9.98897E-001,-1.74563E+000,-5.02840E+001,9.98867E-001,1.20335E-001,-5.17098E-002,-1.10536E-003,1.20342E-001,-5.17170E-002,-3.68095E-001,1.20737E-001,1.12787E+000,4.22632E-003,0.00000E+000,-5.50173E-003,9.51610E-001,0.00000E+000,-2.56567E-003,-6.52755E-002,1.00000E+000,21
1189,1337,2.43181E+001,6.07957E-001,-8.96903E-002,7.48986E+000,-2.40794E-001,-1.06949E-001,7.49450E+000,1.29960E-002,4.08113E-001,0,1.12830E+002,-4.58423E+000,9.99441E-001,7.78192E+001,-3.32831E+001,9.98608E-001,1.39953E-001,-5.69515E-002,-1.72388E-003,1.39968E-001,-5.69666E-002,-5.01567E-001,1.40773E-001,1.15010E+000,-1.75903E-002,0.00000E+000,1.15008E-002,9.46604E-001,0.00000E+000,-5.87334E-003,-6.55414E-002,1.00000E+000,21
669,1317,-1.45457E+001,-1.25886E+000,2.02101E-001,2.57581E+000,-5.19493E-001,1.74799E-001,2.63348E+000,1.22703E-002,5.86542E-001,0,3.97779E+001,-8.84575E+000,9.99432E-001,-2.66365E+000,-4.78359E+001,9.98778E-001,1.27065E-001,-5.16835E-002,-5.57682E-006,1.27065E-001,-5.16835E-002,-1.78758E-003,1.27800E-001,1.13548E+000,4.35341E-003,0.00000E+000,-3.70079E-003,9.51640E-001,0.00000E+000,9.22841E-004,-6.52172E-002,1.00000E+000,21
1189,1297,2.42707E+001,-1.85347E+000,6.12628E-002,7.52010E+000,-9.69966E-002,8.01739E-002,7.52115E+000,1.36658E-002,4.52994E-001,0,1.12554E+002,-2.65140E+000,9.99315E-001,7.70921E+001,-3.18110E+001,9.96740E-001,1.36376E-001,-5.69457E-002,-1.73340E-003,1.36392E-001,-5.69612E-002,-5.13681E-001,1.37007E-001,1.14599E+000,-1.77116E-002,0.00000E+000,1.16122E-002,9.46607E-001,0.00000E+000,-5.50671E-003,-6.55306E-002,1.00000E+000,21
1189,1307,2.42643E+001,-1.24884E+000,-3.16870E-002,7.50713E+000,-1.36445E-001,2.83401E-002,7.50842E+000,1.03309E-002,4.24803E-001,0,1.12577E+002,-3.16752E+000,9.98897E-001,7.69070E+001,-3.22350E+001,9.98105E-001,1.37265E-001,-5.69465E-002,-1.73949E-003,1.37281E-001,-5.69621E-002,-5.13123E-001,1.37942E-001,1.14701E+000,-1.77011E-002,0.00000E+000,1.15846E-002,9.46607E-001,0.00000E+000,-5.59769E-003,-6.55315E-002,1.00000E+000,21
1189,1317,2.42828E+001,-6.22329E-001,-6.98971E-002,7.50616E+000,-1.62667E-001,-1.92341E-002,7.50795E+000,1.15770E-002,4.52605E-001,0,1.12744E+002,-3.49682E+000,9.99405E-001,7.71937E+001,-3.24065E+001,9.99290E-001,1.38162E-001,-5.69480E-002,-1.73702E-003,1.38177E-001,-5.69634E-002,-5.10038E-001,1.38885E-001,1.14804E+000,-1.76706E-002,0.00000E+000,1.15566E-002,9.46606E-001,0.00000E+000,-5.68954E-003,-6.55343E-002,1.00000E+000,21
1189,1327,2.42984E+001,-1.23102E-002,-9.00589E-002,7.49809E+000,-2.05566E-001,-6.48497E-002,7.50119E+000,1.43177E-002,4.47181E-001,0,1.12799E+002,-4.10319E+000,9.99496E-001,7.74581E+001,-3.28923E+001,9.99145E-001,1.39057E-001,-5.69496E-002,-1.73187E-003,1.39072E-001,-5.69649E-002,-5.06200E-001,1.39828E-001,1.14907E+000,-1.76338E-002,0.00000E+000,1.15287E-002,9.46605E-001,0.00000E+000,-5.78132E-003,-6.55375E-002,1.00000E+000,21
659,1327,-1.52637E+001,-6.57773E-001,1.13137E-001,2.49532E+000,-5.45825E-001,1.27749E-001,2.55751E+000,1.58000E-002,5.42285E-001,0,3.86888E+001,-9.12804E+000,9.99102E-001,-3.74864E+000,-4.85271E+001,9.97894E-001,1.24327E-001,-5.13565E-002,-2.34955E-004,1.24328E-001,-5.13568E-002,-7.66258E-002,1.24952E-001,1.13237E+000,6.31450E-003,0.00000E+000,-5.71573E-003,9.51903E-001,0.00000E+000,-3.11090E-004,-6.46118E-002,1.00000E+000,21
659,1337,-1.52375E+001,-6.94149E-002,7.29741E-002,2.51256E+000,-5.95432E-001,9.81195E-002,2.58402E+000,2.20211E-002,6.31639E-001,0,3.90480E+001,-9.87953E+000,9.98941E-001,-3.32128E+000,-4.93496E+001,9.98695E-001,1.22505E-001,-5.13610E-002,-5.18295E-004,1.22506E-001,-5.13625E-002,-1.70797E-001,1.23037E-001,1.13031E+000,6.28574E-003,0.00000E+000,-6.19259E-003,9.51897E-001,0.00000E+000,-1.12078E-003,-6.46231E-002,1.00000E+000,21
659,1347,-1.52278E+001,5.41539E-001,4.23125E-002,2.51030E+000,-6.23118E-001,6.07420E-002,2.58719E+000,1.16269E-002,6.20191E-001,0,3.91176E+001,-1.02470E+001,9.99437E-001,-3.11394E+000,-4.98996E+001,9.99353E-001,1.20679E-001,-5.13679E-002,-8.05725E-004,1.20683E-001,-5.13716E-002,-2.68318E-001,1.21127E-001,1.12825E+000,6.24748E-003,0.00000E+000,-6.66911E-003,9.51888E-001,0.00000E+000,-1.92987E-003,-6.46381E-002,1.00000E+000,21
659,1357,-1.52114E+001,1.16107E+000,4.47889E-002,2.50804E+000,-6.48181E-001,1.86940E-002,2.59051E+000,8.18610E-003,5.85796E-001,0,3.91963E+001,-1.05471E+001,9.99187E-001,-2.70997E+000,-5.04028E+001,9.99247E-001,1.18840E-001,-5.13803E-002,-1.10414E-003,1.18847E-001,-5.13875E-002,-3.71630E-001,1.19208E-001,1.12618E+000,6.18798E-003,0.00000E+000,-7.14821E-003,9.51874E-001,0.00000E+000,-2.74336E-003,-6.46615E-002,1.00000E+000,21
1199,1307,2.50265E+001,-1.23814E+000,-3.58800E-002,7.60255E+000,-1.33801E-001,1.36689E-002,7.60374E+000,1.36293E-002,4.45553E-001,0,1.13973E+002,-3.10875E+000,9.99011E-001,7.88043E+001,-3.19569E+001,9.97852E-001,1.37349E-001,-5.69117E-002,-1.38272E-003,1.37359E-001,-5.69215E-002,-4.07797E-001,1.38028E-001,1.14713E+000,-1.67343E-002,0.00000E+000,1.15158E-002,9.46633E-001,0.00000E+000,-6.38829E-003,-6.54112E-002,1.00000E+000,21
1199,1317,2.50375E+001,-6.23223E-001,-8.33309E-002,7.59624E+000,-1.68727E-001,-3.38385E-002,7.59819E+000,1.20747E-002,4.29383E-001,0,1.14066E+002,-3.57713E+000,9.98451E-001,7.89567E+001,-3.23097E+001,9.97165E-001,1.38160E-001,-5.69139E-002,-1.39495E-003,1.38170E-001,-5.69239E-002,-4.09686E-001,1.38882E-001,1.14806E+000,-1.67098E-002,0.00000E+000,1.14542E-002,9.46631E-001,0.00000E+000,-6.27556E-003,-6.54082E-002,1.00000E+000,21
1199,1327,2.50541E+001,-3.93712E-003,-1.11638E-001,7.59287E+000,-2.00368E-001,-7.29724E-002,7.59587E+000,1.29913E-002,4.06101E-001,0,1.14166E+002,-4.01890E+000,9.98861E-001,7.92260E+001,-3.26407E+001,9.97845E-001,1.38971E-001,-5.69164E-002,-1.40554E-003,1.38981E-001,-5.69264E-002,-4.11082E-001,1.39736E-001,1.14899E+000,-1.66815E-002,0.00000E+000,1.13925E-002,9.46629E-001,0.00000E+000,-6.16274E-003,-6.54048E-002,1.00000E+000,21
659,1317,-1.52778E+001,-1.26097E+000,1.85437E-001,2.48628E+000,-5.16127E-001,1.67402E-001,2.54480E+000,1.27986E-002,6.16099E-001,0,3.84324E+001,-8.76570E+000,9.98263E-001,-3.90541E+000,-4.79188E+001,9.95963E-001,1.26135E-001,-5.13553E-002,4.12812E-005,1.26135E-001,-5.13553E-002,1.33260E-002,1.26858E-001,1.13442E+000,6.33075E-003,0.00000E+000,-5.24156E-003,9.51907E-001,0.00000E+000,4.94020E-004,-6.46054E-002,1.00000E+000,21
1199,1337,2.50864E+001,6.21329E-001,-8.18209E-002,7.59035E+000,-2.35880E-001,-1.11072E-001,7.59482E+000,1.03985E-002,4.38483E-001,0,1.14260E+002,-4.52892E+000,9.99362E-001,7.98228E+001,-3.29800E+001,9.98187E-001,1.39790E-001,-5.69201E-002,-1.40743E-003,1.39800E-001,-5.69302E-002,-4.09913E-001,1.40600E-001,1.14993E+000,-1.66324E-002,0.00000E+000,1.13302E-002,9.46626E-001,0.00000E+000,-6.04869E-003,-6.53988E-002,1.00000E+000,21
1199,1297,2.50316E+001,-1.83730E+000,5.02421E-002,7.61491E+000,-8.82480E-002,6.13117E-002,7.61567E+000,1.08802E-002,4.38747E-001,0,1.13954E+002,-2.47290E+000,9.98754E-001,7.89586E+001,-3.14528E+001,9.97114E-001,1.36541E-001,-5.69103E-002,-1.36459E-003,1.36551E-001,-5.69199E-002,-4.04132E-001,1.37179E-001,1.14620E+000,-1.67448E-002,0.00000E+000,1.15771E-002,9.46633E-001,0.00000E+000,-6.50045E-003,-6.54124E-002,1.00000E+000,21
649,1347,-1.59575E+001,5.45986E-001,3.60192E-002,2.42069E+000,-6.13967E-001,5.01620E-002,2.49784E+000,1.20537E-002,6.40831E-001,0,3.77727E+001,-1.00719E+001,9.99112E-001,-4.28251E+000,-4.99133E+001,9.98143E-001,1.19167E-001,-5.09230E-002,-7.29324E-004,1.19170E-001,-5.09262E-002,-2.45671E-001,1.19588E-001,1.12653E+000,8.44202E-003,0.00000E+000,-8.36544E-003,9.52252E-001,0.00000E+000,-2.22044E-003,-6.38971E-002,1.00000E+000,21
649,1357,-1.59359E+001,1.15891E+000,4.60368E-002,2.42421E+000,-6.44590E-001,1.81816E-002,2.50851E+000,8.24065E-003,5.90159E-001,0,3.79145E+001,-1.04814E+001,9.99293E-001,-3.77856E+000,-5.05438E+001,9.98946E-001,1.17090E-001,-5.09338E-002,-1.02423E-003,1.17097E-001,-5.09400E-002,-3.49241E-001,1.17426E-001,1.12420E+000,8.37721E-003,0.00000E+000,-8.83903E-003,9.52239E-001,0.00000E+000,-3.03473E-003,-6.39198E-002,1.00000E+000,21
649,1337,-1.59772E+001,-6.06364E-002,6.93994E-002,2.41263E+000,-5.80428E-001,8.92162E-002,2.48307E+000,1.27660E-002,5.84718E-001,0,3.75366E+001,-9.61067E+000,9.99302E-001,-4.63543E+000,-4.93361E+001,9.98494E-001,1.21234E-001,-5.09175E-002,-4.44956E-004,1.21235E-001,-5.09186E-002,-1.48089E-001,1.21752E-001,1.12886E+000,8.48420E-003,0.00000E+000,-7.89254E-003,9.52261E-001,0.00000E+000,-1.40733E-003,-6.38824E-002,1.00000E+000,21
649,1327,-1.59962E+001,-6.51904E-001,1.15979E-001,2.40217E+000,-5.36139E-001,1.23154E-001,2.46435E+000,1.02879E-002,5.83164E-001,0,3.72728E+001,-8.96825E+000,9.99563E-001,-4.93507E+000,-4.85253E+001,9.99161E-001,1.23286E-001,-5.09145E-002,-1.67206E-004,1.23286E-001,-5.09147E-002,-5.49950E-002,1.23907E-001,1.13118E+000,8.51480E-003,0.00000E+000,-7.42214E-003,9.52267E-001,0.00000E+000,-5.98498E-004,-6.38717E-002,1.00000E+000,21
1209,1307,2.57905E+001,-1.22249E+000,-3.76706E-002,7.69987E+000,-1.24956E-001,4.01060E-003,7.70089E+000,1.05577E-002,4.63087E-001,0,1.15373E+002,-2.97834E+000,9.99127E-001,8.07364E+001,-3.16089E+001,9.97958E-001,1.37140E-001,-5.65925E-002,-9.85922E-004,1.37145E-001,-5.65975E-002,-2.91573E-001,1.37841E-001,1.14690E+000,-1.56883E-002,0.00000E+000,1.14268E-002,9.46918E-001,0.00000E+000,-6.57119E-003,-6.51260E-002,1.00000E+000,21
1209,1317,2.57995E+001,-6.13638E-001,-8.74495E-002,7.69328E+000,-1.65141E-001,-3.87939E-002,7.69515E+000,1.24065E-002,4.31351E-001,0,1.15448E+002,-3.53073E+000,9.99019E-001,8.08536E+001,-3.20572E+001,9.97003E-001,1.37970E-001,-5.65941E-002,-9.93436E-004,1.37975E-001,-5.65992E-002,-2.92539E-001,1.38715E-001,1.14785E+000,-1.56657E-002,0.00000E+000,1.13674E-002,9.46916E-001,0.00000E+000,-6.31539E-003,-6.51199E-002,1.00000E+000,21
1209,1327,2.58257E+001,1.10968E-002,-1.03361E-001,7.69480E+000,-1.93609E-001,-8.31878E-002,7.69768E+000,1.21240E-002,3.97717E-001,0,1.15636E+002,-3.91648E+000,9.99163E-001,8.12897E+001,-3.23331E+001,9.97978E-001,1.38802E-001,-5.65964E-002,-9.95316E-004,1.38807E-001,-5.66015E-002,-2.91841E-001,1.39592E-001,1.14881E+000,-1.56299E-002,0.00000E+000,1.13077E-002,9.46914E-001,0.00000E+000,-6.05865E-003,-6.51102E-002,1.00000E+000,21
1209,1337,2.58579E+001,6.34159E-001,-7.49045E-002,7.69167E+000,-2.32809E-001,-1.23666E-001,7.69619E+000,1.19494E-002,4.43813E-001,0,1.15733E+002,-4.46834E+000,9.99157E-001,8.18806E+001,-3.26956E+001,9.97293E-001,1.39642E-001,-5.65994E-002,-9.90813E-004,1.39648E-001,-5.66044E-002,-2.89273E-001,1.40479E-001,1.14977E+000,-1.55787E-002,0.00000E+000,1.12474E-002,9.46911E-001,0.00000E+000,-5.79913E-003,-6.50965E-002,1.00000E+000,21
1209,1297,2.57940E+001,-1.82468E+000,4.01681E-002,7.71245E+000,-8.07007E-002,5.02459E-002,7.71304E+000,1.05011E-002,4.17246E-001,0,1.15364E+002,-2.34772E+000,9.98989E-001,8.08528E+001,-3.11553E+001,9.97044E-001,1.36311E-001,-5.65913E-002,-9.74489E-004,1.36316E-001,-5.65962E-002,-2.89432E-001,1.36968E-001,1.14595E+000,-1.57017E-002,0.00000E+000,1.14861E-002,9.46918E-001,0.00000E+000,-6.82645E-003,-6.51296E-002,1.00000E+000,21
649,1317,-1.60020E+001,-1.25512E+000,1.92001E-001,2.40006E+000,-5.07696E-001,1.59061E-001,2.45832E+000,8.76970E-003,5.90977E-001,0,3.71355E+001,-8.58545E+000,9.99223E-001,-4.95381E+000,-4.79551E+001,9.98886E-001,1.25326E-001,-5.09155E-002,1.02060E-004,1.25326E-001,-5.09156E-002,3.31795E-002,1.26058E-001,1.13349E+000,8.52820E-003,0.00000E+000,-6.95323E-003,9.52270E-001,0.00000E+000,2.07748E-004,-6.38670E-002,1.00000E+000,21
639,1347,-1.66837E+001,5.50065E-001,3.20197E-002,2.33523E+000,-6.03655E-001,4.79254E-002,2.41247E+000,1.24880E-002,6.10860E-001,0,3.64675E+001,-9.88260E+000,9.98750E-001,-5.38663E+000,-4.99627E+001,9.97861E-001,1.17770E-001,-5.03334E-002,-6.67837E-004,1.17772E-001,-5.03360E-002,-2.27619E-001,1.18185E-001,1.12494E+000,1.08631E-002,0.00000E+000,-1.02986E-002,9.52722E-001,0.00000E+000,-2.38088E-003,-6.26884E-002,1.00000E+000,21
639,1357,-1.66594E+001,1.16602E+000,4.65354E-002,2.34151E+000,-6.31863E-001,1.93837E-002,2.42534E+000,7.98769E-003,6.05820E-001,0,3.66415E+001,-1.02749E+001,9.99169E-001,-4.82533E+000,-5.05352E+001,9.98980E-001,1.15530E-001,-5.03428E-002,-9.57372E-004,1.15535E-001,-5.03483E-002,-3.30681E-001,1.15852E-001,1.12243E+000,1.07932E-002,0.00000E+000,-1.07619E-002,9.52709E-001,0.00000E+000,-3.23912E-003,-6.27123E-002,1.00000E+000,21
639,1317,-1.67210E+001,-1.26001E+000,2.11226E-001,2.31889E+000,-5.11206E-001,1.65087E-001,2.38030E+000,1.18765E-002,6.73227E-001,0,3.58788E+001,-8.65649E+000,9.99189E-001,-5.88608E+000,-4.81289E+001,9.98155E-001,1.24395E-001,-5.03317E-002,1.36634E-004,1.24395E-001,-5.03319E-002,4.48044E-002,1.25148E-001,1.13241E+000,1.09446E-002,0.00000E+000,-8.92102E-003,9.52737E-001,0.00000E+000,1.71255E-004,-6.26606E-002,1.00000E+000,21
639,1327,-1.67132E+001,-6.65161E-001,1.26204E-001,2.32445E+000,-5.44642E-001,1.27937E-001,2.39083E+000,8.74062E-003,5.96009E-001,0,3.60745E+001,-9.11222E+000,9.99400E-001,-5.86396E+000,-4.88452E+001,9.98521E-001,1.22207E-001,-5.03285E-002,-1.21748E-004,1.22207E-001,-5.03286E-002,-4.04302E-002,1.22838E-001,1.12994E+000,1.09357E-002,0.00000E+000,-9.37731E-003,9.52735E-001,0.00000E+000,-6.74064E-004,-6.26636E-002,1.00000E+000,21
639,1337,-1.67029E+001,-5.74170E-002,5.92631E-002,2.32815E+000,-5.72681E-001,8.40622E-002,2.39902E+000,1.01321E-002,6.41282E-001,0,3.62563E+001,-9.46886E+000,9.99188E-001,-5.74948E+000,-4.93404E+001,9.98418E-001,1.19992E-001,-5.03287E-002,-3.89962E-004,1.19993E-001,-5.03296E-002,-1.31182E-001,1.20511E-001,1.12744E+000,1.09100E-002,0.00000E+000,-9.83779E-003,9.52731E-001,0.00000E+000,-1.52715E-003,-6.26724E-002,1.00000E+000,21
1219,1317,2.65690E+001,-5.99384E-001,-8.26941E-002,7.79373E+000,-1.61205E-001,-4.86171E-002,7.79555E+000,1.47718E-002,4.71435E-001,0,1.16894E+002,-3.45214E+000,9.99036E-001,8.28848E+001,-3.17317E+001,9.97065E-001,1.37596E-001,-5.65197E-002,-5.28441E-004,1.37598E-001,-5.65212E-002,-1.55975E-001,1.38326E-001,1.14744E+000,-1.44417E-002,0.00000E+000,1.12355E-002,9.46943E-001,0.00000E+000,-6.11243E-003,-6.44021E-002,1.00000E+000,21
1219,1327,2.65921E+001,2.33053E-002,-1.01290E-001,7.79407E+000,-1.89672E-001,-8.77188E-002,7.79687E+000,7.81326E-003,4.11268E-001,0,1.17046E+002,-3.85420E+000,9.99536E-001,8.32671E+001,-3.20457E+001,9.98693E-001,1.38379E-001,-5.65207E-002,-5.20815E-004,1.38381E-001,-5.65221E-002,-1.53105E-001,1.39152E-001,1.14833E+000,-1.44106E-002,0.00000E+000,1.11877E-002,9.46942E-001,0.00000E+000,-5.66304E-003,-6.43865E-002,1.00000E+000,21
1219,1337,2.66267E+001,6.50047E-001,-7.21982E-002,7.79242E+000,-2.25763E-001,-1.30106E-001,7.79677E+000,1.05432E-002,4.62777E-001,0,1.17171E+002,-4.35838E+000,9.99267E-001,8.38937E+001,-3.23480E+001,9.98061E-001,1.39172E-001,-5.65221E-002,-5.05388E-004,1.39173E-001,-5.65234E-002,-1.47968E-001,1.39988E-001,1.14924E+000,-1.43612E-002,0.00000E+000,1.11392E-002,9.46939E-001,0.00000E+000,-5.20738E-003,-6.43617E-002,1.00000E+000,21
1219,1297,2.65609E+001,-1.81140E+000,3.77302E-002,7.81297E+000,-7.45103E-002,4.26758E-002,7.81344E+000,1.12090E-002,3.95496E-001,0,1.16801E+002,-2.22958E+000,9.99125E-001,8.28337E+001,-3.08637E+001,9.96998E-001,1.36028E-001,-5.65183E-002,-5.33092E-004,1.36030E-001,-5.65198E-002,-1.58630E-001,1.36676E-001,1.14564E+000,-1.44793E-002,0.00000E+000,1.13311E-002,9.46945E-001,0.00000E+000,-7.01119E-003,-6.44210E-002,1.00000E+000,21
1219,1307,2.65633E+001,-1.20621E+000,-2.46189E-002,7.80361E+000,-1.17457E-001,2.38028E-003,7.80449E+000,1.37967E-002,4.38211E-001,0,1.16831E+002,-2.85062E+000,9.99153E-001,8.28296E+001,-3.13034E+001,9.96682E-001,1.36812E-001,-5.65190E-002,-5.31904E-004,1.36813E-001,-5.65204E-002,-1.57634E-001,1.37500E-001,1.14654E+000,-1.44632E-002,0.00000E+000,1.12833E-002,9.46945E-001,0.00000E+000,-6.56239E-003,-6.44129E-002,1.00000E+000,21
629,1347,-1.74049E+001,5.45734E-001,2.64666E-002,2.25486E+000,-6.01620E-001,4.68018E-002,2.33421E+000,1.14276E-002,5.97629E-001,0,3.52391E+001,-9.83070E+000,9.98461E-001,-6.41573E+000,-5.01291E+001,9.97734E-001,1.16609E-001,-5.06410E-002,-6.73103E-004,1.16612E-001,-5.06437E-002,-2.30583E-001,1.16947E-001,1.12361E+000,1.33583E-002,0.00000E+000,-1.24265E-002,9.52357E-001,0.00000E+000,-2.35754E-003,-6.19077E-002,1.00000E+000,21
629,1357,-1.73767E+001,1.16176E+000,4.33134E-002,2.26480E+000,-6.29851E-001,1.87596E-002,2.35083E+000,9.58164E-003,5.94870E-001,0,3.54682E+001,-1.02253E+001,9.98646E-001,-5.78796E+000,-5.07057E+001,9.98220E-001,1.14458E-001,-5.06445E-002,-8.03455E-004,1.14461E-001,-5.06484E-002,-2.78816E-001,1.14714E-001,1.12120E+000,1.32910E-002,0.00000E+000,-1.25915E-002,9.52352E-001,0.00000E+000,-3.22698E-003,-6.19319E-002,1.00000E+000,21
629,1327,-1.74351E+001,-6.63852E-001,1.22582E-001,2.24276E+000,-5.37559E-001,1.26626E-001,2.30975E+000,9.06771E-003,5.75840E-001,0,3.48260E+001,-8.98009E+000,9.98955E-001,-6.89850E+000,-4.89291E+001,9.98323E-001,1.20872E-001,-5.06403E-002,-4.43477E-004,1.20873E-001,-5.06414E-002,-1.48148E-001,1.21401E-001,1.12840E+000,1.34256E-002,0.00000E+000,-1.20984E-002,9.52362E-001,0.00000E+000,-6.28390E-004,-6.18834E-002,1.00000E+000,21
629,1337,-1.74206E+001,-6.14151E-002,5.64613E-002,2.25066E+000,-5.70602E-001,8.31078E-002,2.32335E+000,1.01019E-002,6.26918E-001,0,3.50728E+001,-9.42152E+000,9.98850E-001,-6.71890E+000,-4.95058E+001,9.98429E-001,1.18744E-001,-5.06398E-002,-5.54207E-004,1.18746E-001,-5.06416E-002,-1.87463E-001,1.19173E-001,1.12601E+000,1.34010E-002,0.00000E+000,-1.22624E-002,9.52360E-001,0.00000E+000,-1.49256E-003,-6.18922E-002,1.00000E+000,21
1229,1317,2.73396E+001,-5.78729E-001,-8.71884E-002,7.89773E+000,-1.46931E-001,-5.60045E-002,7.89929E+000,1.42695E-002,4.61087E-001,0,1.18379E+002,-3.23127E+000,9.98979E-001,8.49227E+001,-3.13119E+001,9.98347E-001,1.37351E-001,-5.62265E-002,-8.42035E-006,1.37351E-001,-5.62265E-002,-2.49229E-003,1.38101E-001,1.14717E+000,-1.32255E-002,0.00000E+000,1.11902E-002,9.47182E-001,0.00000E+000,-5.49084E-003,-6.37585E-002,1.00000E+000,21
1229,1327,2.73565E+001,3.36469E-002,-1.05470E-001,7.89136E+000,-1.89000E-001,-9.61122E-002,7.89421E+000,9.91521E-003,4.72916E-001,0,1.18441E+002,-3.83048E+000,9.99230E-001,8.52072E+001,-3.17501E+001,9.98157E-001,1.38068E-001,-5.62255E-002,1.83122E-005,1.38068E-001,-5.62255E-002,5.40015E-003,1.38858E-001,1.14799E+000,-1.31964E-002,0.00000E+000,1.11762E-002,9.47182E-001,0.00000E+000,-4.94102E-003,-6.37390E-002,1.00000E+000,21
1229,1337,2.73917E+001,6.63244E-001,-8.25126E-002,7.89314E+000,-2.17226E-001,-1.33496E-001,7.89725E+000,1.02126E-002,4.35539E-001,0,1.18597E+002,-4.23806E+000,9.99023E-001,8.58336E+001,-3.20371E+001,9.97752E-001,1.38785E-001,-5.62243E-002,5.04494E-005,1.38785E-001,-5.62243E-002,1.48226E-002,1.39615E-001,1.14881E+000,-1.31547E-002,0.00000E+000,1.11621E-002,9.47181E-001,0.00000E+000,-4.39006E-003,-6.37110E-002,1.00000E+000,21
629,1317,-1.74479E+001,-1.25748E+000,2.12336E-001,2.23196E+000,-5.02714E-001,1.67403E-001,2.29399E+000,1.03241E-002,6.31783E-001,0,3.45389E+001,-8.50773E+000,9.99096E-001,-6.98300E+000,-4.82135E+001,9.98242E-001,1.22977E-001,-5.06423E-002,-3.41015E-004,1.22977E-001,-5.06429E-002,-1.12537E-001,1.23613E-001,1.13078E+000,1.34333E-002,0.00000E+000,-1.19357E-002,9.52362E-001,0.00000E+000,2.28861E-004,-6.18806E-002,1.00000E+000,21
1229,1297,2.73273E+001,-1.79605E+000,3.34618E-002,7.91247E+000,-6.65517E-002,3.34056E-002,7.91282E+000,1.21349E-002,4.47120E-001,0,1.18227E+002,-2.11218E+000,9.98711E-001,8.48073E+001,-3.04996E+001,9.95985E-001,1.35923E-001,-5.62278E-002,-5.11908E-005,1.35923E-001,-5.62278E-002,-1.52641E-002,1.36597E-001,1.14554E+000,-1.32593E-002,0.00000E+000,1.12182E-002,9.47183E-001,0.00000E+000,-6.58437E-003,-6.37812E-002,1.00000E+000,21
1229,1307,2.73380E+001,-1.18542E+000,-2.67319E-002,7.91270E+000,-1.02986E-001,5.63857E-004,7.91337E+000,1.70600E-002,4.40525E-001,0,1.18369E+002,-2.63543E+000,9.98440E-001,8.49360E+001,-3.08814E+001,9.96945E-001,1.36636E-001,-5.62272E-002,-3.14854E-005,1.36636E-001,-5.62272E-002,-9.35367E-003,1.37348E-001,1.14635E+000,-1.32463E-002,0.00000E+000,1.12042E-002,9.47182E-001,0.00000E+000,-6.03859E-003,-6.37724E-002,1.00000E+000,21
619,1327,-1.81583E+001,-6.64234E-001,1.21185E-001,2.15915E+000,-5.32408E-001,1.26220E-001,2.22741E+000,7.27527E-003,5.68595E-001,0,3.35438E+001,-8.88583E+000,9.98956E-001,-7.94203E+000,-4.90376E+001,9.98839E-001,1.19843E-001,-5.01989E-002,-6.64813E-004,1.19846E-001,-5.02015E-002,-2.24005E-001,1.20370E-001,1.12721E+000,1.60124E-002,0.00000E+000,-1.47138E-002,9.52716E-001,0.00000E+000,-6.84408E-004,-6.13803E-002,1.00000E+000,21
619,1337,-1.81410E+001,-6.02740E-002,6.20257E-002,2.16922E+000,-5.64321E-001,8.50570E-002,2.24303E+000,8.73371E-003,6.23565E-001,0,3.38163E+001,-9.31786E+000,9.98238E-001,-7.69837E+000,-4.96055E+001,9.98100E-001,1.17640E-001,-5.01987E-002,-6.92072E-004,1.17643E-001,-5.02015E-002,-2.36250E-001,1.18063E-001,1.12473E+000,1.59844E-002,0.00000E+000,-1.47248E-002,9.52716E-001,0.00000E+000,-1.49094E-003,-6.13894E-002,1.00000E+000,21
619,1347,-1.81219E+001,5.48646E-001,2.49676E-002,2.17813E+000,-5.92369E-001,4.89039E-002,2.25777E+000,1.07036E-002,6.10588E-001,0,3.40549E+001,-9.68868E+000,9.98150E-001,-7.36311E+000,-5.01795E+001,9.97732E-001,1.15431E-001,-5.01987E-002,-7.24131E-004,1.15435E-001,-5.02019E-002,-2.50489E-001,1.15760E-001,1.12225E+000,1.59455E-002,0.00000E+000,-1.47359E-002,9.52716E-001,0.00000E+000,-2.29722E-003,-6.14020E-002,1.00000E+000,21
619,1357,-1.80941E+001,1.16453E+000,3.40164E-002,2.18885E+000,-6.19584E-001,1.87692E-002,2.27493E+000,9.44134E-003,6.00261E-001,0,3.43018E+001,-1.00601E+001,9.98896E-001,-6.76159E+000,-5.07467E+001,9.98664E-001,1.13206E-001,-5.01994E-002,-7.67800E-004,1.13210E-001,-5.02031E-002,-2.69209E-001,1.13451E-001,1.11976E+000,1.58807E-002,0.00000E+000,-1.47470E-002,9.52715E-001,0.00000E+000,-3.10743E-003,-6.14231E-002,1.00000E+000,21
619,1317,-1.81683E+001,-1.25397E+000,2.15434E-001,2.15127E+000,-4.92230E-001,1.71996E-001,2.21356E+000,1.21215E-002,5.98419E-001,0,3.32882E+001,-8.35307E+000,9.98709E-001,-7.96861E+000,-4.82825E+001,9.98217E-001,1.22028E-001,-5.01996E-002,-6.46338E-004,1.22031E-001,-5.02020E-002,-2.15016E-001,1.22668E-001,1.12967E+000,1.60206E-002,0.00000E+000,-1.47028E-002,9.52716E-001,0.00000E+000,1.17497E-004,-6.13776E-002,1.00000E+000,21
1239,1307,2.80950E+001,-1.17675E+000,-4.54260E-002,8.00446E+000,-9.90277E-002,-1.48953E-002,8.00508E+000,1.79204E-002,4.42701E-001,0,1.19708E+002,-2.56824E+000,9.98176E-001,8.67473E+001,-3.06142E+001,9.97020E-001,1.36216E-001,-5.57338E-002,1.95722E-004,1.36216E-001,-5.57340E-002,5.84217E-002,1.36963E-001,1.14588E+000,-1.23199E-002,0.00000E+000,1.08728E-002,9.47619E-001,0.00000E+000,-5.90432E-003,-6.31949E-002,1.00000E+000,21
1239,1317,2.81078E+001,-5.58358E-001,-9.22908E-002,8.00091E+000,-1.30460E-001,-5.65704E-002,8.00217E+000,1.63954E-002,4.13554E-001,0,1.19822E+002,-2.99530E+000,9.98507E-001,8.69277E+001,-3.09142E+001,9.97950E-001,1.36979E-001,-5.57285E-002,2.83875E-004,1.36979E-001,-5.57289E-002,8.44017E-002,1.37769E-001,1.14675E+000,-1.22981E-002,0.00000E+000,1.09625E-002,9.47621E-001,0.00000E+000,-5.02652E-003,-6.31730E-002,1.00000E+000,21
1239,1327,2.81280E+001,5.46113E-002,-9.17872E-002,7.99302E+000,-1.76871E-001,-9.52190E-002,7.99555E+000,1.31913E-002,4.86937E-001,0,1.19853E+002,-3.66114E+000,9.98755E-001,8.72869E+001,-3.13519E+001,9.97858E-001,1.37748E-001,-5.57203E-002,3.79644E-004,1.37749E-001,-5.57211E-002,1.12431E-001,1.38584E-001,1.14763E+000,-1.22606E-002,0.00000E+000,1.10531E-002,9.47625E-001,0.00000E+000,-4.13910E-003,-6.31351E-002,1.00000E+000,21
1239,1337,2.81524E+001,6.81450E-001,-7.97886E-002,7.98748E+000,-2.05114E-001,-1.29667E-001,7.99116E+000,1.13318E-002,4.18059E-001,0,1.19892E+002,-4.07423E+000,9.98415E-001,8.77274E+001,-3.16733E+001,9.96548E-001,1.38511E-001,-5.57118E-002,4.75774E-004,1.38513E-001,-5.57130E-002,1.40352E-001,1.39393E-001,1.14850E+000,-1.22207E-002,0.00000E+000,1.11431E-002,9.47629E-001,0.00000E+000,-3.25804E-003,-6.30949E-002,1.00000E+000,21
1239,1297,2.80914E+001,-1.78398E+000,3.02994E-002,8.01027E+000,-5.95672E-002,2.94489E-002,8.01055E+000,1.12003E-002,4.60783E-001,0,1.19605E+002,-2.02869E+000,9.98724E-001,8.67495E+001,-3.02083E+001,9.96936E-001,1.35453E-001,-5.57376E-002,1.11715E-004,1.35453E-001,-5.57377E-002,3.34786E-002,1.36159E-001,1.14501E+000,-1.23325E-002,0.00000E+000,1.07833E-002,9.47618E-001,0.00000E+000,-6.77985E-003,-6.32076E-002,1.00000E+000,21
609,1347,-1.88376E+001,5.49371E-001,2.68835E-002,2.10129E+000,-5.86540E-001,4.90077E-002,2.18217E+000,1.34178E-002,6.26749E-001,0,3.28734E+001,-9.59055E+000,9.98079E-001,-8.27759E+000,-5.02694E+001,9.97504E-001,1.14341E-001,-4.92012E-002,-9.52415E-004,1.14347E-001,-4.92067E-002,-3.33656E-001,1.14716E-001,1.12099E+000,1.83438E-002,0.00000E+000,-1.72501E-002,9.53569E-001,0.00000E+000,-2.07235E-003,-6.04438E-002,1.00000E+000,21
609,1357,-1.88120E+001,1.16956E+000,3.08456E-002,2.11100E+000,-6.08341E-001,1.91406E-002,2.19699E+000,1.05939E-002,6.12955E-001,0,3.31025E+001,-9.87738E+000,9.98862E-001,-7.71998E+000,-5.07634E+001,9.98295E-001,1.12098E-001,-4.92012E-002,-9.62240E-004,1.12104E-001,-4.92069E-002,-3.41784E-001,1.12382E-001,1.11848E+000,1.82828E-002,0.00000E+000,-1.71972E-002,9.53571E-001,0.00000E+000,-3.02205E-003,-6.04670E-002,1.00000E+000,21
609,1317,-1.88934E+001,-1.25532E+000,2.11643E-001,2.06494E+000,-4.88013E-001,1.66397E-001,2.12834E+000,1.28877E-002,6.11308E-001,0,3.19767E+001,-8.28238E+000,9.98933E-001,-9.04171E+000,-4.83893E+001,9.97792E-001,1.20999E-001,-4.92012E-002,-9.70712E-004,1.21005E-001,-4.92068E-002,-3.26763E-001,1.21706E-001,1.12847E+000,1.84185E-002,0.00000E+000,-1.74083E-002,9.53568E-001,0.00000E+000,7.62562E-004,-6.04156E-002,1.00000E+000,21
609,1327,-1.88786E+001,-6.65998E-001,1.19938E-001,2.07817E+000,-5.29656E-001,1.26060E-001,2.14830E+000,9.13460E-003,6.23884E-001,0,3.23007E+001,-8.84607E+000,9.98984E-001,-8.93490E+000,-4.91361E+001,9.98303E-001,1.18790E-001,-4.92012E-002,-9.56501E-004,1.18796E-001,-4.92066E-002,-3.26214E-001,1.19377E-001,1.12598E+000,1.84121E-002,0.00000E+000,-1.73557E-002,9.53568E-001,0.00000E+000,-1.80652E-004,-6.04180E-002,1.00000E+000,21
609,1337,-1.88587E+001,-5.83926E-002,6.26445E-002,2.09073E+000,-5.56225E-001,8.62912E-002,2.16517E+000,1.09222E-002,6.00844E-001,0,3.26063E+001,-9.18206E+000,9.98247E-001,-8.64682E+000,-4.96925E+001,9.97738E-001,1.16573E-001,-4.92012E-002,-9.51775E-004,1.16578E-001,-4.92066E-002,-3.28944E-001,1.17049E-001,1.12349E+000,1.83841E-002,0.00000E+000,-1.73030E-002,9.53568E-001,0.00000E+000,-1.12471E-003,-6.04286E-002,1.00000E+000,21
1249,1297,2.88589E+001,-1.76670E+000,3.62224E-002,8.10943E+000,-4.93604E-002,2.89035E-002,8.10963E+000,1.33450E-002,4.76191E-001,0,1.20983E+002,-1.88626E+000,9.98704E-001,8.87610E+001,-2.98543E+001,9.97336E-001,1.34625E-001,-5.51246E-002,2.78896E-004,1.34626E-001,-5.51250E-002,8.42136E-002,1.35359E-001,1.14408E+000,-1.10071E-002,0.00000E+000,1.00510E-002,9.48179E-001,0.00000E+000,-7.30691E-003,-6.27310E-002,1.00000E+000,21
1249,1307,2.88565E+001,-1.16445E+000,-5.27419E-002,8.10010E+000,-9.21496E-002,-1.92344E-002,8.10065E+000,1.67882E-002,4.44748E-001,0,1.21054E+002,-2.47080E+000,9.98607E-001,8.86480E+001,-3.03152E+001,9.97007E-001,1.35556E-001,-5.51149E-002,5.22548E-004,1.35558E-001,-5.51163E-002,1.57021E-001,1.36344E-001,1.14514E+000,-1.09957E-002,0.00000E+000,1.04182E-002,9.48183E-001,0.00000E+000,-5.97503E-003,-6.27167E-002,1.00000E+000,21
1249,1317,2.88652E+001,-5.51856E-001,-9.92216E-002,8.09338E+000,-1.28689E-001,-5.66881E-002,8.09460E+000,1.53151E-002,4.10623E-001,0,1.21108E+002,-2.98823E+000,9.97757E-001,8.87640E+001,-3.07073E+001,9.96643E-001,1.36488E-001,-5.50989E-002,7.72901E-004,1.36491E-001,-5.51020E-002,2.31138E-001,1.37332E-001,1.14620E+000,-1.09706E-002,0.00000E+000,1.07866E-002,9.48191E-001,0.00000E+000,-4.63848E-003,-6.26851E-002,1.00000E+000,21
1249,1327,2.88837E+001,7.34825E-002,-1.10681E-001,8.08634E+000,-1.59598E-001,-9.70812E-002,8.08850E+000,1.40989E-002,4.42575E-001,0,1.21156E+002,-3.42238E+000,9.98015E-001,8.90798E+001,-3.09456E+001,9.97272E-001,1.37424E-001,-5.50755E-002,1.03207E-003,1.37429E-001,-5.50810E-002,3.07176E-001,1.38328E-001,1.14727E+000,-1.09289E-002,0.00000E+000,1.11579E-002,9.48206E-001,0.00000E+000,-3.29180E-003,-6.26326E-002,1.00000E+000,21
1249,1337,2.89106E+001,7.00783E-001,-9.09591E-002,8.08032E+000,-1.91360E-001,-1.33979E-001,8.08370E+000,1.09408E-002,4.26925E-001,0,1.21198E+002,-3.87575E+000,9.98937E-001,8.95670E+001,-3.12484E+001,9.98450E-001,1.38358E-001,-5.50467E-002,1.29665E-003,1.38367E-001,-5.50554E-002,3.84107E-001,1.39325E-001,1.14834E+000,-1.08754E-002,0.00000E+000,1.15298E-002,9.48224E-001,0.00000E+000,-1.94260E-003,-6.25651E-002,1.00000E+000,21
1259,1327,2.96457E+001,8.57579E-002,-1.18613E-001,8.18185E+000,-1.51949E-001,-1.01538E-001,8.18389E+000,1.15577E-002,4.24168E-001,0,1.22501E+002,-3.32234E+000,9.99077E-001,9.09891E+001,-3.06525E+001,9.98405E-001,1.37245E-001,-5.47831E-002,1.66324E-003,1.37260E-001,-5.47975E-002,4.96214E-001,1.38186E-001,1.14707E+000,-1.00182E-002,0.00000E+000,1.15168E-002,9.48444E-001,0.00000E+000,-1.64534E-003,-6.20301E-002,1.00000E+000,21
1259,1337,2.96732E+001,7.11044E-001,-9.90147E-002,8.17584E+000,-1.86507E-001,-1.40196E-001,8.17917E+000,1.07102E-002,3.94645E-001,0,1.22551E+002,-3.80353E+000,9.99360E-001,9.14842E+001,-3.09915E+001,9.99072E-001,1.38203E-001,-5.47405E-002,2.03732E-003,1.38225E-001,-5.47620E-002,6.04904E-001,1.39215E-001,1.14817E+000,-9.96197E-003,0.00000E+000,1.20680E-002,9.48472E-001,0.00000E+000,1.97176E-004,-6.19360E-002,1.00000E+000,21
599,1347,-1.95474E+001,5.60357E-001,3.69485E-002,2.02957E+000,-5.70424E-001,5.42771E-002,2.10891E+000,1.29262E-002,6.33188E-001,0,3.17538E+001,-9.34597E+000,9.98825E-001,-9.06927E+000,-5.02237E+001,9.98683E-001,1.13795E-001,-4.93225E-002,-6.97313E-004,1.13798E-001,-4.93254E-002,-2.44928E-001,1.14134E-001,1.12034E+000,2.03470E-002,0.00000E+000,-1.84894E-002,9.53367E-001,0.00000E+000,-1.73788E-003,-5.93367E-002,1.00000E+000,21
599,1357,-1.95189E+001,1.17099E+000,3.76067E-002,2.04274E+000,-6.01464E-001,2.39010E-002,2.12958E+000,8.84128E-003,6.13935E-001,0,3.20405E+001,-9.76952E+000,9.99082E-001,-8.47888E+000,-5.08615E+001,9.98704E-001,1.11696E-001,-4.93203E-002,-4.72705E-004,1.11697E-001,-4.93217E-002,-1.68205E-001,1.11951E-001,1.11800E+000,2.02922E-002,0.00000E+000,-1.79959E-002,9.53379E-001,0.00000E+000,-2.69035E-003,-5.93589E-002,1.00000E+000,21
1259,1287,2.96231E+001,-2.35892E+000,1.22038E-001,8.21043E+000,-1.38861E-003,6.18785E-002,8.21066E+000,1.44738E-002,4.12555E-001,0,1.22237E+002,-1.19176E+000,9.98066E-001,9.07887E+001,-2.91896E+001,9.94483E-001,1.33405E-001,-5.48637E-002,2.38152E-004,1.33405E-001,-5.48640E-002,7.24766E-002,1.34104E-001,1.14271E+000,-1.01040E-002,0.00000E+000,9.33323E-003,9.48401E-001,0.00000E+000,-8.94430E-003,-6.21738E-002,1.00000E+000,21
1259,1297,2.96172E+001,-1.75715E+000,1.36133E-002,8.20322E+000,-4.35004E-002,1.54641E-002,8.20335E+000,1.23342E-002,4.41358E-001,0,1.22339E+002,-1.77632E+000,9.98358E-001,9.05972E+001,-2.95857E+001,9.95987E-001,1.34369E-001,-5.48558E-002,5.85110E-004,1.34370E-001,-5.48577E-002,1.77165E-001,1.35122E-001,1.14379E+000,-1.01017E-002,0.00000E+000,9.87716E-003,9.48402E-001,0.00000E+000,-7.12613E-003,-6.21698E-002,1.00000E+000,21
1259,1307,2.96189E+001,-1.14882E+000,-6.25975E-002,8.19659E+000,-8.18854E-002,-2.45301E-002,8.19704E+000,1.21210E-002,4.43406E-001,0,1.22415E+002,-2.31567E+000,9.98690E-001,9.05642E+001,-2.99604E+001,9.97165E-001,1.35329E-001,-5.48406E-002,9.37660E-004,1.35334E-001,-5.48452E-002,2.82496E-001,1.36141E-001,1.14488E+000,-1.00878E-002,0.00000E+000,1.04222E-002,9.48409E-001,0.00000E+000,-5.30439E-003,-6.21466E-002,1.00000E+000,21
599,1327,-1.95964E+001,-6.50700E-001,1.30908E-001,1.99774E+000,-5.10279E-001,1.29859E-001,2.06597E+000,9.88808E-003,6.14067E-001,0,3.10493E+001,-8.53304E+000,9.98976E-001,-9.84704E+000,-4.90312E+001,9.98360E-001,1.17959E-001,-4.93172E-002,-1.16533E-003,1.17967E-001,-4.93253E-002,-3.99127E-001,1.18493E-001,1.12501E+000,2.04086E-002,0.00000E+000,-1.94721E-002,9.53354E-001,0.00000E+000,1.58597E-004,-5.93117E-002,1.00000E+000,21
599,1337,-1.95753E+001,-5.04913E-002,6.34865E-002,2.01309E+000,-5.42701E-001,8.85918E-002,2.08684E+000,9.15961E-003,6.13465E-001,0,3.14039E+001,-8.97065E+000,9.98796E-001,-9.57131E+000,-4.96701E+001,9.98723E-001,1.15885E-001,-4.93218E-002,-9.27511E-004,1.15891E-001,-4.93270E-002,-3.21658E-001,1.16317E-001,1.12268E+000,2.03879E-002,0.00000E+000,-1.89820E-002,9.53358E-001,0.00000E+000,-7.87250E-004,-5.93201E-002,1.00000E+000,21
1259,1317,2.96284E+001,-5.34277E-001,-1.02375E-001,8.19026E+000,-1.17463E-001,-5.64225E-002,8.19130E+000,1.22755E-002,4.51587E-001,0,1.22451E+002,-2.84272E+000,9.98975E-001,9.07009E+001,-3.03140E+001,9.97777E-001,1.36288E-001,-5.48171E-002,1.29644E-003,1.36297E-001,-5.48259E-002,3.88666E-001,1.37162E-001,1.14597E+000,-1.00612E-002,0.00000E+000,1.09686E-002,9.48423E-001,0.00000E+000,-3.47791E-003,-6.21021E-002,1.00000E+000,21
599,1317,-1.96171E+001,-1.24974E+000,2.18425E-001,1.97841E+000,-4.79331E-001,1.64980E-001,2.04233E+000,1.23900E-002,5.95283E-001,0,3.06473E+001,-8.11195E+000,9.98951E-001,-1.00575E+001,-4.84266E+001,9.98491E-001,1.20025E-001,-4.93094E-002,-1.40966E-003,1.20037E-001,-4.93211E-002,-4.76925E-001,1.20671E-001,1.12734E+000,2.04137E-002,0.00000E+000,-1.99618E-002,9.53353E-001,0.00000E+000,1.10365E-003,-5.93096E-002,1.00000E+000,21
589,1347,-2.02651E+001,5.70568E-001,4.24922E-002,1.95029E+000,-5.54593E-001,5.95492E-002,2.02848E+000,9.62933E-003,6.28099E-001,0,3.05150E+001,-9.09634E+000,9.98765E-001,-9.99011E+000,-5.01872E+001,9.98881E-001,1.13293E-001,-4.91293E-002,-1.18986E-004,1.13293E-001,-4.91294E-002,-4.19731E-002,1.13625E-001,1.11973E+000,2.29873E-002,0.00000E+000,-1.96455E-002,9.53468E-001,0.00000E+000,-1.62572E-003,-5.82644E-002,1.00000E+000,21
589,1357,-2.02325E+001,1.18090E+000,4.49097E-002,1.96714E+000,-5.86936E-001,2.76139E-002,2.05302E+000,7.62387E-003,6.15532E-001,0,3.08632E+001,-9.52922E+000,9.98950E-001,-9.33086E+000,-5.08316E+001,9.99190E-001,1.11175E-001,-4.91278E-002,1.05301E-004,1.11176E-001,-4.91278E-002,3.76370E-002,1.11426E-001,1.11736E+000,2.29307E-002,0.00000E+000,-1.91610E-002,9.53479E-001,0.00000E+000,-2.50870E-003,-5.82856E-002,1.00000E+000,21
589,1337,-2.02899E+001,-4.30179E-002,7.36015E-002,1.93587E+000,-5.30321E-001,9.27036E-002,2.00933E+000,7.32717E-003,6.32325E-001,0,3.02013E+001,-8.79023E+000,9.99264E-001,-1.04326E+001,-4.96711E+001,9.99250E-001,1.15398E-001,-4.91271E-002,-3.50857E-004,1.15398E-001,-4.91278E-002,-1.22185E-001,1.15822E-001,1.12209E+000,2.30246E-002,0.00000E+000,-2.01283E-002,9.53460E-001,0.00000E+000,-7.45770E-004,-5.82505E-002,1.00000E+000,21
589,1327,-2.03066E+001,-6.32922E-001,1.41655E-001,1.92507E+000,-4.88402E-001,1.35942E-001,1.99071E+000,1.32476E-002,6.91678E-001,0,2.99111E+001,-8.22614E+000,9.99346E-001,-1.06368E+001,-4.88433E+001,9.98537E-001,1.17484E-001,-4.91217E-002,-5.88234E-004,1.17486E-001,-4.91238E-002,-2.02291E-001,1.18010E-001,1.12443E+000,2.30459E-002,0.00000E+000,-2.06083E-002,9.53456E-001,0.00000E+000,1.28853E-004,-5.82425E-002,1.00000E+000,21
1269,1327,3.04130E+001,1.00654E-001,-1.16030E-001,8.28179E+000,-1.43786E-001,-9.70180E-002,8.28361E+000,1.00311E-002,4.17335E-001,0,1.23870E+002,-3.21192E+000,9.99286E-001,9.30001E+001,-3.03356E+001,9.98467E-001,1.37128E-001,-5.42722E-002,2.19396E-003,1.37153E-001,-5.42973E-002,6.56651E-001,1.38140E-001,1.14694E+000,-9.07728E-003,0.00000E+000,1.17067E-002,9.48810E-001,0.00000E+000,-7.53837E-004,-5.99857E-002,1.00000E+000,21
1269,1337,3.04470E+001,7.21023E-001,-9.26210E-002,8.28110E+000,-1.83317E-001,-1.35179E-001,8.28423E+000,1.02740E-002,3.89948E-001,0,1.23999E+002,-3.78292E+000,9.99097E-001,9.35976E+001,-3.07563E+001,9.97929E-001,1.38153E-001,-5.42179E-002,2.65564E-003,1.38189E-001,-5.42546E-002,7.90756E-001,1.39248E-001,1.14812E+000,-9.01498E-003,0.00000E+000,1.24204E-002,9.48848E-001,0.00000E+000,1.15604E-003,-5.98849E-002,1.00000E+000,21
589,1317,-2.03300E+001,-1.23411E+000,2.32627E-001,1.90268E+000,-4.59597E-001,1.72787E-001,1.96501E+000,1.03907E-002,5.85288E-001,0,2.94579E+001,-7.80454E+000,9.98507E-001,-1.08785E+001,-4.83209E+001,9.97495E-001,1.19567E-001,-4.91130E-002,-8.33266E-004,1.19571E-001,-4.91171E-002,-2.83028E-001,1.20204E-001,1.12677E+000,2.30499E-002,0.00000E+000,-2.10886E-002,9.53455E-001,0.00000E+000,1.00423E-003,-5.82410E-002,1.00000E+000,21
1269,1317,3.03993E+001,-5.18088E-001,-9.98915E-002,8.29174E+000,-1.07914E-001,-6.02916E-002,8.29266E+000,1.04431E-002,4.17020E-001,0,1.23874E+002,-2.69499E+000,9.99185E-001,9.27692E+001,-2.99916E+001,9.98144E-001,1.36102E-001,-5.43116E-002,1.74229E-003,1.36118E-001,-5.43275E-002,5.24199E-001,1.37038E-001,1.14577E+000,-9.11978E-003,0.00000E+000,1.09960E-002,9.48784E-001,0.00000E+000,-2.65558E-003,-6.00545E-002,1.00000E+000,21
1269,1307,3.03880E+001,-1.13373E+000,-5.61648E-002,8.29632E+000,-7.36545E-002,-2.44270E-002,8.29669E+000,1.11014E-002,4.42588E-001,0,1.23795E+002,-2.20514E+000,9.98688E-001,9.26090E+001,-2.96484E+001,9.97536E-001,1.35076E-001,-5.43406E-002,1.29827E-003,1.35085E-001,-5.43495E-002,3.92684E-001,1.35941E-001,1.14460E+000,-9.14847E-003,0.00000E+000,1.02886E-002,9.48767E-001,0.00000E+000,-4.54863E-003,-6.01009E-002,1.00000E+000,21
1269,1297,3.03792E+001,-1.74668E+000,4.61205E-003,8.29837E+000,-3.86368E-002,9.44200E-003,8.29846E+000,1.20444E-002,4.37754E-001,0,1.23681E+002,-1.69710E+000,9.98553E-001,9.25104E+001,-2.93162E+001,9.97136E-001,1.34046E-001,-5.43626E-002,8.58536E-004,1.34050E-001,-5.43665E-002,2.61077E-001,1.34844E-001,1.14343E+000,-9.16799E-003,0.00000E+000,9.58198E-003,9.48755E-001,0.00000E+000,-6.43943E-003,-6.01325E-002,1.00000E+000,21
1269,1287,3.03880E+001,-2.34958E+000,1.20702E-001,8.30635E+000,1.09272E-003,5.52020E-002,8.30653E+000,1.69613E-002,4.04301E-001,0,1.23591E+002,-1.14010E+000,9.98789E-001,9.27572E+001,-2.89577E+001,9.95852E-001,1.33015E-001,-5.43688E-002,4.29589E-004,1.33016E-001,-5.43698E-002,1.31353E-001,1.33752E-001,1.14227E+000,-9.16654E-003,0.00000E+000,8.87832E-003,9.48756E-001,0.00000E+000,-8.32236E-003,-6.01301E-002,1.00000E+000,21
579,1347,-2.09768E+001,5.78327E-001,4.77746E-002,1.87594E+000,-5.42082E-001,6.03265E-002,1.95363E+000,8.03065E-003,6.47140E-001,0,2.93646E+001,-8.89783E+000,9.98875E-001,-1.08153E+001,-5.01751E+001,9.99125E-001,1.12310E-001,-4.87963E-002,4.98511E-004,1.12311E-001,-4.87978E-002,1.77288E-001,1.12632E-001,1.11857E+000,2.56605E-002,0.00000E+000,-2.07378E-002,9.53719E-001,0.00000E+000,-2.10631E-003,-5.74841E-002,1.00000E+000,21
579,1357,-2.09387E+001,1.19587E+000,5.51968E-002,1.89811E+000,-5.67542E-001,3.15287E-002,1.98140E+000,8.40330E-003,6.58509E-001,0,2.97856E+001,-9.23866E+000,9.99254E-001,-1.00547E+001,-5.07091E+001,9.99446E-001,1.10060E-001,-4.87954E-002,7.56375E-004,1.10064E-001,-4.87990E-002,2.72800E-001,1.10299E-001,1.11606E+000,2.56001E-002,0.00000E+000,-2.01862E-002,9.53732E-001,0.00000E+000,-3.13568E-003,-5.75089E-002,1.00000E+000,21
579,1337,-2.10070E+001,-3.27817E-002,8.15841E-002,1.85601E+000,-5.15570E-001,9.61502E-002,1.92868E+000,7.98819E-003,6.40113E-001,0,2.89575E+001,-8.55575E+000,9.98670E-001,-1.13320E+001,-4.96311E+001,9.99044E-001,1.14544E-001,-4.87927E-002,2.32420E-004,1.14544E-001,-4.87930E-002,8.15288E-002,1.14962E-001,1.12107E+000,2.56996E-002,0.00000E+000,-2.12873E-002,9.53710E-001,0.00000E+000,-1.08106E-003,-5.74680E-002,1.00000E+000,21
579,1327,-2.10315E+001,-6.25270E-001,1.38816E-001,1.83790E+000,-4.76447E-001,1.32275E-001,1.90325E+000,9.28164E-003,6.78675E-001,0,2.85734E+001,-7.99981E+000,9.99314E-001,-1.16881E+001,-4.88293E+001,9.98421E-001,1.16757E-001,-4.87860E-002,-3.81553E-005,1.16757E-001,-4.87860E-002,-1.32058E-002,1.17282E-001,1.12355E+000,2.57241E-002,0.00000E+000,-2.18331E-002,9.53705E-001,0.00000E+000,-6.24077E-005,-5.74580E-002,1.00000E+000,21
579,1317,-2.10486E+001,-1.21940E+000,2.29126E-001,1.82207E+000,-4.42116E-001,1.70077E-001,1.88264E+000,1.30434E-002,6.62686E-001,0,2.82197E+001,-7.51658E+000,9.98520E-001,-1.18329E+001,-4.81493E+001,9.97173E-001,1.18962E-001,-4.87752E-002,-3.16866E-004,1.18963E-001,-4.87758E-002,-1.08235E-001,1.19604E-001,1.12603E+000,2.57291E-002,0.00000E+000,-2.23785E-002,9.53704E-001,0.00000E+000,9.55341E-004,-5.74559E-002,1.00000E+000,21
1279,1317,3.11598E+001,-5.10867E-001,-1.05935E-001,8.38567E+000,-1.04972E-001,-6.02052E-002,8.38654E+000,9.17900E-003,3.83477E-001,0,1.25173E+002,-2.66517E+000,9.99025E-001,9.46668E+001,-2.97910E+001,9.97483E-001,1.35699E-001,-5.35601E-002,2.09465E-003,1.35722E-001,-5.35833E-002,6.34026E-001,1.36719E-001,1.14531E+000,-8.10446E-003,0.00000E+000,1.07959E-002,9.49389E-001,0.00000E+000,-1.92499E-003,-5.80582E-002,1.00000E+000,21
1279,1327,3.11854E+001,1.14518E-001,-1.11408E-001,8.38594E+000,-1.36684E-001,-9.17033E-002,8.38756E+000,1.45292E-002,4.24589E-001,0,1.25295E+002,-3.12973E+000,9.98630E-001,9.50957E+001,-3.00319E+001,9.98069E-001,1.36835E-001,-5.35107E-002,2.63705E-003,1.36871E-001,-5.35473E-002,7.93574E-001,1.37947E-001,1.14662E+000,-8.05416E-003,0.00000E+000,1.16652E-002,9.49423E-001,0.00000E+000,2.02026E-004,-5.79761E-002,1.00000E+000,21
1279,1337,3.12191E+001,7.35449E-001,-8.60154E-002,8.38486E+000,-1.77208E-001,-1.27394E-001,8.38770E+000,1.12509E-002,4.05526E-001,0,1.25409E+002,-3.70490E+000,9.98974E-001,9.56893E+001,-3.04428E+001,9.98487E-001,1.37968E-001,-5.34460E-002,3.18881E-003,1.38022E-001,-5.34991E-002,9.54148E-001,1.39179E-001,1.14793E+000,-7.98504E-003,0.00000E+000,1.25375E-002,9.49469E-001,0.00000E+000,2.33622E-003,-5.78634E-002,1.00000E+000,21
1279,1307,3.11427E+001,-1.12476E+000,-6.78352E-002,8.38579E+000,-6.89433E-002,-2.54545E-002,8.38611E+000,1.10365E-002,4.47040E-001,0,1.25032E+002,-2.15046E+000,9.98839E-001,9.44098E+001,-2.93917E+001,9.96581E-001,1.34565E-001,-5.35964E-002,1.56306E-003,1.34578E-001,-5.36093E-002,4.75912E-001,1.35502E-001,1.14402E+000,-8.13878E-003,0.00000E+000,9.93377E-003,9.49367E-001,0.00000E+000,-4.03454E-003,-5.81141E-002,1.00000E+000,21
1279,1297,3.11433E+001,-1.73148E+000,1.57323E-002,8.39385E+000,-2.82027E-002,1.83396E-002,8.39392E+000,1.91615E-002,3.67682E-001,0,1.24959E+002,-1.55618E+000,9.98506E-001,9.44872E+001,-2.90493E+001,9.97190E-001,1.33426E-001,-5.36167E-002,1.03980E-003,1.33432E-001,-5.36225E-002,3.18503E-001,1.34286E-001,1.14273E+000,-8.15367E-003,0.00000E+000,9.07190E-003,9.49357E-001,0.00000E+000,-6.14336E-003,-5.81384E-002,1.00000E+000,21
1279,1287,3.11461E+001,-2.34971E+000,1.08721E-001,8.39974E+000,-2.03162E-003,5.55721E-002,8.39992E+000,1.74231E-002,3.20997E-001,0,1.24882E+002,-1.17330E+000,9.98775E-001,9.46092E+001,-2.88888E+001,9.96397E-001,1.32284E-001,-5.36297E-002,5.21809E-004,1.32286E-001,-5.36312E-002,1.60812E-001,1.33072E-001,1.14144E+000,-8.15990E-003,0.00000E+000,8.21282E-003,9.49352E-001,0.00000E+000,-8.24538E-003,-5.81486E-002,1.00000E+000,21
569,1347,-2.16875E+001,5.93458E-001,5.46200E-002,1.80242E+000,-5.22294E-001,6.43426E-002,1.87768E+000,8.43913E-003,6.67412E-001,0,2.82157E+001,-8.58785E+000,9.98855E-001,-1.16145E+001,-5.00529E+001,9.98725E-001,1.11713E-001,-4.83537E-002,1.00406E-003,1.11719E-001,-4.83600E-002,3.59385E-001,1.12054E-001,1.11784E+000,2.84111E-002,0.00000E+000,-2.21256E-002,9.54065E-001,0.00000E+000,-2.29250E-003,-5.66482E-002,1.00000E+000,21
569,1357,-2.16521E+001,1.20361E+000,5.16453E-002,1.82336E+000,-5.52801E-001,3.28102E-002,1.90560E+000,8.34671E-003,6.62989E-001,0,2.86259E+001,-9.00927E+000,9.99122E-001,-1.09260E+001,-5.06878E+001,9.98867E-001,1.09373E-001,-4.83554E-002,1.34367E-003,1.09385E-001,-4.83668E-002,4.88050E-001,1.09628E-001,1.11523E+000,2.83541E-002,0.00000E+000,-2.14183E-002,9.54081E-001,0.00000E+000,-3.51279E-003,-5.66749E-002,1.00000E+000,21
569,1327,-2.17438E+001,-6.22415E-001,1.27028E-001,1.76366E+000,-4.68226E-001,1.23864E-001,1.82896E+000,1.37191E-002,6.86482E-001,0,2.74499E+001,-7.84103E+000,9.99441E-001,-1.25703E+001,-4.88580E+001,9.98973E-001,1.16349E-001,-4.83383E-002,3.08593E-004,1.16350E-001,-4.83389E-002,1.07361E-001,1.16903E-001,1.12303E+000,2.84804E-002,0.00000E+000,-2.35341E-002,9.54046E-001,0.00000E+000,1.37531E-004,-5.66158E-002,1.00000E+000,21
569,1337,-2.17179E+001,-1.63940E-002,8.58378E-002,1.78154E+000,-4.95520E-001,9.38258E-002,1.85155E+000,7.67606E-003,6.43068E-001,0,2.78104E+001,-8.21475E+000,9.98968E-001,-1.21424E+001,-4.94905E+001,9.99033E-001,1.14039E-001,-4.83469E-002,6.56868E-004,1.14042E-001,-4.83495E-002,2.31762E-001,1.14481E-001,1.12044E+000,2.84488E-002,0.00000E+000,-2.28313E-002,9.54055E-001,0.00000E+000,-1.07507E-003,-5.66305E-002,1.00000E+000,21
1289,1327,3.19427E+001,1.21534E-001,-1.20920E-001,8.47745E+000,-1.34161E-001,-8.97003E-002,8.47899E+000,1.34679E-002,4.21020E-001,0,1.26550E+002,-3.11415E+000,9.98178E-001,9.69409E+001,-2.98108E+001,9.97191E-001,1.36523E-001,-5.24756E-002,3.05215E-003,1.36573E-001,-5.25249E-002,9.24950E-001,1.37780E-001,1.14627E+000,-6.79705E-003,0.00000E+000,1.13956E-002,9.50289E-001,0.00000E+000,9.25595E-004,-5.56900E-002,1.00000E+000,21
1289,1337,3.19781E+001,7.48651E-001,-9.40462E-002,8.47803E+000,-1.68942E-001,-1.23228E-001,8.48061E+000,1.28866E-002,4.34074E-001,0,1.26677E+002,-3.61814E+000,9.98791E-001,9.75607E+001,-3.01110E+001,9.97888E-001,1.37837E-001,-5.24038E-002,3.67155E-003,1.37908E-001,-5.24746E-002,1.10523E+000,1.39214E-001,1.14779E+000,-6.71685E-003,0.00000E+000,1.23837E-002,9.50341E-001,0.00000E+000,3.24907E-003,-5.55672E-002,1.00000E+000,21
569,1317,-2.17670E+001,-1.20894E+000,2.26709E-001,1.74020E+000,-4.26619E-001,1.61786E-001,1.79902E+000,1.51738E-002,6.69103E-001,0,2.69746E+001,-7.26122E+000,9.98619E-001,-1.27775E+001,-4.80808E+001,9.97328E-001,1.18648E-001,-4.83213E-002,-5.31133E-005,1.18648E-001,-4.83213E-002,-1.82259E-002,1.19326E-001,1.12561E+000,2.84796E-002,0.00000E+000,-2.42359E-002,9.54047E-001,0.00000E+000,1.34832E-003,-5.66161E-002,1.00000E+000,21
1289,1317,3.19195E+001,-5.01111E-001,-1.06027E-001,8.47721E+000,-1.03303E-001,-5.76861E-002,8.47803E+000,1.49420E-002,4.73217E-001,0,1.26423E+002,-2.67011E+000,9.98984E-001,9.65615E+001,-2.95028E+001,9.96466E-001,1.35213E-001,-5.25259E-002,2.44896E-003,1.35245E-001,-5.25578E-002,7.47226E-001,1.36359E-001,1.14477E+000,-6.84996E-003,0.00000E+000,1.04159E-002,9.50254E-001,0.00000E+000,-1.37773E-003,-5.57710E-002,1.00000E+000,21
1289,1287,3.19023E+001,-2.33045E+000,9.30408E-002,8.48907E+000,1.15924E-002,4.59644E-002,8.48920E+000,1.79792E-002,4.14752E-001,0,1.26144E+002,-9.89581E-001,9.98792E-001,9.64321E+001,-2.84225E+001,9.96077E-001,1.31250E-001,-5.26030E-002,6.83354E-004,1.31253E-001,-5.26055E-002,2.12955E-001,1.32111E-001,1.14027E+000,-6.91700E-003,0.00000E+000,7.48788E-003,9.50211E-001,0.00000E+000,-8.26238E-003,-5.58736E-002,1.00000E+000,21
1289,1297,3.19059E+001,-1.72286E+000,1.92787E-002,8.48601E+000,-2.49962E-002,1.49459E-002,8.48606E+000,1.86891E-002,3.10168E-001,0,1.26238E+002,-1.50598E+000,9.98853E-001,9.64334E+001,-2.88627E+001,9.97334E-001,1.32572E-001,-5.25833E-002,1.26622E-003,1.32581E-001,-5.25919E-002,3.91803E-001,1.33521E-001,1.14176E+000,-6.90168E-003,0.00000E+000,8.45906E-003,9.50221E-001,0.00000E+000,-5.97887E-003,-5.58501E-002,1.00000E+000,21
1289,1307,3.19066E+001,-1.11587E+000,-7.12510E-002,8.48040E+000,-6.70200E-002,-3.13380E-002,8.48072E+000,1.31414E-002,4.50234E-001,0,1.26361E+002,-2.11542E+000,9.99480E-001,9.63690E+001,-2.91540E+001,9.97415E-001,1.33897E-001,-5.25634E-002,1.85301E-003,1.33915E-001,-5.25818E-002,5.69322E-001,1.34940E-001,1.14326E+000,-6.88694E-003,0.00000E+000,9.43766E-003,9.50230E-001,0.00000E+000,-3.67794E-003,-5.58275E-002,1.00000E+000,21
559,1327,-2.24484E+001,-6.12301E-001,1.22041E-001,1.69574E+000,-4.54367E-001,1.16639E-001,1.75943E+000,2.41370E-002,8.15040E-001,0,2.64183E+001,-7.64625E+000,9.99531E-001,-1.33103E+001,-4.87286E+001,9.98808E-001,1.15869E-001,-4.82003E-002,8.17154E-004,1.15873E-001,-4.82044E-002,2.85354E-001,1.16417E-001,1.12241E+000,3.13754E-002,0.00000E+000,-2.50422E-002,9.54077E-001,0.00000E+000,3.61659E-004,-5.54184E-002,1.00000E+000,21
559,1337,-2.24287E+001,-4.78215E-003,7.98254E-002,1.70785E+000,-4.79011E-001,8.70726E-002,1.77589E+000,7.02443E-003,6.53183E-001,0,2.66865E+001,-7.92920E+000,9.99554E-001,-1.29771E+001,-4.93978E+001,9.99429E-001,1.13625E-001,-4.82084E-002,1.09590E-003,1.13632E-001,-4.82158E-002,3.87972E-001,1.14065E-001,1.11990E+000,3.13462E-002,0.00000E+000,-2.44718E-002,9.54083E-001,0.00000E+000,-1.00176E-003,-5.54342E-002,1.00000E+000,21
559,1347,-2.24028E+001,6.04989E-001,5.34422E-002,1.72425E+000,-5.04108E-001,6.18099E-002,1.79750E+000,1.00256E-002,6.37724E-001,0,2.70099E+001,-8.29007E+000,9.98919E-001,-1.25025E+001,-4.99942E+001,9.98656E-001,1.11367E-001,-4.82150E-002,1.37249E-003,1.11378E-001,-4.82268E-002,4.92725E-001,1.11711E-001,1.11738E+000,3.13099E-002,0.00000E+000,-2.38999E-002,9.54092E-001,0.00000E+000,-2.36890E-003,-5.54539E-002,1.00000E+000,21
559,1357,-2.23656E+001,1.21457E+000,4.91763E-002,1.74777E+000,-5.34115E-001,3.27289E-002,1.82786E+000,8.62194E-003,6.29540E-001,0,2.74541E+001,-8.71244E+000,9.98926E-001,-1.17891E+001,-5.06385E+001,9.98997E-001,1.09092E-001,-4.82182E-002,1.64328E-003,1.09109E-001,-4.82354E-002,5.98432E-001,1.09353E-001,1.11485E+000,3.12576E-002,0.00000E+000,-2.33257E-002,9.54103E-001,0.00000E+000,-3.74147E-003,-5.54823E-002,1.00000E+000,21
559,1317,-2.24781E+001,-1.19274E+000,2.31633E-001,1.66539E+000,-4.07293E-001,1.61741E-001,1.72209E+000,2.36947E-002,7.00756E-001,0,2.58161E+001,-6.94589E+000,9.99245E-001,-1.35823E+001,-4.79265E+001,9.98419E-001,1.18105E-001,-4.81855E-002,5.24804E-004,1.18107E-001,-4.81871E-002,1.80820E-001,1.18771E-001,1.12493E+000,3.13729E-002,0.00000E+000,-2.56123E-002,9.54077E-001,0.00000E+000,1.72450E-003,-5.54197E-002,1.00000E+000,21
1299,1327,3.27074E+001,1.35532E-001,-1.19617E-001,8.57175E+000,-1.27593E-001,-9.18497E-002,8.57319E+000,1.77233E-002,4.32562E-001,0,1.27854E+002,-3.02433E+000,9.98021E-001,9.89187E+001,-2.94969E+001,9.97326E-001,1.36271E-001,-5.13154E-002,3.43768E-003,1.36334E-001,-5.13784E-002,1.04953E+000,1.37705E-001,1.14599E+000,-5.13070E-003,0.00000E+000,1.07426E-002,9.51270E-001,0.00000E+000,1.47213E-003,-5.31273E-002,1.00000E+000,21
1299,1337,3.27527E+001,7.61535E-001,-8.79861E-002,8.58080E+000,-1.65147E-001,-1.25170E-001,8.58330E+000,1.61501E-002,4.60057E-001,0,1.28106E+002,-3.56862E+000,9.98098E-001,9.96973E+001,-2.98152E+001,9.96916E-001,1.37786E-001,-5.12369E-002,4.10777E-003,1.37875E-001,-5.13261E-002,1.24435E+000,1.39367E-001,1.14775E+000,-5.03435E-003,0.00000E+000,1.18145E-002,9.51329E-001,0.00000E+000,3.94928E-003,-5.29911E-002,1.00000E+000,21
1299,1287,3.26698E+001,-2.31945E+000,1.01039E-001,8.58475E+000,1.37677E-002,4.42623E-002,8.58487E+000,1.31328E-002,4.84177E-001,0,1.27464E+002,-9.71200E-001,9.99045E-001,9.84620E+001,-2.81460E+001,9.96964E-001,1.30203E-001,-5.14438E-002,8.94908E-004,1.30207E-001,-5.14482E-002,2.82267E-001,1.31159E-001,1.13908E+000,-5.26519E-003,0.00000E+000,6.51379E-003,9.51187E-001,0.00000E+000,-8.30056E-003,-5.33176E-002,1.00000E+000,21
1299,1297,3.26729E+001,-1.71502E+000,3.09134E-002,8.58270E+000,-2.57279E-002,2.22582E-002,8.58276E+000,1.45383E-002,5.07425E-001,0,1.27538E+002,-1.61046E+000,9.99114E-001,9.84604E+001,-2.85781E+001,9.97488E-001,1.31725E-001,-5.14268E-002,1.51922E-003,1.31738E-001,-5.14394E-002,4.75216E-001,1.32787E-001,1.14080E+000,-5.25129E-003,0.00000E+000,7.56537E-003,9.51196E-001,0.00000E+000,-5.87039E-003,-5.32979E-002,1.00000E+000,21
1299,1307,3.26872E+001,-1.09857E+000,-3.64998E-002,8.58637E+000,-5.88340E-002,-1.62960E-002,8.58659E+000,2.64182E-002,5.16824E-001,0,1.27759E+002,-2.06708E+000,9.99021E-001,9.86365E+001,-2.88346E+001,9.97739E-001,1.33249E-001,-5.13989E-002,2.15369E-003,1.33274E-001,-5.14240E-002,6.68163E-001,1.34427E-001,1.14253E+000,-5.22314E-003,0.00000E+000,8.62414E-003,9.51213E-001,0.00000E+000,-3.42360E-003,-5.32581E-002,1.00000E+000,21
1299,1317,3.26965E+001,-4.83158E-001,-8.76358E-002,8.58027E+000,-9.43615E-002,-5.64632E-002,8.58097E+000,2.26427E-002,4.87306E-001,0,1.27837E+002,-2.55541E+000,9.98236E-001,9.87546E+001,-2.91634E+001,9.96961E-001,1.34764E-001,-5.13612E-002,2.79364E-003,1.34806E-001,-5.14031E-002,8.59718E-001,1.36066E-001,1.14426E+000,-5.18210E-003,0.00000E+000,9.68332E-003,9.51238E-001,0.00000E+000,-9.75890E-004,-5.32000E-002,1.00000E+000,21
559,1307,-2.25024E+001,-1.78476E+000,3.44549E-001,1.63858E+000,-3.72950E-001,1.99120E-001,1.69224E+000,1.11250E-002,6.77034E-001,0,2.52914E+001,-6.48036E+000,9.98553E-001,-1.37670E+001,-4.72616E+001,9.97737E-001,1.20333E-001,-4.81692E-002,2.29906E-004,1.20334E-001,-4.81695E-002,7.81748E-002,1.21128E-001,1.12744E+000,3.13637E-002,0.00000E+000,-2.61822E-002,9.54079E-001,0.00000E+000,3.08688E-003,-5.54247E-002,1.00000E+000,21
549,1347,-2.31090E+001,6.20053E-001,5.23952E-002,1.65479E+000,-4.84676E-001,5.95605E-002,1.72534E+000,8.82330E-003,6.61709E-001,0,2.59381E+001,-7.96580E+000,9.98849E-001,-1.32459E+001,-4.98538E+001,9.98628E-001,1.11045E-001,-4.80073E-002,1.78387E-003,1.11065E-001,-4.80273E-002,6.42500E-001,1.11402E-001,1.11694E+000,3.40301E-002,0.00000E+000,-2.54566E-002,9.54182E-001,0.00000E+000,-2.20709E-003,-5.41298E-002,1.00000E+000,21
549,1357,-2.30718E+001,1.23591E+000,5.22557E-002,1.67760E+000,-5.09210E-001,2.93227E-002,1.75342E+000,9.34714E-003,6.58939E-001,0,2.63722E+001,-8.29844E+000,9.98881E-001,-1.25172E+001,-5.04102E+001,9.98876E-001,1.08851E-001,-4.80110E-002,2.04986E-003,1.08878E-001,-4.80378E-002,7.48567E-001,1.09129E-001,1.11450E+000,3.39773E-002,0.00000E+000,-2.48912E-002,9.54194E-001,0.00000E+000,-3.66790E-003,-5.41614E-002,1.00000E+000,21
549,1327,-2.31788E+001,-5.89943E-001,1.46812E-001,1.60010E+000,-4.27627E-001,1.29192E-001,1.66129E+000,1.91920E-002,7.56514E-001,0,2.48967E+001,-7.22651E+000,9.98884E-001,-1.43430E+001,-4.85722E+001,9.97134E-001,1.15387E-001,-4.79892E-002,1.23326E-003,1.15396E-001,-4.79985E-002,4.32471E-001,1.15938E-001,1.12179E+000,3.40859E-002,0.00000E+000,-2.65815E-002,9.54169E-001,0.00000E+000,6.99735E-004,-5.40963E-002,1.00000E+000,21
549,1337,-2.31391E+001,1.27209E-002,8.46363E-002,1.63377E+000,-4.55226E-001,8.86467E-002,1.69832E+000,7.35581E-003,6.53785E-001,0,2.55316E+001,-7.57067E+000,9.99282E-001,-1.37670E+001,-4.92429E+001,9.99268E-001,1.13228E-001,-4.79994E-002,1.50979E-003,1.13242E-001,-4.80136E-002,5.36475E-001,1.13677E-001,1.11937E+000,3.40635E-002,0.00000E+000,-2.60212E-002,9.54174E-001,0.00000E+000,-7.48023E-004,-5.41097E-002,1.00000E+000,21
1309,1317,3.34506E+001,-4.80374E-001,-1.11488E-001,8.66779E+000,-9.53768E-002,-6.85037E-002,8.66858E+000,1.81852E-002,4.48116E-001,0,1.29089E+002,-2.55220E+000,9.98119E-001,1.00541E+002,-2.89971E+001,9.96845E-001,1.34629E-001,-5.04099E-002,3.21975E-003,1.34685E-001,-5.04659E-002,9.96565E-001,1.36088E-001,1.14412E+000,-3.03050E-003,0.00000E+000,8.71276E-003,9.52026E-001,0.00000E+000,-8.23673E-004,-5.05732E-002,1.00000E+000,21
1309,1327,3.34752E+001,1.43577E-001,-1.29259E-001,8.67025E+000,-1.25322E-001,-9.94177E-002,8.67173E+000,2.13054E-002,4.18962E-001,0,1.29245E+002,-2.99000E+000,9.97786E-001,1.00937E+002,-2.92638E+001,9.96226E-001,1.36335E-001,-5.03646E-002,3.82221E-003,1.36413E-001,-5.04428E-002,1.17234E+000,1.37947E-001,1.14608E+000,-2.96398E-003,0.00000E+000,9.68526E-003,9.52059E-001,0.00000E+000,1.70968E-003,-5.04871E-002,1.00000E+000,21
1309,1337,3.35166E+001,7.73313E-001,-9.76271E-002,8.67643E+000,-1.58476E-001,-1.27865E-001,8.67882E+000,2.00651E-002,4.37781E-001,0,1.29433E+002,-3.47653E+000,9.98564E-001,1.01651E+002,-2.95273E+001,9.97769E-001,1.38046E-001,-5.02960E-002,4.44601E-003,1.38151E-001,-5.04009E-002,1.35152E+000,1.39823E-001,1.14806E+000,-2.85851E-003,0.00000E+000,1.06667E-002,9.52112E-001,0.00000E+000,4.26628E-003,-5.03508E-002,1.00000E+000,21
549,1317,-2.31930E+001,-1.17874E+000,2.44581E-001,1.58633E+000,-3.89546E-001,1.69831E-001,1.64226E+000,1.58141E-002,7.55848E-001,0,2.45691E+001,-6.69420E+000,9.99118E-001,-1.44179E+001,-4.78120E+001,9.98185E-001,1.17537E-001,-4.79746E-002,9.48055E-004,1.17542E-001,-4.79800E-002,3.28177E-001,1.18201E-001,1.12421E+000,3.40877E-002,0.00000E+000,-2.71415E-002,9.54169E-001,0.00000E+000,2.14669E-003,-5.40953E-002,1.00000E+000,21
549,1307,-2.32147E+001,-1.77012E+000,3.38506E-001,1.56311E+000,-3.53938E-001,1.93854E-001,1.61436E+000,1.13110E-002,6.96132E-001,0,2.41355E+001,-6.16230E+000,9.98637E-001,-1.46178E+001,-4.71130E+001,9.98159E-001,1.19684E-001,-4.79583E-002,6.59400E-004,1.19687E-001,-4.79609E-002,2.25360E-001,1.20471E-001,1.12663E+000,3.40822E-002,0.00000E+000,-2.77026E-002,9.54170E-001,0.00000E+000,3.59642E-003,-5.40986E-002,1.00000E+000,21
1309,1287,3.34357E+001,-2.31620E+000,9.92049E-002,8.67757E+000,1.12063E-002,2.94072E-002,8.67762E+000,1.19246E-002,4.73424E-001,0,1.28798E+002,-1.01132E+000,9.99091E-001,1.00460E+002,-2.80096E+001,9.96852E-001,1.29478E-001,-5.04695E-002,1.47280E-003,1.29490E-001,-5.04816E-002,4.68902E-001,1.30533E-001,1.13827E+000,-3.10466E-003,0.00000E+000,5.80949E-003,9.51990E-001,0.00000E+000,-8.38670E-003,-5.06691E-002,1.00000E+000,21
1309,1297,3.34370E+001,-1.71340E+000,1.46727E-002,8.67537E+000,-3.16248E-002,-2.71446E-004,8.67543E+000,1.61108E-002,4.79577E-001,0,1.28906E+002,-1.64068E+000,9.98833E-001,1.00413E+002,-2.84434E+001,9.96857E-001,1.31203E-001,-5.04585E-002,2.04855E-003,1.31226E-001,-5.04816E-002,6.45998E-001,1.32384E-001,1.14022E+000,-3.09413E-003,0.00000E+000,6.77614E-003,9.51995E-001,0.00000E+000,-5.86856E-003,-5.06554E-002,1.00000E+000,21
1309,1307,3.34369E+001,-1.09534E+000,-7.01685E-002,8.67046E+000,-5.75802E-002,-3.55152E-002,8.67073E+000,1.70389E-002,3.82230E-001,0,1.28989E+002,-1.98525E+000,9.98757E-001,1.00346E+002,-2.86903E+001,9.98113E-001,1.32913E-001,-5.04445E-002,2.62417E-003,1.32951E-001,-5.04821E-002,8.19779E-001,1.34227E-001,1.14216E+000,-3.07948E-003,0.00000E+000,7.73991E-003,9.52002E-001,0.00000E+000,-3.35796E-003,-5.06365E-002,1.00000E+000,21
539,1347,-2.38199E+001,6.37683E-001,5.28266E-002,1.58007E+000,-4.61312E-001,5.77015E-002,1.64704E+000,7.83223E-003,6.54078E-001,0,2.47803E+001,-7.58759E+000,9.99085E-001,-1.40510E+001,-4.96940E+001,9.98993E-001,1.10813E-001,-4.77516E-002,1.98135E-003,1.10838E-001,-4.77763E-002,7.15794E-001,1.11188E-001,1.11660E+000,3.64153E-002,0.00000E+000,-2.71468E-002,9.54316E-001,0.00000E+000,-1.86041E-003,-5.28572E-002,1.00000E+000,21
539,1357,-2.37821E+001,1.25585E+000,4.81909E-002,1.60450E+000,-4.82851E-001,2.89521E-002,1.67583E+000,7.30299E-003,6.65185E-001,0,2.52355E+001,-7.87753E+000,9.99362E-001,-1.33262E+001,-5.02002E+001,9.99191E-001,1.08785E-001,-4.77567E-002,2.23074E-003,1.08817E-001,-4.77885E-002,8.16249E-001,1.09085E-001,1.11435E+000,3.63703E-002,0.00000E+000,-2.66225E-002,9.54326E-001,0.00000E+000,-3.28985E-003,-5.28857E-002,1.00000E+000,21
539,1327,-2.38811E+001,-5.70772E-001,1.33476E-001,1.53429E+000,-4.00946E-001,1.16316E-001,1.59007E+000,9.52094E-003,6.49692E-001,0,2.39069E+001,-6.75056E+000,9.97989E-001,-1.50587E+001,-4.84036E+001,9.97922E-001,1.14835E-001,-4.77331E-002,1.46836E-003,1.14848E-001,-4.77464E-002,5.17455E-001,1.15390E-001,1.12110E+000,3.64678E-002,0.00000E+000,-2.81919E-002,9.54304E-001,0.00000E+000,9.88336E-004,-5.28239E-002,1.00000E+000,21
539,1337,-2.38505E+001,3.31654E-002,8.34845E-002,1.55839E+000,-4.29324E-001,8.48373E-002,1.61867E+000,8.53512E-003,6.36952E-001,0,2.43680E+001,-7.14332E+000,9.98780E-001,-1.45844E+001,-4.90393E+001,9.98687E-001,1.12832E-001,-4.77432E-002,1.72594E-003,1.12850E-001,-4.77618E-002,6.15750E-001,1.13293E-001,1.11886E+000,3.64456E-002,0.00000E+000,-2.76706E-002,9.54309E-001,0.00000E+000,-4.32794E-004,-5.28380E-002,1.00000E+000,21
1319,1297,3.41845E+001,-1.70763E+000,-1.69009E-002,8.75602E+000,-2.80043E-002,-2.04354E-002,8.75609E+000,1.38601E-002,3.49367E-001,0,1.30086E+002,-1.52307E+000,9.98939E-001,1.02095E+002,-2.82644E+001,9.97497E-001,1.30741E-001,-4.94169E-002,2.73646E-003,1.30783E-001,-4.94584E-002,8.70008E-001,1.32071E-001,1.13970E+000,-3.89575E-004,0.00000E+000,5.84618E-003,9.52841E-001,0.00000E+000,-6.31020E-003,-4.73143E-002,1.00000E+000,21
1319,1307,3.41948E+001,-1.09475E+000,-8.18401E-002,8.75813E+000,-6.19429E-002,-4.74182E-002,8.75848E+000,1.62280E-002,3.32280E-001,0,1.30238E+002,-2.03335E+000,9.98771E-001,1.02211E+002,-2.85917E+001,9.98318E-001,1.32696E-001,-4.93995E-002,3.30491E-003,1.32756E-001,-4.94595E-002,1.03942E+000,1.34186E-001,1.14192E+000,-3.61635E-004,0.00000E+000,6.78327E-003,9.52853E-001,0.00000E+000,-3.47310E-003,-4.72786E-002,1.00000E+000,21
539,1307,-2.39265E+001,-1.75849E+000,3.27326E-001,1.48724E+000,-3.36307E-001,1.80242E-001,1.53541E+000,7.95612E-003,6.61395E-001,0,2.29928E+001,-5.85253E+000,9.98893E-001,-1.54730E+001,-4.70267E+001,9.98651E-001,1.18807E-001,-4.77024E-002,9.33866E-004,1.18813E-001,-4.77077E-002,3.21328E-001,1.19578E-001,1.12557E+000,3.64627E-002,0.00000E+000,-2.92311E-002,9.54305E-001,0.00000E+000,3.82107E-003,-5.28272E-002,1.00000E+000,21
539,1317,-2.39053E+001,-1.17048E+000,2.23215E-001,1.51087E+000,-3.73097E-001,1.50884E-001,1.56355E+000,9.08127E-003,6.79113E-001,0,2.34465E+001,-6.38994E+000,9.98491E-001,-1.53116E+001,-4.77787E+001,9.98007E-001,1.16826E-001,-4.77189E-002,1.20304E-003,1.16835E-001,-4.77277E-002,4.18878E-001,1.17485E-001,1.12333E+000,3.64705E-002,0.00000E+000,-2.87119E-002,9.54303E-001,0.00000E+000,2.40591E-003,-5.28222E-002,1.00000E+000,21
1319,1287,3.41911E+001,-2.31915E+000,7.81068E-002,8.76366E+000,3.45065E-003,1.10836E-002,8.76367E+000,1.42550E-002,4.41642E-001,0,1.30052E+002,-1.09433E+000,9.98855E-001,1.02276E+002,-2.79408E+001,9.97880E-001,1.28781E-001,-4.94216E-002,2.18022E-003,1.28807E-001,-4.94483E-002,7.00847E-001,1.29960E-001,1.13749E+000,-3.93364E-004,0.00000E+000,4.91223E-003,9.52839E-001,0.00000E+000,-9.13781E-003,-4.73192E-002,1.00000E+000,21
529,1327,-2.45892E+001,-5.54245E-001,1.37490E-001,1.46139E+000,-3.79099E-001,1.15298E-001,1.51415E+000,8.49176E-003,6.54490E-001,0,2.27750E+001,-6.41111E+000,9.97855E-001,-1.58063E+001,-4.82582E+001,9.97827E-001,1.14359E-001,-4.71885E-002,1.70254E-003,1.14377E-001,-4.72064E-002,6.03746E-001,1.14957E-001,1.12051E+000,3.80838E-002,0.00000E+000,-2.91847E-002,9.54750E-001,0.00000E+000,1.74236E-003,-5.19012E-002,1.00000E+000,21
529,1307,-2.46358E+001,-1.74141E+000,3.34797E-001,1.41255E+000,-3.14614E-001,1.79208E-001,1.45822E+000,1.05768E-002,6.22626E-001,0,2.18340E+001,-5.49615E+000,9.99124E-001,-1.62263E+001,-4.68979E+001,9.98661E-001,1.17782E-001,-4.71719E-002,1.40298E-003,1.17794E-001,-4.71838E-002,4.87272E-001,1.18568E-001,1.12436E+000,3.80776E-002,0.00000E+000,-2.97778E-002,9.54751E-001,0.00000E+000,4.47236E-003,-5.19056E-002,1.00000E+000,21
529,1317,-2.46150E+001,-1.15230E+000,2.23711E-001,1.43715E+000,-3.49271E-001,1.52074E-001,1.48678E+000,8.53485E-003,6.27587E-001,0,2.22968E+001,-5.99103E+000,9.99061E-001,-1.60943E+001,-4.76268E+001,9.98637E-001,1.16075E-001,-4.71812E-002,1.55601E-003,1.16089E-001,-4.71960E-002,5.46025E-001,1.16763E-001,1.12244E+000,3.80886E-002,0.00000E+000,-2.94815E-002,9.54749E-001,0.00000E+000,3.10854E-003,-5.18978E-002,1.00000E+000,21
