Coordinates.Image X [Pixel],Coordinates.Image Y [Pixel],coor.X [mm],coor.Y [mm],coor.Z [mm],disp.Horizontal Displacement U [mm],disp.Vertical Displacement V [mm],disp.Out-Of-Plane: W [mm],disp.Displacement Magnitude [mm],stats.Sigma [mm],stats.Epipolar Distance [Pixel],stats.Shape Index [-],SameCamera.Horizontal: u [Pixel],SameCamera.Vertical: v [Pixel],SameCamera.Correlation Value 2D [-],CrossCamera.Horizontal: q [Pixel],CrossCamera.Vertical: r [Pixel],CrossCamera.Correlation Value Persp [-],strain.Strain-global frame: Exx [ ],strain.Strain-global frame: Eyy [ ],strain.Strain-global frame: Exy [ ],strain.Maximum Principal Strain: EI [ ],strain.Minimum Principal Strain: EII [ ],strain.Shear Angle Gamma [deg],strain.Von Mises Equivalent Strain [ ],defgradient.F[0,0] [-],defgradient.F[0,1] [-],defgradient.F[0,2] [-],defgradient.F[1,0] [-],defgradient.F[1,1] [-],defgradient.F[1,2] [-],defgradient.F[2,0] [-],defgradient.F[2,1] [-],defgradient.F[2,2] [-],ext.Current Image [#]
929,1317,6.15106E+000,-1.13095E+000,7.70756E-002,6.48713E+000,-5.14590E-001,1.63796E-001,6.50957E+000,1.41694E-002,4.64935E-001,0,9.88058E+001,-9.17612E+000,9.98416E-001,5.55257E+001,-4.28946E+001,9.97070E-001,1.76492E-001,-7.39933E-002,-2.30961E-004,1.76492E-001,-7.39935E-002,-5.28298E-002,1.77258E-001,1.19297E+000,-2.01269E-002,0.00000E+000,1.65458E-002,9.32838E-001,0.00000E+000,-1.55491E-002,-9.61651E-002,1.00000E+000,27
919,1307,5.37274E+000,-1.73564E+000,1.49310E-001,6.37536E+000,-4.70000E-001,2.40827E-001,6.39720E+000,1.64993E-002,4.96182E-001,0,9.69064E+001,-8.61200E+000,9.97048E-001,5.35394E+001,-4.24829E+001,9.94767E-001,1.79943E-001,-7.37443E-002,-8.48989E-004,1.79946E-001,-7.37471E-002,-1.91743E-001,1.80919E-001,1.19711E+000,-1.78268E-002,0.00000E+000,1.34535E-002,9.33190E-001,0.00000E+000,-1.42567E-002,-9.70029E-002,1.00000E+000,27
919,1317,5.35780E+000,-1.15380E+000,3.33288E-002,6.35761E+000,-5.23168E-001,1.75757E-001,6.38152E+000,2.00614E-002,4.62084E-001,0,9.68746E+001,-9.32926E+000,9.95267E-001,5.31565E+001,-4.32586E+001,9.93287E-001,1.77697E-001,-7.37515E-002,-1.06321E-003,1.77701E-001,-7.37560E-002,-2.42262E-001,1.78554E-001,1.19440E+000,-1.78387E-002,0.00000E+000,1.29409E-002,9.33188E-001,0.00000E+000,-1.25799E-002,-9.69955E-002,1.00000E+000,27
919,1327,5.36257E+000,-5.61024E-001,-1.52593E-002,6.34526E+000,-5.77455E-001,1.12038E-001,6.37246E+000,1.53399E-002,4.98030E-001,0,9.69059E+001,-1.00605E+001,9.97663E-001,5.32214E+001,-4.39714E+001,9.96037E-001,1.75421E-001,-7.37674E-002,-1.30420E-003,1.75428E-001,-7.37742E-002,-2.99865E-001,1.76164E-001,1.19167E+000,-1.79103E-002,0.00000E+000,1.24233E-002,9.33174E-001,0.00000E+000,-1.08865E-002,-9.69512E-002,1.00000E+000,27
929,1307,6.16143E+000,-1.71235E+000,1.78965E-001,6.50468E+000,-4.57712E-001,2.34664E-001,6.52499E+000,1.38697E-002,5.06590E-001,0,9.88158E+001,-8.42021E+000,9.98669E-001,5.58075E+001,-4.20802E+001,9.97615E-001,1.78785E-001,-7.39923E-002,-1.81820E-004,1.78785E-001,-7.39925E-002,-4.12122E-002,1.79668E-001,1.19575E+000,-2.00960E-002,0.00000E+000,1.67637E-002,9.32840E-001,0.00000E+000,-1.76246E-002,-9.61883E-002,1.00000E+000,27
929,1327,6.14743E+000,-5.34885E-001,1.20693E-002,6.47007E+000,-5.60869E-001,1.00969E-001,6.49512E+000,1.28441E-002,4.54190E-001,0,9.87649E+001,-9.80096E+000,9.98646E-001,5.54270E+001,-4.35448E+001,9.97757E-001,1.74184E-001,-7.39947E-002,-2.91464E-004,1.74184E-001,-7.39950E-002,-6.72888E-002,1.74839E-001,1.19019E+000,-2.01847E-002,0.00000E+000,1.63274E-002,9.32833E-001,0.00000E+000,-1.34687E-002,-9.61220E-002,1.00000E+000,27
939,1307,6.94116E+000,-1.69460E+000,1.59752E-001,6.63007E+000,-4.46872E-001,2.05059E-001,6.64828E+000,1.50476E-002,5.00312E-001,0,1.00751E+002,-8.20002E+000,9.98804E-001,5.78394E+001,-4.16689E+001,9.97783E-001,1.77400E-001,-7.34270E-002,2.90926E-004,1.77400E-001,-7.34274E-002,6.64554E-002,1.78274E-001,1.19409E+000,-2.28090E-002,0.00000E+000,1.99857E-002,9.33178E-001,0.00000E+000,-2.01697E-002,-9.46572E-002,1.00000E+000,27
939,1317,6.92988E+000,-1.11073E+000,6.78061E-002,6.61082E+000,-5.01217E-001,1.40711E-001,6.63128E+000,1.48484E-002,4.30570E-001,0,1.00692E+002,-8.92868E+000,9.98419E-001,5.75655E+001,-4.24784E+001,9.96715E-001,1.75328E-001,-7.34249E-002,2.91171E-004,1.75328E-001,-7.34253E-002,6.70660E-002,1.76097E-001,1.19157E+000,-2.28403E-002,0.00000E+000,1.98363E-002,9.33176E-001,0.00000E+000,-1.77756E-002,-9.46275E-002,1.00000E+000,27
939,1327,6.92932E+000,-5.07738E-001,9.44595E-003,6.59516E+000,-5.43838E-001,7.77327E-002,6.61801E+000,1.24390E-002,4.72029E-001,0,1.00672E+002,-9.49125E+000,9.98159E-001,5.75284E+001,-4.30074E+001,9.97099E-001,1.73232E-001,-7.34221E-002,2.79829E-004,1.73232E-001,-7.34224E-002,6.50021E-002,1.73900E-001,1.18903E+000,-2.28995E-002,0.00000E+000,1.96857E-002,9.33173E-001,0.00000E+000,-1.53646E-002,-9.45713E-002,1.00000E+000,27
919,1337,5.37553E+000,4.45297E-002,-3.69037E-002,6.33617E+000,-6.20495E-001,5.21916E-002,6.36669E+000,1.40867E-002,4.62325E-001,0,9.69644E+001,-1.06199E+001,9.97363E-001,5.34720E+001,-4.45813E+001,9.96653E-001,1.73139E-001,-7.37862E-002,-1.55390E-003,1.73148E-001,-7.37959E-002,-3.60544E-001,1.73776E-001,1.18893E+000,-1.80025E-002,0.00000E+000,1.19061E-002,9.33157E-001,0.00000E+000,-9.19440E-003,-9.68942E-002,1.00000E+000,27
929,1337,6.15561E+000,6.25968E-002,-2.42473E-002,6.45863E+000,-6.11338E-001,3.85458E-002,6.48762E+000,1.30382E-002,4.46858E-001,0,9.88033E+001,-1.04711E+001,9.98758E-001,5.55707E+001,-4.42326E+001,9.98228E-001,1.71855E-001,-7.39964E-002,-3.63431E-004,1.71856E-001,-7.39969E-002,-8.46976E-002,1.72407E-001,1.18739E+000,-2.02690E-002,0.00000E+000,1.61080E-002,9.32827E-001,0.00000E+000,-1.13785E-002,-9.60590E-002,1.00000E+000,27
939,1337,6.93481E+000,8.90230E-002,-2.91943E-002,6.58190E+000,-5.94008E-001,1.75665E-002,6.60867E+000,1.18033E-002,4.61775E-001,0,1.00677E+002,-1.01695E+001,9.98517E-001,5.76248E+001,-4.37015E+001,9.98214E-001,1.71126E-001,-7.34189E-002,2.62177E-004,1.71126E-001,-7.34192E-002,6.14268E-002,1.71700E-001,1.18649E+000,-2.29729E-002,0.00000E+000,1.95352E-002,9.33168E-001,0.00000E+000,-1.29542E-002,-9.45016E-002,1.00000E+000,27
949,1317,7.71637E+000,-1.08166E+000,6.88244E-002,6.74035E+000,-4.81717E-001,1.22093E-001,6.75865E+000,2.19030E-002,4.69082E-001,0,1.02646E+002,-8.60463E+000,9.96031E-001,5.97506E+001,-4.19103E+001,9.94173E-001,1.74121E-001,-7.27813E-002,6.95234E-004,1.74123E-001,-7.27832E-002,1.61334E-001,1.74901E-001,1.19011E+000,-2.53208E-002,0.00000E+000,2.26761E-002,9.33527E-001,0.00000E+000,-1.95172E-002,-9.24018E-002,1.00000E+000,27
949,1327,7.71012E+000,-4.81090E-001,7.52363E-003,6.72009E+000,-5.24847E-001,6.14852E-002,6.74083E+000,1.93165E-002,4.60641E-001,0,1.02550E+002,-9.17659E+000,9.96982E-001,5.96191E+001,-4.24941E+001,9.95678E-001,1.72395E-001,-7.27737E-002,7.44618E-004,1.72397E-001,-7.27759E-002,1.74015E-001,1.73093E-001,1.18800E+000,-2.53666E-002,0.00000E+000,2.25948E-002,9.33526E-001,0.00000E+000,-1.66890E-002,-9.23404E-002,1.00000E+000,27
949,1337,7.71542E+000,1.15792E-001,-2.77401E-002,6.70713E+000,-5.74949E-001,7.65959E-003,6.73174E+000,1.45644E-002,4.62018E-001,0,1.02540E+002,-9.87024E+000,9.97797E-001,5.97186E+001,-4.31863E+001,9.97098E-001,1.70654E-001,-7.27649E-002,7.88052E-004,1.70657E-001,-7.27674E-002,1.85489E-001,1.71272E-001,1.18589E+000,-2.54262E-002,0.00000E+000,2.25132E-002,9.33523E-001,0.00000E+000,-1.38537E-002,-9.22603E-002,1.00000E+000,27
949,1307,7.73024E+000,-1.67269E+000,1.60196E-001,6.76192E+000,-4.33729E-001,1.84089E-001,6.77831E+000,1.78291E-002,4.96344E-001,0,1.02748E+002,-7.96051E+000,9.97426E-001,6.00623E+001,-4.12327E+001,9.96254E-001,1.75830E-001,-7.27871E-002,6.37355E-004,1.75832E-001,-7.27888E-002,1.46882E-001,1.76697E-001,1.19221E+000,-2.52956E-002,0.00000E+000,2.27571E-002,9.33528E-001,0.00000E+000,-2.23357E-002,-9.24356E-002,1.00000E+000,27
909,1317,4.58367E+000,-1.16934E+000,3.12947E-002,6.23519E+000,-5.30902E-001,1.76031E-001,6.26023E+000,1.88862E-002,4.49075E-001,0,9.50767E+001,-9.45745E+000,9.93583E-001,5.11754E+001,-4.36016E+001,9.92065E-001,1.78917E-001,-7.43289E-002,-1.97914E-003,1.78932E-001,-7.43443E-002,-4.47737E-001,1.79782E-001,1.19586E+000,-1.54282E-002,0.00000E+000,9.04278E-003,9.32699E-001,0.00000E+000,-9.31774E-003,-9.70792E-002,1.00000E+000,27
909,1327,4.59461E+000,-5.70226E-001,-1.95554E-002,6.22950E+000,-5.79396E-001,1.11819E-001,6.25738E+000,1.50999E-002,4.76938E-001,0,9.52083E+001,-1.00784E+001,9.95597E-001,5.13324E+001,-4.42164E+001,9.95874E-001,1.76713E-001,-7.43421E-002,-2.19893E-003,1.76732E-001,-7.43614E-002,-5.01788E-001,1.77471E-001,1.19322E+000,-1.54950E-002,0.00000E+000,8.60811E-003,9.32688E-001,0.00000E+000,-8.19648E-003,-9.70509E-002,1.00000E+000,27
909,1337,4.60490E+000,3.84315E-002,-3.83532E-002,6.21763E+000,-6.22240E-001,5.38422E-002,6.24892E+000,1.63650E-002,5.31408E-001,0,9.52165E+001,-1.06367E+001,9.97443E-001,5.15490E+001,-4.47416E+001,9.96983E-001,1.74498E-001,-7.43584E-002,-2.42863E-003,1.74521E-001,-7.43821E-002,-5.59089E-001,1.75154E-001,1.19057E+000,-1.55838E-002,0.00000E+000,8.17230E-003,9.32673E-001,0.00000E+000,-7.07227E-003,-9.70132E-002,1.00000E+000,27
909,1307,4.59230E+000,-1.75103E+000,1.49013E-001,6.24561E+000,-4.77787E-001,2.38143E-001,6.26838E+000,1.83770E-002,4.42642E-001,0,9.50076E+001,-8.72454E+000,9.94874E-001,5.14660E+001,-4.28468E+001,9.90613E-001,1.81091E-001,-7.43238E-002,-1.78598E-003,1.81103E-001,-7.43363E-002,-4.00613E-001,1.82069E-001,1.19848E+000,-1.54209E-002,0.00000E+000,9.47277E-003,9.32700E-001,0.00000E+000,-1.04269E-002,-9.70823E-002,1.00000E+000,27
919,1347,5.39634E+000,6.58830E-001,-5.24046E-002,6.33169E+000,-6.58741E-001,-1.64210E-002,6.36589E+000,2.17976E-002,4.91652E-001,0,9.71184E+001,-1.10938E+001,9.98519E-001,5.38582E+001,-4.50381E+001,9.97743E-001,1.70839E-001,-7.38070E-002,-1.81056E-003,1.70852E-001,-7.38204E-002,-4.23999E-001,1.71377E-001,1.18619E+000,-1.81082E-002,0.00000E+000,1.13868E-002,9.33137E-001,0.00000E+000,-7.49533E-003,-9.68288E-002,1.00000E+000,27
929,1347,6.17210E+000,6.69992E-001,-4.14437E-002,6.45034E+000,-6.55495E-001,-2.85798E-002,6.48363E+000,1.22184E-002,4.50487E-001,0,9.88981E+001,-1.10388E+001,9.98756E-001,5.58842E+001,-4.48044E+001,9.98271E-001,1.69511E-001,-7.39984E-002,-4.45134E-004,1.69512E-001,-7.39993E-002,-1.04736E-001,1.69967E-001,1.18459E+000,-2.03755E-002,0.00000E+000,1.58881E-002,9.32818E-001,0.00000E+000,-9.28341E-003,-9.59794E-002,1.00000E+000,27
939,1347,6.95190E+000,6.96780E-001,-3.58232E-002,6.57451E+000,-6.37905E-001,-3.66820E-002,6.60549E+000,1.69818E-002,4.56839E-001,0,1.00742E+002,-1.07550E+001,9.98526E-001,5.79680E+001,-4.42934E+001,9.97308E-001,1.69002E-001,-7.34151E-002,2.34835E-004,1.69002E-001,-7.34154E-002,5.55036E-002,1.69486E-001,1.18394E+000,-2.30688E-002,0.00000E+000,1.93841E-002,9.33163E-001,0.00000E+000,-1.05348E-002,-9.44106E-002,1.00000E+000,27
949,1347,7.73557E+000,7.21083E-001,-2.61181E-002,6.70076E+000,-6.23688E-001,-4.66601E-002,6.72988E+000,1.38477E-002,4.72069E-001,0,1.02621E+002,-1.05244E+001,9.97811E-001,6.01239E+001,-4.38250E+001,9.96519E-001,1.68892E-001,-7.27538E-002,8.20236E-004,1.68895E-001,-7.27566E-002,1.94480E-001,1.69433E-001,1.18377E+000,-2.55129E-002,0.00000E+000,2.24312E-002,9.33520E-001,0.00000E+000,-1.10018E-002,-9.21440E-002,1.00000E+000,27
959,1317,8.49253E+000,-1.05997E+000,5.37048E-002,6.86101E+000,-4.67095E-001,9.59756E-002,6.87756E+000,2.02254E-002,4.78779E-001,0,1.04493E+002,-8.34445E+000,9.96546E-001,6.17473E+001,-4.14372E+001,9.95640E-001,1.73057E-001,-7.20286E-002,7.27849E-004,1.73060E-001,-7.20307E-002,1.70153E-001,1.73868E-001,1.18880E+000,-2.79445E-002,0.00000E+000,2.48439E-002,9.33964E-001,0.00000E+000,-2.02874E-002,-8.98486E-002,1.00000E+000,27
959,1327,8.49173E+000,-4.59129E-001,-5.98251E-003,6.84787E+000,-5.09198E-001,4.50551E-002,6.86692E+000,2.67097E-002,4.66285E-001,0,1.04474E+002,-8.91820E+000,9.98480E-001,6.17033E+001,-4.20198E+001,9.97668E-001,1.71621E-001,-7.20150E-002,8.52133E-004,1.71624E-001,-7.20180E-002,2.00393E-001,1.72361E-001,1.18704E+000,-2.79785E-002,0.00000E+000,2.48908E-002,9.33965E-001,0.00000E+000,-1.73727E-002,-8.97926E-002,1.00000E+000,27
959,1337,8.49831E+000,1.37231E-001,-2.85661E-002,6.83382E+000,-5.62352E-001,-6.01222E-003,6.85692E+000,2.05762E-002,4.72181E-001,0,1.04437E+002,-9.65418E+000,9.97481E-001,6.18470E+001,-4.27433E+001,9.96915E-001,1.70166E-001,-7.19973E-002,9.67429E-004,1.70170E-001,-7.20012E-002,2.28889E-001,1.70839E-001,1.18526E+000,-2.80352E-002,0.00000E+000,2.49379E-002,9.33966E-001,0.00000E+000,-1.44429E-002,-8.96990E-002,1.00000E+000,27
959,1307,8.50342E+000,-1.64807E+000,1.45796E-001,6.88047E+000,-4.14552E-001,1.62227E-001,6.89485E+000,1.53834E-002,5.01974E-001,0,1.04546E+002,-7.65046E+000,9.97222E-001,6.20140E+001,-4.07204E+001,9.96346E-001,1.74482E-001,-7.20402E-002,5.99203E-004,1.74483E-001,-7.20417E-002,1.39263E-001,1.75364E-001,1.19056E+000,-2.79210E-002,0.00000E+000,2.47972E-002,9.33963E-001,0.00000E+000,-2.31982E-002,-8.98875E-002,1.00000E+000,27
959,1347,8.51304E+000,7.38399E-001,-3.39699E-002,6.82393E+000,-6.12975E-001,-5.79895E-002,6.85165E+000,1.50932E-002,4.53120E-001,0,1.04461E+002,-1.03450E+001,9.97257E-001,6.21522E+001,-4.34439E+001,9.97016E-001,1.68699E-001,-7.19777E-002,1.07781E-003,1.68704E-001,-7.19825E-002,2.56578E-001,1.69308E-001,1.18348E+000,-2.81028E-002,0.00000E+000,2.49850E-002,9.33968E-001,0.00000E+000,-1.15097E-002,-8.95874E-002,1.00000E+000,27
909,1347,4.62594E+000,6.49429E-001,-3.59830E-002,6.21148E+000,-6.63294E-001,-6.89521E-003,6.24680E+000,1.88367E-002,5.18178E-001,0,9.53153E+001,-1.11763E+001,9.98481E-001,5.19777E+001,-4.53119E+001,9.96821E-001,1.72281E-001,-7.43774E-002,-2.66659E-003,1.72310E-001,-7.44063E-002,-6.19320E-001,1.72843E-001,1.18793E+000,-1.56928E-002,0.00000E+000,7.73748E-003,9.32655E-001,0.00000E+000,-5.95062E-003,-9.69669E-002,1.00000E+000,27
899,1327,3.82198E+000,-5.70327E-001,1.50513E-002,6.10055E+000,-5.79443E-001,1.12752E-001,6.12904E+000,1.12304E-002,4.88171E-001,0,9.32937E+001,-1.00562E+001,9.97003E-001,4.94609E+001,-4.43897E+001,9.97069E-001,1.77639E-001,-7.48317E-002,-2.96668E-003,1.77674E-001,-7.48666E-002,-6.73134E-001,1.78405E-001,1.19434E+000,-1.32771E-002,0.00000E+000,5.18638E-003,9.32313E-001,0.00000E+000,-5.37167E-003,-9.76676E-002,1.00000E+000,27
899,1337,3.83875E+000,3.46972E-002,-2.51895E-002,6.09904E+000,-6.21524E-001,5.05255E-002,6.13084E+000,1.67706E-002,5.13874E-001,0,9.34769E+001,-1.06068E+001,9.98797E-001,4.97324E+001,-4.49401E+001,9.98398E-001,1.75661E-001,-7.48426E-002,-3.15019E-003,1.75700E-001,-7.48822E-002,-7.20368E-001,1.76337E-001,1.19198E+000,-1.33425E-002,0.00000E+000,4.87506E-003,9.32304E-001,0.00000E+000,-4.93953E-003,-9.76557E-002,1.00000E+000,27
899,1347,3.86904E+000,6.41901E-001,-2.04674E-002,6.10230E+000,-6.66547E-001,-8.00482E-003,6.13860E+000,1.43152E-002,4.99956E-001,0,9.37122E+001,-1.12077E+001,9.98699E-001,5.03100E+001,-4.55753E+001,9.97949E-001,1.73672E-001,-7.48574E-002,-3.34721E-003,1.73718E-001,-7.49024E-002,-7.71476E-001,1.74265E-001,1.18961E+000,-1.34390E-002,0.00000E+000,4.56292E-003,9.32291E-001,0.00000E+000,-4.50623E-003,-9.76380E-002,1.00000E+000,27
899,1317,3.81901E+000,-1.16391E+000,8.81088E-002,6.11023E+000,-5.29729E-001,1.81362E-001,6.13583E+000,1.49693E-002,4.88295E-001,0,9.32051E+001,-9.41604E+000,9.96269E-001,4.94751E+001,-4.37192E+001,9.94601E-001,1.79609E-001,-7.48234E-002,-2.79199E-003,1.79640E-001,-7.48540E-002,-6.28628E-001,1.80469E-001,1.19670E+000,-1.32317E-002,0.00000E+000,5.49691E-003,9.32318E-001,0.00000E+000,-5.80272E-003,-9.76759E-002,1.00000E+000,27
899,1307,3.81817E+000,-1.74724E+000,1.84993E-001,6.11639E+000,-4.74124E-001,2.47211E-001,6.13972E+000,1.50510E-002,4.48615E-001,0,9.30644E+001,-8.64859E+000,9.96369E-001,4.95756E+001,-4.29605E+001,9.93204E-001,1.81569E-001,-7.48176E-002,-2.62626E-003,1.81596E-001,-7.48445E-002,-5.86821E-001,1.82527E-001,1.19905E+000,-1.32065E-002,0.00000E+000,5.80639E-003,9.32322E-001,0.00000E+000,-6.23231E-003,-9.76806E-002,1.00000E+000,27
889,1327,3.04949E+000,-5.77055E-001,2.79073E-002,5.97608E+000,-5.82474E-001,1.14041E-001,6.00548E+000,9.90307E-003,4.89411E-001,0,9.14493E+001,-1.00845E+001,9.98011E-001,4.75497E+001,-4.46235E+001,9.97710E-001,1.78582E-001,-7.42073E-002,-3.71931E-003,1.78637E-001,-7.42620E-002,-8.42755E-001,1.79481E-001,1.19548E+000,-1.13590E-002,0.00000E+000,2.01483E-003,9.32981E-001,0.00000E+000,-2.37189E-003,-9.84471E-002,1.00000E+000,27
889,1337,3.06048E+000,2.78917E-002,-1.87231E-002,5.97007E+000,-6.23006E-001,5.06635E-002,6.00270E+000,1.50793E-002,5.09008E-001,0,9.15668E+001,-1.06145E+001,9.98730E-001,4.77185E+001,-4.51671E+001,9.98305E-001,1.76695E-001,-7.42065E-002,-3.73573E-003,1.76750E-001,-7.42621E-002,-8.52838E-001,1.77500E-001,1.19323E+000,-1.14169E-002,0.00000E+000,2.11109E-003,9.32984E-001,0.00000E+000,-3.08083E-003,-9.84653E-002,1.00000E+000,27
889,1347,3.09197E+000,6.32901E-001,-1.64194E-002,5.97532E+000,-6.69491E-001,-7.63262E-003,6.01271E+000,1.24761E-002,4.95212E-001,0,9.18319E+001,-1.12405E+001,9.98456E-001,4.83110E+001,-4.58324E+001,9.97919E-001,1.74796E-001,-7.42053E-002,-3.76522E-003,1.74853E-001,-7.42622E-002,-8.66121E-001,1.75512E-001,1.19097E+000,-1.15062E-002,0.00000E+000,2.20773E-003,9.32988E-001,0.00000E+000,-3.79256E-003,-9.84934E-002,1.00000E+000,27
969,1297,9.30893E+000,-2.20858E+000,2.46538E-001,7.03131E+000,-3.45269E-001,1.92814E-001,7.04243E+000,1.97537E-002,4.90287E-001,0,1.06628E+002,-6.62788E+000,9.98562E-001,6.46158E+001,-3.95127E+001,9.97071E-001,1.74250E-001,-7.16393E-002,3.54232E-004,1.74251E-001,-7.16398E-002,8.25410E-002,1.75166E-001,1.19032E+000,-3.01897E-002,0.00000E+000,2.63344E-002,9.34098E-001,0.00000E+000,-2.64339E-002,-8.73715E-002,1.00000E+000,27
969,1307,9.27944E+000,-1.63517E+000,1.24880E-001,6.99982E+000,-4.09297E-001,1.26901E-001,7.01293E+000,3.46844E-002,4.56697E-001,0,1.06405E+002,-7.48297E+000,9.97837E-001,6.40011E+001,-4.04007E+001,9.95821E-001,1.73124E-001,-7.16287E-002,5.19213E-004,1.73125E-001,-7.16298E-002,1.21545E-001,1.73982E-001,1.18890E+000,-3.01942E-002,0.00000E+000,2.64320E-002,9.34098E-001,0.00000E+000,-2.34613E-002,-8.73622E-002,1.00000E+000,27
969,1317,9.27362E+000,-1.04436E+000,5.70806E-002,6.98437E+000,-4.59349E-001,8.04841E-002,6.99992E+000,1.29688E-002,4.34999E-001,0,1.06342E+002,-8.19265E+000,9.98949E-001,6.38617E+001,-4.11242E+001,9.98296E-001,1.71987E-001,-7.16138E-002,6.77320E-004,1.71989E-001,-7.16157E-002,1.59306E-001,1.72789E-001,1.18748E+000,-3.02155E-002,0.00000E+000,2.65297E-002,9.34099E-001,0.00000E+000,-2.04865E-002,-8.73175E-002,1.00000E+000,27
889,1317,3.04039E+000,-1.16893E+000,9.95758E-002,5.97907E+000,-5.31680E-001,1.79112E-001,6.00534E+000,1.34664E-002,5.12787E-001,0,9.12712E+001,-9.42928E+000,9.97929E-001,4.74665E+001,-4.39109E+001,9.97256E-001,1.80462E-001,-7.42079E-002,-3.70985E-003,1.80516E-001,-7.42620E-002,-8.34407E-001,1.81459E-001,1.19773E+000,-1.13177E-002,0.00000E+000,1.91872E-003,9.32980E-001,0.00000E+000,-1.66401E-003,-9.84341E-002,1.00000E+000,27
969,1327,9.26782E+000,-4.43649E-001,-7.12227E-003,6.96553E+000,-5.02099E-001,2.23781E-002,6.98364E+000,1.65187E-002,4.50145E-001,0,1.06263E+002,-8.77583E+000,9.98493E-001,6.37309E+001,-4.16842E+001,9.97896E-001,1.70838E-001,-7.15968E-002,8.32345E-004,1.70841E-001,-7.15997E-002,1.96709E-001,1.71585E-001,1.18605E+000,-3.02444E-002,0.00000E+000,2.66277E-002,9.34101E-001,0.00000E+000,-1.75056E-002,-8.72570E-002,1.00000E+000,27
889,1307,3.03499E+000,-1.75349E+000,1.97872E-001,5.97996E+000,-4.78104E-001,2.43374E-001,6.00398E+000,1.66625E-002,4.80145E-001,0,9.10571E+001,-8.69057E+000,9.97195E-001,4.75001E+001,-4.31691E+001,9.94826E-001,1.82332E-001,-7.42083E-002,-3.70852E-003,1.82386E-001,-7.42619E-002,-8.28032E-001,1.83430E-001,1.19997E+000,-1.12961E-002,0.00000E+000,1.82296E-003,9.32979E-001,0.00000E+000,-9.58727E-004,-9.84273E-002,1.00000E+000,27
969,1337,9.27255E+000,1.52167E-001,-3.60639E-002,6.95168E+000,-5.52846E-001,-2.53560E-002,6.97367E+000,1.70149E-002,4.05387E-001,0,1.06219E+002,-9.48459E+000,9.98041E-001,6.38324E+001,-4.24261E+001,9.97644E-001,1.69677E-001,-7.15767E-002,9.82200E-004,1.69681E-001,-7.15807E-002,2.33259E-001,1.70370E-001,1.18462E+000,-3.02856E-002,0.00000E+000,2.67257E-002,9.34104E-001,0.00000E+000,-1.45203E-002,-8.71708E-002,1.00000E+000,27
969,1347,9.28068E+000,7.69900E-001,-4.75628E-002,6.93645E+000,-5.87808E-001,-7.67799E-002,6.96173E+000,1.47190E-002,4.37204E-001,0,1.06157E+002,-9.93434E+000,9.97791E-001,6.40237E+001,-4.28307E+001,9.97112E-001,1.68498E-001,-7.15536E-002,1.12828E-003,1.68503E-001,-7.15590E-002,2.69292E-001,1.69139E-001,1.18319E+000,-3.03374E-002,0.00000E+000,2.68245E-002,9.34108E-001,0.00000E+000,-1.15149E-002,-8.70624E-002,1.00000E+000,27
879,1327,2.28175E+000,-5.78109E-001,4.63440E-002,5.85583E+000,-5.79642E-001,1.20228E-001,5.88567E+000,1.45653E-002,5.04110E-001,0,8.96478E+001,-1.00446E+001,9.97966E-001,4.57304E+001,-4.47745E+001,9.97526E-001,1.79371E-001,-7.44959E-002,-4.19759E-003,1.79441E-001,-7.45653E-002,-9.47018E-001,1.80292E-001,1.19644E+000,-9.73548E-003,0.00000E+000,-3.32809E-004,9.32682E-001,0.00000E+000,-2.97220E-004,-9.80485E-002,1.00000E+000,27
879,1337,2.29206E+000,2.07966E-002,-1.09221E-002,5.84981E+000,-6.25326E-001,4.86613E-002,5.88334E+000,1.38412E-002,4.95942E-001,0,8.97938E+001,-1.06272E+001,9.97426E-001,4.58651E+001,-4.54044E+001,9.96862E-001,1.77702E-001,-7.44914E-002,-4.14396E-003,1.77770E-001,-7.45594E-002,-9.41128E-001,1.78538E-001,1.19445E+000,-9.78481E-003,0.00000E+000,-6.62598E-005,9.32688E-001,0.00000E+000,-1.55675E-003,-9.80797E-002,1.00000E+000,27
879,1347,2.31864E+000,6.30072E-001,-1.51711E-002,5.85164E+000,-6.67804E-001,-9.86708E-003,5.88963E+000,1.60043E-002,5.18672E-001,0,9.00064E+001,-1.11863E+001,9.97509E-001,4.63693E+001,-4.59737E+001,9.97006E-001,1.76018E-001,-7.44848E-002,-4.10043E-003,1.76085E-001,-7.45519E-002,-9.37528E-001,1.76773E-001,1.19244E+000,-9.85938E-003,0.00000E+000,2.01952E-004,9.32698E-001,0.00000E+000,-2.82414E-003,-9.81267E-002,1.00000E+000,27
879,1307,2.25532E+000,-1.75246E+000,2.18190E-001,5.84609E+000,-4.74953E-001,2.44219E-001,5.87043E+000,1.87518E-002,4.91068E-001,0,8.90667E+001,-8.62607E+000,9.96581E-001,4.55021E+001,-4.32910E+001,9.94287E-001,1.82686E-001,-7.45012E-002,-4.32434E-003,1.82759E-001,-7.45739E-002,-9.63007E-001,1.83786E-001,1.20042E+000,-9.68475E-003,0.00000E+000,-8.64205E-004,9.32675E-001,0.00000E+000,2.21380E-003,-9.80165E-002,1.00000E+000,27
879,1317,2.26775E+000,-1.16779E+000,1.24377E-001,5.85364E+000,-5.26292E-001,1.90724E-001,5.88034E+000,1.40818E-002,4.39815E-001,0,8.93728E+001,-9.32803E+000,9.98142E-001,4.55867E+001,-4.40838E+001,9.96964E-001,1.81037E-001,-7.44994E-002,-4.25693E-003,1.81108E-001,-7.45703E-002,-9.54128E-001,1.82046E-001,1.19844E+000,-9.69973E-003,0.00000E+000,-5.99424E-004,9.32677E-001,0.00000E+000,9.62620E-004,-9.80260E-002,1.00000E+000,27
979,1307,1.00843E+001,-1.61452E+000,1.39706E-001,7.14429E+000,-3.98350E-001,1.13165E-001,7.15628E+000,2.02084E-002,4.32438E-001,0,1.08560E+002,-7.28707E+000,9.99082E-001,6.65106E+001,-4.00233E+001,9.98897E-001,1.71912E-001,-7.11734E-002,4.67262E-004,1.71913E-001,-7.11743E-002,1.10134E-001,1.72759E-001,1.18739E+000,-3.19220E-002,0.00000E+000,2.75960E-002,9.34265E-001,0.00000E+000,-2.25212E-002,-8.45582E-002,1.00000E+000,27
979,1317,1.00615E+001,-1.01791E+000,5.75069E-002,7.11344E+000,-4.42205E-001,5.95421E-002,7.12742E+000,1.20729E-002,4.33910E-001,0,1.08290E+002,-7.88975E+000,9.98541E-001,6.60815E+001,-4.06152E+001,9.97928E-001,1.71167E-001,-7.11558E-002,6.70710E-004,1.71169E-001,-7.11577E-002,1.58584E-001,1.71977E-001,1.18644E+000,-3.19340E-002,0.00000E+000,2.77815E-002,9.34267E-001,0.00000E+000,-1.96743E-002,-8.45221E-002,1.00000E+000,27
979,1327,1.00486E+001,-4.20384E-001,-5.39154E-003,7.08830E+000,-4.87360E-001,6.73122E-003,7.10504E+000,1.32552E-002,4.28091E-001,0,1.08100E+002,-8.51766E+000,9.97241E-001,6.58427E+001,-4.12369E+001,9.96163E-001,1.70412E-001,-7.11353E-002,8.71607E-004,1.70415E-001,-7.11384E-002,2.06745E-001,1.71187E-001,1.18549E+000,-3.19521E-002,0.00000E+000,2.79673E-002,9.34271E-001,0.00000E+000,-1.68245E-002,-8.44677E-002,1.00000E+000,27
979,1337,1.00471E+001,1.82881E-001,-4.57078E-002,7.07040E+000,-5.29822E-001,-4.20279E-002,7.09034E+000,1.78189E-002,4.13742E-001,0,1.07999E+002,-9.10458E+000,9.95830E-001,6.58254E+001,-4.18227E+001,9.95226E-001,1.69646E-001,-7.11118E-002,1.07011E-003,1.69651E-001,-7.11165E-002,2.54659E-001,1.70388E-001,1.18454E+000,-3.19764E-002,0.00000E+000,2.81535E-002,9.34275E-001,0.00000E+000,-1.39683E-002,-8.43948E-002,1.00000E+000,27
979,1347,1.00542E+001,7.98108E-001,-4.68992E-002,7.05265E+000,-5.67034E-001,-8.92461E-002,7.07597E+000,1.87466E-002,4.17838E-001,0,1.07883E+002,-9.60600E+000,9.94206E-001,6.60196E+001,-4.23010E+001,9.93354E-001,1.68868E-001,-7.10823E-002,1.26417E-003,1.68875E-001,-7.10890E-002,3.01849E-001,1.69577E-001,1.18358E+000,-3.20133E-002,0.00000E+000,2.83407E-002,9.34283E-001,0.00000E+000,-1.10964E-002,-8.42842E-002,1.00000E+000,27
979,1297,1.00872E+001,-2.18972E+000,2.28103E-001,7.15376E+000,-3.33629E-001,1.65807E-001,7.16345E+000,1.68555E-002,4.75189E-001,0,1.08500E+002,-6.38585E+000,9.98578E-001,6.66476E+001,-3.90930E+001,9.98179E-001,1.72649E-001,-7.11898E-002,2.62587E-004,1.72650E-001,-7.11901E-002,6.17009E-002,1.73532E-001,1.18834E+000,-3.19123E-002,0.00000E+000,2.74104E-002,9.34263E-001,0.00000E+000,-2.53684E-002,-8.45871E-002,1.00000E+000,27
869,1317,1.48200E+000,-1.16597E+000,1.15807E-001,5.71628E+000,-5.20458E-001,1.76680E-001,5.74264E+000,1.07172E-002,4.76466E-001,0,8.73765E+001,-9.19728E+000,9.98350E-001,4.34358E+001,-4.41222E+001,9.97311E-001,1.81239E-001,-7.48786E-002,-4.35975E-003,1.81313E-001,-7.49528E-002,-9.74937E-001,1.82218E-001,1.19870E+000,-7.86236E-003,0.00000E+000,-2.36461E-003,9.32263E-001,0.00000E+000,2.69855E-003,-9.73666E-002,1.00000E+000,27
869,1327,1.49849E+000,-5.75489E-001,4.52514E-002,5.72143E+000,-5.71565E-001,1.15302E-001,5.75106E+000,1.46364E-002,5.45985E-001,0,8.76644E+001,-9.91672E+000,9.97475E-001,4.36342E+001,-4.48154E+001,9.96923E-001,1.79918E-001,-7.48754E-002,-4.29230E-003,1.79990E-001,-7.49477E-002,-9.64852E-001,1.80827E-001,1.19711E+000,-7.88969E-003,0.00000E+000,-2.06291E-003,9.32268E-001,0.00000E+000,1.08368E-003,-9.73944E-002,1.00000E+000,27
869,1337,1.51565E+000,1.88514E-002,-1.88347E-004,5.72179E+000,-6.22574E-001,5.27159E-002,5.75580E+000,1.54915E-002,5.16868E-001,0,8.78778E+001,-1.05828E+001,9.96655E-001,4.39006E+001,-4.55529E+001,9.95993E-001,1.78589E-001,-7.48708E-002,-4.23010E-003,1.78659E-001,-7.49414E-002,-9.55880E-001,1.79430E-001,1.19552E+000,-7.93009E-003,0.00000E+000,-1.76041E-003,9.32275E-001,0.00000E+000,-5.35459E-004,-9.74354E-002,1.00000E+000,27
869,1347,1.53805E+000,6.30098E-001,-1.41593E-002,5.72218E+000,-6.59747E-001,-3.52704E-003,5.76009E+000,1.92922E-002,4.96429E-001,0,8.80604E+001,-1.10635E+001,9.97523E-001,4.43209E+001,-4.60946E+001,9.96948E-001,1.77253E-001,-7.48650E-002,-4.17301E-003,1.77322E-001,-7.49340E-002,-9.48003E-001,1.78029E-001,1.19393E+000,-7.98291E-003,0.00000E+000,-1.45740E-003,9.32285E-001,0.00000E+000,-2.15736E-003,-9.74891E-002,1.00000E+000,27
869,1307,1.47568E+000,-1.74944E+000,2.25555E-001,5.71430E+000,-4.67888E-001,2.43701E-001,5.73860E+000,1.55855E-002,4.94584E-001,0,8.71108E+001,-8.49922E+000,9.97040E-001,4.34823E+001,-4.33587E+001,9.95339E-001,1.82550E-001,-7.48802E-002,-4.43372E-003,1.82627E-001,-7.49565E-002,-9.86414E-001,1.83601E-001,1.20028E+000,-7.85173E-003,0.00000E+000,-2.66495E-003,9.32261E-001,0.00000E+000,4.30610E-003,-9.73558E-002,1.00000E+000,27
989,1307,1.08509E+001,-1.57770E+000,1.23649E-001,7.25418E+000,-3.68496E-001,8.65004E-002,7.26405E+000,1.60403E-002,4.78461E-001,0,1.10232E+002,-6.80572E+000,9.97938E-001,6.83754E+001,-3.92994E+001,9.97502E-001,1.70894E-001,-7.10095E-002,3.74420E-004,1.70895E-001,-7.10101E-002,8.86824E-002,1.71706E-001,1.18611E+000,-3.28122E-002,0.00000E+000,2.79555E-002,9.34201E-001,0.00000E+000,-2.06467E-002,-8.19471E-002,1.00000E+000,27
989,1317,1.08256E+001,-9.79308E-001,4.23137E-002,7.22189E+000,-4.11721E-001,3.92607E-002,7.23372E+000,1.65153E-002,5.34848E-001,0,1.09920E+002,-7.41352E+000,9.98331E-001,6.79081E+001,-3.98366E+001,9.97638E-001,1.70480E-001,-7.09888E-002,6.30255E-004,1.70482E-001,-7.09905E-002,1.49546E-001,1.71274E-001,1.18556E+000,-3.28181E-002,0.00000E+000,2.82407E-002,9.34204E-001,0.00000E+000,-1.78866E-002,-8.19171E-002,1.00000E+000,27
989,1327,1.08271E+001,-3.85077E-001,-7.11234E-003,7.20902E+000,-4.62475E-001,-8.66483E-003,7.22385E+000,1.98743E-002,5.17104E-001,0,1.09899E+002,-8.12157E+000,9.97373E-001,6.79171E+001,-4.05408E+001,9.96019E-001,1.70058E-001,-7.09620E-002,8.83583E-004,1.70061E-001,-7.09652E-002,2.10044E-001,1.70835E-001,1.18502E+000,-3.28302E-002,0.00000E+000,2.85262E-002,9.34210E-001,0.00000E+000,-1.51239E-002,-8.18558E-002,1.00000E+000,27
989,1297,1.08716E+001,-2.16558E+000,2.27416E-001,7.28057E+000,-3.16207E-001,1.50603E-001,7.28899E+000,1.49719E-002,4.75352E-001,0,1.10389E+002,-6.10897E+000,9.97685E-001,6.88148E+001,-3.86207E+001,9.96882E-001,1.71300E-001,-7.10290E-002,1.18308E-004,1.71300E-001,-7.10291E-002,2.79725E-002,1.72130E-001,1.18666E+000,-3.28073E-002,0.00000E+000,2.76707E-002,9.34198E-001,0.00000E+000,-2.34027E-002,-8.19716E-002,1.00000E+000,27
989,1337,1.08250E+001,2.12751E-001,-3.95299E-002,7.18762E+000,-5.10267E-001,-6.18551E-002,7.20597E+000,1.58302E-002,4.34317E-001,0,1.09762E+002,-8.77976E+000,9.95558E-001,6.79042E+001,-4.12606E+001,9.95443E-001,1.69628E-001,-7.09309E-002,1.13434E-003,1.69634E-001,-7.09363E-002,2.70166E-001,1.70389E-001,1.18447E+000,-3.28466E-002,0.00000E+000,2.88112E-002,9.34219E-001,0.00000E+000,-1.23666E-002,-8.17731E-002,1.00000E+000,27
989,1347,1.08313E+001,8.26105E-001,-4.56505E-002,7.17121E+000,-5.47189E-001,-1.04013E-001,7.19281E+000,1.71596E-002,4.21974E-001,0,1.09651E+002,-9.29502E+000,9.97626E-001,6.80753E+001,-4.17638E+001,9.97667E-001,1.69189E-001,-7.08968E-002,1.38478E-003,1.69197E-001,-7.09048E-002,3.30459E-001,1.69934E-001,1.18392E+000,-3.28659E-002,0.00000E+000,2.90976E-002,9.34229E-001,0.00000E+000,-9.59486E-003,-8.16755E-002,1.00000E+000,27
859,1327,7.19541E-001,-5.71494E-001,4.24855E-002,5.59073E+000,-5.62885E-001,1.07801E-001,5.62002E+000,1.36370E-002,5.44892E-001,0,8.57425E+001,-9.74294E+000,9.96658E-001,4.16065E+001,-4.48525E+001,9.96285E-001,1.80213E-001,-7.49723E-002,-4.14767E-003,1.80280E-001,-7.50397E-002,-9.30934E-001,1.81121E-001,1.19748E+000,-6.30902E-003,0.00000E+000,-3.07840E-003,9.32090E-001,0.00000E+000,1.83996E-003,-9.64626E-002,1.00000E+000,27
859,1337,7.41109E-001,2.61166E-002,8.99131E-004,5.59579E+000,-6.09567E-001,4.97255E-002,5.62911E+000,1.56202E-002,5.39527E-001,0,8.60102E+001,-1.03754E+001,9.96483E-001,4.19504E+001,-4.55373E+001,9.95952E-001,1.79247E-001,-7.49701E-002,-4.11922E-003,1.79314E-001,-7.50368E-002,-9.28068E-001,1.80107E-001,1.19632E+000,-6.33793E-003,0.00000E+000,-2.83805E-003,9.32096E-001,0.00000E+000,5.09745E-005,-9.65072E-002,1.00000E+000,27
859,1347,7.63997E-001,6.27415E-001,-1.13587E-002,5.59621E+000,-6.56962E-001,-7.89907E-003,5.63464E+000,2.07570E-002,4.88758E-001,0,8.61998E+001,-1.09953E+001,9.97880E-001,4.23818E+001,-4.62533E+001,9.97568E-001,1.78275E-001,-7.49672E-002,-4.09502E-003,1.78341E-001,-7.50334E-002,-9.26171E-001,1.79087E-001,1.19516E+000,-6.37721E-003,0.00000E+000,-2.59689E-003,9.32104E-001,0.00000E+000,-1.74399E-003,-9.65678E-002,1.00000E+000,27
859,1307,6.96013E-001,-1.74418E+000,2.25652E-001,5.58246E+000,-4.60191E-001,2.37992E-001,5.60645E+000,1.83867E-002,5.90028E-001,0,8.51684E+001,-8.36818E+000,9.97543E-001,4.14508E+001,-4.33307E+001,9.97137E-001,1.82121E-001,-7.49745E-002,-4.21700E-003,1.82190E-001,-7.50436E-002,-9.39457E-001,1.83130E-001,1.19978E+000,-6.28208E-003,0.00000E+000,-3.55668E-003,9.32085E-001,0.00000E+000,5.39983E-003,-9.64210E-002,1.00000E+000,27
859,1317,7.09016E-001,-1.16821E+000,1.13886E-001,5.59112E+000,-5.19679E-001,1.68651E-001,5.61775E+000,1.47148E-002,5.28269E-001,0,8.55449E+001,-9.15348E+000,9.97140E-001,4.15006E+001,-4.42285E+001,9.95526E-001,1.81170E-001,-7.49738E-002,-4.18004E-003,1.81238E-001,-7.50420E-002,-9.34685E-001,1.82129E-001,1.19863E+000,-6.28983E-003,0.00000E+000,-3.31791E-003,9.32086E-001,0.00000E+000,3.62265E-003,-9.64329E-002,1.00000E+000,27
999,1337,1.15982E+001,2.38057E-001,-4.53697E-002,7.30588E+000,-4.89396E-001,-6.69483E-002,7.32256E+000,1.24845E-002,4.06108E-001,0,1.11490E+002,-8.47440E+000,9.99037E-001,6.98928E+001,-4.07678E+001,9.98421E-001,1.69451E-001,-7.08471E-002,9.77124E-004,1.69455E-001,-7.08510E-002,2.32977E-001,1.70211E-001,1.18423E+000,-3.32249E-002,0.00000E+000,2.86359E-002,9.34079E-001,0.00000E+000,-1.02458E-002,-7.88604E-002,1.00000E+000,27
999,1347,1.16107E+001,8.53538E-001,-3.96313E-002,7.29316E+000,-5.27338E-001,-1.07029E-001,7.31299E+000,1.18206E-002,3.99354E-001,0,1.11427E+002,-8.99100E+000,9.99138E-001,7.01802E+001,-4.12591E+001,9.98534E-001,1.69323E-001,-7.08129E-002,1.22362E-003,1.69330E-001,-7.08191E-002,2.91942E-001,1.70083E-001,1.18406E+000,-3.32315E-002,0.00000E+000,2.89187E-002,9.34090E-001,0.00000E+000,-7.66376E-003,-7.87605E-002,1.00000E+000,27
999,1307,1.16266E+001,-1.54862E+000,1.15196E-001,7.37263E+000,-3.46453E-001,6.76629E-002,7.38107E+000,1.07441E-002,4.64985E-001,0,1.12007E+002,-6.43242E+000,9.98436E-001,7.03986E+001,-3.87403E+001,9.98295E-001,1.69791E-001,-7.09198E-002,2.38183E-004,1.69791E-001,-7.09201E-002,5.66939E-002,1.70557E-001,1.18474E+000,-3.32148E-002,0.00000E+000,2.77948E-002,9.34062E-001,0.00000E+000,-1.79247E-002,-7.90123E-002,1.00000E+000,27
999,1317,1.16095E+001,-9.53149E-001,3.82951E-002,7.34810E+000,-3.92225E-001,2.33700E-002,7.35859E+000,1.65449E-002,4.99966E-001,0,1.11803E+002,-7.08912E+000,9.97405E-001,7.00660E+001,-3.93401E+001,9.94933E-001,1.69684E-001,-7.08999E-002,4.85328E-004,1.69685E-001,-7.09008E-002,1.15581E-001,1.70447E-001,1.18457E+000,-3.32167E-002,0.00000E+000,2.80752E-002,9.34066E-001,0.00000E+000,-1.53649E-002,-7.89831E-002,1.00000E+000,27
999,1327,1.16055E+001,-3.65950E-001,-1.93192E-002,7.33124E+000,-4.48702E-001,-2.59228E-002,7.34500E+000,1.89335E-002,5.05564E-001,0,1.11732E+002,-7.90270E+000,9.97932E-001,6.99734E+001,-4.01226E+001,9.96423E-001,1.69571E-001,-7.08755E-002,7.31831E-004,1.69573E-001,-7.08778E-002,1.74385E-001,1.70332E-001,1.18440E+000,-3.32201E-002,0.00000E+000,2.83557E-002,9.34071E-001,0.00000E+000,-1.28035E-002,-7.89321E-002,1.00000E+000,27
999,1297,1.16501E+001,-2.14441E+000,2.22907E-001,7.40140E+000,-3.02278E-001,1.33807E-001,7.40878E+000,1.15966E-002,4.70834E-001,0,1.12193E+002,-5.86701E+000,9.97294E-001,7.08864E+001,-3.81894E+001,9.95517E-001,1.69891E-001,-7.09381E-002,-9.16799E-006,1.69891E-001,-7.09381E-002,-2.18116E-003,1.70659E-001,1.18491E+000,-3.32134E-002,0.00000E+000,2.75146E-002,9.34060E-001,0.00000E+000,-2.04824E-002,-7.90335E-002,1.00000E+000,27
849,1337,-3.52968E-002,2.69071E-002,5.44833E-003,5.46666E+000,-6.05483E-001,4.63228E-002,5.50029E+000,1.85199E-002,5.64145E-001,0,8.40955E+001,-1.02771E+001,9.97635E-001,3.99832E+001,-4.56288E+001,9.97315E-001,1.79583E-001,-7.47457E-002,-3.72042E-003,1.79637E-001,-7.48001E-002,-8.37907E-001,1.80472E-001,1.19672E+000,-4.96449E-003,0.00000E+000,-3.15404E-003,9.32182E-001,0.00000E+000,7.66742E-005,-9.51589E-002,1.00000E+000,27
849,1347,-1.71952E-002,6.23447E-001,-1.25191E-002,5.46511E+000,-6.54425E-001,-4.33761E-003,5.50416E+000,1.63243E-002,4.86039E-001,0,8.42339E+001,-1.09398E+001,9.97961E-001,4.03285E+001,-4.64218E+001,9.98064E-001,1.79035E-001,-7.47435E-002,-3.69218E-003,1.79089E-001,-7.47972E-002,-8.33351E-001,1.79896E-001,1.19607E+000,-4.98393E-003,0.00000E+000,-2.93584E-003,9.32188E-001,0.00000E+000,-1.60390E-003,-9.52087E-002,1.00000E+000,27
849,1357,1.53799E-002,1.23552E+000,1.92031E-002,5.46759E+000,-6.97423E-001,-5.59797E-002,5.51218E+000,1.38652E-002,4.96883E-001,0,8.44252E+001,-1.15230E+001,9.98213E-001,4.10122E+001,-4.70413E+001,9.98357E-001,1.78479E-001,-7.47401E-002,-3.66797E-003,1.78532E-001,-7.47932E-002,-8.29718E-001,1.79313E-001,1.19541E+000,-5.01364E-003,0.00000E+000,-2.71571E-003,9.32198E-001,0.00000E+000,-3.29932E-003,-9.52850E-002,1.00000E+000,27
849,1327,-4.92261E-002,-5.64914E-001,4.95773E-002,5.46796E+000,-5.53425E-001,1.01354E-001,5.49683E+000,1.84227E-002,5.45031E-001,0,8.39336E+001,-9.55275E+000,9.97964E-001,3.97636E+001,-4.48694E+001,9.97611E-001,1.80128E-001,-7.47475E-002,-3.75053E-003,1.80183E-001,-7.48027E-002,-8.42875E-001,1.81045E-001,1.19738E+000,-4.94939E-003,0.00000E+000,-3.37227E-003,9.32176E-001,0.00000E+000,1.75746E-003,-9.51201E-002,1.00000E+000,27
1009,1337,1.23808E+001,2.77406E-001,-4.95026E-002,7.43469E+000,-4.56836E-001,-6.26798E-002,7.44897E+000,1.78478E-002,4.36335E-001,0,1.13338E+002,-7.98718E+000,9.98884E-001,7.20357E+001,-4.00312E+001,9.98764E-001,1.69241E-001,-7.06948E-002,6.55661E-004,1.69243E-001,-7.06966E-002,1.56568E-001,1.70005E-001,1.18396E+000,-3.32469E-002,0.00000E+000,2.79118E-002,9.34057E-001,0.00000E+000,-8.44970E-003,-7.63453E-002,1.00000E+000,27
1009,1347,1.23856E+001,8.69348E-001,-4.09698E-002,7.41203E+000,-5.17929E-001,-1.09076E-001,7.43090E+000,1.21435E-002,4.23793E-001,0,1.13155E+002,-8.87310E+000,9.99502E-001,7.22035E+001,-4.08951E+001,9.99147E-001,1.69345E-001,-7.06688E-002,8.41297E-004,1.69348E-001,-7.06717E-002,2.00830E-001,1.70118E-001,1.18407E+000,-3.32423E-002,0.00000E+000,2.81032E-002,9.34065E-001,0.00000E+000,-6.31529E-003,-7.62555E-002,1.00000E+000,27
1009,1297,1.24224E+001,-2.12366E+000,2.12720E-001,7.51720E+000,-2.86774E-001,1.18182E-001,7.52360E+000,1.49835E-002,4.12428E-001,0,1.13915E+002,-5.59240E+000,9.95817E-001,7.28571E+001,-3.77805E+001,9.94813E-001,1.68782E-001,-7.07592E-002,-7.95437E-005,1.68782E-001,-7.07593E-002,-1.90261E-002,1.69514E-001,1.18352E+000,-3.32539E-002,0.00000E+000,2.71510E-002,9.34045E-001,0.00000E+000,-1.69345E-002,-7.64794E-002,1.00000E+000,27
1009,1307,1.24043E+001,-1.52431E+000,1.11439E-001,7.49379E+000,-3.26861E-001,5.85163E-002,7.50114E+000,1.50222E-002,4.17016E-001,0,1.13787E+002,-6.12645E+000,9.97518E-001,7.24662E+001,-3.82821E+001,9.97702E-001,1.68903E-001,-7.07460E-002,1.03693E-004,1.68903E-001,-7.07460E-002,2.47912E-002,1.69643E-001,1.18363E+000,-3.32530E-002,0.00000E+000,2.73408E-002,9.34046E-001,0.00000E+000,-1.48185E-002,-7.64618E-002,1.00000E+000,27
1009,1317,1.23915E+001,-9.28481E-001,3.93060E-002,7.47323E+000,-3.72373E-001,1.77657E-002,7.48253E+000,1.53809E-002,4.61633E-001,0,1.13631E+002,-6.79730E+000,9.97962E-001,7.22096E+001,-3.88795E+001,9.97825E-001,1.69020E-001,-7.07313E-002,2.87260E-004,1.69021E-001,-7.07316E-002,6.86493E-002,1.69768E-001,1.18374E+000,-3.32517E-002,0.00000E+000,2.75308E-002,9.34048E-001,0.00000E+000,-1.26990E-002,-7.64365E-002,1.00000E+000,27
849,1317,-6.89641E-002,-1.15582E+000,1.21336E-001,5.46040E+000,-5.03358E-001,1.69149E-001,5.48616E+000,1.88587E-002,6.01694E-001,0,8.35913E+001,-8.91315E+000,9.97538E-001,3.95171E+001,-4.41190E+001,9.96202E-001,1.80668E-001,-7.47489E-002,-3.78184E-003,1.80724E-001,-7.48049E-002,-8.48104E-001,1.81614E-001,1.19803E+000,-4.93730E-003,0.00000E+000,-3.58990E-003,9.32172E-001,0.00000E+000,3.43364E-003,-9.50891E-002,1.00000E+000,27
1009,1327,1.23845E+001,-3.31093E-001,-1.77678E-002,7.45157E+000,-4.20611E-001,-3.81684E-002,7.46353E+000,1.48180E-002,4.33033E-001,0,1.13508E+002,-7.44143E+000,9.98790E-001,7.20722E+001,-3.95213E+001,9.98568E-001,1.69133E-001,-7.07126E-002,4.71681E-004,1.69134E-001,-7.07136E-002,1.12677E-001,1.69889E-001,1.18385E+000,-3.32492E-002,0.00000E+000,2.77214E-002,9.34053E-001,0.00000E+000,-1.05737E-002,-7.63886E-002,1.00000E+000,27
849,1307,-8.80527E-002,-1.74048E+000,2.23358E-001,5.44566E+000,-4.51809E-001,2.28896E-001,5.46916E+000,1.96710E-002,6.34320E-001,0,8.31575E+001,-8.23016E+000,9.97666E-001,3.93511E+001,-4.33481E+001,9.97003E-001,1.81203E-001,-7.47495E-002,-3.81620E-003,1.81260E-001,-7.48063E-002,-8.54015E-001,1.82179E-001,1.19868E+000,-4.93292E-003,0.00000E+000,-3.80693E-003,9.32171E-001,0.00000E+000,5.10511E-003,-9.50778E-002,1.00000E+000,27
839,1337,-8.13132E-001,1.82689E-002,3.10422E-002,5.33544E+000,-6.09088E-001,6.24491E-002,5.37046E+000,3.44346E-002,5.46403E-001,0,8.20838E+001,-1.03505E+001,9.98129E-001,3.80464E+001,-4.59331E+001,9.97340E-001,1.79645E-001,-7.48524E-002,-3.14178E-003,1.79684E-001,-7.48912E-002,-7.07176E-001,1.80511E-001,1.19680E+000,-3.82497E-003,0.00000E+000,-2.89691E-003,9.31941E-001,0.00000E+000,-5.09221E-004,-9.35830E-002,1.00000E+000,27
839,1347,-7.95584E-001,6.17771E-001,-8.12574E-003,5.33544E+000,-6.53818E-001,9.14257E-005,5.37535E+000,1.39906E-002,4.99316E-001,0,8.22836E+001,-1.09319E+001,9.98275E-001,3.83357E+001,-4.66208E+001,9.97832E-001,1.79333E-001,-7.48501E-002,-3.10462E-003,1.79371E-001,-7.48881E-002,-6.99679E-001,1.80183E-001,1.19642E+000,-3.83489E-003,0.00000E+000,-2.66831E-003,9.31947E-001,0.00000E+000,-2.24515E-003,-9.36293E-002,1.00000E+000,27
839,1357,-7.61856E-001,1.23523E+000,1.97329E-002,5.34019E+000,-6.90458E-001,-5.10966E-002,5.38489E+000,1.15651E-002,4.79198E-001,0,8.25065E+001,-1.14037E+001,9.98609E-001,3.90320E+001,-4.71659E+001,9.98397E-001,1.79015E-001,-7.48464E-002,-3.06988E-003,1.79052E-001,-7.48836E-002,-6.92729E-001,1.79848E-001,1.19605E+000,-3.85125E-003,0.00000E+000,-2.43771E-003,9.31957E-001,0.00000E+000,-3.99624E-003,-9.37057E-002,1.00000E+000,27
1019,1337,1.31678E+001,3.06289E-001,-4.17191E-002,7.56130E+000,-4.38221E-001,-7.30936E-002,7.57434E+000,1.62798E-002,4.96048E-001,0,1.15203E+002,-7.70369E+000,9.98464E-001,7.42713E+001,-3.94675E+001,9.98509E-001,1.69039E-001,-7.05900E-002,3.43539E-004,1.69039E-001,-7.05905E-002,8.21406E-002,1.69803E-001,1.18371E+000,-3.32110E-002,0.00000E+000,2.71765E-002,9.34047E-001,0.00000E+000,-6.75243E-003,-7.45664E-002,1.00000E+000,27
1019,1347,1.31645E+001,8.99709E-001,-4.27805E-002,7.53616E+000,-4.94991E-001,-1.03899E-001,7.55311E+000,1.45274E-002,4.54698E-001,0,1.14930E+002,-8.53415E+000,9.98893E-001,7.42944E+001,-4.03014E+001,9.98845E-001,1.69288E-001,-7.05716E-002,4.98992E-004,1.69289E-001,-7.05726E-002,1.19195E-001,1.70067E-001,1.18400E+000,-3.32014E-002,0.00000E+000,2.73309E-002,9.34052E-001,0.00000E+000,-4.96175E-003,-7.45065E-002,1.00000E+000,27
839,1327,-8.43187E-001,-5.63339E-001,4.88261E-002,5.32498E+000,-5.44456E-001,1.13223E-001,5.35394E+000,3.01159E-002,5.70564E-001,0,8.17564E+001,-9.43255E+000,9.98664E-001,3.75184E+001,-4.49377E+001,9.97923E-001,1.79955E-001,-7.48549E-002,-3.17864E-003,1.79995E-001,-7.48946E-002,-7.14591E-001,1.80837E-001,1.19717E+000,-3.81389E-003,0.00000E+000,-3.12596E-003,9.31934E-001,0.00000E+000,1.23012E-003,-9.35312E-002,1.00000E+000,27
1019,1327,1.31650E+001,-3.06998E-001,-2.32238E-002,7.57683E+000,-4.02774E-001,-4.05422E-002,7.58763E+000,1.55557E-002,4.55317E-001,0,1.15327E+002,-7.17895E+000,9.98325E-001,7.41848E+001,-3.90239E+001,9.98096E-001,1.68787E-001,-7.06068E-002,1.88585E-004,1.68787E-001,-7.06070E-002,4.51353E-002,1.69536E-001,1.18343E+000,-3.32191E-002,0.00000E+000,2.70221E-002,9.34043E-001,0.00000E+000,-8.54267E-003,-7.46165E-002,1.00000E+000,27
1019,1317,1.31717E+001,-9.09528E-001,3.20106E-002,7.59453E+000,-3.60684E-001,-2.54967E-003,7.60309E+000,1.60789E-002,4.49958E-001,0,1.15454E+002,-6.58913E+000,9.98540E-001,7.43127E+001,-3.84766E+001,9.97995E-001,1.68532E-001,-7.06203E-002,3.51582E-005,1.68532E-001,-7.06203E-002,8.42316E-003,1.69267E-001,1.18314E+000,-3.32239E-002,0.00000E+000,2.68681E-002,9.34040E-001,0.00000E+000,-1.03287E-002,-7.46469E-002,1.00000E+000,27
839,1317,-8.50296E-001,-1.15075E+000,1.21885E-001,5.32583E+000,-4.92523E-001,1.62024E-001,5.35101E+000,1.55731E-002,5.40572E-001,0,8.16025E+001,-8.70355E+000,9.97671E-001,3.74711E+001,-4.41758E+001,9.95609E-001,1.80260E-001,-7.48560E-002,-3.21806E-003,1.80301E-001,-7.48966E-002,-7.22581E-001,1.81159E-001,1.19754E+000,-3.80936E-003,0.00000E+000,-3.35411E-003,9.31931E-001,0.00000E+000,2.96259E-003,-9.35100E-002,1.00000E+000,27
1019,1297,1.31941E+001,-2.09751E+000,1.90297E-001,7.63329E+000,-2.65562E-001,9.63908E-002,7.63851E+000,1.52758E-002,4.35323E-001,0,1.15661E+002,-5.24941E+000,9.98519E-001,7.48004E+001,-3.72216E+001,9.97895E-001,1.68014E-001,-7.06444E-002,-2.70065E-004,1.68014E-001,-7.06447E-002,-6.48358E-002,1.68721E-001,1.18257E+000,-3.32311E-002,0.00000E+000,2.65611E-002,9.34036E-001,0.00000E+000,-1.38894E-002,-7.46918E-002,1.00000E+000,27
1019,1307,1.31763E+001,-1.50316E+000,9.47229E-002,7.60938E+000,-3.12926E-001,3.93412E-002,7.61592E+000,1.91169E-002,4.77468E-001,0,1.15519E+002,-5.89509E+000,9.98713E-001,7.44248E+001,-3.77919E+001,9.98189E-001,1.68275E-001,-7.06332E-002,-1.17559E-004,1.68275E-001,-7.06333E-002,-2.81933E-002,1.68996E-001,1.18285E+000,-3.32284E-002,0.00000E+000,2.67148E-002,9.34038E-001,0.00000E+000,-1.21066E-002,-7.46748E-002,1.00000E+000,27
839,1307,-8.58538E-001,-1.73362E+000,2.24803E-001,5.32142E+000,-4.39360E-001,2.20346E-001,5.34407E+000,1.34146E-002,5.15237E-001,0,8.13322E+001,-7.97082E+000,9.97077E-001,3.74761E+001,-4.34048E+001,9.95307E-001,1.80562E-001,-7.48565E-002,-3.25833E-003,1.80603E-001,-7.48981E-002,-7.30755E-001,1.81477E-001,1.19791E+000,-3.80715E-003,0.00000E+000,-3.58163E-003,9.31930E-001,0.00000E+000,4.69031E-003,-9.34997E-002,1.00000E+000,27
829,1337,-1.59356E+000,2.03787E-002,1.40324E-002,5.20445E+000,-5.99107E-001,5.17634E-002,5.23907E+000,2.47548E-002,5.69332E-001,0,8.01588E+001,-1.01829E+001,9.96896E-001,3.59783E+001,-4.59592E+001,9.95993E-001,1.79223E-001,-7.48478E-002,-2.54226E-003,1.79248E-001,-7.48733E-002,-5.73231E-001,1.80056E-001,1.19629E+000,-3.01126E-003,0.00000E+000,-2.33797E-003,9.31818E-001,0.00000E+000,-1.23359E-003,-9.21281E-002,1.00000E+000,27
829,1347,-1.57065E+000,6.19330E-001,3.46915E-004,5.20738E+000,-6.47524E-001,2.35420E-003,5.24749E+000,1.28399E-002,5.16034E-001,0,8.03594E+001,-1.08233E+001,9.96885E-001,3.64103E+001,-4.67153E+001,9.96673E-001,1.79085E-001,-7.48502E-002,-2.58310E-003,1.79111E-001,-7.48765E-002,-5.82748E-001,1.79911E-001,1.19613E+000,-3.01615E-003,0.00000E+000,-2.25080E-003,9.31821E-001,0.00000E+000,-3.10701E-003,-9.21853E-002,1.00000E+000,27
829,1357,-1.54119E+000,1.23377E+000,2.20741E-002,5.20952E+000,-6.86066E-001,-4.79388E-002,5.25472E+000,1.27871E-002,5.09701E-001,0,8.05405E+001,-1.13306E+001,9.98048E-001,3.70281E+001,-4.72891E+001,9.98148E-001,1.78943E-001,-7.48535E-002,-2.62500E-003,1.78970E-001,-7.48807E-002,-5.92523E-001,1.79763E-001,1.19597E+000,-3.02284E-003,0.00000E+000,-2.16324E-003,9.31824E-001,0.00000E+000,-4.98880E-003,-9.22634E-002,1.00000E+000,27
1029,1337,1.39303E+001,3.21585E-001,-5.53511E-002,7.66896E+000,-4.27411E-001,-7.96192E-002,7.68128E+000,1.40719E-002,4.76953E-001,0,1.16773E+002,-7.54004E+000,9.97770E-001,7.60923E+001,-3.91098E+001,9.97422E-001,1.69000E-001,-7.03197E-002,1.41863E-004,1.69000E-001,-7.03197E-002,3.39636E-002,1.69792E-001,1.18367E+000,-3.29667E-002,0.00000E+000,2.64771E-002,9.34213E-001,0.00000E+000,-4.84212E-003,-7.30707E-002,1.00000E+000,27
1029,1347,1.39303E+001,9.32692E-001,-5.23278E-002,7.64601E+000,-4.68301E-001,-1.10156E-001,7.66113E+000,1.37864E-002,4.84259E-001,0,1.16526E+002,-8.13545E+000,9.98267E-001,7.61736E+001,-3.96525E+001,9.97701E-001,1.69374E-001,-7.03010E-002,3.00046E-004,1.69375E-001,-7.03014E-002,7.17277E-002,1.70187E-001,1.18411E+000,-3.29513E-002,0.00000E+000,2.66408E-002,9.34219E-001,0.00000E+000,-3.18666E-003,-7.30128E-002,1.00000E+000,27
1029,1327,1.39397E+001,-2.85016E-001,-2.58270E-002,7.69411E+000,-3.86130E-001,-4.76154E-002,7.70394E+000,1.53729E-002,4.52066E-001,0,1.17039E+002,-6.94219E+000,9.98026E-001,7.62166E+001,-3.85791E+001,9.97294E-001,1.68624E-001,-7.03350E-002,-1.41337E-005,1.68624E-001,-7.03350E-002,-3.38886E-003,1.69395E-001,1.18323E+000,-3.29772E-002,0.00000E+000,2.63138E-002,9.34209E-001,0.00000E+000,-6.49356E-003,-7.31104E-002,1.00000E+000,27
829,1327,-1.61715E+000,-5.63888E-001,4.63683E-002,5.19645E+000,-5.39876E-001,9.81345E-002,5.22534E+000,2.46246E-002,5.82365E-001,0,7.98826E+001,-9.33762E+000,9.97807E-001,3.55824E+001,-4.50393E+001,9.97596E-001,1.79357E-001,-7.48459E-002,-2.50209E-003,1.79381E-001,-7.48706E-002,-5.63884E-001,1.80196E-001,1.19645E+000,-3.00743E-003,0.00000E+000,-2.42483E-003,9.31816E-001,0.00000E+000,6.33314E-004,-9.20835E-002,1.00000E+000,27
829,1307,-1.61922E+000,-1.74064E+000,2.42950E-001,5.20667E+000,-4.41491E-001,2.28999E-001,5.23037E+000,1.65413E-002,4.61729E-001,0,7.95984E+001,-7.99739E+000,9.97560E-001,3.57932E+001,-4.36772E+001,9.95393E-001,1.79613E-001,-7.48444E-002,-2.42409E-003,1.79636E-001,-7.48675E-002,-5.45761E-001,1.80464E-001,1.19677E+000,-3.00440E-003,0.00000E+000,-2.59791E-003,9.31814E-001,0.00000E+000,4.35315E-003,-9.20480E-002,1.00000E+000,27
829,1317,-1.62407E+000,-1.15225E+000,1.25861E-001,5.19876E+000,-4.88744E-001,1.60095E-001,5.22414E+000,1.96908E-002,5.03130E-001,0,7.97111E+001,-8.61647E+000,9.97173E-001,3.55534E+001,-4.43286E+001,9.96646E-001,1.79487E-001,-7.48448E-002,-2.46273E-003,1.79511E-001,-7.48687E-002,-5.54733E-001,1.80332E-001,1.19661E+000,-3.00516E-003,0.00000E+000,-2.51148E-003,9.31815E-001,0.00000E+000,2.49547E-003,-9.20569E-002,1.00000E+000,27
1029,1317,1.39470E+001,-8.91856E-001,2.35734E-002,7.71272E+000,-3.49802E-001,-1.42556E-002,7.72066E+000,1.62649E-002,4.66142E-001,0,1.17198E+002,-6.41192E+000,9.98819E-001,7.63428E+001,-3.80779E+001,9.97471E-001,1.68247E-001,-7.03483E-002,-1.68315E-004,1.68247E-001,-7.03484E-002,-4.04189E-002,1.68997E-001,1.18279E+000,-3.29849E-002,0.00000E+000,2.61513E-002,9.34206E-001,0.00000E+000,-8.13685E-003,-7.31392E-002,1.00000E+000,27
1029,1307,1.39593E+001,-1.48426E+000,1.07738E-001,7.73383E+000,-3.00900E-001,4.27399E-002,7.73980E+000,1.40026E-002,5.06140E-001,0,1.17299E+002,-5.74827E+000,9.98863E-001,7.66126E+001,-3.74147E+001,9.96677E-001,1.67868E-001,-7.03604E-002,-3.21677E-004,1.67868E-001,-7.03608E-002,-7.73659E-002,1.68598E-001,1.18236E+000,-3.29908E-002,0.00000E+000,2.59890E-002,9.34204E-001,0.00000E+000,-9.77769E-003,-7.31615E-002,1.00000E+000,27
1029,1297,1.39742E+001,-2.07313E+000,1.99149E-001,7.75541E+000,-2.48041E-001,9.73722E-002,7.75999E+000,1.32828E-002,4.77706E-001,0,1.17411E+002,-5.01143E+000,9.98479E-001,7.69373E+001,-3.67456E+001,9.97053E-001,1.67484E-001,-7.03715E-002,-4.74828E-004,1.67485E-001,-7.03725E-002,-1.14378E-001,1.68195E-001,1.18192E+000,-3.29952E-002,0.00000E+000,2.58265E-002,9.34202E-001,0.00000E+000,-1.14216E-002,-7.31783E-002,1.00000E+000,27
819,1317,-2.39488E+000,-1.16245E+000,1.35492E-001,5.07351E+000,-4.94459E-001,1.60178E-001,5.10006E+000,1.89448E-002,4.84097E-001,0,7.78406E+001,-8.68689E+000,9.96549E-001,3.36981E+001,-4.46185E+001,9.95435E-001,1.78273E-001,-7.46269E-002,-1.90804E-003,1.78287E-001,-7.46413E-002,-4.32244E-001,1.79072E-001,1.19515E+000,-2.77893E-003,0.00000E+000,-1.57261E-003,9.31874E-001,0.00000E+000,1.70340E-003,-9.03643E-002,1.00000E+000,27
819,1327,-2.39098E+000,-5.76173E-001,5.00009E-002,5.07047E+000,-5.45606E-001,1.03144E-001,5.10078E+000,1.82699E-002,4.94367E-001,0,7.79858E+001,-9.38854E+000,9.97580E-001,3.36663E+001,-4.53852E+001,9.96721E-001,1.78258E-001,-7.46293E-002,-2.01347E-003,1.78274E-001,-7.46454E-002,-4.56146E-001,1.79057E-001,1.19513E+000,-2.77915E-003,0.00000E+000,-1.62421E-003,9.31874E-001,0.00000E+000,-4.42144E-005,-9.03832E-002,1.00000E+000,27
819,1337,-2.37210E+000,2.09432E-002,1.14396E-002,5.07456E+000,-5.92251E-001,5.39532E-002,5.10928E+000,1.54636E-002,5.31409E-001,0,7.82066E+001,-1.00410E+001,9.97122E-001,3.39778E+001,-4.60709E+001,9.96577E-001,1.78239E-001,-7.46343E-002,-2.11961E-003,1.78257E-001,-7.46521E-002,-4.80213E-001,1.79039E-001,1.19511E+000,-2.77961E-003,0.00000E+000,-1.67608E-003,9.31872E-001,0.00000E+000,-1.80125E-003,-9.04232E-002,1.00000E+000,27
819,1307,-2.39988E+000,-1.74691E+000,2.26113E-001,5.07240E+000,-4.44876E-001,2.07188E-001,5.09608E+000,1.82500E-002,5.05233E-001,0,7.76617E+001,-7.98348E+000,9.97122E-001,3.37255E+001,-4.38185E+001,9.95818E-001,1.78285E-001,-7.46255E-002,-1.80305E-003,1.78298E-001,-7.46383E-002,-4.08446E-001,1.79084E-001,1.19517E+000,-2.77881E-003,0.00000E+000,-1.52120E-003,9.31874E-001,0.00000E+000,3.44485E-003,-9.03537E-002,1.00000E+000,27
819,1347,-2.34408E+000,6.26446E-001,-6.23583E-004,5.08238E+000,-6.34452E-001,4.29110E-003,5.12183E+000,1.43205E-002,5.23744E-001,0,7.84800E+001,-1.06030E+001,9.98133E-001,3.44945E+001,-4.67079E+001,9.98251E-001,1.78218E-001,-7.46411E-002,-2.22623E-003,1.78237E-001,-7.46607E-002,-5.04395E-001,1.79017E-001,1.19509E+000,-2.78024E-003,0.00000E+000,-1.72811E-003,9.31871E-001,0.00000E+000,-3.56362E-003,-9.04777E-002,1.00000E+000,27
819,1357,-2.31592E+000,1.22633E+000,3.21259E-002,5.08289E+000,-6.87522E-001,-3.77828E-002,5.12931E+000,1.78854E-002,5.27284E-001,0,7.86130E+001,-1.13623E+001,9.97517E-001,3.51176E+001,-4.75274E+001,9.97600E-001,1.78193E-001,-7.46502E-002,-2.33351E-003,1.78214E-001,-7.46717E-002,-5.28729E-001,1.78992E-001,1.19507E+000,-2.78110E-003,0.00000E+000,-1.78035E-003,9.31869E-001,0.00000E+000,-5.33280E-003,-9.05523E-002,1.00000E+000,27
1039,1337,1.47073E+001,3.45629E-001,-6.38370E-002,7.78891E+000,-4.10212E-001,-8.78490E-002,7.80020E+000,1.25866E-002,4.90527E-001,0,1.18528E+002,-7.27176E+000,9.98381E-001,7.81514E+001,-3.86100E+001,9.97343E-001,1.69050E-001,-6.99412E-002,-2.85400E-004,1.69050E-001,-6.99416E-002,-6.84218E-002,1.69887E-001,1.18372E+000,-3.28496E-002,0.00000E+000,2.54570E-002,9.34529E-001,0.00000E+000,-2.90215E-003,-7.21479E-002,1.00000E+000,27
1039,1347,1.47056E+001,9.41617E-001,-6.19023E-002,7.76464E+000,-4.64142E-001,-1.17700E-001,7.77939E+000,1.23395E-002,4.36522E-001,0,1.18265E+002,-8.07082E+000,9.99054E-001,7.82023E+001,-3.94134E+001,9.98575E-001,1.69531E-001,-6.99309E-002,-1.88053E-004,1.69531E-001,-6.99311E-002,-4.49952E-002,1.70394E-001,1.18429E+000,-3.28299E-002,0.00000E+000,2.55098E-002,9.34531E-001,0.00000E+000,-1.37003E-003,-7.20950E-002,1.00000E+000,27
1039,1317,1.47195E+001,-8.60315E-001,2.27348E-002,7.82943E+000,-3.23037E-001,-1.10806E-002,7.83610E+000,1.35471E-002,4.26996E-001,0,1.18857E+002,-6.00999E+000,9.98317E-001,7.83505E+001,-3.75088E+001,9.97249E-001,1.68081E-001,-6.99576E-002,-4.74298E-004,1.68082E-001,-6.99585E-002,-1.14163E-001,1.68866E-001,1.18258E+000,-3.28741E-002,0.00000E+000,2.53515E-002,9.34527E-001,0.00000E+000,-5.96452E-003,-7.22140E-002,1.00000E+000,27
1039,1327,1.47141E+001,-2.63167E-001,-3.05447E-002,7.81179E+000,-3.69422E-001,-5.13796E-002,7.82069E+000,1.20810E-002,4.17661E-001,0,1.18743E+002,-6.68777E+000,9.98504E-001,7.82433E+001,-3.81476E+001,9.97529E-001,1.68565E-001,-6.99499E-002,-3.80811E-004,1.68565E-001,-6.99505E-002,-9.14777E-002,1.69376E-001,1.18315E+000,-3.28635E-002,0.00000E+000,2.54041E-002,9.34528E-001,0.00000E+000,-4.43896E-003,-7.21855E-002,1.00000E+000,27
1039,1307,1.47331E+001,-1.46109E+000,8.78004E-002,7.85229E+000,-2.81716E-001,2.87002E-002,7.85740E+000,1.37305E-002,4.42165E-001,0,1.19051E+002,-5.41818E+000,9.98304E-001,7.86040E+001,-3.69485E+001,9.97144E-001,1.67594E-001,-6.99645E-002,-5.66804E-004,1.67596E-001,-6.99659E-002,-1.36704E-001,1.68355E-001,1.18202E+000,-3.28823E-002,0.00000E+000,2.52990E-002,9.34526E-001,0.00000E+000,-7.48904E-003,-7.22359E-002,1.00000E+000,27
1039,1297,1.47501E+001,-2.05541E+000,1.82210E-001,7.87547E+000,-2.34811E-001,8.38617E-002,7.87941E+000,1.40435E-002,4.32753E-001,0,1.19185E+002,-4.77782E+000,9.97348E-001,7.89658E+001,-3.63624E+001,9.96864E-001,1.67105E-001,-6.99706E-002,-6.58272E-004,1.67107E-001,-6.99725E-002,-1.59087E-001,1.67841E-001,1.18145E+000,-3.28876E-002,0.00000E+000,2.52464E-002,9.34526E-001,0.00000E+000,-9.01417E-003,-7.22502E-002,1.00000E+000,27
1049,1337,1.54928E+001,3.69856E-001,-6.63171E-002,7.91638E+000,-3.90802E-001,-9.30527E-002,7.92656E+000,1.76049E-002,4.56103E-001,0,1.20381E+002,-6.99188E+000,9.99241E-001,8.03599E+001,-3.81435E+001,9.98246E-001,1.69030E-001,-6.98905E-002,-9.04769E-004,1.69033E-001,-6.98939E-002,-2.16970E-001,1.69874E-001,1.18371E+000,-3.26471E-002,0.00000E+000,2.40427E-002,9.34526E-001,0.00000E+000,-1.53284E-003,-7.08539E-002,1.00000E+000,27
1049,1347,1.54988E+001,9.71000E-001,-5.35338E-002,7.89727E+000,-4.43507E-001,-1.21587E-001,7.91065E+000,1.41875E-002,4.63367E-001,0,1.20189E+002,-7.77141E+000,9.99014E-001,8.05470E+001,-3.88579E+001,9.97732E-001,1.69611E-001,-6.98901E-002,-8.83064E-004,1.69614E-001,-6.98934E-002,-2.11251E-001,1.70486E-001,1.18440E+000,-3.26208E-002,0.00000E+000,2.39750E-002,9.34524E-001,0.00000E+000,-4.24400E-004,-7.08117E-002,1.00000E+000,27
1049,1307,1.55152E+001,-1.43443E+000,9.94781E-002,7.97475E+000,-2.60661E-001,2.98263E-002,7.97907E+000,1.71826E-002,3.86388E-001,0,1.20798E+002,-5.10779E+000,9.98487E-001,8.07858E+001,-3.64907E+001,9.97700E-001,1.67288E-001,-6.98914E-002,-9.53024E-004,1.67292E-001,-6.98952E-002,-2.30219E-001,1.68043E-001,1.18165E+000,-3.26849E-002,0.00000E+000,2.42445E-002,9.34530E-001,0.00000E+000,-4.83431E-003,-7.09146E-002,1.00000E+000,27
1049,1317,1.54989E+001,-8.34865E-001,3.27279E-002,7.94878E+000,-3.04039E-001,-1.29223E-002,7.95460E+000,1.48333E-002,4.13876E-001,0,1.20571E+002,-5.73980E+000,9.97783E-001,8.04865E+001,-3.70439E+001,9.96484E-001,1.67869E-001,-6.98911E-002,-9.37886E-004,1.67873E-001,-6.98948E-002,-2.26009E-001,1.68654E-001,1.18233E+000,-3.26747E-002,0.00000E+000,2.41774E-002,9.34529E-001,0.00000E+000,-3.73570E-003,-7.08982E-002,1.00000E+000,27
1049,1327,1.54919E+001,-2.43240E-001,-2.72250E-002,7.93266E+000,-3.55598E-001,-4.63388E-002,7.94076E+000,9.80167E-003,3.93775E-001,0,1.20460E+002,-6.48683E+000,9.98653E-001,8.03426E+001,-3.77578E+001,9.97065E-001,1.68449E-001,-6.98908E-002,-9.23064E-004,1.68453E-001,-6.98944E-002,-2.21896E-001,1.69264E-001,1.18302E+000,-3.26651E-002,0.00000E+000,2.41102E-002,9.34528E-001,0.00000E+000,-2.63634E-003,-7.08828E-002,1.00000E+000,27
809,1347,-3.13071E+000,6.13059E-001,-6.97140E-003,4.94408E+000,-6.40342E-001,2.34646E-003,4.98538E+000,1.21754E-002,5.01145E-001,0,7.64120E+001,-1.06724E+001,9.98833E-001,3.23639E+001,-4.70219E+001,9.98831E-001,1.77212E-001,-7.43606E-002,-1.90292E-003,1.77226E-001,-7.43750E-002,-4.33357E-001,1.77987E-001,1.19389E+000,-2.95181E-003,0.00000E+000,-9.65583E-004,9.31980E-001,0.00000E+000,-3.88707E-003,-8.86408E-002,1.00000E+000,27
809,1357,-3.10297E+000,1.21766E+000,3.11160E-002,4.94369E+000,-6.89558E-001,-3.79015E-002,4.99169E+000,1.45753E-002,5.02055E-001,0,7.65231E+001,-1.13651E+001,9.98428E-001,3.29968E+001,-4.77837E+001,9.97800E-001,1.77325E-001,-7.43791E-002,-2.11009E-003,1.77342E-001,-7.43968E-002,-4.80279E-001,1.78107E-001,1.19404E+000,-2.94558E-003,0.00000E+000,-1.21991E-003,9.31969E-001,0.00000E+000,-5.58484E-003,-8.87138E-002,1.00000E+000,27
809,1327,-3.16867E+000,-5.89905E-001,4.13871E-002,4.94019E+000,-5.55357E-001,9.61833E-002,4.97224E+000,1.19408E-002,5.21713E-001,0,7.60597E+001,-9.49285E+000,9.98787E-001,3.16656E+001,-4.56702E+001,9.97286E-001,1.76979E-001,-7.43377E-002,-1.49067E-003,1.76988E-001,-7.43466E-002,-3.39831E-001,1.77740E-001,1.19360E+000,-2.95936E-003,0.00000E+000,-4.61493E-004,9.31993E-001,0.00000E+000,-5.21998E-004,-8.85522E-002,1.00000E+000,27
809,1337,-3.14865E+000,8.34762E-003,1.27431E-002,4.94512E+000,-5.99491E-001,5.45587E-002,4.98162E+000,1.03961E-002,5.21669E-001,0,7.62670E+001,-1.01270E+001,9.98695E-001,3.20194E+001,-4.63800E+001,9.98617E-001,1.77097E-001,-7.43479E-002,-1.69664E-003,1.77108E-001,-7.43594E-002,-3.86584E-001,1.77865E-001,1.19375E+000,-2.95601E-003,0.00000E+000,-7.13192E-004,9.31987E-001,0.00000E+000,-2.20222E-003,-8.85915E-002,1.00000E+000,27
809,1307,-3.17891E+000,-1.74816E+000,2.32015E-001,4.94075E+000,-4.41202E-001,2.15027E-001,4.96507E+000,2.15421E-002,5.81489E-001,0,7.56652E+001,-7.95744E+000,9.93565E-001,3.17420E+001,-4.39139E+001,9.93095E-001,1.76737E-001,-7.43295E-002,-1.07879E-003,1.76741E-001,-7.43342E-002,-2.46185E-001,1.77483E-001,1.19332E+000,-2.96176E-003,0.00000E+000,3.98264E-005,9.31997E-001,0.00000E+000,2.82457E-003,-8.85240E-002,1.00000E+000,27
809,1317,-3.17012E+000,-1.16769E+000,1.31901E-001,4.94586E+000,-4.95725E-001,1.59460E-001,4.97320E+000,1.93279E-002,5.52457E-001,0,7.59337E+001,-8.69504E+000,9.97830E-001,3.17491E+001,-4.47607E+001,9.96598E-001,1.76859E-001,-7.43326E-002,-1.28469E-003,1.76866E-001,-7.43391E-002,-2.93022E-001,1.77613E-001,1.19346E+000,-2.96094E-003,0.00000E+000,-2.10604E-004,9.31996E-001,0.00000E+000,1.15282E-003,-8.85337E-002,1.00000E+000,27
1049,1297,1.55229E+001,-2.03914E+000,1.79265E-001,7.99105E+000,-2.23326E-001,8.06035E-002,7.99457E+000,1.46977E-002,3.77453E-001,0,1.20851E+002,-4.59111E+000,9.97489E-001,8.09749E+001,-3.60371E+001,9.95811E-001,1.66706E-001,-6.98916E-002,-9.67703E-004,1.66709E-001,-6.98956E-002,-2.34339E-001,1.67432E-001,1.18096E+000,-3.26939E-002,0.00000E+000,2.43116E-002,9.34531E-001,0.00000E+000,-5.93207E-003,-7.09290E-002,1.00000E+000,27
799,1337,-3.92605E+000,8.75121E-004,1.24125E-002,4.81534E+000,-6.00385E-001,5.81649E-002,4.85298E+000,1.09787E-002,5.19461E-001,0,7.43084E+001,-1.01338E+001,9.98704E-001,3.00501E+001,-4.66029E+001,9.98751E-001,1.75542E-001,-7.40131E-002,-1.21726E-003,1.75548E-001,-7.40190E-002,-2.79464E-001,1.76265E-001,1.19189E+000,-3.21266E-003,0.00000E+000,4.16919E-004,9.32127E-001,0.00000E+000,-2.59304E-003,-8.64769E-002,1.00000E+000,27
799,1347,-3.90719E+000,6.02786E-001,-2.58159E-003,4.81574E+000,-6.43919E-001,1.24736E-002,4.85862E+000,1.26723E-002,5.07779E-001,0,7.44551E+001,-1.07339E+001,9.98236E-001,3.04207E+001,-4.72958E+001,9.98233E-001,1.75726E-001,-7.40310E-002,-1.51060E-003,1.75735E-001,-7.40402E-002,-3.46525E-001,1.76458E-001,1.19212E+000,-3.20625E-003,0.00000E+000,-1.90304E-005,9.32115E-001,0.00000E+000,-4.09144E-003,-8.65196E-002,1.00000E+000,27
799,1357,-3.87429E+000,1.21398E+000,2.88798E-002,4.82057E+000,-6.86210E-001,-3.53081E-002,4.86929E+000,1.33923E-002,5.01593E-001,0,7.46675E+001,-1.13024E+001,9.97778E-001,3.11209E+001,-4.79459E+001,9.97406E-001,1.75908E-001,-7.40576E-002,-1.80482E-003,1.75921E-001,-7.40707E-002,-4.13664E-001,1.76650E-001,1.19234E+000,-3.19651E-003,0.00000E+000,-4.58123E-004,9.32096E-001,0.00000E+000,-5.60064E-003,-8.65845E-002,1.00000E+000,27
799,1327,-3.93804E+000,-6.01551E-001,5.47060E-002,4.81790E+000,-5.59864E-001,1.11196E-001,4.85159E+000,1.89625E-002,5.35008E-001,0,7.41814E+001,-9.60737E+000,9.98975E-001,2.98510E+001,-4.59763E+001,9.97515E-001,1.75357E-001,-7.39986E-002,-9.23926E-004,1.75360E-001,-7.40021E-002,-2.12291E-001,1.76070E-001,1.19167E+000,-3.21771E-003,0.00000E+000,8.52123E-004,9.32137E-001,0.00000E+000,-1.09720E-003,-8.64432E-002,1.00000E+000,27
1059,1327,1.62710E+001,-2.26488E-001,-2.14373E-002,8.05351E+000,-3.45346E-001,-4.23959E-002,8.06103E+000,1.49625E-002,4.12484E-001,0,1.22178E+002,-6.36187E+000,9.98965E-001,8.24696E+001,-3.74013E+001,9.97580E-001,1.68505E-001,-7.01631E-002,-1.26479E-003,1.68512E-001,-7.01698E-002,-3.03619E-001,1.69295E-001,1.18311E+000,-3.18841E-002,0.00000E+000,2.27473E-002,9.34240E-001,0.00000E+000,-1.13733E-003,-6.98784E-002,1.00000E+000,27
1059,1337,1.62746E+001,3.90327E-001,-5.67392E-002,8.03937E+000,-3.77243E-001,-8.69425E-002,8.04868E+000,1.21137E-002,4.41297E-001,0,1.22123E+002,-6.80613E+000,9.99357E-001,8.25346E+001,-3.77526E+001,9.98677E-001,1.69138E-001,-7.01675E-002,-1.28967E-003,1.69145E-001,-7.01745E-002,-3.08766E-001,1.69960E-001,1.18386E+000,-3.18639E-002,0.00000E+000,2.26253E-002,9.34237E-001,0.00000E+000,-4.71218E-004,-6.98605E-002,1.00000E+000,27
1059,1347,1.62846E+001,9.92653E-001,-4.56000E-002,8.02385E+000,-4.28154E-001,-1.18147E-001,8.03614E+000,1.72223E-002,4.16366E-001,0,1.21994E+002,-7.55266E+000,9.99163E-001,8.27792E+001,-3.84593E+001,9.97677E-001,1.69772E-001,-7.01729E-002,-1.31097E-003,1.69779E-001,-7.01801E-002,-3.13030E-001,1.70627E-001,1.18461E+000,-3.18347E-002,0.00000E+000,2.25029E-002,9.34232E-001,0.00000E+000,1.96951E-004,-6.98346E-002,1.00000E+000,27
1059,1297,1.62965E+001,-2.01819E+000,1.67884E-001,8.10903E+000,-2.05485E-001,7.74886E-002,8.11201E+000,1.43056E-002,3.26499E-001,0,1.22549E+002,-4.31714E+000,9.97863E-001,8.29872E+001,-3.56191E+001,9.95490E-001,1.66607E-001,-7.01528E-002,-1.17978E-003,1.66613E-001,-7.01587E-002,-2.85498E-001,1.67303E-001,1.18086E+000,-3.19186E-002,0.00000E+000,2.31121E-002,9.34246E-001,0.00000E+000,-3.12832E-003,-6.99090E-002,1.00000E+000,27
1059,1307,1.62895E+001,-1.41792E+000,9.53967E-002,8.09342E+000,-2.46569E-001,3.39748E-002,8.09725E+000,1.52762E-002,3.27671E-001,0,1.22482E+002,-4.91790E+000,9.98739E-001,8.28220E+001,-3.61591E+001,9.97878E-001,1.67238E-001,-7.01561E-002,-1.20866E-003,1.67244E-001,-7.01622E-002,-2.91703E-001,1.67965E-001,1.18161E+000,-3.19087E-002,0.00000E+000,2.29909E-002,9.34244E-001,0.00000E+000,-2.46677E-003,-6.99002E-002,1.00000E+000,27
1059,1317,1.62731E+001,-8.22103E-001,2.11934E-002,8.06778E+000,-2.94528E-001,-1.38848E-002,8.07316E+000,1.59813E-002,4.19830E-001,0,1.22282E+002,-5.62763E+000,9.98372E-001,8.25069E+001,-3.67203E+001,9.96599E-001,1.67871E-001,-7.01594E-002,-1.23736E-003,1.67878E-001,-7.01659E-002,-2.97830E-001,1.68629E-001,1.18236E+000,-3.18981E-002,0.00000E+000,2.28693E-002,9.34243E-001,0.00000E+000,-1.80294E-003,-6.98908E-002,1.00000E+000,27
799,1307,-3.94561E+000,-1.75635E+000,2.45874E-001,4.81983E+000,-4.43754E-001,2.24690E-001,4.84542E+000,2.76315E-002,5.70651E-001,0,7.38265E+001,-8.01456E+000,9.95573E-001,2.99721E+001,-4.41754E+001,9.95710E-001,1.74982E-001,-7.39873E-002,-3.38236E-004,1.74982E-001,-7.39877E-002,-7.78389E-002,1.75675E-001,1.19122E+000,-3.22103E-003,0.00000E+000,1.71709E-003,9.32143E-001,0.00000E+000,1.87576E-003,-8.64210E-002,1.00000E+000,27
799,1317,-3.94437E+000,-1.17828E+000,1.27164E-001,4.82009E+000,-4.98859E-001,1.64006E-001,4.84862E+000,2.32119E-002,5.74290E-001,0,7.40377E+001,-8.76088E+000,9.97391E-001,2.98166E+001,-4.50063E+001,9.95998E-001,1.75170E-001,-7.39896E-002,-6.31193E-004,1.75172E-001,-7.39912E-002,-1.45145E-001,1.75874E-001,1.19145E+000,-3.22068E-003,0.00000E+000,1.28523E-003,9.32143E-001,0.00000E+000,3.91451E-004,-8.64234E-002,1.00000E+000,27
789,1327,-4.70804E+000,-6.07344E-001,5.64418E-002,4.69522E+000,-5.58860E-001,1.18169E-001,4.72984E+000,1.75404E-002,5.45798E-001,0,7.23194E+001,-9.60423E+000,9.98469E-001,2.80054E+001,-4.61687E+001,9.97547E-001,1.73803E-001,-7.36706E-002,-5.94195E-004,1.73804E-001,-7.36720E-002,-1.37569E-001,1.74474E-001,1.18982E+000,-3.67714E-003,0.00000E+000,1.86779E-003,9.32305E-001,0.00000E+000,-1.55959E-003,-8.47344E-002,1.00000E+000,27
789,1337,-4.69379E+000,-1.26419E-003,1.38958E-002,4.69441E+000,-5.95988E-001,6.15509E-002,4.73249E+000,1.33823E-002,5.05435E-001,0,7.24819E+001,-1.00572E+001,9.98070E-001,2.82401E+001,-4.67525E+001,9.97983E-001,1.74090E-001,-7.36901E-002,-9.65469E-004,1.74094E-001,-7.36938E-002,-2.23247E-001,1.74776E-001,1.19016E+000,-3.66907E-003,0.00000E+000,1.26554E-003,9.32291E-001,0.00000E+000,-2.85635E-003,-8.47647E-002,1.00000E+000,27
789,1347,-4.67080E+000,6.00493E-001,-3.58009E-004,4.69863E+000,-6.40707E-001,1.43834E-002,4.74214E+000,1.44915E-002,5.30332E-001,0,7.26912E+001,-1.06767E+001,9.97507E-001,2.86769E+001,-4.74323E+001,9.96990E-001,1.74376E-001,-7.37136E-002,-1.33713E-003,1.74384E-001,-7.37208E-002,-3.08794E-001,1.75076E-001,1.19051E+000,-3.65902E-003,0.00000E+000,6.61425E-004,9.32274E-001,0.00000E+000,-4.15711E-003,-8.48024E-002,1.00000E+000,27
789,1357,-4.64607E+000,1.20816E+000,2.84671E-002,4.69681E+000,-6.85337E-001,-2.95009E-002,4.74664E+000,1.30656E-002,5.36531E-001,0,7.27902E+001,-1.12954E+001,9.97109E-001,2.92467E+001,-4.81278E+001,9.96834E-001,1.74662E-001,-7.37460E-002,-1.70896E-003,1.74674E-001,-7.37578E-002,-3.94149E-001,1.75376E-001,1.19086E+000,-3.64481E-003,0.00000E+000,5.44040E-005,9.32249E-001,0.00000E+000,-5.46413E-003,-8.48557E-002,1.00000E+000,27
1069,1327,1.70508E+001,-2.11735E-001,-3.22506E-002,8.17565E+000,-3.37274E-001,-5.03637E-002,8.18275E+000,1.57729E-002,4.45598E-001,0,1.23960E+002,-6.23908E+000,9.98844E-001,8.45821E+001,-3.70325E+001,9.96911E-001,1.68642E-001,-7.01820E-002,-1.58500E-003,1.68652E-001,-7.01926E-002,-3.80231E-001,1.69440E-001,1.18329E+000,-3.12267E-002,0.00000E+000,2.15557E-002,9.34191E-001,0.00000E+000,-5.77600E-005,-6.89610E-002,1.00000E+000,27
1069,1337,1.70479E+001,4.01364E-001,-5.93805E-002,8.15580E+000,-3.71052E-001,-8.30784E-002,8.16466E+000,1.03692E-002,3.97529E-001,0,1.23776E+002,-6.72337E+000,9.99047E-001,8.45594E+001,-3.74967E+001,9.98001E-001,1.69247E-001,-7.01890E-002,-1.63801E-003,1.69258E-001,-7.02002E-002,-3.91943E-001,1.70076E-001,1.18401E+000,-3.12082E-002,0.00000E+000,2.14129E-002,9.34187E-001,0.00000E+000,1.51639E-004,-6.89556E-002,1.00000E+000,27
1069,1347,1.70544E+001,1.00814E+000,-5.98303E-002,8.13848E+000,-4.17430E-001,-1.18109E-001,8.15003E+000,1.05076E-002,4.30634E-001,0,1.23636E+002,-7.40800E+000,9.99189E-001,8.47285E+001,-3.80785E+001,9.98454E-001,1.69855E-001,-7.01974E-002,-1.68825E-003,1.69866E-001,-7.02093E-002,-4.02927E-001,1.70715E-001,1.18473E+000,-3.11821E-002,0.00000E+000,2.12692E-002,9.34182E-001,0.00000E+000,3.62378E-004,-6.89480E-002,1.00000E+000,27
789,1307,-4.70905E+000,-1.76582E+000,2.42774E-001,4.70391E+000,-4.47059E-001,2.28447E-001,4.73063E+000,1.82123E-002,5.43346E-001,0,7.20832E+001,-8.04732E+000,9.97434E-001,2.82168E+001,-4.44287E+001,9.94597E-001,1.73226E-001,-7.36548E-002,1.47570E-004,1.73226E-001,-7.36549E-002,3.42478E-002,1.73872E-001,1.18913E+000,-3.68236E-003,0.00000E+000,3.06384E-003,9.32315E-001,0.00000E+000,1.01571E-003,-8.47148E-002,1.00000E+000,27
789,1317,-4.71080E+000,-1.19129E+000,1.46016E-001,4.69840E+000,-5.06734E-001,1.75302E-001,4.72890E+000,1.95303E-002,5.69248E-001,0,7.21792E+001,-8.90387E+000,9.97455E-001,2.80665E+001,-4.53522E+001,9.93959E-001,1.73515E-001,-7.36616E-002,-2.23228E-004,1.73516E-001,-7.36618E-002,-5.17444E-002,1.74173E-001,1.18947E+000,-3.68033E-003,0.00000E+000,2.46634E-003,9.32311E-001,0.00000E+000,-2.70818E-004,-8.47224E-002,1.00000E+000,27
1069,1297,1.70584E+001,-2.00047E+000,1.46850E-001,8.21672E+000,-1.91077E-001,7.22774E-002,8.21926E+000,1.86034E-002,3.55769E-001,0,1.24100E+002,-4.11120E+000,9.96572E-001,8.48058E+001,-3.51923E+001,9.93527E-001,1.66825E-001,-7.01646E-002,-1.41819E-003,1.66834E-001,-7.01731E-002,-3.42851E-001,1.67533E-001,1.18114E+000,-3.12634E-002,0.00000E+000,2.19842E-002,9.34198E-001,0.00000E+000,-6.85865E-004,-6.89717E-002,1.00000E+000,27
1069,1307,1.70552E+001,-1.40333E+000,6.41226E-002,8.20598E+000,-2.34634E-001,2.34713E-002,8.20937E+000,1.30976E-002,3.17712E-001,0,1.24131E+002,-4.72291E+000,9.98554E-001,8.46816E+001,-3.57759E+001,9.96945E-001,1.67428E-001,-7.01697E-002,-1.47515E-003,1.67437E-001,-7.01788E-002,-3.55708E-001,1.68166E-001,1.18185E+000,-3.12551E-002,0.00000E+000,2.18421E-002,9.34197E-001,0.00000E+000,-4.77522E-004,-6.89693E-002,1.00000E+000,27
1069,1317,1.70544E+001,-8.00873E-001,1.41051E-002,8.19232E+000,-2.79145E-001,-1.48006E-002,8.19709E+000,1.36973E-002,4.50787E-001,0,1.24071E+002,-5.40850E+000,9.98997E-001,8.46508E+001,-3.62618E+001,9.97150E-001,1.68035E-001,-7.01758E-002,-1.53011E-003,1.68045E-001,-7.01857E-002,-3.68009E-001,1.68803E-001,1.18257E+000,-3.12410E-002,0.00000E+000,2.16989E-002,9.34194E-001,0.00000E+000,-2.67678E-004,-6.89652E-002,1.00000E+000,27
779,1327,-5.47040E+000,-6.06609E-001,6.68561E-002,4.57876E+000,-5.53949E-001,1.28955E-001,4.61395E+000,2.52055E-002,5.87224E-001,0,7.05368E+001,-9.53534E+000,9.98206E-001,2.63049E+001,-4.62631E+001,9.96898E-001,1.72171E-001,-7.31131E-002,-5.32488E-004,1.72172E-001,-7.31143E-002,-1.24383E-001,1.72823E-001,1.18787E+000,-4.40834E-003,0.00000E+000,2.57195E-003,9.32721E-001,0.00000E+000,-1.73783E-003,-8.34186E-002,1.00000E+000,27
779,1337,-5.45592E+000,-1.52901E-002,1.69853E-002,4.57865E+000,-6.04512E-001,6.66699E-002,4.61887E+000,1.30036E-002,5.14490E-001,0,7.07312E+001,-1.01819E+001,9.97553E-001,2.65229E+001,-4.70766E+001,9.97402E-001,1.72645E-001,-7.31378E-002,-1.00173E-003,1.72649E-001,-7.31418E-002,-2.33513E-001,1.73319E-001,1.18844E+000,-4.39549E-003,0.00000E+000,1.76033E-003,9.32703E-001,0.00000E+000,-2.78841E-003,-8.34425E-002,1.00000E+000,27
779,1347,-5.43909E+000,5.92254E-001,1.17345E-003,4.57634E+000,-6.42501E-001,1.50061E-002,4.62125E+000,1.60129E-002,5.13521E-001,0,7.08505E+001,-1.06901E+001,9.96707E-001,2.68638E+001,-4.76794E+001,9.95951E-001,1.73119E-001,-7.31688E-002,-1.47087E-003,1.73128E-001,-7.31775E-002,-3.42163E-001,1.73816E-001,1.18901E+000,-4.37864E-003,0.00000E+000,9.46092E-004,9.32679E-001,0.00000E+000,-3.84239E-003,-8.34737E-002,1.00000E+000,27
779,1357,-5.41743E+000,1.20272E+000,2.76348E-002,4.57240E+000,-6.83900E-001,-2.74739E-002,4.62334E+000,1.25768E-002,5.36074E-001,0,7.09115E+001,-1.12638E+001,9.97161E-001,2.73834E+001,-4.83207E+001,9.97029E-001,1.73594E-001,-7.32090E-002,-1.94074E-003,1.73609E-001,-7.32242E-002,-4.50509E-001,1.74316E-001,1.18958E+000,-4.35610E-003,0.00000E+000,1.26649E-004,9.32646E-001,0.00000E+000,-4.90311E-003,-8.35155E-002,1.00000E+000,27
779,1317,-5.46789E+000,-1.18547E+000,1.48083E-001,4.58703E+000,-4.95083E-001,1.76900E-001,4.61706E+000,2.45010E-002,5.40447E-001,0,7.05030E+001,-8.70628E+000,9.98701E-001,2.64286E+001,-4.53826E+001,9.97081E-001,1.71696E-001,-7.31012E-002,-6.08153E-005,1.71696E-001,-7.31013E-002,-1.42341E-002,1.72326E-001,1.18731E+000,-4.41342E-003,0.00000E+000,3.38220E-003,9.32728E-001,0.00000E+000,-6.89008E-004,-8.34092E-002,1.00000E+000,27
1079,1337,1.78261E+001,4.18190E-001,-7.79510E-002,8.27604E+000,-3.60642E-001,-9.79756E-002,8.28448E+000,1.60037E-002,4.15933E-001,0,1.25553E+002,-6.54844E+000,9.98256E-001,8.66393E+001,-3.70844E+001,9.98281E-001,1.69656E-001,-7.03900E-002,-1.94348E-003,1.69672E-001,-7.04058E-002,-4.63843E-001,1.70488E-001,1.18451E+000,-3.05056E-002,0.00000E+000,2.02426E-002,9.33997E-001,0.00000E+000,6.31599E-004,-6.84955E-002,1.00000E+000,27
1079,1347,1.78374E+001,1.02652E+000,-6.75208E-002,8.26318E+000,-4.05648E-001,-1.22522E-001,8.27403E+000,8.68919E-003,4.52951E-001,0,1.25440E+002,-7.23976E+000,9.99366E-001,8.68985E+001,-3.76619E+001,9.99267E-001,1.70233E-001,-7.04035E-002,-2.03652E-003,1.70250E-001,-7.04207E-002,-4.84852E-001,1.71095E-001,1.18520E+000,-3.04806E-002,0.00000E+000,2.00458E-002,9.33990E-001,0.00000E+000,4.39069E-004,-6.85026E-002,1.00000E+000,27
1079,1297,1.78409E+001,-1.97693E+000,1.54199E-001,8.34068E+000,-1.73450E-001,7.94956E-002,8.34287E+000,1.73685E-002,4.21196E-001,0,1.25841E+002,-3.89690E+000,9.97627E-001,8.69973E+001,-3.47150E+001,9.95754E-001,1.67357E-001,-7.03517E-002,-1.55386E-003,1.67368E-001,-7.03618E-002,-3.74511E-001,1.68073E-001,1.18179E+000,-3.05575E-002,0.00000E+000,2.10242E-002,9.34012E-001,0.00000E+000,1.39666E-003,-6.84809E-002,1.00000E+000,27
1079,1307,1.78305E+001,-1.38810E+000,5.84993E-002,8.32409E+000,-2.25334E-001,2.37201E-002,8.32718E+000,1.47841E-002,3.68775E-001,0,1.25816E+002,-4.60487E+000,9.98677E-001,8.67388E+001,-3.54062E+001,9.97326E-001,1.67930E-001,-7.03592E-002,-1.65353E-003,1.67941E-001,-7.03706E-002,-3.97560E-001,1.68674E-001,1.18247E+000,-3.05511E-002,0.00000E+000,2.08297E-002,9.34010E-001,0.00000E+000,1.20628E-003,-6.84828E-002,1.00000E+000,27
1079,1327,1.78283E+001,-1.96315E-001,-4.53790E-002,8.29478E+000,-3.28034E-001,-6.19051E-002,8.30149E+000,1.77627E-002,4.16619E-001,0,1.25707E+002,-6.07030E+000,9.98683E-001,8.66609E+001,-3.66796E+001,9.97883E-001,1.69082E-001,-7.03791E-002,-1.84779E-003,1.69096E-001,-7.03934E-002,-4.42085E-001,1.69884E-001,1.18383E+000,-3.05228E-002,0.00000E+000,2.04381E-002,9.34002E-001,0.00000E+000,8.22956E-004,-6.84907E-002,1.00000E+000,27
1079,1317,1.78268E+001,-7.83417E-001,-1.16458E-003,8.30759E+000,-2.67986E-001,-2.34701E-002,8.31194E+000,1.41951E-002,4.20425E-001,0,1.25748E+002,-5.19857E+000,9.98718E-001,8.66466E+001,-3.58760E+001,9.97646E-001,1.68506E-001,-7.03689E-002,-1.75105E-003,1.68519E-001,-7.03817E-002,-4.19970E-001,1.69279E-001,1.18315E+000,-3.05377E-002,0.00000E+000,2.06338E-002,9.34006E-001,0.00000E+000,1.01452E-003,-6.84865E-002,1.00000E+000,27
779,1307,-5.47840E+000,-1.78059E+000,2.50109E-001,4.58000E+000,-4.57442E-001,2.34295E-001,4.60875E+000,1.74129E-002,5.60719E-001,0,7.02085E+001,-8.20734E+000,9.98316E-001,2.63996E+001,-4.47644E+001,9.95909E-001,1.71222E-001,-7.30923E-002,4.08590E-004,1.71223E-001,-7.30930E-002,9.58206E-002,1.71832E-001,1.18675E+000,-4.41652E-003,0.00000E+000,4.18712E-003,9.32733E-001,0.00000E+000,3.52910E-004,-8.34035E-002,1.00000E+000,27
1089,1337,1.86039E+001,4.39648E-001,-8.25754E-002,8.39541E+000,-3.46231E-001,-9.86942E-002,8.40313E+000,1.40878E-002,4.93966E-001,0,1.27258E+002,-6.36297E+000,9.97915E-001,8.87404E+001,-3.66016E+001,9.97619E-001,1.70523E-001,-7.06826E-002,-2.06046E-003,1.70541E-001,-7.07002E-002,-4.89392E-001,1.71369E-001,1.18557E+000,-2.94843E-002,0.00000E+000,1.91597E-002,9.33714E-001,0.00000E+000,1.20550E-003,-6.79924E-002,1.00000E+000,27
1089,1347,1.86126E+001,1.04633E+000,-7.79801E-002,8.37991E+000,-3.92056E-001,-1.28637E-001,8.39006E+000,9.93651E-003,4.53497E-001,0,1.27127E+002,-7.03192E+000,9.99032E-001,8.89479E+001,-3.72290E+001,9.98301E-001,1.71206E-001,-7.06996E-002,-2.18093E-003,1.71226E-001,-7.07192E-002,-5.16501E-001,1.72087E-001,1.18638E+000,-2.94546E-002,0.00000E+000,1.89173E-002,9.33706E-001,0.00000E+000,8.27806E-004,-6.80063E-002,1.00000E+000,27
769,1347,-6.20701E+000,5.82961E-001,5.43682E-003,4.45477E+000,-6.45486E-001,2.23877E-002,4.50135E+000,1.30380E-002,5.20148E-001,0,6.89982E+001,-1.07382E+001,9.97009E-001,2.50680E+001,-4.79374E+001,9.96834E-001,1.71407E-001,-7.26300E-002,-1.44989E-003,1.71415E-001,-7.26386E-002,-3.40394E-001,1.72078E-001,1.18697E+000,-4.86340E-003,0.00000E+000,1.33754E-003,9.33101E-001,0.00000E+000,-3.45033E-003,-8.24335E-002,1.00000E+000,27
769,1357,-6.18268E+000,1.19628E+000,2.72030E-002,4.45405E+000,-6.83633E-001,-2.30163E-002,4.50627E+000,1.23573E-002,5.45024E-001,0,6.91166E+001,-1.12547E+001,9.97867E-001,2.56196E+001,-4.85247E+001,9.97755E-001,1.71777E-001,-7.26678E-002,-1.89821E-003,1.71792E-001,-7.26825E-002,-4.44890E-001,1.72468E-001,1.18742E+000,-4.84628E-003,0.00000E+000,5.49401E-004,9.33070E-001,0.00000E+000,-4.35071E-003,-8.24681E-002,1.00000E+000,27
769,1327,-6.23499E+000,-6.14934E-001,7.67225E-002,4.45734E+000,-5.57296E-001,1.26938E-001,4.49384E+000,1.84897E-002,5.68257E-001,0,6.87159E+001,-9.57573E+000,9.97883E-001,2.45728E+001,-4.65266E+001,9.96075E-001,1.70668E-001,-7.25809E-002,-5.54836E-004,1.70669E-001,-7.25822E-002,-1.30687E-001,1.71303E-001,1.18609E+000,-4.88432E-003,0.00000E+000,2.90160E-003,9.33138E-001,0.00000E+000,-1.66353E-003,-8.23911E-002,1.00000E+000,27
769,1337,-6.22490E+000,-2.90082E-002,1.96853E-002,4.45540E+000,-6.12501E-001,7.01501E-002,4.49785E+000,1.18826E-002,5.20606E-001,0,6.88671E+001,-1.02988E+001,9.97600E-001,2.47047E+001,-4.73977E+001,9.97341E-001,1.71038E-001,-7.26011E-002,-1.00273E-003,1.71042E-001,-7.26052E-002,-2.35804E-001,1.71691E-001,1.18653E+000,-4.87607E-003,0.00000E+000,2.12051E-003,9.33123E-001,0.00000E+000,-2.55585E-003,-8.24078E-002,1.00000E+000,27
1089,1327,1.86037E+001,-1.68862E-001,-6.24046E-002,8.41354E+000,-3.04043E-001,-6.84994E-002,8.41931E+000,1.54902E-002,4.11327E-001,0,1.27423E+002,-5.71982E+000,9.98000E-001,8.87067E+001,-3.61204E+001,9.96989E-001,1.69840E-001,-7.06682E-002,-1.93704E-003,1.69856E-001,-7.06838E-002,-4.61416E-001,1.70650E-001,1.18476E+000,-2.95068E-002,0.00000E+000,1.94020E-002,9.33721E-001,0.00000E+000,1.58313E-003,-6.79819E-002,1.00000E+000,27
1089,1317,1.86078E+001,-7.72745E-001,-8.58991E-003,8.43058E+000,-2.62202E-001,-2.66783E-002,8.43470E+000,1.40087E-002,4.37882E-001,0,1.27519E+002,-5.13527E+000,9.98724E-001,8.87948E+001,-3.55876E+001,9.98213E-001,1.69160E-001,-7.06560E-002,-1.81158E-003,1.69174E-001,-7.06697E-002,-4.32782E-001,1.69935E-001,1.18395E+000,-2.95228E-002,0.00000E+000,1.96430E-002,9.33726E-001,0.00000E+000,1.95875E-003,-6.79745E-002,1.00000E+000,27
1089,1297,1.86225E+001,-1.95504E+000,1.51697E-001,8.46345E+000,-1.58165E-001,7.76804E-002,8.46528E+000,1.25837E-002,4.58854E-001,0,1.27595E+002,-3.67370E+000,9.98866E-001,8.91622E+001,-3.42565E+001,9.98238E-001,1.67801E-001,-7.06349E-002,-1.55733E-003,1.67811E-001,-7.06451E-002,-3.74204E-001,1.68508E-001,1.18235E+000,-2.95453E-002,0.00000E+000,2.01239E-002,9.33733E-001,0.00000E+000,2.70828E-003,-6.79640E-002,1.00000E+000,27
1089,1307,1.86125E+001,-1.36889E+000,5.56485E-002,8.44691E+000,-2.13269E-001,2.02183E-002,8.44963E+000,1.24732E-002,4.19112E-001,0,1.27580E+002,-4.43256E+000,9.99031E-001,8.89102E+001,-3.49805E+001,9.98651E-001,1.68480E-001,-7.06444E-002,-1.68554E-003,1.68492E-001,-7.06563E-002,-4.03839E-001,1.69221E-001,1.18315E+000,-2.95372E-002,0.00000E+000,1.98839E-002,9.33730E-001,0.00000E+000,2.33420E-003,-6.79678E-002,1.00000E+000,27
769,1317,-6.24271E+000,-1.19541E+000,1.48984E-001,4.45764E+000,-5.01951E-001,1.78396E-001,4.48936E+000,2.11895E-002,5.30528E-001,0,6.85527E+001,-8.75901E+000,9.98796E-001,2.45169E+001,-4.56466E+001,9.97870E-001,1.70300E-001,-7.25661E-002,-1.08560E-004,1.70300E-001,-7.25662E-002,-2.56111E-002,1.70918E-001,1.18565E+000,-4.88982E-003,0.00000E+000,3.67790E-003,9.33148E-001,0.00000E+000,-7.76664E-004,-8.23800E-002,1.00000E+000,27
1099,1327,1.93764E+001,-1.51717E-001,-7.10948E-002,8.52896E+000,-2.92198E-001,-6.71073E-002,8.53422E+000,1.72453E-002,4.33332E-001,0,1.29059E+002,-5.55965E+000,9.95874E-001,9.07265E+001,-3.57260E+001,9.93989E-001,1.70710E-001,-7.09196E-002,-2.06424E-003,1.70728E-001,-7.09372E-002,-4.89430E-001,1.71538E-001,1.18581E+000,-2.86705E-002,0.00000E+000,1.84492E-002,9.33513E-001,0.00000E+000,2.09668E-003,-6.81025E-002,1.00000E+000,27
1099,1337,1.93850E+001,4.61097E-001,-8.13093E-002,8.51741E+000,-3.30521E-001,-9.42840E-002,8.52434E+000,1.66398E-002,4.56031E-001,0,1.28979E+002,-6.13412E+000,9.96413E-001,9.09066E+001,-3.61896E+001,9.96145E-001,1.71546E-001,-7.09334E-002,-2.17224E-003,1.71565E-001,-7.09529E-002,-5.13227E-001,1.72418E-001,1.18680E+000,-2.86402E-002,0.00000E+000,1.82269E-002,9.33507E-001,0.00000E+000,1.71867E-003,-6.81141E-002,1.00000E+000,27
1099,1347,1.93966E+001,1.07327E+000,-7.13922E-002,8.50265E+000,-3.72680E-001,-1.27273E-001,8.51176E+000,1.32141E-002,4.56297E-001,0,1.28867E+002,-6.75525E+000,9.97638E-001,9.11673E+001,-3.67215E+001,9.97365E-001,1.72382E-001,-7.09497E-002,-2.27661E-003,1.72404E-001,-7.09710E-002,-5.35996E-001,1.73299E-001,1.18780E+000,-2.86005E-002,0.00000E+000,1.80042E-002,9.33498E-001,0.00000E+000,1.33979E-003,-6.81292E-002,1.00000E+000,27
759,1347,-6.96847E+000,5.78875E-001,4.94093E-003,4.33934E+000,-6.43538E-001,2.56196E-002,4.38688E+000,1.19056E-002,5.33521E-001,0,6.72496E+001,-1.06991E+001,9.96975E-001,2.33658E+001,-4.81005E+001,9.96651E-001,1.69705E-001,-7.21381E-002,-1.36853E-003,1.69713E-001,-7.21458E-002,-3.24208E-001,1.70346E-001,1.18495E+000,-5.12603E-003,0.00000E+000,1.68547E-003,9.33476E-001,0.00000E+000,-3.25236E-003,-8.13360E-002,1.00000E+000,27
759,1357,-6.94860E+000,1.18709E+000,2.59940E-002,4.33468E+000,-6.86210E-001,-1.89468E-002,4.38870E+000,1.26219E-002,5.47832E-001,0,6.73055E+001,-1.12837E+001,9.97524E-001,2.38484E+001,-4.87726E+001,9.97014E-001,1.69863E-001,-7.21658E-002,-1.70369E-003,1.69875E-001,-7.21778E-002,-4.03291E-001,1.70512E-001,1.18514E+000,-5.11882E-003,0.00000E+000,1.11762E-003,9.33454E-001,0.00000E+000,-4.15586E-003,-8.13701E-002,1.00000E+000,27
1099,1297,1.93965E+001,-1.94328E+000,1.32302E-001,8.57997E+000,-1.51504E-001,6.62876E-002,8.58156E+000,1.21582E-002,4.92700E-001,0,1.29296E+002,-3.56793E+000,9.98212E-001,9.11851E+001,-3.39222E+001,9.96623E-001,1.68214E-001,-7.08896E-002,-1.72433E-003,1.68226E-001,-7.09020E-002,-4.13169E-001,1.68916E-001,1.18286E+000,-2.87173E-002,0.00000E+000,1.91115E-002,9.33524E-001,0.00000E+000,3.22304E-003,-6.80847E-002,1.00000E+000,27
1099,1307,1.93908E+001,-1.34804E+000,4.84844E-002,8.56769E+000,-1.98142E-001,2.11659E-002,8.57001E+000,1.42102E-002,4.58438E-001,0,1.29295E+002,-4.22008E+000,9.98527E-001,9.10217E+001,-3.45261E+001,9.97726E-001,1.69045E-001,-7.08981E-002,-1.83974E-003,1.69059E-001,-7.09122E-002,-4.39275E-001,1.69789E-001,1.18384E+000,-2.87073E-002,0.00000E+000,1.88912E-002,9.33522E-001,0.00000E+000,2.84828E-003,-6.80885E-002,1.00000E+000,27
1099,1317,1.93828E+001,-7.51837E-001,-2.25389E-002,8.54925E+000,-2.46027E-001,-2.72695E-002,8.55283E+000,1.79037E-002,4.58975E-001,0,1.29210E+002,-4.90182E+000,9.97449E-001,9.08437E+001,-3.51254E+001,9.96318E-001,1.69877E-001,-7.09082E-002,-1.95292E-003,1.69893E-001,-7.09240E-002,-4.64663E-001,1.70663E-001,1.18483E+000,-2.86914E-002,0.00000E+000,1.86704E-002,9.33518E-001,0.00000E+000,2.47285E-003,-6.80946E-002,1.00000E+000,27
759,1327,-7.00456E+000,-6.27048E-001,7.32772E-002,4.33273E+000,-5.63473E-001,1.22969E-001,4.37095E+000,1.43017E-002,5.39944E-001,0,6.68516E+001,-9.64075E+000,9.97928E-001,2.27357E+001,-4.68253E+001,9.98072E-001,1.69389E-001,-7.21026E-002,-7.00567E-004,1.69391E-001,-7.21046E-002,-1.66213E-001,1.70014E-001,1.18457E+000,-5.13470E-003,0.00000E+000,2.81336E-003,9.33502E-001,0.00000E+000,-1.45779E-003,-8.12951E-002,1.00000E+000,27
759,1337,-6.98681E+000,-2.39056E-002,2.73702E-002,4.33827E+000,-6.01724E-001,7.58145E-002,4.38046E+000,1.19443E-002,5.44250E-001,0,6.70820E+001,-1.01438E+001,9.97056E-001,2.30167E+001,-4.74302E+001,9.97017E-001,1.69547E-001,-7.21178E-002,-1.03448E-003,1.69552E-001,-7.21222E-002,-2.45255E-001,1.70180E-001,1.18476E+000,-5.13110E-003,0.00000E+000,2.25004E-003,9.33491E-001,0.00000E+000,-2.35408E-003,-8.13120E-002,1.00000E+000,27
759,1317,-7.00891E+000,-1.21187E+000,1.53656E-001,4.33541E+000,-5.12858E-001,1.77739E-001,4.36925E+000,1.88049E-002,5.51856E-001,0,6.67167E+001,-8.93886E+000,9.98269E-001,2.27509E+001,-4.60026E+001,9.97894E-001,1.69231E-001,-7.20926E-002,-3.68201E-004,1.69231E-001,-7.20931E-002,-8.74193E-002,1.69848E-001,1.18438E+000,-5.13678E-003,0.00000E+000,3.37304E-003,9.33508E-001,0.00000E+000,-5.67288E-004,-8.12853E-002,1.00000E+000,27
749,1317,-7.76289E+000,-1.21354E+000,1.76717E-001,4.22377E+000,-5.11268E-001,1.89213E-001,4.25881E+000,1.44325E-002,5.72890E-001,0,6.50000E+001,-8.93002E+000,9.98314E-001,2.12277E+001,-4.61686E+001,9.96953E-001,1.68150E-001,-7.16960E-002,-5.57870E-004,1.68151E-001,-7.16973E-002,-1.33266E-001,1.68757E-001,1.18310E+000,-4.96888E-003,0.00000E+000,2.88777E-003,9.33820E-001,0.00000E+000,-5.30709E-004,-8.04933E-002,1.00000E+000,27
749,1327,-7.75905E+000,-6.27529E-001,7.92302E-002,4.22218E+000,-5.59927E-001,1.25449E-001,4.26100E+000,1.13866E-002,5.14361E-001,0,6.51786E+001,-9.54877E+000,9.97615E-001,2.11613E+001,-4.69617E+001,9.97397E-001,1.68136E-001,-7.17019E-002,-7.98543E-004,1.68139E-001,-7.17045E-002,-1.90764E-001,1.68744E-001,1.18309E+000,-4.96901E-003,0.00000E+000,2.49116E-003,9.33817E-001,0.00000E+000,-1.27513E-003,-8.04997E-002,1.00000E+000,27
749,1337,-7.74941E+000,-2.69486E-002,2.90940E-002,4.21994E+000,-5.99704E-001,7.51159E-002,4.26300E+000,1.13274E-002,5.74893E-001,0,6.52980E+001,-1.01060E+001,9.97488E-001,2.13065E+001,-4.75720E+001,9.97549E-001,1.68122E-001,-7.17125E-002,-1.04057E-003,1.68126E-001,-7.17170E-002,-2.48584E-001,1.68730E-001,1.18307E+000,-4.96929E-003,0.00000E+000,2.09244E-003,9.33810E-001,0.00000E+000,-2.02353E-003,-8.05135E-002,1.00000E+000,27
749,1347,-7.73417E+000,5.73268E-001,5.24276E-003,4.21879E+000,-6.42875E-001,2.71828E-002,4.26758E+000,1.23475E-002,5.37299E-001,0,6.54244E+001,-1.06803E+001,9.97767E-001,2.16052E+001,-4.82945E+001,9.97650E-001,1.68107E-001,-7.17264E-002,-1.28320E-003,1.68114E-001,-7.17333E-002,-3.06544E-001,1.68715E-001,1.18306E+000,-4.96967E-003,0.00000E+000,1.69283E-003,9.33800E-001,0.00000E+000,-2.77359E-003,-8.05325E-002,1.00000E+000,27
1109,1297,2.01747E+001,-1.92721E+000,1.25965E-001,8.70194E+000,-1.38367E-001,7.48269E-002,8.70337E+000,1.26660E-002,4.93552E-001,0,1.30997E+002,-3.40824E+000,9.97468E-001,9.32998E+001,-3.35650E+001,9.95173E-001,1.68849E-001,-7.13659E-002,-1.80284E-003,1.68863E-001,-7.13794E-002,-4.29978E-001,1.69534E-001,1.18365E+000,-2.73537E-002,0.00000E+000,1.78356E-002,9.33112E-001,0.00000E+000,3.76223E-003,-6.81966E-002,1.00000E+000,27
1109,1307,2.01665E+001,-1.33100E+000,3.78489E-002,8.68720E+000,-1.83954E-001,2.56091E-002,8.68919E+000,1.45156E-002,4.30645E-001,0,1.30976E+002,-4.02582E+000,9.97807E-001,9.30918E+001,-3.41575E+001,9.97015E-001,1.69739E-001,-7.13714E-002,-1.87471E-003,1.69754E-001,-7.13859E-002,-4.45455E-001,1.70467E-001,1.18470E+000,-2.73429E-002,0.00000E+000,1.77058E-002,9.33110E-001,0.00000E+000,3.23639E-003,-6.82020E-002,1.00000E+000,27
1109,1317,2.01592E+001,-7.33546E-001,-3.04925E-002,8.66946E+000,-2.30916E-001,-1.94120E-002,8.67255E+000,1.66231E-002,4.28686E-001,0,1.30890E+002,-4.69672E+000,9.96691E-001,9.29279E+001,-3.47424E+001,9.95937E-001,1.70631E-001,-7.13778E-002,-1.94424E-003,1.70646E-001,-7.13935E-002,-4.60261E-001,1.71403E-001,1.18575E+000,-2.73260E-002,0.00000E+000,1.75758E-002,9.33108E-001,0.00000E+000,2.70921E-003,-6.82104E-002,1.00000E+000,27
749,1357,-7.71025E+000,1.17995E+000,2.95584E-002,4.21869E+000,-6.86281E-001,-1.26159E-002,4.27416E+000,1.47673E-002,5.40692E-001,0,6.55361E+001,-1.12874E+001,9.97795E-001,2.21602E+001,-4.90040E+001,9.97466E-001,1.68091E-001,-7.17460E-002,-1.52745E-003,1.68101E-001,-7.17558E-002,-3.64881E-001,1.68699E-001,1.18304E+000,-4.97024E-003,0.00000E+000,1.29072E-003,9.33785E-001,0.00000E+000,-3.52834E-003,-8.05603E-002,1.00000E+000,27
1109,1327,2.01545E+001,-1.34953E-001,-7.74829E-002,8.64955E+000,-2.79717E-001,-6.28373E-002,8.65430E+000,1.49455E-002,4.29644E-001,0,1.30759E+002,-5.39882E+000,9.95644E-001,9.28397E+001,-3.53549E+001,9.94734E-001,1.71523E-001,-7.13856E-002,-2.01078E-003,1.71540E-001,-7.14022E-002,-4.74246E-001,1.72340E-001,1.18681E+000,-2.73015E-002,0.00000E+000,1.74454E-002,9.33105E-001,0.00000E+000,2.18060E-003,-6.82227E-002,1.00000E+000,27
1109,1337,2.01589E+001,4.77930E-001,-9.38208E-002,8.63335E+000,-3.18589E-001,-9.73955E-002,8.63977E+000,1.58594E-002,4.70422E-001,0,1.30638E+002,-5.97110E+000,9.97338E-001,9.29430E+001,-3.57937E+001,9.97205E-001,1.72419E-001,-7.13947E-002,-2.07413E-003,1.72436E-001,-7.14124E-002,-4.87371E-001,1.73282E-001,1.18787E+000,-2.72683E-002,0.00000E+000,1.73143E-002,9.33101E-001,0.00000E+000,1.64954E-003,-6.82393E-002,1.00000E+000,27
1109,1347,2.01773E+001,1.09057E+000,-6.48365E-002,8.62172E+000,-3.62819E-001,-1.25229E-001,8.63026E+000,1.50773E-002,4.72894E-001,0,1.30551E+002,-6.63343E+000,9.97775E-001,9.33370E+001,-3.63572E+001,9.96940E-001,1.73317E-001,-7.14063E-002,-2.13157E-003,1.73335E-001,-7.14249E-002,-4.99004E-001,1.74227E-001,1.18894E+000,-2.72201E-002,0.00000E+000,1.71828E-002,9.33095E-001,0.00000E+000,1.11626E-003,-6.82634E-002,1.00000E+000,27
739,1337,-8.50911E+000,-3.99166E-002,3.05561E-002,4.10428E+000,-6.06911E-001,7.49062E-002,4.14959E+000,1.30234E-002,5.53672E-001,0,6.35541E+001,-1.01967E+001,9.97385E-001,1.96440E+001,-4.78918E+001,9.97102E-001,1.66609E-001,-7.10612E-002,-1.15654E-003,1.66615E-001,-7.10668E-002,-2.78800E-001,1.67214E-001,1.18129E+000,-4.92567E-003,0.00000E+000,1.82917E-003,9.34392E-001,0.00000E+000,-1.78209E-003,-8.01513E-002,1.00000E+000,27
739,1347,-8.49891E+000,5.64120E-001,8.52374E-003,4.09853E+000,-6.45940E-001,3.03745E-002,4.14923E+000,9.69477E-003,5.43943E-001,0,6.35971E+001,-1.07253E+001,9.98641E-001,1.98714E+001,-4.85480E+001,9.98707E-001,1.66374E-001,-7.10752E-002,-1.40988E-003,1.66383E-001,-7.10835E-002,-3.40183E-001,1.66969E-001,1.18101E+000,-4.93246E-003,0.00000E+000,1.42149E-003,9.34382E-001,0.00000E+000,-2.62041E-003,-8.01720E-002,1.00000E+000,27
739,1357,-8.47558E+000,1.17445E+000,3.27266E-002,4.09842E+000,-6.85051E-001,-7.57773E-003,4.15528E+000,1.09021E-002,5.31679E-001,0,6.37015E+001,-1.12635E+001,9.98154E-001,2.04201E+001,-4.92110E+001,9.98223E-001,1.66137E-001,-7.10948E-002,-1.66603E-003,1.66148E-001,-7.11065E-002,-4.02351E-001,1.66722E-001,1.18073E+000,-4.94243E-003,0.00000E+000,1.01147E-003,9.34367E-001,0.00000E+000,-3.46354E-003,-8.02023E-002,1.00000E+000,27
739,1327,-8.52074E+000,-6.35407E-001,7.78693E-002,4.10439E+000,-5.62020E-001,1.22233E-001,4.14449E+000,1.19920E-002,4.92092E-001,0,6.34103E+001,-9.55686E+000,9.98739E-001,1.94616E+001,-4.71960E+001,9.98486E-001,1.66844E-001,-7.10504E-002,-9.04429E-004,1.66847E-001,-7.10538E-002,-2.17824E-001,1.67457E-001,1.18156E+000,-4.92067E-003,0.00000E+000,2.23611E-003,9.34399E-001,0.00000E+000,-9.45279E-004,-8.01361E-002,1.00000E+000,27
1119,1297,2.09501E+001,-1.91182E+000,1.14645E-001,8.82078E+000,-1.26096E-001,7.86644E-002,8.82203E+000,1.34321E-002,4.47711E-001,0,1.32667E+002,-3.22522E+000,9.98556E-001,9.53680E+001,-3.32314E+001,9.97655E-001,1.69728E-001,-7.12628E-002,-1.99645E-003,1.69745E-001,-7.12793E-002,-4.74615E-001,1.70469E-001,1.18471E+000,-2.61335E-002,0.00000E+000,1.65012E-002,9.33259E-001,0.00000E+000,3.67534E-003,-6.85894E-002,1.00000E+000,27
1119,1307,2.09437E+001,-1.31726E+000,3.37927E-002,8.80636E+000,-1.74449E-001,3.10648E-002,8.80814E+000,1.24256E-002,4.20916E-001,0,1.32645E+002,-3.90566E+000,9.98357E-001,9.51993E+001,-3.38450E+001,9.98184E-001,1.70552E-001,-7.12648E-002,-2.01281E-003,1.70568E-001,-7.12815E-002,-4.76869E-001,1.71333E-001,1.18569E+000,-2.61214E-002,0.00000E+000,1.64835E-002,9.33258E-001,0.00000E+000,3.05152E-003,-6.85972E-002,1.00000E+000,27
1119,1317,2.09422E+001,-7.17978E-001,-2.93274E-002,8.79360E+000,-2.19839E-001,-1.18718E-002,8.79636E+000,1.37084E-002,4.06866E-001,0,1.32625E+002,-4.55877E+000,9.97330E-001,9.51347E+001,-3.44166E+001,9.97517E-001,1.71375E-001,-7.12670E-002,-2.02725E-003,1.71392E-001,-7.12839E-002,-4.78657E-001,1.72198E-001,1.18666E+000,-2.61046E-002,0.00000E+000,1.64658E-002,9.33258E-001,0.00000E+000,2.42678E-003,-6.86080E-002,1.00000E+000,27
1119,1327,2.09390E+001,-1.17126E-001,-7.54151E-002,8.77431E+000,-2.66821E-001,-5.74622E-002,8.77855E+000,1.22693E-002,4.06804E-001,0,1.32511E+002,-5.23200E+000,9.97309E-001,9.50707E+001,-3.49948E+001,9.97486E-001,1.72200E-001,-7.12697E-002,-2.03883E-003,1.72217E-001,-7.12867E-002,-4.79752E-001,1.73065E-001,1.18764E+000,-2.60806E-002,0.00000E+000,1.64480E-002,9.33258E-001,0.00000E+000,1.80013E-003,-6.86233E-002,1.00000E+000,27
1119,1337,2.09423E+001,4.88946E-001,-9.59052E-002,8.75626E+000,-3.13434E-001,-9.87423E-002,8.76243E+000,1.12805E-002,4.65702E-001,0,1.32392E+002,-5.91271E+000,9.98524E-001,9.51488E+001,-3.55196E+001,9.98058E-001,1.73028E-001,-7.12728E-002,-2.04732E-003,1.73045E-001,-7.12900E-002,-4.80111E-001,1.73937E-001,1.18862E+000,-2.60489E-002,0.00000E+000,1.64301E-002,9.33257E-001,0.00000E+000,1.17004E-003,-6.86437E-002,1.00000E+000,27
1119,1347,2.09571E+001,1.10064E+000,-7.16185E-002,8.74158E+000,-3.57947E-001,-1.28362E-001,8.74984E+000,1.65144E-002,4.40819E-001,0,1.32267E+002,-6.56923E+000,9.98473E-001,9.54772E+001,-3.60999E+001,9.97546E-001,1.73857E-001,-7.12767E-002,-2.05095E-003,1.73874E-001,-7.12939E-002,-4.79328E-001,1.74810E-001,1.18961E+000,-2.60052E-002,0.00000E+000,1.64122E-002,9.33256E-001,0.00000E+000,5.38488E-004,-6.86717E-002,1.00000E+000,27
739,1317,-8.51992E+000,-1.21809E+000,1.71350E-001,4.11028E+000,-5.10773E-001,1.80487E-001,4.14583E+000,1.56015E-002,5.52754E-001,0,6.33155E+001,-8.88291E+000,9.98452E-001,1.95907E+001,-4.63394E+001,9.97535E-001,1.67075E-001,-7.10447E-002,-6.55106E-004,1.67077E-001,-7.10465E-002,-1.57628E-001,1.67699E-001,1.18183E+000,-4.91850E-003,0.00000E+000,2.64047E-003,9.34402E-001,0.00000E+000,-1.13772E-004,-8.01295E-002,1.00000E+000,27
1129,1297,2.17235E+001,-1.88910E+000,1.10122E-001,8.93598E+000,-1.07064E-001,8.44908E-002,8.93702E+000,1.40250E-002,4.11975E-001,0,1.34267E+002,-2.94929E+000,9.99002E-001,9.74207E+001,-3.27940E+001,9.98081E-001,1.70343E-001,-7.13202E-002,-2.26186E-003,1.70364E-001,-7.13414E-002,-5.36201E-001,1.71112E-001,1.18546E+000,-2.50072E-002,0.00000E+000,1.51421E-002,9.33248E-001,0.00000E+000,3.08874E-003,-6.88579E-002,1.00000E+000,27
1129,1307,2.17167E+001,-1.30495E+000,2.03575E-002,8.92089E+000,-1.65969E-001,2.72706E-002,8.92248E+000,1.96813E-002,3.79282E-001,0,1.34278E+002,-3.77153E+000,9.98743E-001,9.72308E+001,-3.35513E+001,9.96186E-001,1.71220E-001,-7.13178E-002,-2.21106E-003,1.71240E-001,-7.13379E-002,-5.22272E-001,1.72032E-001,1.18650E+000,-2.49939E-002,0.00000E+000,1.52532E-002,9.33249E-001,0.00000E+000,2.40887E-003,-6.88666E-002,1.00000E+000,27
1129,1317,2.17206E+001,-7.07501E-001,-3.62451E-002,8.91312E+000,-2.13607E-001,-1.07241E-002,8.91569E+000,1.17446E-002,3.74202E-001,0,1.34315E+002,-4.47587E+000,9.98717E-001,9.72612E+001,-3.41584E+001,9.96856E-001,1.72097E-001,-7.13150E-002,-2.15798E-003,1.72116E-001,-7.13341E-002,-5.07905E-001,1.72954E-001,1.18754E+000,-2.49752E-002,0.00000E+000,1.53646E-002,9.33251E-001,0.00000E+000,1.72774E-003,-6.88788E-002,1.00000E+000,27
729,1347,-9.24861E+000,5.49940E-001,2.21150E-002,3.99174E+000,-6.55457E-001,3.77491E-002,4.04537E+000,8.59470E-003,5.49938E-001,0,6.19641E+001,-1.08739E+001,9.99225E-001,1.83992E+001,-4.89001E+001,9.99153E-001,1.64599E-001,-7.04817E-002,-1.23034E-003,1.64606E-001,-7.04882E-002,-2.99857E-001,1.65170E-001,1.17892E+000,-4.23538E-003,0.00000E+000,1.22254E-003,9.34846E-001,0.00000E+000,-2.71581E-003,-7.89578E-002,1.00000E+000,27
729,1357,-9.23251E+000,1.16670E+000,3.59179E-002,3.98575E+000,-6.87198E-001,-4.50012E-003,4.04456E+000,1.03189E-002,5.52607E-001,0,6.19887E+001,-1.12914E+001,9.98619E-001,1.88136E+001,-4.94368E+001,9.98657E-001,1.64077E-001,-7.04960E-002,-1.43421E-003,1.64086E-001,-7.05047E-002,-3.50298E-001,1.64626E-001,1.17831E+000,-4.25610E-003,0.00000E+000,9.37862E-004,9.34837E-001,0.00000E+000,-3.81369E-003,-7.89950E-002,1.00000E+000,27
1129,1327,2.17228E+001,-1.01932E-001,-7.45856E-002,8.89961E+000,-2.55228E-001,-4.63560E-002,8.90339E+000,1.40484E-002,3.99554E-001,0,1.34248E+002,-5.11093E+000,9.98453E-001,9.72921E+001,-3.46653E+001,9.97893E-001,1.72975E-001,-7.13118E-002,-2.10231E-003,1.72993E-001,-7.13299E-002,-4.93034E-001,1.73877E-001,1.18858E+000,-2.49504E-002,0.00000E+000,1.54761E-002,9.33254E-001,0.00000E+000,1.04538E-003,-6.88951E-002,1.00000E+000,27
729,1337,-9.26806E+000,-4.62108E-002,3.73923E-002,3.98928E+000,-6.07254E-001,8.17761E-002,4.03606E+000,1.18346E-002,5.43466E-001,0,6.17947E+001,-1.02014E+001,9.98074E-001,1.80131E+001,-4.81151E+001,9.97727E-001,1.65118E-001,-7.04705E-002,-1.02924E-003,1.65123E-001,-7.04750E-002,-2.50306E-001,1.65711E-001,1.17953E+000,-4.21944E-003,0.00000E+000,1.50621E-003,9.34854E-001,0.00000E+000,-1.62184E-003,-7.89292E-002,1.00000E+000,27
729,1327,-9.27810E+000,-6.39912E-001,8.42163E-002,3.98998E+000,-5.62525E-001,1.24014E-001,4.03134E+000,1.22400E-002,5.36730E-001,0,6.16756E+001,-9.56408E+000,9.98074E-001,1.78535E+001,-4.73611E+001,9.97631E-001,1.65633E-001,-7.04630E-002,-8.31746E-004,1.65636E-001,-7.04659E-002,-2.01845E-001,1.66249E-001,1.18013E+000,-4.20934E-003,0.00000E+000,1.78825E-003,9.34859E-001,0.00000E+000,-5.34130E-004,-7.89110E-002,1.00000E+000,27
1129,1337,2.17361E+001,5.05651E-001,-8.33912E-002,8.88550E+000,-3.05273E-001,-9.94856E-002,8.89130E+000,1.51794E-002,4.73228E-001,0,1.34230E+002,-5.80713E+000,9.98073E-001,9.75423E+001,-3.51823E+001,9.98145E-001,1.73861E-001,-7.13072E-002,-2.03852E-003,1.73878E-001,-7.13242E-002,-4.76358E-001,1.74811E-001,1.18964E+000,-2.49072E-002,0.00000E+000,1.55889E-002,9.33258E-001,0.00000E+000,3.54947E-004,-6.89235E-002,1.00000E+000,27
729,1317,-9.28152E+000,-1.22651E+000,1.63715E-001,3.99300E+000,-5.13669E-001,1.75877E-001,4.02975E+000,1.41783E-002,5.68996E-001,0,6.15589E+001,-8.90932E+000,9.98091E-001,1.78814E+001,-4.65478E+001,9.96996E-001,1.66145E-001,-7.04579E-002,-6.36402E-004,1.66146E-001,-7.04597E-002,-1.54110E-001,1.66783E-001,1.18074E+000,-4.20326E-003,0.00000E+000,2.06967E-003,9.34861E-001,0.00000E+000,5.51171E-004,-7.89001E-002,1.00000E+000,27
1129,1347,2.17434E+001,1.12112E+000,-7.50593E-002,8.86598E+000,-3.44711E-001,-1.33459E-001,8.87368E+000,1.81970E-002,4.77343E-001,0,1.34052E+002,-6.38800E+000,9.97804E-001,9.77267E+001,-3.56536E+001,9.96992E-001,1.74743E-001,-7.13027E-002,-1.97538E-003,1.74759E-001,-7.13186E-002,-4.59959E-001,1.75740E-001,1.19069E+000,-2.48648E-002,0.00000E+000,1.57013E-002,9.33263E-001,0.00000E+000,-3.32739E-004,-6.89512E-002,1.00000E+000,27
719,1347,-1.00113E+001,5.50553E-001,2.09643E-002,3.87297E+000,-6.48706E-001,3.80935E-002,3.92711E+000,1.38203E-002,5.72664E-001,0,6.01609E+001,-1.07656E+001,9.98420E-001,1.66976E+001,-4.89858E+001,9.98193E-001,1.63246E-001,-7.01631E-002,-1.10807E-003,1.63251E-001,-7.01684E-002,-2.71994E-001,1.63786E-001,1.17733E+000,-3.34330E-003,0.00000E+000,7.31692E-004,9.35046E-001,0.00000E+000,-2.45506E-003,-7.76044E-002,1.00000E+000,27
719,1357,-9.99715E+000,1.15666E+000,3.25497E-002,3.86540E+000,-6.91384E-001,-5.53626E-003,3.92675E+000,1.17624E-002,5.53859E-001,0,6.01678E+001,-1.13291E+001,9.98530E-001,1.70766E+001,-4.96944E+001,9.98424E-001,1.62466E-001,-7.01712E-002,-1.23591E-003,1.62473E-001,-7.01778E-002,-3.04378E-001,1.62974E-001,1.17641E+000,-3.37372E-003,0.00000E+000,6.08302E-004,9.35042E-001,0.00000E+000,-3.71364E-003,-7.76464E-002,1.00000E+000,27
719,1337,-1.00282E+001,-4.79723E-002,3.72545E-002,3.87213E+000,-6.04088E-001,7.88761E-002,3.91977E+000,1.55272E-002,5.79183E-001,0,6.00274E+001,-1.01431E+001,9.97020E-001,1.63518E+001,-4.82308E+001,9.96161E-001,1.64019E-001,-7.01570E-002,-9.84307E-004,1.64023E-001,-7.01611E-002,-2.40825E-001,1.64592E-001,1.17823E+000,-3.32087E-003,0.00000E+000,8.54396E-004,9.35049E-001,0.00000E+000,-1.20348E-003,-7.75735E-002,1.00000E+000,27
719,1327,-1.00350E+001,-6.40678E-001,9.00219E-002,3.87565E+000,-5.58905E-001,1.25403E-001,3.91775E+000,1.14145E-002,5.78257E-001,0,5.99397E+001,-9.51044E+000,9.96790E-001,1.62571E+001,-4.74691E+001,9.96231E-001,1.64786E-001,-7.01529E-002,-8.64518E-004,1.64789E-001,-7.01561E-002,-2.10831E-001,1.65394E-001,1.17914E+000,-3.30639E-003,0.00000E+000,9.76490E-004,9.35051E-001,0.00000E+000,4.18674E-005,-7.75535E-002,1.00000E+000,27
719,1317,-1.00393E+001,-1.22899E+000,1.76220E-001,3.87672E+000,-5.12311E-001,1.78191E-001,3.91448E+000,1.50492E-002,5.54865E-001,0,5.97911E+001,-8.87242E+000,9.96705E-001,1.62901E+001,-4.67224E+001,9.95723E-001,1.65549E-001,-7.01505E-002,-7.47902E-004,1.65551E-001,-7.01529E-002,-1.81804E-001,1.66192E-001,1.18004E+000,-3.29889E-003,0.00000E+000,1.09836E-003,9.35052E-001,0.00000E+000,1.28496E-003,-7.75432E-002,1.00000E+000,27
1139,1297,2.25170E+001,-1.88015E+000,1.12081E-001,9.06944E+000,-1.01469E-001,9.09604E-002,9.07046E+000,9.20943E-003,3.38392E-001,0,1.36138E+002,-2.88283E+000,9.99519E-001,9.98002E+001,-3.26006E+001,9.98573E-001,1.70854E-001,-7.14693E-002,-2.44431E-003,1.70878E-001,-7.14940E-002,-5.77863E-001,1.71635E-001,1.18609E+000,-2.38411E-002,0.00000E+000,1.39373E-002,9.33150E-001,0.00000E+000,2.07563E-003,-6.91800E-002,1.00000E+000,27
1139,1307,2.25080E+001,-1.29636E+000,1.49321E-002,9.05321E+000,-1.60790E-001,3.10952E-002,9.05469E+000,1.27663E-002,3.20795E-001,0,1.36146E+002,-3.70628E+000,9.99115E-001,9.95648E+001,-3.33389E+001,9.97975E-001,1.71855E-001,-7.14650E-002,-2.35732E-003,1.71877E-001,-7.14879E-002,-5.55022E-001,1.72686E-001,1.18728E+000,-2.38279E-002,0.00000E+000,1.41119E-002,9.33152E-001,0.00000E+000,1.44635E-003,-6.91870E-002,1.00000E+000,27
1139,1337,2.25191E+001,5.29555E-001,-8.11272E-002,9.00730E+000,-2.87298E-001,-9.52131E-002,9.01238E+000,1.54910E-002,5.08656E-001,0,1.35933E+002,-5.58121E+000,9.97500E-001,9.97566E+001,-3.46984E+001,9.96877E-001,1.74871E-001,-7.14443E-002,-2.06854E-003,1.74888E-001,-7.14617E-002,-4.81121E-001,1.75859E-001,1.19086E+000,-2.37247E-002,0.00000E+000,1.46398E-002,9.33167E-001,0.00000E+000,-4.56008E-004,-6.92418E-002,1.00000E+000,27
1139,1347,2.25394E+001,1.13878E+000,-5.70006E-002,8.99650E+000,-3.36140E-001,-1.29870E-001,9.00371E+000,1.60014E-002,5.06785E-001,0,1.35888E+002,-6.29614E+000,9.97327E-001,1.00166E+002,-3.53017E+001,9.96167E-001,1.75880E-001,-7.14347E-002,-1.96290E-003,1.75896E-001,-7.14503E-002,-4.54709E-001,1.76924E-001,1.19206E+000,-2.36685E-002,0.00000E+000,1.48169E-002,9.33175E-001,0.00000E+000,-1.09446E-003,-6.92716E-002,1.00000E+000,27
1139,1327,2.25114E+001,-8.68339E-002,-8.11401E-002,9.02696E+000,-2.47594E-001,-5.17457E-002,9.03051E+000,1.51272E-002,4.52624E-001,0,1.36076E+002,-5.00609E+000,9.98097E-001,9.95813E+001,-3.42906E+001,9.96566E-001,1.73862E-001,-7.14531E-002,-2.17133E-003,1.73881E-001,-7.14723E-002,-5.07083E-001,1.74796E-001,1.18966E+000,-2.37740E-002,0.00000E+000,1.44629E-002,9.33160E-001,0.00000E+000,1.81385E-004,-6.92156E-002,1.00000E+000,27
1139,1317,2.24992E+001,-6.97085E-001,-5.30951E-002,9.03371E+000,-2.06914E-001,-1.38705E-002,9.03609E+000,1.36710E-002,3.88658E-001,0,1.36036E+002,-4.39611E+000,9.99192E-001,9.93785E+001,-3.38563E+001,9.97531E-001,1.72856E-001,-7.14600E-002,-2.26758E-003,1.72877E-001,-7.14810E-002,-5.31719E-001,1.73738E-001,1.18846E+000,-2.38083E-002,0.00000E+000,1.42869E-002,9.33155E-001,0.00000E+000,8.15639E-004,-6.91974E-002,1.00000E+000,27
709,1347,-1.07786E+001,5.49999E-001,1.41176E-002,3.74930E+000,-6.43035E-001,3.31019E-002,3.80418E+000,1.34469E-002,5.48666E-001,0,5.82952E+001,-1.06385E+001,9.97861E-001,1.49162E+001,-4.91014E+001,9.97893E-001,1.61945E-001,-6.90918E-002,-1.23356E-003,1.61951E-001,-6.90984E-002,-3.05906E-001,1.62531E-001,1.17580E+000,-2.53194E-003,0.00000E+000,-1.67015E-004,9.35967E-001,0.00000E+000,-2.13862E-003,-7.64672E-002,1.00000E+000,27
709,1357,-1.07602E+001,1.15681E+000,2.66699E-002,3.74677E+000,-6.83453E-001,-6.52309E-003,3.80860E+000,1.25027E-002,5.45736E-001,0,5.83675E+001,-1.11981E+001,9.98407E-001,1.53652E+001,-4.97945E+001,9.98460E-001,1.61030E-001,-6.91037E-002,-1.42665E-003,1.61039E-001,-6.91126E-002,-3.55172E-001,1.61576E-001,1.17473E+000,-2.56637E-003,0.00000E+000,-4.12418E-004,9.35959E-001,0.00000E+000,-3.38647E-003,-7.65073E-002,1.00000E+000,27
709,1337,-1.07830E+001,-5.58514E-002,4.00433E-002,3.75937E+000,-6.07071E-001,7.55158E-002,3.80882E+000,1.22964E-002,5.63263E-001,0,5.83281E+001,-1.01616E+001,9.97647E-001,1.47851E+001,-4.84723E+001,9.97221E-001,1.62853E-001,-6.90835E-002,-1.04594E-003,1.62858E-001,-6.90882E-002,-2.58374E-001,1.63480E-001,1.17686E+000,-2.50825E-003,0.00000E+000,7.72330E-005,9.35972E-001,0.00000E+000,-8.96653E-004,-7.64396E-002,1.00000E+000,27
709,1317,-1.07919E+001,-1.22972E+000,1.95793E-001,3.76427E+000,-5.10145E-001,1.83061E-001,3.80309E+000,1.54416E-002,5.71272E-001,0,5.80721E+001,-8.83995E+000,9.97909E-001,1.48009E+001,-4.68692E+001,9.97679E-001,1.64652E-001,-6.90749E-002,-6.83205E-004,1.64654E-001,-6.90769E-002,-1.67479E-001,1.65363E-001,1.17898E+000,-2.48531E-003,0.00000E+000,5.62906E-004,9.35978E-001,0.00000E+000,1.57293E-003,-7.64129E-002,1.00000E+000,27
709,1327,-1.07858E+001,-6.43330E-001,1.06385E-001,3.76469E+000,-5.58271E-001,1.24320E-001,3.80789E+000,1.71285E-002,5.99988E-001,0,5.82600E+001,-9.50062E+000,9.98024E-001,1.47878E+001,-4.76380E+001,9.97293E-001,1.63754E-001,-6.90785E-002,-8.63602E-004,1.63758E-001,-6.90818E-002,-2.12512E-001,1.64423E-001,1.17792E+000,-2.49482E-003,0.00000E+000,3.20238E-004,9.35976E-001,0.00000E+000,3.38996E-004,-7.64240E-002,1.00000E+000,27
1149,1297,2.32979E+001,-1.87198E+000,9.78387E-002,9.19169E+000,-9.80442E-002,8.91770E-002,9.19265E+000,2.21037E-002,3.77604E-001,0,1.37873E+002,-2.84846E+000,9.98600E-001,1.01961E+002,-3.23304E+001,9.95600E-001,1.71307E-001,-7.15805E-002,-2.60965E-003,1.71335E-001,-7.16086E-002,-6.15506E-001,1.72102E-001,1.18665E+000,-2.27488E-002,0.00000E+000,1.28475E-002,9.33107E-001,0.00000E+000,7.15597E-004,-6.98385E-002,1.00000E+000,27
1149,1307,2.33023E+001,-1.27143E+000,1.83947E-002,9.18763E+000,-1.40599E-001,4.20052E-002,9.18880E+000,1.41958E-002,3.89811E-001,0,1.38006E+002,-3.47303E+000,9.98932E-001,1.01964E+002,-3.28281E+001,9.97259E-001,1.72431E-001,-7.15766E-002,-2.52785E-003,1.72457E-001,-7.16028E-002,-5.93483E-001,1.73282E-001,1.18798E+000,-2.27313E-002,0.00000E+000,1.30006E-002,9.33109E-001,0.00000E+000,2.00623E-004,-6.98453E-002,1.00000E+000,27
1149,1317,2.32971E+001,-6.73594E-001,-4.48888E-002,9.16942E+000,-1.89891E-001,-6.85915E-003,9.17139E+000,1.31048E-002,4.24997E-001,0,1.37931E+002,-4.18380E+000,9.98754E-001,1.01841E+002,-3.33924E+001,9.97051E-001,1.73558E-001,-7.15717E-002,-2.44198E-003,1.73583E-001,-7.15960E-002,-5.70705E-001,1.74467E-001,1.18932E+000,-2.27047E-002,0.00000E+000,1.31544E-002,9.33112E-001,0.00000E+000,-3.16759E-004,-6.98556E-002,1.00000E+000,27
1149,1327,2.32963E+001,-6.57277E-002,-8.84656E-002,9.15124E+000,-2.30064E-001,-5.37864E-002,9.15429E+000,1.35649E-002,3.96265E-001,0,1.37838E+002,-4.75329E+000,9.98431E-001,1.01817E+002,-3.38763E+001,9.96684E-001,1.74684E-001,-7.15660E-002,-2.35253E-003,1.74707E-001,-7.15884E-002,-5.47303E-001,1.75652E-001,1.19066E+000,-2.26692E-002,0.00000E+000,1.33083E-002,9.33116E-001,0.00000E+000,-8.34059E-004,-6.98693E-002,1.00000E+000,27
1149,1337,2.33084E+001,5.38919E-001,-9.34519E-002,9.13746E+000,-2.82857E-001,-9.55486E-002,9.14234E+000,2.05383E-002,4.86153E-001,0,1.37786E+002,-5.51888E+000,9.98275E-001,1.02051E+002,-3.44360E+001,9.97537E-001,1.75821E-001,-7.15585E-002,-2.25518E-003,1.75842E-001,-7.15791E-002,-5.22267E-001,1.76851E-001,1.19202E+000,-2.26165E-002,0.00000E+000,1.34638E-002,9.33122E-001,0.00000E+000,-1.35735E-003,-6.98896E-002,1.00000E+000,27
1149,1347,2.33348E+001,1.15130E+000,-5.47377E-002,9.12874E+000,-3.31684E-001,-1.30721E-001,9.13569E+000,1.93158E-002,4.85704E-001,0,1.37769E+002,-6.22348E+000,9.98367E-001,1.02575E+002,-3.50197E+001,9.97286E-001,1.76959E-001,-7.15492E-002,-2.15005E-003,1.76978E-001,-7.15678E-002,-4.95663E-001,1.78053E-001,1.19337E+000,-2.25451E-002,0.00000E+000,1.36198E-002,9.33130E-001,0.00000E+000,-1.88196E-003,-6.99172E-002,1.00000E+000,27
699,1347,-1.15238E+001,5.44190E-001,2.32500E-002,3.64589E+000,-6.45079E-001,3.63501E-002,3.70270E+000,1.37354E-002,5.66852E-001,0,5.67180E+001,-1.06541E+001,9.98474E-001,1.35199E+001,-4.93086E+001,9.98428E-001,1.60508E-001,-6.81331E-002,-1.09259E-003,1.60514E-001,-6.81383E-002,-2.73786E-001,1.61122E-001,1.17411E+000,-1.16622E-003,0.00000E+000,-1.00393E-003,9.36767E-001,0.00000E+000,-1.85685E-003,-7.51000E-002,1.00000E+000,27
699,1357,-1.15093E+001,1.14434E+000,3.35585E-002,3.63991E+000,-6.91681E-001,-3.78239E-003,3.70505E+000,1.33313E-002,5.58325E-001,0,5.67395E+001,-1.13057E+001,9.98395E-001,1.39025E+001,-5.01047E+001,9.98287E-001,1.59524E-001,-6.81419E-002,-1.24681E-003,1.59531E-001,-6.81487E-002,-3.13766E-001,1.60094E-001,1.17296E+000,-1.20231E-003,0.00000E+000,-1.19028E-003,9.36761E-001,0.00000E+000,-2.92112E-003,-7.51333E-002,1.00000E+000,27
699,1337,-1.15403E+001,-6.48600E-002,4.91184E-002,3.64381E+000,-6.11154E-001,7.97292E-002,3.69557E+000,1.05482E-002,5.54613E-001,0,5.65611E+001,-1.02152E+001,9.98288E-001,1.31996E+001,-4.87418E+001,9.98352E-001,1.61488E-001,-6.81269E-002,-9.43226E-004,1.61492E-001,-6.81308E-002,-2.35357E-001,1.62148E-001,1.17526E+000,-1.14063E-003,0.00000E+000,-8.18052E-004,9.36771E-001,0.00000E+000,-7.95219E-004,-7.50764E-002,1.00000E+000,27
699,1317,-1.15520E+001,-1.23042E+000,2.12480E-001,3.64369E+000,-5.09010E-001,1.82838E-001,3.68361E+000,1.53084E-002,6.28564E-001,0,5.62396E+001,-8.82071E+000,9.98476E-001,1.31971E+001,-4.69902E+001,9.97978E-001,1.63424E-001,-6.81218E-002,-6.60149E-004,1.63426E-001,-6.81236E-002,-1.63351E-001,1.64177E-001,1.17754E+000,-1.12015E-003,0.00000E+000,-4.49744E-004,9.36775E-001,0.00000E+000,1.30831E-003,-7.50575E-002,1.00000E+000,27
699,1327,-1.15466E+001,-6.44312E-001,1.16842E-001,3.64501E+000,-5.57419E-001,1.26992E-001,3.68957E+000,1.20312E-002,6.97262E-001,0,5.64329E+001,-9.48879E+000,9.98459E-001,1.31543E+001,-4.77324E+001,9.97194E-001,1.62455E-001,-6.81236E-002,-8.00687E-004,1.62458E-001,-6.81264E-002,-1.98957E-001,1.63161E-001,1.17640E+000,-1.12739E-003,0.00000E+000,-6.34276E-004,9.36774E-001,0.00000E+000,2.54385E-004,-7.50641E-002,1.00000E+000,27
1159,1307,2.40781E+001,-1.26409E+000,-3.38713E-003,9.30430E+000,-1.37348E-001,3.25515E-002,9.30537E+000,1.69384E-002,3.89796E-001,0,1.39687E+002,-3.41923E+000,9.96557E-001,1.04041E+002,-3.25729E+001,9.94794E-001,1.73113E-001,-7.19243E-002,-2.56767E-003,1.73140E-001,-7.19512E-002,-6.00297E-001,1.73960E-001,1.18881E+000,-2.17003E-002,0.00000E+000,1.21887E-002,9.32822E-001,0.00000E+000,-1.11162E-003,-7.02288E-002,1.00000E+000,27
1159,1317,2.40822E+001,-6.57106E-001,-6.28700E-002,9.29533E+000,-1.78332E-001,-1.26087E-002,9.29705E+000,1.73572E-002,4.49992E-001,0,1.39733E+002,-4.01534E+000,9.97074E-001,1.04069E+002,-3.29879E+001,9.96810E-001,1.74319E-001,-7.19248E-002,-2.55335E-003,1.74345E-001,-7.19512E-002,-5.94026E-001,1.75229E-001,1.19024E+000,-2.16715E-002,0.00000E+000,1.22054E-002,9.32822E-001,0.00000E+000,-1.61977E-003,-7.02390E-002,1.00000E+000,27
1159,1327,2.40925E+001,-5.25266E-002,-8.60347E-002,9.28572E+000,-2.24508E-001,-4.84787E-002,9.28856E+000,1.16461E-002,4.11021E-001,0,1.39725E+002,-4.68016E+000,9.98636E-001,1.04248E+002,-3.35693E+001,9.97877E-001,1.75526E-001,-7.19254E-002,-2.53302E-003,1.75552E-001,-7.19513E-002,-5.86423E-001,1.76500E-001,1.19168E+000,-2.16280E-002,0.00000E+000,1.22221E-002,9.32823E-001,0.00000E+000,-2.12893E-003,-7.02544E-002,1.00000E+000,27
1159,1297,2.40774E+001,-1.85955E+000,7.25789E-002,9.31288E+000,-8.97622E-002,7.92651E-002,9.31365E+000,1.65083E-002,4.43399E-001,0,1.39622E+002,-2.73856E+000,9.97461E-001,1.04090E+002,-3.19574E+001,9.93498E-001,1.71912E-001,-7.19238E-002,-2.57858E-003,1.71939E-001,-7.19511E-002,-6.05815E-001,1.72700E-001,1.18738E+000,-2.17208E-002,0.00000E+000,1.21721E-002,9.32821E-001,0.00000E+000,-6.06682E-004,-7.02216E-002,1.00000E+000,27
1159,1337,2.41154E+001,5.51657E-001,-7.78038E-002,9.27899E+000,-2.78253E-001,-9.09154E-002,9.28361E+000,1.57621E-002,4.31014E-001,0,1.39777E+002,-5.45327E+000,9.99330E-001,1.04667E+002,-3.41976E+001,9.99059E-001,1.76740E-001,-7.19263E-002,-2.50415E-003,1.76765E-001,-7.19515E-002,-5.76909E-001,1.77780E-001,1.19313E+000,-2.15637E-002,0.00000E+000,1.22389E-002,9.32823E-001,0.00000E+000,-2.64206E-003,-7.02772E-002,1.00000E+000,27
1159,1347,2.41329E+001,1.16541E+000,-5.53905E-002,9.26387E+000,-3.22856E-001,-1.31580E-001,9.27042E+000,1.72687E-002,4.34247E-001,0,1.39689E+002,-6.10565E+000,9.98559E-001,1.05025E+002,-3.47214E+001,9.97942E-001,1.77952E-001,-7.19272E-002,-2.47264E-003,1.77976E-001,-7.19517E-002,-5.66888E-001,1.79060E-001,1.19458E+000,-2.14927E-002,0.00000E+000,1.22558E-002,9.32824E-001,0.00000E+000,-3.15499E-003,-7.03023E-002,1.00000E+000,27
689,1347,-1.22767E+001,5.34737E-001,3.08923E-002,3.53393E+000,-6.50881E-001,3.56082E-002,3.59355E+000,1.19387E-002,5.92657E-001,0,5.50182E+001,-1.07264E+001,9.98954E-001,1.20058E+001,-4.95662E+001,9.98255E-001,1.58980E-001,-6.73917E-002,-1.08556E-003,1.58986E-001,-6.73969E-002,-2.74751E-001,1.59598E-001,1.17232E+000,6.75698E-005,0.00000E+000,-1.97175E-003,9.37406E-001,0.00000E+000,-1.86144E-003,-7.43254E-002,1.00000E+000,27
689,1357,-1.22647E+001,1.13366E+000,3.36804E-002,3.52773E+000,-6.96212E-001,-2.85111E-004,3.59577E+000,1.27565E-002,5.62001E-001,0,5.50244E+001,-1.13648E+001,9.98568E-001,1.23309E+001,-5.03777E+001,9.98676E-001,1.57805E-001,-6.74011E-002,-1.27462E-003,1.57813E-001,-6.74083E-002,-3.24268E-001,1.58370E-001,1.17094E+000,2.93123E-005,0.00000E+000,-2.23216E-003,9.37399E-001,0.00000E+000,-2.80548E-003,-7.43517E-002,1.00000E+000,27
689,1337,-1.22876E+001,-5.84597E-002,5.51835E-002,3.53834E+000,-5.99685E-001,8.27157E-002,3.58975E+000,1.28318E-002,5.56792E-001,0,5.49478E+001,-1.00287E+001,9.98890E-001,1.17706E+001,-4.87610E+001,9.98918E-001,1.60155E-001,-6.73838E-002,-8.98739E-004,1.60159E-001,-6.73874E-002,-2.26304E-001,1.60828E-001,1.17369E+000,9.99447E-005,0.00000E+000,-1.71085E-003,9.37413E-001,0.00000E+000,-9.15609E-004,-7.43032E-002,1.00000E+000,27
1169,1327,2.48762E+001,-4.18745E-002,-9.63303E-002,9.40775E+000,-2.19489E-001,-5.37575E-002,9.41046E+000,1.10933E-002,4.25923E-001,0,1.41465E+002,-4.61702E+000,9.99094E-001,1.06468E+002,-3.32757E+001,9.98495E-001,1.76131E-001,-7.22172E-002,-2.47189E-003,1.76156E-001,-7.22418E-002,-5.70206E-001,1.77103E-001,1.19243E+000,-2.05009E-002,0.00000E+000,1.15344E-002,9.32565E-001,0.00000E+000,-3.48539E-003,-7.03423E-002,1.00000E+000,27
1169,1337,2.49025E+001,5.71674E-001,-7.72892E-002,9.40237E+000,-2.64192E-001,-9.28145E-002,9.40654E+000,1.45533E-002,4.20964E-001,0,1.41519E+002,-5.26259E+000,9.99257E-001,1.06955E+002,-3.37928E+001,9.98657E-001,1.77325E-001,-7.22221E-002,-2.47384E-003,1.77349E-001,-7.22466E-002,-5.67918E-001,1.78361E-001,1.19385E+000,-2.04332E-002,0.00000E+000,1.14861E-002,9.32563E-001,0.00000E+000,-3.90570E-003,-7.03622E-002,1.00000E+000,27
1169,1347,2.49298E+001,1.18157E+000,-4.56816E-002,9.39491E+000,-3.14317E-001,-1.31772E-001,9.40109E+000,1.42327E-002,4.14651E-001,0,1.41538E+002,-5.99561E+000,9.98448E-001,1.07476E+002,-3.43993E+001,9.98158E-001,1.78519E-001,-7.22273E-002,-2.47318E-003,1.78543E-001,-7.22517E-002,-5.65050E-001,1.79621E-001,1.19528E+000,-2.03588E-002,0.00000E+000,1.14376E-002,9.32561E-001,0.00000E+000,-4.32671E-003,-7.03841E-002,1.00000E+000,27
689,1327,-1.23091E+001,-6.53365E-001,1.04002E-001,3.52641E+000,-5.58516E-001,1.23336E-001,3.57249E+000,1.41204E-002,6.35578E-001,0,5.46413E+001,-9.47089E+000,9.97971E-001,1.14372E+001,-4.79809E+001,9.97540E-001,1.61316E-001,-6.73789E-002,-7.18717E-004,1.61319E-001,-6.73812E-002,-1.80060E-001,1.62046E-001,1.17506E+000,1.20347E-004,0.00000E+000,-1.45246E-003,9.37416E-001,0.00000E+000,2.10978E-005,-7.42891E-002,1.00000E+000,27
1169,1317,2.48686E+001,-6.47334E-001,-5.99254E-002,9.41980E+000,-1.71806E-001,-6.44497E-003,9.42137E+000,2.06129E-002,3.69237E-001,0,1.41461E+002,-3.94348E+000,9.98173E-001,1.06352E+002,-3.27859E+001,9.98002E-001,1.74941E-001,-7.22137E-002,-2.45962E-003,1.74965E-001,-7.22382E-002,-5.70119E-001,1.75849E-001,1.19101E+000,-2.05432E-002,0.00000E+000,1.15825E-002,9.32567E-001,0.00000E+000,-3.06675E-003,-7.03298E-002,1.00000E+000,27
1169,1307,2.48615E+001,-1.25241E+000,-1.18435E-002,9.42729E+000,-1.31474E-001,3.31761E-002,9.42826E+000,1.71725E-002,4.28450E-001,0,1.41417E+002,-3.34791E+000,9.98077E-001,1.06260E+002,-3.22591E+001,9.97057E-001,1.73761E-001,-7.22109E-002,-2.44327E-003,1.73785E-001,-7.22351E-002,-5.69051E-001,1.74607E-001,1.18960E+000,-2.05747E-002,0.00000E+000,1.16302E-002,9.32568E-001,0.00000E+000,-2.65240E-003,-7.03205E-002,1.00000E+000,27
1169,1297,2.48645E+001,-1.84839E+000,6.89507E-002,9.43874E+000,-8.33586E-002,8.09693E-002,9.43945E+000,1.38572E-002,4.89013E-001,0,1.41388E+002,-2.68541E+000,9.98433E-001,1.06374E+002,-3.16599E+001,9.95679E-001,1.72579E-001,-7.22087E-002,-2.42151E-003,1.72603E-001,-7.22326E-002,-5.66714E-001,1.73366E-001,1.18819E+000,-2.05931E-002,0.00000E+000,1.16778E-002,9.32569E-001,0.00000E+000,-2.23805E-003,-7.03151E-002,1.00000E+000,27
689,1317,-1.23143E+001,-1.23839E+000,1.95955E-001,3.52504E+000,-5.10830E-001,1.74797E-001,3.56614E+000,1.63624E-002,6.01038E-001,0,5.44615E+001,-8.79917E+000,9.97822E-001,1.14734E+001,-4.71954E+001,9.96008E-001,1.62473E-001,-6.73771E-002,-5.44201E-004,1.62475E-001,-6.73784E-002,-1.35654E-001,1.63261E-001,1.17642E+000,1.28537E-004,0.00000E+000,-1.19454E-003,9.37418E-001,0.00000E+000,9.56100E-004,-7.42835E-002,1.00000E+000,27
679,1347,-1.30390E+001,5.28546E-001,2.53361E-002,3.41404E+000,-6.48640E-001,3.15793E-002,3.47526E+000,1.89514E-002,6.14850E-001,0,5.32010E+001,-1.07151E+001,9.98030E-001,1.03183E+001,-4.97480E+001,9.97781E-001,1.57398E-001,-6.66970E-002,-1.12091E-003,1.57403E-001,-6.67026E-002,-2.86580E-001,1.58012E-001,1.17046E+000,1.39495E-003,0.00000E+000,-3.10001E-003,9.38011E-001,0.00000E+000,-1.84220E-003,-7.36853E-002,1.00000E+000,27
679,1357,-1.30118E+001,1.12799E+000,2.70158E-002,3.42470E+000,-6.94554E-001,2.77627E-003,3.49442E+000,9.42807E-003,5.78871E-001,0,5.34494E+001,-1.13384E+001,9.98673E-001,1.08760E+001,-5.05513E+001,9.98768E-001,1.55931E-001,-6.67108E-002,-1.43466E-003,1.55941E-001,-6.67200E-002,-3.69181E-001,1.56481E-001,1.16875E+000,1.35148E-003,0.00000E+000,-3.59780E-003,9.37998E-001,0.00000E+000,-2.72502E-003,-7.37077E-002,1.00000E+000,27
1179,1297,2.56431E+001,-1.84208E+000,4.41489E-002,9.56026E+000,-7.94433E-002,7.96233E-002,9.56092E+000,2.22698E-002,5.33407E-001,0,1.43105E+002,-2.66026E+000,9.98998E-001,1.08500E+002,-3.13942E+001,9.96807E-001,1.73057E-001,-7.23604E-002,-2.40525E-003,1.73080E-001,-7.23840E-002,-5.61463E-001,1.73851E-001,1.18878E+000,-1.97921E-002,0.00000E+000,1.11859E-002,9.32466E-001,0.00000E+000,-3.94005E-003,-7.08027E-002,1.00000E+000,27
1179,1307,2.56491E+001,-1.24446E+000,-2.54745E-002,9.55525E+000,-1.25232E-001,3.31138E-002,9.55613E+000,1.06829E-002,3.82798E-001,0,1.43223E+002,-3.28200E+000,9.99164E-001,1.08543E+002,-3.20337E+001,9.97950E-001,1.74140E-001,-7.23595E-002,-2.37459E-003,1.74163E-001,-7.23824E-002,-5.51877E-001,1.74988E-001,1.19007E+000,-1.97702E-002,0.00000E+000,1.12253E-002,9.32467E-001,0.00000E+000,-4.18305E-003,-7.08068E-002,1.00000E+000,27
1179,1317,2.56522E+001,-6.38543E-001,-1.05045E-001,9.54836E+000,-1.63792E-001,-1.93108E-002,9.54979E+000,2.39050E-002,3.43093E-001,0,1.43334E+002,-3.80982E+000,9.99167E-001,1.08527E+002,-3.24678E+001,9.98527E-001,1.75224E-001,-7.23587E-002,-2.34474E-003,1.75247E-001,-7.23809E-002,-5.42557E-001,1.76128E-001,1.19136E+000,-1.97503E-002,0.00000E+000,1.12648E-002,9.32468E-001,0.00000E+000,-4.42652E-003,-7.08105E-002,1.00000E+000,27
1179,1337,2.56930E+001,5.79490E-001,-9.31174E-002,9.52926E+000,-2.61694E-001,-1.08667E-001,9.53347E+000,1.24059E-002,4.22365E-001,0,1.43371E+002,-5.22941E+000,9.98928E-001,1.09275E+002,-3.35353E+001,9.97714E-001,1.77420E-001,-7.23553E-002,-2.25236E-003,1.77440E-001,-7.23756E-002,-5.16612E-001,1.78441E-001,1.19398E+000,-1.96324E-002,0.00000E+000,1.13449E-002,9.32471E-001,0.00000E+000,-4.92057E-003,-7.08327E-002,1.00000E+000,27
1179,1347,2.57329E+001,1.19672E+000,-4.73752E-002,9.53178E+000,-3.07336E-001,-1.42834E-001,9.53780E+000,1.21026E-002,4.23184E-001,0,1.43516E+002,-5.89075E+000,9.98973E-001,1.10012E+002,-3.40525E+001,9.98527E-001,1.78521E-001,-7.23533E-002,-2.20014E-003,1.78540E-001,-7.23725E-002,-5.02427E-001,1.79603E-001,1.19530E+000,-1.95588E-002,0.00000E+000,1.13852E-002,9.32473E-001,0.00000E+000,-5.16887E-003,-7.08466E-002,1.00000E+000,27
679,1327,-1.30631E+001,-6.59527E-001,1.12452E-001,3.41394E+000,-5.58925E-001,1.29809E-001,3.46183E+000,1.68857E-002,5.91780E-001,0,5.29114E+001,-9.46537E+000,9.97417E-001,9.91436E+000,-4.82205E+001,9.96674E-001,1.60300E-001,-6.66772E-002,-5.08132E-004,1.60301E-001,-6.66783E-002,-1.28267E-001,1.61054E-001,1.17386E+000,1.45824E-003,0.00000E+000,-2.11173E-003,9.38029E-001,0.00000E+000,-8.95148E-005,-7.36526E-002,1.00000E+000,27
679,1337,-1.30500E+001,-6.57310E-002,5.13747E-002,3.41838E+000,-6.01195E-001,8.17915E-002,3.47181E+000,1.93241E-002,5.82448E-001,0,5.31229E+001,-1.00436E+001,9.97940E-001,1.00849E+001,-4.89598E+001,9.97917E-001,1.58854E-001,-6.66841E-002,-8.10061E-004,1.58857E-001,-6.66870E-002,-2.05785E-001,1.59537E-001,1.17217E+000,1.43535E-003,0.00000E+000,-2.60469E-003,9.38022E-001,0.00000E+000,-9.63772E-004,-7.36644E-002,1.00000E+000,27
1179,1327,2.56652E+001,-3.73644E-002,-1.08618E-001,9.53552E+000,-2.17679E-001,-5.75580E-002,9.53817E+000,1.67533E-002,3.86545E-001,0,1.43285E+002,-4.61788E+000,9.99031E-001,1.08772E+002,-3.30997E+001,9.97104E-001,1.76319E-001,-7.23571E-002,-2.30189E-003,1.76341E-001,-7.23784E-002,-5.30301E-001,1.77281E-001,1.19267E+000,-1.96994E-002,0.00000E+000,1.13047E-002,9.32469E-001,0.00000E+000,-4.67276E-003,-7.08201E-002,1.00000E+000,27
679,1317,-1.30692E+001,-1.24446E+000,2.08392E-001,3.41169E+000,-5.11429E-001,1.85919E-001,3.45481E+000,1.37802E-002,6.34629E-001,0,5.27057E+001,-8.84345E+000,9.98146E-001,9.94710E+000,-4.74015E+001,9.96793E-001,1.61739E-001,-6.66745E-002,-2.12390E-004,1.61739E-001,-6.66747E-002,-5.32764E-002,1.62568E-001,1.17555E+000,1.46857E-003,0.00000E+000,-1.62013E-003,9.38032E-001,0.00000E+000,7.82326E-004,-7.36473E-002,1.00000E+000,27
669,1327,-1.38119E+001,-6.74938E-001,1.10742E-001,3.30691E+000,-5.67528E-001,1.30090E-001,3.35778E+000,1.19784E-002,5.67721E-001,0,5.12842E+001,-9.59289E+000,9.99126E-001,8.44533E+000,-4.85702E+001,9.98680E-001,1.59147E-001,-6.60608E-002,-2.27589E-004,1.59147E-001,-6.60610E-002,-5.79016E-002,1.59910E-001,1.17250E+000,3.59391E-003,0.00000E+000,-3.26572E-003,9.38535E-001,0.00000E+000,-3.77977E-004,-7.26429E-002,1.00000E+000,27
669,1337,-1.38019E+001,-7.21558E-002,5.32579E-002,3.30791E+000,-6.02774E-001,8.33450E-002,3.36341E+000,1.19608E-002,5.95649E-001,0,5.14353E+001,-1.00534E+001,9.98429E-001,8.58043E+000,-4.91628E+001,9.98386E-001,1.57352E-001,-6.60686E-002,-6.00304E-004,1.57354E-001,-6.60702E-002,-1.53945E-001,1.58026E-001,1.17040E+000,3.56446E-003,0.00000E+000,-3.89698E-003,9.38526E-001,0.00000E+000,-1.17232E-003,-7.26541E-002,1.00000E+000,27
669,1347,-1.37873E+001,5.21467E-001,2.16057E-002,3.31060E+000,-6.48091E-001,4.59238E-002,3.37375E+000,1.03444E-002,5.90450E-001,0,5.15869E+001,-1.07002E+001,9.98307E-001,8.85459E+000,-4.99690E+001,9.98234E-001,1.55555E-001,-6.60794E-002,-9.76981E-004,1.55559E-001,-6.60837E-002,-2.52558E-001,1.56144E-001,1.16830E+000,3.52566E-003,0.00000E+000,-4.52798E-003,9.38514E-001,0.00000E+000,-1.96633E-003,-7.26687E-002,1.00000E+000,27
669,1357,-1.37625E+001,1.12904E+000,2.92108E-002,3.31595E+000,-6.85923E-001,5.80466E-003,3.38616E+000,1.05840E-002,5.75244E-001,0,5.17803E+001,-1.12166E+001,9.98276E-001,9.39446E+000,-5.06522E+001,9.98423E-001,1.53743E-001,-6.60984E-002,-1.36608E-003,1.53751E-001,-6.61069E-002,-3.56013E-001,1.54254E-001,1.16619E+000,3.46265E-003,0.00000E+000,-5.16240E-003,9.38495E-001,0.00000E+000,-2.76464E-003,-7.26926E-002,1.00000E+000,27
1189,1337,2.64909E+001,5.89804E-001,-1.05340E-001,9.66264E+000,-2.58947E-001,-1.22599E-001,9.66689E+000,1.55287E-002,4.22642E-001,0,1.45310E+002,-5.16672E+000,9.99112E-001,1.11723E+002,-3.32469E+001,9.98297E-001,1.77077E-001,-7.26116E-002,-2.02660E-003,1.77093E-001,-7.26281E-002,-4.65003E-001,1.78044E-001,1.19359E+000,-1.89021E-002,0.00000E+000,1.12506E-002,9.32234E-001,0.00000E+000,-5.62979E-003,-7.08459E-002,1.00000E+000,27
669,1317,-1.38147E+001,-1.25390E+000,2.20493E-001,3.30680E+000,-5.14526E-001,1.93191E-001,3.35216E+000,1.42577E-002,6.11230E-001,0,5.10909E+001,-8.91232E+000,9.99011E-001,8.56996E+000,-4.76861E+001,9.98782E-001,1.60927E-001,-6.60600E-002,1.34266E-004,1.60927E-001,-6.60601E-002,3.38913E-002,1.61784E-001,1.17459E+000,3.60261E-003,0.00000E+000,-2.63790E-003,9.38537E-001,0.00000E+000,4.12022E-004,-7.26397E-002,1.00000E+000,27
1189,1297,2.64413E+001,-1.83271E+000,5.77386E-002,9.69071E+000,-7.62385E-002,7.66497E-002,9.69131E+000,1.58596E-002,4.74579E-001,0,1.44946E+002,-2.62149E+000,9.98754E-001,1.10990E+002,-3.12124E+001,9.96547E-001,1.73428E-001,-7.26103E-002,-2.08997E-003,1.73445E-001,-7.26281E-002,-4.86652E-001,1.74207E-001,1.18924E+000,-1.90304E-002,0.00000E+000,1.12897E-002,9.32235E-001,0.00000E+000,-5.67898E-003,-7.08473E-002,1.00000E+000,27
1189,1307,2.64338E+001,-1.23889E+000,-3.91952E-002,9.67668E+000,-1.26494E-001,2.08319E-002,9.67753E+000,1.25149E-002,4.21953E-001,0,1.44976E+002,-3.29412E+000,9.98144E-001,1.10784E+002,-3.18034E+001,9.97748E-001,1.74335E-001,-7.26105E-002,-2.08283E-003,1.74353E-001,-7.26281E-002,-4.83207E-001,1.75160E-001,1.19032E+000,-1.90194E-002,0.00000E+000,1.12800E-002,9.32235E-001,0.00000E+000,-5.66677E-003,-7.08472E-002,1.00000E+000,27
1189,1317,2.64529E+001,-6.20151E-001,-8.22435E-002,9.67618E+000,-1.60489E-001,-3.15806E-002,9.67757E+000,1.45656E-002,4.37889E-001,0,1.45170E+002,-3.73796E+000,9.99017E-001,1.11069E+002,-3.20863E+001,9.99044E-001,1.75250E-001,-7.26108E-002,-2.06686E-003,1.75267E-001,-7.26281E-002,-4.77735E-001,1.76121E-001,1.19141E+000,-1.89871E-002,0.00000E+000,1.12702E-002,9.32234E-001,0.00000E+000,-5.65444E-003,-7.08469E-002,1.00000E+000,27
1189,1327,2.64698E+001,-2.02049E-002,-9.76588E-002,9.66951E+000,-2.13460E-001,-7.24496E-002,9.67214E+000,1.78279E-002,4.46248E-001,0,1.45227E+002,-4.52714E+000,9.99137E-001,1.11357E+002,-3.27272E+001,9.98906E-001,1.76162E-001,-7.26112E-002,-2.04819E-003,1.76179E-001,-7.26281E-002,-4.71683E-001,1.77082E-001,1.19250E+000,-1.89482E-002,0.00000E+000,1.12605E-002,9.32234E-001,0.00000E+000,-5.64213E-003,-7.08464E-002,1.00000E+000,27
659,1327,-1.45586E+001,-6.61225E-001,1.18827E-001,3.20040E+000,-5.49276E-001,1.33439E-001,3.24994E+000,1.82382E-002,5.73023E-001,0,4.96460E+001,-9.30190E+000,9.98963E-001,7.04780E+000,-4.84783E+001,9.97342E-001,1.57729E-001,-6.56631E-002,-1.73773E-004,1.57729E-001,-6.56632E-002,-4.45694E-002,1.58464E-001,1.17084E+000,5.80017E-003,0.00000E+000,-4.90689E-003,9.38870E-001,0.00000E+000,-7.15282E-004,-7.21843E-002,1.00000E+000,27
659,1337,-1.45279E+001,-8.48586E-002,7.80269E-002,3.22212E+000,-6.10875E-001,1.03172E-001,3.28114E+000,2.81064E-002,6.27859E-001,0,5.00790E+001,-1.02260E+001,9.98326E-001,7.53878E+000,-4.94988E+001,9.98079E-001,1.55774E-001,-6.56695E-002,-5.53151E-004,1.55776E-001,-6.56709E-002,-1.43120E-001,1.56413E-001,1.16855E+000,5.76836E-003,0.00000E+000,-5.55714E-003,9.38861E-001,0.00000E+000,-1.45138E-003,-7.21945E-002,1.00000E+000,27
659,1347,-1.45205E+001,5.19018E-001,4.60672E-002,3.21758E+000,-6.45639E-001,6.44967E-002,3.28235E+000,1.55128E-002,6.03909E-001,0,5.01178E+001,-1.06981E+001,9.98977E-001,7.70534E+000,-5.01593E+001,9.98980E-001,1.53817E-001,-6.56792E-002,-9.36815E-004,1.53821E-001,-6.56832E-002,-2.44534E-001,1.54366E-001,1.16627E+000,5.72604E-003,0.00000E+000,-6.20679E-003,9.38849E-001,0.00000E+000,-2.18679E-003,-7.22082E-002,1.00000E+000,27
659,1357,-1.45046E+001,1.13027E+000,4.29471E-002,3.21481E+000,-6.78985E-001,1.68523E-002,3.28578E+000,1.06167E-002,6.03468E-001,0,5.02047E+001,-1.11356E+001,9.98601E-001,8.08239E+000,-5.07588E+001,9.98857E-001,1.51845E-001,-6.56964E-002,-1.33251E-003,1.51853E-001,-6.57045E-002,-3.50937E-001,1.52311E-001,1.16397E+000,5.66020E-003,0.00000E+000,-6.85967E-003,9.38830E-001,0.00000E+000,-2.92585E-003,-7.22294E-002,1.00000E+000,27
1199,1307,2.72248E+001,-1.22843E+000,-3.77002E-002,9.80077E+000,-1.24096E-001,1.18487E-002,9.80156E+000,1.67501E-002,4.45276E-001,0,1.46748E+002,-3.25719E+000,9.98297E-001,1.13149E+002,-3.15373E+001,9.97252E-001,1.74390E-001,-7.25289E-002,-1.70165E-003,1.74402E-001,-7.25407E-002,-3.94830E-001,1.75221E-001,1.19040E+000,-1.80320E-002,0.00000E+000,1.12848E-002,9.32297E-001,0.00000E+000,-6.56317E-003,-7.06476E-002,1.00000E+000,27
1199,1317,2.72354E+001,-6.22920E-001,-9.12750E-002,9.79414E+000,-1.68424E-001,-4.17826E-002,9.79567E+000,1.47956E-002,4.29673E-001,0,1.46864E+002,-3.86835E+000,9.97594E-001,1.13285E+002,-3.20181E+001,9.96104E-001,1.75171E-001,-7.25304E-002,-1.70504E-003,1.75183E-001,-7.25422E-002,-3.94368E-001,1.76043E-001,1.19133E+000,-1.80076E-002,0.00000E+000,1.12357E-002,9.32295E-001,0.00000E+000,-6.37189E-003,-7.06425E-002,1.00000E+000,27
1199,1327,2.72541E+001,-1.21914E-002,-1.22260E-001,9.79284E+000,-2.08622E-001,-8.35949E-002,9.79542E+000,1.53722E-002,4.03654E-001,0,1.47005E+002,-4.44602E+000,9.98287E-001,1.13580E+002,-3.24724E+001,9.97288E-001,1.75952E-001,-7.25321E-002,-1.70687E-003,1.75964E-001,-7.25438E-002,-3.93546E-001,1.76865E-001,1.19226E+000,-1.79793E-002,0.00000E+000,1.11865E-002,9.32294E-001,0.00000E+000,-6.18047E-003,-7.06367E-002,1.00000E+000,27
659,1317,-1.45723E+001,-1.25569E+000,1.97268E-001,3.19173E+000,-5.10843E-001,1.79233E-001,3.23732E+000,1.42920E-002,5.98500E-001,0,4.93757E+001,-8.78812E+000,9.98023E-001,6.91573E+000,-4.77746E+001,9.95175E-001,1.59669E-001,-6.56609E-002,1.97636E-004,1.59669E-001,-6.56611E-002,5.02540E-002,1.60505E-001,1.17311E+000,5.81814E-003,0.00000E+000,-4.26014E-003,9.38875E-001,0.00000E+000,1.68455E-005,-7.21785E-002,1.00000E+000,27
1199,1337,2.72876E+001,6.02682E-001,-9.80655E-002,9.79155E+000,-2.54527E-001,-1.27317E-001,9.79568E+000,1.18181E-002,4.35476E-001,0,1.47137E+002,-5.11409E+000,9.99062E-001,1.14180E+002,-3.29561E+001,9.97993E-001,1.76741E-001,-7.25346E-002,-1.70025E-003,1.76752E-001,-7.25462E-002,-3.90777E-001,1.77695E-001,1.19320E+000,-1.79302E-002,0.00000E+000,1.11368E-002,9.32291E-001,0.00000E+000,-5.98705E-003,-7.06266E-002,1.00000E+000,27
1199,1297,2.72304E+001,-1.81612E+000,5.14753E-002,9.81364E+000,-6.70639E-002,6.25449E-002,9.81407E+000,1.30279E-002,4.50163E-001,0,1.46718E+002,-2.44619E+000,9.98028E-001,1.13315E+002,-3.08600E+001,9.96455E-001,1.73611E-001,-7.25280E-002,-1.69254E-003,1.73623E-001,-7.25396E-002,-3.93960E-001,1.74403E-001,1.18948E+000,-1.80424E-002,0.00000E+000,1.13338E-002,9.32297E-001,0.00000E+000,-6.75356E-003,-7.06497E-002,1.00000E+000,27
649,1347,-1.52760E+001,5.22628E-001,3.40881E-002,3.10215E+000,-6.37325E-001,4.82309E-002,3.16731E+000,1.51085E-002,6.34380E-001,0,4.83952E+001,-1.05247E+001,9.98522E-001,6.12147E+000,-5.01721E+001,9.97454E-001,1.51899E-001,-6.51345E-002,-8.28659E-004,1.51903E-001,-6.51377E-002,-2.18757E-001,1.52415E-001,1.16402E+000,8.21200E-003,0.00000E+000,-7.98320E-003,9.39314E-001,0.00000E+000,-2.60669E-003,-7.17285E-002,1.00000E+000,27
649,1357,-1.52546E+001,1.12737E+000,4.28281E-002,3.10554E+000,-6.76128E-001,1.49729E-002,3.17833E+000,1.00849E-002,6.04116E-001,0,4.85386E+001,-1.10728E+001,9.98879E-001,6.61612E+000,-5.09134E+001,9.98614E-001,1.49652E-001,-6.51491E-002,-1.21747E-003,1.49658E-001,-6.51560E-002,-3.24733E-001,1.50075E-001,1.16141E+000,8.13963E-003,0.00000E+000,-8.61844E-003,9.39296E-001,0.00000E+000,-3.42894E-003,-7.17514E-002,1.00000E+000,27
649,1337,-1.52963E+001,-7.56135E-002,6.74963E-002,3.09351E+000,-5.95405E-001,8.73131E-002,3.15150E+000,1.58515E-002,5.93429E-001,0,4.81487E+001,-9.93693E+000,9.98906E-001,5.76226E+000,-4.94605E+001,9.98014E-001,1.54139E-001,-6.51268E-002,-4.51211E-004,1.54140E-001,-6.51278E-002,-1.17904E-001,1.54755E-001,1.16663E+000,8.25909E-003,0.00000E+000,-7.34861E-003,9.39325E-001,0.00000E+000,-1.78528E-003,-7.17137E-002,1.00000E+000,27
649,1327,-1.53163E+001,-6.54322E-001,1.16805E-001,3.08204E+000,-5.38558E-001,1.23980E-001,3.13119E+000,1.26538E-002,5.91835E-001,0,4.78588E+001,-9.10056E+000,9.99301E-001,5.45805E+000,-4.84646E+001,9.98906E-001,1.56361E-001,-6.51226E-002,-8.12440E-005,1.56361E-001,-6.51226E-002,-2.10171E-002,1.57086E-001,1.16922E+000,8.29323E-003,0.00000E+000,-6.71721E-003,9.39334E-001,0.00000E+000,-9.68009E-004,-7.17029E-002,1.00000E+000,27
1209,1307,2.80168E+001,-1.21314E+000,-4.05678E-002,9.92614E+000,-1.15605E-001,1.11342E-003,9.92681E+000,1.28358E-002,4.50855E-001,0,1.48540E+002,-3.12867E+000,9.98717E-001,1.15529E+002,-3.11957E+001,9.97193E-001,1.74034E-001,-7.21252E-002,-1.26729E-003,1.74040E-001,-7.21317E-002,-2.94962E-001,1.74887E-001,1.19000E+000,-1.69099E-002,0.00000E+000,1.12535E-002,9.32640E-001,0.00000E+000,-6.87102E-003,-7.01586E-002,1.00000E+000,27
1209,1317,2.80254E+001,-6.14277E-001,-9.63682E-002,9.91922E+000,-1.65781E-001,-4.77126E-002,9.92072E+000,1.46883E-002,4.34498E-001,0,1.48638E+002,-3.84036E+000,9.98586E-001,1.15630E+002,-3.17739E+001,9.96097E-001,1.74839E-001,-7.21260E-002,-1.26399E-003,1.74845E-001,-7.21325E-002,-2.93236E-001,1.75734E-001,1.19095E+000,-1.68872E-002,0.00000E+000,1.12093E-002,9.32639E-001,0.00000E+000,-6.53538E-003,-7.01506E-002,1.00000E+000,27
1209,1327,2.80550E+001,3.20434E-003,-1.12276E-001,9.92415E+000,-2.01502E-001,-9.21035E-002,9.92663E+000,1.42432E-002,3.97878E-001,0,1.48876E+002,-4.34805E+000,9.98752E-001,1.16116E+002,-3.21589E+001,9.97549E-001,1.75646E-001,-7.21272E-002,-1.25522E-003,1.75652E-001,-7.21336E-002,-2.90251E-001,1.76584E-001,1.19191E+000,-1.68512E-002,0.00000E+000,1.11650E-002,9.32638E-001,0.00000E+000,-6.19860E-003,-7.01380E-002,1.00000E+000,27
1209,1337,2.80878E+001,6.15832E-001,-8.42703E-002,9.92155E+000,-2.51136E-001,-1.33031E-001,9.92562E+000,1.39168E-002,4.45306E-001,0,1.48978E+002,-5.07090E+000,9.98681E-001,1.16706E+002,-3.26769E+001,9.96931E-001,1.76460E-001,-7.21287E-002,-1.24018E-003,1.76467E-001,-7.21349E-002,-2.85832E-001,1.77443E-001,1.19288E+000,-1.67999E-002,0.00000E+000,1.11202E-002,9.32635E-001,0.00000E+000,-5.85828E-003,-7.01200E-002,1.00000E+000,27
1209,1297,2.80209E+001,-1.80399E+000,3.98404E-002,9.93941E+000,-6.00138E-002,4.99182E-002,9.93972E+000,1.18953E-002,4.14582E-001,0,1.48526E+002,-2.32300E+000,9.98642E-001,1.15659E+002,-3.05711E+001,9.96590E-001,1.73229E-001,-7.21246E-002,-1.26678E-003,1.73236E-001,-7.21311E-002,-2.95811E-001,1.74041E-001,1.18904E+000,-1.69234E-002,0.00000E+000,1.12976E-002,9.32641E-001,0.00000E+000,-7.20601E-003,-7.01633E-002,1.00000E+000,27
649,1317,-1.53216E+001,-1.24969E+000,2.04521E-001,3.08039E+000,-5.02259E-001,1.71581E-001,3.12578E+000,1.11747E-002,5.91132E-001,0,4.76935E+001,-8.61280E+000,9.98670E-001,5.48043E+000,-4.78043E+001,9.98395E-001,1.58571E-001,-6.51235E-002,2.79424E-004,1.58571E-001,-6.51238E-002,7.15698E-002,1.59412E-001,1.17181E+000,8.30816E-003,0.00000E+000,-6.08763E-003,9.39337E-001,0.00000E+000,-1.53072E-004,-7.16982E-002,1.00000E+000,27
639,1347,-1.60274E+001,5.27915E-001,2.86651E-002,2.99148E+000,-6.25805E-001,4.45707E-002,3.05656E+000,1.54530E-002,6.01082E-001,0,4.67083E+001,-1.03082E+001,9.97934E-001,4.62373E+000,-5.02049E+001,9.97193E-001,1.50152E-001,-6.43801E-002,-7.39295E-004,1.50154E-001,-6.43826E-002,-1.97443E-001,1.50661E-001,1.16197E+000,1.10039E-002,0.00000E+000,-1.00565E-002,9.39944E-001,0.00000E+000,-2.98212E-003,-7.08668E-002,1.00000E+000,27
639,1357,-1.60040E+001,1.13598E+000,4.16032E-002,2.99688E+000,-6.61903E-001,1.44514E-002,3.06914E+000,9.86668E-003,5.86698E-001,0,4.68730E+001,-1.08184E+001,9.98690E-001,5.16368E+000,-5.08980E+001,9.98641E-001,1.47717E-001,-6.43927E-002,-1.12009E-003,1.47723E-001,-6.43986E-002,-3.02551E-001,1.48126E-001,1.15915E+000,1.09258E-002,0.00000E+000,-1.06722E-002,9.39927E-001,0.00000E+000,-3.91456E-003,-7.08927E-002,1.00000E+000,27
639,1317,-1.60642E+001,-1.25840E+000,2.23614E-001,2.97570E+000,-5.09600E-001,1.77475E-001,3.02424E+000,1.47851E-002,6.66503E-001,0,4.60792E+001,-8.73686E+000,9.98574E-001,4.18300E+000,-4.80433E+001,9.97554E-001,1.57356E-001,-6.43775E-002,3.32459E-004,1.57356E-001,-6.43780E-002,8.59070E-002,1.58220E-001,1.17036E+000,1.10951E-002,0.00000E+000,-8.22412E-003,9.39964E-001,0.00000E+000,-2.07055E-004,-7.08367E-002,1.00000E+000,27
639,1327,-1.60563E+001,-6.72336E-001,1.30236E-001,2.98129E+000,-5.51817E-001,1.31968E-001,3.03480E+000,1.07699E-002,5.89130E-001,0,4.63013E+001,-9.31504E+000,9.98988E-001,4.18048E+000,-4.88753E+001,9.98111E-001,1.54976E-001,-6.43734E-002,-1.38685E-005,1.54976E-001,-6.43734E-002,-3.62257E-003,1.55714E-001,1.16758E+000,1.10852E-002,0.00000E+000,-8.83124E-003,9.39962E-001,0.00000E+000,-1.12654E-003,-7.08400E-002,1.00000E+000,27
639,1337,-1.60466E+001,-7.15978E-002,5.78342E-002,2.98443E+000,-5.86862E-001,8.26334E-002,3.04271E+000,1.27523E-002,6.39271E-001,0,4.64913E+001,-9.77486E+000,9.98571E-001,4.26940E+000,-4.94622E+001,9.97859E-001,1.52568E-001,-6.43738E-002,-3.71377E-004,1.52568E-001,-6.43744E-002,-9.80830E-002,1.53187E-001,1.16477E+000,1.10565E-002,0.00000E+000,-9.44375E-003,9.39956E-001,0.00000E+000,-2.05416E-003,-7.08495E-002,1.00000E+000,27
1219,1317,2.88253E+001,-6.01466E-001,-8.69395E-002,1.00499E+001,-1.63287E-001,-5.28625E-002,1.00514E+001,1.79229E-002,4.99473E-001,0,1.50486E+002,-3.81116E+000,9.98544E-001,1.18152E+002,-3.14657E+001,9.96152E-001,1.74321E-001,-7.20853E-002,-7.18821E-004,1.74323E-001,-7.20874E-002,-1.67142E-001,1.75190E-001,1.19035E+000,-1.55158E-002,0.00000E+000,1.11515E-002,9.32624E-001,0.00000E+000,-6.28089E-003,-6.93432E-002,1.00000E+000,27
1219,1327,2.88496E+001,1.36092E-002,-1.13565E-001,1.00515E+001,-1.99368E-001,-9.99942E-002,1.00540E+001,9.18160E-003,4.26237E-001,0,1.50688E+002,-4.31813E+000,9.99367E-001,1.18539E+002,-3.18820E+001,9.98355E-001,1.75087E-001,-7.20854E-002,-7.02226E-004,1.75089E-001,-7.20874E-002,-1.62777E-001,1.75997E-001,1.19126E+000,-1.54843E-002,0.00000E+000,1.11149E-002,9.32623E-001,0.00000E+000,-5.75593E-003,-6.93250E-002,1.00000E+000,27
1219,1337,2.88855E+001,6.31755E-001,-8.30677E-002,1.00512E+001,-2.44056E-001,-1.40976E-001,1.00552E+001,1.30912E-002,4.78211E-001,0,1.50822E+002,-4.96904E+000,9.98901E-001,1.19180E+002,-3.23157E+001,9.97283E-001,1.75863E-001,-7.20856E-002,-6.77910E-004,1.75865E-001,-7.20875E-002,-1.56650E-001,1.76814E-001,1.19219E+000,-1.54341E-002,0.00000E+000,1.10777E-002,9.32621E-001,0.00000E+000,-5.22384E-003,-6.92961E-002,1.00000E+000,27
1219,1297,2.88175E+001,-1.79141E+000,3.82598E-002,1.00696E+001,-5.45197E-002,4.32055E-002,1.00698E+001,1.31126E-002,3.84543E-001,0,1.50371E+002,-2.21797E+000,9.98541E-001,1.18116E+002,-3.02935E+001,9.96605E-001,1.72786E-001,-7.20852E-002,-7.41696E-004,1.72788E-001,-7.20874E-002,-1.73542E-001,1.73576E-001,1.18853E+000,-1.55539E-002,0.00000E+000,1.12249E-002,9.32626E-001,0.00000E+000,-7.33107E-003,-6.93652E-002,1.00000E+000,27
1219,1307,2.88189E+001,-1.19804E+000,-2.89338E-002,1.00593E+001,-1.09281E-001,-1.93458E-003,1.00599E+001,1.66196E-002,4.17807E-001,0,1.50412E+002,-3.01670E+000,9.98633E-001,1.18090E+002,-3.09066E+001,9.95907E-001,1.73553E-001,-7.20852E-002,-7.31376E-004,1.73555E-001,-7.20874E-002,-1.70593E-001,1.74382E-001,1.18944E+000,-1.55376E-002,0.00000E+000,1.11882E-002,9.32625E-001,0.00000E+000,-6.80663E-003,-6.93558E-002,1.00000E+000,27
629,1347,-1.67726E+001,5.22610E-001,2.74507E-002,2.88717E+000,-6.24743E-001,4.77859E-002,2.95438E+000,1.40803E-002,5.94895E-001,0,4.51022E+001,-1.02817E+001,9.97528E-001,3.23657E+000,-5.03953E+001,9.96895E-001,1.48708E-001,-6.47171E-002,-7.17048E-004,1.48710E-001,-6.47195E-002,-1.92495E-001,1.49126E-001,1.16026E+000,1.38770E-002,0.00000E+000,-1.23498E-002,9.39570E-001,0.00000E+000,-2.83919E-003,-7.04123E-002,1.00000E+000,27
629,1357,-1.67439E+001,1.13063E+000,4.12962E-002,2.89765E+000,-6.60977E-001,1.67424E-002,2.97213E+000,1.19106E-002,5.89568E-001,0,4.53480E+001,-1.07963E+001,9.97804E-001,3.86054E+000,-5.10877E+001,9.97509E-001,1.46380E-001,-6.47222E-002,-9.00937E-004,1.46384E-001,-6.47260E-002,-2.44519E-001,1.46710E-001,1.15757E+000,1.38021E-002,0.00000E+000,-1.26105E-002,9.39563E-001,0.00000E+000,-3.62572E-003,-7.04341E-002,1.00000E+000,27
629,1327,-1.68013E+001,-6.71046E-001,1.29197E-001,2.87658E+000,-5.44752E-001,1.33241E-001,2.93074E+000,1.11801E-002,5.90700E-001,0,4.46942E+001,-9.19691E+000,9.98335E-001,2.79731E+000,-4.89571E+001,9.97765E-001,1.53321E-001,-6.47161E-002,-3.83066E-004,1.53322E-001,-6.47168E-002,-1.00662E-001,1.53941E-001,1.16562E+000,1.39520E-002,0.00000E+000,-1.18310E-002,9.39577E-001,0.00000E+000,-1.27384E-003,-7.03904E-002,1.00000E+000,27
629,1337,-1.67871E+001,-7.64091E-002,5.92317E-002,2.88421E+000,-5.85596E-001,8.58781E-002,2.94431E+000,1.27930E-002,6.29504E-001,0,4.49490E+001,-9.74892E+000,9.98139E-001,2.95993E+000,-4.96500E+001,9.97754E-001,1.51018E-001,-6.47154E-002,-5.45661E-004,1.51019E-001,-6.47168E-002,-1.44919E-001,1.51533E-001,1.16294E+000,1.39246E-002,0.00000E+000,-1.20903E-002,9.39574E-001,0.00000E+000,-2.05630E-003,-7.03984E-002,1.00000E+000,27
1229,1317,2.96242E+001,-5.78541E-001,-8.62105E-002,1.01823E+001,-1.46743E-001,-5.50266E-002,1.01835E+001,1.83239E-002,5.03463E-001,0,1.52340E+002,-3.57885E+000,9.98303E-001,1.20652E+002,-3.10120E+001,9.97511E-001,1.74003E-001,-7.16977E-002,-1.11671E-004,1.74003E-001,-7.16978E-002,-2.60409E-002,1.74898E-001,1.18999E+000,-1.41522E-002,0.00000E+000,1.11905E-002,9.32930E-001,0.00000E+000,-5.61356E-003,-6.84886E-002,1.00000E+000,27
1229,1327,2.96423E+001,2.29095E-002,-1.13720E-001,1.01772E+001,-1.99737E-001,-1.04362E-001,1.01797E+001,1.18899E-002,4.94237E-001,0,1.52459E+002,-4.32705E+000,9.98828E-001,1.20939E+002,-3.16055E+001,9.97639E-001,1.74694E-001,-7.16957E-002,-7.40904E-005,1.74694E-001,-7.16957E-002,-1.72291E-002,1.75627E-001,1.19081E+000,-1.41230E-002,0.00000E+000,1.11922E-002,9.32930E-001,0.00000E+000,-5.00708E-003,-6.84670E-002,1.00000E+000,27
1229,1337,2.96795E+001,6.44416E-001,-9.52758E-002,1.01809E+001,-2.36055E-001,-1.46259E-001,1.01847E+001,1.23516E-002,4.33849E-001,0,1.52658E+002,-4.84953E+000,9.98393E-001,1.21583E+002,-3.20146E+001,9.97174E-001,1.75386E-001,-7.16930E-002,-3.13056E-005,1.75386E-001,-7.16930E-002,-7.25953E-003,1.76357E-001,1.19163E+000,-1.40813E-002,0.00000E+000,1.11938E-002,9.32930E-001,0.00000E+000,-4.39950E-003,-6.84362E-002,1.00000E+000,27
629,1317,-1.68146E+001,-1.25557E+000,2.26516E-001,2.86534E+000,-5.00803E-001,1.81582E-001,2.91444E+000,1.28246E-002,6.54560E-001,0,4.43766E+001,-8.59934E+000,9.98430E-001,2.72903E+000,-4.81154E+001,9.97734E-001,1.55600E-001,-6.47191E-002,-2.29682E-004,1.55600E-001,-6.47193E-002,-5.97306E-002,1.56332E-001,1.16828E+000,1.39604E-002,0.00000E+000,-1.15736E-002,9.39578E-001,0.00000E+000,-4.97365E-004,-7.03879E-002,1.00000E+000,27
1229,1297,2.96128E+001,-1.77626E+000,3.02940E-002,1.01980E+001,-4.67600E-002,3.02378E-002,1.01981E+001,1.42134E-002,4.38400E-001,0,1.52212E+002,-2.10162E+000,9.97967E-001,1.20548E+002,-2.99206E+001,9.95275E-001,1.72624E-001,-7.17005E-002,-1.76450E-004,1.72624E-001,-7.17007E-002,-4.13787E-002,1.73447E-001,1.18836E+000,-1.41859E-002,0.00000E+000,1.11873E-002,9.32929E-001,0.00000E+000,-6.82012E-003,-6.85136E-002,1.00000E+000,27
1229,1307,2.96244E+001,-1.17522E+000,-3.09633E-002,1.01992E+001,-9.27815E-002,-3.66749E-003,1.01996E+001,2.06275E-002,4.65228E-001,0,1.52376E+002,-2.79810E+000,9.97617E-001,1.20689E+002,-3.04277E+001,9.96027E-001,1.73313E-001,-7.16993E-002,-1.45692E-004,1.73313E-001,-7.16994E-002,-3.40699E-002,1.74171E-001,1.18917E+000,-1.41729E-002,0.00000E+000,1.11889E-002,9.32930E-001,0.00000E+000,-6.21787E-003,-6.85039E-002,1.00000E+000,27
619,1327,-1.75490E+001,-6.71348E-001,1.30943E-001,2.76854E+000,-5.39522E-001,1.35977E-001,2.82390E+000,8.83485E-003,5.80182E-001,0,4.30293E+001,-9.10357E+000,9.98494E-001,1.38559E+000,-4.90760E+001,9.98384E-001,1.52014E-001,-6.41258E-002,-6.49854E-004,1.52016E-001,-6.41278E-002,-1.72266E-001,1.52633E-001,1.16406E+000,1.68761E-002,0.00000E+000,-1.47034E-002,9.40050E-001,0.00000E+000,-1.34541E-003,-6.97560E-002,1.00000E+000,27
619,1337,-1.75309E+001,-7.50056E-002,6.85649E-002,2.77928E+000,-5.79053E-001,9.15962E-002,2.84044E+000,1.09922E-002,6.32762E-001,0,4.33227E+001,-9.64975E+000,9.97356E-001,1.62842E+000,-4.97536E+001,9.97050E-001,1.49610E-001,-6.41253E-002,-7.12991E-004,1.49613E-001,-6.41277E-002,-1.91127E-001,1.50120E-001,1.16127E+000,1.68448E-002,0.00000E+000,-1.47858E-002,9.40049E-001,0.00000E+000,-2.02106E-003,-6.97636E-002,1.00000E+000,27
619,1347,-1.75112E+001,5.26298E-001,2.77747E-002,2.78883E+000,-6.14717E-001,5.17109E-002,2.85624E+000,1.34225E-002,6.10127E-001,0,4.35825E+001,-1.01297E+001,9.97062E-001,1.96035E+000,-5.04397E+001,9.96654E-001,1.47202E-001,-6.41254E-002,-7.81324E-004,1.47205E-001,-6.41282E-002,-2.11831E-001,1.47611E-001,1.15847E+000,1.68013E-002,0.00000E+000,-1.48682E-002,9.40047E-001,0.00000E+000,-2.69635E-003,-6.97741E-002,1.00000E+000,27
619,1357,-1.74836E+001,1.13383E+000,3.46928E-002,2.79932E+000,-6.50289E-001,1.94456E-002,2.87392E+000,1.20116E-002,5.82786E-001,0,4.38320E+001,-1.06214E+001,9.98166E-001,2.54897E+000,-5.11373E+001,9.97991E-001,1.44776E-001,-6.41268E-002,-8.62399E-004,1.44780E-001,-6.41304E-002,-2.36524E-001,1.45094E-001,1.15567E+000,1.67286E-002,0.00000E+000,-1.49509E-002,9.40045E-001,0.00000E+000,-3.37457E-003,-6.97917E-002,1.00000E+000,27
619,1317,-1.75581E+001,-1.25151E+000,2.30685E-001,2.76145E+000,-4.89773E-001,1.87246E-001,2.81080E+000,1.53930E-002,6.20449E-001,0,4.27680E+001,-8.43514E+000,9.97767E-001,1.38843E+000,-4.81816E+001,9.97394E-001,1.54398E-001,-6.41274E-002,-5.96421E-004,1.54399E-001,-6.41290E-002,-1.56376E-001,1.55135E-001,1.16683E+000,1.68853E-002,0.00000E+000,-1.46215E-002,9.40050E-001,0.00000E+000,-6.73366E-004,-6.97538E-002,1.00000E+000,27
1239,1307,3.04100E+001,-1.16580E+000,-4.72670E-002,1.03195E+001,-8.80862E-002,-1.67362E-002,1.03199E+001,2.14678E-002,4.50166E-001,0,1.54100E+002,-2.72099E+000,9.97380E-001,1.22964E+002,-3.01601E+001,9.95821E-001,1.72767E-001,-7.10511E-002,1.13642E-004,1.72767E-001,-7.10512E-002,2.67052E-002,1.73672E-001,1.18853E+000,-1.31381E-002,0.00000E+000,1.08801E-002,9.33498E-001,0.00000E+000,-6.25125E-003,-6.78796E-002,1.00000E+000,27
1239,1317,3.04211E+001,-5.56533E-001,-1.03685E-001,1.03143E+001,-1.28635E-001,-6.79649E-002,1.03153E+001,2.03426E-002,4.38298E-001,0,1.54231E+002,-3.28767E+000,9.97779E-001,1.23103E+002,-3.05678E+001,9.96931E-001,1.73537E-001,-7.10435E-002,2.32643E-004,1.73537E-001,-7.10437E-002,5.44991E-002,1.74485E-001,1.18944E+000,-1.31154E-002,0.00000E+000,1.10143E-002,9.33502E-001,0.00000E+000,-5.23894E-003,-6.78543E-002,1.00000E+000,27
1239,1327,3.04419E+001,4.49891E-002,-1.01277E-001,1.03069E+001,-1.86493E-001,-1.04709E-001,1.03092E+001,1.60567E-002,5.16780E-001,0,1.54262E+002,-4.14715E+000,9.98120E-001,1.23467E+002,-3.11802E+001,9.97123E-001,1.74314E-001,-7.10319E-002,3.59568E-004,1.74314E-001,-7.10324E-002,8.39699E-002,1.75306E-001,1.19036E+000,-1.30761E-002,0.00000E+000,1.11500E-002,9.33508E-001,0.00000E+000,-4.21585E-003,-6.78107E-002,1.00000E+000,27
1239,1337,3.04663E+001,6.63288E-001,-9.25013E-002,1.03014E+001,-2.23275E-001,-1.42380E-001,1.03048E+001,1.36805E-002,4.14401E-001,0,1.54311E+002,-4.67950E+000,9.97520E-001,1.23897E+002,-3.16390E+001,9.95635E-001,1.75083E-001,-7.10198E-002,4.86606E-004,1.75084E-001,-7.10208E-002,1.13287E-001,1.76120E-001,1.19128E+000,-1.30345E-002,0.00000E+000,1.12847E-002,9.33514E-001,0.00000E+000,-3.20014E-003,-6.77643E-002,1.00000E+000,27
1239,1297,3.04057E+001,-1.76406E+000,2.62384E-002,1.03246E+001,-3.96399E-002,2.53878E-002,1.03247E+001,1.33619E-002,4.56183E-001,0,1.53991E+002,-2.02091E+000,9.98057E-001,1.22951E+002,-2.96204E+001,9.96098E-001,1.71997E-001,-7.10566E-002,-1.15059E-006,1.71997E-001,-7.10566E-002,-2.71233E-004,1.72860E-001,1.18763E+000,-1.31513E-002,0.00000E+000,1.07461E-002,9.33497E-001,0.00000E+000,-7.26113E-003,-6.78943E-002,1.00000E+000,27
609,1347,-1.82501E+001,5.25546E-001,3.05984E-002,2.68879E+000,-6.10364E-001,5.27227E-002,2.75770E+000,1.70067E-002,6.32882E-001,0,4.20434E+001,-1.00569E+001,9.96757E-001,6.89953E-001,-5.05540E+001,9.96321E-001,1.45767E-001,-6.28595E-002,-1.05181E-003,1.45772E-001,-6.28648E-002,-2.88854E-001,1.46231E-001,1.15677E+000,1.95416E-002,0.00000E+000,-1.76508E-002,9.41124E-001,0.00000E+000,-2.53559E-003,-6.87463E-002,1.00000E+000,27
609,1357,-1.82242E+001,1.13877E+000,2.69049E-002,2.69878E+000,-6.39134E-001,1.51999E-002,2.77347E+000,1.35863E-002,6.08421E-001,0,4.22976E+001,-1.04329E+001,9.97956E-001,1.22686E+000,-5.11419E+001,9.97529E-001,1.43289E-001,-6.28600E-002,-1.09465E-003,1.43294E-001,-6.28658E-002,-3.04231E-001,1.43653E-001,1.15391E+000,1.94722E-002,0.00000E+000,-1.76566E-002,9.41124E-001,0.00000E+000,-3.43287E-003,-6.87681E-002,1.00000E+000,27
609,1317,-1.83077E+001,-1.25433E+000,2.27178E-001,2.65059E+000,-4.87027E-001,1.81933E-001,2.70110E+000,1.57089E-002,6.30036E-001,0,4.10802E+001,-8.38339E+000,9.98113E-001,-6.22551E-002,-4.83165E+001,9.97170E-001,1.53126E-001,-6.28612E-002,-9.76290E-004,1.53131E-001,-6.28656E-002,-2.58977E-001,1.53946E-001,1.16531E+000,1.96262E-002,0.00000E+000,-1.76335E-002,9.41124E-001,0.00000E+000,1.44824E-004,-6.87198E-002,1.00000E+000,27
609,1327,-1.82935E+001,-6.75632E-001,1.29637E-001,2.66326E+000,-5.39290E-001,1.35760E-001,2.72070E+000,1.07678E-002,6.23278E-001,0,4.14145E+001,-9.09371E+000,9.98594E-001,1.73170E-002,-4.92225E+001,9.97865E-001,1.50684E-001,-6.28601E-002,-9.92493E-004,1.50688E-001,-6.28647E-002,-2.66287E-001,1.51376E-001,1.16247E+000,1.96191E-002,0.00000E+000,-1.76392E-002,9.41124E-001,0.00000E+000,-7.47326E-004,-6.87220E-002,1.00000E+000,27
609,1337,-1.82722E+001,-7.41699E-002,6.92517E-002,2.67719E+000,-5.72003E-001,9.28984E-002,2.73919E+000,1.36799E-002,6.09834E-001,0,4.17510E+001,-9.52727E+000,9.97265E-001,3.15688E-001,-4.98601E+001,9.96691E-001,1.48233E-001,-6.28596E-002,-1.01914E-003,1.48238E-001,-6.28646E-002,-2.76612E-001,1.48807E-001,1.15962E+000,1.95874E-002,0.00000E+000,-1.76450E-002,9.41124E-001,0.00000E+000,-1.63988E-003,-6.87320E-002,1.00000E+000,27
1249,1297,3.12023E+001,-1.74580E+000,3.20417E-002,1.04529E+001,-2.84595E-002,2.47228E-002,1.04530E+001,1.57497E-002,4.80416E-001,0,1.55770E+002,-1.87247E+000,9.98176E-001,1.25430E+002,-2.92438E+001,9.96498E-001,1.70982E-001,-7.03190E-002,1.79052E-004,1.70982E-001,-7.03192E-002,4.25151E-002,1.71877E-001,1.18644E+000,-1.16682E-002,0.00000E+000,9.97866E-003,9.34163E-001,0.00000E+000,-7.90533E-003,-6.73976E-002,1.00000E+000,27
1249,1307,3.11990E+001,-1.15342E+000,-5.70934E-002,1.04426E+001,-8.11176E-002,-2.35859E-002,1.04430E+001,1.96006E-002,4.57676E-001,0,1.55834E+002,-2.62415E+000,9.98038E-001,1.25303E+002,-2.98489E+001,9.96166E-001,1.71954E-001,-7.03067E-002,4.83520E-004,1.71955E-001,-7.03076E-002,1.14354E-001,1.72905E-001,1.18759E+000,-1.16559E-002,0.00000E+000,1.04368E-002,9.34168E-001,0.00000E+000,-6.36734E-003,-6.73810E-002,1.00000E+000,27
1249,1317,3.12061E+001,-5.51003E-001,-1.08206E-001,1.04343E+001,-1.27836E-001,-6.56723E-002,1.04353E+001,1.85352E-002,4.28343E-001,0,1.55886E+002,-3.30186E+000,9.96656E-001,1.25386E+002,-3.03822E+001,9.95351E-001,1.72926E-001,-7.02864E-002,7.95020E-004,1.72929E-001,-7.02890E-002,1.87287E-001,1.73935E-001,1.18873E+000,-1.16288E-002,0.00000E+000,1.08965E-002,9.34178E-001,0.00000E+000,-4.82428E-003,-6.73445E-002,1.00000E+000,27
1249,1327,3.12220E+001,6.49903E-002,-1.27896E-001,1.04246E+001,-1.68090E-001,-1.14296E-001,1.04266E+001,1.75361E-002,4.57311E-001,0,1.55929E+002,-3.87156E+000,9.96856E-001,1.25645E+002,-3.07446E+001,9.96033E-001,1.73902E-001,-7.02568E-002,1.11593E-003,1.73907E-001,-7.02619E-002,2.61864E-001,1.74972E-001,1.18989E+000,-1.15838E-002,0.00000E+000,1.13596E-002,9.34197E-001,0.00000E+000,-3.26995E-003,-6.72840E-002,1.00000E+000,27
1249,1337,3.12511E+001,6.84016E-001,-1.04969E-001,1.04209E+001,-2.08128E-001,-1.47989E-001,1.04240E+001,1.36657E-002,4.31744E-001,0,1.55987E+002,-4.46603E+000,9.98411E-001,1.26164E+002,-3.11827E+001,9.97779E-001,1.74876E-001,-7.02204E-002,1.44243E-003,1.74884E-001,-7.02288E-002,3.37180E-001,1.76010E-001,1.19105E+000,-1.15259E-002,0.00000E+000,1.18234E-002,9.34220E-001,0.00000E+000,-1.71300E-003,-6.72061E-002,1.00000E+000,27
1259,1327,3.20132E+001,7.83866E-002,-1.30164E-001,1.05494E+001,-1.59320E-001,-1.13089E-001,1.05512E+001,1.39364E-002,4.17373E-001,0,1.57652E+002,-3.76126E+000,9.98549E-001,1.28031E+002,-3.04545E+001,9.98047E-001,1.73693E-001,-6.98504E-002,1.79329E-003,1.73706E-001,-6.98636E-002,4.21856E-001,1.74810E-001,1.18965E+000,-1.06614E-002,0.00000E+000,1.18231E-002,9.34532E-001,0.00000E+000,-1.72701E-003,-6.66540E-002,1.00000E+000,27
1259,1337,3.20411E+001,6.94172E-001,-1.13532E-001,1.05437E+001,-2.03378E-001,-1.54714E-001,1.05468E+001,1.28353E-002,3.91373E-001,0,1.57717E+002,-4.39528E+000,9.99046E-001,1.28521E+002,-3.09278E+001,9.98856E-001,1.74713E-001,-6.97984E-002,2.24255E-003,1.74734E-001,-6.98190E-002,5.25433E-001,1.75905E-001,1.19086E+000,-1.05993E-002,0.00000E+000,1.24836E-002,9.34566E-001,0.00000E+000,3.64052E-004,-6.65473E-002,1.00000E+000,27
599,1347,-1.89811E+001,5.37335E-001,4.01135E-002,2.59590E+000,-5.93445E-001,5.74421E-002,2.66349E+000,1.63855E-002,6.48808E-001,0,4.06003E+001,-9.80047E+000,9.98023E-001,-4.30268E-001,-5.04929E+001,9.98122E-001,1.45050E-001,-6.28924E-002,-7.91946E-004,1.45053E-001,-6.28954E-002,-2.18206E-001,1.45479E-001,1.15590E+000,2.17635E-002,0.00000E+000,-1.89899E-002,9.40978E-001,0.00000E+000,-2.30506E-003,-6.73622E-002,1.00000E+000,27
599,1357,-1.89518E+001,1.13890E+000,3.49258E-002,2.60981E+000,-6.33548E-001,2.12201E-002,2.68570E+000,1.13765E-002,6.26890E-001,0,4.09151E+001,-1.03541E+001,9.98340E-001,1.51171E-001,-5.12567E+001,9.98087E-001,1.42730E-001,-6.28906E-002,-5.64380E-004,1.42732E-001,-6.28921E-002,-1.57262E-001,1.43067E-001,1.15323E+000,2.17013E-002,0.00000E+000,-1.84899E-002,9.40990E-001,0.00000E+000,-3.25350E-003,-6.73842E-002,1.00000E+000,27
1259,1287,3.19944E+001,-2.32757E+000,1.18713E-001,1.05817E+001,2.99571E-002,5.85539E-002,1.05819E+001,1.61577E-002,4.19385E-001,0,1.57396E+002,-1.01340E+000,9.97404E-001,1.27905E+002,-2.84193E+001,9.93796E-001,1.69592E-001,-6.99491E-002,7.21640E-005,1.69592E-001,-6.99492E-002,1.72609E-002,1.70456E-001,1.18482E+000,-1.07563E-002,0.00000E+000,9.20506E-003,9.34481E-001,0.00000E+000,-1.00151E-002,-6.68170E-002,1.00000E+000,27
1259,1297,3.19884E+001,-1.73657E+000,7.28228E-003,1.05743E+001,-2.29167E-002,9.13306E-003,1.05744E+001,1.46907E-002,4.37582E-001,0,1.57516E+002,-1.76344E+000,9.97681E-001,1.27709E+002,-2.89770E+001,9.94870E-001,1.70622E-001,-6.99395E-002,4.92568E-004,1.70623E-001,-6.99405E-002,1.17317E-001,1.71544E-001,1.18603E+000,-1.07536E-002,0.00000E+000,9.85741E-003,9.34482E-001,0.00000E+000,-7.94991E-003,-6.68125E-002,1.00000E+000,27
1259,1307,3.19888E+001,-1.13794E+000,-7.11697E-002,1.05665E+001,-7.10089E-002,-3.31022E-002,1.05668E+001,1.45469E-002,4.51123E-001,0,1.57588E+002,-2.46457E+000,9.97994E-001,1.27655E+002,-2.94874E+001,9.96428E-001,1.71649E-001,-6.99208E-002,9.18898E-004,1.71652E-001,-6.99243E-002,2.17941E-001,1.72632E-001,1.18723E+000,-1.07383E-002,0.00000E+000,1.05109E-002,9.34491E-001,0.00000E+000,-5.88105E-003,-6.67861E-002,1.00000E+000,27
599,1327,-1.90342E+001,-6.58542E-001,1.38410E-001,2.55992E+000,-5.18121E-001,1.37362E-001,2.61544E+000,1.21123E-002,6.34804E-001,0,3.98168E+001,-8.75568E+000,9.98502E-001,-1.25437E+000,-4.90777E+001,9.97742E-001,1.49652E-001,-6.28863E-002,-1.26810E-003,1.49659E-001,-6.28938E-002,-3.41836E-001,1.50292E-001,1.16123E+000,2.18333E-002,0.00000E+000,-1.99859E-002,9.40965E-001,0.00000E+000,-4.15630E-004,-6.73374E-002,1.00000E+000,27
599,1337,-1.90117E+001,-6.59545E-002,7.04928E-002,2.57671E+000,-5.58164E-001,9.55981E-002,2.63821E+000,1.13635E-002,6.23112E-001,0,4.01970E+001,-9.30914E+000,9.98206E-001,-9.59858E-001,-4.98365E+001,9.98127E-001,1.47359E-001,-6.28914E-002,-1.02574E-003,1.47364E-001,-6.28964E-002,-2.79518E-001,1.47890E-001,1.15857E+000,2.18100E-002,0.00000E+000,-1.94891E-002,9.40969E-001,0.00000E+000,-1.35816E-003,-6.73457E-002,1.00000E+000,27
1259,1317,3.19972E+001,-5.32821E-001,-1.14139E-001,1.05591E+001,-1.16007E-001,-6.81863E-002,1.05599E+001,1.46370E-002,4.55645E-001,0,1.57623E+002,-3.13929E+000,9.98404E-001,1.27768E+002,-2.99777E+001,9.97291E-001,1.72672E-001,-6.98920E-002,1.35184E-003,1.72680E-001,-6.98996E-002,3.19303E-001,1.73720E-001,1.18844E+000,-1.07089E-002,0.00000E+000,1.11660E-002,9.34507E-001,0.00000E+000,-3.80722E-003,-6.67356E-002,1.00000E+000,27
599,1317,-1.90560E+001,-1.24862E+000,2.32906E-001,2.53951E+000,-4.78212E-001,1.79462E-001,2.59037E+000,1.55401E-002,6.33202E-001,0,3.93767E+001,-8.21519E+000,9.98272E-001,-1.45947E+000,-4.83432E+001,9.97819E-001,1.51936E-001,-6.28781E-002,-1.51766E-003,1.51947E-001,-6.28888E-002,-4.04767E-001,1.52696E-001,1.16388E+000,2.18391E-002,0.00000E+000,-2.04825E-002,9.40964E-001,0.00000E+000,5.26424E-004,-6.73354E-002,1.00000E+000,27
589,1347,-1.97220E+001,5.48405E-001,4.35754E-002,2.49337E+000,-5.76756E-001,6.06324E-002,2.55993E+000,1.19540E-002,6.38554E-001,0,3.90096E+001,-9.52695E+000,9.98357E-001,-1.71517E+000,-5.04445E+001,9.98184E-001,1.44408E-001,-6.26219E-002,-1.38812E-004,1.44408E-001,-6.26220E-002,-3.84163E-002,1.44832E-001,1.15510E+000,2.47945E-002,0.00000E+000,-2.02396E-002,9.41132E-001,0.00000E+000,-2.20646E-003,-6.61867E-002,1.00000E+000,27
589,1357,-1.96883E+001,1.14966E+000,4.26229E-002,2.51140E+000,-6.18177E-001,2.53271E-002,2.58648E+000,9.28606E-003,6.35271E-001,0,3.93859E+001,-1.01019E+001,9.98600E-001,-1.05127E+000,-5.12144E+001,9.98779E-001,1.42056E-001,-6.26208E-002,9.29707E-005,1.42056E-001,-6.26209E-002,2.60255E-002,1.42388E-001,1.15239E+000,2.47300E-002,0.00000E+000,-1.97436E-002,9.41144E-001,0.00000E+000,-3.05262E-003,-6.62068E-002,1.00000E+000,27
589,1337,-1.97482E+001,-5.89079E-002,7.77527E-002,2.47761E+000,-5.46211E-001,9.68548E-002,2.53895E+000,8.44328E-003,6.15744E-001,0,3.86661E+001,-9.11273E+000,9.99135E-001,-2.16684E+000,-4.98538E+001,9.98947E-001,1.46746E-001,-6.26191E-002,-3.79100E-004,1.46747E-001,-6.26198E-002,-1.03745E-001,1.47271E-001,1.15780E+000,2.48371E-002,0.00000E+000,-2.07341E-002,9.41124E-001,0.00000E+000,-1.36286E-003,-6.61734E-002,1.00000E+000,27
589,1327,-1.97651E+001,-6.37491E-001,1.51328E-001,2.46654E+000,-4.92972E-001,1.45616E-001,2.51953E+000,1.55629E-002,6.78251E-001,0,3.83543E+001,-8.38225E+000,9.99103E-001,-2.35628E+000,-4.88639E+001,9.98122E-001,1.49065E-001,-6.26132E-002,-6.25617E-004,1.49066E-001,-6.26150E-002,-1.69336E-001,1.49700E-001,1.16048E+000,2.48613E-002,0.00000E+000,-2.12258E-002,9.41120E-001,0.00000E+000,-5.24095E-004,-6.61658E-002,1.00000E+000,27
1269,1327,3.28097E+001,9.35691E-002,-1.29020E-001,1.06785E+001,-1.50870E-001,-1.10007E-001,1.06801E+001,1.23387E-002,4.07791E-001,0,1.59427E+002,-3.64718E+000,9.98797E-001,1.30509E+002,-3.01286E+001,9.98070E-001,1.73574E-001,-6.92109E-002,2.36719E-003,1.73597E-001,-6.92340E-002,5.58571E-001,1.74778E-001,1.18952E+000,-9.65166E-003,0.00000E+000,1.20727E-002,9.34995E-001,0.00000E+000,-9.35675E-004,-6.44570E-002,1.00000E+000,27
1269,1337,3.28454E+001,7.03230E-001,-1.04680E-001,1.06795E+001,-2.01110E-001,-1.47238E-001,1.06824E+001,1.23861E-002,3.87947E-001,0,1.59574E+002,-4.40005E+000,9.98547E-001,1.31126E+002,-3.07089E+001,9.97421E-001,1.74689E-001,-6.91453E-002,2.91821E-003,1.74724E-001,-6.91802E-002,6.85585E-001,1.75981E-001,1.19085E+000,-9.58141E-003,0.00000E+000,1.29175E-002,9.35040E-001,0.00000E+000,1.26035E-003,-6.43412E-002,1.00000E+000,27
589,1317,-1.97914E+001,-1.23034E+000,2.48113E-001,2.44135E+000,-4.55826E-001,1.88273E-001,2.49066E+000,1.27314E-002,5.90368E-001,0,3.78395E+001,-7.84884E+000,9.97702E-001,-2.62218E+000,-4.82182E+001,9.96559E-001,1.51379E-001,-6.26037E-002,-8.80629E-004,1.51383E-001,-6.26073E-002,-2.35791E-001,1.52135E-001,1.16317E+000,2.48658E-002,0.00000E+000,-2.17181E-002,9.41119E-001,0.00000E+000,3.15703E-004,-6.61644E-002,1.00000E+000,27
1269,1317,3.27979E+001,-5.15959E-001,-1.12791E-001,1.06903E+001,-1.05785E-001,-7.31913E-002,1.06911E+001,1.25140E-002,4.14714E-001,0,1.59459E+002,-2.98091E+000,9.98683E-001,1.30312E+002,-2.96427E+001,9.97740E-001,1.72457E-001,-6.92586E-002,1.82694E-003,1.72471E-001,-6.92725E-002,4.33022E-001,1.73579E-001,1.18819E+000,-9.69958E-003,0.00000E+000,1.12313E-002,9.34965E-001,0.00000E+000,-3.12297E-003,-6.45360E-002,1.00000E+000,27
1269,1307,3.27867E+001,-1.12275E+000,-6.62443E-002,1.06950E+001,-6.26744E-002,-3.45064E-002,1.06953E+001,1.34626E-002,4.43394E-001,0,1.59369E+002,-2.35069E+000,9.97980E-001,1.30159E+002,-2.91713E+001,9.96752E-001,1.71338E-001,-6.92938E-002,1.29505E-003,1.71345E-001,-6.93008E-002,3.08347E-001,1.72385E-001,1.18687E+000,-9.73195E-003,0.00000E+000,1.03936E-002,9.34944E-001,0.00000E+000,-5.30070E-003,-6.45893E-002,1.00000E+000,27
1269,1297,3.27792E+001,-1.72600E+000,1.15413E-003,1.06984E+001,-1.79566E-002,5.98409E-003,1.06984E+001,1.45153E-002,4.33255E-001,0,1.59242E+002,-1.69326E+000,9.97710E-001,1.30090E+002,-2.87097E+001,9.96232E-001,1.70214E-001,-6.93204E-002,7.67717E-004,1.70216E-001,-6.93229E-002,1.83633E-001,1.71189E-001,1.18555E+000,-9.75397E-003,0.00000E+000,9.55671E-003,9.34930E-001,0.00000E+000,-7.47614E-003,-6.46256E-002,1.00000E+000,27
1269,1287,3.27894E+001,-2.31990E+000,1.19726E-001,1.07078E+001,3.07700E-002,5.42262E-002,1.07080E+001,1.91933E-002,4.18730E-001,0,1.59155E+002,-1.00051E+000,9.98067E-001,1.30359E+002,-2.82118E+001,9.95467E-001,1.69087E-001,-6.93281E-002,2.52087E-004,1.69087E-001,-6.93284E-002,6.05814E-002,1.69998E-001,1.18423E+000,-9.75236E-003,0.00000E+000,8.72308E-003,9.34931E-001,0.00000E+000,-9.64319E-003,-6.46229E-002,1.00000E+000,27
579,1347,-2.04558E+001,5.56240E-001,5.05192E-002,2.39695E+000,-5.64169E-001,6.30711E-002,2.46326E+000,1.00062E-002,6.42797E-001,0,3.75152E+001,-9.32040E+000,9.98386E-001,-2.87552E+000,-5.04452E+001,9.98626E-001,1.43173E-001,-6.21609E-002,5.41807E-004,1.43174E-001,-6.21624E-002,1.51183E-001,1.43587E-001,1.15360E+000,2.78730E-002,0.00000E+000,-2.14489E-002,9.41496E-001,0.00000E+000,-2.87505E-003,-6.54878E-002,1.00000E+000,27
579,1357,-2.04153E+001,1.16656E+000,5.47496E-002,2.42156E+000,-5.96854E-001,3.10815E-002,2.49422E+000,1.00485E-002,6.66001E-001,0,3.79828E+001,-9.77614E+000,9.99039E-001,-2.09029E+000,-5.10753E+001,9.99165E-001,1.40639E-001,-6.21607E-002,8.19016E-004,1.40643E-001,-6.21640E-002,2.31386E-001,1.40958E-001,1.15069E+000,2.78032E-002,0.00000E+000,-2.08603E-002,9.41510E-001,0.00000E+000,-3.93244E-003,-6.55132E-002,1.00000E+000,27
579,1337,-2.04879E+001,-4.76974E-002,8.69693E-002,2.37513E+000,-5.30486E-001,1.01535E-001,2.43576E+000,1.00070E-002,6.29178E-001,0,3.70707E+001,-8.86566E+000,9.98098E-001,-3.41091E+000,-4.98019E+001,9.98484E-001,1.45689E-001,-6.21563E-002,2.55259E-004,1.45690E-001,-6.21566E-002,7.03657E-002,1.46211E-001,1.15651E+000,2.79180E-002,0.00000E+000,-2.20354E-002,9.41486E-001,0.00000E+000,-1.82144E-003,-6.54715E-002,1.00000E+000,27
579,1327,-2.05146E+001,-6.29543E-001,1.47311E-001,2.35475E+000,-4.80721E-001,1.40771E-001,2.40744E+000,1.06543E-002,6.76708E-001,0,3.66406E+001,-8.15124E+000,9.98993E-001,-3.78960E+000,-4.88406E+001,9.98235E-001,1.48182E-001,-6.21485E-002,-3.64201E-005,1.48182E-001,-6.21485E-002,-9.92112E-003,1.48823E-001,1.15939E+000,2.79462E-002,0.00000E+000,-2.26183E-002,9.41481E-001,0.00000E+000,-7.74316E-004,-6.54613E-002,1.00000E+000,27
579,1317,-2.05330E+001,-1.21457E+000,2.46495E-001,2.33768E+000,-4.37285E-001,1.87446E-001,2.38561E+000,1.58973E-002,6.69231E-001,0,3.62416E+001,-7.54624E+000,9.97654E-001,-3.92542E+000,-4.80367E+001,9.96260E-001,1.50666E-001,-6.21362E-002,-3.37274E-004,1.50667E-001,-6.21368E-002,-9.08087E-002,1.51435E-001,1.16227E+000,2.79519E-002,0.00000E+000,-2.32010E-002,9.41480E-001,0.00000E+000,2.72304E-004,-6.54592E-002,1.00000E+000,27
1279,1317,3.35866E+001,-5.09202E-001,-1.16303E-001,1.08125E+001,-1.03307E-001,-7.05731E-002,1.08132E+001,1.08851E-002,3.90621E-001,0,1.61133E+002,-2.97310E+000,9.98468E-001,1.32666E+002,-2.94475E+001,9.96939E-001,1.72019E-001,-6.83468E-002,2.21274E-003,1.72039E-001,-6.83672E-002,5.27390E-001,1.73243E-001,1.18768E+000,-8.56823E-003,0.00000E+000,1.10409E-002,9.35685E-001,0.00000E+000,-2.47314E-003,-6.22325E-002,1.00000E+000,27
1279,1327,3.36139E+001,1.07769E-001,-1.21969E-001,1.08144E+001,-1.43434E-001,-1.02265E-001,1.08158E+001,1.81618E-002,4.38102E-001,0,1.61279E+002,-3.58195E+000,9.97711E-001,1.33116E+002,-2.98104E+001,9.97306E-001,1.73288E-001,-6.82878E-002,2.85432E-003,1.73322E-001,-6.83216E-002,6.76849E-001,1.74611E-001,1.18919E+000,-8.51008E-003,0.00000E+000,1.20617E-002,9.35724E-001,0.00000E+000,-1.25112E-004,-6.21420E-002,1.00000E+000,27
1279,1337,3.36472E+001,7.17132E-001,-9.81705E-002,1.08129E+001,-1.95525E-001,-1.39549E-001,1.08156E+001,1.44027E-002,4.29172E-001,0,1.61391E+002,-4.34765E+000,9.98287E-001,1.33693E+002,-3.03877E+001,9.97774E-001,1.74553E-001,-6.82105E-002,3.50618E-003,1.74604E-001,-6.82612E-002,8.27280E-001,1.75983E-001,1.19070E+000,-8.43018E-003,0.00000E+000,1.30857E-002,9.35778E-001,0.00000E+000,2.23029E-003,-6.20177E-002,1.00000E+000,27
1279,1307,3.35681E+001,-1.11470E+000,-7.95191E-002,1.08112E+001,-5.88880E-002,-3.71384E-002,1.08114E+001,1.23487E-002,4.50213E-001,0,1.60977E+002,-2.31231E+000,9.98336E-001,1.32389E+002,-2.89220E+001,9.96326E-001,1.70752E-001,-6.83901E-002,1.58328E-003,1.70763E-001,-6.84006E-002,3.79315E-001,1.71885E-001,1.18618E+000,-8.60791E-003,0.00000E+000,1.00283E-002,9.35658E-001,0.00000E+000,-4.80234E-003,-6.22942E-002,1.00000E+000,27
1279,1297,3.35689E+001,-1.70936E+000,8.50024E-003,1.08195E+001,-6.07414E-003,1.11076E-002,1.08195E+001,2.30645E-002,3.69703E-001,0,1.60881E+002,-1.52984E+000,9.97491E-001,1.32474E+002,-2.84068E+001,9.96340E-001,1.69478E-001,-6.84144E-002,9.62881E-004,1.69482E-001,-6.84183E-002,2.31903E-001,1.70526E-001,1.18468E+000,-8.62514E-003,0.00000E+000,9.01573E-003,9.35646E-001,0.00000E+000,-7.13131E-003,-6.23210E-002,1.00000E+000,27
1279,1287,3.35740E+001,-2.32222E+000,1.06497E-001,1.08277E+001,2.54500E-002,5.33489E-002,1.08279E+001,2.11467E-002,3.25639E-001,0,1.60814E+002,-1.06399E+000,9.97840E-001,1.32637E+002,-2.81770E+001,9.95435E-001,1.68200E-001,-6.84299E-002,3.48336E-004,1.68200E-001,-6.84304E-002,8.43432E-002,1.69171E-001,1.18319E+000,-8.63238E-003,0.00000E+000,8.00636E-003,9.35642E-001,0.00000E+000,-9.45302E-003,-6.23322E-002,1.00000E+000,27
569,1347,-2.11884E+001,5.73263E-001,5.83834E-002,2.30157E+000,-5.42489E-001,6.81060E-002,2.36562E+000,1.06753E-002,6.62626E-001,0,3.60262E+001,-8.97992E+000,9.98124E-001,-4.00793E+000,-5.02994E+001,9.98153E-001,1.42400E-001,-6.15743E-002,1.11562E-003,1.42406E-001,-6.15804E-002,3.13360E-001,1.42839E-001,1.15263E+000,3.10749E-002,0.00000E+000,-2.29939E-002,9.41965E-001,0.00000E+000,-3.00537E-003,-6.47190E-002,1.00000E+000,27
569,1357,-2.11513E+001,1.17565E+000,5.31010E-002,2.32418E+000,-5.80757E-001,3.42659E-002,2.39588E+000,1.01663E-002,6.59544E-001,0,3.64692E+001,-9.52107E+000,9.98669E-001,-3.30372E+000,-5.10460E+001,9.98479E-001,1.39735E-001,-6.15774E-002,1.50528E-003,1.39746E-001,-6.15887E-002,4.28389E-001,1.40073E-001,1.14957E+000,3.10083E-002,0.00000E+000,-2.21919E-002,9.41983E-001,0.00000E+000,-4.28821E-003,-6.47469E-002,1.00000E+000,27
569,1327,-2.12499E+001,-6.26549E-001,1.45499E-001,2.25750E+000,-4.72360E-001,1.42334E-001,2.31078E+000,1.62042E-002,6.88930E-001,0,3.51366E+001,-8.01187E+000,9.99192E-001,-4.99590E+000,-4.88892E+001,9.98597E-001,1.47683E-001,-6.15543E-002,3.17777E-004,1.47684E-001,-6.15547E-002,8.70170E-002,1.48364E-001,1.15873E+000,3.11556E-002,0.00000E+000,-2.45918E-002,9.41944E-001,0.00000E+000,-4.49620E-004,-6.46851E-002,1.00000E+000,27
569,1337,-2.12211E+001,-2.92108E-002,9.27732E-002,2.27833E+000,-5.08336E-001,1.00761E-001,2.33653E+000,9.73733E-003,6.32393E-001,0,3.55750E+001,-8.49239E+000,9.98494E-001,-4.55981E+000,-4.96353E+001,9.98423E-001,1.45051E-001,-6.15653E-002,7.17287E-004,1.45054E-001,-6.15677E-002,1.98904E-001,1.45605E-001,1.15569E+000,3.11189E-002,0.00000E+000,-2.37944E-002,9.41954E-001,0.00000E+000,-1.72503E-003,-6.47005E-002,1.00000E+000,27
1289,1327,3.43979E+001,1.13481E-001,-1.32403E-001,1.09326E+001,-1.42215E-001,-1.01184E-001,1.09340E+001,1.66093E-002,4.25349E-001,0,1.62901E+002,-3.58440E+000,9.97103E-001,1.35390E+002,-2.96098E+001,9.96142E-001,1.72999E-001,-6.70440E-002,3.35077E-003,1.73046E-001,-6.70907E-002,7.99587E-001,1.74494E-001,1.18886E+000,-7.03508E-003,0.00000E+000,1.18145E-002,9.36752E-001,0.00000E+000,6.55652E-004,-5.96300E-002,1.00000E+000,27
1289,1337,3.44350E+001,7.31588E-001,-1.03579E-001,1.09349E+001,-1.86005E-001,-1.32761E-001,1.09373E+001,1.58387E-002,4.38820E-001,0,1.63041E+002,-4.24347E+000,9.98099E-001,1.36031E+002,-3.00490E+001,9.97194E-001,1.74510E-001,-6.69577E-002,4.08990E-003,1.74579E-001,-6.70269E-002,9.70087E-001,1.76140E-001,1.19067E+000,-6.93954E-003,0.00000E+000,1.29856E-002,9.36814E-001,0.00000E+000,3.24099E-003,-5.94936E-002,1.00000E+000,27
569,1317,-2.12748E+001,-1.20356E+000,2.45616E-001,2.23243E+000,-4.21248E-001,1.80693E-001,2.27900E+000,1.83194E-002,6.61166E-001,0,3.46322E+001,-7.27546E+000,9.97960E-001,-5.22450E+000,-4.79735E+001,9.96264E-001,1.50303E-001,-6.15336E-002,-9.71061E-005,1.50304E-001,-6.15336E-002,-2.62644E-002,1.51124E-001,1.16177E+000,3.11546E-002,0.00000E+000,-2.53885E-002,9.41944E-001,0.00000E+000,8.24713E-004,-6.46856E-002,1.00000E+000,27
1289,1317,3.43740E+001,-5.01080E-001,-1.16317E-001,1.09317E+001,-1.03272E-001,-6.79760E-002,1.09324E+001,1.73558E-002,4.73812E-001,0,1.62761E+002,-3.00458E+000,9.98463E-001,1.35007E+002,-2.91856E+001,9.95865E-001,1.71491E-001,-6.71044E-002,2.63013E-003,1.71520E-001,-6.71334E-002,6.31492E-001,1.72863E-001,1.18706E+000,-7.09812E-003,0.00000E+000,1.06534E-002,9.36712E-001,0.00000E+000,-1.90800E-003,-5.97200E-002,1.00000E+000,27
1289,1287,3.43568E+001,-2.29966E+000,9.33846E-002,1.09436E+001,4.23809E-002,4.63082E-002,1.09438E+001,2.16612E-002,4.04676E-001,0,1.62424E+002,-8.32411E-001,9.97906E-001,1.34892E+002,-2.76695E+001,9.95198E-001,1.66922E-001,-6.71969E-002,5.17650E-004,1.66923E-001,-6.71981E-002,1.26683E-001,1.67976E-001,1.18169E+000,-7.17807E-003,0.00000E+000,7.18141E-003,9.36660E-001,0.00000E+000,-9.57330E-003,-5.98341E-002,1.00000E+000,27
1289,1297,3.43564E+001,-1.69974E+000,1.40862E-002,1.09365E+001,-1.87180E-003,9.75342E-003,1.09365E+001,2.31672E-002,3.03796E-001,0,1.62486E+002,-1.46884E+000,9.97943E-001,1.34824E+002,-2.82110E+001,9.96571E-001,1.68447E-001,-6.71734E-002,1.21529E-003,1.68454E-001,-6.71797E-002,2.95511E-001,1.69600E-001,1.18347E+000,-7.15979E-003,0.00000E+000,8.33308E-003,9.36672E-001,0.00000E+000,-7.03068E-003,-5.98080E-002,1.00000E+000,27
1289,1307,3.43618E+001,-1.10584E+000,-7.77122E-002,1.09355E+001,-5.69921E-002,-3.77991E-002,1.09358E+001,1.47291E-002,4.48240E-001,0,1.62691E+002,-2.29128E+000,9.99168E-001,1.34832E+002,-2.86957E+001,9.97309E-001,1.69974E-001,-6.71495E-002,1.91760E-003,1.69990E-001,-6.71650E-002,4.63305E-001,1.71232E-001,1.18527E+000,-7.14219E-003,0.00000E+000,9.49354E-003,9.36683E-001,0.00000E+000,-4.46863E-003,-5.97829E-002,1.00000E+000,27
559,1327,-2.19763E+001,-6.15181E-001,1.47734E-001,2.16790E+000,-4.57248E-001,1.42332E-001,2.22016E+000,2.81479E-002,7.94986E-001,0,3.37521E+001,-7.79919E+000,9.99381E-001,-6.04674E+000,-4.87702E+001,9.98406E-001,1.47123E-001,-6.13889E-002,8.99487E-004,1.47127E-001,-6.13927E-002,2.47158E-001,1.47797E-001,1.15798E+000,3.45564E-002,0.00000E+000,-2.62920E-002,9.41987E-001,0.00000E+000,-1.14499E-005,-6.35426E-002,1.00000E+000,27
559,1337,-2.19544E+001,-1.61258E-002,8.84490E-002,2.18212E+000,-4.90354E-001,9.56963E-002,2.23858E+000,8.51501E-003,6.45981E-001,0,3.40990E+001,-8.18632E+000,9.99369E-001,-5.73508E+000,-4.95250E+001,9.99190E-001,1.44560E-001,-6.13989E-002,1.20968E-003,1.44567E-001,-6.14060E-002,3.36506E-001,1.45111E-001,1.15502E+000,3.45223E-002,0.00000E+000,-2.56640E-002,9.41994E-001,0.00000E+000,-1.43355E-003,-6.35590E-002,1.00000E+000,27
559,1347,-2.19265E+001,5.85280E-001,5.41857E-002,2.20056E+000,-5.23817E-001,6.25535E-002,2.26291E+000,1.27780E-002,6.27166E-001,0,3.44759E+001,-8.66162E+000,9.98277E-001,-5.25576E+000,-5.02328E+001,9.97948E-001,1.41981E-001,-6.14073E-002,1.51741E-003,1.41992E-001,-6.14186E-002,4.27434E-001,1.42422E-001,1.15205E+000,3.44798E-002,0.00000E+000,-2.50344E-002,9.42003E-001,0.00000E+000,-2.85933E-003,-6.35794E-002,1.00000E+000,27
559,1357,-2.18871E+001,1.18721E+000,4.74776E-002,2.22629E+000,-5.61469E-001,3.10302E-002,2.29621E+000,1.10401E-002,6.29554E-001,0,3.49616E+001,-9.20626E+000,9.98294E-001,-4.51885E+000,-5.09820E+001,9.98422E-001,1.39383E-001,-6.14120E-002,1.81849E-003,1.39399E-001,-6.14284E-002,5.18841E-001,1.39726E-001,1.14907E+000,3.44185E-002,0.00000E+000,-2.44025E-002,9.42016E-001,0.00000E+000,-4.29029E-003,-6.36088E-002,1.00000E+000,27
559,1317,-2.20077E+001,-1.18543E+000,2.52130E-001,2.13578E+000,-3.99986E-001,1.82239E-001,2.18054E+000,2.83133E-002,6.94430E-001,0,3.31326E+001,-6.93132E+000,9.98860E-001,-6.35955E+000,-4.77950E+001,9.97730E-001,1.49678E-001,-6.13714E-002,5.73691E-004,1.49680E-001,-6.13729E-002,1.55744E-001,1.50485E-001,1.16095E+000,3.45533E-002,0.00000E+000,-2.69202E-002,9.41987E-001,0.00000E+000,1.41101E-003,-6.35441E-002,1.00000E+000,27
1299,1327,3.51903E+001,1.29057E-001,-1.26359E-001,1.10546E+001,-1.34067E-001,-9.85916E-002,1.10559E+001,2.15452E-002,4.48431E-001,0,1.64561E+002,-3.49137E+000,9.97111E-001,1.37819E+002,-2.92736E+001,9.96013E-001,1.72833E-001,-6.56371E-002,3.82904E-003,1.72894E-001,-6.56986E-002,9.19664E-001,1.74546E-001,1.18867E+000,-4.95987E-003,0.00000E+000,1.10762E-002,9.37930E-001,0.00000E+000,1.21574E-003,-5.68041E-002,1.00000E+000,27
1299,1337,3.52382E+001,7.43243E-001,-1.02727E-001,1.10663E+001,-1.83439E-001,-1.39910E-001,1.10687E+001,1.98391E-002,4.66384E-001,0,1.64881E+002,-4.20717E+000,9.96986E-001,1.38621E+002,-2.97573E+001,9.95589E-001,1.74628E-001,-6.55416E-002,4.64095E-003,1.74718E-001,-6.56312E-002,1.10661E+000,1.76510E-001,1.19083E+000,-4.84161E-003,0.00000E+000,1.23692E-002,9.38001E-001,0.00000E+000,3.95162E-003,-5.66538E-002,1.00000E+000,27
1299,1287,3.51514E+001,-2.29005E+000,9.75519E-002,1.10664E+001,4.31692E-002,4.07753E-002,1.10665E+001,1.57375E-002,4.98611E-001,0,1.64128E+002,-8.43517E-001,9.98283E-001,1.37352E+002,-2.73919E+001,9.96516E-001,1.65629E-001,-6.57919E-002,7.41944E-004,1.65632E-001,-6.57943E-002,1.83690E-001,1.66794E-001,1.18018E+000,-5.12506E-003,0.00000E+000,5.97250E-003,9.37831E-001,0.00000E+000,-9.58371E-003,-5.70141E-002,1.00000E+000,27
1299,1297,3.51545E+001,-1.69589E+000,2.43790E-002,1.10643E+001,-6.60171E-003,1.57238E-002,1.10643E+001,1.71005E-002,5.09217E-001,0,1.64219E+002,-1.64017E+000,9.98709E-001,1.37347E+002,-2.79789E+001,9.96890E-001,1.67438E-001,-6.57718E-002,1.50044E-003,1.67448E-001,-6.57814E-002,3.68612E-001,1.68725E-001,1.18229E+000,-5.10795E-003,0.00000E+000,7.24188E-003,9.37841E-001,0.00000E+000,-6.89772E-003,-5.69923E-002,1.00000E+000,27
1299,1307,3.51745E+001,-1.08746E+000,-4.07684E-002,1.10737E+001,-4.77328E-002,-2.05646E-002,1.10738E+001,3.25627E-002,4.96241E-001,0,1.64517E+002,-2.22739E+000,9.98419E-001,1.37615E+002,-2.83708E+001,9.96855E-001,1.69248E-001,-6.57383E-002,2.27090E-003,1.69270E-001,-6.57602E-002,5.53636E-001,1.70667E-001,1.18442E+000,-5.07338E-003,0.00000E+000,8.51976E-003,9.37862E-001,0.00000E+000,-4.19374E-003,-5.69484E-002,1.00000E+000,27
1299,1317,3.51824E+001,-4.81451E-001,-9.92137E-002,1.10662E+001,-9.26549E-002,-6.80411E-002,1.10668E+001,2.68931E-002,4.83516E-001,0,1.64609E+002,-2.86480E+000,9.97401E-001,1.37701E+002,-2.88166E+001,9.95851E-001,1.71046E-001,-6.56926E-002,3.04764E-003,1.71085E-001,-6.57318E-002,7.37430E-001,1.72608E-001,1.18655E+000,-5.02297E-003,0.00000E+000,9.79798E-003,9.37892E-001,0.00000E+000,-1.48904E-003,-5.68843E-002,1.00000E+000,27
559,1307,-2.20357E+001,-1.76875E+000,3.68842E-001,2.10532E+000,-3.56944E-001,2.23413E-001,2.14702E+000,1.37388E-002,6.75186E-001,0,3.25383E+001,-6.33662E+000,9.97798E-001,-6.58697E+000,-4.70036E+001,9.96695E-001,1.52223E-001,-6.13523E-002,2.45029E-004,1.52223E-001,-6.13526E-002,6.57338E-002,1.53174E-001,1.16391E+000,3.45424E-002,0.00000E+000,-2.75482E-002,9.41990E-001,0.00000E+000,2.83320E-003,-6.35494E-002,1.00000E+000,27
549,1347,-2.26535E+001,6.01973E-001,5.55482E-002,2.11022E+000,-5.02756E-001,6.27135E-002,2.17019E+000,1.13385E-002,6.66503E-001,0,3.30752E+001,-8.32226E+000,9.98150E-001,-6.31247E+000,-5.00678E+001,9.97827E-001,1.41593E-001,-6.11233E-002,1.97350E-003,1.41613E-001,-6.11425E-002,5.57720E-001,1.42052E-001,1.15151E+000,3.76851E-002,0.00000E+000,-2.68192E-002,9.42143E-001,0.00000E+000,-2.65536E-003,-6.22198E-002,1.00000E+000,27
549,1357,-2.26138E+001,1.21143E+000,5.26823E-002,2.13559E+000,-5.33688E-001,2.97494E-002,2.20147E+000,1.21347E-002,6.53034E-001,0,3.35567E+001,-8.74623E+000,9.98168E-001,-5.55547E+000,-5.07201E+001,9.98191E-001,1.39102E-001,-6.11284E-002,2.25985E-003,1.39127E-001,-6.11539E-002,6.46545E-001,1.39466E-001,1.14865E+000,3.76236E-002,0.00000E+000,-2.62123E-002,9.42156E-001,0.00000E+000,-4.22362E-003,-6.22536E-002,1.00000E+000,27
549,1327,-2.27317E+001,-5.93073E-001,1.56648E-001,2.04723E+000,-4.30758E-001,1.39028E-001,2.09667E+000,2.28638E-002,7.60897E-001,0,3.18840E+001,-7.35728E+000,9.98254E-001,-7.51154E+000,-4.85750E+001,9.96652E-001,1.46526E-001,-6.11015E-002,1.37944E-003,1.46536E-001,-6.11107E-002,3.80641E-001,1.47207E-001,1.15719E+000,3.77501E-002,0.00000E+000,-2.80276E-002,9.42129E-001,0.00000E+000,4.67022E-004,-6.21841E-002,1.00000E+000,27
549,1337,-2.26858E+001,3.32870E-003,9.27695E-002,2.08710E+000,-4.64618E-001,9.67799E-002,2.14038E+000,9.20827E-003,6.53826E-001,0,3.26216E+001,-7.79698E+000,9.98919E-001,-6.84792E+000,-4.93384E+001,9.98843E-001,1.44074E-001,-6.11136E-002,1.67792E-003,1.44087E-001,-6.11274E-002,4.68495E-001,1.44638E-001,1.15436E+000,3.77241E-002,0.00000E+000,-2.74257E-002,9.42135E-001,0.00000E+000,-1.08828E-003,-6.21984E-002,1.00000E+000,27
1309,1317,3.59605E+001,-4.80537E-001,-1.26150E-001,1.11777E+001,-9.55393E-002,-8.31660E-002,1.11784E+001,2.18377E-002,4.58109E-001,0,1.66198E+002,-2.89437E+000,9.97132E-001,1.39874E+002,-2.86637E+001,9.95791E-001,1.71004E-001,-6.45002E-002,3.62444E-003,1.71060E-001,-6.45560E-002,8.81512E-001,1.72766E-001,1.18651E+000,-2.19561E-003,0.00000E+000,8.64734E-003,9.38867E-001,0.00000E+000,-1.11006E-003,-5.38059E-002,1.00000E+000,27
1309,1327,3.59879E+001,1.36038E-001,-1.42598E-001,1.11829E+001,-1.32860E-001,-1.12757E-001,1.11842E+001,2.54345E-002,4.35697E-001,0,1.66387E+002,-3.46458E+000,9.96657E-001,1.40309E+002,-2.90393E+001,9.94857E-001,1.73103E-001,-6.44450E-002,4.36574E-003,1.73183E-001,-6.45252E-002,1.05253E+000,1.75047E-001,1.18901E+000,-2.11080E-003,0.00000E+000,9.83716E-003,9.38907E-001,0.00000E+000,1.76175E-003,-5.37085E-002,1.00000E+000,27
1309,1337,3.60317E+001,7.56100E-001,-1.12118E-001,1.11915E+001,-1.75689E-001,-1.42357E-001,1.11938E+001,2.49212E-002,4.58232E-001,0,1.66611E+002,-4.11148E+000,9.97710E-001,1.41051E+002,-2.94434E+001,9.96883E-001,1.75206E-001,-6.43610E-002,5.13281E-003,1.75316E-001,-6.44709E-002,1.22683E+000,1.77349E-001,1.19153E+000,-1.97634E-003,0.00000E+000,1.10375E-002,9.38971E-001,0.00000E+000,4.65904E-003,-5.35541E-002,1.00000E+000,27
549,1317,-2.27451E+001,-1.17029E+000,2.66433E-001,2.03423E+000,-3.81099E-001,1.91683E-001,2.07848E+000,1.97425E-002,7.67570E-001,0,3.15346E+001,-6.67112E+000,9.98637E-001,-7.53587E+000,-4.76600E+001,9.97456E-001,1.48970E-001,-6.10847E-002,1.07107E-003,1.48975E-001,-6.10902E-002,2.92142E-001,1.49776E-001,1.16002E+000,3.77519E-002,0.00000E+000,-2.86295E-002,9.42129E-001,0.00000E+000,2.02219E-003,-6.21831E-002,1.00000E+000,27
549,1307,-2.27692E+001,-1.75426E+000,3.59499E-001,2.00859E+000,-3.38077E-001,2.14847E-001,2.04814E+000,1.39816E-002,6.93418E-001,0,3.10632E+001,-6.01057E+000,9.97952E-001,-7.77369E+000,-4.68537E+001,9.97348E-001,1.51409E-001,-6.10662E-002,7.58844E-004,1.51412E-001,-6.10689E-002,2.04625E-001,1.52353E-001,1.16286E+000,3.77453E-002,0.00000E+000,-2.92326E-002,9.42130E-001,0.00000E+000,3.58061E-003,-6.21867E-002,1.00000E+000,27
1309,1287,3.59450E+001,-2.28871E+000,9.18248E-002,1.11869E+001,3.86974E-002,2.20271E-002,1.11870E+001,1.41168E-002,4.88350E-001,0,1.65855E+002,-9.09115E-001,9.98392E-001,1.39792E+002,-2.72743E+001,9.96331E-001,1.64655E-001,-6.45710E-002,1.47331E-003,1.64664E-001,-6.45805E-002,3.68238E-001,1.65935E-001,1.17904E+000,-2.29023E-003,0.00000E+000,5.09412E-003,9.38822E-001,0.00000E+000,-9.68634E-003,-5.39146E-002,1.00000E+000,27
1309,1297,3.59454E+001,-1.69847E+000,2.60954E-004,1.11838E+001,-1.66888E-002,-1.46832E-002,1.11839E+001,1.93129E-002,4.78109E-001,0,1.65988E+002,-1.72038E+000,9.98170E-001,1.39725E+002,-2.78918E+001,9.95835E-001,1.66783E-001,-6.45585E-002,2.18246E-003,1.66803E-001,-6.45790E-002,5.40462E-001,1.68213E-001,1.18153E+000,-2.27678E-003,0.00000E+000,6.27731E-003,9.38829E-001,0.00000E+000,-6.83051E-003,-5.38991E-002,1.00000E+000,27
1309,1307,3.59485E+001,-1.08580E+000,-8.04968E-002,1.11820E+001,-4.80416E-002,-4.58435E-002,1.11822E+001,2.09193E-002,3.98352E-001,0,1.66102E+002,-2.17871E+000,9.98077E-001,1.39711E+002,-2.82171E+001,9.97232E-001,1.68890E-001,-6.45421E-002,2.89135E-003,1.68926E-001,-6.45779E-002,7.09534E-001,1.70480E-001,1.18401E+000,-2.25807E-003,0.00000E+000,7.45692E-003,9.38837E-001,0.00000E+000,-3.98332E-003,-5.38777E-002,1.00000E+000,27
539,1347,-2.33858E+001,6.21385E-001,5.58553E-002,2.01413E+000,-4.77611E-001,6.07301E-002,2.07087E+000,1.01587E-002,6.53215E-001,0,3.15869E+001,-7.91010E+000,9.98392E-001,-7.44562E+000,-4.98863E+001,9.98514E-001,1.41275E-001,-6.06900E-002,2.14256E-003,1.41297E-001,-6.07127E-002,6.07737E-001,1.41762E-001,1.15105E+000,4.05025E-002,0.00000E+000,-2.88302E-002,9.42399E-001,0.00000E+000,-2.58076E-003,-6.05964E-002,1.00000E+000,27
539,1357,-2.33451E+001,1.23374E+000,4.94380E-002,2.04154E+000,-5.04961E-001,3.01992E-002,2.10328E+000,9.42672E-003,6.58692E-001,0,3.20935E+001,-8.28676E+000,9.98858E-001,-6.68317E+000,-5.04788E+001,9.98834E-001,1.38977E-001,-6.06962E-002,2.39089E-003,1.39006E-001,-6.07248E-002,6.85927E-001,1.39375E-001,1.14842E+000,4.04503E-002,0.00000E+000,-2.82982E-002,9.42410E-001,0.00000E+000,-4.25788E-003,-6.06298E-002,1.00000E+000,27
539,1327,-2.34523E+001,-5.70095E-001,1.45260E-001,1.96312E+000,-4.00269E-001,1.28100E-001,2.00761E+000,1.19125E-002,6.51271E-001,0,3.06064E+001,-6.82206E+000,9.96744E-001,-8.50113E+000,-4.83562E+001,9.96985E-001,1.45830E-001,-6.06695E-002,1.62955E-003,1.45842E-001,-6.06824E-002,4.52101E-001,1.46526E-001,1.15629E+000,4.05634E-002,0.00000E+000,-2.98910E-002,9.42387E-001,0.00000E+000,7.63153E-004,-6.05577E-002,1.00000E+000,27
539,1337,-2.34190E+001,2.61911E-002,9.20606E-002,1.98989E+000,-4.36299E-001,9.34134E-002,2.03930E+000,1.07866E-002,6.37143E-001,0,3.11190E+001,-7.32984E+000,9.97967E-001,-7.99811E+000,-4.91016E+001,9.98129E-001,1.43561E-001,-6.06806E-002,1.88735E-003,1.43579E-001,-6.06980E-002,5.29397E-001,1.44149E-001,1.15367E+000,4.05377E-002,0.00000E+000,-2.93618E-002,9.42392E-001,0.00000E+000,-9.05162E-004,-6.05740E-002,1.00000E+000,27
1319,1297,3.67190E+001,-1.69065E+000,-2.60683E-002,1.12905E+001,-1.10222E-002,-2.96028E-002,1.12905E+001,1.65233E-002,3.66976E-001,0,1.67496E+002,-1.59643E+000,9.98421E-001,1.41834E+002,-2.76804E+001,9.96772E-001,1.66252E-001,-6.32495E-002,3.12089E-003,1.66295E-001,-6.32919E-002,7.78947E-001,1.67868E-001,1.18091E+000,1.33673E-003,0.00000E+000,5.19057E-003,9.39882E-001,0.00000E+000,-7.26792E-003,-5.00357E-002,1.00000E+000,27
1319,1307,3.67307E+001,-1.08722E+000,-9.55432E-002,1.12940E+001,-5.44133E-002,-6.11214E-002,1.12943E+001,2.00431E-002,3.43657E-001,0,1.67693E+002,-2.25197E+000,9.98186E-001,1.41968E+002,-2.81429E+001,9.97575E-001,1.68708E-001,-6.32296E-002,3.82484E-003,1.68771E-001,-6.32926E-002,9.44513E-001,1.70519E-001,1.18380E+000,1.37307E-003,0.00000E+000,6.34682E-003,9.39896E-001,0.00000E+000,-4.02621E-003,-4.99949E-002,1.00000E+000,27
539,1307,-2.35042E+001,-1.74239E+000,3.45821E-001,1.90953E+000,-3.20212E-001,1.98737E-001,1.94636E+000,9.47945E-003,6.56778E-001,0,2.95685E+001,-5.68784E+000,9.98385E-001,-8.99142E+000,-4.67625E+001,9.98289E-001,1.50328E-001,-6.06371E-002,1.09182E-003,1.50334E-001,-6.06428E-002,2.96516E-001,1.51267E-001,1.16151E+000,4.05570E-002,0.00000E+000,-3.09467E-002,9.42388E-001,0.00000E+000,4.09066E-003,-6.05617E-002,1.00000E+000,27
539,1317,-2.34797E+001,-1.16323E+000,2.37124E-001,1.93647E+000,-3.65844E-001,1.64794E-001,1.97761E+000,1.11927E-002,6.75284E-001,0,3.00883E+001,-6.35735E+000,9.97626E-001,-8.79533E+000,-4.76389E+001,9.97220E-001,1.48085E-001,-6.06544E-002,1.36288E-003,1.48094E-001,-6.06633E-002,3.74070E-001,1.48898E-001,1.15890E+000,4.05662E-002,0.00000E+000,-3.04192E-002,9.42386E-001,0.00000E+000,2.42810E-003,-6.05558E-002,1.00000E+000,27
1319,1287,3.67268E+001,-2.29429E+000,7.15241E-002,1.12994E+001,2.83039E-002,4.50087E-003,1.12994E+001,1.73122E-002,4.47028E-001,0,1.67464E+002,-1.03339E+000,9.98121E-001,1.42035E+002,-2.72508E+001,9.97264E-001,1.63787E-001,-6.32536E-002,2.43200E-003,1.63813E-001,-6.32797E-002,6.13643E-001,1.65219E-001,1.17803E+000,1.33178E-003,0.00000E+000,4.03801E-003,9.39880E-001,0.00000E+000,-1.04993E-002,-5.00413E-002,1.00000E+000,27
529,1327,-2.41821E+001,-5.53011E-001,1.48462E-001,1.86850E+000,-3.77866E-001,1.26271E-001,1.91050E+000,1.07445E-002,6.49849E-001,0,2.91401E+001,-6.46614E+000,9.96589E-001,-9.58408E+000,-4.82065E+001,9.96710E-001,1.45263E-001,-5.97930E-002,1.93837E-003,1.45281E-001,-5.98114E-002,5.41547E-001,1.46034E-001,1.15557E+000,4.24412E-002,0.00000E+000,-3.09241E-002,9.43107E-001,0.00000E+000,1.56322E-003,-5.91965E-002,1.00000E+000,27
529,1307,-2.42347E+001,-1.72339E+000,3.50618E-001,1.81363E+000,-2.96590E-001,1.95030E-001,1.84804E+000,1.28055E-002,6.27690E-001,0,2.80877E+001,-5.29772E+000,9.98643E-001,-1.00775E+001,-4.65966E+001,9.98217E-001,1.49123E-001,-5.97842E-002,1.74923E-003,1.49138E-001,-5.97989E-002,4.79707E-001,1.50110E-001,1.16005E+000,4.24337E-002,0.00000E+000,-3.13330E-002,9.43107E-001,0.00000E+000,4.97096E-003,-5.92022E-002,1.00000E+000,27
529,1317,-2.42108E+001,-1.14370E+000,2.36487E-001,1.84138E+000,-3.40668E-001,1.64850E-001,1.87987E+000,1.06101E-002,6.07512E-001,0,2.86104E+001,-5.92372E+000,9.98450E-001,-9.90859E+000,-4.74749E+001,9.98102E-001,1.47198E-001,-5.97891E-002,1.84751E-003,1.47214E-001,-5.98056E-002,5.11353E-001,1.48074E-001,1.15781E+000,4.24466E-002,0.00000E+000,-3.11287E-002,9.43106E-001,0.00000E+000,3.26817E-003,-5.91924E-002,1.00000E+000,27
