Coordinates.Image X [Pixel],Coordinates.Image Y [Pixel],coor.X [mm],coor.Y [mm],coor.Z [mm],disp.Horizontal Displacement U [mm],disp.Vertical Displacement V [mm],disp.Out-Of-Plane: W [mm],disp.Displacement Magnitude [mm],stats.Sigma [mm],stats.Epipolar Distance [Pixel],stats.Shape Index [-],SameCamera.Horizontal: u [Pixel],SameCamera.Vertical: v [Pixel],SameCamera.Correlation Value 2D [-],CrossCamera.Horizontal: q [Pixel],CrossCamera.Vertical: r [Pixel],CrossCamera.Correlation Value Persp [-],strain.Strain-global frame: Exx [ ],strain.Strain-global frame: Eyy [ ],strain.Strain-global frame: Exy [ ],strain.Maximum Principal Strain: EI [ ],strain.Minimum Principal Strain: EII [ ],strain.Shear Angle Gamma [deg],strain.Von Mises Equivalent Strain [ ],defgradient.F[0,0] [-],defgradient.F[0,1] [-],defgradient.F[0,2] [-],defgradient.F[1,0] [-],defgradient.F[1,1] [-],defgradient.F[1,2] [-],defgradient.F[2,0] [-],defgradient.F[2,1] [-],defgradient.F[2,2] [-],ext.Current Image [#]
929,1317,8.53307E+000,-1.15252E+000,6.10940E-002,8.86914E+000,-5.36163E-001,1.47815E-001,8.88656E+000,1.82143E-002,4.44125E-001,0,1.35117E+002,-9.77960E+000,9.97400E-001,9.23771E+001,-4.28971E+001,9.95729E-001,2.36673E-001,-9.95845E-002,-6.18220E-004,2.36674E-001,-9.95856E-002,-1.05340E-001,2.37662E-001,1.26695E+000,-2.31922E-002,0.00000E+000,1.68697E-002,9.09677E-001,0.00000E+000,-1.67562E-002,-1.00874E-001,1.00000E+000,37
919,1307,7.70967E+000,-1.74139E+000,1.33334E-001,8.71229E+000,-4.75756E-001,2.24852E-001,8.72817E+000,2.12481E-002,4.67862E-001,0,1.32556E+002,-8.94887E+000,9.94543E-001,8.96795E+001,-4.22553E+001,9.92607E-001,2.40869E-001,-9.93136E-002,-1.35024E-003,2.40874E-001,-9.93189E-002,-2.27411E-001,2.42106E-001,1.27231E+000,-2.04940E-002,0.00000E+000,1.34044E-002,9.10035E-001,0.00000E+000,-1.51530E-002,-1.01520E-001,1.00000E+000,37
919,1317,7.69057E+000,-1.17576E+000,1.50667E-002,8.69038E+000,-5.45127E-001,1.57495E-001,8.70889E+000,2.70137E-002,4.48581E-001,0,1.32478E+002,-9.93023E+000,9.90963E-001,8.92286E+001,-4.32640E+001,9.89849E-001,2.38354E-001,-9.93204E-002,-1.54666E-003,2.38361E-001,-9.93274E-002,-2.62426E-001,2.39460E-001,1.26908E+000,-2.05080E-002,0.00000E+000,1.29382E-002,9.10033E-001,0.00000E+000,-1.35070E-002,-1.01513E-001,1.00000E+000,37
919,1327,7.69425E+000,-5.99972E-001,-3.54713E-002,8.67694E+000,-6.16403E-001,9.18263E-002,8.69929E+000,1.95840E-002,4.86148E-001,0,1.32504E+002,-1.09319E+001,9.95739E-001,8.92686E+001,-4.42290E+001,9.94480E-001,2.35806E-001,-9.93349E-002,-1.77222E-003,2.35815E-001,-9.93443E-002,-3.02967E-001,2.36788E-001,1.26583E+000,-2.05927E-002,0.00000E+000,1.24676E-002,9.10020E-001,0.00000E+000,-1.18454E-002,-1.01469E-001,1.00000E+000,37
929,1307,8.54598E+000,-1.71800E+000,1.59639E-001,8.88923E+000,-4.63359E-001,2.15339E-001,8.90390E+000,1.80653E-002,4.88659E-001,0,1.35169E+002,-8.76031E+000,9.97762E-001,9.26910E+001,-4.18331E+001,9.96470E-001,2.39240E-001,-9.95871E-002,-6.27117E-004,2.39241E-001,-9.95882E-002,-1.06045E-001,2.40357E-001,1.27026E+000,-2.31557E-002,0.00000E+000,1.69770E-002,9.09678E-001,0.00000E+000,-1.88623E-002,-1.00897E-001,1.00000E+000,37
929,1327,8.52588E+000,-5.71786E-001,-1.03031E-002,8.84851E+000,-5.97770E-001,7.85969E-002,8.86903E+000,1.63225E-002,4.42045E-001,0,1.35050E+002,-1.06430E+001,9.97781E-001,9.22077E+001,-4.37607E+001,9.96828E-001,2.34089E-001,-9.95809E-002,-6.21728E-004,2.34090E-001,-9.95821E-002,-1.06759E-001,2.34957E-001,1.26365E+000,-2.32605E-002,0.00000E+000,1.67623E-002,9.09675E-001,0.00000E+000,-1.46457E-002,-1.00831E-001,1.00000E+000,37
939,1307,9.37467E+000,-1.70101E+000,1.42220E-001,9.06359E+000,-4.53282E-001,1.87527E-001,9.07685E+000,1.97952E-002,4.95788E-001,0,1.37813E+002,-8.56969E+000,9.97858E-001,9.55018E+001,-4.14251E+001,9.96789E-001,2.37339E-001,-9.88379E-002,-1.54973E-004,2.37339E-001,-9.88380E-002,-2.64126E-002,2.38441E-001,1.26783E+000,-2.64887E-002,0.00000E+000,2.04747E-002,9.10140E-001,0.00000E+000,-2.15175E-002,-9.91445E-002,1.00000E+000,37
939,1317,9.35959E+000,-1.13250E+000,4.83217E-002,9.04053E+000,-5.22986E-001,1.21227E-001,9.05645E+000,1.87307E-002,4.33751E-001,0,1.37711E+002,-9.54683E+000,9.97198E-001,9.51646E+001,-4.24589E+001,9.95688E-001,2.35022E-001,-9.88302E-002,-7.77634E-005,2.35022E-001,-9.88302E-002,-1.33458E-002,2.36009E-001,1.26484E+000,-2.65257E-002,0.00000E+000,2.04655E-002,9.10140E-001,0.00000E+000,-1.90480E-002,-9.91140E-002,1.00000E+000,37
939,1327,9.35709E+000,-5.42988E-001,-1.34675E-002,9.02293E+000,-5.79087E-001,5.48192E-002,9.04166E+000,1.61394E-002,4.72726E-001,0,1.37678E+002,-1.03207E+001,9.96750E-001,9.50879E+001,-4.31844E+001,9.96003E-001,2.32677E-001,-9.88198E-002,-1.28134E-005,2.32677E-001,-9.88198E-002,-2.21466E-003,2.33555E-001,1.26182E+000,-2.65955E-002,0.00000E+000,2.04561E-002,9.10140E-001,0.00000E+000,-1.65615E-002,-9.90564E-002,1.00000E+000,37
919,1337,7.70435E+000,-8.78183E-003,-5.70884E-002,8.66499E+000,-6.73806E-001,3.20069E-002,8.69121E+000,1.91417E-002,4.61093E-001,0,1.32520E+002,-1.17298E+001,9.95245E-001,8.94695E+001,-4.50502E+001,9.94707E-001,2.33252E-001,-9.93521E-002,-2.00744E-003,2.33264E-001,-9.93642E-002,-3.45794E-001,2.34114E-001,1.26258E+000,-2.07018E-002,0.00000E+000,1.19974E-002,9.10005E-001,0.00000E+000,-1.01854E-002,-1.01414E-001,1.00000E+000,37
929,1337,8.53246E+000,8.50035E-003,-5.19710E-002,8.83548E+000,-6.65434E-001,1.08221E-002,8.86051E+000,1.71000E-002,4.57957E-001,0,1.35086E+002,-1.15900E+001,9.97934E-001,9.23109E+001,-4.46855E+001,9.97281E-001,2.31483E-001,-9.95766E-002,-6.37607E-004,2.31484E-001,-9.95778E-002,-1.10349E-001,2.32236E-001,1.26032E+000,-2.33601E-002,0.00000E+000,1.66543E-002,9.09672E-001,0.00000E+000,-1.25256E-002,-1.00767E-001,1.00000E+000,37
939,1337,9.36023E+000,3.78447E-002,-5.25287E-002,9.00732E+000,-6.45186E-001,-5.76797E-003,9.03040E+000,1.53468E-002,4.70474E-001,0,1.37652E+002,-1.12595E+001,9.97752E-001,9.51424E+001,-4.41142E+001,9.97220E-001,2.30322E-001,-9.88082E-002,4.51433E-005,2.30322E-001,-9.88082E-002,7.85867E-003,2.31094E-001,1.25881E+000,-2.66823E-002,0.00000E+000,2.04468E-002,9.10140E-001,0.00000E+000,-1.40760E-002,-9.89849E-002,1.00000E+000,37
949,1317,1.01941E+001,-1.10149E+000,5.04902E-002,9.21805E+000,-5.01537E-001,1.03759E-001,9.23227E+000,2.93722E-002,4.69691E-001,0,1.40358E+002,-9.20128E+000,9.92636E-001,9.81116E+001,-4.18587E+001,9.89921E-001,2.33310E-001,-9.79828E-002,3.65900E-004,2.33311E-001,-9.79832E-002,6.32807E-002,2.34305E-001,1.26265E+000,-2.94636E-002,0.00000E+000,2.35616E-002,9.10616E-001,0.00000E+000,-2.09532E-002,-9.65125E-002,1.00000E+000,37
949,1327,1.01837E+001,-5.14768E-001,-2.45100E-002,9.19369E+000,-5.58526E-001,2.94516E-002,9.21069E+000,2.52482E-002,4.80447E-001,0,1.40254E+002,-9.97862E+000,9.94242E-001,9.78872E+001,-4.26123E+001,9.92672E-001,2.31430E-001,-9.79668E-002,4.98680E-004,2.31431E-001,-9.79675E-002,8.67409E-002,2.32336E-001,1.26021E+000,-2.95164E-002,0.00000E+000,2.36172E-002,9.10617E-001,0.00000E+000,-1.79101E-002,-9.64467E-002,1.00000E+000,37
949,1337,1.01890E+001,6.61267E-002,-5.26159E-002,9.18069E+000,-6.24615E-001,-1.72162E-002,9.20193E+000,1.87695E-002,4.79281E-001,0,1.40219E+002,-1.09455E+001,9.96361E-001,9.79950E+001,-4.35623E+001,9.95556E-001,2.29533E-001,-9.79483E-002,6.25216E-004,2.29534E-001,-9.79495E-002,1.09387E-001,2.30354E-001,1.25776E+000,-2.95851E-002,0.00000E+000,2.36729E-002,9.10619E-001,0.00000E+000,-1.48598E-002,-9.63610E-002,1.00000E+000,37
949,1307,1.02112E+001,-1.68004E+000,1.34532E-001,9.24290E+000,-4.41077E-001,1.58425E-001,9.25477E+000,2.41647E-002,4.87867E-001,0,1.40529E+002,-8.33234E+000,9.95550E-001,9.84600E+001,-4.09827E+001,9.93686E-001,2.35172E-001,-9.79954E-002,2.24212E-004,2.35172E-001,-9.79955E-002,3.85584E-002,2.36257E-001,1.26508E+000,-2.94347E-002,0.00000E+000,2.35062E-002,9.10615E-001,0.00000E+000,-2.39865E-002,-9.65487E-002,1.00000E+000,37
909,1317,6.86805E+000,-1.19107E+000,1.51686E-002,8.51957E+000,-5.52631E-001,1.59905E-001,8.53898E+000,2.41716E-002,4.31928E-001,0,1.29965E+002,-1.00506E+001,9.88476E-001,8.64882E+001,-4.36155E+001,9.88390E-001,2.40031E-001,-1.00162E-001,-2.57715E-003,2.40050E-001,-1.00182E-001,-4.34015E-001,2.41141E-001,1.27122E+000,-1.76944E-002,0.00000E+000,8.66929E-003,9.09307E-001,0.00000E+000,-9.79811E-003,-1.01431E-001,1.00000E+000,37
909,1327,6.87877E+000,-6.07527E-001,-3.87462E-002,8.51366E+000,-6.16697E-001,9.26283E-002,8.53647E+000,2.01187E-002,4.64678E-001,0,1.30108E+002,-1.09194E+001,9.91895E-001,8.66320E+001,-4.44564E+001,9.93524E-001,2.37557E-001,-1.00174E-001,-2.77976E-003,2.37580E-001,-1.00197E-001,-4.71541E-001,2.38548E-001,1.26807E+000,-1.77737E-002,0.00000E+000,8.29042E-003,9.09297E-001,0.00000E+000,-8.77297E-003,-1.01405E-001,1.00000E+000,37
909,1337,6.88621E+000,-1.34782E-002,-5.98594E-002,8.49894E+000,-6.74149E-001,3.23360E-002,8.52570E+000,2.20415E-002,5.12118E-001,0,1.30081E+002,-1.17058E+001,9.95542E-001,8.67936E+001,-4.52004E+001,9.95469E-001,2.35071E-001,-1.00189E-001,-2.99328E-003,2.35098E-001,-1.00215E-001,-5.11497E-001,2.35948E-001,1.26491E+000,-1.78793E-002,0.00000E+000,7.91062E-003,9.09285E-001,0.00000E+000,-7.74530E-003,-1.01371E-001,1.00000E+000,37
909,1307,6.87957E+000,-1.75572E+000,1.38819E-001,8.53287E+000,-4.82475E-001,2.27949E-001,8.54954E+000,2.31472E-002,4.08724E-001,0,1.29909E+002,-9.04749E+000,9.91251E-001,8.68344E+001,-4.26233E+001,9.86937E-001,2.42472E-001,-1.00157E-001,-2.40361E-003,2.42489E-001,-1.00174E-001,-4.01914E-001,2.43707E-001,1.27433E+000,-1.76857E-002,0.00000E+000,9.04425E-003,9.09308E-001,0.00000E+000,-1.08127E-002,-1.01434E-001,1.00000E+000,37
919,1347,7.72538E+000,5.92505E-001,-6.95754E-002,8.66073E+000,-7.25067E-001,-3.35918E-002,8.69109E+000,2.88730E-002,4.81596E-001,0,1.32666E+002,-1.24185E+001,9.97286E-001,8.98592E+001,-4.57132E+001,9.96580E-001,2.30678E-001,-9.93711E-002,-2.25023E-003,2.30693E-001,-9.93865E-002,-3.90611E-001,2.31428E-001,1.25932E+000,-2.08269E-002,0.00000E+000,1.15253E-002,9.09987E-001,0.00000E+000,-8.51870E-003,-1.01350E-001,1.00000E+000,37
929,1347,8.54955E+000,6.01963E-001,-5.84840E-002,8.82780E+000,-7.23524E-001,-4.56201E-002,8.85751E+000,1.64589E-002,4.51203E-001,0,1.35152E+002,-1.24030E+001,9.97723E-001,9.26491E+001,-4.54951E+001,9.97294E-001,2.28860E-001,-9.95715E-002,-6.64114E-004,2.28862E-001,-9.95728E-002,-1.15856E-001,2.29504E-001,1.25699E+000,-2.34860E-002,0.00000E+000,1.65461E-002,9.09668E-001,0.00000E+000,-1.04009E-002,-1.00687E-001,1.00000E+000,37
939,1347,9.37809E+000,6.29406E-001,-5.89225E-002,9.00070E+000,-7.05280E-001,-5.97812E-002,9.02849E+000,2.20219E-002,4.63635E-001,0,1.37728E+002,-1.21065E+001,9.97596E-001,9.54908E+001,-4.49518E+001,9.95799E-001,2.27946E-001,-9.87944E-002,9.26705E-005,2.27946E-001,-9.87944E-002,1.62503E-002,2.28619E-001,1.25579E+000,-2.67955E-002,0.00000E+000,2.04374E-002,9.10139E-001,0.00000E+000,-1.15816E-002,-9.88915E-002,1.00000E+000,37
949,1347,1.02112E+001,6.55847E-001,-4.24748E-002,9.17635E+000,-6.88924E-001,-6.30169E-002,9.20239E+000,1.78249E-002,4.82102E-001,0,1.40300E+002,-1.18674E+001,9.96237E-001,9.84406E+001,-4.44577E+001,9.95047E-001,2.27612E-001,-9.79252E-002,7.40032E-004,2.27614E-001,-9.79269E-002,1.30248E-001,2.28351E-001,1.25530E+000,-2.96849E-002,0.00000E+000,2.37290E-002,9.10621E-001,0.00000E+000,-1.17921E-002,-9.62365E-002,1.00000E+000,37
959,1317,1.10179E+001,-1.07929E+000,2.78092E-002,9.38637E+000,-4.86411E-001,7.00799E-002,9.39922E+000,2.71068E-002,4.51360E-001,0,1.42925E+002,-8.91027E+000,9.93793E-001,1.00850E+002,-4.13702E+001,9.92092E-001,2.31764E-001,-9.69979E-002,3.70166E-004,2.31764E-001,-9.69983E-002,6.45115E-002,2.32788E-001,1.26063E+000,-3.26434E-002,0.00000E+000,2.59259E-002,9.11226E-001,0.00000E+000,-2.17271E-002,-9.38607E-002,1.00000E+000,37
959,1327,1.10177E+001,-4.91855E-001,-3.34614E-002,9.37388E+000,-5.41924E-001,1.75763E-002,9.38955E+000,3.64692E-002,4.31031E-001,0,1.42925E+002,-9.69619E+000,9.97092E-001,1.00810E+002,-4.21544E+001,9.95957E-001,2.30245E-001,-9.69738E-002,5.97332E-004,2.30246E-001,-9.69749E-002,1.04592E-001,2.31197E-001,1.25865E+000,-3.26814E-002,0.00000E+000,2.61396E-002,9.11230E-001,0.00000E+000,-1.85793E-002,-9.38005E-002,1.00000E+000,37
959,1337,1.10215E+001,8.62690E-002,-5.72528E-002,9.35700E+000,-6.13314E-001,-3.46988E-002,9.37715E+000,2.69151E-002,4.47455E-001,0,1.42852E+002,-1.07279E+001,9.95532E-001,1.00902E+002,-4.31463E+001,9.95104E-001,2.28706E-001,-9.69428E-002,8.15511E-004,2.28708E-001,-9.69448E-002,1.43483E-001,2.29590E-001,1.25665E+000,-3.27448E-002,0.00000E+000,2.63544E-002,9.11237E-001,0.00000E+000,-1.54157E-002,-9.37000E-002,1.00000E+000,37
959,1307,1.10308E+001,-1.65240E+000,1.22429E-001,9.40781E+000,-4.18880E-001,1.38859E-001,9.41815E+000,2.05077E-002,4.71928E-001,0,1.42990E+002,-7.97683E+000,9.95330E-001,1.01152E+002,-4.04341E+001,9.93552E-001,2.33269E-001,-9.70187E-002,1.38525E-004,2.33269E-001,-9.70188E-002,2.40302E-002,2.34366E-001,1.26262E+000,-3.26171E-002,0.00000E+000,2.57125E-002,9.11223E-001,0.00000E+000,-2.48711E-002,-9.39025E-002,1.00000E+000,37
959,1347,1.10345E+001,6.70121E-001,-6.22211E-002,9.34544E+000,-6.81254E-001,-8.62408E-002,9.37063E+000,1.99928E-002,4.44441E-001,0,1.42850E+002,-1.17067E+001,9.95398E-001,1.01174E+002,-4.41015E+001,9.94914E-001,2.27153E-001,-9.69083E-002,1.02858E-003,2.27156E-001,-9.69116E-002,1.81856E-001,2.27970E-001,1.25465E+000,-3.28205E-002,0.00000E+000,2.65694E-002,9.11245E-001,0.00000E+000,-1.22490E-002,-9.35800E-002,1.00000E+000,37
909,1347,6.90647E+000,5.82863E-001,-5.72932E-002,8.49201E+000,-7.29859E-001,-2.82055E-002,8.52336E+000,2.45967E-002,4.88148E-001,0,1.30167E+002,-1.24780E+001,9.97295E-001,8.72033E+001,-4.59971E+001,9.95596E-001,2.32583E-001,-1.00206E-001,-3.21608E-003,2.32614E-001,-1.00237E-001,-5.53639E-001,2.33353E-001,1.26176E+000,-1.80089E-002,0.00000E+000,7.53175E-003,9.09269E-001,0.00000E+000,-6.72015E-003,-1.01329E-001,1.00000E+000,37
899,1327,6.05498E+000,-6.06132E-001,-1.85053E-003,8.33354E+000,-6.15248E-001,9.58500E-002,8.35677E+000,1.49918E-002,4.83046E-001,0,1.27430E+002,-1.08752E+001,9.94970E-001,8.39561E+001,-4.46139E+001,9.95093E-001,2.38781E-001,-1.00865E-001,-3.59060E-003,2.38819E-001,-1.00903E-001,-6.05618E-001,2.39773E-001,1.26964E+000,-1.51487E-002,0.00000E+000,4.63721E-003,9.08701E-001,0.00000E+000,-5.73664E-003,-1.01452E-001,1.00000E+000,37
899,1337,6.07282E+000,-1.62164E-002,-4.85644E-002,8.33311E+000,-6.72438E-001,2.71507E-002,8.36024E+000,2.25597E-002,5.02014E-001,0,1.27655E+002,-1.16530E+001,9.97722E-001,8.42266E+001,-4.53813E+001,9.97476E-001,2.36588E-001,-1.00875E-001,-3.76651E-003,2.36630E-001,-1.00917E-001,-6.39385E-001,2.37481E-001,1.26685E+000,-1.52256E-002,0.00000E+000,4.35747E-003,9.08693E-001,0.00000E+000,-5.35028E-003,-1.01441E-001,1.00000E+000,37
899,1347,6.10567E+000,5.74186E-001,-4.61576E-002,8.33894E+000,-7.34263E-001,-3.36950E-002,8.37127E+000,1.95704E-002,4.85683E-001,0,1.27937E+002,-1.25184E+001,9.97451E-001,8.48314E+001,-4.62659E+001,9.96932E-001,2.34385E-001,-1.00889E-001,-3.95718E-003,2.34431E-001,-1.00936E-001,-6.76127E-001,2.35184E-001,1.26406E+000,-1.53391E-002,0.00000E+000,4.07705E-003,9.08682E-001,0.00000E+000,-4.96298E-003,-1.01426E-001,1.00000E+000,37
899,1317,6.05285E+000,-1.18472E+000,7.18922E-002,8.34407E+000,-5.50536E-001,1.65145E-001,8.36384E+000,1.93809E-002,4.77729E-001,0,1.27347E+002,-9.99080E+000,9.93741E-001,8.39867E+001,-4.37212E+001,9.91591E-001,2.40964E-001,-1.00857E-001,-3.42432E-003,2.40998E-001,-1.00891E-001,-5.73905E-001,2.42060E-001,1.27241E+000,-1.50954E-002,0.00000E+000,4.91628E-003,9.08706E-001,0.00000E+000,-6.12208E-003,-1.01459E-001,1.00000E+000,37
899,1307,6.05372E+000,-1.75130E+000,1.66280E-001,8.35194E+000,-4.78183E-001,2.28498E-001,8.36874E+000,1.91983E-002,4.18235E-001,0,1.27233E+002,-8.93817E+000,9.93855E-001,8.41089E+001,-4.27134E+001,9.90080E-001,2.43135E-001,-1.00852E-001,-3.26779E-003,2.43166E-001,-1.00883E-001,-5.44230E-001,2.44338E-001,1.27518E+000,-1.50658E-002,0.00000E+000,5.19446E-003,9.08709E-001,0.00000E+000,-6.50628E-003,-1.01463E-001,1.00000E+000,37
889,1327,5.23438E+000,-6.13018E-001,1.09488E-002,8.16096E+000,-6.18437E-001,9.70829E-002,8.18494E+000,1.33286E-002,4.99097E-001,0,1.24878E+002,-1.09062E+001,9.96587E-001,8.12851E+001,-4.48481E+001,9.96239E-001,2.40006E-001,-1.00172E-001,-4.47157E-003,2.40065E-001,-1.00231E-001,-7.52967E-001,2.41151E-001,1.27121E+000,-1.31416E-002,0.00000E+000,1.27707E-003,9.09396E-001,0.00000E+000,-2.40404E-003,-1.01976E-001,1.00000E+000,37
889,1337,5.24544E+000,-2.22167E-002,-4.00126E-002,8.15503E+000,-6.73115E-001,2.93739E-002,8.18282E+000,2.10443E-002,5.09587E-001,0,1.25015E+002,-1.16518E+001,9.97530E-001,8.14424E+001,-4.55998E+001,9.97036E-001,2.37898E-001,-1.00171E-001,-4.47512E-003,2.37958E-001,-1.00230E-001,-7.58265E-001,2.38940E-001,1.26853E+000,-1.32104E-002,0.00000E+000,1.41566E-003,9.09399E-001,0.00000E+000,-3.21848E-003,-1.01997E-001,1.00000E+000,37
889,1347,5.27894E+000,5.65641E-001,-4.08482E-002,8.16229E+000,-7.36751E-001,-3.20615E-002,8.19553E+000,1.70671E-002,4.90025E-001,0,1.25321E+002,-1.25439E+001,9.97059E-001,8.20519E+001,-4.65202E+001,9.96553E-001,2.35778E-001,-1.00168E-001,-4.49313E-003,2.35838E-001,-1.00228E-001,-7.66123E-001,2.36721E-001,1.26585E+000,-1.33163E-002,0.00000E+000,1.55477E-003,9.09405E-001,0.00000E+000,-4.03594E-003,-1.02029E-001,1.00000E+000,37
969,1297,1.18892E+001,-2.19646E+000,2.21746E-001,9.61154E+000,-3.33153E-001,1.68022E-001,9.61878E+000,2.54962E-002,4.63796E-001,0,1.45837E+002,-6.69449E+000,9.97638E-001,1.04588E+002,-3.89671E+001,9.95845E-001,2.32574E-001,-9.64423E-002,-2.02976E-004,2.32574E-001,-9.64424E-002,-3.53467E-002,2.33701E-001,1.26176E+000,-3.53234E-002,0.00000E+000,2.72724E-002,9.11469E-001,0.00000E+000,-2.82388E-002,-9.09768E-002,1.00000E+000,37
969,1307,1.18492E+001,-1.64080E+000,1.00615E-001,9.56960E+000,-4.14926E-001,1.02636E-001,9.57914E+000,4.86881E-002,4.41735E-001,0,1.45466E+002,-7.84144E+000,9.96429E-001,1.03813E+002,-4.01204E+001,9.94168E-001,2.31427E-001,-9.64243E-002,6.42404E-005,2.31427E-001,-9.64244E-002,1.12268E-002,2.32496E-001,1.26022E+000,-3.53283E-002,0.00000E+000,2.75313E-002,9.11469E-001,0.00000E+000,-2.50064E-002,-9.09667E-002,1.00000E+000,37
969,1317,1.18461E+001,-1.06668E+000,2.86271E-002,9.55685E+000,-4.81676E-001,5.20306E-002,9.56912E+000,1.63913E-002,4.12532E-001,0,1.45466E+002,-8.80903E+000,9.98253E-001,1.03706E+002,-4.10906E+001,9.97678E-001,2.30267E-001,-9.63994E-002,3.24501E-004,2.30267E-001,-9.63997E-002,5.69159E-002,2.31281E-001,1.25867E+000,-3.53514E-002,0.00000E+000,2.77903E-002,9.11473E-001,0.00000E+000,-2.17720E-002,-9.09183E-002,1.00000E+000,37
889,1317,5.22483E+000,-1.18924E+000,8.45440E-002,8.16351E+000,-5.51990E-001,1.64080E-001,8.18380E+000,1.79441E-002,5.26011E-001,0,1.24682E+002,-1.00038E+001,9.96430E-001,8.12010E+001,-4.39015E+001,9.95677E-001,2.42106E-001,-1.00174E-001,-4.47572E-003,2.42165E-001,-1.00232E-001,-7.49039E-001,2.43359E-001,1.27388E+000,-1.30927E-002,0.00000E+000,1.13867E-003,9.09393E-001,0.00000E+000,-1.59072E-003,-1.01961E-001,1.00000E+000,37
969,1327,1.18374E+001,-4.80075E-001,-3.68578E-002,9.53513E+000,-5.38526E-001,-7.35748E-003,9.55033E+000,2.33645E-002,4.36947E-001,0,1.45353E+002,-9.62386E+000,9.97296E-001,1.03525E+002,-4.18553E+001,9.95678E-001,2.29093E-001,-9.63712E-002,5.81774E-004,2.29094E-001,-9.63722E-002,1.02417E-001,2.30054E-001,1.25712E+000,-3.53827E-002,0.00000E+000,2.80498E-002,9.11478E-001,0.00000E+000,-1.85315E-002,-9.08528E-002,1.00000E+000,37
889,1307,5.21888E+000,-1.75741E+000,1.80624E-001,8.16386E+000,-4.82025E-001,2.26125E-001,8.18120E+000,2.11499E-002,4.76948E-001,0,1.24459E+002,-8.98760E+000,9.95063E-001,8.12219E+001,-4.29153E+001,9.92751E-001,2.44194E-001,-1.00175E-001,-4.48883E-003,2.44253E-001,-1.00233E-001,-7.46677E-001,2.45558E-001,1.27655E+000,-1.30670E-002,0.00000E+000,1.00076E-003,9.09392E-001,0.00000E+000,-7.80263E-004,-1.01953E-001,1.00000E+000,37
969,1337,1.18400E+001,9.89229E-002,-7.09084E-002,9.51915E+000,-6.06089E-001,-6.02005E-002,9.53861E+000,2.25933E-002,3.88353E-001,0,1.45298E+002,-1.05909E+001,9.96618E-001,1.03579E+002,-4.28421E+001,9.96227E-001,2.27906E-001,-9.63379E-002,8.33861E-004,2.27908E-001,-9.63400E-002,1.47347E-001,2.28814E-001,1.25557E+000,-3.54274E-002,0.00000E+000,2.83097E-002,9.11486E-001,0.00000E+000,-1.52864E-002,-9.07594E-002,1.00000E+000,37
969,1347,1.18469E+001,7.05977E-001,-7.74506E-002,9.50264E+000,-6.51731E-001,-1.06668E-001,9.52556E+000,1.86301E-002,4.29801E-001,0,1.45197E+002,-1.12334E+001,9.96459E-001,1.03753E+002,-4.34115E+001,9.95758E-001,2.26699E-001,-9.63000E-002,1.08269E-003,2.26703E-001,-9.63036E-002,1.92051E-001,2.27556E-001,1.25401E+000,-3.54835E-002,0.00000E+000,2.85713E-002,9.11495E-001,0.00000E+000,-1.20200E-002,-9.06420E-002,1.00000E+000,37
879,1327,4.41946E+000,-6.13631E-001,2.75654E-002,7.99354E+000,-6.15164E-001,1.01450E-001,8.01781E+000,1.90902E-002,5.09678E-001,0,1.22388E+002,-1.08467E+001,9.96567E-001,7.87171E+001,-4.49959E+001,9.96365E-001,2.40921E-001,-1.00468E-001,-5.01331E-003,2.40995E-001,-1.00541E-001,-8.41149E-001,2.42094E-001,1.27240E+000,-1.13493E-002,0.00000E+000,-1.21315E-003,9.09057E-001,0.00000E+000,-6.88512E-005,-1.01146E-001,1.00000E+000,37
879,1337,4.42889E+000,-2.90334E-002,-2.99996E-002,7.98663E+000,-6.75156E-001,2.95837E-002,8.01517E+000,1.90582E-002,4.88182E-001,0,1.22525E+002,-1.16538E+001,9.95204E-001,7.88347E+001,-4.58475E+001,9.94686E-001,2.39070E-001,-1.00462E-001,-4.93457E-003,2.39142E-001,-1.00533E-001,-8.32472E-001,2.40150E-001,1.27004E+000,-1.14075E-002,0.00000E+000,-8.76421E-004,9.09065E-001,0.00000E+000,-1.53544E-003,-1.01182E-001,1.00000E+000,37
879,1347,4.45759E+000,5.65048E-001,-3.62153E-002,7.99059E+000,-7.32828E-001,-3.09112E-002,8.02418E+000,2.16935E-002,5.06977E-001,0,1.22777E+002,-1.24522E+001,9.95378E-001,7.93609E+001,-4.66433E+001,9.94958E-001,2.37202E-001,-1.00453E-001,-4.86685E-003,2.37272E-001,-1.00523E-001,-8.25616E-001,2.38192E-001,1.26767E+000,-1.14955E-002,0.00000E+000,-5.37651E-004,9.09078E-001,0.00000E+000,-3.01091E-003,-1.01237E-001,1.00000E+000,37
879,1307,4.38729E+000,-1.75536E+000,2.01542E-001,7.97806E+000,-4.77845E-001,2.27570E-001,7.99560E+000,2.45734E-002,4.88496E-001,0,1.21700E+002,-8.90168E+000,9.93814E-001,7.84070E+001,-4.30283E+001,9.91686E-001,2.44596E-001,-1.00475E-001,-5.19215E-003,2.44674E-001,-1.00553E-001,-8.61846E-001,2.45964E-001,1.27709E+000,-1.12895E-002,0.00000E+000,-1.88457E-003,9.09048E-001,0.00000E+000,2.85545E-003,-1.01109E-001,1.00000E+000,37
879,1317,4.40252E+000,-1.18693E+000,1.05344E-001,7.98841E+000,-5.45432E-001,1.71691E-001,8.00885E+000,1.83492E-002,4.44430E-001,0,1.22063E+002,-9.86459E+000,9.96775E-001,7.85291E+001,-4.40578E+001,9.95758E-001,2.42768E-001,-1.00473E-001,-5.09835E-003,2.42843E-001,-1.00548E-001,-8.50798E-001,2.44037E-001,1.27475E+000,-1.13071E-002,0.00000E+000,-1.55000E-003,9.09051E-001,0.00000E+000,1.39824E-003,-1.01120E-001,1.00000E+000,37
979,1307,1.27120E+001,-1.62127E+000,1.24343E-001,9.77203E+000,-4.05097E-001,9.78028E-002,9.78091E+000,2.69762E-002,4.03958E-001,0,1.48432E+002,-7.68373E+000,9.98355E-001,1.07254E+002,-3.97794E+001,9.98138E-001,2.29752E-001,-9.57601E-002,2.42215E-005,2.29752E-001,-9.57601E-002,4.26341E-003,2.30810E-001,1.25803E+000,-3.72824E-002,0.00000E+000,2.87932E-002,9.11769E-001,0.00000E+000,-2.42001E-002,-8.76715E-002,1.00000E+000,37
979,1317,1.26821E+001,-1.03945E+000,2.80565E-002,9.73400E+000,-4.63748E-001,3.00917E-002,9.74509E+000,1.64286E-002,4.20652E-001,0,1.48112E+002,-8.50399E+000,9.97323E-001,1.06686E+002,-4.05572E+001,9.96646E-001,2.29072E-001,-9.57319E-002,3.37148E-004,2.29073E-001,-9.57323E-002,5.94732E-002,2.30099E-001,1.25709E+000,-3.72942E-002,0.00000E+000,2.91449E-002,9.11773E-001,0.00000E+000,-2.10260E-002,-8.76315E-002,1.00000E+000,37
979,1327,1.26636E+001,-4.56895E-001,-4.20548E-002,9.70327E+000,-5.23871E-001,-2.99320E-002,9.71744E+000,1.77730E-002,4.35035E-001,0,1.47869E+002,-9.36912E+000,9.95070E-001,1.06344E+002,-4.13791E+001,9.93758E-001,2.28381E-001,-9.56993E-002,6.47750E-004,2.28383E-001,-9.57006E-002,1.14518E-001,2.29379E-001,1.25616E+000,-3.73120E-002,0.00000E+000,2.94970E-002,9.11780E-001,0.00000E+000,-1.78490E-002,-8.75711E-002,1.00000E+000,37
979,1337,1.26589E+001,1.33415E-001,-7.89364E-002,9.68222E+000,-5.79288E-001,-7.52565E-002,9.69983E+000,2.40834E-002,4.37050E-001,0,1.47710E+002,-1.01838E+001,9.92615E-001,1.06280E+002,-4.21584E+001,9.91936E-001,2.27678E-001,-9.56622E-002,9.56302E-004,2.27681E-001,-9.56650E-002,1.69454E-001,2.28646E-001,1.25522E+000,-3.73358E-002,0.00000E+000,2.98499E-002,9.11789E-001,0.00000E+000,-1.46650E-002,-8.74901E-002,1.00000E+000,37
979,1347,1.26645E+001,7.36356E-001,-7.72555E-002,9.66286E+000,-6.28785E-001,-1.19602E-001,9.68404E+000,2.46686E-002,4.32835E-001,0,1.47558E+002,-1.08892E+001,9.89940E-001,1.06447E+002,-4.28308E+001,9.89181E-001,2.26961E-001,-9.56161E-002,1.26124E-003,2.26966E-001,-9.56210E-002,2.24016E-001,2.27901E-001,1.25427E+000,-3.73720E-002,0.00000E+000,3.02046E-002,9.11802E-001,0.00000E+000,-1.14642E-002,-8.73674E-002,1.00000E+000,37
979,1297,1.27143E+001,-2.17829E+000,2.08898E-001,9.78086E+000,-3.22201E-001,1.46603E-001,9.78727E+000,2.14975E-002,4.70147E-001,0,1.48367E+002,-6.49263E+000,9.97694E-001,1.07374E+002,-3.85539E+001,9.97406E-001,2.30421E-001,-9.57864E-002,-2.89928E-004,2.30421E-001,-9.57867E-002,-5.09234E-002,2.31510E-001,1.25896E+000,-3.72729E-002,0.00000E+000,2.84413E-002,9.11765E-001,0.00000E+000,-2.73745E-002,-8.77037E-002,1.00000E+000,37
869,1317,3.56502E+000,-1.18236E+000,9.82815E-002,7.79929E+000,-5.36849E-001,1.59154E-001,7.81937E+000,1.33289E-002,4.56210E-001,0,1.19297E+002,-9.67490E+000,9.97691E-001,7.55686E+001,-4.40753E+001,9.96092E-001,2.42992E-001,-1.00993E-001,-5.18511E-003,2.43070E-001,-1.01072E-001,-8.63394E-001,2.44216E-001,1.27506E+000,-9.26451E-003,0.00000E+000,-3.32958E-003,9.08516E-001,0.00000E+000,3.37079E-003,-1.00474E-001,1.00000E+000,37
869,1327,3.58485E+000,-6.08729E-001,2.79843E-002,7.80779E+000,-6.04806E-001,9.80349E-002,7.83180E+000,1.92149E-002,5.31818E-001,0,1.19641E+002,-1.06695E+001,9.95967E-001,7.58171E+001,-4.50207E+001,9.95101E-001,2.41534E-001,-1.00990E-001,-5.10975E-003,2.41610E-001,-1.01066E-001,-8.54482E-001,2.42683E-001,1.27320E+000,-9.29663E-003,0.00000E+000,-2.97884E-003,9.08522E-001,0.00000E+000,1.40040E-003,-1.00508E-001,1.00000E+000,37
869,1337,3.60224E+000,-3.15463E-002,-2.14004E-002,7.80838E+000,-6.72972E-001,3.15039E-002,7.83739E+000,2.07429E-002,5.05091E-001,0,1.19874E+002,-1.16040E+001,9.94177E-001,7.60742E+001,-4.60080E+001,9.93570E-001,2.40067E-001,-1.00985E-001,-5.04016E-003,2.40141E-001,-1.01059E-001,-8.46489E-001,2.41142E-001,1.27133E+000,-9.34411E-003,0.00000E+000,-2.62721E-003,9.08531E-001,0.00000E+000,-5.74966E-004,-1.00558E-001,1.00000E+000,37
869,1347,3.62686E+000,5.67758E-001,-2.95557E-002,7.81100E+000,-7.22086E-001,-1.89234E-002,7.84432E+000,2.53510E-002,4.86332E-001,0,1.20071E+002,-1.22939E+001,9.95618E-001,7.65359E+001,-4.67402E+001,9.95183E-001,2.38591E-001,-1.00978E-001,-4.97622E-003,2.38663E-001,-1.01051E-001,-8.39403E-001,2.39595E-001,1.26945E+000,-9.40621E-003,0.00000E+000,-2.27502E-003,9.08543E-001,0.00000E+000,-2.55349E-003,-1.00624E-001,1.00000E+000,37
869,1307,3.55807E+000,-1.74939E+000,2.14113E-001,7.79669E+000,-4.67833E-001,2.32259E-001,7.81416E+000,2.02730E-002,4.93881E-001,0,1.18993E+002,-8.73456E+000,9.95112E-001,7.56180E+001,-4.30662E+001,9.93060E-001,2.44438E-001,-1.00995E-001,-5.26763E-003,2.44518E-001,-1.01076E-001,-8.73453E-001,2.45739E-001,1.27692E+000,-9.25205E-003,0.00000E+000,-3.67878E-003,9.08514E-001,0.00000E+000,5.33252E-003,-1.00461E-001,1.00000E+000,37
989,1307,1.35188E+001,-1.58180E+000,9.25344E-002,9.92203E+000,-3.72599E-001,5.53853E-002,9.92918E+000,2.14161E-002,4.70749E-001,0,1.50736E+002,-7.14470E+000,9.96559E-001,1.09730E+002,-3.89661E+001,9.95858E-001,2.28395E-001,-9.54634E-002,-1.61528E-005,2.28395E-001,-9.54634E-002,-2.85769E-003,2.29417E-001,1.25624E+000,-3.81244E-002,0.00000E+000,2.91595E-002,9.11778E-001,0.00000E+000,-2.22535E-002,-8.45442E-002,1.00000E+000,37
989,1317,1.34860E+001,-9.96942E-001,9.40520E-003,9.88224E+000,-4.29355E-001,6.35222E-003,9.89156E+000,2.24593E-002,5.49077E-001,0,1.50324E+002,-7.98028E+000,9.96890E-001,1.09142E+002,-3.96923E+001,9.96036E-001,2.28093E-001,-9.54318E-002,3.54057E-004,2.28093E-001,-9.54322E-002,6.27029E-002,2.29104E-001,1.25580E+000,-3.81293E-002,0.00000E+000,2.96172E-002,9.11783E-001,0.00000E+000,-1.91520E-002,-8.45107E-002,1.00000E+000,37
989,1327,1.34873E+001,-4.19628E-001,-4.58490E-002,9.86922E+000,-4.97026E-001,-4.74015E-002,9.88184E+000,2.58102E-002,5.18946E-001,0,1.50327E+002,-8.94312E+000,9.95536E-001,1.09134E+002,-4.06455E+001,9.93553E-001,2.27781E-001,-9.53914E-002,7.22336E-004,2.27783E-001,-9.53930E-002,1.28063E-001,2.28782E-001,1.25535E+000,-3.81392E-002,0.00000E+000,3.00752E-002,9.11793E-001,0.00000E+000,-1.60480E-002,-8.44420E-002,1.00000E+000,37
989,1297,1.35454E+001,-2.15473E+000,2.02004E-001,9.95431E+000,-3.05354E-001,1.25190E-001,9.95977E+000,1.91950E-002,4.61701E-001,0,1.50951E+002,-6.21408E+000,9.96289E-001,1.10270E+002,-3.80766E+001,9.95354E-001,2.28686E-001,-9.54931E-002,-3.86441E-004,2.28686E-001,-9.54936E-002,-6.82999E-002,2.29720E-001,1.25669E+000,-3.81204E-002,0.00000E+000,2.87025E-002,9.11774E-001,0.00000E+000,-2.53503E-002,-8.45717E-002,1.00000E+000,37
989,1337,1.34833E+001,1.63899E-001,-7.61800E-002,9.84594E+000,-5.59119E-001,-9.85052E-002,9.86230E+000,2.11886E-002,4.40639E-001,0,1.50155E+002,-9.84109E+000,9.92242E-001,1.09091E+002,-4.15824E+001,9.91967E-001,2.27461E-001,-9.53449E-002,1.08808E-003,2.27464E-001,-9.53486E-002,1.93124E-001,2.28453E-001,1.25490E+000,-3.81526E-002,0.00000E+000,3.05324E-002,9.11807E-001,0.00000E+000,-1.29503E-002,-8.43495E-002,1.00000E+000,37
989,1347,1.34874E+001,7.66105E-001,-7.43204E-002,9.82726E+000,-6.07188E-001,-1.32683E-001,9.84690E+000,2.32840E-002,4.44779E-001,0,1.49979E+002,-1.05665E+001,9.95691E-001,1.09234E+002,-4.22611E+001,9.95884E-001,2.27128E-001,-9.52940E-002,1.45423E-003,2.27135E-001,-9.53006E-002,2.58416E-001,2.28112E-001,1.25445E+000,-3.81685E-002,0.00000E+000,3.09919E-002,9.11823E-001,0.00000E+000,-9.83653E-003,-8.42402E-002,1.00000E+000,37
859,1327,2.75495E+000,-6.02330E-001,2.19793E-002,7.62614E+000,-5.93721E-001,8.72950E-002,7.64971E+000,1.82691E-002,5.19395E-001,0,1.16975E+002,-1.04386E+001,9.94438E-001,7.29819E+001,-4.50253E+001,9.93679E-001,2.41783E-001,-1.01078E-001,-4.89601E-003,2.41853E-001,-1.01147E-001,-8.17955E-001,2.42929E-001,1.27353E+000,-7.50233E-003,0.00000E+000,-3.92150E-003,9.08326E-001,0.00000E+000,2.18432E-003,-9.92709E-002,1.00000E+000,37
859,1337,2.77885E+000,-2.02938E-002,-2.01888E-002,7.63353E+000,-6.55977E-001,2.86375E-002,7.66171E+000,2.11291E-002,5.17588E-001,0,1.17283E+002,-1.13230E+001,9.93670E-001,7.33564E+001,-4.59419E+001,9.93160E-001,2.40746E-001,-1.01076E-001,-4.88372E-003,2.40816E-001,-1.01146E-001,-8.18380E-001,2.41841E-001,1.27220E+000,-7.53539E-003,0.00000E+000,-3.67515E-003,9.08332E-001,0.00000E+000,1.38753E-005,-9.93251E-002,1.00000E+000,37
859,1347,2.80312E+000,5.65092E-001,-3.15390E-002,7.63533E+000,-7.19285E-001,-2.80794E-002,7.66918E+000,2.72827E-002,4.78436E-001,0,1.17492E+002,-1.22072E+001,9.96265E-001,7.38049E+001,-4.68942E+001,9.96127E-001,2.39701E-001,-1.01074E-001,-4.87608E-003,2.39770E-001,-1.01144E-001,-8.19610E-001,2.40745E-001,1.27087E+000,-7.58034E-003,0.00000E+000,-3.42799E-003,9.08340E-001,0.00000E+000,-2.16359E-003,-9.93987E-002,1.00000E+000,37
859,1307,2.72711E+000,-1.74369E+000,2.10586E-001,7.61356E+000,-4.59699E-001,2.22926E-001,7.63068E+000,2.36418E-002,5.77789E-001,0,1.16304E+002,-8.57626E+000,9.96361E-001,7.27728E+001,-4.30354E+001,9.95469E-001,2.43829E-001,-1.01079E-001,-4.93410E-003,2.43900E-001,-1.01149E-001,-8.19424E-001,2.45080E-001,1.27616E+000,-7.47154E-003,0.00000E+000,-4.41180E-003,9.08320E-001,0.00000E+000,6.50394E-003,-9.92204E-002,1.00000E+000,37
859,1317,2.74363E+000,-1.18493E+000,9.95486E-002,7.62573E+000,-5.36399E-001,1.54314E-001,7.64613E+000,1.84613E-002,4.90454E-001,0,1.16740E+002,-9.62754E+000,9.95824E-001,7.28792E+001,-4.42080E+001,9.93493E-001,2.42811E-001,-1.01078E-001,-4.91258E-003,2.42881E-001,-1.01149E-001,-8.18268E-001,2.44008E-001,1.27485E+000,-7.48039E-003,0.00000E+000,-4.16702E-003,9.08322E-001,0.00000E+000,4.34735E-003,-9.92349E-002,1.00000E+000,37
999,1337,1.43001E+001,1.90627E-001,-8.26692E-002,1.00078E+001,-5.36826E-001,-1.04248E-001,1.00227E+001,1.67097E-002,3.80393E-001,0,1.52512E+002,-9.50373E+000,9.98444E-001,1.11773E+002,-4.10773E+001,9.97333E-001,2.27125E-001,-9.51915E-002,9.27402E-004,2.27128E-001,-9.51942E-002,1.64855E-001,2.28116E-001,1.25444E+000,-3.84062E-002,0.00000E+000,3.02269E-002,9.11717E-001,0.00000E+000,-1.05683E-002,-8.12408E-002,1.00000E+000,37
999,1347,1.43132E+001,7.94276E-001,-6.93159E-002,9.99565E+000,-5.86601E-001,-1.36713E-001,1.00138E+001,1.59081E-002,3.95055E-001,0,1.52426E+002,-1.02434E+001,9.98411E-001,1.12074E+002,-4.17508E+001,9.97722E-001,2.27137E-001,-9.51422E-002,1.27439E-003,2.27142E-001,-9.51472E-002,2.26559E-001,2.28136E-001,1.25443E+000,-3.84065E-002,0.00000E+000,3.06521E-002,9.11733E-001,0.00000E+000,-7.62653E-003,-8.11273E-002,1.00000E+000,37
999,1307,1.43393E+001,-1.55053E+000,8.26203E-002,1.00853E+001,-3.48361E-001,3.50870E-002,1.00913E+001,1.43833E-002,4.60636E-001,0,1.53158E+002,-6.74325E+000,9.97334E-001,1.12464E+002,-3.83632E+001,9.97257E-001,2.27037E-001,-9.52977E-002,-1.07604E-004,2.27037E-001,-9.52977E-002,-1.91268E-002,2.28010E-001,1.25447E+000,-3.84057E-002,0.00000E+000,2.89621E-002,9.11692E-001,0.00000E+000,-1.93186E-002,-8.14133E-002,1.00000E+000,37
999,1317,1.43169E+001,-9.69669E-001,2.01813E-003,1.00556E+001,-4.08745E-001,-1.29069E-002,1.00639E+001,2.04793E-002,5.07081E-001,0,1.52898E+002,-7.63554E+000,9.95858E-001,1.12043E+002,-3.91694E+001,9.93397E-001,2.27075E-001,-9.52683E-002,2.37813E-004,2.27075E-001,-9.52685E-002,4.22707E-002,2.28053E-001,1.25446E+000,-3.84058E-002,0.00000E+000,2.93837E-002,9.11697E-001,0.00000E+000,-1.64014E-002,-8.13801E-002,1.00000E+000,37
999,1327,1.43109E+001,-4.00240E-001,-5.51830E-002,1.00367E+001,-4.82992E-001,-6.17866E-002,1.00485E+001,2.42752E-002,4.97318E-001,0,1.52800E+002,-8.72882E+000,9.96847E-001,1.11916E+002,-4.02294E+001,9.94418E-001,2.27104E-001,-9.52328E-002,5.83089E-004,2.27105E-001,-9.52338E-002,1.03644E-001,2.28088E-001,1.25445E+000,-3.84059E-002,0.00000E+000,2.98056E-002,9.11705E-001,0.00000E+000,-1.34827E-002,-8.13222E-002,1.00000E+000,37
999,1297,1.43687E+001,-2.13348E+000,1.98101E-001,1.01200E+001,-2.91347E-001,1.09001E-001,1.01248E+001,1.54535E-002,4.66985E-001,0,1.53397E+002,-5.98397E+000,9.95256E-001,1.13057E+002,-3.76355E+001,9.93061E-001,2.26991E-001,-9.53247E-002,-4.53031E-004,2.26991E-001,-9.53253E-002,-8.05319E-002,2.27959E-001,1.25447E+000,-3.84056E-002,0.00000E+000,2.85407E-002,9.11688E-001,0.00000E+000,-2.22335E-002,-8.14374E-002,1.00000E+000,37
849,1337,1.95445E+000,-1.79317E-002,-1.12511E-002,7.45641E+000,-6.50322E-001,2.96233E-002,7.48477E+000,2.47142E-002,5.49781E-001,0,1.14643E+002,-1.12069E+001,9.95922E-001,7.06440E+001,-4.60206E+001,9.95347E-001,2.41034E-001,-1.00761E-001,-4.38847E-003,2.41090E-001,-1.00817E-001,-7.35486E-001,2.42164E-001,1.27257E+000,-6.00716E-003,0.00000E+000,-3.84431E-003,9.08477E-001,0.00000E+000,1.14078E-005,-9.77974E-002,1.00000E+000,37
849,1347,1.97178E+000,5.61959E-001,-3.16550E-002,7.45409E+000,-7.15913E-001,-2.34735E-002,7.48843E+000,2.18424E-002,4.75624E-001,0,1.14779E+002,-1.21335E+001,9.96653E-001,7.09660E+001,-4.70583E+001,9.96474E-001,2.40495E-001,-1.00760E-001,-4.37782E-003,2.40551E-001,-1.00816E-001,-7.34863E-001,2.41598E-001,1.27189E+000,-6.02751E-003,0.00000E+000,-3.62424E-003,9.08483E-001,0.00000E+000,-2.07003E-003,-9.78592E-002,1.00000E+000,37
849,1357,2.00627E+000,1.15960E+000,2.32828E-003,7.45848E+000,-7.73343E-001,-7.28545E-002,7.49882E+000,1.88288E-002,4.83808E-001,0,1.14990E+002,-1.29538E+001,9.97010E-001,7.16756E+001,-4.79010E+001,9.96997E-001,2.39946E-001,-1.00758E-001,-4.37133E-003,2.40002E-001,-1.00814E-001,-7.34961E-001,2.41022E-001,1.27119E+000,-6.05863E-003,0.00000E+000,-3.40226E-003,9.08493E-001,0.00000E+000,-4.16949E-003,-9.79537E-002,1.00000E+000,37
849,1327,1.93868E+000,-5.92934E-001,3.07987E-002,7.45587E+000,-5.81446E-001,8.25757E-002,7.47897E+000,2.46790E-002,5.31190E-001,0,1.14456E+002,-1.02078E+001,9.96436E-001,7.03956E+001,-4.50021E+001,9.96075E-001,2.41569E-001,-1.00762E-001,-4.40098E-003,2.41626E-001,-1.00818E-001,-7.36429E-001,2.42726E-001,1.27326E+000,-5.99137E-003,0.00000E+000,-4.06442E-003,9.08472E-001,0.00000E+000,2.09326E-003,-9.77494E-002,1.00000E+000,37
1009,1337,1.51279E+001,2.35512E-001,-8.18600E-002,1.01818E+001,-4.98731E-001,-9.50372E-002,1.01944E+001,2.36060E-002,4.22972E-001,0,1.54987E+002,-8.95616E+000,9.98126E-001,1.14644E+002,-4.02544E+001,9.98376E-001,2.26809E-001,-9.49502E-002,5.58299E-004,2.26810E-001,-9.49512E-002,9.94161E-002,2.27809E-001,1.25403E+000,-3.82533E-002,0.00000E+000,2.92817E-002,9.11757E-001,0.00000E+000,-8.50213E-003,-7.84271E-002,1.00000E+000,37
1009,1347,1.51317E+001,8.08891E-001,-6.32094E-002,1.01581E+001,-5.78387E-001,-1.31315E-001,1.01754E+001,1.75992E-002,4.02915E-001,0,1.54751E+002,-1.01593E+001,9.98940E-001,1.14805E+002,-4.14254E+001,9.98648E-001,2.27086E-001,-9.49136E-002,8.14805E-004,2.27088E-001,-9.49157E-002,1.44983E-001,2.28104E-001,1.25436E+000,-3.82393E-002,0.00000E+000,2.95598E-002,9.11769E-001,0.00000E+000,-5.98571E-003,-7.83214E-002,1.00000E+000,37
1009,1297,1.51852E+001,-2.11300E+000,1.90732E-001,1.02800E+001,-2.76119E-001,9.61946E-002,1.02841E+001,1.98187E-002,3.80886E-001,0,1.55741E+002,-5.71264E+000,9.93154E-001,1.15736E+002,-3.72458E+001,9.91798E-001,2.25644E-001,-9.50427E-002,-4.51388E-004,2.25644E-001,-9.50433E-002,-8.06475E-002,2.26576E-001,1.25271E+000,-3.82742E-002,0.00000E+000,2.81761E-002,9.11740E-001,0.00000E+000,-1.85077E-002,-7.85849E-002,1.00000E+000,37
1009,1307,1.51637E+001,-1.52501E+000,8.22221E-002,1.02531E+001,-3.27557E-001,2.92994E-002,1.02584E+001,1.95248E-002,4.00030E-001,0,1.55596E+002,-6.42683E+000,9.95878E-001,1.15280E+002,-3.78945E+001,9.96578E-001,2.25944E-001,-9.50235E-002,-2.00163E-004,2.25944E-001,-9.50236E-002,-3.57311E-002,2.26893E-001,1.25304E+000,-3.82714E-002,0.00000E+000,2.84518E-002,9.11742E-001,0.00000E+000,-1.60123E-002,-7.85642E-002,1.00000E+000,37
1009,1317,1.51447E+001,-9.45183E-001,-1.06871E-003,1.02264E+001,-3.89075E-001,-2.26090E-002,1.02339E+001,1.94310E-002,4.37969E-001,0,1.55397E+002,-7.32967E+000,9.96873E-001,1.14907E+002,-3.87131E+001,9.96682E-001,2.26238E-001,-9.50023E-002,5.17105E-005,2.26238E-001,-9.50023E-002,9.22298E-003,2.27203E-001,1.25337E+000,-3.82675E-002,0.00000E+000,2.87280E-002,9.11746E-001,0.00000E+000,-1.35129E-002,-7.85345E-002,1.00000E+000,37
849,1317,1.91522E+000,-1.16956E+000,1.02415E-001,7.44459E+000,-5.17101E-001,1.50227E-001,7.46404E+000,2.37650E-002,5.94456E-001,0,1.14053E+002,-9.33952E+000,9.95975E-001,7.00931E+001,-4.40333E+001,9.94464E-001,2.42098E-001,-1.00763E-001,-4.41474E-003,2.42155E-001,-1.00819E-001,-7.37588E-001,2.43282E-001,1.27394E+000,-5.97872E-003,0.00000E+000,-4.28395E-003,9.08468E-001,0.00000E+000,4.16952E-003,-9.77109E-002,1.00000E+000,37
1009,1327,1.51387E+001,-3.61556E-001,-4.52785E-002,1.02058E+001,-4.51074E-001,-6.56791E-002,1.02160E+001,1.80300E-002,4.47322E-001,0,1.55245E+002,-8.24619E+000,9.98195E-001,1.14805E+002,-3.95702E+001,9.98153E-001,2.26527E-001,-9.49758E-002,3.05389E-004,2.26527E-001,-9.49760E-002,5.44241E-002,2.27509E-001,1.25370E+000,-3.82600E-002,0.00000E+000,2.90050E-002,9.11752E-001,0.00000E+000,-1.10068E-002,-7.84781E-002,1.00000E+000,37
849,1307,1.89142E+000,-1.74109E+000,2.08614E-001,7.42514E+000,-4.52422E-001,2.14151E-001,7.44199E+000,2.56031E-002,5.85329E-001,0,1.13528E+002,-8.43072E+000,9.96116E-001,6.98635E+001,-4.30949E+001,9.95469E-001,2.42621E-001,-1.00763E-001,-4.43154E-003,2.42678E-001,-1.00820E-001,-7.39266E-001,2.43832E-001,1.27462E+000,-5.97414E-003,0.00000E+000,-4.50288E-003,9.08466E-001,0.00000E+000,6.24021E-003,-9.76970E-002,1.00000E+000,37
839,1337,1.12448E+000,-2.98609E-002,6.76104E-003,7.27305E+000,-6.57217E-001,3.81679E-002,7.30279E+000,4.35034E-002,5.43910E-001,0,1.11882E+002,-1.13129E+001,9.96912E-001,6.78698E+001,-4.63597E+001,9.95937E-001,2.40969E-001,-1.00902E-001,-3.63304E-003,2.41007E-001,-1.00941E-001,-6.08787E-001,2.42064E-001,1.27249E+000,-4.60729E-003,0.00000E+000,-3.37323E-003,9.08188E-001,0.00000E+000,-7.63507E-004,-9.60202E-002,1.00000E+000,37
839,1347,1.14383E+000,5.56200E-001,-2.34739E-002,7.27486E+000,-7.15389E-001,-1.52568E-002,7.30996E+000,1.83720E-002,4.71961E-001,0,1.12081E+002,-1.21195E+001,9.97014E-001,6.82033E+001,-4.72813E+001,9.96681E-001,2.40715E-001,-1.00901E-001,-3.60584E-003,2.40753E-001,-1.00939E-001,-6.04681E-001,2.41797E-001,1.27217E+000,-4.61582E-003,0.00000E+000,-3.12750E-003,9.08194E-001,0.00000E+000,-2.94392E-003,-9.60785E-002,1.00000E+000,37
839,1357,1.17977E+000,1.15932E+000,-6.82273E-004,7.28182E+000,-7.66362E-001,-7.15118E-002,7.32239E+000,1.56759E-002,4.73135E-001,0,1.12352E+002,-1.28223E+001,9.97545E-001,6.89139E+001,-4.80200E+001,9.97468E-001,2.40454E-001,-1.00898E-001,-3.58070E-003,2.40492E-001,-1.00935E-001,-6.00930E-001,2.41523E-001,1.27185E+000,-4.62986E-003,0.00000E+000,-2.87966E-003,9.08205E-001,0.00000E+000,-5.14299E-003,-9.61744E-002,1.00000E+000,37
1019,1337,1.59664E+001,2.63242E-001,-7.44879E-002,1.03599E+001,-4.81268E-001,-1.05862E-001,1.03716E+001,2.15870E-002,4.89082E-001,0,1.57595E+002,-8.70124E+000,9.97378E-001,1.17696E+002,-3.96986E+001,9.97699E-001,2.26523E-001,-9.48116E-002,2.08082E-004,2.26523E-001,-9.48117E-002,3.71021E-002,2.27523E-001,1.25367E+000,-3.80556E-002,0.00000E+000,2.83662E-002,9.11770E-001,0.00000E+000,-6.69223E-003,-7.64615E-002,1.00000E+000,37
1019,1347,1.59594E+001,8.38786E-001,-6.73995E-002,1.03311E+001,-5.55914E-001,-1.28518E-001,1.03468E+001,1.96228E-002,4.34550E-001,0,1.57237E+002,-9.83099E+000,9.98031E-001,1.17667E+002,-4.08277E+001,9.97927E-001,2.26957E-001,-9.47868E-002,4.12249E-004,2.26958E-001,-9.47873E-002,7.34127E-002,2.27981E-001,1.25420E+000,-3.80377E-002,0.00000E+000,2.85721E-002,9.11777E-001,0.00000E+000,-4.56976E-003,-7.63906E-002,1.00000E+000,37
839,1327,1.08796E+000,-5.90552E-001,2.67318E-002,7.25612E+000,-5.71669E-001,9.11292E-002,7.27918E+000,3.88335E-002,5.49649E-001,0,1.11445E+002,-1.00563E+001,9.97738E-001,6.72533E+001,-4.50611E+001,9.96998E-001,2.41219E-001,-1.00904E-001,-3.66007E-003,2.41258E-001,-1.00943E-001,-6.12863E-001,2.42326E-001,1.27281E+000,-4.59778E-003,0.00000E+000,-3.61943E-003,9.08181E-001,0.00000E+000,1.42112E-003,-9.59552E-002,1.00000E+000,37
1019,1327,1.59649E+001,-3.36833E-001,-5.68771E-002,1.03768E+001,-4.32608E-001,-7.41955E-002,1.03860E+001,2.00191E-002,4.44202E-001,0,1.57742E+002,-7.95551E+000,9.97254E-001,1.17635E+002,-3.90573E+001,9.97117E-001,2.26085E-001,-9.48342E-002,4.79566E-006,2.26085E-001,-9.48342E-002,8.56202E-004,2.27060E-001,1.25313E+000,-3.80706E-002,0.00000E+000,2.81603E-002,9.11764E-001,0.00000E+000,-8.81425E-003,-7.65208E-002,1.00000E+000,37
1019,1317,1.59725E+001,-9.25700E-001,-1.92484E-003,1.03953E+001,-3.76857E-001,-3.64851E-002,1.04022E+001,1.99992E-002,4.41482E-001,0,1.57879E+002,-7.14235E+000,9.97638E-001,1.17779E+002,-3.83031E+001,9.97307E-001,2.25643E-001,-9.48525E-002,-1.95983E-004,2.25643E-001,-9.48526E-002,-3.50364E-002,2.26595E-001,1.25260E+000,-3.80797E-002,0.00000E+000,2.79549E-002,9.11761E-001,0.00000E+000,-1.09314E-002,-7.65567E-002,1.00000E+000,37
839,1317,1.08285E+000,-1.16198E+000,9.73485E-002,7.25898E+000,-5.03753E-001,1.37488E-001,7.27773E+000,1.97966E-002,5.42138E-001,0,1.11324E+002,-9.07626E+000,9.96135E-001,6.72336E+001,-4.40408E+001,9.93843E-001,2.41462E-001,-1.00905E-001,-3.68919E-003,2.41502E-001,-1.00945E-001,-6.17296E-001,2.42583E-001,1.27313E+000,-4.59389E-003,0.00000E+000,-3.86471E-003,9.08178E-001,0.00000E+000,3.59753E-003,-9.59286E-002,1.00000E+000,37
1019,1297,1.59984E+001,-2.08637E+000,1.54126E-001,1.04376E+001,-2.54418E-001,6.02205E-002,1.04409E+001,1.98040E-002,3.98684E-001,0,1.58135E+002,-5.33610E+000,9.97635E-001,1.18319E+002,-3.66472E+001,9.97051E-001,2.24747E-001,-9.48854E-002,-5.95077E-004,2.24748E-001,-9.48865E-002,-1.06670E-001,2.25653E-001,1.25153E+000,-3.80931E-002,0.00000E+000,2.75454E-002,9.11756E-001,0.00000E+000,-1.51526E-002,-7.66099E-002,1.00000E+000,37
1019,1307,1.59783E+001,-1.50513E+000,5.89334E-002,1.04114E+001,-3.14893E-001,3.55177E-003,1.04161E+001,2.40566E-002,4.55082E-001,0,1.57964E+002,-6.20508E+000,9.97875E-001,1.17908E+002,-3.74079E+001,9.97723E-001,2.25198E-001,-9.48701E-002,-3.95805E-004,2.25198E-001,-9.48706E-002,-7.08535E-002,2.26127E-001,1.25206E+000,-3.80880E-002,0.00000E+000,2.77504E-002,9.11757E-001,0.00000E+000,-1.30390E-002,-7.65898E-002,1.00000E+000,37
839,1307,1.07406E+000,-1.72989E+000,2.08330E-001,7.25402E+000,-4.35624E-001,2.03873E-001,7.26995E+000,1.76260E-002,5.26868E-001,0,1.11012E+002,-8.12445E+000,9.94837E-001,6.72484E+001,-4.30560E+001,9.92700E-001,2.41701E-001,-1.00905E-001,-3.71901E-003,2.41741E-001,-1.00946E-001,-6.21851E-001,2.42834E-001,1.27344E+000,-4.59200E-003,0.00000E+000,-4.10933E-003,9.08176E-001,0.00000E+000,5.76811E-003,-9.59157E-002,1.00000E+000,37
829,1337,2.96903E-001,-2.49218E-002,-8.68958E-004,7.09491E+000,-6.44407E-001,3.68620E-002,7.12421E+000,3.20397E-002,5.50137E-001,0,1.09226E+002,-1.11070E+001,9.94856E-001,6.50840E+001,-4.63765E+001,9.93642E-001,2.40282E-001,-1.00846E-001,-2.86936E-003,2.40306E-001,-1.00870E-001,-4.81892E-001,2.41335E-001,1.27161E+000,-3.59766E-003,0.00000E+000,-2.60688E-003,9.08079E-001,0.00000E+000,-1.60438E-003,-9.41835E-002,1.00000E+000,37
829,1347,3.18515E-001,5.58604E-001,-1.56765E-002,7.09654E+000,-7.08251E-001,-1.36692E-002,7.13181E+000,1.74030E-002,4.94742E-001,0,1.09412E+002,-1.19920E+001,9.94636E-001,6.54875E+001,-4.73643E+001,9.94335E-001,2.40245E-001,-1.00850E-001,-2.93277E-003,2.40270E-001,-1.00875E-001,-4.92586E-001,2.41297E-001,1.27157E+000,-3.59887E-003,0.00000E+000,-2.53416E-003,9.08081E-001,0.00000E+000,-3.82713E-003,-9.42513E-002,1.00000E+000,37
829,1357,3.49018E-001,1.15835E+000,3.62459E-003,7.09973E+000,-7.61481E-001,-6.63883E-002,7.14076E+000,1.77579E-002,5.09817E-001,0,1.09615E+002,-1.27415E+001,9.96555E-001,6.61080E+001,-4.81433E+001,9.96618E-001,2.40203E-001,-1.00855E-001,-2.99684E-003,2.40230E-001,-1.00882E-001,-5.03399E-001,2.41254E-001,1.27153E+000,-3.60051E-003,0.00000E+000,-2.46112E-003,9.08084E-001,0.00000E+000,-6.05957E-003,-9.43439E-002,1.00000E+000,37
1029,1337,1.67701E+001,2.79100E-001,-8.93568E-002,1.05088E+001,-4.69896E-001,-1.13625E-001,1.05199E+001,1.81539E-002,4.57555E-001,0,1.59756E+002,-8.52703E+000,9.96199E-001,1.20173E+002,-3.93312E+001,9.96055E-001,2.26433E-001,-9.44742E-002,-3.20061E-006,2.26433E-001,-9.44742E-002,-5.71448E-004,2.27465E-001,1.25356E+000,-3.76561E-002,0.00000E+000,2.75516E-002,9.11994E-001,0.00000E+000,-4.62747E-003,-7.49417E-002,1.00000E+000,37
1029,1347,1.67677E+001,8.76363E-001,-8.09549E-002,1.04834E+001,-5.24630E-001,-1.38784E-001,1.04974E+001,1.78480E-002,4.71889E-001,0,1.59451E+002,-9.36422E+000,9.97234E-001,1.20217E+002,-4.00900E+001,9.96689E-001,2.27009E-001,-9.44490E-002,2.06074E-004,2.27009E-001,-9.44491E-002,3.67299E-002,2.28073E-001,1.25428E+000,-3.76310E-002,0.00000E+000,2.77672E-002,9.12001E-001,0.00000E+000,-2.59259E-003,-7.48706E-002,1.00000E+000,37
1029,1327,1.67841E+001,-3.12464E-001,-5.31779E-002,1.05384E+001,-4.13577E-001,-7.49663E-002,1.05468E+001,1.93809E-002,4.36420E-001,0,1.60063E+002,-7.70086E+000,9.96627E-001,1.20385E+002,-3.85866E+001,9.96145E-001,2.25854E-001,-9.44951E-002,-2.09250E-004,2.25854E-001,-9.44953E-002,-3.74252E-002,2.26854E-001,1.25284E+000,-3.76734E-002,0.00000E+000,2.73366E-002,9.11989E-001,0.00000E+000,-6.65758E-003,-7.49905E-002,1.00000E+000,37
829,1327,2.67121E-001,-5.92719E-001,2.15503E-002,7.08072E+000,-5.68708E-001,7.33165E-002,7.10390E+000,3.40712E-002,5.79469E-001,0,1.08885E+002,-9.98288E+000,9.95931E-001,6.45746E+001,-4.51785E+001,9.95733E-001,2.40314E-001,-1.00843E-001,-2.80641E-003,2.40337E-001,-1.00866E-001,-4.71283E-001,2.41368E-001,1.27165E+000,-3.59672E-003,0.00000E+000,-2.67935E-003,9.08077E-001,0.00000E+000,6.10774E-004,-9.41306E-002,1.00000E+000,37
829,1307,2.67962E-001,-1.73840E+000,2.31282E-001,7.09385E+000,-4.39249E-001,2.17331E-001,7.11076E+000,2.16403E-002,4.60206E-001,0,1.08589E+002,-8.17176E+000,9.95766E-001,6.48618E+001,-4.33735E+001,9.93388E-001,2.40362E-001,-1.00840E-001,-2.68159E-003,2.40383E-001,-1.00861E-001,-4.50263E-001,2.41417E-001,1.27173E+000,-3.59598E-003,0.00000E+000,-2.82377E-003,9.08075E-001,0.00000E+000,5.02511E-003,-9.40885E-002,1.00000E+000,37
829,1317,2.61768E-001,-1.16480E+000,9.99859E-002,7.08460E+000,-5.01295E-001,1.34220E-001,7.10358E+000,2.51917E-002,5.04068E-001,0,1.08736E+002,-8.99990E+000,9.94961E-001,6.45694E+001,-4.42171E+001,9.94521E-001,2.40340E-001,-1.00841E-001,-2.74385E-003,2.40362E-001,-1.00863E-001,-4.60744E-001,2.41395E-001,1.27169E+000,-3.59617E-003,0.00000E+000,-2.75165E-003,9.08076E-001,0.00000E+000,2.82050E-003,-9.40991E-002,1.00000E+000,37
1029,1317,1.67927E+001,-9.08174E-001,-1.04554E-002,1.05585E+001,-3.66120E-001,-4.82844E-002,1.05650E+001,2.01250E-002,4.42856E-001,0,1.60266E+002,-6.96702E+000,9.97843E-001,1.20526E+002,-3.79089E+001,9.96751E-001,2.25273E-001,-9.45134E-002,-4.12714E-004,2.25273E-001,-9.45139E-002,-7.39455E-002,2.26243E-001,1.25212E+000,-3.76859E-002,0.00000E+000,2.71226E-002,9.11985E-001,0.00000E+000,-8.67776E-003,-7.50259E-002,1.00000E+000,37
1029,1307,1.68076E+001,-1.48589E+000,7.54603E-002,1.05821E+001,-3.02529E-001,1.04622E-002,1.05865E+001,1.74057E-002,4.95842E-001,0,1.60391E+002,-6.07370E+000,9.97897E-001,1.20838E+002,-3.70219E+001,9.95937E-001,2.24688E-001,-9.45301E-002,-6.14999E-004,2.24689E-001,-9.45312E-002,-1.10384E-001,2.25629E-001,1.25141E+000,-3.76956E-002,0.00000E+000,2.69090E-002,9.11982E-001,0.00000E+000,-1.06950E-002,-7.50532E-002,1.00000E+000,37
1029,1297,1.68251E+001,-2.05996E+000,1.74137E-001,1.06063E+001,-2.34864E-001,7.23599E-002,1.06091E+001,1.74405E-002,4.64026E-001,0,1.60505E+002,-5.10898E+000,9.97098E-001,1.21215E+002,-3.61470E+001,9.96081E-001,2.24098E-001,-9.45454E-002,-8.16925E-004,2.24100E-001,-9.45475E-002,-1.46892E-001,2.25009E-001,1.25069E+000,-3.77029E-002,0.00000E+000,2.66949E-002,9.11980E-001,0.00000E+000,-1.27161E-002,-7.50738E-002,1.00000E+000,37
819,1317,-5.57302E-001,-1.17578E+000,1.13642E-001,6.91109E+000,-5.07787E-001,1.38328E-001,6.93110E+000,2.48123E-002,4.81113E-001,0,1.06134E+002,-9.08249E+000,9.93696E-001,6.19656E+001,-4.45354E+001,9.92600E-001,2.38750E-001,-1.00505E-001,-2.07053E-003,2.38762E-001,-1.00517E-001,-3.49669E-001,2.39754E-001,1.26966E+000,-3.43074E-003,0.00000E+000,-1.54564E-003,9.08206E-001,0.00000E+000,1.95151E-003,-9.20208E-002,1.00000E+000,37
819,1327,-5.53567E-001,-6.04626E-001,3.43022E-002,6.90788E+000,-5.74060E-001,8.74453E-002,6.93224E+000,2.45798E-002,5.08542E-001,0,1.06262E+002,-1.00498E+001,9.95382E-001,6.19436E+001,-4.55354E+001,9.94478E-001,2.38846E-001,-1.00508E-001,-2.21274E-003,2.38861E-001,-1.00523E-001,-3.73571E-001,2.39857E-001,1.26978E+000,-3.42944E-003,0.00000E+000,-1.63943E-003,9.08205E-001,0.00000E+000,-9.49072E-005,-9.20428E-002,1.00000E+000,37
819,1337,-5.33194E-001,-2.28421E-002,-9.21801E-003,6.91346E+000,-6.36037E-001,3.32956E-002,6.94274E+000,2.10777E-002,5.22566E-001,0,1.06524E+002,-1.09267E+001,9.94663E-001,6.22626E+001,-4.64534E+001,9.94147E-001,2.38940E-001,-1.00515E-001,-2.35520E-003,2.38956E-001,-1.00531E-001,-3.97504E-001,2.39955E-001,1.26991E+000,-3.42668E-003,0.00000E+000,-1.73371E-003,9.08202E-001,0.00000E+000,-2.15216E-003,-9.20896E-002,1.00000E+000,37
819,1307,-5.62695E-001,-1.74578E+000,2.06305E-001,6.90958E+000,-4.43741E-001,1.87379E-001,6.92635E+000,2.35079E-002,4.95783E-001,0,1.05936E+002,-8.14682E+000,9.95053E-001,6.19927E+001,-4.35245E+001,9.93988E-001,2.38649E-001,-1.00503E-001,-1.92863E-003,2.38660E-001,-1.00514E-001,-3.25807E-001,2.39647E-001,1.26954E+000,-3.43147E-003,0.00000E+000,-1.45219E-003,9.08206E-001,0.00000E+000,3.99078E-003,-9.20083E-002,1.00000E+000,37
819,1347,-5.03550E-001,5.69605E-001,-2.04307E-002,6.92291E+000,-6.91293E-001,-1.55160E-002,6.95736E+000,2.01686E-002,5.12440E-001,0,1.06820E+002,-1.17010E+001,9.96709E-001,6.28009E+001,-4.72895E+001,9.96785E-001,2.39029E-001,-1.00524E-001,-2.49784E-003,2.39047E-001,-1.00543E-001,-4.21452E-001,2.40050E-001,1.27003E+000,-3.42292E-003,0.00000E+000,-1.82826E-003,9.08200E-001,0.00000E+000,-4.21551E-003,-9.21534E-002,1.00000E+000,37
819,1357,-4.76153E-001,1.15018E+000,1.46048E-002,6.92266E+000,-7.63669E-001,-5.53039E-002,6.96487E+000,2.50274E-002,5.23669E-001,0,1.06933E+002,-1.27770E+001,9.95609E-001,6.34083E+001,-4.84032E+001,9.95547E-001,2.39114E-001,-1.00537E-001,-2.64068E-003,2.39134E-001,-1.00558E-001,-4.45421E-001,2.40140E-001,1.27015E+000,-3.41778E-003,0.00000E+000,-1.92318E-003,9.08196E-001,0.00000E+000,-6.28666E-003,-9.22407E-002,1.00000E+000,37
1039,1337,1.75941E+001,3.05158E-001,-9.04747E-002,1.06757E+001,-4.50684E-001,-1.14487E-001,1.06859E+001,1.59433E-002,4.66158E-001,0,1.62155E+002,-8.24957E+000,9.97317E-001,1.22994E+002,-3.88135E+001,9.96262E-001,2.26513E-001,-9.39883E-002,-5.19490E-004,2.26513E-001,-9.39891E-002,-9.28686E-002,2.27603E-001,1.25366E+000,-3.74995E-002,0.00000E+000,2.63546E-002,9.12390E-001,0.00000E+000,-2.58878E-003,-7.37669E-002,1.00000E+000,37
1039,1347,1.75889E+001,8.83272E-001,-8.53342E-002,1.06479E+001,-5.22487E-001,-1.41132E-001,1.06616E+001,1.60933E-002,4.23337E-001,0,1.61826E+002,-9.34942E+000,9.98407E-001,1.22985E+002,-3.98891E+001,9.97765E-001,2.27189E-001,-9.39758E-002,-4.02793E-004,2.27189E-001,-9.39763E-002,-7.18581E-002,2.28316E-001,1.25451E+000,-3.74702E-002,0.00000E+000,2.64055E-002,9.12391E-001,0.00000E+000,-7.08804E-004,-7.37021E-002,1.00000E+000,37
1039,1317,1.76104E+001,-8.72705E-001,-1.22865E-002,1.07203E+001,-3.35426E-001,-4.61018E-002,1.07257E+001,1.75514E-002,4.19042E-001,0,1.62571E+002,-6.51769E+000,9.97101E-001,1.23251E+002,-3.72641E+001,9.95934E-001,2.25149E-001,-9.40081E-002,-7.44932E-004,2.25151E-001,-9.40098E-002,-1.33731E-001,2.26169E-001,1.25196E+000,-3.75362E-002,0.00000E+000,2.62529E-002,9.12387E-001,0.00000E+000,-6.34679E-003,-7.38480E-002,1.00000E+000,37
1039,1327,1.76041E+001,-2.88701E-001,-5.46038E-002,1.07018E+001,-3.94957E-001,-7.54387E-002,1.07094E+001,1.52698E-002,4.03754E-001,0,1.62405E+002,-7.43272E+000,9.97458E-001,1.23146E+002,-3.81267E+001,9.96607E-001,2.25830E-001,-9.39988E-002,-6.33466E-004,2.25832E-001,-9.40000E-002,-1.13482E-001,2.26885E-001,1.25280E+000,-3.75204E-002,0.00000E+000,2.63035E-002,9.12388E-001,0.00000E+000,-4.47464E-003,-7.38130E-002,1.00000E+000,37
1039,1307,1.76273E+001,-1.46089E+000,5.66780E-002,1.07465E+001,-2.81510E-001,-2.42228E-003,1.07502E+001,1.83607E-002,4.34009E-001,0,1.62795E+002,-5.72641E+000,9.96666E-001,1.23565E+002,-3.65236E+001,9.95833E-001,2.24464E-001,-9.40165E-002,-8.55071E-004,2.24467E-001,-9.40188E-002,-1.53829E-001,2.25450E-001,1.25111E+000,-3.75483E-002,0.00000E+000,2.62022E-002,9.12387E-001,0.00000E+000,-8.21771E-003,-7.38748E-002,1.00000E+000,37
1039,1297,1.76473E+001,-2.04182E+000,1.56790E-001,1.07727E+001,-2.21222E-001,5.84416E-002,1.07751E+001,1.91754E-002,4.23966E-001,0,1.62944E+002,-4.87775E+000,9.94879E-001,1.23982E+002,-3.57491E+001,9.95042E-001,2.23775E-001,-9.40241E-002,-9.63782E-004,2.23778E-001,-9.40270E-002,-1.73757E-001,2.24726E-001,1.25027E+000,-3.75563E-002,0.00000E+000,2.61515E-002,9.12386E-001,0.00000E+000,-1.00894E-002,-7.38924E-002,1.00000E+000,37
1049,1337,1.84270E+001,3.30353E-001,-9.70773E-002,1.08506E+001,-4.30305E-001,-1.23813E-001,1.08598E+001,2.24214E-002,4.51127E-001,0,1.64699E+002,-7.96348E+000,9.98623E-001,1.25950E+002,-3.83080E+001,9.97593E-001,2.26522E-001,-9.39089E-002,-1.26468E-003,2.26527E-001,-9.39139E-002,-2.26132E-001,2.27626E-001,1.25368E+000,-3.72411E-002,0.00000E+000,2.47001E-002,9.12398E-001,0.00000E+000,-1.22844E-003,-7.21107E-002,1.00000E+000,37
1049,1347,1.84334E+001,9.14173E-001,-7.65105E-002,1.08318E+001,-5.00334E-001,-1.44564E-001,1.08443E+001,1.78221E-002,4.51688E-001,0,1.64480E+002,-9.03727E+000,9.98268E-001,1.26146E+002,-3.93046E+001,9.96727E-001,2.27300E-001,-9.39114E-002,-1.25784E-003,2.27305E-001,-9.39163E-002,-2.24361E-001,2.28444E-001,1.25466E+000,-3.72039E-002,0.00000E+000,2.45729E-002,9.12393E-001,0.00000E+000,1.74200E-004,-7.20573E-002,1.00000E+000,37
1049,1307,1.84549E+001,-1.43360E+000,6.23077E-002,1.09145E+001,-2.59833E-001,-7.34406E-003,1.09175E+001,2.25200E-002,3.64326E-001,0,1.65211E+002,-5.39398E+000,9.97294E-001,1.26461E+002,-3.60452E+001,9.96507E-001,2.24189E-001,-9.39037E-002,-1.26344E-003,2.24194E-001,-9.39087E-002,-2.27569E-001,2.25176E-001,1.25076E+000,-3.72947E-002,0.00000E+000,2.50790E-002,9.12405E-001,0.00000E+000,-5.40662E-003,-7.21874E-002,1.00000E+000,37
1049,1317,1.84354E+001,-8.48956E-001,-9.40650E-003,1.08852E+001,-3.18129E-001,-5.50567E-002,1.08900E+001,1.84986E-002,4.25781E-001,0,1.64960E+002,-6.27560E+000,9.96621E-001,1.26100E+002,-3.67953E+001,9.94959E-001,2.24968E-001,-9.39053E-002,-1.26505E-003,2.24973E-001,-9.39103E-002,-2.27303E-001,2.25993E-001,1.25173E+000,-3.72802E-002,0.00000E+000,2.49529E-002,9.12403E-001,0.00000E+000,-4.01625E-003,-7.21667E-002,1.00000E+000,37
1049,1327,1.84279E+001,-2.72154E-001,-6.10547E-002,1.08687E+001,-3.84512E-001,-8.01685E-002,1.08758E+001,1.23952E-002,4.03552E-001,0,1.64816E+002,-7.28176E+000,9.97765E-001,1.25961E+002,-3.77511E+001,9.95997E-001,2.25745E-001,-9.39069E-002,-1.26713E-003,2.25750E-001,-9.39119E-002,-2.27120E-001,2.26810E-001,1.25270E+000,-3.72666E-002,0.00000E+000,2.48267E-002,9.12401E-001,0.00000E+000,-2.62491E-003,-7.21472E-002,1.00000E+000,37
809,1347,-1.34088E+000,5.54782E-001,-2.61306E-002,6.73392E+000,-6.98618E-001,-1.68128E-002,6.77008E+000,1.65867E-002,4.88955E-001,0,1.03994E+002,-1.17861E+001,9.98034E-001,5.98778E+001,-4.76340E+001,9.98015E-001,2.37652E-001,-1.00125E-001,-2.11345E-003,2.37665E-001,-1.00139E-001,-3.58477E-001,2.38643E-001,1.26828E+000,-3.76479E-003,0.00000E+000,-8.58903E-004,9.08385E-001,0.00000E+000,-4.48369E-003,-8.99961E-002,1.00000E+000,37
809,1357,-1.31346E+000,1.14238E+000,1.81183E-002,6.73319E+000,-7.64830E-001,-5.08991E-002,6.77669E+000,1.92264E-002,5.00949E-001,0,1.04079E+002,-1.27701E+001,9.97318E-001,6.05108E+001,-4.86611E+001,9.96590E-001,2.37902E-001,-1.00149E-001,-2.37321E-003,2.37919E-001,-1.00166E-001,-4.02205E-001,2.38907E-001,1.26861E+000,-3.75056E-003,0.00000E+000,-1.19254E-003,9.08370E-001,0.00000E+000,-6.40537E-003,-9.00787E-002,1.00000E+000,37
809,1327,-1.37967E+000,-6.19652E-001,2.16904E-002,6.72919E+000,-5.85104E-001,7.64867E-002,6.75502E+000,1.55489E-002,5.64568E-001,0,1.03628E+002,-1.01729E+001,9.97691E-001,5.91751E+001,-4.58234E+001,9.96493E-001,2.37144E-001,-1.00096E-001,-1.59475E-003,2.37152E-001,-1.00103E-001,-2.70934E-001,2.38109E-001,1.26762E+000,-3.78205E-003,0.00000E+000,-1.97539E-004,9.08402E-001,0.00000E+000,-6.74393E-004,-8.98959E-002,1.00000E+000,37
809,1337,-1.35917E+000,-3.70089E-002,-3.93612E-003,6.73460E+000,-6.44847E-001,3.78794E-002,6.76551E+000,1.45293E-002,5.28241E-001,0,1.03835E+002,-1.10466E+001,9.97548E-001,5.95385E+001,-4.67937E+001,9.97578E-001,2.37400E-001,-1.00109E-001,-1.85407E-003,2.37410E-001,-1.00119E-001,-3.14737E-001,2.38378E-001,1.26795E+000,-3.77440E-003,0.00000E+000,-5.27774E-004,9.08394E-001,0.00000E+000,-2.57647E-003,-8.99403E-002,1.00000E+000,37
809,1307,-1.39007E+000,-1.74574E+000,2.11755E-001,6.72958E+000,-4.38783E-001,1.94767E-001,6.74669E+000,2.82890E-002,5.83973E-001,0,1.03220E+002,-8.09928E+000,9.89838E-001,5.92502E+001,-4.35990E+001,9.88839E-001,2.36625E-001,-1.00085E-001,-1.07458E-003,2.36628E-001,-1.00088E-001,-1.82852E-001,2.37562E-001,1.26697E+000,-3.78755E-003,0.00000E+000,4.60271E-004,9.08408E-001,0.00000E+000,3.11444E-003,-8.98640E-002,1.00000E+000,37
809,1317,-1.38111E+000,-1.18127E+000,1.02215E-001,6.73487E+000,-5.09306E-001,1.29773E-001,6.75535E+000,2.46979E-002,5.65281E-001,0,1.03528E+002,-9.07872E+000,9.96422E-001,5.92372E+001,-4.46627E+001,9.95188E-001,2.36886E-001,-1.00089E-001,-1.33476E-003,2.36892E-001,-1.00094E-001,-2.26944E-001,2.37837E-001,1.26729E+000,-3.78567E-003,0.00000E+000,1.31661E-004,9.08406E-001,0.00000E+000,1.22172E-003,-8.98749E-002,1.00000E+000,37
1049,1297,1.84641E+001,-2.02749E+000,1.46748E-001,1.09323E+001,-2.11670E-001,4.80867E-002,1.09344E+001,1.92206E-002,3.58686E-001,0,1.65263E+002,-4.70760E+000,9.95644E-001,1.26682E+002,-3.54390E+001,9.93945E-001,2.23409E-001,-9.39021E-002,-1.26125E-003,2.23414E-001,-9.39071E-002,-2.27735E-001,2.24357E-001,1.24979E+000,-3.73075E-002,0.00000E+000,2.52050E-002,9.12406E-001,0.00000E+000,-6.79592E-003,-7.22056E-002,1.00000E+000,37
799,1337,-2.18607E+000,-4.50984E-002,-6.16908E-003,6.55533E+000,-6.46358E-001,3.95833E-002,6.58723E+000,1.49705E-002,5.11429E-001,0,1.01144E+002,-1.10443E+001,9.97869E-001,5.67899E+001,-4.70355E+001,9.97756E-001,2.35345E-001,-9.96623E-002,-1.30653E-003,2.35350E-001,-9.96674E-002,-2.23449E-001,2.36267E-001,1.26534E+000,-4.26443E-003,0.00000E+000,8.58079E-004,9.08624E-001,0.00000E+000,-2.89312E-003,-8.77672E-002,1.00000E+000,37
799,1347,-2.16539E+000,5.42813E-001,-1.91603E-002,6.55754E+000,-7.03892E-001,-4.10507E-003,6.59521E+000,1.77327E-002,5.04488E-001,0,1.01313E+002,-1.18772E+001,9.96979E-001,5.71877E+001,-4.79412E+001,9.96614E-001,2.35672E-001,-9.96853E-002,-1.66984E-003,2.35680E-001,-9.96936E-002,-2.85282E-001,2.36610E-001,1.26577E+000,-4.25242E-003,0.00000E+000,3.06248E-004,9.08609E-001,0.00000E+000,-4.50710E-003,-8.78132E-002,1.00000E+000,37
799,1357,-2.13188E+000,1.13881E+000,1.61843E-002,6.56297E+000,-7.61386E-001,-4.80036E-002,6.60717E+000,1.82061E-002,4.97847E-001,0,1.01520E+002,-1.26983E+001,9.96152E-001,5.78982E+001,-4.88296E+001,9.95447E-001,2.35998E-001,-9.97190E-002,-2.03348E-003,2.36010E-001,-9.97313E-002,-3.47030E-001,2.36951E-001,1.26619E+000,-4.23418E-003,0.00000E+000,-2.49508E-004,9.08585E-001,0.00000E+000,-6.13255E-003,-8.78831E-002,1.00000E+000,37
799,1327,-2.19682E+000,-6.33698E-001,4.40558E-002,6.55912E+000,-5.92011E-001,1.00546E-001,6.58655E+000,2.34209E-002,5.24880E-001,0,1.01008E+002,-1.03112E+001,9.98180E-001,5.66325E+001,-4.62183E+001,9.96930E-001,2.35016E-001,-9.96437E-002,-9.42921E-004,2.35019E-001,-9.96464E-002,-1.61432E-001,2.35922E-001,1.26492E+000,-4.27389E-003,0.00000E+000,1.40899E-003,9.08637E-001,0.00000E+000,-1.28183E-003,-8.77310E-002,1.00000E+000,37
1059,1327,1.92528E+001,-2.58705E-001,-6.20855E-002,1.10353E+001,-3.77562E-001,-8.30441E-002,1.10421E+001,1.86285E-002,4.30584E-001,0,1.67211E+002,-7.20433E+000,9.98349E-001,1.28806E+002,-3.74219E+001,9.96808E-001,2.25906E-001,-9.42828E-002,-1.61873E-003,2.25914E-001,-9.42910E-002,-2.89651E-001,2.26940E-001,1.25294E+000,-3.61858E-002,0.00000E+000,2.32786E-002,9.11994E-001,0.00000E+000,-1.06149E-003,-7.05526E-002,1.00000E+000,37
1059,1337,1.92561E+001,3.50851E-001,-8.35493E-002,1.10209E+001,-4.16719E-001,-1.13753E-001,1.10293E+001,1.54767E-002,4.23316E-001,0,1.67097E+002,-7.78742E+000,9.98869E-001,1.28885E+002,-3.79268E+001,9.98304E-001,2.26703E-001,-9.42920E-002,-1.68045E-003,2.26712E-001,-9.43008E-002,-2.99940E-001,2.27777E-001,1.25394E+000,-3.61589E-002,0.00000E+000,2.30703E-002,9.11988E-001,0.00000E+000,-2.30638E-004,-7.05303E-002,1.00000E+000,37
1059,1347,1.92651E+001,9.36709E-001,-7.50457E-002,1.10044E+001,-4.84098E-001,-1.47592E-001,1.10160E+001,2.06359E-002,4.18709E-001,0,1.66962E+002,-8.80554E+000,9.98710E-001,1.29100E+002,-3.88658E+001,9.97025E-001,2.27501E-001,-9.43031E-002,-1.73780E-003,2.27510E-001,-9.43125E-002,-3.09396E-001,2.28615E-001,1.25495E+000,-3.61200E-002,0.00000E+000,2.28614E-002,9.11980E-001,0.00000E+000,6.02750E-004,-7.04981E-002,1.00000E+000,37
1059,1297,1.92827E+001,-2.00507E+000,1.33739E-001,1.10952E+001,-1.92361E-001,4.33442E-002,1.10970E+001,1.85960E-002,3.02158E-001,0,1.67606E+002,-4.41197E+000,9.96440E-001,1.29409E+002,-3.49928E+001,9.93402E-001,2.23515E-001,-9.42611E-002,-1.42095E-003,2.23522E-001,-9.42675E-002,-2.56193E-001,2.24432E-001,1.24994E+000,-3.62319E-002,0.00000E+000,2.39011E-002,9.12003E-001,0.00000E+000,-3.54496E-003,-7.05908E-002,1.00000E+000,37
1059,1307,1.92745E+001,-1.41672E+000,5.56518E-002,1.10784E+001,-2.45374E-001,-5.77017E-003,1.10811E+001,1.88600E-002,3.13325E-001,0,1.67548E+002,-5.20397E+000,9.97933E-001,1.29215E+002,-3.56938E+001,9.97186E-001,2.24311E-001,-9.42680E-002,-1.48745E-003,2.24318E-001,-9.42750E-002,-2.67507E-001,2.25266E-001,1.25094E+000,-3.62187E-002,0.00000E+000,2.36942E-002,9.12000E-001,0.00000E+000,-2.71977E-003,-7.05799E-002,1.00000E+000,37
1059,1317,1.92518E+001,-8.37296E-001,-2.19015E-002,1.10465E+001,-3.09720E-001,-5.69797E-002,1.10509E+001,2.03779E-002,4.18461E-001,0,1.67274E+002,-6.17859E+000,9.97453E-001,1.28795E+002,-3.64889E+001,9.95007E-001,2.25108E-001,-9.42750E-002,-1.55384E-003,2.25116E-001,-9.42826E-002,-2.78742E-001,2.26103E-001,1.25194E+000,-3.62045E-002,0.00000E+000,2.34867E-002,9.11998E-001,0.00000E+000,-1.89173E-003,-7.05681E-002,1.00000E+000,37
799,1307,-2.20311E+000,-1.75486E+000,2.22277E-001,6.56233E+000,-4.42261E-001,2.01092E-001,6.58029E+000,3.61406E-002,5.47198E-001,0,1.00701E+002,-8.14428E+000,9.92851E-001,5.67458E+001,-4.38863E+001,9.92729E-001,2.34354E-001,-9.96283E-002,-2.15370E-004,2.34354E-001,-9.96285E-002,-3.69474E-002,2.35228E-001,1.26409E+000,-4.28011E-003,0.00000E+000,2.50403E-003,9.08645E-001,0.00000E+000,1.92091E-003,-8.77071E-002,1.00000E+000,37
799,1317,-2.20273E+000,-1.19203E+000,1.11295E-001,6.56173E+000,-5.12615E-001,1.48138E-001,6.58339E+000,2.99241E-002,5.79297E-001,0,1.00881E+002,-9.16693E+000,9.95616E-001,5.65951E+001,-4.49502E+001,9.94315E-001,2.34686E-001,-9.96318E-002,-5.79581E-004,2.34687E-001,-9.96328E-002,-9.93289E-002,2.35576E-001,1.26450E+000,-4.27945E-003,0.00000E+000,1.95729E-003,9.08644E-001,0.00000E+000,3.21813E-004,-8.77097E-002,1.00000E+000,37
789,1327,-3.01467E+000,-6.39268E-001,4.18577E-002,6.38859E+000,-5.90785E-001,1.03584E-001,6.41669E+000,2.26851E-002,5.32930E-001,0,9.84428E+001,-1.02879E+001,9.97323E-001,5.40287E+001,-4.64061E+001,9.96457E-001,2.32965E-001,-9.91832E-002,-5.93469E-004,2.32966E-001,-9.91842E-002,-1.02373E-001,2.33821E-001,1.26233E+000,-4.99810E-003,0.00000E+000,2.62410E-003,9.08908E-001,0.00000E+000,-1.88953E-003,-8.58906E-002,1.00000E+000,37
789,1337,-3.00047E+000,-4.52601E-002,-2.74813E-003,6.38773E+000,-6.39984E-001,4.49070E-002,6.41986E+000,1.85136E-002,5.06615E-001,0,9.86129E+001,-1.09393E+001,9.96369E-001,5.42541E+001,-4.71599E+001,9.96488E-001,2.33423E-001,-9.92079E-002,-1.04443E-003,2.33427E-001,-9.92111E-002,-1.79901E-001,2.34300E-001,1.26291E+000,-4.98451E-003,0.00000E+000,1.88363E-003,9.08891E-001,0.00000E+000,-3.21610E-003,-8.59215E-002,1.00000E+000,37
789,1347,-2.97547E+000,5.42023E-001,-1.61169E-002,6.39396E+000,-6.99177E-001,-1.37552E-003,6.43208E+000,1.99356E-002,5.26139E-001,0,9.88513E+001,-1.17911E+001,9.95386E-001,5.47186E+001,-4.80626E+001,9.94771E-001,2.33881E-001,-9.92375E-002,-1.49552E-003,2.33887E-001,-9.92442E-002,-2.57221E-001,2.34778E-001,1.26350E+000,-4.96759E-003,0.00000E+000,1.14090E-003,9.08869E-001,0.00000E+000,-4.54672E-003,-8.59600E-002,1.00000E+000,37
789,1357,-2.95124E+000,1.13254E+000,1.30666E-002,6.39163E+000,-7.60960E-001,-4.49013E-002,6.43693E+000,1.81042E-002,5.21566E-001,0,9.89407E+001,-1.26794E+001,9.94635E-001,5.52731E+001,-4.90240E+001,9.94145E-001,2.34338E-001,-9.92779E-002,-1.94614E-003,2.34349E-001,-9.92893E-002,-3.34220E-001,2.35257E-001,1.26408E+000,-4.94365E-003,0.00000E+000,3.94648E-004,9.08839E-001,0.00000E+000,-5.88365E-003,-8.60145E-002,1.00000E+000,37
1069,1327,2.00794E+001,-2.44137E-001,-6.83418E-002,1.12043E+001,-3.69677E-001,-8.64548E-002,1.12107E+001,1.95548E-002,4.43310E-001,0,1.69641E+002,-7.09187E+000,9.98012E-001,1.31674E+002,-3.70711E+001,9.96158E-001,2.26159E-001,-9.43445E-002,-1.96990E-003,2.26172E-001,-9.43566E-002,-3.52138E-001,2.27203E-001,1.25328E+000,-3.53399E-002,0.00000E+000,2.19471E-002,9.11895E-001,0.00000E+000,-7.92872E-005,-6.93655E-002,1.00000E+000,37
1069,1337,2.00739E+001,3.58548E-001,-9.11832E-002,1.11819E+001,-4.13868E-001,-1.14881E-001,1.11901E+001,1.26909E-002,3.94492E-001,0,1.69402E+002,-7.75996E+000,9.98465E-001,1.31613E+002,-3.76995E+001,9.97536E-001,2.26886E-001,-9.43571E-002,-2.07033E-003,2.26900E-001,-9.43705E-002,-3.69236E-001,2.27967E-001,1.25420E+000,-3.53164E-002,0.00000E+000,2.17064E-002,9.11889E-001,0.00000E+000,2.17288E-004,-6.93579E-002,1.00000E+000,37
1069,1347,2.00791E+001,9.50231E-001,-8.89992E-002,1.11631E+001,-4.75339E-001,-1.47278E-001,1.11742E+001,1.36594E-002,4.27108E-001,0,1.69229E+002,-8.69639E+000,9.98621E-001,1.31755E+002,-3.85143E+001,9.97761E-001,2.27617E-001,-9.43723E-002,-2.16768E-003,2.27631E-001,-9.43869E-002,-3.85701E-001,2.28734E-001,1.25512E+000,-3.52831E-002,0.00000E+000,2.14641E-002,9.11880E-001,0.00000E+000,5.15754E-004,-6.93471E-002,1.00000E+000,37
789,1307,-3.01131E+000,-1.76634E+000,2.18670E-001,6.40165E+000,-4.47583E-001,2.04344E-001,6.42053E+000,2.34264E-002,5.19682E-001,0,9.82916E+001,-8.20113E+000,9.95396E-001,5.42877E+001,-4.41752E+001,9.92276E-001,2.32049E-001,-9.91621E-002,3.09282E-004,2.32049E-001,-9.91624E-002,5.35023E-002,2.32864E-001,1.26117E+000,-5.00691E-003,0.00000E+000,4.09477E-003,9.08919E-001,0.00000E+000,7.45228E-004,-8.58705E-002,1.00000E+000,37
789,1317,-3.01641E+000,-1.20790E+000,1.32263E-001,6.39279E+000,-5.23339E-001,1.61549E-001,6.41621E+000,2.44243E-002,5.38684E-001,0,9.83097E+001,-9.33429E+000,9.95575E-001,5.41092E+001,-4.53681E+001,9.92070E-001,2.32508E-001,-9.91712E-002,-1.42093E-004,2.32508E-001,-9.91713E-002,-2.45458E-002,2.33343E-001,1.26175E+000,-5.00349E-003,0.00000E+000,3.36007E-003,9.08915E-001,0.00000E+000,-5.71014E-004,-8.58783E-002,1.00000E+000,37
1069,1297,2.00866E+001,-1.98658E+000,1.13517E-001,1.12449E+001,-1.77189E-001,3.89446E-002,1.12463E+001,2.39437E-002,3.48808E-001,0,1.69748E+002,-4.21130E+000,9.94033E-001,1.31902E+002,-3.45427E+001,9.89942E-001,2.23975E-001,-9.43127E-002,-1.65933E-003,2.23984E-001,-9.43214E-002,-2.98689E-001,2.24911E-001,1.25054E+000,-3.53867E-002,0.00000E+000,2.26692E-002,9.11907E-001,0.00000E+000,-9.68894E-004,-6.93807E-002,1.00000E+000,37
1069,1307,2.00848E+001,-1.40212E+000,3.08418E-002,1.12356E+001,-2.33429E-001,-9.80942E-003,1.12381E+001,1.63431E-002,3.18807E-001,0,1.69807E+002,-5.03746E+000,9.97601E-001,1.31802E+002,-3.53119E+001,9.96056E-001,2.24700E-001,-9.43220E-002,-1.76430E-003,2.24710E-001,-9.43317E-002,-3.16852E-001,2.25672E-001,1.25145E+000,-3.53762E-002,0.00000E+000,2.24297E-002,9.11905E-001,0.00000E+000,-6.73808E-004,-6.93773E-002,1.00000E+000,37
1069,1317,2.00845E+001,-8.14442E-001,-2.22830E-002,1.12224E+001,-2.92715E-001,-5.11886E-002,1.12263E+001,1.65550E-002,4.44064E-001,0,1.69769E+002,-5.95462E+000,9.98417E-001,1.31769E+002,-3.60168E+001,9.96455E-001,2.25430E-001,-9.43332E-002,-1.86714E-003,2.25441E-001,-9.43441E-002,-3.34542E-001,2.26437E-001,1.25237E+000,-3.53582E-002,0.00000E+000,2.21885E-002,9.11900E-001,0.00000E+000,-3.76600E-004,-6.93715E-002,1.00000E+000,37
779,1327,-3.82384E+000,-6.38128E-001,4.87400E-002,6.22532E+000,-5.85468E-001,1.10839E-001,6.25377E+000,3.14212E-002,5.73338E-001,0,9.59699E+001,-1.01980E+001,9.97021E-001,5.15871E+001,-4.64928E+001,9.95747E-001,2.30828E-001,-9.84386E-002,-5.69468E-004,2.30829E-001,-9.84395E-002,-9.90929E-002,2.31660E-001,1.25963E+000,-6.06915E-003,0.00000E+000,3.47080E-003,9.09473E-001,0.00000E+000,-2.23827E-003,-8.44689E-002,1.00000E+000,37
779,1337,-3.80802E+000,-6.16456E-002,3.40510E-003,6.22655E+000,-6.50867E-001,5.30897E-002,6.26070E+000,1.78594E-002,5.19226E-001,0,9.61737E+001,-1.11027E+001,9.95348E-001,5.18329E+001,-4.75310E+001,9.95643E-001,2.31516E-001,-9.84701E-002,-1.14174E-003,2.31520E-001,-9.84741E-002,-1.98239E-001,2.32378E-001,1.26050E+000,-6.04944E-003,0.00000E+000,2.47350E-003,9.09450E-001,0.00000E+000,-3.23572E-003,-8.44915E-002,1.00000E+000,37
779,1347,-3.79143E+000,5.32162E-001,-1.26959E-002,6.22400E+000,-7.02593E-001,1.13683E-003,6.26353E+000,2.21985E-002,5.12112E-001,0,9.62911E+001,-1.18284E+001,9.93472E-001,5.21641E+001,-4.83436E+001,9.93189E-001,2.32203E-001,-9.85095E-002,-1.71348E-003,2.32212E-001,-9.85183E-002,-2.96849E-001,2.33099E-001,1.26137E+000,-6.02359E-003,0.00000E+000,1.47300E-003,9.09421E-001,0.00000E+000,-4.23636E-003,-8.45211E-002,1.00000E+000,37
779,1357,-3.77099E+000,1.12714E+000,1.18288E-002,6.21884E+000,-7.59485E-001,-4.32799E-002,6.26519E+000,1.79073E-002,5.22227E-001,0,9.63385E+001,-1.26397E+001,9.94448E-001,5.26524E+001,-4.92211E+001,9.94647E-001,2.32893E-001,-9.85600E-002,-2.28554E-003,2.32909E-001,-9.85758E-002,-3.95058E-001,2.33822E-001,1.26225E+000,-5.98903E-003,0.00000E+000,4.66168E-004,9.09381E-001,0.00000E+000,-5.24334E-003,-8.45607E-002,1.00000E+000,37
779,1317,-3.81419E+000,-1.19779E+000,1.33247E-001,6.24073E+000,-5.07400E-001,1.62065E-001,6.26342E+000,3.01785E-002,5.35166E-001,0,9.60286E+001,-9.07492E+000,9.97734E-001,5.18314E+001,-4.53224E+001,9.96210E-001,2.30139E-001,-9.84226E-002,6.55297E-006,2.30139E-001,-9.84226E-002,1.14273E-003,2.30941E-001,1.25876E+000,-6.07696E-003,0.00000E+000,4.46649E-003,9.09482E-001,0.00000E+000,-1.24243E-003,-8.44599E-002,1.00000E+000,37
1079,1337,2.08995E+001,3.75332E-001,-1.06000E-001,1.13494E+001,-4.03500E-001,-1.26025E-001,1.13573E+001,2.18744E-002,4.03823E-001,0,1.71837E+002,-7.59752E+000,9.96970E-001,1.34455E+002,-3.72956E+001,9.97145E-001,2.27427E-001,-9.46221E-002,-2.40113E-003,2.27445E-001,-9.46400E-002,-4.27154E-001,2.28509E-001,1.25490E+000,-3.44325E-002,0.00000E+000,2.04176E-002,9.11631E-001,0.00000E+000,5.24271E-004,-6.86030E-002,1.00000E+000,37
1079,1347,2.09100E+001,9.66890E-001,-9.66401E-002,1.13357E+001,-4.65277E-001,-1.51641E-001,1.13463E+001,1.20301E-002,4.25279E-001,0,1.71714E+002,-8.55106E+000,9.98867E-001,1.34690E+002,-3.81314E+001,9.98734E-001,2.28083E-001,-9.46440E-002,-2.55464E-003,2.28103E-001,-9.46642E-002,-4.53504E-001,2.29199E-001,1.25573E+000,-3.44024E-002,0.00000E+000,2.01058E-002,9.11620E-001,0.00000E+000,3.44964E-004,-6.86095E-002,1.00000E+000,37
1079,1297,2.09162E+001,-1.96250E+000,1.17825E-001,1.14160E+001,-1.59021E-001,4.31222E-002,1.14172E+001,2.24772E-002,4.37172E-001,0,1.72167E+002,-4.00098E+000,9.95867E-001,1.34840E+002,-3.40341E+001,9.93795E-001,2.24813E-001,-9.45593E-002,-1.76851E-003,2.24823E-001,-9.45691E-002,-3.17260E-001,2.25765E-001,1.25162E+000,-3.44950E-002,0.00000E+000,2.16568E-002,9.11655E-001,0.00000E+000,1.23680E-003,-6.85894E-002,1.00000E+000,37
1079,1307,2.09062E+001,-1.38880E+000,2.67197E-002,1.13998E+001,-2.26041E-001,-8.05947E-003,1.14021E+001,1.89168E-002,3.45377E-001,0,1.72140E+002,-4.94714E+000,9.97763E-001,1.34597E+002,-3.49825E+001,9.96392E-001,2.25464E-001,-9.45717E-002,-1.92902E-003,2.25476E-001,-9.45833E-002,-3.45334E-001,2.26448E-001,1.25244E+000,-3.44872E-002,0.00000E+000,2.13484E-002,9.11652E-001,0.00000E+000,1.05949E-003,-6.85911E-002,1.00000E+000,37
1079,1327,2.09021E+001,-2.27625E-001,-7.74947E-002,1.13686E+001,-3.59344E-001,-9.40209E-002,1.13746E+001,2.31552E-002,4.18625E-001,0,1.72012E+002,-6.92463E+000,9.97492E-001,1.34482E+002,-3.67031E+001,9.96905E-001,2.26774E-001,-9.46044E-002,-2.24490E-003,2.26790E-001,-9.46200E-002,-4.00199E-001,2.27823E-001,1.25408E+000,-3.44532E-002,0.00000E+000,2.07276E-002,9.11639E-001,0.00000E+000,7.02486E-004,-6.85985E-002,1.00000E+000,37
1079,1317,2.09011E+001,-7.97173E-001,-3.45811E-002,1.13819E+001,-2.81743E-001,-5.68866E-002,1.13855E+001,1.80731E-002,4.08181E-001,0,1.72061E+002,-5.75855E+000,9.97632E-001,1.34478E+002,-3.56385E+001,9.96826E-001,2.26120E-001,-9.45877E-002,-2.08743E-003,2.26133E-001,-9.46012E-002,-3.72908E-001,2.27136E-001,1.25326E+000,-3.44712E-002,0.00000E+000,2.10378E-002,9.11646E-001,0.00000E+000,8.80894E-004,-6.85945E-002,1.00000E+000,37
779,1307,-3.82954E+000,-1.78314E+000,2.31604E-001,6.22886E+000,-4.59989E-001,2.15789E-001,6.24955E+000,2.12181E-002,5.44019E-001,0,9.56669E+001,-8.40160E+000,9.97246E-001,5.17191E+001,-4.45565E+001,9.94697E-001,2.29453E-001,-9.84102E-002,5.80029E-004,2.29454E-001,-9.84112E-002,1.01362E-001,2.30227E-001,1.25790E+000,-6.08171E-003,0.00000E+000,5.45565E-003,9.09487E-001,0.00000E+000,-2.53126E-004,-8.44545E-002,1.00000E+000,37
1089,1337,2.17208E+001,3.96208E-001,-1.18689E-001,1.15123E+001,-3.89671E-001,-1.34808E-001,1.15196E+001,1.87312E-002,4.60264E-001,0,1.74186E+002,-7.40005E+000,9.96452E-001,1.37239E+002,-3.68102E+001,9.96127E-001,2.28537E-001,-9.50458E-002,-2.47994E-003,2.28556E-001,-9.50648E-002,-4.39080E-001,2.29631E-001,1.25634E+000,-3.31121E-002,0.00000E+000,1.92446E-002,9.11221E-001,0.00000E+000,1.15276E-003,-6.78176E-002,1.00000E+000,37
1089,1347,2.17302E+001,9.87030E-001,-1.07170E-001,1.14975E+001,-4.51354E-001,-1.57827E-001,1.15075E+001,1.29206E-002,4.31162E-001,0,1.74038E+002,-8.34856E+000,9.98302E-001,1.37460E+002,-3.76858E+001,9.97575E-001,2.29272E-001,-9.50720E-002,-2.66986E-003,2.29294E-001,-9.50939E-002,-4.71592E-001,2.30403E-001,1.25726E+000,-3.30782E-002,0.00000E+000,1.88729E-002,9.11208E-001,0.00000E+000,7.84023E-004,-6.78311E-002,1.00000E+000,37
769,1347,-4.60670E+000,5.21558E-001,-5.93504E-003,6.05508E+000,-7.06889E-001,1.10159E-002,6.09621E+000,1.82575E-002,5.15888E-001,0,9.37210E+001,-1.18942E+001,9.94258E-001,4.96340E+001,-4.86345E+001,9.94665E-001,2.29911E-001,-9.78273E-002,-1.78277E-003,2.29920E-001,-9.78370E-002,-3.11654E-001,2.30769E-001,1.25848E+000,-6.88342E-003,0.00000E+000,1.95024E-003,9.09946E-001,0.00000E+000,-3.97222E-003,-8.32624E-002,1.00000E+000,37
769,1357,-4.58180E+000,1.12083E+000,1.33431E-002,6.05493E+000,-7.59081E-001,-3.68762E-002,6.10244E+000,1.77138E-002,5.39782E-001,0,9.38550E+001,-1.26305E+001,9.95729E-001,5.01812E+001,-4.94287E+001,9.96108E-001,2.30465E-001,-9.78762E-002,-2.34331E-003,2.30482E-001,-9.78930E-002,-4.08882E-001,2.31351E-001,1.25918E+000,-6.85636E-003,0.00000E+000,9.57667E-004,9.09907E-001,0.00000E+000,-4.83223E-003,-8.32955E-002,1.00000E+000,37
769,1327,-4.63219E+000,-6.47077E-001,6.28952E-002,6.06014E+000,-5.89439E-001,1.13110E-001,6.08979E+000,2.25914E-002,5.81162E-001,0,9.34800E+001,-1.02650E+001,9.96638E-001,4.91799E+001,-4.67672E+001,9.95022E-001,2.28806E-001,-9.77624E-002,-6.62255E-004,2.28807E-001,-9.77638E-002,-1.16191E-001,2.29612E-001,1.25708E+000,-6.91647E-003,0.00000E+000,3.92011E-003,9.09992E-001,0.00000E+000,-2.26543E-003,-8.32221E-002,1.00000E+000,37
769,1337,-4.62400E+000,-7.84514E-002,3.81052E-003,6.05629E+000,-6.61944E-001,5.42754E-002,6.09260E+000,1.59836E-002,5.24887E-001,0,9.36130E+001,-1.12556E+001,9.95840E-001,4.92739E+001,-4.79009E+001,9.95740E-001,2.29358E-001,-9.77894E-002,-1.22321E-003,2.29363E-001,-9.77939E-002,-2.14226E-001,2.30190E-001,1.25778E+000,-6.90344E-003,0.00000E+000,2.93634E-003,9.09974E-001,0.00000E+000,-3.11781E-003,-8.32380E-002,1.00000E+000,37
1089,1327,2.17225E+001,-1.97782E-001,-1.00312E-001,1.15323E+001,-3.32964E-001,-1.06407E-001,1.15376E+001,2.00990E-002,3.98138E-001,0,1.74386E+002,-6.52519E+000,9.96405E-001,1.37239E+002,-3.60969E+001,9.95539E-001,2.27802E-001,-9.50233E-002,-2.28685E-003,2.27819E-001,-9.50395E-002,-4.05847E-001,2.28858E-001,1.25541E+000,-3.31378E-002,0.00000E+000,1.96161E-002,9.11232E-001,0.00000E+000,1.52143E-003,-6.78073E-002,1.00000E+000,37
1089,1317,2.17278E+001,-7.88845E-001,-4.59602E-002,1.15506E+001,-2.78302E-001,-6.40486E-002,1.15541E+001,1.84111E-002,4.44222E-001,0,1.74494E+002,-5.73922E+000,9.97644E-001,1.37350E+002,-3.53638E+001,9.97348E-001,2.27070E-001,-9.50042E-002,-2.09189E-003,2.27084E-001,-9.50178E-002,-3.72118E-001,2.28089E-001,1.25449E+000,-3.31560E-002,0.00000E+000,1.99856E-002,9.11239E-001,0.00000E+000,1.88813E-003,-6.78001E-002,1.00000E+000,37
1089,1297,2.17450E+001,-1.93953E+000,1.21555E-001,1.15860E+001,-1.42651E-001,4.75380E-002,1.15870E+001,1.60201E-002,4.60222E-001,0,1.74565E+002,-3.77448E+000,9.97911E-001,1.37769E+002,-3.35744E+001,9.97799E-001,2.25607E-001,-9.49710E-002,-1.69864E-003,2.25616E-001,-9.49800E-002,-3.03580E-001,2.26553E-001,1.25266E+000,-3.31817E-002,0.00000E+000,2.07231E-002,9.11249E-001,0.00000E+000,2.61987E-003,-6.77898E-002,1.00000E+000,37
1089,1307,2.17330E+001,-1.36911E+000,1.81615E-002,1.15674E+001,-2.13488E-001,-1.72687E-002,1.15694E+001,1.55121E-002,4.37586E-001,0,1.74558E+002,-4.78302E+000,9.98351E-001,1.37476E+002,-3.45113E+001,9.98401E-001,2.26338E-001,-9.49859E-002,-1.89632E-003,2.26349E-001,-9.49971E-002,-3.38119E-001,2.27320E-001,1.25357E+000,-3.31724E-002,0.00000E+000,2.03550E-002,9.11246E-001,0.00000E+000,2.25467E-003,-6.77935E-002,1.00000E+000,37
769,1317,-4.64111E+000,-1.20928E+000,1.34674E-001,6.05924E+000,-5.15816E-001,1.64086E-001,6.08337E+000,2.62043E-002,5.29718E-001,0,9.32943E+001,-9.14808E+000,9.97799E-001,4.91077E+001,-4.56156E+001,9.97286E-001,2.28255E-001,-9.77421E-002,-1.03030E-004,2.28255E-001,-9.77422E-002,-1.81080E-002,2.29038E-001,1.25639E+000,-6.92517E-003,0.00000E+000,4.89789E-003,9.10004E-001,0.00000E+000,-1.41824E-003,-8.32115E-002,1.00000E+000,37
1099,1327,2.25395E+001,-1.80926E-001,-1.06350E-001,1.16921E+001,-3.21408E-001,-1.02363E-001,1.16969E+001,2.27635E-002,4.27749E-001,0,1.76636E+002,-6.38645E+000,9.92882E-001,1.39973E+002,-3.57044E+001,9.89882E-001,2.29079E-001,-9.53635E-002,-2.43279E-003,2.29097E-001,-9.53817E-002,-4.29593E-001,2.30164E-001,1.25704E+000,-3.21857E-002,0.00000E+000,1.85806E-002,9.10958E-001,0.00000E+000,2.17324E-003,-6.80418E-002,1.00000E+000,37
1099,1337,2.25481E+001,4.18475E-001,-1.17739E-001,1.16805E+001,-3.73144E-001,-1.30714E-001,1.16872E+001,2.18932E-002,4.42155E-001,0,1.76560E+002,-7.17580E+000,9.94299E-001,1.40144E+002,-3.63700E+001,9.93651E-001,2.29985E-001,-9.53863E-002,-2.61688E-003,2.30006E-001,-9.54074E-002,-4.60775E-001,2.31117E-001,1.25819E+000,-3.21509E-002,0.00000E+000,1.82150E-002,9.10947E-001,0.00000E+000,1.81580E-003,-6.80527E-002,1.00000E+000,37
1099,1347,2.25597E+001,1.01521E+000,-1.05216E-001,1.16657E+001,-4.30749E-001,-1.61097E-001,1.16747E+001,1.70339E-002,4.40403E-001,0,1.76435E+002,-8.05414E+000,9.96509E-001,1.40398E+002,-3.71408E+001,9.95723E-001,2.30893E-001,-9.54131E-002,-2.79719E-003,2.30917E-001,-9.54371E-002,-4.91109E-001,2.32071E-001,1.25933E+000,-3.21052E-002,0.00000E+000,1.78486E-002,9.10932E-001,0.00000E+000,1.45753E-003,-6.80670E-002,1.00000E+000,37
759,1347,-5.41113E+000,5.18664E-001,-8.72601E-003,5.89668E+000,-7.03749E-001,1.19526E-002,5.93854E+000,1.60158E-002,5.11114E-001,0,9.13354E+001,-1.18161E+001,9.94749E-001,4.72548E+001,-4.87888E+001,9.94515E-001,2.27660E-001,-9.72035E-002,-1.74901E-003,2.27669E-001,-9.72130E-002,-3.08458E-001,2.28477E-001,1.25564E+000,-7.51475E-003,0.00000E+000,2.45079E-003,9.10441E-001,0.00000E+000,-3.61114E-003,-8.23189E-002,1.00000E+000,37
759,1357,-5.39224E+000,1.11164E+000,1.17294E-002,5.89104E+000,-7.61654E-001,-3.32115E-002,5.94016E+000,1.73592E-002,5.36041E-001,0,9.13777E+001,-1.26487E+001,9.95294E-001,4.77134E+001,-4.96846E+001,9.95094E-001,2.27957E-001,-9.72388E-002,-2.15711E-003,2.27971E-001,-9.72532E-002,-3.80036E-001,2.28788E-001,1.25602E+000,-7.50055E-003,0.00000E+000,1.74333E-003,9.10415E-001,0.00000E+000,-4.39234E-003,-8.23483E-002,1.00000E+000,37
1099,1297,2.25633E+001,-1.93002E+000,9.50169E-002,1.17468E+001,-1.38240E-001,2.90024E-002,1.17476E+001,1.57120E-002,4.69188E-001,0,1.76919E+002,-3.68275E+000,9.96917E-001,1.40491E+002,-3.32676E+001,9.94964E-001,2.26371E-001,-9.53134E-002,-1.86461E-003,2.26382E-001,-9.53242E-002,-3.32095E-001,2.27320E-001,1.25365E+000,-3.22396E-002,0.00000E+000,1.96698E-002,9.10975E-001,0.00000E+000,3.23833E-003,-6.80249E-002,1.00000E+000,37
1099,1307,2.25581E+001,-1.34916E+000,1.14178E-002,1.17350E+001,-1.99265E-001,-1.59006E-002,1.17367E+001,1.80675E-002,4.62909E-001,0,1.76933E+002,-4.58601E+000,9.97549E-001,1.40336E+002,-3.40739E+001,9.96797E-001,2.27273E-001,-9.53278E-002,-2.05617E-003,2.27286E-001,-9.53409E-002,-3.65168E-001,2.28267E-001,1.25478E+000,-3.22281E-002,0.00000E+000,1.93074E-002,9.10972E-001,0.00000E+000,2.88396E-003,-6.80285E-002,1.00000E+000,37
1099,1317,2.25463E+001,-7.67878E-001,-6.36829E-002,1.17127E+001,-2.62068E-001,-6.84136E-002,1.17158E+001,2.41133E-002,4.68992E-001,0,1.76812E+002,-5.50589E+000,9.95461E-001,1.40090E+002,-3.48861E+001,9.93501E-001,2.28176E-001,-9.53446E-002,-2.24542E-003,2.28191E-001,-9.53602E-002,-3.97641E-001,2.29214E-001,1.25591E+000,-3.22098E-002,0.00000E+000,1.89444E-002,9.10966E-001,0.00000E+000,2.52896E-003,-6.80342E-002,1.00000E+000,37
759,1327,-5.44909E+000,-6.61223E-001,5.69987E-002,5.88820E+000,-5.97647E-001,1.06690E-001,5.91942E+000,1.93821E-002,5.41054E-001,0,9.09134E+001,-1.03437E+001,9.96279E-001,4.65978E+001,-4.71038E+001,9.96819E-001,2.27068E-001,-9.71573E-002,-9.34071E-004,2.27070E-001,-9.71600E-002,-1.65064E-001,2.27856E-001,1.25489E+000,-7.53184E-003,0.00000E+000,3.85608E-003,9.10473E-001,0.00000E+000,-2.05940E-003,-8.22836E-002,1.00000E+000,37
759,1337,-5.43017E+000,-7.04608E-002,1.11893E-002,5.89490E+000,-6.48280E-001,5.96336E-002,5.93074E+000,1.58149E-002,5.45393E-001,0,9.11635E+001,-1.10472E+001,9.95136E-001,4.68934E+001,-4.78952E+001,9.95231E-001,2.27364E-001,-9.71773E-002,-1.34166E-003,2.27370E-001,-9.71829E-002,-2.36857E-001,2.28167E-001,1.25527E+000,-7.52476E-003,0.00000E+000,3.15420E-003,9.10460E-001,0.00000E+000,-2.83443E-003,-8.22982E-002,1.00000E+000,37
759,1317,-5.45128E+000,-1.22925E+000,1.43832E-001,5.89304E+000,-5.30240E-001,1.67915E-001,5.91923E+000,2.41951E-002,5.43026E-001,0,9.07860E+001,-9.38232E+000,9.96934E-001,4.66647E+001,-4.60449E+001,9.96880E-001,2.26772E-001,-9.71437E-002,-5.27939E-004,2.26773E-001,-9.71446E-002,-9.33839E-002,2.27547E-001,1.25452E+000,-7.53594E-003,0.00000E+000,4.55345E-003,9.10481E-001,0.00000E+000,-1.28936E-003,-8.22751E-002,1.00000E+000,37
749,1317,-6.24989E+000,-1.23210E+000,1.62395E-001,5.73678E+000,-5.29822E-001,1.74891E-001,5.76384E+000,1.84777E-002,5.76853E-001,0,8.84118E+001,-9.38247E+000,9.97087E-001,4.44323E+001,-4.62184E+001,9.95622E-001,2.25253E-001,-9.65904E-002,-7.74113E-004,2.25254E-001,-9.65923E-002,-1.37810E-001,2.26014E-001,1.25262E+000,-7.51186E-003,0.00000E+000,4.09764E-003,9.10942E-001,0.00000E+000,-1.36763E-003,-8.16610E-002,1.00000E+000,37
749,1327,-6.24709E+000,-6.60529E-001,6.12057E-002,5.73415E+000,-5.92928E-001,1.07424E-001,5.76572E+000,1.53793E-002,5.27423E-001,0,8.85915E+001,-1.02297E+001,9.95696E-001,4.43393E+001,-4.72178E+001,9.95775E-001,2.25330E-001,-9.65988E-002,-1.07454E-003,2.25333E-001,-9.66024E-002,-1.91241E-001,2.26096E-001,1.25272E+000,-7.51103E-003,0.00000E+000,3.58163E-003,9.10938E-001,0.00000E+000,-1.90966E-003,-8.16656E-002,1.00000E+000,37
749,1337,-6.23810E+000,-7.30078E-002,1.43124E-002,5.73125E+000,-6.45763E-001,6.03342E-002,5.76783E+000,1.52239E-002,5.71064E-001,0,8.86935E+001,-1.09960E+001,9.95706E-001,4.44792E+001,-4.80406E+001,9.95888E-001,2.25407E-001,-9.66132E-002,-1.37618E-003,2.25413E-001,-9.66190E-002,-2.44852E-001,2.26177E-001,1.25281E+000,-7.50922E-003,0.00000E+000,3.06290E-003,9.10928E-001,0.00000E+000,-2.45457E-003,-8.16757E-002,1.00000E+000,37
749,1347,-6.22316E+000,5.12564E-001,-1.00413E-002,5.72980E+000,-7.03579E-001,1.18987E-002,5.77285E+000,1.66821E-002,5.10033E-001,0,8.88188E+001,-1.17923E+001,9.96114E-001,4.47672E+001,-4.89951E+001,9.96135E-001,2.25484E-001,-9.66316E-002,-1.67821E-003,2.25492E-001,-9.66404E-002,-2.98499E-001,2.26258E-001,1.25291E+000,-7.50672E-003,0.00000E+000,2.54303E-003,9.10915E-001,0.00000E+000,-3.00066E-003,-8.16895E-002,1.00000E+000,37
1109,1297,2.33899E+001,-1.91172E+000,9.23029E-002,1.19172E+001,-1.22870E-001,4.11648E-002,1.19179E+001,1.67162E-002,5.00304E-001,0,1.79289E+002,-3.51894E+000,9.95488E-001,1.43385E+002,-3.28634E+001,9.92524E-001,2.27387E-001,-9.59732E-002,-1.90001E-003,2.27399E-001,-9.59843E-002,-3.36644E-001,2.28317E-001,1.25497E+000,-3.06014E-002,0.00000E+000,1.83217E-002,9.10402E-001,0.00000E+000,4.25317E-003,-6.80277E-002,1.00000E+000,37
1109,1307,2.33808E+001,-1.33064E+000,-1.69687E-004,1.19015E+001,-1.83587E-001,-1.24096E-002,1.19029E+001,1.89441E-002,4.38554E-001,0,1.79279E+002,-4.37614E+000,9.96062E-001,1.43156E+002,-3.36735E+001,9.95532E-001,2.28351E-001,-9.59840E-002,-2.04656E-003,2.28364E-001,-9.59969E-002,-3.61518E-001,2.29327E-001,1.25618E+000,-3.05891E-002,0.00000E+000,1.80580E-002,9.10399E-001,0.00000E+000,3.63679E-003,-6.80340E-002,1.00000E+000,37
1109,1317,2.33716E+001,-7.47379E-001,-6.60158E-002,1.18819E+001,-2.44750E-001,-5.49354E-002,1.18845E+001,2.26247E-002,4.35571E-001,0,1.79161E+002,-5.28558E+000,9.93927E-001,1.42966E+002,-3.44775E+001,9.92900E-001,2.29316E-001,-9.59968E-002,-2.19075E-003,2.29330E-001,-9.60115E-002,-3.85824E-001,2.30340E-001,1.25739E+000,-3.05697E-002,0.00000E+000,1.77935E-002,9.10395E-001,0.00000E+000,3.01883E-003,-6.80439E-002,1.00000E+000,37
749,1357,-6.19896E+000,1.10455E+000,1.76684E-002,5.72998E+000,-7.61681E-001,-2.45060E-002,5.78043E+000,2.00299E-002,5.32893E-001,0,8.89234E+001,-1.26525E+001,9.95972E-001,4.53274E+001,-4.99243E+001,9.95848E-001,2.25560E-001,-9.66572E-002,-1.98168E-003,2.25573E-001,-9.66694E-002,-3.52359E-001,2.26339E-001,1.25301E+000,-7.50307E-003,0.00000E+000,2.01995E-003,9.10896E-001,0.00000E+000,-3.55013E-003,-8.17097E-002,1.00000E+000,37
1109,1327,2.33646E+001,-1.63100E-001,-1.08744E-001,1.18596E+001,-3.07864E-001,-9.40988E-002,1.18640E+001,2.00237E-002,4.22788E-001,0,1.78982E+002,-6.22535E+000,9.92381E-001,1.42844E+002,-3.53213E+001,9.91056E-001,2.30282E-001,-9.60119E-002,-2.33190E-003,2.30298E-001,-9.60285E-002,-4.09445E-001,2.31354E-001,1.25860E+000,-3.05415E-002,0.00000E+000,1.75284E-002,9.10389E-001,0.00000E+000,2.39919E-003,-6.80583E-002,1.00000E+000,37
1109,1337,2.33661E+001,4.35930E-001,-1.28523E-001,1.18406E+001,-3.60590E-001,-1.32098E-001,1.18468E+001,2.04164E-002,4.60739E-001,0,1.78833E+002,-7.01676E+000,9.95913E-001,1.42891E+002,-3.59617E+001,9.95552E-001,2.31250E-001,-9.60296E-002,-2.46993E-003,2.31269E-001,-9.60483E-002,-4.32370E-001,2.32372E-001,1.25982E+000,-3.05034E-002,0.00000E+000,1.72620E-002,9.10380E-001,0.00000E+000,1.77668E-003,-6.80777E-002,1.00000E+000,37
1109,1347,2.33854E+001,1.03223E+000,-9.54708E-002,1.18298E+001,-4.21167E-001,-1.55863E-001,1.18384E+001,1.92014E-002,4.56976E-001,0,1.78738E+002,-7.95152E+000,9.96654E-001,1.43292E+002,-3.67832E+001,9.95235E-001,2.32221E-001,-9.60521E-002,-2.60187E-003,2.32242E-001,-9.60727E-002,-4.54084E-001,2.33393E-001,1.26104E+000,-3.04481E-002,0.00000E+000,1.69946E-002,9.10368E-001,0.00000E+000,1.15156E-003,-6.81060E-002,1.00000E+000,37
739,1337,-7.04247E+000,-8.76051E-002,1.53204E-002,5.57092E+000,-6.54599E-001,5.96704E-002,5.60957E+000,1.76221E-002,5.58503E-001,0,8.62790E+001,-1.11092E+001,9.95374E-001,4.21182E+001,-4.83859E+001,9.95238E-001,2.23367E-001,-9.57082E-002,-1.54523E-003,2.23374E-001,-9.57157E-002,-2.77466E-001,2.24134E-001,1.25026E+000,-7.64671E-003,0.00000E+000,2.84322E-003,9.11740E-001,0.00000E+000,-2.16845E-003,-8.14892E-002,1.00000E+000,37
739,1347,-7.03442E+000,5.02673E-001,-5.35080E-003,5.56302E+000,-7.07387E-001,1.64999E-002,5.60784E+000,1.31837E-002,5.24868E-001,0,8.62863E+001,-1.18494E+001,9.97758E-001,4.23113E+001,-4.92651E+001,9.97727E-001,2.23192E-001,-9.57275E-002,-1.87222E-003,2.23203E-001,-9.57385E-002,-3.36339E-001,2.23953E-001,1.25004E+000,-7.65202E-003,0.00000E+000,2.28647E-003,9.11726E-001,0.00000E+000,-2.74836E-003,-8.15035E-002,1.00000E+000,37
739,1357,-7.01039E+000,1.09883E+000,2.06332E-002,5.56361E+000,-7.60675E-001,-1.96711E-002,5.61541E+000,1.47086E-002,5.15045E-001,0,8.63953E+001,-1.26204E+001,9.96878E-001,4.28680E+001,-5.01447E+001,9.96961E-001,2.23016E-001,-9.57542E-002,-2.20205E-003,2.23031E-001,-9.57695E-002,-3.95771E-001,2.23771E-001,1.24983E+000,-7.65982E-003,0.00000E+000,1.72657E-003,9.11706E-001,0.00000E+000,-3.33156E-003,-8.15244E-002,1.00000E+000,37
739,1327,-7.05413E+000,-6.68569E-001,6.35670E-002,5.57100E+000,-5.95182E-001,1.07930E-001,5.60375E+000,1.65233E-002,5.02176E-001,0,8.61288E+001,-1.02409E+001,9.97497E-001,4.19416E+001,-4.74697E+001,9.97572E-001,2.23541E-001,-9.56930E-002,-1.21940E-003,2.23546E-001,-9.56977E-002,-2.18852E-001,2.24315E-001,1.25048E+000,-7.64279E-003,0.00000E+000,3.39898E-003,9.11750E-001,0.00000E+000,-1.58956E-003,-8.14787E-002,1.00000E+000,37
1119,1297,2.42111E+001,-1.89624E+000,8.00046E-002,1.20818E+001,-1.10517E-001,4.40239E-002,1.20824E+001,1.80026E-002,4.51117E-001,0,1.81606E+002,-3.33829E+000,9.97446E-001,1.46186E+002,-3.25234E+001,9.96341E-001,2.28738E-001,-9.59073E-002,-2.11283E-003,2.28751E-001,-9.59210E-002,-3.72868E-001,2.29742E-001,1.25670E+000,-2.92286E-002,0.00000E+000,1.68993E-002,9.10514E-001,0.00000E+000,4.37890E-003,-6.84055E-002,1.00000E+000,37
1119,1307,2.42039E+001,-1.31585E+000,1.25581E-003,1.20666E+001,-1.73039E-001,-1.47200E-003,1.20678E+001,1.65435E-002,4.18999E-001,0,1.81571E+002,-4.25419E+000,9.97162E-001,1.46008E+002,-3.33569E+001,9.97108E-001,2.29592E-001,-9.59136E-002,-2.19114E-003,2.29607E-001,-9.59284E-002,-3.85663E-001,2.30639E-001,1.25777E+000,-2.92153E-002,0.00000E+000,1.67715E-002,9.10512E-001,0.00000E+000,3.65031E-003,-6.84145E-002,1.00000E+000,37
1119,1317,2.42015E+001,-7.31801E-001,-7.00597E-002,1.20529E+001,-2.33662E-001,-5.26042E-002,1.20553E+001,1.81140E-002,4.15250E-001,0,1.81575E+002,-5.14468E+000,9.95621E-001,1.45914E+002,-3.41347E+001,9.95964E-001,2.30446E-001,-9.59209E-002,-2.26755E-003,2.30462E-001,-9.59366E-002,-3.98057E-001,2.31536E-001,1.25884E+000,-2.91968E-002,0.00000E+000,1.66436E-002,9.10510E-001,0.00000E+000,2.92064E-003,-6.84271E-002,1.00000E+000,37
1119,1327,2.41965E+001,-1.44418E-001,-1.09396E-001,1.20318E+001,-2.94113E-001,-9.14426E-002,1.20357E+001,1.65190E-002,4.05899E-001,0,1.81411E+002,-6.05045E+000,9.95389E-001,1.45828E+002,-3.49340E+001,9.95932E-001,2.31302E-001,-9.59295E-002,-2.34118E-003,2.31319E-001,-9.59463E-002,-4.09895E-001,2.32436E-001,1.25992E+000,-2.91704E-002,0.00000E+000,1.65152E-002,9.10507E-001,0.00000E+000,2.18874E-003,-6.84451E-002,1.00000E+000,37
1119,1337,2.41980E+001,4.46884E-001,-1.24236E-001,1.20119E+001,-3.55496E-001,-1.27073E-001,1.20179E+001,1.44526E-002,4.55059E-001,0,1.81243E+002,-6.98104E+000,9.97632E-001,1.45880E+002,-3.56981E+001,9.97305E-001,2.32161E-001,-9.59397E-002,-2.41196E-003,2.32178E-001,-9.59574E-002,-4.21167E-001,2.33339E-001,1.26100E+000,-2.91355E-002,0.00000E+000,1.63862E-002,9.10503E-001,0.00000E+000,1.45282E-003,-6.84689E-002,1.00000E+000,37
1119,1347,2.42110E+001,1.04072E+000,-1.02873E-001,1.19954E+001,-4.17862E-001,-1.59616E-001,1.20038E+001,2.14293E-002,4.28101E-001,0,1.81100E+002,-7.91945E+000,9.97311E-001,1.46164E+002,-3.65426E+001,9.96484E-001,2.33020E-001,-9.59521E-002,-2.47785E-003,2.33039E-001,-9.59707E-002,-4.31526E-001,2.34243E-001,1.26208E+000,-2.90873E-002,0.00000E+000,1.62568E-002,9.10497E-001,0.00000E+000,7.15180E-004,-6.85016E-002,1.00000E+000,37
739,1317,-7.05014E+000,-1.23629E+000,1.58087E-001,5.58006E+000,-5.28972E-001,1.67224E-001,5.60757E+000,2.02439E-002,5.58955E-001,0,8.60740E+001,-9.32750E+000,9.97250E-001,4.21237E+001,-4.63903E+001,9.96590E-001,2.23713E-001,-9.56844E-002,-8.96481E-004,2.23716E-001,-9.56869E-002,-1.60815E-001,2.24494E-001,1.25069E+000,-7.64109E-003,0.00000E+000,3.95125E-003,9.11755E-001,0.00000E+000,-1.01431E-003,-8.14741E-002,1.00000E+000,37
1129,1297,2.50299E+001,-1.87146E+000,7.65974E-002,1.22423E+001,-8.94212E-002,5.09666E-002,1.22428E+001,1.74549E-002,4.02287E-001,0,1.83835E+002,-3.03408E+000,9.98376E-001,1.48966E+002,-3.20582E+001,9.97660E-001,2.29762E-001,-9.60839E-002,-2.47079E-003,2.29781E-001,-9.61027E-002,-4.34422E-001,2.30803E-001,1.25801E+000,-2.80493E-002,0.00000E+000,1.53933E-002,9.10418E-001,0.00000E+000,3.84450E-003,-6.89641E-002,1.00000E+000,37
1129,1307,2.50229E+001,-1.30425E+000,-1.36038E-002,1.22271E+001,-1.65271E-001,-6.69066E-003,1.22282E+001,2.45016E-002,3.59823E-001,0,1.83856E+002,-4.12685E+000,9.97902E-001,1.48775E+002,-3.30752E+001,9.94961E-001,2.30657E-001,-9.60844E-002,-2.46320E-003,2.30675E-001,-9.61030E-002,-4.31902E-001,2.31742E-001,1.25913E+000,-2.80349E-002,0.00000E+000,1.54283E-002,9.10418E-001,0.00000E+000,3.04582E-003,-6.89743E-002,1.00000E+000,37
1129,1317,2.50262E+001,-7.22153E-001,-7.53425E-002,1.22187E+001,-2.28259E-001,-4.98215E-002,1.22209E+001,1.46523E-002,3.81575E-001,0,1.83908E+002,-5.08510E+000,9.97837E-001,1.48785E+002,-3.38888E+001,9.95887E-001,2.31551E-001,-9.60849E-002,-2.45338E-003,2.31569E-001,-9.61033E-002,-4.29005E-001,2.32682E-001,1.26026E+000,-2.80147E-002,0.00000E+000,1.54634E-002,9.10419E-001,0.00000E+000,2.24564E-003,-6.89887E-002,1.00000E+000,37
729,1347,-7.82498E+000,4.85713E-001,3.99672E-003,5.41536E+000,-7.19685E-001,1.96307E-002,5.46301E+000,1.19253E-002,5.48904E-001,0,8.40515E+001,-1.20351E+001,9.98753E-001,4.01893E+001,-4.96468E+001,9.98331E-001,2.20835E-001,-9.49889E-002,-1.68520E-003,2.20844E-001,-9.49979E-002,-3.05712E-001,2.21561E-001,1.24710E+000,-7.01977E-003,0.00000E+000,2.18350E-003,9.12343E-001,0.00000E+000,-2.69923E-003,-8.07312E-002,1.00000E+000,37
729,1357,-7.81052E+000,1.08999E+000,1.84828E-002,5.40774E+000,-7.63905E-001,-2.19352E-002,5.46147E+000,1.45902E-002,5.35634E-001,0,8.40481E+001,-1.26466E+001,9.97419E-001,4.05741E+001,-5.03811E+001,9.97426E-001,2.20338E-001,-9.50081E-002,-1.94342E-003,2.20350E-001,-9.50201E-002,-3.53086E-001,2.21043E-001,1.24649E+000,-7.04062E-003,0.00000E+000,1.78623E-003,9.12329E-001,0.00000E+000,-3.55056E-003,-8.07600E-002,1.00000E+000,37
1129,1327,2.50280E+001,-1.30604E-001,-1.12481E-001,1.22048E+001,-2.83900E-001,-8.42517E-002,1.22084E+001,1.78493E-002,3.90154E-001,0,1.83833E+002,-5.94578E+000,9.97457E-001,1.48807E+002,-3.46168E+001,9.96949E-001,2.32445E-001,-9.60855E-002,-2.44101E-003,2.32463E-001,-9.61036E-002,-4.25681E-001,2.33622E-001,1.26138E+000,-2.79878E-002,0.00000E+000,1.54986E-002,9.10419E-001,0.00000E+000,1.44403E-003,-6.90078E-002,1.00000E+000,37
729,1337,-7.84474E+000,-9.47664E-002,2.11905E-002,5.41260E+000,-6.55810E-001,6.55743E-002,5.45258E+000,1.57550E-002,5.46375E-001,0,8.38697E+001,-1.11182E+001,9.96788E-001,3.98088E+001,-4.86268E+001,9.96279E-001,2.21329E-001,-9.49736E-002,-1.42980E-003,2.21335E-001,-9.49800E-002,-2.58991E-001,2.22076E-001,1.24772E+000,-7.00372E-003,0.00000E+000,2.57938E-003,9.12353E-001,0.00000E+000,-1.85088E-003,-8.07090E-002,1.00000E+000,37
729,1327,-7.85453E+000,-6.73814E-001,6.93812E-002,5.41355E+000,-5.96426E-001,1.09179E-001,5.44740E+000,1.61892E-002,5.27330E-001,0,8.37472E+001,-1.02427E+001,9.96534E-001,3.96605E+001,-4.76602E+001,9.96338E-001,2.21819E-001,-9.49630E-002,-1.17817E-003,2.21824E-001,-9.49673E-002,-2.13090E-001,2.22587E-001,1.24833E+000,-6.99356E-003,0.00000E+000,2.97303E-003,9.12360E-001,0.00000E+000,-1.00731E-003,-8.06950E-002,1.00000E+000,37
1129,1337,2.50420E+001,4.61580E-001,-1.12557E-001,1.21914E+001,-3.49344E-001,-1.28652E-001,1.21971E+001,2.10101E-002,4.65682E-001,0,1.83790E+002,-6.91438E+000,9.96560E-001,1.49073E+002,-3.53835E+001,9.96666E-001,2.33348E-001,-9.60864E-002,-2.42093E-003,2.33366E-001,-9.61042E-002,-4.21021E-001,2.34573E-001,1.26252E+000,-2.79410E-002,0.00000E+000,1.55341E-002,9.10421E-001,0.00000E+000,6.32941E-004,-6.90412E-002,1.00000E+000,37
729,1317,-7.85556E+000,-1.24546E+000,1.50738E-001,5.41896E+000,-5.32619E-001,1.62900E-001,5.44751E+000,1.79692E-002,5.53904E-001,0,8.36570E+001,-9.34964E+000,9.96646E-001,3.97323E+001,-4.66270E+001,9.96047E-001,2.22308E-001,-9.49556E-002,-9.28709E-004,2.22311E-001,-9.49583E-002,-1.67717E-001,2.23096E-001,1.24894E+000,-6.98743E-003,0.00000E+000,3.36583E-003,9.12364E-001,0.00000E+000,-1.65562E-004,-8.06865E-002,1.00000E+000,37
1129,1347,2.50459E+001,1.06265E+000,-1.02112E-001,1.21685E+001,-4.03183E-001,-1.60511E-001,1.21762E+001,2.41579E-002,4.79271E-001,0,1.83550E+002,-7.74121E+000,9.95833E-001,1.49197E+002,-3.60709E+001,9.95308E-001,2.34247E-001,-9.60872E-002,-2.40133E-003,2.34264E-001,-9.61047E-002,-4.16478E-001,2.35519E-001,1.26366E+000,-2.78952E-002,0.00000E+000,1.55696E-002,9.10422E-001,0.00000E+000,-1.74925E-004,-6.90738E-002,1.00000E+000,37
719,1347,-8.63200E+000,4.88049E-001,5.98069E-003,5.25231E+000,-7.11210E-001,2.31098E-002,5.30029E+000,1.84718E-002,5.44239E-001,0,8.15696E+001,-1.18869E+001,9.97204E-001,3.78062E+001,-4.97323E+001,9.96949E-001,2.18955E-001,-9.45555E-002,-1.53866E-003,2.18962E-001,-9.45630E-002,-2.81189E-001,2.19639E-001,1.24476E+000,-6.06369E-003,0.00000E+000,1.74852E-003,9.12647E-001,0.00000E+000,-2.44731E-003,-7.94660E-002,1.00000E+000,37
719,1357,-8.62184E+000,1.07911E+000,1.84906E-002,5.24072E+000,-7.68939E-001,-1.95954E-002,5.29686E+000,1.64778E-002,5.40402E-001,0,8.15120E+001,-1.27002E+001,9.97309E-001,3.81192E+001,-5.06636E+001,9.97156E-001,2.18156E-001,-9.45666E-002,-1.70253E-003,2.18166E-001,-9.45759E-002,-3.11918E-001,2.18808E-001,1.24378E+000,-6.09662E-003,0.00000E+000,1.55055E-003,9.12640E-001,0.00000E+000,-3.51892E-003,-7.95017E-002,1.00000E+000,37
719,1337,-8.64932E+000,-9.58093E-002,2.32115E-002,5.25102E+000,-6.51925E-001,6.48332E-002,5.29173E+000,2.01909E-002,5.62795E-001,0,8.14247E+001,-1.10376E+001,9.94986E-001,3.74611E+001,-4.87515E+001,9.93933E-001,2.19747E-001,-9.45469E-002,-1.37910E-003,2.19753E-001,-9.45530E-002,-2.51403E-001,2.20464E-001,1.24575E+000,-6.03939E-003,0.00000E+000,1.94541E-003,9.12651E-001,0.00000E+000,-1.38157E-003,-7.94397E-002,1.00000E+000,37
719,1327,-8.65455E+000,-6.74037E-001,7.58351E-002,5.25610E+000,-5.92264E-001,1.11216E-001,5.29054E+000,1.47903E-002,5.63684E-001,0,8.13583E+001,-1.01736E+001,9.94751E-001,3.73937E+001,-4.77692E+001,9.94273E-001,2.20533E-001,-9.45410E-002,-1.22374E-003,2.20538E-001,-9.45457E-002,-2.22530E-001,2.21284E-001,1.24673E+000,-6.02371E-003,0.00000E+000,2.14134E-003,9.12655E-001,0.00000E+000,-3.21042E-004,-7.94227E-002,1.00000E+000,37
719,1317,-8.65796E+000,-1.24841E+000,1.62198E-001,5.25801E+000,-5.31726E-001,1.64169E-001,5.28738E+000,1.95333E-002,5.46954E-001,0,8.12174E+001,-9.31547E+000,9.94319E-001,3.74421E+001,-4.68085E+001,9.93777E-001,2.21316E-001,-9.45373E-002,-1.07166E-003,2.21320E-001,-9.45410E-002,-1.94396E-001,2.22101E-001,1.24771E+000,-6.01559E-003,0.00000E+000,2.33693E-003,9.12656E-001,0.00000E+000,7.37641E-004,-7.94139E-002,1.00000E+000,37
1139,1297,2.58747E+001,-1.86287E+000,8.01977E-002,1.24272E+001,-8.41935E-002,5.90773E-002,1.24276E+001,1.11044E-002,3.49081E-001,0,1.86421E+002,-2.99467E+000,9.99020E-001,1.52168E+002,-3.18588E+001,9.98557E-001,2.30579E-001,-9.63544E-002,-2.73432E-003,2.30602E-001,-9.63773E-002,-4.79152E-001,2.31635E-001,1.25906E+000,-2.67892E-002,0.00000E+000,1.40444E-002,9.10233E-001,0.00000E+000,2.75053E-003,-6.95515E-002,1.00000E+000,37
1139,1307,2.58625E+001,-1.29806E+000,-2.67101E-002,1.24077E+001,-1.62483E-001,-1.05470E-002,1.24088E+001,1.70376E-002,3.05077E-001,0,1.86433E+002,-4.09133E+000,9.98214E-001,1.51871E+002,-3.28768E+001,9.97121E-001,2.31606E-001,-9.63517E-002,-2.67500E-003,2.31628E-001,-9.63735E-002,-4.67294E-001,2.32713E-001,1.26035E+000,-2.67749E-002,0.00000E+000,1.41712E-002,9.10234E-001,0.00000E+000,1.99134E-003,-6.95600E-002,1.00000E+000,37
1139,1337,2.58701E+001,4.86613E-001,-1.15426E-001,1.23584E+001,-3.30240E-001,-1.29511E-001,1.23635E+001,2.08177E-002,4.99970E-001,0,1.86144E+002,-6.66738E+000,9.95511E-001,1.52003E+002,-3.48665E+001,9.94682E-001,2.34701E-001,-9.63387E-002,-2.46936E-003,2.34719E-001,-9.63571E-002,-4.27360E-001,2.35969E-001,1.26426E+000,-2.66624E-002,0.00000E+000,1.45545E-002,9.10245E-001,0.00000E+000,-3.03723E-004,-6.96261E-002,1.00000E+000,37
1139,1347,2.58907E+001,1.08001E+000,-8.81899E-002,1.23478E+001,-3.94909E-001,-1.61059E-001,1.23551E+001,2.10520E-002,5.07281E-001,0,1.86084E+002,-7.65251E+000,9.95128E-001,1.52408E+002,-3.57100E+001,9.94236E-001,2.35736E-001,-9.63327E-002,-2.39146E-003,2.35753E-001,-9.63499E-002,-4.12600E-001,2.37060E-001,1.26557E+000,-2.66012E-002,0.00000E+000,1.46832E-002,9.10251E-001,0.00000E+000,-1.07396E-003,-6.96621E-002,1.00000E+000,37
1139,1327,2.58662E+001,-1.16231E-001,-1.15966E-001,1.23818E+001,-2.76991E-001,-8.65713E-002,1.23852E+001,1.98557E-002,4.35061E-001,0,1.86347E+002,-5.86304E+000,9.96644E-001,1.51895E+002,-3.42590E+001,9.94870E-001,2.33666E-001,-9.63441E-002,-2.54440E-003,2.33686E-001,-9.63638E-002,-4.41720E-001,2.34879E-001,1.26295E+000,-2.67162E-002,0.00000E+000,1.44261E-002,9.10240E-001,0.00000E+000,4.65233E-004,-6.95945E-002,1.00000E+000,37
1139,1317,2.58530E+001,-7.12952E-001,-8.89476E-002,1.23875E+001,-2.22781E-001,-4.97230E-002,1.23896E+001,1.72738E-002,3.59368E-001,0,1.86295E+002,-5.02079E+000,9.98535E-001,1.51681E+002,-3.36260E+001,9.96793E-001,2.32634E-001,-9.63485E-002,-2.61293E-003,2.32655E-001,-9.63692E-002,-4.55031E-001,2.33793E-001,1.26165E+000,-2.67535E-002,0.00000E+000,1.42983E-002,9.10236E-001,0.00000E+000,1.23041E-003,-6.95725E-002,1.00000E+000,37
709,1347,-9.44589E+000,4.88952E-001,3.04325E-003,5.08203E+000,-7.04082E-001,2.20276E-002,5.13062E+000,1.75129E-002,5.44072E-001,0,7.89865E+001,-1.17515E+001,9.96542E-001,3.53105E+001,-4.98280E+001,9.96343E-001,2.17178E-001,-9.31540E-002,-1.71729E-003,2.17188E-001,-9.31635E-002,-3.17045E-001,2.17917E-001,1.24256E+000,-5.21355E-003,0.00000E+000,7.87943E-004,9.13860E-001,0.00000E+000,-2.19619E-003,-7.85162E-002,1.00000E+000,37
709,1357,-9.42912E+000,1.08129E+000,1.32378E-002,5.07783E+000,-7.58971E-001,-1.99552E-002,5.13427E+000,1.69789E-002,5.24547E-001,0,7.90401E+001,-1.25287E+001,9.97261E-001,3.57213E+001,-5.07433E+001,9.97283E-001,2.16243E-001,-9.31721E-002,-1.98967E-003,2.16256E-001,-9.31849E-002,-3.68416E-001,2.16943E-001,1.24140E+000,-5.25072E-003,0.00000E+000,3.93988E-004,9.13848E-001,0.00000E+000,-3.30626E-003,-7.85519E-002,1.00000E+000,37
709,1337,-9.44613E+000,-1.04262E-001,3.21404E-002,5.09620E+000,-6.55482E-001,6.76129E-002,5.13862E+000,1.62647E-002,5.38069E-001,0,7.90716E+001,-1.10684E+001,9.96208E-001,3.52551E+001,-4.90250E+001,9.95429E-001,2.18107E-001,-9.31410E-002,-1.45080E-003,2.18114E-001,-9.31478E-002,-2.67061E-001,2.18886E-001,1.24371E+000,-5.18798E-003,0.00000E+000,1.18009E-003,9.13869E-001,0.00000E+000,-1.09122E-003,-7.84917E-002,1.00000E+000,37
709,1317,-9.45345E+000,-1.24930E+000,1.83836E-001,5.10276E+000,-5.29728E-001,1.71104E-001,5.13303E+000,2.06548E-002,5.44972E-001,0,7.88444E+001,-9.27517E+000,9.96291E-001,3.52909E+001,-4.69768E+001,9.96386E-001,2.19948E-001,-9.31266E-002,-9.31382E-004,2.19951E-001,-9.31294E-002,-1.70450E-001,2.20809E-001,1.24600E+000,-5.16322E-003,0.00000E+000,1.95994E-003,9.13877E-001,0.00000E+000,1.10622E-003,-7.84680E-002,1.00000E+000,37
709,1327,-9.44699E+000,-6.77319E-001,9.28363E-002,5.10348E+000,-5.92259E-001,1.10772E-001,5.13892E+000,2.23837E-002,5.64110E-001,0,7.90467E+001,-1.01586E+001,9.96533E-001,3.52764E+001,-4.79651E+001,9.95962E-001,2.19029E-001,-9.31329E-002,-1.19005E-003,2.19034E-001,-9.31374E-002,-2.18423E-001,2.19849E-001,1.24486E+000,-5.17349E-003,0.00000E+000,1.57028E-003,9.13874E-001,0.00000E+000,8.23693E-006,-7.84778E-002,1.00000E+000,37
1149,1297,2.67031E+001,-1.85697E+000,6.34284E-002,1.25969E+001,-8.30330E-002,5.47667E-002,1.25973E+001,2.74873E-002,3.87467E-001,0,1.88834E+002,-2.99660E+000,9.97394E-001,1.55088E+002,-3.16141E+001,9.95048E-001,2.31219E-001,-9.64958E-002,-2.95680E-003,2.31246E-001,-9.65224E-002,-5.16895E-001,2.32295E-001,1.25989E+000,-2.55472E-002,0.00000E+000,1.28166E-002,9.10171E-001,0.00000E+000,1.27595E-003,-7.02711E-002,1.00000E+000,37
1149,1307,2.67090E+001,-1.27024E+000,-1.83267E-002,1.25944E+001,-1.39401E-001,5.28381E-003,1.25951E+001,1.78264E-002,3.84493E-001,0,1.89004E+002,-3.83786E+000,9.97984E-001,1.55111E+002,-3.23212E+001,9.96636E-001,2.32396E-001,-9.64931E-002,-2.89684E-003,2.32421E-001,-9.65186E-002,-5.04607E-001,2.33531E-001,1.26137E+000,-2.55277E-002,0.00000E+000,1.29335E-002,9.10173E-001,0.00000E+000,6.11765E-004,-7.02798E-002,1.00000E+000,37
1149,1317,2.67028E+001,-6.87512E-001,-8.05917E-002,1.25751E+001,-2.03809E-001,-4.25620E-002,1.25769E+001,1.67411E-002,3.96241E-001,0,1.88916E+002,-4.78780E+000,9.97866E-001,1.54972E+002,-3.31266E+001,9.95965E-001,2.33576E-001,-9.64898E-002,-2.83278E-003,2.33601E-001,-9.65141E-002,-4.91690E-001,2.34772E-001,1.26286E+000,-2.54982E-002,0.00000E+000,1.30509E-002,9.10175E-001,0.00000E+000,-5.55215E-005,-7.02931E-002,1.00000E+000,37
1149,1327,2.66966E+001,-9.32534E-002,-1.31082E-001,1.25515E+001,-2.57590E-001,-9.64032E-002,1.25545E+001,1.83403E-002,3.90730E-001,0,1.88774E+002,-5.57864E+000,9.97235E-001,1.54849E+002,-3.37879E+001,9.95140E-001,2.34755E-001,-9.64860E-002,-2.76499E-003,2.34778E-001,-9.65091E-002,-4.78224E-001,2.36013E-001,1.26435E+000,-2.54587E-002,0.00000E+000,1.31683E-002,9.10178E-001,0.00000E+000,-7.22697E-004,-7.03108E-002,1.00000E+000,37
1149,1337,2.67083E+001,4.95904E-001,-1.23150E-001,1.25374E+001,-3.25872E-001,-1.25247E-001,1.25422E+001,2.71484E-002,4.81175E-001,0,1.88662E+002,-6.62645E+000,9.96697E-001,1.55087E+002,-3.46087E+001,9.96058E-001,2.35945E-001,-9.64810E-002,-2.68930E-003,2.35966E-001,-9.65028E-002,-4.63478E-001,2.37266E-001,1.26586E+000,-2.54001E-002,0.00000E+000,1.32871E-002,9.10183E-001,0.00000E+000,-1.39759E-003,-7.03370E-002,1.00000E+000,37
1149,1347,2.67375E+001,1.09104E+000,-8.46025E-002,1.25314E+001,-3.91945E-001,-1.60586E-001,1.25386E+001,2.44951E-002,4.87052E-001,0,1.88682E+002,-7.61494E+000,9.97142E-001,1.55641E+002,-3.54485E+001,9.96489E-001,2.37135E-001,-9.64749E-002,-2.60559E-003,2.37156E-001,-9.64952E-002,-4.47460E-001,2.38523E-001,1.26737E+000,-2.53207E-002,0.00000E+000,1.34061E-002,9.10189E-001,0.00000E+000,-2.07417E-003,-7.03726E-002,1.00000E+000,37
699,1347,-1.02319E+001,4.82049E-001,1.59776E-002,4.93780E+000,-7.07220E-001,2.90777E-002,4.98828E+000,1.83425E-002,5.74302E-001,0,7.67804E+001,-1.17931E+001,9.97477E-001,3.32880E+001,-5.00597E+001,9.97349E-001,2.15256E-001,-9.19221E-002,-1.50846E-003,2.15263E-001,-9.19295E-002,-2.81353E-001,2.16025E-001,1.24018E+000,-3.58016E-003,0.00000E+000,-3.48917E-005,9.14898E-001,0.00000E+000,-1.92235E-003,-7.72709E-002,1.00000E+000,37
699,1357,-1.02189E+001,1.06654E+000,2.62002E-002,4.93031E+000,-7.69480E-001,-1.11408E-002,4.99001E+000,1.82841E-002,5.65583E-001,0,7.67796E+001,-1.26942E+001,9.97258E-001,3.36408E+001,-5.10931E+001,9.97013E-001,2.14284E-001,-9.19375E-002,-1.75550E-003,2.14294E-001,-9.19475E-002,-3.28449E-001,2.15011E-001,1.23898E+000,-3.61778E-003,0.00000E+000,-3.94315E-004,9.14887E-001,0.00000E+000,-2.88752E-003,-7.73011E-002,1.00000E+000,37
699,1337,-1.02465E+001,-1.16340E-001,4.01521E-002,4.93767E+000,-6.62635E-001,7.07629E-002,4.98244E+000,1.33927E-002,5.52477E-001,0,7.66580E+001,-1.11735E+001,9.97463E-001,3.29974E+001,-4.93333E+001,9.97445E-001,2.16224E-001,-9.19108E-002,-1.26641E-003,2.16229E-001,-9.19160E-002,-2.35477E-001,2.17036E-001,1.24138E+000,-3.55350E-003,0.00000E+000,3.23681E-004,9.14906E-001,0.00000E+000,-9.59460E-004,-7.72494E-002,1.00000E+000,37
699,1317,-1.02567E+001,-1.25094E+000,1.98490E-001,4.93898E+000,-5.29524E-001,1.68847E-001,4.97015E+000,1.89542E-002,6.02934E-001,0,7.63636E+001,-9.26065E+000,9.97485E-001,3.30091E+001,-4.71130E+001,9.97424E-001,2.18136E-001,-9.19007E-002,-7.99433E-004,2.18138E-001,-9.19027E-002,-1.47737E-001,2.19037E-001,1.24375E+000,-3.53216E-003,0.00000E+000,1.03427E-003,9.14912E-001,0.00000E+000,9.48723E-004,-7.72323E-002,1.00000E+000,37
699,1327,-1.02515E+001,-6.79247E-001,1.03772E-001,4.94016E+000,-5.92354E-001,1.13922E-001,4.97685E+000,1.48669E-002,6.70414E-001,0,7.65573E+001,-1.01613E+001,9.97535E-001,3.29647E+001,-4.80762E+001,9.96333E-001,2.17179E-001,-9.19046E-002,-1.03213E-003,2.17182E-001,-9.19080E-002,-1.91327E-001,2.18035E-001,1.24256E+000,-3.53970E-003,0.00000E+000,6.78237E-004,9.14910E-001,0.00000E+000,-7.35787E-006,-7.72384E-002,1.00000E+000,37
1159,1307,2.75309E+001,-1.26399E+000,-4.70044E-002,1.27571E+001,-1.37249E-001,-1.10657E-002,1.27579E+001,2.19920E-002,4.02173E-001,0,1.91359E+002,-3.80237E+000,9.94134E-001,1.57920E+002,-3.20547E+001,9.92207E-001,2.33266E-001,-9.69027E-002,-2.98783E-003,2.33293E-001,-9.69298E-002,-5.18436E-001,2.34401E-001,1.26249E+000,-2.43863E-002,0.00000E+000,1.20231E-002,9.09846E-001,0.00000E+000,-9.36238E-004,-7.07840E-002,1.00000E+000,37
1159,1317,2.75364E+001,-6.68703E-001,-9.53279E-002,1.27495E+001,-1.89929E-001,-4.50666E-002,1.27510E+001,2.29524E-002,4.27666E-001,0,1.91381E+002,-4.60216E+000,9.94816E-001,1.57982E+002,-3.26849E+001,9.94785E-001,2.34550E-001,-9.69053E-002,-2.99981E-003,2.34577E-001,-9.69325E-002,-5.18495E-001,2.35751E-001,1.26411E+000,-2.43538E-002,0.00000E+000,1.19954E-002,9.09846E-001,0.00000E+000,-1.57495E-003,-7.07968E-002,1.00000E+000,37
1159,1327,2.75472E+001,-8.03495E-002,-1.19862E-001,1.27404E+001,-2.52331E-001,-8.23059E-002,1.27432E+001,1.58860E-002,4.10786E-001,0,1.91388E+002,-5.54081E+000,9.97429E-001,1.58160E+002,-3.34966E+001,9.96664E-001,2.35834E-001,-9.69087E-002,-3.00550E-003,2.35861E-001,-9.69358E-002,-5.17469E-001,2.37103E-001,1.26574E+000,-2.43046E-002,0.00000E+000,1.19675E-002,9.09845E-001,0.00000E+000,-2.21493E-003,-7.08161E-002,1.00000E+000,37
1159,1297,2.75315E+001,-1.84456E+000,3.35134E-002,1.27670E+001,-7.47709E-002,4.01995E-002,1.27673E+001,2.04995E-002,4.24377E-001,0,1.91287E+002,-2.87061E+000,9.95795E-001,1.57995E+002,-3.12410E+001,9.91928E-001,2.31988E-001,-9.69005E-002,-2.97242E-003,2.32015E-001,-9.69274E-002,-5.17771E-001,2.33058E-001,1.26088E+000,-2.44095E-002,0.00000E+000,1.20507E-002,9.09847E-001,0.00000E+000,-3.01549E-004,-7.07748E-002,1.00000E+000,37
1159,1337,2.75705E+001,5.06767E-001,-1.10784E-001,1.27342E+001,-3.23143E-001,-1.23896E-001,1.27389E+001,2.13875E-002,4.44740E-001,0,1.91442E+002,-6.60083E+000,9.98747E-001,1.58579E+002,-3.43771E+001,9.98543E-001,2.37125E-001,-9.69130E-002,-3.00239E-003,2.37152E-001,-9.69400E-002,-5.14928E-001,2.38465E-001,1.26738E+000,-2.42319E-002,0.00000E+000,1.19395E-002,9.09844E-001,0.00000E+000,-2.85987E-003,-7.08447E-002,1.00000E+000,37
1159,1347,2.75866E+001,1.10429E+000,-8.68180E-002,1.27176E+001,-3.83981E-001,-1.63007E-001,1.27244E+001,2.20623E-002,4.36212E-001,0,1.91322E+002,-7.51611E+000,9.97589E-001,1.58904E+002,-3.51547E+001,9.97276E-001,2.38414E-001,-9.69177E-002,-2.99650E-003,2.38441E-001,-9.69445E-002,-5.11935E-001,2.39824E-001,1.26902E+000,-2.41517E-002,0.00000E+000,1.19115E-002,9.09842E-001,0.00000E+000,-3.50456E-003,-7.08763E-002,1.00000E+000,37
689,1347,-1.10270E+001,4.69233E-001,1.73133E-002,4.78360E+000,-7.16385E-001,2.20291E-002,4.83700E+000,1.48407E-002,5.94435E-001,0,7.44597E+001,-1.18948E+001,9.98392E-001,3.10999E+001,-5.03635E+001,9.97540E-001,2.13213E-001,-9.08574E-002,-1.47806E-003,2.13220E-001,-9.08645E-002,-2.78501E-001,2.13993E-001,1.23765E+000,-2.20883E-003,0.00000E+000,-9.80323E-004,9.15825E-001,0.00000E+000,-1.94866E-003,-7.65991E-002,1.00000E+000,37
689,1357,-1.10182E+001,1.05200E+000,1.95721E-002,4.77427E+000,-7.77869E-001,-1.43933E-002,4.83725E+000,1.67697E-002,5.62930E-001,0,7.44204E+001,-1.27887E+001,9.97888E-001,3.13693E+001,-5.14196E+001,9.97757E-001,2.12013E-001,-9.08730E-002,-1.76737E-003,2.12023E-001,-9.08833E-002,-3.34311E-001,2.12741E-001,1.23617E+000,-2.25004E-003,0.00000E+000,-1.42282E-003,9.15812E-001,0.00000E+000,-2.82734E-003,-7.66236E-002,1.00000E+000,37
689,1337,-1.10340E+001,-1.06487E-001,4.46943E-002,4.79192E+000,-6.47712E-001,7.22265E-002,4.83603E+000,1.63402E-002,5.58141E-001,0,7.44377E+001,-1.09259E+001,9.98312E-001,3.09382E+001,-4.92995E+001,9.98426E-001,2.14412E-001,-9.08440E-002,-1.19086E-003,2.14417E-001,-9.08486E-002,-2.23517E-001,2.15248E-001,1.23913E+000,-2.17395E-003,0.00000E+000,-5.36964E-004,9.15835E-001,0.00000E+000,-1.06826E-003,-7.65785E-002,1.00000E+000,37
1169,1327,2.83805E+001,-6.96305E-002,-1.25002E-001,1.29120E+001,-2.47245E-001,-8.24295E-002,1.29146E+001,1.52277E-002,4.29239E-001,0,1.93800E+002,-5.49785E+000,9.98166E-001,1.61183E+002,-3.32066E+001,9.97706E-001,2.36559E-001,-9.72385E-002,-2.96589E-003,2.36585E-001,-9.72649E-002,-5.09036E-001,2.37828E-001,1.26669E+000,-2.30754E-002,0.00000E+000,1.12478E-002,9.09572E-001,0.00000E+000,-3.80363E-003,-7.10799E-002,1.00000E+000,37
1169,1337,2.84080E+001,5.27422E-001,-1.07606E-001,1.29079E+001,-3.08444E-001,-1.23132E-001,1.29122E+001,1.91731E-002,4.37608E-001,0,1.93875E+002,-6.41647E+000,9.98600E-001,1.61676E+002,-3.39619E+001,9.98128E-001,2.37831E-001,-9.72475E-002,-2.99680E-003,2.37858E-001,-9.72743E-002,-5.12375E-001,2.39168E-001,1.26830E+000,-2.29988E-002,0.00000E+000,1.11553E-002,9.09568E-001,0.00000E+000,-4.44138E-003,-7.11101E-002,1.00000E+000,37
1169,1347,2.84364E+001,1.12073E+000,-7.36010E-002,1.29015E+001,-3.75149E-001,-1.59691E-001,1.29080E+001,1.90045E-002,4.22143E-001,0,1.93896E+002,-7.42130E+000,9.97209E-001,1.62204E+002,-3.48277E+001,9.97266E-001,2.39103E-001,-9.72572E-002,-3.02500E-003,2.39130E-001,-9.72844E-002,-5.15226E-001,2.40510E-001,1.26992E+000,-2.29145E-002,0.00000E+000,1.10626E-002,9.09563E-001,0.00000E+000,-5.08018E-003,-7.11434E-002,1.00000E+000,37
689,1327,-1.10572E+001,-6.88594E-001,9.29700E-002,4.77839E+000,-5.93745E-001,1.12304E-001,4.81645E+000,1.78653E-002,6.32175E-001,0,7.41058E+001,-1.01587E+001,9.96873E-001,3.05823E+001,-4.83274E+001,9.96308E-001,2.15599E-001,-9.08353E-002,-9.11503E-004,2.15601E-001,-9.08380E-002,-1.70427E-001,2.16489E-001,1.24060E+000,-2.15197E-003,0.00000E+000,-9.78338E-005,9.15842E-001,0.00000E+000,-1.96252E-004,-7.65654E-002,1.00000E+000,37
1169,1317,2.83736E+001,-6.58463E-001,-9.07309E-002,1.29248E+001,-1.82934E-001,-3.72504E-002,1.29261E+001,2.84809E-002,3.50081E-001,0,1.93813E+002,-4.53657E+000,9.96667E-001,1.61080E+002,-3.24727E+001,9.96731E-001,2.35290E-001,-9.72321E-002,-2.92420E-003,2.35316E-001,-9.72578E-002,-5.03807E-001,2.36492E-001,1.26508E+000,-2.31233E-002,0.00000E+000,1.13400E-002,9.09575E-001,0.00000E+000,-3.16838E-003,-7.10610E-002,1.00000E+000,37
1169,1307,2.83667E+001,-1.25215E+000,-4.54846E-002,1.29325E+001,-1.31214E-001,-4.65047E-004,1.29332E+001,2.22778E-002,3.91350E-001,0,1.93782E+002,-3.73387E+000,9.96765E-001,1.60992E+002,-3.17794E+001,9.95419E-001,2.34032E-001,-9.72267E-002,-2.87848E-003,2.34057E-001,-9.72517E-002,-4.97824E-001,2.35168E-001,1.26348E+000,-2.31590E-002,0.00000E+000,1.14312E-002,9.09577E-001,0.00000E+000,-2.53964E-003,-7.10469E-002,1.00000E+000,37
1169,1297,2.83691E+001,-1.83283E+000,4.06787E-002,1.29433E+001,-6.77958E-002,5.26973E-002,1.29436E+001,1.72912E-002,4.44084E-001,0,1.93713E+002,-2.82661E+000,9.97349E-001,1.61103E+002,-3.09656E+001,9.94530E-001,2.32771E-001,-9.72226E-002,-2.82706E-003,2.32795E-001,-9.72468E-002,-4.90805E-001,2.33843E-001,1.26189E+000,-2.31799E-002,0.00000E+000,1.15224E-002,9.09578E-001,0.00000E+000,-1.91090E-003,-7.10387E-002,1.00000E+000,37
689,1317,-1.10628E+001,-1.25997E+000,1.86242E-001,4.77662E+000,-5.32412E-001,1.65085E-001,4.80904E+000,2.03303E-002,5.81494E-001,0,7.39112E+001,-9.26257E+000,9.96540E-001,3.06180E+001,-4.73463E+001,9.94534E-001,2.16781E-001,-9.08314E-002,-6.37907E-004,2.16782E-001,-9.08327E-002,-1.18816E-001,2.17728E-001,1.24207E+000,-2.14315E-003,0.00000E+000,3.40548E-004,9.15844E-001,0.00000E+000,6.74266E-004,-7.65602E-002,1.00000E+000,37
679,1347,-1.18322E+001,4.63385E-001,1.42990E-002,4.62082E+000,-7.13802E-001,2.05421E-002,4.67567E+000,2.55817E-002,5.99423E-001,0,7.19839E+001,-1.18692E+001,9.96763E-001,2.87533E+001,-5.05599E+001,9.96044E-001,2.11081E-001,-8.98808E-002,-1.50197E-003,2.11089E-001,-8.98883E-002,-2.85928E-001,2.11862E-001,1.23502E+000,-7.23671E-004,0.00000E+000,-2.11617E-003,9.16669E-001,0.00000E+000,-1.98248E-003,-7.58961E-002,1.00000E+000,37
679,1357,-1.18032E+001,1.04705E+000,9.55317E-003,4.63329E+000,-7.75498E-001,-1.46863E-002,4.69776E+000,1.23319E-002,6.02201E-001,0,7.22801E+001,-1.27496E+001,9.98065E-001,2.93153E+001,-5.15686E+001,9.97794E-001,2.09531E-001,-8.99026E-002,-1.95891E-003,2.09543E-001,-8.99154E-002,-3.74812E-001,2.10244E-001,1.23311E+000,-7.72119E-004,0.00000E+000,-2.86924E-003,9.16650E-001,0.00000E+000,-2.81571E-003,-7.59172E-002,1.00000E+000,37
1179,1297,2.91956E+001,-1.82746E+000,1.34562E-002,1.31127E+001,-6.48225E-002,4.89306E-002,1.31130E+001,2.76605E-002,4.98870E-001,0,1.96109E+002,-2.82335E+000,9.98341E-001,1.63995E+002,-3.06995E+001,9.96055E-001,2.33276E-001,-9.74033E-002,-2.88752E-003,2.33302E-001,-9.74285E-002,-5.00261E-001,2.34355E-001,1.26254E+000,-2.23954E-002,0.00000E+000,1.09485E-002,9.09464E-001,0.00000E+000,-3.61318E-003,-7.16836E-002,1.00000E+000,37
1179,1307,2.92042E+001,-1.24398E+000,-5.60759E-002,1.31103E+001,-1.24749E-001,2.51235E-003,1.31109E+001,1.38265E-002,3.39208E-001,0,1.96270E+002,-3.67589E+000,9.98607E-001,1.64078E+002,-3.15555E+001,9.97102E-001,2.34423E-001,-9.74028E-002,-2.86171E-003,2.34447E-001,-9.74274E-002,-4.94077E-001,2.35559E-001,1.26399E+000,-2.23709E-002,0.00000E+000,1.09912E-002,9.09465E-001,0.00000E+000,-4.10105E-003,-7.16919E-002,1.00000E+000,37
1179,1317,2.92069E+001,-6.49538E-001,-1.38850E-001,1.31031E+001,-1.74787E-001,-5.31164E-002,1.31043E+001,3.07027E-002,3.34047E-001,0,1.96394E+002,-4.40782E+000,9.98525E-001,1.64053E+002,-3.21360E+001,9.98011E-001,2.35570E-001,-9.74023E-002,-2.83675E-003,2.35594E-001,-9.74264E-002,-4.88084E-001,2.36765E-001,1.26545E+000,-2.23484E-002,0.00000E+000,1.10340E-002,9.09465E-001,0.00000E+000,-4.58988E-003,-7.16994E-002,1.00000E+000,37
1179,1337,2.92490E+001,5.34033E-001,-1.21807E-001,1.30853E+001,-3.07150E-001,-1.37357E-001,1.30896E+001,1.57693E-002,4.39397E-001,0,1.96426E+002,-6.41408E+000,9.98197E-001,1.64808E+002,-3.37215E+001,9.96878E-001,2.37891E-001,-9.74003E-002,-2.75281E-003,2.37914E-001,-9.74229E-002,-4.70368E-001,2.39210E-001,1.26840E+000,-2.22160E-002,0.00000E+000,1.11209E-002,9.09469E-001,0.00000E+000,-5.58174E-003,-7.17440E-002,1.00000E+000,37
1179,1347,2.92922E+001,1.13445E+000,-8.25205E-002,1.30911E+001,-3.69609E-001,-1.77979E-001,1.30975E+001,1.56877E-002,4.29778E-001,0,1.96639E+002,-7.33133E+000,9.98303E-001,1.65574E+002,-3.44823E+001,9.97854E-001,2.39055E-001,-9.73991E-002,-2.70460E-003,2.39077E-001,-9.74209E-002,-4.60534E-001,2.40437E-001,1.26988E+000,-2.21334E-002,0.00000E+000,1.11646E-002,9.09472E-001,0.00000E+000,-6.08021E-003,-7.17718E-002,1.00000E+000,37
679,1327,-1.18543E+001,-6.96645E-001,9.88860E-002,4.62275E+000,-5.96044E-001,1.16243E-001,4.66246E+000,2.17196E-002,5.86650E-001,0,7.17277E+001,-1.01704E+001,9.95945E-001,2.83816E+001,-4.85971E+001,9.94727E-001,2.14150E-001,-8.98486E-002,-6.05564E-004,2.14151E-001,-8.98498E-002,-1.14132E-001,2.15073E-001,1.23881E+000,-6.53140E-004,0.00000E+000,-6.20952E-004,9.16697E-001,0.00000E+000,-3.28109E-004,-7.58653E-002,1.00000E+000,37
679,1337,-1.18400E+001,-1.13350E-001,4.39982E-002,4.62835E+000,-6.48814E-001,7.44150E-002,4.67419E+000,2.66239E-002,6.10399E-001,0,7.19414E+001,-1.09490E+001,9.96815E-001,2.85837E+001,-4.94911E+001,9.96133E-001,2.12621E-001,-8.98603E-002,-1.04878E-003,2.12625E-001,-8.98639E-002,-1.98656E-001,2.13471E-001,1.23692E+000,-6.78645E-004,0.00000E+000,-1.36683E-003,9.16686E-001,0.00000E+000,-1.15338E-003,-7.58764E-002,1.00000E+000,37
1179,1327,2.92186E+001,-6.70009E-002,-1.35483E-001,1.30889E+001,-2.47315E-001,-8.44225E-002,1.30915E+001,2.10066E-002,4.30697E-001,0,1.96297E+002,-5.55964E+000,9.98515E-001,1.64277E+002,-3.30387E+001,9.95981E-001,2.36728E-001,-9.74014E-002,-2.79825E-003,2.36751E-001,-9.74248E-002,-4.79793E-001,2.37984E-001,1.26692E+000,-2.22912E-002,0.00000E+000,1.10773E-002,9.09467E-001,0.00000E+000,-5.08426E-003,-7.17187E-002,1.00000E+000,37
679,1317,-1.18600E+001,-1.26782E+000,1.98653E-001,4.62095E+000,-5.34795E-001,1.76181E-001,4.65513E+000,1.74225E-002,6.21529E-001,0,7.15130E+001,-9.33248E+000,9.96867E-001,2.84334E+001,-4.75818E+001,9.95483E-001,2.15672E-001,-8.98430E-002,-1.69224E-004,2.15672E-001,-8.98431E-002,-3.17359E-002,2.16670E-001,1.24070E+000,-6.41622E-004,0.00000E+000,1.22932E-004,9.16701E-001,0.00000E+000,4.94956E-004,-7.58603E-002,1.00000E+000,37
669,1327,-1.26429E+001,-7.14677E-001,1.01248E-001,4.47591E+000,-6.07267E-001,1.20597E-001,4.51853E+000,1.46583E-002,5.50879E-001,0,6.94849E+001,-1.03367E+001,9.98629E-001,2.63049E+001,-4.90068E+001,9.98285E-001,2.12575E-001,-8.89949E-002,-2.32041E-004,2.12576E-001,-8.89951E-002,-4.40857E-002,2.13511E-001,1.23686E+000,1.81105E-003,0.00000E+000,-1.73154E-003,9.17419E-001,0.00000E+000,-5.15611E-004,-7.50202E-002,1.00000E+000,37
669,1337,-1.26347E+001,-1.23480E-001,4.45183E-002,4.47515E+000,-6.54098E-001,7.46054E-002,4.52331E+000,1.53857E-002,5.95349E-001,0,6.96090E+001,-1.09936E+001,9.97606E-001,2.64120E+001,-4.97678E+001,9.97390E-001,2.10619E-001,-8.90079E-002,-7.71498E-004,2.10621E-001,-8.90099E-002,-1.47528E-001,2.11460E-001,1.23444E+000,1.77721E-003,0.00000E+000,-2.65684E-003,9.17406E-001,0.00000E+000,-1.30541E-003,-7.50313E-002,1.00000E+000,37
669,1347,-1.26208E+001,4.55858E-001,1.06259E-002,4.47711E+000,-7.13700E-001,3.49440E-002,4.53377E+000,1.38898E-002,5.73243E-001,0,6.97580E+001,-1.18551E+001,9.97194E-001,2.66645E+001,-5.07940E+001,9.96938E-001,2.08658E-001,-8.90252E-002,-1.31527E-003,2.08664E-001,-8.90310E-002,-2.53147E-001,2.09410E-001,1.23203E+000,1.73262E-003,0.00000E+000,-3.58169E-003,9.17389E-001,0.00000E+000,-2.09481E-003,-7.50459E-002,1.00000E+000,37
669,1357,-1.25953E+001,1.05038E+000,1.58540E-002,4.48314E+000,-7.64587E-001,-7.55213E-003,4.54788E+000,1.44220E-002,5.65871E-001,0,6.99691E+001,-1.25791E+001,9.96986E-001,2.72028E+001,-5.16652E+001,9.97257E-001,2.06682E-001,-8.90544E-002,-1.87327E-003,2.06693E-001,-8.90663E-002,-3.62908E-001,2.07350E-001,1.22960E+000,1.66020E-003,0.00000E+000,-4.51141E-003,9.17362E-001,0.00000E+000,-2.88838E-003,-7.50695E-002,1.00000E+000,37
1189,1337,3.00968E+001,5.44016E-001,-1.35931E-001,1.32686E+001,-3.04736E-001,-1.53190E-001,1.32729E+001,2.00802E-002,4.40100E-001,0,1.99067E+002,-6.36118E+000,9.98530E-001,1.68054E+002,-3.34289E+001,9.97550E-001,2.37401E-001,-9.77500E-002,-2.45842E-003,2.37419E-001,-9.77680E-002,-4.20249E-001,2.38647E-001,1.26779E+000,-2.14315E-002,0.00000E+000,1.11542E-002,9.09157E-001,0.00000E+000,-6.26627E-003,-7.18609E-002,1.00000E+000,37
669,1317,-1.26440E+001,-1.27906E+000,2.11886E-001,4.47750E+000,-5.39693E-001,1.84584E-001,4.51368E+000,1.78245E-002,5.93179E-001,0,6.93097E+001,-9.42446E+000,9.98334E-001,2.64595E+001,-4.79039E+001,9.98441E-001,2.14517E-001,-8.89920E-002,2.94880E-004,2.14517E-001,-8.89923E-002,5.56667E-002,2.15552E-001,1.23926E+000,1.82104E-003,0.00000E+000,-8.11182E-004,9.17423E-001,0.00000E+000,2.69968E-004,-7.50170E-002,1.00000E+000,37
1189,1297,3.00426E+001,-1.82170E+000,1.52843E-002,1.32919E+001,-6.52293E-002,3.41954E-002,1.32921E+001,1.95648E-002,4.58346E-001,0,1.98675E+002,-2.83157E+000,9.97853E-001,1.67251E+002,-3.05350E+001,9.95752E-001,2.33638E-001,-9.77446E-002,-2.47999E-003,2.33657E-001,-9.77632E-002,-4.28756E-001,2.34691E-001,1.26302E+000,-2.15721E-002,0.00000E+000,1.12168E-002,9.09159E-001,0.00000E+000,-5.37958E-003,-7.18348E-002,1.00000E+000,37
1189,1307,3.00380E+001,-1.23953E+000,-6.70186E-002,1.32809E+001,-1.27130E-001,-6.99153E-003,1.32815E+001,1.67587E-002,4.46406E-001,0,1.98695E+002,-3.75211E+000,9.96444E-001,1.67112E+002,-3.13100E+001,9.96703E-001,2.34574E-001,-9.77453E-002,-2.48341E-003,2.34592E-001,-9.77639E-002,-4.28137E-001,2.35674E-001,1.26420E+000,-2.15600E-002,0.00000E+000,1.12012E-002,9.09159E-001,0.00000E+000,-5.59971E-003,-7.18370E-002,1.00000E+000,37
1189,1317,3.00595E+001,-6.32664E-001,-1.13656E-001,1.32828E+001,-1.73002E-001,-6.29935E-002,1.32841E+001,1.97071E-002,4.65600E-001,0,1.98941E+002,-4.39083E+000,9.98188E-001,1.67427E+002,-3.17598E+001,9.98504E-001,2.35517E-001,-9.77467E-002,-2.47792E-003,2.35535E-001,-9.77651E-002,-4.25980E-001,2.36665E-001,1.26540E+000,-2.15247E-002,0.00000E+000,1.11855E-002,9.09159E-001,0.00000E+000,-5.82187E-003,-7.18436E-002,1.00000E+000,37
1189,1327,3.00740E+001,-5.16370E-002,-1.45731E-001,1.32737E+001,-2.44893E-001,-1.20521E-001,1.32765E+001,2.34043E-002,4.41780E-001,0,1.99033E+002,-5.43497E+000,9.98685E-001,1.67648E+002,-3.26667E+001,9.98249E-001,2.36458E-001,-9.77482E-002,-2.46964E-003,2.36476E-001,-9.77665E-002,-4.23360E-001,2.37655E-001,1.26659E+000,-2.14820E-002,0.00000E+000,1.11699E-002,9.09158E-001,0.00000E+000,-6.04379E-003,-7.18515E-002,1.00000E+000,37
659,1327,-1.34295E+001,-6.97485E-001,1.10320E-001,4.32952E+000,-5.85537E-001,1.24932E-001,4.37073E+000,2.35308E-002,5.59413E-001,0,6.72357E+001,-9.99004E+000,9.98202E-001,2.42917E+001,-4.88669E+001,9.96420E-001,2.10661E-001,-8.84266E-002,-1.68158E-004,2.10661E-001,-8.84267E-002,-3.22137E-002,2.11563E-001,1.23449E+000,4.35717E-003,0.00000E+000,-3.48225E-003,9.17913E-001,0.00000E+000,-7.63506E-004,-7.46928E-002,1.00000E+000,37
659,1337,-1.33960E+001,-1.42368E-001,6.40964E-002,4.35406E+000,-6.68384E-001,8.92418E-002,4.40597E+000,3.47270E-002,6.24545E-001,0,6.77325E+001,-1.12448E+001,9.97691E-001,2.48055E+001,-5.01938E+001,9.97441E-001,2.08510E-001,-8.84374E-002,-7.12326E-004,2.08512E-001,-8.84391E-002,-1.37442E-001,2.09310E-001,1.23184E+000,4.32030E-003,0.00000E+000,-4.42102E-003,9.17900E-001,0.00000E+000,-1.52096E-003,-7.47033E-002,1.00000E+000,37
659,1347,-1.33916E+001,4.49668E-001,3.09501E-002,4.34644E+000,-7.14989E-001,4.93796E-002,4.40513E+000,2.07444E-002,6.10193E-001,0,6.77286E+001,-1.19088E+001,9.98295E-001,2.49177E+001,-5.10261E+001,9.98379E-001,2.06355E-001,-8.84528E-002,-1.26115E-003,2.06361E-001,-8.84582E-002,-2.45098E-001,2.07060E-001,1.22919E+000,4.27123E-003,0.00000E+000,-5.35886E-003,9.17883E-001,0.00000E+000,-2.27765E-003,-7.47174E-002,1.00000E+000,37
659,1357,-1.33770E+001,1.05069E+000,2.73910E-002,4.34243E+000,-7.58565E-001,1.29610E-003,4.40819E+000,1.45248E-002,5.87859E-001,0,6.77976E+001,-1.24988E+001,9.97573E-001,2.52701E+001,-5.17893E+001,9.97956E-001,2.04185E-001,-8.84789E-002,-1.82383E-003,2.04196E-001,-8.84902E-002,-3.57039E-001,2.04800E-001,1.22653E+000,4.19489E-003,0.00000E+000,-6.30122E-003,9.17856E-001,0.00000E+000,-3.03799E-003,-7.47392E-002,1.00000E+000,37
1199,1307,3.08783E+001,-1.23075E+000,-6.88340E-002,1.34544E+001,-1.26413E-001,-1.92852E-002,1.34550E+001,2.19796E-002,4.54222E-001,0,2.01165E+002,-3.73412E+000,9.96760E-001,1.70264E+002,-3.10660E+001,9.96158E-001,2.34463E-001,-9.76347E-002,-1.98556E-003,2.34475E-001,-9.76466E-002,-3.42546E-001,2.35564E-001,1.26409E+000,-2.04052E-002,0.00000E+000,1.13597E-002,9.09239E-001,0.00000E+000,-6.57450E-003,-7.15791E-002,1.00000E+000,37
1199,1317,3.08882E+001,-6.39336E-001,-1.20541E-001,1.34469E+001,-1.84841E-001,-7.10481E-002,1.34484E+001,1.88746E-002,4.35830E-001,0,2.01265E+002,-4.58225E+000,9.95887E-001,1.70388E+002,-3.17635E+001,9.94530E-001,2.35270E-001,-9.76369E-002,-1.99678E-003,2.35282E-001,-9.76489E-002,-3.43644E-001,2.36412E-001,1.26511E+000,-2.03784E-002,0.00000E+000,1.13057E-002,9.09238E-001,0.00000E+000,-6.54468E-003,-7.15784E-002,1.00000E+000,37
1199,1327,3.09063E+001,-4.39618E-002,-1.62263E-001,1.34451E+001,-2.40393E-001,-1.23598E-001,1.34478E+001,1.94622E-002,4.23928E-001,0,2.01444E+002,-5.39690E+000,9.97287E-001,1.70655E+002,-3.24180E+001,9.95899E-001,2.36078E-001,-9.76394E-002,-2.00639E-003,2.36090E-001,-9.76515E-002,-3.44460E-001,2.37261E-001,1.26613E+000,-2.03473E-002,0.00000E+000,1.12517E-002,9.09236E-001,0.00000E+000,-6.51483E-003,-7.15775E-002,1.00000E+000,37
659,1317,-1.34431E+001,-1.27957E+000,1.87550E-001,4.32096E+000,-5.34732E-001,1.69514E-001,4.35722E+000,1.74974E-002,5.83191E-001,0,6.69670E+001,-9.27401E+000,9.96740E-001,2.41602E+001,-4.79743E+001,9.94285E-001,2.12795E-001,-8.84218E-002,3.66530E-004,2.12795E-001,-8.84222E-002,6.97191E-002,2.13805E-001,1.23712E+000,4.37799E-003,0.00000E+000,-2.54845E-003,9.17921E-001,0.00000E+000,-1.00724E-005,-7.46869E-002,1.00000E+000,37
1199,1337,3.09419E+001,5.55194E-001,-1.37319E-001,1.34459E+001,-3.02015E-001,-1.66570E-001,1.34503E+001,1.50840E-002,4.39656E-001,0,2.01599E+002,-6.31734E+000,9.98408E-001,1.71277E+002,-3.31472E+001,9.97234E-001,2.36892E-001,-9.76431E-002,-2.00744E-003,2.36904E-001,-9.76552E-002,-3.43797E-001,2.38118E-001,1.26716E+000,-2.02935E-002,0.00000E+000,1.11972E-002,9.09233E-001,0.00000E+000,-6.48467E-003,-7.15759E-002,1.00000E+000,37
1199,1297,3.08829E+001,-1.80236E+000,1.58706E-002,1.34662E+001,-5.33072E-002,2.69402E-002,1.34663E+001,1.66526E-002,4.39277E-001,0,2.01130E+002,-2.63962E+000,9.96458E-001,1.70406E+002,-3.01468E+001,9.95318E-001,2.33659E-001,-9.76333E-002,-1.96852E-003,2.33671E-001,-9.76450E-002,-3.40433E-001,2.34719E-001,1.26307E+000,-2.04167E-002,0.00000E+000,1.14134E-002,9.09240E-001,0.00000E+000,-6.60419E-003,-7.15795E-002,1.00000E+000,37
649,1347,-1.41884E+001,4.55808E-001,2.12225E-002,4.18973E+000,-7.04145E-001,3.53652E-002,4.24864E+000,2.03480E-002,6.33803E-001,0,6.53699E+001,-1.16920E+001,9.97149E-001,2.27011E+001,-5.10137E+001,9.96145E-001,2.03819E-001,-8.76770E-002,-1.09687E-003,2.03823E-001,-8.76812E-002,-2.15593E-001,2.04485E-001,1.22606E+000,7.21194E-003,0.00000E+000,-7.23343E-003,9.18542E-001,0.00000E+000,-2.63306E-003,-7.41368E-002,1.00000E+000,37
649,1357,-1.41683E+001,1.04652E+000,3.03380E-002,4.19180E+000,-7.56983E-001,2.48270E-003,4.25961E+000,1.36501E-002,5.89562E-001,0,6.54924E+001,-1.24576E+001,9.97972E-001,2.31709E+001,-5.19752E+001,9.97661E-001,2.01299E-001,-8.76991E-002,-1.64733E-003,2.01308E-001,-8.77085E-002,-3.26580E-001,2.01862E-001,1.22298E+000,7.12649E-003,0.00000E+000,-8.14963E-003,9.18517E-001,0.00000E+000,-3.45089E-003,-7.41595E-002,1.00000E+000,37
649,1337,-1.42087E+001,-1.28767E-001,5.79660E-002,4.18118E+000,-6.48558E-001,7.77828E-002,4.23190E+000,2.17984E-002,5.92401E-001,0,6.51133E+001,-1.08929E+001,9.97788E-001,2.23567E+001,-5.01027E+001,9.97039E-001,2.06330E-001,-8.76649E-002,-5.59262E-004,2.06331E-001,-8.76659E-002,-1.08992E-001,2.07106E-001,1.22914E+000,7.26753E-003,0.00000E+000,-6.31803E-003,9.18558E-001,0.00000E+000,-1.81594E-003,-7.41221E-002,1.00000E+000,37
649,1327,-1.42313E+001,-6.90163E-001,1.00851E-001,4.16703E+000,-5.74399E-001,1.08026E-001,4.20782E+000,1.67172E-002,5.45663E-001,0,6.47961E+001,-9.74341E+000,9.98745E-001,2.19985E+001,-4.88527E+001,9.98417E-001,2.08821E-001,-8.76575E-002,-3.06885E-005,2.08821E-001,-8.76575E-002,-5.93069E-003,2.09715E-001,1.23220E+000,7.30783E-003,0.00000E+000,-5.40717E-003,9.18570E-001,0.00000E+000,-1.00288E-003,-7.41114E-002,1.00000E+000,37
1209,1307,3.17175E+001,-1.21540E+000,-7.44234E-002,1.36268E+001,-1.17861E-001,-3.27421E-002,1.36274E+001,1.61224E-002,4.66815E-001,0,2.03618E+002,-3.61011E+000,9.97731E-001,1.73397E+002,-3.07095E+001,9.96390E-001,2.33830E-001,-9.71690E-002,-1.45396E-003,2.33837E-001,-9.71753E-002,-2.51674E-001,2.34946E-001,1.26331E+000,-1.91397E-002,0.00000E+000,1.14746E-002,9.09636E-001,0.00000E+000,-6.97715E-003,-7.12124E-002,1.00000E+000,37
1209,1317,3.17257E+001,-6.33470E-001,-1.30916E-001,1.36195E+001,-1.84973E-001,-8.22601E-002,1.36210E+001,1.79065E-002,4.32195E-001,0,2.03718E+002,-4.58896E+000,9.97735E-001,1.73490E+002,-3.15507E+001,9.95097E-001,2.34687E-001,-9.71707E-002,-1.46075E-003,2.34693E-001,-9.71771E-002,-2.52194E-001,2.35846E-001,1.26439E+000,-1.91141E-002,0.00000E+000,1.14173E-002,9.09635E-001,0.00000E+000,-6.75365E-003,-7.12071E-002,1.00000E+000,37
1209,1327,3.17572E+001,-2.94482E-002,-1.55326E-001,1.36263E+001,-2.34154E-001,-1.35153E-001,1.36290E+001,1.79190E-002,3.70751E-001,0,2.04017E+002,-5.29103E+000,9.98058E-001,1.73987E+002,-3.21303E+001,9.96622E-001,2.35545E-001,-9.71730E-002,-1.46179E-003,2.35552E-001,-9.71795E-002,-2.51722E-001,2.36749E-001,1.26548E+000,-1.90734E-002,0.00000E+000,1.13598E-002,9.09632E-001,0.00000E+000,-6.52941E-003,-7.11987E-002,1.00000E+000,37
1209,1337,3.17920E+001,5.68403E-001,-1.18139E-001,1.36258E+001,-2.98564E-001,-1.66900E-001,1.36300E+001,1.76257E-002,4.53304E-001,0,2.04105E+002,-6.29537E+000,9.97609E-001,1.74608E+002,-3.28724E+001,9.96073E-001,2.36411E-001,-9.71761E-002,-1.45633E-003,2.36418E-001,-9.71825E-002,-2.50127E-001,2.37661E-001,1.26657E+000,-1.90154E-002,0.00000E+000,1.13016E-002,9.09629E-001,0.00000E+000,-6.30282E-003,-7.11867E-002,1.00000E+000,37
1209,1297,3.17233E+001,-1.78961E+000,7.80361E-003,1.36418E+001,-4.56379E-002,1.78814E-002,1.36419E+001,1.48247E-002,4.22328E-001,0,2.03613E+002,-2.53163E+000,9.97513E-001,1.73557E+002,-2.98419E+001,9.95840E-001,2.32975E-001,-9.71677E-002,-1.44318E-003,2.32981E-001,-9.71740E-002,-2.50456E-001,2.34046E-001,1.26223E+000,-1.91549E-002,0.00000E+000,1.15319E-002,9.09637E-001,0.00000E+000,-7.20023E-003,-7.12155E-002,1.00000E+000,37
649,1317,-1.42348E+001,-1.27430E+000,1.92691E-001,4.16718E+000,-5.26869E-001,1.59751E-001,4.20339E+000,1.45677E-002,5.76701E-001,0,6.46435E+001,-9.10045E+000,9.97859E-001,2.20615E+001,-4.80156E+001,9.97493E-001,2.11297E-001,-8.76575E-002,4.87118E-004,2.11298E-001,-8.76583E-002,9.33576E-002,2.12317E-001,1.23526E+000,7.32545E-003,0.00000E+000,-4.49883E-003,9.18576E-001,0.00000E+000,-1.92064E-004,-7.41067E-002,1.00000E+000,37
639,1347,-1.49818E+001,4.63056E-001,1.90211E-002,4.03714E+000,-6.90664E-001,3.49268E-002,4.09595E+000,2.07486E-002,6.00638E-001,0,6.30332E+001,-1.14465E+001,9.96260E-001,2.05640E+001,-5.10288E+001,9.95484E-001,2.01521E-001,-8.66735E-002,-9.61501E-004,2.01524E-001,-8.66767E-002,-1.91153E-001,2.02179E-001,1.22323E+000,1.05535E-002,0.00000E+000,-9.47485E-003,9.19391E-001,0.00000E+000,-3.02385E-003,-7.33633E-002,1.00000E+000,37
639,1357,-1.49592E+001,1.05792E+000,2.92152E-002,4.04167E+000,-7.39963E-001,2.06349E-003,4.10885E+000,1.36934E-002,5.80682E-001,0,6.31923E+001,-1.21585E+001,9.97625E-001,2.10773E+001,-5.19183E+001,9.97479E-001,1.98758E-001,-8.66921E-002,-1.49327E-003,1.98766E-001,-8.66999E-002,-2.99719E-001,1.99305E-001,1.21986E+000,1.04602E-002,0.00000E+000,-1.03527E-002,9.19366E-001,0.00000E+000,-3.94486E-003,-7.33888E-002,1.00000E+000,37
639,1317,-1.50159E+001,-1.28771E+000,2.12194E-001,4.02399E+000,-5.38912E-001,1.66055E-001,4.06331E+000,1.87020E-002,6.68339E-001,0,6.24413E+001,-9.30230E+000,9.97787E-001,2.01667E+001,-4.83246E+001,9.96736E-001,2.09691E-001,-8.66673E-002,5.51214E-004,2.09692E-001,-8.66683E-002,1.06567E-001,2.10740E-001,1.23325E+000,1.06623E-002,0.00000E+000,-6.86177E-003,9.19419E-001,0.00000E+000,-2.82140E-004,-7.33335E-002,1.00000E+000,37
639,1327,-1.50094E+001,-7.13826E-001,1.24145E-001,4.02824E+000,-5.93307E-001,1.25877E-001,4.07364E+000,1.37238E-002,5.75271E-001,0,6.26316E+001,-1.00796E+001,9.98315E-001,2.01568E+001,-4.93602E+001,9.97401E-001,2.06993E-001,-8.66624E-002,5.99757E-005,2.06993E-001,-8.66624E-002,1.17020E-002,2.07903E-001,1.22993E+000,1.06506E-002,0.00000E+000,-7.72768E-003,9.19416E-001,0.00000E+000,-1.19067E-003,-7.33367E-002,1.00000E+000,37
639,1337,-1.50009E+001,-1.23075E-001,5.32275E-002,4.03011E+000,-6.38340E-001,7.80267E-002,4.08109E+000,1.75753E-002,6.29570E-001,0,6.28002E+001,-1.07057E+001,9.97300E-001,2.02281E+001,-5.00991E+001,9.96350E-001,2.04261E-001,-8.66639E-002,-4.44838E-004,2.04262E-001,-8.66645E-002,-8.76077E-002,2.05041E-001,1.22658E+000,1.06162E-002,0.00000E+000,-8.60117E-003,9.19407E-001,0.00000E+000,-2.10715E-003,-7.33461E-002,1.00000E+000,37
1219,1317,3.25724E+001,-6.22704E-001,-1.28073E-001,1.37971E+001,-1.84525E-001,-9.39963E-002,1.37986E+001,2.18489E-002,4.93816E-001,0,2.06237E+002,-4.58284E+000,9.97600E-001,1.76755E+002,-3.12573E+001,9.95242E-001,2.33842E-001,-9.72089E-002,-8.16875E-004,2.33844E-001,-9.72109E-002,-1.41378E-001,2.34949E-001,1.26335E+000,-1.74886E-002,0.00000E+000,1.14515E-002,9.09543E-001,0.00000E+000,-6.78423E-003,-7.03532E-002,1.00000E+000,37
1219,1327,3.26001E+001,-1.90300E-002,-1.52771E-001,1.38021E+001,-2.32008E-001,-1.39200E-001,1.38047E+001,1.11749E-002,4.07455E-001,0,2.06480E+002,-5.28150E+000,9.99003E-001,1.77192E+002,-3.18530E+001,9.98003E-001,2.34663E-001,-9.72105E-002,-8.14413E-004,2.34665E-001,-9.72125E-002,-1.40602E-001,2.35812E-001,1.26438E+000,-1.74527E-002,0.00000E+000,1.13885E-002,9.09541E-001,0.00000E+000,-6.29126E-003,-7.03361E-002,1.00000E+000,37
1219,1337,3.26377E+001,5.84437E-001,-1.23827E-001,1.38034E+001,-2.91374E-001,-1.81735E-001,1.38077E+001,1.74457E-002,4.82396E-001,0,2.06638E+002,-6.18343E+000,9.97979E-001,1.77845E+002,-3.24914E+001,9.96001E-001,2.35495E-001,-9.72128E-002,-8.03955E-004,2.35497E-001,-9.72148E-002,-1.38448E-001,2.36687E-001,1.26543E+000,-1.73957E-002,0.00000E+000,1.13245E-002,9.09537E-001,0.00000E+000,-5.79164E-003,-7.03089E-002,1.00000E+000,37
1219,1297,3.25677E+001,-1.77838E+000,-7.43267E-004,1.38197E+001,-4.14943E-002,4.20242E-003,1.38198E+001,1.60480E-002,3.94992E-001,0,2.06145E+002,-2.44161E+000,9.97568E-001,1.76772E+002,-2.95645E+001,9.95817E-001,2.32195E-001,-9.72065E-002,-8.10828E-004,2.32197E-001,-9.72085E-002,-1.41034E-001,2.33219E-001,1.26127E+000,-1.75320E-002,0.00000E+000,1.15778E-002,9.09546E-001,0.00000E+000,-7.77047E-003,-7.03738E-002,1.00000E+000,37
1219,1307,3.25671E+001,-1.20151E+000,-6.82182E-002,1.38074E+001,-1.12759E-001,-4.12190E-002,1.38080E+001,2.07102E-002,4.30676E-001,0,2.06164E+002,-3.51159E+000,9.97548E-001,1.76713E+002,-3.04248E+001,9.95106E-001,2.33018E-001,-9.72076E-002,-8.15021E-004,2.33020E-001,-9.72096E-002,-1.41409E-001,2.34083E-001,1.26231E+000,-1.75134E-002,0.00000E+000,1.15147E-002,9.09544E-001,0.00000E+000,-7.27795E-003,-7.03649E-002,1.00000E+000,37
629,1347,-1.57664E+001,4.55159E-001,1.58542E-002,3.89334E+000,-6.92194E-001,3.61894E-002,3.95456E+000,1.87150E-002,5.82577E-001,0,6.08296E+001,-1.14448E+001,9.95603E-001,1.85596E+001,-5.12659E+001,9.94920E-001,1.99613E-001,-8.70097E-002,-9.43649E-004,1.99616E-001,-8.70128E-002,-1.88633E-001,2.00162E-001,1.22086E+000,1.39393E-002,0.00000E+000,-1.19961E-002,9.19026E-001,0.00000E+000,-2.92940E-003,-7.29781E-002,1.00000E+000,37
629,1357,-1.57364E+001,1.05072E+000,2.87197E-002,3.90514E+000,-7.40884E-001,4.16593E-003,3.97480E+000,1.57676E-002,5.73157E-001,0,6.10988E+001,-1.21545E+001,9.96164E-001,1.91956E+001,-5.21461E+001,9.95882E-001,1.96974E-001,-8.70186E-002,-1.24620E-003,1.96979E-001,-8.70240E-002,-2.51416E-001,1.97424E-001,1.21765E+000,1.38500E-002,0.00000E+000,-1.24640E-002,9.19013E-001,0.00000E+000,-3.74141E-003,-7.30006E-002,1.00000E+000,37
629,1327,-1.57926E+001,-7.12864E-001,1.20837E-001,3.88524E+000,-5.86571E-001,1.24882E-001,3.93125E+000,1.48260E-002,5.67688E-001,0,6.04461E+001,-9.95196E+000,9.96996E-001,1.81744E+001,-4.94518E+001,9.96629E-001,2.04842E-001,-8.70074E-002,-3.77742E-004,2.04843E-001,-8.70079E-002,-7.41580E-002,2.05614E-001,1.22725E+000,1.40286E-002,0.00000E+000,-1.10647E-002,9.19039E-001,0.00000E+000,-1.31301E-003,-7.29555E-002,1.00000E+000,37
629,1337,-1.57791E+001,-1.30756E-001,5.34327E-002,3.89218E+000,-6.39943E-001,8.00791E-002,3.94525E+000,1.76430E-002,6.13897E-001,0,6.06864E+001,-1.07141E+001,9.96771E-001,1.83311E+001,-5.03362E+001,9.96013E-001,2.02232E-001,-8.70065E-002,-6.55688E-004,2.02233E-001,-8.70080E-002,-1.29886E-001,2.02889E-001,1.22406E+000,1.39960E-002,0.00000E+000,-1.15303E-002,9.19034E-001,0.00000E+000,-2.12103E-003,-7.29637E-002,1.00000E+000,37
1229,1317,3.34184E+001,-5.98953E-001,-1.51762E-001,1.39765E+001,-1.67155E-001,-1.20578E-001,1.39781E+001,2.52392E-002,4.60463E-001,0,2.08840E+002,-4.27555E+000,9.97383E-001,1.79985E+002,-3.07516E+001,9.95180E-001,2.33231E-001,-9.67250E-002,-1.35845E-004,2.33231E-001,-9.67250E-002,-2.35891E-002,2.34359E-001,1.26259E+000,-1.58670E-002,0.00000E+000,1.15348E-002,9.09926E-001,0.00000E+000,-6.44366E-003,-6.94837E-002,1.00000E+000,37
1229,1327,3.34404E+001,-1.19348E-002,-1.53933E-001,1.39753E+001,-2.34581E-001,-1.44575E-001,1.39780E+001,1.51651E-002,4.75482E-001,0,2.08908E+002,-5.32987E+000,9.98063E-001,1.80356E+002,-3.16041E+001,9.96783E-001,2.33962E-001,-9.67219E-002,-8.69806E-005,2.33962E-001,-9.67219E-002,-1.50706E-002,2.35129E-001,1.26351E+000,-1.58344E-002,0.00000E+000,1.15508E-002,9.09927E-001,0.00000E+000,-5.76792E-003,-6.94597E-002,1.00000E+000,37
1229,1337,3.34813E+001,5.97248E-001,-1.33226E-001,1.39827E+001,-2.83222E-001,-1.84210E-001,1.39868E+001,1.56275E-002,4.26712E-001,0,2.09145E+002,-6.07095E+000,9.97313E-001,1.81049E+002,-3.21952E+001,9.96194E-001,2.34694E-001,-9.67178E-002,-3.26688E-005,2.34694E-001,-9.67178E-002,-5.64791E-003,2.35900E-001,1.26443E+000,-1.57877E-002,0.00000E+000,1.15668E-002,9.09927E-001,0.00000E+000,-5.09101E-003,-6.94255E-002,1.00000E+000,37
629,1317,-1.58071E+001,-1.28457E+000,2.14767E-001,3.87278E+000,-5.29808E-001,1.69833E-001,3.91254E+000,1.58892E-002,6.35451E-001,0,6.01148E+001,-9.14346E+000,9.97564E-001,1.80800E+001,-4.84069E+001,9.96958E-001,2.07425E-001,-8.70122E-002,-1.10946E-004,2.07425E-001,-8.70122E-002,-2.15895E-002,2.08319E-001,1.23043E+000,1.40387E-002,0.00000E+000,-1.06026E-002,9.19040E-001,0.00000E+000,-5.11090E-004,-7.29529E-002,1.00000E+000,37
1229,1297,3.34136E+001,-1.76297E+000,-2.99749E-003,1.39987E+001,-3.34726E-002,-3.05365E-003,1.39987E+001,1.85801E-002,4.41080E-001,0,2.08659E+002,-2.33763E+000,9.96167E-001,1.80024E+002,-2.91989E+001,9.93553E-001,2.31772E-001,-9.67292E-002,-2.22644E-004,2.31772E-001,-9.67294E-002,-3.88326E-002,2.32825E-001,1.26076E+000,-1.59048E-002,0.00000E+000,1.15030E-002,9.09925E-001,0.00000E+000,-7.78807E-003,-6.95115E-002,1.00000E+000,37
1229,1307,3.34243E+001,-1.17807E+000,-7.64719E-002,1.39990E+001,-9.56330E-002,-4.91762E-002,1.39994E+001,2.73762E-002,4.40317E-001,0,2.08867E+002,-3.26041E+000,9.95512E-001,1.80136E+002,-2.99365E+001,9.94021E-001,2.32500E-001,-9.67274E-002,-1.80963E-004,2.32501E-001,-9.67275E-002,-3.14931E-002,2.33591E-001,1.26168E+000,-1.58902E-002,0.00000E+000,1.15189E-002,9.09926E-001,0.00000E+000,-7.11701E-003,-6.95007E-002,1.00000E+000,37
619,1327,-1.65800E+001,-7.13549E-001,1.21089E-001,3.73748E+000,-5.81723E-001,1.26124E-001,3.78458E+000,1.21536E-002,5.65769E-001,0,5.81775E+001,-9.86062E+000,9.97010E-001,1.61443E+001,-4.95742E+001,9.97363E-001,2.03187E-001,-8.61917E-002,-6.55387E-004,2.03188E-001,-8.61932E-002,-1.29763E-001,2.03965E-001,1.22518E+000,1.76305E-002,0.00000E+000,-1.42753E-002,9.19745E-001,0.00000E+000,-1.63945E-003,-7.29640E-002,1.00000E+000,37
619,1337,-1.65618E+001,-1.30522E-001,5.76942E-002,3.74841E+000,-6.34569E-001,8.07256E-002,3.80260E+000,1.47963E-002,6.22403E-001,0,5.84798E+001,-1.06195E+001,9.95077E-001,1.63839E+001,-5.04493E+001,9.95152E-001,2.00424E-001,-8.61905E-002,-8.15679E-004,2.00427E-001,-8.61928E-002,-1.63057E-001,2.01080E-001,1.22180E+000,1.75927E-002,0.00000E+000,-1.45355E-002,9.19742E-001,0.00000E+000,-2.32473E-003,-7.29717E-002,1.00000E+000,37
619,1347,-1.65423E+001,4.59693E-001,1.79160E-002,3.75774E+000,-6.81322E-001,4.18523E-002,3.81923E+000,1.78614E-002,6.03372E-001,0,5.87350E+001,-1.12814E+001,9.94777E-001,1.67120E+001,-5.13031E+001,9.94365E-001,1.97656E-001,-8.61906E-002,-9.81901E-004,1.97659E-001,-8.61940E-002,-1.98199E-001,1.98197E-001,1.21843E+000,1.75402E-002,0.00000E+000,-1.47955E-002,9.19738E-001,0.00000E+000,-3.00958E-003,-7.29824E-002,1.00000E+000,37
619,1357,-1.65135E+001,1.05452E+000,2.05498E-002,3.76944E+000,-7.29594E-001,5.30263E-003,3.83940E+000,1.61996E-002,5.89595E-001,0,5.90156E+001,-1.19733E+001,9.96752E-001,1.73016E+001,-5.21765E+001,9.96560E-001,1.94866E-001,-8.61942E-002,-1.16310E-003,1.94871E-001,-8.61990E-002,-2.37098E-001,1.95303E-001,1.21504E+000,1.74525E-002,0.00000E+000,-1.50566E-002,9.19731E-001,0.00000E+000,-3.69727E-003,-7.30002E-002,1.00000E+000,37
619,1317,-1.65900E+001,-1.28059E+000,2.18178E-001,3.72956E+000,-5.18852E-001,1.74739E-001,3.76953E+000,1.95898E-002,6.08601E-001,0,5.79061E+001,-8.97756E+000,9.96298E-001,1.61288E+001,-4.84742E+001,9.95924E-001,2.05926E-001,-8.61956E-002,-5.06668E-004,2.05927E-001,-8.61965E-002,-9.93756E-002,2.06835E-001,1.22854E+000,1.76414E-002,0.00000E+000,-1.40164E-002,9.19745E-001,0.00000E+000,-9.57715E-004,-7.29618E-002,1.00000E+000,37
1239,1307,3.42565E+001,-1.16812E+000,-9.17119E-002,1.41660E+001,-9.03996E-002,-6.11811E-002,1.41664E+001,2.82012E-002,4.25288E-001,0,2.11225E+002,-3.18504E+000,9.95241E-001,1.83163E+002,-2.96585E+001,9.92935E-001,2.31753E-001,-9.59048E-002,1.23588E-004,2.31753E-001,-9.59049E-002,2.16111E-002,2.32897E-001,1.26075E+000,-1.47500E-002,0.00000E+000,1.12778E-002,9.10661E-001,0.00000E+000,-7.09648E-003,-6.92386E-002,1.00000E+000,37
1239,1317,3.42703E+001,-5.71337E-001,-1.46407E-001,1.41634E+001,-1.43439E-001,-1.10687E-001,1.41646E+001,2.75270E-002,4.32573E-001,0,2.11392E+002,-3.97566E+000,9.95833E-001,1.83344E+002,-3.02460E+001,9.94800E-001,2.32562E-001,-9.58946E-002,2.74401E-004,2.32563E-001,-9.58949E-002,4.78663E-002,2.33751E-001,1.26176E+000,-1.47247E-002,0.00000E+000,1.14609E-002,9.10666E-001,0.00000E+000,-5.99571E-003,-6.92111E-002,1.00000E+000,37
1239,1327,3.42889E+001,1.12846E-002,-1.43870E-001,1.41539E+001,-2.20198E-001,-1.47301E-001,1.41564E+001,2.07592E-002,4.90225E-001,0,2.11388E+002,-5.13218E+000,9.96686E-001,1.83665E+002,-3.11551E+001,9.95901E-001,2.33378E-001,-9.58794E-002,4.33700E-004,2.33379E-001,-9.58800E-002,7.54701E-002,2.34613E-001,1.26278E+000,-1.46811E-002,0.00000E+000,1.16459E-002,9.10673E-001,0.00000E+000,-4.88333E-003,-6.91637E-002,1.00000E+000,37
1239,1337,3.43123E+001,6.16463E-001,-1.34819E-001,1.41473E+001,-2.70100E-001,-1.84697E-001,1.41511E+001,1.75268E-002,4.09750E-001,0,2.11417E+002,-5.89548E+000,9.95975E-001,1.84068E+002,-3.17992E+001,9.93775E-001,2.34186E-001,-9.58635E-002,5.92894E-004,2.34187E-001,-9.58645E-002,1.02924E-001,2.35467E-001,1.26380E+000,-1.46348E-002,0.00000E+000,1.18295E-002,9.10682E-001,0.00000E+000,-3.77898E-003,-6.91134E-002,1.00000E+000,37
1239,1297,3.42535E+001,-1.75128E+000,-7.44712E-003,1.41723E+001,-2.68674E-002,-8.29767E-003,1.41724E+001,1.76318E-002,4.55507E-001,0,2.11083E+002,-2.26981E+000,9.96342E-001,1.83183E+002,-2.89033E+001,9.94327E-001,2.30943E-001,-9.59121E-002,-2.28142E-005,2.30943E-001,-9.59121E-002,-3.99920E-003,2.32045E-001,1.25974E+000,-1.47647E-002,0.00000E+000,1.10952E-002,9.10658E-001,0.00000E+000,-8.19467E-003,-6.92545E-002,1.00000E+000,37
609,1347,-1.73187E+001,4.56954E-001,2.08067E-002,3.62023E+000,-6.78957E-001,4.29309E-002,3.68359E+000,2.27858E-002,6.29936E-001,0,5.66221E+001,-1.12369E+001,9.94121E-001,1.48618E+001,-5.14513E+001,9.93863E-001,1.95746E-001,-8.44620E-002,-1.25419E-003,1.95752E-001,-8.44676E-002,-2.56444E-001,1.96363E-001,1.21605E+000,2.09534E-002,0.00000E+000,-1.79345E-002,9.21203E-001,0.00000E+000,-2.92492E-003,-7.19161E-002,1.00000E+000,37
609,1357,-1.72931E+001,1.05994E+000,1.66333E-002,3.62984E+000,-7.17958E-001,4.92838E-003,3.70016E+000,1.81418E-002,5.98925E-001,0,5.68720E+001,-1.17726E+001,9.96405E-001,1.53874E+001,-5.21955E+001,9.95982E-001,1.92877E-001,-8.44634E-002,-1.38402E-003,1.92884E-001,-8.44703E-002,-2.85917E-001,1.93378E-001,1.21257E+000,2.08692E-002,0.00000E+000,-1.80986E-002,9.21199E-001,0.00000E+000,-3.81517E-003,-7.19377E-002,1.00000E+000,37
609,1317,-1.73803E+001,-1.28613E+000,2.16048E-001,3.57805E+000,-5.18827E-001,1.70803E-001,3.61950E+000,1.91669E-002,6.18828E-001,0,5.55920E+001,-8.96669E+000,9.97069E-001,1.40538E+001,-4.86588E+001,9.95918E-001,2.04266E-001,-8.44680E-002,-9.26815E-004,2.04269E-001,-8.44710E-002,-1.83913E-001,2.05285E-001,1.22645E+000,2.10560E-002,0.00000E+000,-1.74443E-002,9.21207E-001,0.00000E+000,-2.64786E-004,-7.18899E-002,1.00000E+000,37
609,1327,-1.73640E+001,-7.21156E-001,1.20138E-001,3.59268E+000,-5.84814E-001,1.26260E-001,3.64216E+000,1.39664E-002,6.17511E-001,0,5.59568E+001,-9.90293E+000,9.97531E-001,1.41657E+001,-4.97734E+001,9.97013E-001,2.01439E-001,-8.44642E-002,-1.02549E-003,2.01443E-001,-8.44679E-002,-2.05507E-001,2.02315E-001,1.22299E+000,2.10474E-002,0.00000E+000,-1.76075E-002,9.21207E-001,0.00000E+000,-1.15031E-003,-7.18921E-002,1.00000E+000,37
609,1337,-1.73420E+001,-1.29844E-001,6.16499E-002,3.60746E+000,-6.27677E-001,8.52966E-002,3.66265E+000,1.80873E-002,6.04179E-001,0,5.63034E+001,-1.05041E+001,9.95112E-001,1.44799E+001,-5.05681E+001,9.94767E-001,1.98602E-001,-8.44625E-002,-1.13622E-003,1.98607E-001,-8.44671E-002,-2.29980E-001,1.99344E-001,1.21952E+000,2.10089E-002,0.00000E+000,-1.77707E-002,9.21205E-001,0.00000E+000,-2.03609E-003,-7.19019E-002,1.00000E+000,37
1249,1297,3.50988E+001,-1.73117E+000,-2.22846E-003,1.43493E+001,-1.38296E-002,-9.54734E-003,1.43493E+001,1.98135E-002,4.86849E-001,0,2.13529E+002,-2.10332E+000,9.96956E-001,1.86442E+002,-2.84884E+001,9.95128E-001,2.29711E-001,-9.50365E-002,1.80675E-004,2.29711E-001,-9.50366E-002,3.18767E-002,2.30848E-001,1.25821E+000,-1.30899E-002,0.00000E+000,1.03170E-002,9.11450E-001,0.00000E+000,-8.69804E-003,-6.90098E-002,1.00000E+000,37
1249,1307,3.50957E+001,-1.15448E+000,-9.18262E-002,1.43393E+001,-8.21751E-002,-5.83187E-002,1.43396E+001,2.44498E-002,4.45349E-001,0,2.13607E+002,-3.10415E+000,9.96873E-001,1.86321E+002,-2.93378E+001,9.94448E-001,2.30747E-001,-9.50210E-002,5.46848E-004,2.30748E-001,-9.50219E-002,9.61786E-002,2.31942E-001,1.25950E+000,-1.30761E-002,0.00000E+000,1.08726E-002,9.11456E-001,0.00000E+000,-7.06197E-003,-6.89922E-002,1.00000E+000,37
1249,1317,3.51006E+001,-5.67988E-001,-1.49563E-001,1.43288E+001,-1.44820E-001,-1.07029E-001,1.43299E+001,2.45656E-002,4.06558E-001,0,2.13661E+002,-4.02566E+000,9.93922E-001,1.86360E+002,-3.01013E+001,9.92424E-001,2.31783E-001,-9.49960E-002,9.20506E-004,2.31785E-001,-9.49986E-002,1.61395E-001,2.33037E-001,1.26079E+000,-1.30455E-002,0.00000E+000,1.14299E-002,9.11469E-001,0.00000E+000,-5.42064E-003,-6.89534E-002,1.00000E+000,37
1249,1327,3.51157E+001,3.53634E-002,-1.62911E-001,1.43183E+001,-1.97717E-001,-1.49311E-001,1.43205E+001,2.38388E-002,4.52346E-001,0,2.13663E+002,-4.82997E+000,9.93931E-001,1.86606E+002,-3.06576E+001,9.93628E-001,2.32821E-001,-9.49595E-002,1.30432E-003,2.32826E-001,-9.49647E-002,2.27990E-001,2.34140E-001,1.26210E+000,-1.29948E-002,0.00000E+000,1.19913E-002,9.11491E-001,0.00000E+000,-3.76745E-003,-6.88891E-002,1.00000E+000,37
1249,1337,3.51436E+001,6.40345E-001,-1.41690E-001,1.43134E+001,-2.51798E-001,-1.84709E-001,1.43168E+001,1.89269E-002,4.19154E-001,0,2.13703E+002,-5.65082E+000,9.96868E-001,1.87092E+002,-3.13060E+001,9.96477E-001,2.33857E-001,-9.49148E-002,1.69402E-003,2.33866E-001,-9.49236E-002,2.95211E-001,2.35243E-001,1.26340E+000,-1.29296E-002,0.00000E+000,1.25536E-002,9.11519E-001,0.00000E+000,-2.11160E-003,-6.88065E-002,1.00000E+000,37
1259,1327,3.59531E+001,4.91692E-002,-1.67951E-001,1.44893E+001,-1.88537E-001,-1.50876E-001,1.44913E+001,1.90970E-002,4.33792E-001,0,2.16026E+002,-4.72608E+000,9.97301E-001,1.89734E+002,-3.03401E+001,9.96890E-001,2.32540E-001,-9.44372E-002,2.05504E-003,2.32553E-001,-9.44502E-002,3.60083E-001,2.33915E-001,1.26175E+000,-1.20557E-002,0.00000E+000,1.26000E-002,9.11925E-001,0.00000E+000,-1.94075E-003,-6.83205E-002,1.00000E+000,37
1259,1337,3.59825E+001,6.51603E-001,-1.47352E-001,1.44851E+001,-2.45948E-001,-1.88533E-001,1.44884E+001,1.79581E-002,3.99934E-001,0,2.16089E+002,-5.58869E+000,9.98078E-001,1.90239E+002,-3.10253E+001,9.98144E-001,2.33647E-001,-9.43744E-002,2.58530E-003,2.33668E-001,-9.43947E-002,4.51538E-001,2.35100E-001,1.26315E+000,-1.19843E-002,0.00000E+000,1.33815E-002,9.11965E-001,0.00000E+000,3.35627E-004,-6.82045E-002,1.00000E+000,37
599,1347,-1.80862E+001,4.69616E-001,2.85903E-002,3.49081E+000,-6.61165E-001,4.59189E-002,3.55316E+000,2.26412E-002,6.37612E-001,0,5.46229E+001,-1.09538E+001,9.96521E-001,1.31723E+001,-5.13820E+001,9.96651E-001,1.94751E-001,-8.43628E-002,-9.92075E-004,1.94755E-001,-8.43663E-002,-2.03647E-001,1.95334E-001,1.21479E+000,2.35389E-002,0.00000E+000,-1.94334E-002,9.21165E-001,0.00000E+000,-2.72256E-003,-7.04186E-002,1.00000E+000,37
599,1357,-1.80559E+001,1.05730E+000,2.38652E-002,3.50577E+000,-7.15145E-001,1.01596E-002,3.57798E+000,1.49973E-002,6.18049E-001,0,5.49541E+001,-1.17309E+001,9.97097E-001,1.37661E+001,-5.23556E+001,9.96866E-001,1.92065E-001,-8.43616E-002,-8.01514E-004,1.92067E-001,-8.43639E-002,-1.66131E-001,1.92539E-001,1.21154E+000,2.34634E-002,0.00000E+000,-1.90084E-002,9.21175E-001,0.00000E+000,-3.66126E-003,-7.04403E-002,1.00000E+000,37
1259,1287,3.59400E+001,-2.29611E+000,8.27067E-002,1.45273E+001,6.14132E-002,2.25472E-002,1.45275E+001,2.00740E-002,4.40443E-001,0,2.15824E+002,-9.78883E-001,9.95504E-001,1.89704E+002,-2.73947E+001,9.91960E-001,2.28082E-001,-9.45578E-002,1.61989E-005,2.28082E-001,-9.45578E-002,2.87668E-003,2.29189E-001,1.25620E+000,-1.21648E-002,0.00000E+000,9.50179E-003,9.11864E-001,0.00000E+000,-1.09650E-002,-6.84978E-002,1.00000E+000,37
1259,1297,3.59333E+001,-1.72017E+000,-2.81207E-002,1.45193E+001,-6.52096E-003,-2.62699E-002,1.45193E+001,1.84165E-002,4.67399E-001,0,2.15944E+002,-1.98441E+000,9.96378E-001,1.89504E+002,-2.81755E+001,9.93097E-001,2.29203E-001,-9.45457E-002,5.15284E-004,2.29204E-001,-9.45466E-002,9.11926E-002,2.30371E-001,1.25758E+000,-1.21618E-002,0.00000E+000,1.02739E-002,9.11866E-001,0.00000E+000,-8.71618E-003,-6.84929E-002,1.00000E+000,37
1259,1307,3.59325E+001,-1.13795E+000,-1.10645E-001,1.45102E+001,-7.10180E-002,-7.25780E-002,1.45106E+001,1.81767E-002,4.46640E-001,0,2.16023E+002,-2.93032E+000,9.96950E-001,1.89427E+002,-2.89415E+001,9.94999E-001,2.30319E-001,-9.45227E-002,1.02074E-003,2.30323E-001,-9.45259E-002,1.80036E-001,2.31552E-001,1.25897E+000,-1.21441E-002,0.00000E+000,1.10473E-002,9.11876E-001,0.00000E+000,-6.46344E-003,-6.84642E-002,1.00000E+000,37
599,1327,-1.81432E+001,-7.01419E-001,1.28041E-001,3.45093E+000,-5.60998E-001,1.26993E-001,3.49853E+000,1.55700E-002,6.30205E-001,0,5.37708E+001,-9.51731E+000,9.97517E-001,1.22987E+001,-4.95905E+001,9.96865E-001,2.00080E-001,-8.43571E-002,-1.39794E-003,2.00087E-001,-8.43640E-002,-2.81587E-001,2.00904E-001,1.22128E+000,2.36236E-002,0.00000E+000,-2.02804E-002,9.21154E-001,0.00000E+000,-8.52197E-004,-7.03941E-002,1.00000E+000,37
599,1337,-1.81186E+001,-1.20745E-001,5.92849E-002,3.46977E+000,-6.12954E-001,8.43902E-002,3.52451E+000,1.50268E-002,6.21948E-001,0,5.41881E+001,-1.02616E+001,9.96871E-001,1.26195E+001,-5.05257E+001,9.97081E-001,1.97426E-001,-8.43616E-002,-1.18992E-003,1.97431E-001,-8.43667E-002,-2.41941E-001,1.98125E-001,1.21804E+000,2.35953E-002,0.00000E+000,-1.98579E-002,9.21158E-001,0.00000E+000,-1.78530E-003,-7.04023E-002,1.00000E+000,37
1259,1317,3.59398E+001,-5.47746E-001,-1.52066E-001,1.45017E+001,-1.30932E-001,-1.06113E-001,1.45027E+001,1.93898E-002,4.52227E-001,0,2.16038E+002,-3.85642E+000,9.97212E-001,1.89520E+002,-2.96585E+001,9.95925E-001,2.31432E-001,-9.44877E-002,1.53331E-003,2.31439E-001,-9.44949E-002,2.69544E-001,2.32733E-001,1.26036E+000,-1.21103E-002,0.00000E+000,1.18225E-002,9.11894E-001,0.00000E+000,-4.20547E-003,-6.84093E-002,1.00000E+000,37
599,1317,-1.81692E+001,-1.28174E+000,2.23976E-001,3.42634E+000,-5.11334E-001,1.70532E-001,3.46848E+000,1.91990E-002,6.06755E-001,0,5.32587E+001,-8.81139E+000,9.97299E-001,1.20357E+001,-4.87232E+001,9.97082E-001,2.02725E-001,-8.43500E-002,-1.61428E-003,2.02734E-001,-8.43590E-002,-3.22173E-001,2.03683E-001,1.22451E+000,2.36305E-002,0.00000E+000,-2.07028E-002,9.21153E-001,0.00000E+000,8.05463E-005,-7.03921E-002,1.00000E+000,37
589,1347,-1.88649E+001,4.82861E-001,3.19470E-002,3.35053E+000,-6.42300E-001,4.90041E-002,3.41189E+000,1.62077E-002,6.37139E-001,0,5.24516E+001,-1.06460E+001,9.97024E-001,1.13050E+001,-5.13000E+001,9.96933E-001,1.93870E-001,-8.39422E-002,-2.29741E-004,1.93870E-001,-8.39424E-002,-4.73817E-002,1.94449E-001,1.21364E+000,2.72597E-002,0.00000E+000,-2.08539E-002,9.21440E-001,0.00000E+000,-2.71944E-003,-6.91567E-002,1.00000E+000,37
589,1357,-1.88284E+001,1.06917E+000,3.02547E-002,3.37127E+000,-6.98662E-001,1.29588E-002,3.44293E+000,1.28448E-002,6.34185E-001,0,5.28737E+001,-1.14574E+001,9.97529E-001,1.20028E+001,-5.22943E+001,9.97796E-001,1.91126E-001,-8.39418E-002,-4.08918E-005,1.91126E-001,-8.39418E-002,-8.51765E-003,1.91596E-001,1.21032E+000,2.71809E-002,0.00000E+000,-2.04466E-002,9.21449E-001,0.00000E+000,-3.54611E-003,-6.91763E-002,1.00000E+000,37
589,1337,-1.88914E+001,-1.14324E-001,6.55211E-002,3.33439E+000,-6.01627E-001,8.46231E-002,3.38929E+000,1.12459E-002,6.14899E-001,0,5.21027E+001,-1.00682E+001,9.98339E-001,1.08491E+001,-5.05551E+001,9.98399E-001,1.96597E-001,-8.39395E-002,-4.28688E-004,1.96598E-001,-8.39402E-002,-8.75535E-002,1.97295E-001,1.21695E+000,2.73117E-002,0.00000E+000,-2.12599E-002,9.21433E-001,0.00000E+000,-1.89516E-003,-6.91438E-002,1.00000E+000,37
589,1327,-1.89078E+001,-6.77367E-001,1.39530E-001,3.32388E+000,-5.32848E-001,1.33818E-001,3.36898E+000,1.97570E-002,6.82817E-001,0,5.17944E+001,-9.09415E+000,9.98432E-001,1.06729E+001,-4.93273E+001,9.97507E-001,1.99300E-001,-8.39342E-002,-6.35295E-004,1.99302E-001,-8.39357E-002,-1.28513E-001,2.00126E-001,1.22025E+000,2.73412E-002,0.00000E+000,-2.16638E-002,9.21430E-001,0.00000E+000,-1.07549E-003,-6.91364E-002,1.00000E+000,37
1269,1327,3.67985E+001,6.65101E-002,-1.63059E-001,1.46673E+001,-1.77929E-001,-1.44046E-001,1.46691E+001,1.61859E-002,4.27651E-001,0,2.18449E+002,-4.59752E+000,9.97898E-001,1.93001E+002,-2.99827E+001,9.97185E-001,2.32401E-001,-9.36774E-002,2.71904E-003,2.32424E-001,-9.37001E-002,4.77722E-001,2.33873E-001,1.26159E+000,-1.09674E-002,0.00000E+000,1.30000E-002,9.12475E-001,0.00000E+000,-1.03002E-003,-6.60115E-002,1.00000E+000,37
1269,1337,3.68372E+001,6.59155E-001,-1.41114E-001,1.46714E+001,-2.45184E-001,-1.83672E-001,1.46746E+001,1.49154E-002,4.07651E-001,0,2.18646E+002,-5.62484E+000,9.97962E-001,1.93652E+002,-3.08138E+001,9.96692E-001,2.33646E-001,-9.35962E-002,3.38464E-003,2.33681E-001,-9.36312E-002,5.92522E-001,2.35212E-001,1.26316E+000,-1.08842E-002,0.00000E+000,1.40192E-002,9.12528E-001,0.00000E+000,1.42128E-003,-6.58824E-002,1.00000E+000,37
589,1317,-1.89399E+001,-1.25932E+000,2.38748E-001,3.29283E+000,-4.84804E-001,1.78908E-001,3.33314E+000,1.61406E-002,5.97358E-001,0,5.11783E+001,-8.39190E+000,9.96197E-001,1.03264E+001,-4.85215E+001,9.95228E-001,2.01999E-001,-8.39261E-002,-8.51626E-004,2.02002E-001,-8.39287E-002,-1.70653E-001,2.02961E-001,1.22354E+000,2.73467E-002,0.00000E+000,-2.20681E-002,9.21429E-001,0.00000E+000,-2.54701E-004,-6.91351E-002,1.00000E+000,37
1269,1317,3.67893E+001,-5.28952E-001,-1.48980E-001,1.46817E+001,-1.18778E-001,-1.09380E-001,1.46826E+001,1.65293E-002,4.09741E-001,0,2.18530E+002,-3.68005E+000,9.97586E-001,1.92851E+002,-2.92936E+001,9.96750E-001,2.31153E-001,-9.37367E-002,2.06537E-003,2.31166E-001,-9.37498E-002,3.64217E-001,2.32537E-001,1.26001E+000,-1.10241E-002,0.00000E+000,1.19847E-002,9.12438E-001,0.00000E+000,-3.47183E-003,-6.60995E-002,1.00000E+000,37
1269,1307,3.67792E+001,-1.12078E+000,-1.01109E-001,1.46875E+001,-6.07056E-002,-6.93712E-002,1.46878E+001,1.73987E-002,4.35195E-001,0,2.18446E+002,-2.80253E+000,9.96544E-001,1.92720E+002,-2.86021E+001,9.95370E-001,2.29902E-001,-9.37805E-002,1.42101E-003,2.29908E-001,-9.37868E-002,2.51529E-001,2.31204E-001,1.25845E+000,-1.10624E-002,0.00000E+000,1.09738E-002,9.12413E-001,0.00000E+000,-5.90314E-003,-6.61590E-002,1.00000E+000,37
1269,1297,3.67688E+001,-1.71072E+000,-4.35742E-002,1.46880E+001,-2.68008E-003,-3.87442E-002,1.46880E+001,1.81725E-002,4.39970E-001,0,2.18316E+002,-1.90763E+000,9.95925E-001,1.92596E+002,-2.79133E+001,9.94853E-001,2.28644E-001,-9.38139E-002,7.81621E-004,2.28646E-001,-9.38158E-002,1.38881E-001,2.29869E-001,1.25688E+000,-1.10884E-002,0.00000E+000,9.96392E-003,9.12396E-001,0.00000E+000,-8.33200E-003,-6.61995E-002,1.00000E+000,37
1269,1287,3.67813E+001,-2.28965E+000,8.14449E-002,1.46996E+001,6.10223E-002,1.59453E-002,1.46998E+001,2.28436E-002,4.03901E-001,0,2.18220E+002,-9.69338E-001,9.96454E-001,1.92900E+002,-2.72149E+001,9.94830E-001,2.27383E-001,-9.38240E-002,1.55252E-004,2.27383E-001,-9.38240E-002,2.76933E-002,2.28537E-001,1.25533E+000,-1.10865E-002,0.00000E+000,8.95781E-003,9.12398E-001,0.00000E+000,-1.07518E-002,-6.61966E-002,1.00000E+000,37
579,1347,-1.96339E+001,4.90215E-001,4.33326E-002,3.21879E+000,-6.30194E-001,5.58845E-002,3.28038E+000,1.35940E-002,6.37865E-001,0,5.04023E+001,-1.04506E+001,9.97179E-001,9.61246E+000,-5.13243E+001,9.97570E-001,1.92297E-001,-8.32148E-002,6.35134E-004,1.92298E-001,-8.32163E-002,1.32082E-001,1.92877E-001,1.21165E+000,3.10816E-002,0.00000E+000,-2.21522E-002,9.22030E-001,0.00000E+000,-3.28718E-003,-6.83677E-002,1.00000E+000,37
579,1357,-1.95897E+001,1.08890E+000,4.61099E-002,3.24709E+000,-6.74511E-001,2.24418E-002,3.31649E+000,1.38758E-002,6.48858E-001,0,5.09319E+001,-1.10831E+001,9.98290E-001,1.04452E+001,-5.21326E+001,9.98538E-001,1.89329E-001,-8.32154E-002,9.00522E-004,1.89332E-001,-8.32184E-002,1.89310E-001,1.89793E-001,1.20806E+000,3.09961E-002,0.00000E+000,-2.16029E-002,9.22043E-001,0.00000E+000,-4.24695E-003,-6.83906E-002,1.00000E+000,37
579,1337,-1.96696E+001,-1.03183E-001,7.98019E-002,3.19336E+000,-5.85971E-001,9.43680E-002,3.24805E+000,1.39784E-002,6.03126E-001,0,4.99000E+001,-9.81581E+000,9.96544E-001,9.02552E+000,-5.05328E+001,9.97160E-001,1.95244E-001,-8.32097E-002,3.58702E-004,1.95245E-001,-8.32101E-002,7.38079E-002,1.95953E-001,1.21522E+000,3.11368E-002,0.00000E+000,-2.26996E-002,9.22021E-001,0.00000E+000,-2.33070E-003,-6.83529E-002,1.00000E+000,37
579,1327,-1.96994E+001,-6.70223E-001,1.38404E-001,3.17004E+000,-5.21401E-001,1.31864E-001,3.21534E+000,1.39537E-002,6.69409E-001,0,4.94252E+001,-8.87096E+000,9.98143E-001,8.60033E+000,-4.93339E+001,9.97469E-001,1.98163E-001,-8.32014E-002,7.59965E-005,1.98163E-001,-8.32014E-002,1.54756E-002,1.99010E-001,1.21877E+000,3.11713E-002,0.00000E+000,-2.32437E-002,9.22016E-001,0.00000E+000,-1.38001E-003,-6.83437E-002,1.00000E+000,37
579,1317,-1.97196E+001,-1.24243E+000,2.39467E-001,3.15103E+000,-4.65146E-001,1.80419E-001,3.19028E+000,2.01545E-002,6.54614E-001,0,4.89870E+001,-8.06125E+000,9.96051E-001,8.44276E+000,-4.83436E+001,9.94856E-001,2.01072E-001,-8.31890E-002,-2.17363E-004,2.01072E-001,-8.31892E-002,-4.38118E-002,2.02067E-001,1.22232E+000,3.11782E-002,0.00000E+000,-2.37876E-002,9.22015E-001,0.00000E+000,-4.29643E-004,-6.83418E-002,1.00000E+000,37
1279,1317,3.76251E+001,-5.22676E-001,-1.53150E-001,1.48509E+001,-1.16780E-001,-1.07421E-001,1.48518E+001,1.38360E-002,3.88828E-001,0,2.20845E+002,-3.68765E+000,9.97354E-001,1.95963E+002,-2.90987E+001,9.95931E-001,2.30662E-001,-9.26040E-002,2.52036E-003,2.30681E-001,-9.26237E-002,4.46674E-001,2.32168E-001,1.25941E+000,-9.70247E-003,0.00000E+000,1.18386E-002,9.13321E-001,0.00000E+000,-2.68644E-003,-6.34675E-002,1.00000E+000,37
1279,1327,3.76530E+001,8.01656E-002,-1.61468E-001,1.48535E+001,-1.71037E-001,-1.41764E-001,1.48552E+001,2.38628E-002,4.41503E-001,0,2.21009E+002,-4.52940E+000,9.96080E-001,1.96411E+002,-2.96646E+001,9.95751E-001,2.32088E-001,-9.25312E-002,3.29335E-003,2.32121E-001,-9.25646E-002,5.81202E-001,2.33701E-001,1.26120E+000,-9.63321E-003,0.00000E+000,1.30651E-002,9.13368E-001,0.00000E+000,-1.01049E-004,-6.33680E-002,1.00000E+000,37
1279,1337,3.76875E+001,6.71891E-001,-1.39253E-001,1.48533E+001,-2.40767E-001,-1.80631E-001,1.48563E+001,1.83875E-002,4.33365E-001,0,2.21140E+002,-5.58099E+000,9.97327E-001,1.96993E+002,-3.05039E+001,9.96798E-001,2.33508E-001,-9.24361E-002,4.07772E-003,2.33559E-001,-9.24871E-002,7.16648E-001,2.35237E-001,1.26301E+000,-9.53806E-003,0.00000E+000,1.42953E-002,9.13433E-001,0.00000E+000,2.49226E-003,-6.32313E-002,1.00000E+000,37
1279,1307,3.76053E+001,-1.11223E+000,-1.08704E-001,1.48484E+001,-5.64181E-002,-6.63233E-002,1.48487E+001,1.53298E-002,4.22992E-001,0,2.20635E+002,-2.76677E+000,9.97167E-001,1.95679E+002,-2.83628E+001,9.95353E-001,2.29238E-001,-9.26576E-002,1.76115E-003,2.29247E-001,-9.26672E-002,3.13463E-001,2.30645E-001,1.25762E+000,-9.74973E-003,0.00000E+000,1.06220E-002,9.13289E-001,0.00000E+000,-5.25128E-003,-6.35354E-002,1.00000E+000,37
1279,1297,3.76026E+001,-1.69099E+000,-4.17868E-002,1.48532E+001,1.22960E-002,-3.91795E-002,1.48532E+001,2.88509E-002,4.11519E-001,0,2.20571E+002,-1.71011E+000,9.95468E-001,1.95684E+002,-2.75287E+001,9.94463E-001,2.27804E-001,-9.26880E-002,1.01184E-003,2.27807E-001,-9.26912E-002,1.80889E-001,2.29120E-001,1.25584E+000,-9.77026E-003,0.00000E+000,9.40529E-003,9.13275E-001,0.00000E+000,-7.81606E-003,-6.35649E-002,1.00000E+000,37
1279,1287,3.76132E+001,-2.29397E+000,6.82197E-002,1.48669E+001,5.36999E-002,1.50712E-002,1.48670E+001,2.64296E-002,3.25454E-001,0,2.20523E+002,-1.07771E+000,9.96179E-001,1.95942E+002,-2.72000E+001,9.93873E-001,2.26365E-001,-9.27076E-002,2.69104E-004,2.26365E-001,-9.27078E-002,4.83230E-002,2.27596E-001,1.25406E+000,-9.77889E-003,0.00000E+000,8.19238E-003,9.13269E-001,0.00000E+000,-1.03729E-002,-6.35773E-002,1.00000E+000,37
569,1347,-2.04032E+001,5.09238E-001,5.18834E-002,3.08669E+000,-6.06514E-001,6.16060E-002,3.14632E+000,1.44967E-002,6.65958E-001,0,4.83451E+001,-1.00798E+001,9.96796E-001,7.91672E+000,-5.11500E+001,9.96744E-001,1.91258E-001,-8.23676E-002,1.34380E-003,1.91265E-001,-8.23742E-002,2.81375E-001,1.91876E-001,1.21028E+000,3.50517E-002,0.00000E+000,-2.38829E-002,9.22730E-001,0.00000E+000,-3.40730E-003,-6.77386E-002,1.00000E+000,37
569,1357,-2.03628E+001,1.09766E+000,4.33171E-002,3.11269E+000,-6.58746E-001,2.44820E-002,3.18172E+000,1.35246E-002,6.52813E-001,0,4.88511E+001,-1.08311E+001,9.97739E-001,8.65801E+000,-5.21056E+001,9.97524E-001,1.88105E-001,-8.23726E-002,1.76676E-003,1.88116E-001,-8.23842E-002,3.74235E-001,1.88599E-001,1.20648E+000,3.49692E-002,0.00000E+000,-2.30422E-002,9.22748E-001,0.00000E+000,-4.60029E-003,-6.77645E-002,1.00000E+000,37
569,1327,-2.04707E+001,-6.68127E-001,1.39445E-001,3.03669E+000,-5.13939E-001,1.36280E-001,3.08289E+000,2.12648E-002,6.90559E-001,0,4.73578E+001,-8.75199E+000,9.98361E-001,6.84610E+000,-4.94028E+001,9.97935E-001,1.97504E-001,-8.23427E-002,4.76100E-004,1.97505E-001,-8.23435E-002,9.74762E-002,1.98412E-001,1.21786E+000,3.51515E-002,0.00000E+000,-2.55582E-002,9.22708E-001,0.00000E+000,-1.03017E-003,-6.77073E-002,1.00000E+000,37
569,1337,-2.04393E+001,-8.10461E-002,8.68281E-002,3.06017E+000,-5.60172E-001,9.48161E-002,3.11246E+000,1.35940E-002,6.41716E-001,0,4.78391E+001,-9.40141E+000,9.97078E-001,7.31999E+000,-5.03001E+001,9.97258E-001,1.94393E-001,-8.23562E-002,9.10657E-004,1.94396E-001,-8.23592E-002,1.88532E-001,1.95150E-001,1.21408E+000,3.51060E-002,0.00000E+000,-2.47222E-002,9.22718E-001,0.00000E+000,-2.21647E-003,-6.77215E-002,1.00000E+000,37
1289,1327,3.84823E+001,8.35914E-002,-1.78951E-001,1.50171E+001,-1.72104E-001,-1.47732E-001,1.50188E+001,2.18122E-002,4.14033E-001,0,2.23276E+002,-4.55205E+000,9.95086E-001,1.99411E+002,-2.94875E+001,9.93929E-001,2.31817E-001,-9.10216E-002,3.86498E-003,2.31863E-001,-9.10679E-002,6.85807E-001,2.33634E-001,1.26088E+000,-7.87502E-003,0.00000E+000,1.28236E-002,9.14597E-001,0.00000E+000,8.80003E-004,-6.05590E-002,1.00000E+000,37
1289,1337,3.85220E+001,6.86802E-001,-1.47968E-001,1.50219E+001,-2.30791E-001,-1.77150E-001,1.50248E+001,2.02364E-002,4.29498E-001,0,2.23436E+002,-5.46456E+000,9.96986E-001,2.00081E+002,-3.01533E+001,9.96111E-001,2.33527E-001,-9.09164E-002,4.74721E-003,2.33596E-001,-9.09859E-002,8.38106E-001,2.35490E-001,1.26306E+000,-7.76024E-003,0.00000E+000,1.42185E-002,9.14670E-001,0.00000E+000,3.69226E-003,-6.04106E-002,1.00000E+000,37
569,1317,-2.05005E+001,-1.23032E+000,2.39670E-001,3.00664E+000,-4.48008E-001,1.74746E-001,3.04486E+000,2.28279E-002,6.57236E-001,0,4.67711E+001,-7.77630E+000,9.96548E-001,6.54477E+000,-4.82655E+001,9.94868E-001,2.00602E-001,-8.23188E-002,2.35249E-005,2.00602E-001,-8.23188E-002,4.76416E-003,2.01673E-001,1.22163E+000,3.51501E-002,0.00000E+000,-2.63937E-002,9.22708E-001,0.00000E+000,1.55401E-004,-6.77077E-002,1.00000E+000,37
1289,1317,3.84590E+001,-5.16888E-001,-1.55037E-001,1.50167E+001,-1.19080E-001,-1.06696E-001,1.50176E+001,2.13584E-002,4.57904E-001,0,2.23112E+002,-3.75141E+000,9.97459E-001,1.99052E+002,-2.88722E+001,9.94766E-001,2.30109E-001,-9.10955E-002,3.00368E-003,2.30137E-001,-9.11235E-002,5.35728E-001,2.31792E-001,1.25872E+000,-7.95075E-003,0.00000E+000,1.14403E-002,9.14548E-001,0.00000E+000,-1.90889E-003,-6.06569E-002,1.00000E+000,37
1289,1287,3.84437E+001,-2.26820E+000,5.55087E-002,1.50305E+001,7.38471E-002,8.43232E-003,1.50306E+001,2.74155E-002,4.22995E-001,0,2.22778E+002,-8.14972E-001,9.96308E-001,1.98967E+002,-2.66296E+001,9.93090E-001,2.24930E-001,-9.12091E-002,4.74618E-004,2.24931E-001,-9.12098E-002,8.60177E-002,2.26266E-001,1.25227E+000,-8.04680E-003,0.00000E+000,7.30385E-003,9.14487E-001,0.00000E+000,-1.02485E-002,-6.07810E-002,1.00000E+000,37
1289,1297,3.84298E+001,-1.68185E+000,-5.90838E-002,1.50099E+001,1.60120E-002,-6.34166E-002,1.50101E+001,3.41839E-002,3.98155E-001,0,2.22806E+002,-1.64080E+000,9.96242E-001,1.98654E+002,-2.72618E+001,9.92160E-001,2.26660E-001,-9.11801E-002,1.31022E-003,2.26665E-001,-9.11855E-002,2.36183E-001,2.28103E-001,1.25441E+000,-8.02483E-003,0.00000E+000,8.67597E-003,9.14501E-001,0.00000E+000,-7.48214E-003,-6.07526E-002,1.00000E+000,37
1289,1307,3.84476E+001,-1.10532E+000,-1.14983E-001,1.50214E+001,-5.64756E-002,-7.50696E-002,1.50216E+001,1.77130E-002,4.57318E-001,0,2.23044E+002,-2.78402E+000,9.98604E-001,1.98895E+002,-2.81270E+001,9.96822E-001,2.28391E-001,-9.11507E-002,2.15132E-003,2.28405E-001,-9.11652E-002,3.85723E-001,2.29949E-001,1.25657E+000,-8.00370E-003,0.00000E+000,1.00586E-002,9.14514E-001,0.00000E+000,-4.69465E-003,-6.07253E-002,1.00000E+000,37
559,1327,-2.12295E+001,-6.58820E-001,1.36162E-001,2.91461E+000,-5.00887E-001,1.30760E-001,2.96022E+000,3.58190E-002,7.88153E-001,0,4.54880E+001,-8.55098E+000,9.98720E-001,5.27795E+000,-4.93121E+001,9.97872E-001,1.96790E-001,-8.20629E-002,1.17699E-003,1.96795E-001,-8.20679E-002,2.41830E-001,1.97696E-001,1.21686E+000,3.94210E-002,0.00000E+000,-2.75187E-002,9.22840E-001,0.00000E+000,-7.80665E-004,-6.65465E-002,1.00000E+000,37
559,1337,-2.12100E+001,-6.87650E-002,8.33616E-002,2.92648E+000,-5.42993E-001,9.06089E-002,2.97781E+000,1.12007E-002,6.65780E-001,0,4.57829E+001,-9.11058E+000,9.98956E-001,5.57065E+000,-5.02036E+001,9.98722E-001,1.93756E-001,-8.20746E-002,1.49649E-003,1.93764E-001,-8.20827E-002,3.10840E-001,1.94516E-001,1.21317E+000,3.93788E-002,0.00000E+000,-2.68997E-002,9.22847E-001,0.00000E+000,-2.12178E-003,-6.65619E-002,1.00000E+000,37
559,1347,-2.11805E+001,5.22328E-001,4.56133E-002,2.94656E+000,-5.86769E-001,5.39811E-002,3.00490E+000,1.73134E-002,6.28462E-001,0,4.61959E+001,-9.73389E+000,9.96917E-001,6.06129E+000,-5.10687E+001,9.96488E-001,1.90702E-001,-8.20845E-002,1.81306E-003,1.90714E-001,-8.20966E-002,3.80790E-001,1.91328E-001,1.20948E+000,3.93263E-002,0.00000E+000,-2.62790E-002,9.22856E-001,0.00000E+000,-3.46630E-003,-6.65810E-002,1.00000E+000,37
559,1357,-2.11355E+001,1.11088E+000,3.88883E-002,2.97784E+000,-6.37804E-001,2.24409E-002,3.04546E+000,1.52309E-002,6.26686E-001,0,4.67698E+001,-1.04901E+001,9.96911E-001,6.87807E+000,-5.20221E+001,9.97093E-001,1.87626E-001,-8.20907E-002,2.12171E-003,1.87643E-001,-8.21074E-002,4.50677E-001,1.88130E-001,1.20578E+000,3.92505E-002,0.00000E+000,-2.56561E-002,9.22868E-001,0.00000E+000,-4.81555E-003,-6.66086E-002,1.00000E+000,37
559,1317,-2.12684E+001,-1.20943E+000,2.44141E-001,2.87508E+000,-4.23983E-001,1.74250E-001,2.91139E+000,3.36659E-002,6.99930E-001,0,4.47376E+001,-7.38492E+000,9.98266E-001,4.86676E+000,-4.80401E+001,9.96915E-001,1.99813E-001,-8.20439E-002,8.39245E-004,1.99816E-001,-8.20464E-002,1.70599E-001,2.00878E-001,1.22054E+000,3.94171E-002,0.00000E+000,-2.81381E-002,9.22840E-001,0.00000E+000,5.61110E-004,-6.65479E-002,1.00000E+000,37
1299,1327,3.93208E+001,1.01019E-001,-1.64750E-001,1.51851E+001,-1.62106E-001,-1.36982E-001,1.51866E+001,2.79068E-002,4.35632E-001,0,2.25518E+002,-4.45595E+000,9.94956E-001,2.02590E+002,-2.91371E+001,9.93403E-001,2.31638E-001,-8.93143E-002,4.41288E-003,2.31699E-001,-8.93750E-002,7.87580E-001,2.33707E-001,1.26067E+000,-5.34490E-003,0.00000E+000,1.20059E-002,9.16011E-001,0.00000E+000,1.44736E-003,-5.74984E-002,1.00000E+000,37
1299,1337,3.93788E+001,6.99386E-001,-1.41731E-001,1.52068E+001,-2.27296E-001,-1.78914E-001,1.52096E+001,2.52774E-002,4.61647E-001,0,2.25981E+002,-5.43746E+000,9.94880E-001,2.03536E+002,-2.98521E+001,9.93265E-001,2.33698E-001,-8.91976E-002,5.38866E-003,2.33788E-001,-8.92875E-002,9.55829E-001,2.35951E-001,1.26330E+000,-5.20090E-003,0.00000E+000,1.35573E-002,9.16096E-001,0.00000E+000,4.43012E-003,-5.73346E-002,1.00000E+000,37
1299,1287,3.92859E+001,-2.26054E+000,6.02314E-002,1.52009E+001,7.26798E-002,3.45491E-003,1.52011E+001,2.01437E-002,4.99179E-001,0,2.25124E+002,-8.55681E-001,9.97191E-001,2.02196E+002,-2.63884E+001,9.95126E-001,2.23362E-001,-8.95039E-002,6.92482E-004,2.23363E-001,-8.95054E-002,1.26815E-001,2.24826E-001,1.25032E+000,-5.54605E-003,0.00000E+000,5.88105E-003,9.15892E-001,0.00000E+000,-1.03285E-002,-5.77273E-002,1.00000E+000,37
1299,1297,3.92907E+001,-1.68010E+000,-1.75460E-002,1.52005E+001,9.19580E-003,-2.62012E-002,1.52005E+001,2.03413E-002,4.78249E-001,0,2.25266E+002,-1.85762E+000,9.98300E-001,2.02212E+002,-2.71862E+001,9.95955E-001,2.25442E-001,-8.94793E-002,1.60752E-003,2.25450E-001,-8.94875E-002,2.92456E-001,2.27041E-001,1.25290E+000,-5.52522E-003,0.00000E+000,7.40447E-003,9.15904E-001,0.00000E+000,-7.39954E-003,-5.77036E-002,1.00000E+000,37
1299,1307,3.92932E+001,-1.10109E+000,-1.36460E-001,1.51924E+001,-6.13610E-002,-1.16256E-001,1.51930E+001,5.13946E-002,2.94529E-001,0,2.25560E+002,-2.71445E+000,9.97338E-001,2.02156E+002,-2.79982E+001,9.90953E-001,2.27521E-001,-8.94382E-002,2.53632E-003,2.27542E-001,-8.94585E-002,4.58443E-001,2.29267E-001,1.25549E+000,-5.48311E-003,0.00000E+000,8.93804E-003,9.15929E-001,0.00000E+000,-4.45102E-003,-5.76557E-002,1.00000E+000,37
1299,1317,3.93205E+001,-4.94965E-001,-1.38060E-001,1.52042E+001,-1.06169E-001,-1.06888E-001,1.52050E+001,3.51766E-002,4.72457E-001,0,2.25678E+002,-3.58798E+000,9.95373E-001,2.02596E+002,-2.84599E+001,9.93271E-001,2.29587E-001,-8.93823E-002,3.47206E-003,2.29625E-001,-8.94201E-002,6.23581E-001,2.31489E-001,1.25808E+000,-5.42174E-003,0.00000E+000,1.04720E-002,9.15966E-001,0.00000E+000,-1.50183E-003,-5.75858E-002,1.00000E+000,37
559,1307,-2.13040E+001,-1.78196E+000,3.61552E-001,2.83703E+000,-3.70154E-001,2.16123E-001,2.86922E+000,1.70484E-002,6.65683E-001,0,4.40189E+001,-6.61040E+000,9.96688E-001,4.52718E+000,-4.70954E+001,9.95205E-001,2.02825E-001,-8.20232E-002,4.98224E-004,2.02826E-001,-8.20241E-002,1.00215E-001,2.04058E-001,1.22422E+000,3.94034E-002,0.00000E+000,-2.87574E-002,9.22843E-001,0.00000E+000,1.90269E-003,-6.65529E-002,1.00000E+000,37
549,1347,-2.19413E+001,5.40426E-001,4.87316E-002,2.82250E+000,-5.64303E-001,5.58968E-002,2.87890E+000,1.53837E-002,6.65415E-001,0,4.42697E+001,-9.37090E+000,9.96701E-001,4.49117E+000,-5.08918E+001,9.96286E-001,1.90171E-001,-8.16536E-002,2.37557E-003,1.90192E-001,-8.16744E-002,5.00677E-001,1.90822E-001,1.20870E+000,4.33649E-002,0.00000E+000,-2.83377E-002,9.23113E-001,0.00000E+000,-3.43075E-003,-6.52233E-002,1.00000E+000,37
549,1357,-2.18971E+001,1.13987E+000,4.46329E-002,2.85229E+000,-6.05246E-001,2.17000E-002,2.91588E+000,1.66697E-002,6.38211E-001,0,4.48241E+001,-9.94565E+000,9.96761E-001,5.30813E+000,-5.16987E+001,9.96799E-001,1.87214E-001,-8.16605E-002,2.66987E-003,1.87240E-001,-8.16871E-002,5.68862E-001,1.87746E-001,1.20515E+000,4.32887E-002,0.00000E+000,-2.77403E-002,9.23125E-001,0.00000E+000,-4.91773E-003,-6.52552E-002,1.00000E+000,37
549,1327,-2.20356E+001,-6.30577E-001,1.61975E-001,2.74336E+000,-4.68261E-001,1.44355E-001,2.78678E+000,2.84390E-002,7.22443E-001,0,4.27901E+001,-8.02800E+000,9.97354E-001,3.08950E+000,-4.90814E+001,9.95460E-001,1.96026E-001,-8.16284E-002,1.76165E-003,1.96037E-001,-8.16395E-002,3.63509E-001,1.96947E-001,1.21579E+000,4.34452E-002,0.00000E+000,-2.95273E-002,9.23099E-001,0.00000E+000,-4.69673E-004,-6.51898E-002,1.00000E+000,37
549,1337,-2.19771E+001,-4.67093E-002,8.65469E-002,2.79572E+000,-5.14656E-001,9.05573E-002,2.84414E+000,1.21434E-002,6.45563E-001,0,4.37556E+001,-8.65905E+000,9.98160E-001,3.90544E+000,-4.99934E+001,9.98152E-001,1.93115E-001,-8.16422E-002,2.07043E-003,1.93131E-001,-8.16578E-002,4.31720E-001,1.93896E-001,1.21226E+000,4.34130E-002,0.00000E+000,-2.89347E-002,9.23104E-001,0.00000E+000,-1.94469E-003,-6.52032E-002,1.00000E+000,37
1309,1317,4.01408E+001,-4.94857E-001,-1.61982E-001,1.53580E+001,-1.09860E-001,-1.18998E-001,1.53588E+001,2.84788E-002,4.41806E-001,0,2.27821E+002,-3.64086E+000,9.95223E-001,2.05458E+002,-2.83254E+001,9.93167E-001,2.29527E-001,-8.79491E-002,4.08596E-003,2.29579E-001,-8.80017E-002,7.37241E-001,2.31654E-001,1.25802E+000,-1.92129E-003,0.00000E+000,9.08937E-003,9.17144E-001,0.00000E+000,-1.65526E-003,-5.45582E-002,1.00000E+000,37
1309,1327,4.01680E+001,1.07693E-001,-1.83924E-001,1.53631E+001,-1.61205E-001,-1.54083E-001,1.53647E+001,3.32942E-002,4.18168E-001,0,2.28031E+002,-4.43380E+000,9.94009E-001,2.05879E+002,-2.88991E+001,9.91465E-001,2.31947E-001,-8.78820E-002,4.98030E-003,2.32025E-001,-8.79596E-002,8.91907E-001,2.34275E-001,1.26108E+000,-1.81777E-003,0.00000E+000,1.05285E-002,9.17193E-001,0.00000E+000,1.37790E-003,-5.44555E-002,1.00000E+000,37
1309,1337,4.02207E+001,7.14341E-001,-1.48570E-001,1.53805E+001,-2.17448E-001,-1.78808E-001,1.53831E+001,3.46246E-002,4.59992E-001,0,2.28354E+002,-5.32743E+000,9.95686E-001,2.06751E+002,-2.95036E+001,9.94602E-001,2.34372E-001,-8.77799E-002,5.90419E-003,2.34480E-001,-8.78881E-002,1.04961E+000,2.36917E-001,1.26416E+000,-1.65369E-003,0.00000E+000,1.19802E-002,9.17270E-001,0.00000E+000,4.43770E-003,-5.42927E-002,1.00000E+000,37
549,1317,-2.20457E+001,-1.19385E+000,2.70579E-001,2.73369E+000,-4.04660E-001,1.95828E-001,2.77041E+000,2.44776E-002,7.82450E-001,0,4.24915E+001,-7.14463E+000,9.97993E-001,3.11454E+000,-4.79246E+001,9.96655E-001,1.98925E-001,-8.16098E-002,1.44130E-003,1.98932E-001,-8.16172E-002,2.94357E-001,1.99997E-001,1.21932E+000,4.34474E-002,0.00000E+000,-3.01199E-002,9.23099E-001,0.00000E+000,1.00545E-003,-6.51888E-002,1.00000E+000,37
549,1307,-2.20729E+001,-1.76578E+000,3.56885E-001,2.70487E+000,-3.49593E-001,2.12233E-001,2.73561E+000,1.65086E-002,6.99496E-001,0,4.19845E+001,-6.27183E+000,9.97387E-001,2.81053E+000,-4.69260E+001,9.96477E-001,2.01820E-001,-8.15895E-002,1.11660E-003,2.01824E-001,-8.15938E-002,2.25734E-001,2.03053E-001,1.22286E+000,4.34391E-002,0.00000E+000,-3.07138E-002,9.23100E-001,0.00000E+000,2.48374E-003,-6.51923E-002,1.00000E+000,37
1309,1287,4.01267E+001,-2.25996E+000,5.53079E-002,1.53686E+001,6.74445E-002,-1.44898E-002,1.53688E+001,1.70609E-002,4.80685E-001,0,2.27482E+002,-9.37856E-001,9.97608E-001,2.05397E+002,-2.62845E+001,9.95256E-001,2.22200E-001,-8.80342E-002,1.48528E-003,2.22207E-001,-8.80413E-002,2.74301E-001,2.23797E-001,1.24889E+000,-2.03690E-003,0.00000E+000,4.79130E-003,9.17090E-001,0.00000E+000,-1.07142E-002,-5.46729E-002,1.00000E+000,37
1309,1297,4.01279E+001,-1.68613E+000,-3.32992E-002,1.53663E+001,-4.34903E-003,-4.82433E-002,1.53663E+001,2.36472E-002,4.64598E-001,0,2.27623E+002,-2.02371E+000,9.97076E-001,2.05347E+002,-2.71585E+001,9.94329E-001,2.24656E-001,-8.80194E-002,2.34331E-003,2.24674E-001,-8.80370E-002,4.29364E-001,2.26419E-001,1.25193E+000,-2.02042E-003,0.00000E+000,6.22256E-003,9.17098E-001,0.00000E+000,-7.69758E-003,-5.46566E-002,1.00000E+000,37
1309,1307,4.01289E+001,-1.08485E+000,-1.21364E-001,1.53624E+001,-4.70878E-002,-8.67111E-002,1.53628E+001,2.66596E-002,3.82754E-001,0,2.27747E+002,-2.66095E+000,9.96825E-001,2.05297E+002,-2.76380E+001,9.95625E-001,2.27089E-001,-8.79999E-002,3.20072E-003,2.27121E-001,-8.80324E-002,5.81939E-001,2.29026E-001,1.25496E+000,-1.99754E-003,0.00000E+000,7.64949E-003,9.17108E-001,0.00000E+000,-4.69007E-003,-5.46339E-002,1.00000E+000,37
539,1347,-2.27081E+001,5.63007E-001,5.14041E-002,2.69180E+000,-5.35989E-001,5.62789E-002,2.74522E+000,1.38500E-002,6.56076E-001,0,4.22395E+001,-8.91183E+000,9.97316E-001,2.83405E+000,-5.06695E+001,9.97254E-001,1.89697E-001,-8.09892E-002,2.57043E-003,1.89721E-001,-8.10136E-002,5.44014E-001,1.90394E-001,1.20800E+000,4.69574E-002,0.00000E+000,-3.07542E-002,9.23558E-001,0.00000E+000,-3.40676E-003,-6.36724E-002,1.00000E+000,37
539,1357,-2.26628E+001,1.16580E+000,4.20114E-002,2.72383E+000,-5.72895E-001,2.27726E-002,2.78352E+000,1.25410E-002,6.53935E-001,0,4.28265E+001,-9.43141E+000,9.98211E-001,3.65422E+000,-5.14029E+001,9.97929E-001,1.86946E-001,-8.09967E-002,2.81254E-003,1.86975E-001,-8.10262E-002,6.01333E-001,1.87528E-001,1.20469E+000,4.68922E-002,0.00000E+000,-3.02587E-002,9.23568E-001,0.00000E+000,-5.00228E-003,-6.37038E-002,1.00000E+000,37
539,1327,-2.27833E+001,-6.04289E-001,1.39638E-001,2.63210E+000,-4.34463E-001,1.22478E-001,2.67052E+000,1.56604E-002,6.39379E-001,0,4.11216E+001,-7.42677E+000,9.94608E-001,1.64971E+000,-4.87787E+001,9.94994E-001,1.95151E-001,-8.09668E-002,2.06665E-003,1.95166E-001,-8.09823E-002,4.28807E-001,1.96105E-001,1.21459E+000,4.70332E-002,0.00000E+000,-3.17422E-002,9.23547E-001,0.00000E+000,-2.25043E-004,-6.36358E-002,1.00000E+000,37
539,1337,-2.27453E+001,-1.93894E-002,8.46700E-002,2.66353E+000,-4.81879E-001,8.60228E-002,2.70813E+000,1.43991E-002,6.41632E-001,0,4.17138E+001,-8.12138E+000,9.96544E-001,2.21514E+000,-4.96841E+001,9.96864E-001,1.92435E-001,-8.09788E-002,2.32016E-003,1.92454E-001,-8.09984E-002,4.86159E-001,1.93256E-001,1.21130E+000,4.70012E-002,0.00000E+000,-3.12493E-002,9.23551E-001,0.00000E+000,-1.81249E-003,-6.36512E-002,1.00000E+000,37
1319,1297,4.09419E+001,-1.67743E+000,-6.84915E-002,1.55134E+001,2.19857E-003,-7.20260E-002,1.55135E+001,2.08031E-002,3.64089E-001,0,2.29711E+002,-1.87996E+000,9.97639E-001,2.08107E+002,-2.69056E+001,9.95396E-001,2.24071E-001,-8.64939E-002,3.34564E-003,2.24107E-001,-8.65299E-002,6.17138E-001,2.26037E-001,1.25121E+000,2.39871E-003,0.00000E+000,4.86520E-003,9.18356E-001,0.00000E+000,-8.17078E-003,-5.14540E-002,1.00000E+000,37
1319,1307,4.09586E+001,-1.08751E+000,-1.36525E-001,1.55219E+001,-5.46981E-002,-1.02103E-001,1.55223E+001,2.56520E-002,3.49650E-001,0,2.29978E+002,-2.77096E+000,9.97029E-001,2.08320E+002,-2.75681E+001,9.96361E-001,2.26894E-001,-8.64709E-002,4.19290E-003,2.26950E-001,-8.65270E-002,7.66449E-001,2.29073E-001,1.25473E+000,2.44293E-003,0.00000E+000,6.27166E-003,9.18374E-001,0.00000E+000,-5.03952E-003,-5.14146E-002,1.00000E+000,37
539,1307,-2.28452E+001,-1.75392E+000,3.41667E-001,2.56856E+000,-3.31737E-001,1.94583E-001,2.59720E+000,1.24110E-002,6.57011E-001,0,3.99175E+001,-5.93844E+000,9.97505E-001,1.01675E+000,-4.68396E+001,9.97140E-001,2.00537E-001,-8.09332E-002,1.53328E-003,2.00545E-001,-8.09416E-002,3.12101E-001,2.01784E-001,1.22116E+000,4.70251E-002,0.00000E+000,-3.27256E-002,9.23548E-001,0.00000E+000,2.94184E-003,-6.36397E-002,1.00000E+000,37
539,1317,-2.28156E+001,-1.18718E+000,2.36188E-001,2.60054E+000,-3.89792E-001,1.63858E-001,2.63469E+000,1.48012E-002,6.69983E-001,0,4.05117E+001,-6.81109E+000,9.96141E-001,1.29697E+000,-4.79136E+001,9.95256E-001,1.97851E-001,-8.09510E-002,1.80258E-003,1.97862E-001,-8.09627E-002,3.70422E-001,1.98947E-001,1.21788E+000,4.70368E-002,0.00000E+000,-3.22343E-002,9.23546E-001,0.00000E+000,1.35947E-003,-6.36341E-002,1.00000E+000,37
1319,1287,4.09530E+001,-2.26860E+000,3.33261E-002,1.55255E+001,5.40023E-002,-3.36971E-002,1.55257E+001,2.17231E-002,4.29699E-001,0,2.29697E+002,-1.10701E+000,9.96961E-001,2.08360E+002,-2.63061E+001,9.96176E-001,2.21239E-001,-8.64976E-002,2.51546E-003,2.21259E-001,-8.65182E-002,4.68298E-001,2.23004E-001,1.24771E+000,2.39258E-003,0.00000E+000,3.46316E-003,9.18354E-001,0.00000E+000,-1.12922E-002,-5.14594E-002,1.00000E+000,37
529,1327,-2.35479E+001,-5.86029E-001,1.44538E-001,2.50271E+000,-4.10883E-001,1.22347E-001,2.53916E+000,1.40383E-002,6.43487E-001,0,3.91122E+001,-7.05465E+000,9.94353E-001,3.85478E-002,-4.86165E+001,9.94627E-001,1.94485E-001,-7.96422E-002,2.51004E-003,1.94508E-001,-7.96652E-002,5.24569E-001,1.95565E-001,1.21369E+000,4.94757E-002,0.00000E+000,-3.28733E-002,9.24643E-001,0.00000E+000,3.98820E-004,-6.20262E-002,1.00000E+000,37
529,1307,-2.36112E+001,-1.73255E+000,3.43713E-001,2.43722E+000,-3.05756E-001,1.88125E-001,2.46352E+000,1.68358E-002,6.24611E-001,0,3.78940E+001,-5.49938E+000,9.97759E-001,-6.20961E-001,-4.66380E+001,9.97007E-001,1.99142E-001,-7.96458E-002,2.46281E-003,1.99164E-001,-7.96675E-002,5.06097E-001,2.00487E-001,1.21936E+000,4.94661E-002,0.00000E+000,-3.29769E-002,9.24643E-001,0.00000E+000,3.88027E-003,-6.20320E-002,1.00000E+000,37
529,1317,-2.35817E+001,-1.16537E+000,2.33021E-001,2.47053E+000,-3.62336E-001,1.61383E-001,2.50217E+000,1.42209E-002,6.02269E-001,0,3.84990E+001,-6.33185E+000,9.97399E-001,-3.59152E-001,-4.77139E+001,9.96652E-001,1.96819E-001,-7.96438E-002,2.49089E-003,1.96842E-001,-7.96663E-002,5.16171E-001,1.98029E-001,1.21652E+000,4.94824E-002,0.00000E+000,-3.29251E-002,9.24643E-001,0.00000E+000,2.14051E-003,-6.20220E-002,1.00000E+000,37
