Coordinates.Image X [Pixel],Coordinates.Image Y [Pixel],coor.X [mm],coor.Y [mm],coor.Z [mm],disp.Horizontal Displacement U [mm],disp.Vertical Displacement V [mm],disp.Out-Of-Plane: W [mm],disp.Displacement Magnitude [mm],stats.Sigma [mm],stats.Epipolar Distance [Pixel],stats.Shape Index [-],SameCamera.Horizontal: u [Pixel],SameCamera.Vertical: v [Pixel],SameCamera.Correlation Value 2D [-],CrossCamera.Horizontal: q [Pixel],CrossCamera.Vertical: r [Pixel],CrossCamera.Correlation Value Persp [-],strain.Strain-global frame: Exx [ ],strain.Strain-global frame: Eyy [ ],strain.Strain-global frame: Exy [ ],strain.Maximum Principal Strain: EI [ ],strain.Minimum Principal Strain: EII [ ],strain.Shear Angle Gamma [deg],strain.Von Mises Equivalent Strain [ ],defgradient.F[0,0] [-],defgradient.F[0,1] [-],defgradient.F[0,2] [-],defgradient.F[1,0] [-],defgradient.F[1,1] [-],defgradient.F[1,2] [-],defgradient.F[2,0] [-],defgradient.F[2,1] [-],defgradient.F[2,2] [-],ext.Current Image [#]
929,1317,6.36972E-001,-7.87766E-001,-1.90812E-002,9.73042E-001,-1.71407E-001,6.76394E-002,9.90336E-001,5.99049E-003,4.96332E-001,0,1.47545E+001,-2.93023E+000,9.99874E-001,-2.98442E+001,-3.80943E+001,9.98966E-001,2.71774E-002,-1.12865E-002,3.75935E-004,2.71811E-002,-1.12902E-002,5.59921E-001,2.73106E-002,1.02756E+000,-8.04682E-003,0.00000E+000,8.88974E-003,9.89807E-001,0.00000E+000,-8.95743E-003,-4.64526E-002,1.00000E+000,4
919,1307,-4.24987E-002,-1.43420E+000,1.02785E-002,9.60122E-001,-1.68562E-001,1.01796E-001,9.80107E-001,8.23227E-003,5.08702E-001,0,1.44564E+001,-2.95311E+000,9.99855E-001,-3.03768E+001,-3.82233E+001,9.96947E-001,2.79334E-002,-1.11443E-002,2.23242E-004,2.79346E-002,-1.11455E-002,3.27305E-001,2.81240E-002,1.02833E+000,-7.26740E-003,0.00000E+000,7.81113E-003,9.89991E-001,0.00000E+000,-8.32426E-003,-4.72010E-002,1.00000E+000,4
919,1317,-4.58153E-002,-8.07603E-001,-6.72349E-002,9.53994E-001,-1.76966E-001,7.51936E-002,9.73178E-001,8.24753E-003,4.63230E-001,0,1.44522E+001,-3.02533E+000,9.99818E-001,-3.04929E+001,-3.84047E+001,9.97146E-001,2.72093E-002,-1.11469E-002,1.05170E-004,2.72096E-002,-1.11472E-002,1.57100E-001,2.73572E-002,1.02758E+000,-7.27071E-003,0.00000E+000,7.53994E-003,9.89990E-001,0.00000E+000,-7.34353E-003,-4.71967E-002,1.00000E+000,4
919,1327,-3.27831E-002,-1.69742E-001,-8.70181E-002,9.49901E-001,-1.86173E-001,4.02796E-002,9.68811E-001,7.60657E-003,5.23207E-001,0,1.45045E+001,-3.10565E+000,9.99839E-001,-3.02236E+001,-3.84827E+001,9.97874E-001,2.64730E-002,-1.11547E-002,-2.28295E-005,2.64730E-002,-1.11547E-002,-3.47626E-002,2.65819E-002,1.02682E+000,-7.29096E-003,0.00000E+000,7.26468E-003,9.89982E-001,0.00000E+000,-6.34807E-003,-4.71703E-002,1.00000E+000,4
929,1307,6.35643E-001,-1.41703E+000,4.12826E-002,9.78895E-001,-1.62390E-001,9.69823E-002,9.97002E-001,5.72555E-003,5.25547E-001,0,1.47453E+001,-2.84875E+000,9.99905E-001,-2.98390E+001,-3.79269E+001,9.99144E-001,2.79194E-002,-1.12840E-002,4.47540E-004,2.79245E-002,-1.12891E-002,6.53967E-001,2.80946E-002,1.02833E+000,-8.03814E-003,0.00000E+000,9.06942E-003,9.89809E-001,0.00000E+000,-1.00881E-002,-4.64653E-002,1.00000E+000,4
929,1327,6.44893E-001,-1.53183E-001,-5.38200E-002,9.67526E-001,-1.79167E-001,3.50800E-002,9.84601E-001,4.80892E-003,4.77151E-001,0,1.47780E+001,-2.99255E+000,9.99887E-001,-2.96888E+001,-3.82301E+001,9.99446E-001,2.64304E-002,-1.12903E-002,3.00302E-004,2.64328E-002,-1.12927E-002,4.56105E-001,2.65259E-002,1.02678E+000,-8.06317E-003,0.00000E+000,8.70924E-003,9.89803E-001,0.00000E+000,-7.82169E-003,-4.64287E-002,1.00000E+000,4
939,1307,1.30882E+000,-1.40289E+000,4.18269E-002,9.97736E-001,-1.55162E-001,8.71337E-002,1.01348E+000,6.38524E-003,5.32388E-001,0,1.50522E+001,-2.72006E+000,9.99910E-001,-2.94441E+001,-3.76183E+001,9.99168E-001,2.78963E-002,-1.11203E-002,6.78047E-004,2.79080E-002,-1.11321E-002,9.95310E-001,2.80976E-002,1.02832E+000,-8.79638E-003,0.00000E+000,1.03118E-002,9.89921E-001,0.00000E+000,-1.15140E-002,-4.56134E-002,1.00000E+000,4
939,1317,1.31102E+000,-7.74059E-001,-1.55115E-002,9.91956E-001,-1.64546E-001,5.73934E-002,1.00715E+000,6.64829E-003,4.76445E-001,0,1.50645E+001,-2.80514E+000,9.99893E-001,-2.94292E+001,-3.78105E+001,9.98677E-001,2.72005E-002,-1.11235E-002,5.98440E-004,2.72098E-002,-1.11328E-002,8.94399E-001,2.73592E-002,1.02759E+000,-8.80548E-003,0.00000E+000,1.01127E-002,9.89919E-001,0.00000E+000,-1.02725E-002,-4.55979E-002,1.00000E+000,4
939,1327,1.31931E+000,-1.35964E-001,-4.45441E-002,9.85154E-001,-1.72063E-001,2.37426E-002,1.00035E+000,4.24092E-003,4.97720E-001,0,1.50725E+001,-2.84970E+000,9.99868E-001,-2.92558E+001,-3.78826E+001,9.99351E-001,2.64961E-002,-1.11282E-002,5.14111E-004,2.65031E-002,-1.11353E-002,7.82713E-001,2.66156E-002,1.02685E+000,-8.82286E-003,0.00000E+000,9.91170E-003,9.89914E-001,0.00000E+000,-9.01930E-003,-4.55683E-002,1.00000E+000,4
919,1337,-1.42693E-002,4.72236E-001,-8.19602E-002,9.46371E-001,-1.92789E-001,7.13503E-003,9.65834E-001,5.39587E-003,5.07983E-001,0,1.45580E+001,-3.14323E+000,9.99793E-001,-2.98118E+001,-3.85910E+001,9.98977E-001,2.57344E-002,-1.11642E-002,-1.53815E-004,2.57350E-002,-1.11649E-002,-2.38837E-001,2.58100E-002,1.02606E+000,-7.31704E-003,0.00000E+000,6.98914E-003,9.89973E-001,0.00000E+000,-5.35160E-003,-4.71363E-002,1.00000E+000,4
929,1337,6.59054E-001,4.87142E-001,-6.27615E-002,9.62075E-001,-1.86792E-001,3.16025E-005,9.80041E-001,4.62190E-003,4.79537E-001,0,1.48098E+001,-3.03721E+000,9.99913E-001,-2.93778E+001,-3.83241E+001,9.99570E-001,2.56763E-002,-1.12953E-002,2.20494E-004,2.56776E-002,-1.12966E-002,3.41688E-001,2.57393E-002,1.02600E+000,-8.08710E-003,0.00000E+000,8.52749E-003,9.89798E-001,0.00000E+000,-6.67808E-003,-4.63938E-002,1.00000E+000,4
939,1337,1.33230E+000,5.04200E-001,-5.49501E-002,9.79388E-001,-1.78831E-001,-8.18938E-003,9.95614E-001,3.87463E-003,4.85398E-001,0,1.50896E+001,-2.88989E+000,9.99917E-001,-2.89676E+001,-3.79820E+001,9.99580E-001,2.57890E-002,-1.11338E-002,4.27595E-004,2.57939E-002,-1.11388E-002,6.63410E-001,2.58737E-002,1.02611E+000,-8.84450E-003,0.00000E+000,9.71048E-003,9.89908E-001,0.00000E+000,-7.76482E-003,-4.55314E-002,1.00000E+000,4
949,1317,1.98507E+000,-7.56649E-001,-9.09645E-003,1.00905E+000,-1.56701E-001,4.41725E-002,1.02210E+000,6.88184E-003,4.99772E-001,0,1.53562E+001,-2.65086E+000,9.99855E-001,-2.90041E+001,-3.74541E+001,9.98928E-001,2.72301E-002,-1.10150E-002,7.52007E-004,2.72449E-002,-1.10298E-002,1.12602E+000,2.74089E-002,1.02762E+000,-9.51590E-003,0.00000E+000,1.11351E-002,9.89964E-001,0.00000E+000,-1.13169E-002,-4.44289E-002,1.00000E+000,4
949,1327,1.99260E+000,-1.20527E-001,-4.03194E-002,1.00257E+000,-1.64284E-001,1.36422E-002,1.01604E+000,6.09524E-003,4.80125E-001,0,1.53596E+001,-2.70429E+000,9.99819E-001,-2.88482E+001,-3.75711E+001,9.99390E-001,2.65957E-002,-1.10190E-002,6.79983E-004,2.66080E-002,-1.10313E-002,1.03532E+000,2.67371E-002,1.02695E+000,-9.53058E-003,0.00000E+000,1.09491E-002,9.89960E-001,0.00000E+000,-9.88487E-003,-4.43974E-002,1.00000E+000,4
949,1337,2.00515E+000,5.19540E-001,-5.09707E-002,9.96868E-001,-1.71202E-001,-1.55711E-002,1.01158E+000,5.68948E-003,4.89801E-001,0,1.53693E+001,-2.76015E+000,9.99827E-001,-2.85688E+001,-3.76589E+001,9.99196E-001,2.59564E-002,-1.10238E-002,6.05470E-004,2.59663E-002,-1.10337E-002,9.37758E-001,2.60637E-002,1.02629E+000,-9.54977E-003,0.00000E+000,1.07625E-002,9.89955E-001,0.00000E+000,-8.44725E-003,-4.43562E-002,1.00000E+000,4
949,1307,1.98436E+000,-1.38685E+000,5.01794E-002,1.01603E+000,-1.47891E-001,7.40720E-002,1.02941E+000,5.78315E-003,5.44313E-001,0,1.53612E+001,-2.58196E+000,9.99868E-001,-2.89915E+001,-3.72943E+001,9.99205E-001,2.78587E-002,-1.10123E-002,8.20422E-004,2.78760E-002,-1.10296E-002,1.20858E+000,2.80775E-002,1.02829E+000,-9.50795E-003,0.00000E+000,1.13200E-002,9.89967E-001,0.00000E+000,-1.27411E-002,-4.44460E-002,1.00000E+000,4
909,1317,-7.13297E-001,-8.20830E-001,-7.33712E-002,9.38224E-001,-1.82387E-001,7.13652E-002,9.58448E-001,7.74073E-003,4.36697E-001,0,1.42354E+001,-3.11545E+000,9.99798E-001,-3.08059E+001,-3.86982E+001,9.97082E-001,2.72996E-002,-1.11800E-002,-1.74322E-004,2.73004E-002,-1.11808E-002,-2.59556E-001,2.74489E-002,1.02767E+000,-6.43193E-003,0.00000E+000,6.09343E-003,9.89982E-001,0.00000E+000,-5.45333E-003,-4.75327E-002,1.00000E+000,4
909,1327,-6.99982E-001,-1.80776E-001,-9.09608E-002,9.34909E-001,-1.89946E-001,4.04136E-002,9.54865E-001,5.86270E-003,4.97635E-001,0,1.42855E+001,-3.16334E+000,9.99842E-001,-3.05257E+001,-3.87481E+001,9.98292E-001,2.66021E-002,-1.11870E-002,-2.96219E-004,2.66044E-002,-1.11893E-002,-4.49089E-001,2.67160E-002,1.02695E+000,-6.45038E-003,0.00000E+000,5.84012E-003,9.89975E-001,0.00000E+000,-4.72732E-003,-4.75141E-002,1.00000E+000,4
909,1337,-6.81415E-001,4.65003E-001,-8.33213E-002,9.31319E-001,-1.95669E-001,8.87411E-003,9.51693E-001,6.26295E-003,5.54091E-001,0,1.43318E+001,-3.18006E+000,9.99815E-001,-3.01053E+001,-3.87691E+001,9.98977E-001,2.59003E-002,-1.11959E-002,-4.21623E-004,2.59051E-002,-1.12007E-002,-6.51092E-001,2.59840E-002,1.02623E+000,-6.47492E-003,0.00000E+000,5.58565E-003,9.89966E-001,0.00000E+000,-3.99797E-003,-4.74894E-002,1.00000E+000,4
909,1307,-7.10397E-001,-1.44609E+000,1.46919E-002,9.42905E-001,-1.72842E-001,1.03822E-001,9.64221E-001,7.95572E-003,4.44593E-001,0,1.41984E+001,-3.03012E+000,9.99763E-001,-3.06714E+001,-3.85358E+001,9.96614E-001,2.79851E-002,-1.11780E-002,-6.21653E-005,2.79852E-002,-1.11781E-002,-9.09477E-002,2.81733E-002,1.02838E+000,-6.42988E-003,0.00000E+000,6.34269E-003,9.89982E-001,0.00000E+000,-6.16770E-003,-4.75348E-002,1.00000E+000,4
919,1347,8.35839E-003,1.12098E+000,-6.26526E-002,9.43704E-001,-1.96588E-001,-2.66690E-002,9.64332E-001,8.22370E-003,5.23827E-001,0,1.46254E+001,-3.12810E+000,9.99871E-001,-2.93030E+001,-3.86139E+001,9.99484E-001,2.49903E-002,-1.11749E-002,-2.87350E-004,2.49926E-002,-1.11772E-002,-4.55205E-001,2.50390E-002,1.02529E+000,-7.34697E-003,0.00000E+000,6.71216E-003,9.89962E-001,0.00000E+000,-4.34992E-003,-4.70972E-002,1.00000E+000,4
929,1347,6.80051E-001,1.13391E+000,-4.41679E-002,9.58292E-001,-1.91581E-001,-3.13039E-002,9.77756E-001,4.63629E-003,4.70189E-001,0,1.48531E+001,-3.04243E+000,9.99882E-001,-2.88980E+001,-3.83876E+001,9.99581E-001,2.49173E-002,-1.13014E-002,1.37270E-004,2.49178E-002,-1.13020E-002,2.17149E-001,2.49536E-002,1.02521E+000,-8.11737E-003,0.00000E+000,8.34501E-003,9.89791E-001,0.00000E+000,-5.52983E-003,-4.63495E-002,1.00000E+000,4
939,1347,1.35187E+000,1.15071E+000,-4.02287E-002,9.74487E-001,-1.83971E-001,-4.10875E-002,9.92552E-001,7.57081E-003,4.87706E-001,0,1.51218E+001,-2.89974E+000,9.99895E-001,-2.85205E+001,-3.80337E+001,9.98921E-001,2.50758E-002,-1.11408E-002,3.37359E-004,2.50790E-002,-1.11439E-002,5.33650E-001,2.51307E-002,1.02537E+000,-8.87280E-003,0.00000E+000,9.50812E-003,9.89901E-001,0.00000E+000,-6.50325E-003,-4.54832E-002,1.00000E+000,4
949,1347,2.02752E+000,1.16779E+000,-2.43312E-002,9.92709E-001,-1.76978E-001,-4.48732E-002,1.00936E+000,6.23333E-003,5.21635E-001,0,1.54014E+001,-2.78892E+000,9.99747E-001,-2.80541E+001,-3.76936E+001,9.98725E-001,2.53092E-002,-1.10302E-002,5.26084E-004,2.53168E-002,-1.10378E-002,8.29237E-001,2.53859E-002,1.02561E+000,-9.57777E-003,0.00000E+000,1.05742E-002,9.89947E-001,0.00000E+000,-6.99734E-003,-4.42961E-002,1.00000E+000,4
959,1317,2.65762E+000,-7.41909E-001,-9.17855E-003,1.02610E+000,-1.49030E-001,3.30922E-002,1.03740E+000,5.85506E-003,5.04111E-001,0,1.56404E+001,-2.51426E+000,9.99836E-001,-2.86133E+001,-3.71349E+001,9.99403E-001,2.72859E-002,-1.09242E-002,8.14434E-004,2.73032E-002,-1.09416E-002,1.22050E+000,2.74820E-002,1.02768E+000,-1.02215E-002,0.00000E+000,1.19535E-002,9.89998E-001,0.00000E+000,-1.19582E-002,-4.33383E-002,1.00000E+000,4
959,1327,2.66273E+000,-1.06026E-001,-4.77217E-002,1.01887E+000,-1.56095E-001,3.31596E-003,1.03076E+000,9.59431E-003,5.08783E-001,0,1.56304E+001,-2.57079E+000,9.99924E-001,-2.85120E+001,-3.72261E+001,9.99377E-001,2.67046E-002,-1.09271E-002,7.57547E-004,2.67199E-002,-1.09424E-002,1.15277E+000,2.68653E-002,1.02707E+000,-1.02334E-002,0.00000E+000,1.17932E-002,9.89995E-001,0.00000E+000,-1.04550E-002,-4.33092E-002,1.00000E+000,4
959,1337,2.67924E+000,5.35700E-001,-4.73814E-002,1.01475E+000,-1.63882E-001,-2.48275E-002,1.02819E+000,7.94129E-003,5.09392E-001,0,1.56614E+001,-2.62496E+000,9.99816E-001,-2.81484E+001,-3.73147E+001,9.99120E-001,2.61162E-002,-1.09313E-002,6.96302E-004,2.61293E-002,-1.09444E-002,1.07636E+000,2.62438E-002,1.02645E+000,-1.02535E-002,0.00000E+000,1.16316E-002,9.89990E-001,0.00000E+000,-8.94015E-003,-4.32601E-002,1.00000E+000,4
959,1307,2.65599E+000,-1.37342E+000,4.78726E-002,1.03304E+000,-1.39902E-001,6.43033E-002,1.04445E+000,4.66196E-003,5.13478E-001,0,1.56395E+001,-2.43952E+000,9.99824E-001,-2.86196E+001,-3.70097E+001,9.99494E-001,2.78631E-002,-1.09219E-002,8.69372E-004,2.78826E-002,-1.09414E-002,1.28343E+000,2.80970E-002,1.02829E+000,-1.02133E-002,0.00000E+000,1.21134E-002,9.90000E-001,0.00000E+000,-1.34576E-002,-4.33583E-002,1.00000E+000,4
959,1347,2.69957E+000,1.18102E+000,-2.68454E-002,1.01046E+000,-1.70355E-001,-5.08650E-002,1.02598E+000,5.07575E-003,5.12704E-001,0,1.56816E+001,-2.67454E+000,9.99808E-001,-2.76809E+001,-3.73943E+001,9.99427E-001,2.55238E-002,-1.09361E-002,6.32941E-004,2.55348E-002,-1.09471E-002,9.94250E-001,2.56212E-002,1.02583E+000,-1.02775E-002,0.00000E+000,1.14697E-002,9.89984E-001,0.00000E+000,-7.42167E-003,-4.32013E-002,1.00000E+000,4
909,1347,-6.57151E-001,1.11255E+000,-5.27076E-002,9.28388E-001,-2.00173E-001,-2.36198E-002,9.50016E-001,7.86564E-003,5.24533E-001,0,1.43901E+001,-3.18287E+000,9.99863E-001,-2.95433E+001,-3.88596E+001,9.98922E-001,2.51978E-002,-1.12065E-002,-5.49715E-004,2.52061E-002,-1.12148E-002,-8.64920E-001,2.52570E-002,1.02550E+000,-6.50503E-003,0.00000E+000,5.33129E-003,9.89956E-001,0.00000E+000,-3.26896E-003,-4.74590E-002,1.00000E+000,4
899,1327,-1.36056E+000,-1.82471E-001,-5.68191E-002,9.18003E-001,-1.91587E-001,4.08814E-002,9.38673E-001,3.46366E-003,5.19913E-001,0,1.40338E+001,-3.18540E+000,9.99782E-001,-3.06324E+001,-3.89274E+001,9.99549E-001,2.67234E-002,-1.12270E-002,-5.56624E-004,2.67315E-002,-1.12351E-002,-8.40127E-001,2.68445E-002,1.02707E+000,-5.60251E-003,0.00000E+000,4.44057E-003,9.89968E-001,0.00000E+000,-3.24402E-003,-4.80502E-002,1.00000E+000,4
899,1337,-1.34477E+000,4.58674E-001,-6.66955E-002,9.15521E-001,-1.97547E-001,9.01953E-003,9.36635E-001,5.69284E-003,5.31048E-001,0,1.40981E+001,-3.20900E+000,9.99880E-001,-3.02943E+001,-3.90069E+001,9.99735E-001,2.60692E-002,-1.12322E-002,-6.47173E-004,2.60804E-002,-1.12434E-002,-9.93674E-001,2.61628E-002,1.02640E+000,-5.62134E-003,0.00000E+000,4.26591E-003,9.89963E-001,0.00000E+000,-2.88272E-003,-4.80400E-002,1.00000E+000,4
899,1347,-1.31977E+000,1.10614E+000,-3.71486E-002,9.13494E-001,-2.02307E-001,-2.46861E-002,9.35954E-001,4.83017E-003,5.20101E-001,0,1.41736E+001,-3.21688E+000,9.99922E-001,-2.97215E+001,-3.90888E+001,9.99541E-001,2.54107E-002,-1.12396E-002,-7.42552E-004,2.54257E-002,-1.12546E-002,-1.16021E+000,2.54814E-002,1.02572E+000,-5.64910E-003,0.00000E+000,4.09023E-003,9.89956E-001,0.00000E+000,-2.51932E-003,-4.80251E-002,1.00000E+000,4
899,1317,-1.36956E+000,-8.17675E-001,-1.88462E-002,9.21666E-001,-1.83495E-001,7.44069E-002,9.42696E-001,4.54901E-003,5.14167E-001,0,1.39805E+001,-3.13794E+000,9.99817E-001,-3.07992E+001,-3.88159E+001,9.99164E-001,2.73740E-002,-1.12231E-002,-4.69239E-004,2.73797E-002,-1.12288E-002,-6.96429E-001,2.75268E-002,1.02774E+000,-5.58940E-003,0.00000E+000,4.61443E-003,9.89971E-001,0.00000E+000,-3.60367E-003,-4.80572E-002,1.00000E+000,4
899,1307,-1.37264E+000,-1.44656E+000,4.75309E-002,9.25587E-001,-1.73439E-001,1.09749E-001,9.48070E-001,5.36743E-003,4.87138E-001,0,1.39239E+001,-3.04579E+000,9.99747E-001,-3.08074E+001,-3.86787E+001,9.98559E-001,2.80206E-002,-1.12205E-002,-3.85102E-004,2.80244E-002,-1.12243E-002,-5.62214E-001,2.82087E-002,1.02841E+000,-5.58206E-003,0.00000E+000,4.78735E-003,9.89973E-001,0.00000E+000,-3.96138E-003,-4.80611E-002,1.00000E+000,4
889,1327,-2.02538E+000,-1.88585E-001,-4.50108E-002,9.01203E-001,-1.94004E-001,4.11233E-002,9.22765E-001,3.05217E-003,5.43650E-001,0,1.37850E+001,-3.22708E+000,9.99792E-001,-3.08525E+001,-3.91264E+001,9.99725E-001,2.69157E-002,-1.09890E-002,-8.44889E-004,2.69346E-002,-1.10078E-002,-1.27627E+000,2.70839E-002,1.02727E+000,-4.85020E-003,0.00000E+000,3.07592E-003,9.90239E-001,0.00000E+000,-1.73262E-003,-4.86934E-002,1.00000E+000,4
889,1337,-2.01222E+000,4.51510E-001,-5.81011E-002,8.97375E-001,-1.99388E-001,1.12855E-002,9.19328E-001,4.86146E-003,5.36972E-001,0,1.38214E+001,-3.24718E+000,9.99877E-001,-3.05612E+001,-3.92262E+001,9.99751E-001,2.62452E-002,-1.09893E-002,-8.59039E-004,2.62650E-002,-1.10091E-002,-1.32094E+000,2.63792E-002,1.02658E+000,-4.86809E-003,0.00000E+000,3.07881E-003,9.90239E-001,0.00000E+000,-1.95109E-003,-4.86991E-002,1.00000E+000,4
889,1347,-1.98741E+000,1.09789E+000,-3.07135E-002,8.95933E-001,-2.04502E-001,-2.19268E-002,9.19237E-001,3.84818E-003,5.16343E-001,0,1.39039E+001,-3.25876E+000,9.99908E-001,-2.99944E+001,-3.93268E+001,9.99643E-001,2.55693E-002,-1.09896E-002,-8.77901E-004,2.55903E-002,-1.10107E-002,-1.37481E+000,2.56731E-002,1.02589E+000,-4.89556E-003,0.00000E+000,3.08172E-003,9.90239E-001,0.00000E+000,-2.17116E-003,-4.87078E-002,1.00000E+000,4
969,1297,3.33676E+000,-1.98620E+000,1.29107E-001,1.05915E+000,-1.22891E-001,7.53833E-002,1.06891E+000,8.51174E-003,4.68614E-001,0,1.59835E+001,-2.18407E+000,9.99858E-001,-2.80246E+001,-3.65870E+001,9.98937E-001,2.83578E-002,-1.09065E-002,9.06188E-004,2.83787E-002,-1.09274E-002,1.32140E+000,2.86276E-002,1.02882E+000,-1.08318E-002,0.00000E+000,1.28331E-002,9.89959E-001,0.00000E+000,-1.51818E-002,-4.21991E-002,1.00000E+000,4
969,1307,3.33080E+000,-1.35796E+000,5.03411E-002,1.05119E+000,-1.32090E-001,5.23623E-002,1.06075E+000,1.27462E-002,5.02554E-001,0,1.59426E+001,-2.28663E+000,9.99765E-001,-2.81841E+001,-3.66938E+001,9.98534E-001,2.78421E-002,-1.09075E-002,8.67245E-004,2.78615E-002,-1.09269E-002,1.28147E+000,2.80766E-002,1.02827E+000,-1.08334E-002,0.00000E+000,1.26992E-002,9.89958E-001,0.00000E+000,-1.36647E-002,-4.21949E-002,1.00000E+000,4
969,1317,3.33412E+000,-7.26379E-001,-1.80563E-004,1.04487E+000,-1.41370E-001,2.32229E-002,1.05464E+000,5.67819E-003,4.89837E-001,0,1.59464E+001,-2.37689E+000,9.99891E-001,-2.81380E+001,-3.68318E+001,9.99371E-001,2.73223E-002,-1.09094E-002,8.24957E-004,2.73401E-002,-1.09272E-002,1.23555E+000,2.75230E-002,1.02771E+000,-1.08417E-002,0.00000E+000,1.25650E-002,9.89956E-001,0.00000E+000,-1.21428E-002,-4.21719E-002,1.00000E+000,4
889,1317,-2.03495E+000,-8.23122E-001,-5.56470E-003,9.03734E-001,-1.85873E-001,7.39714E-002,9.25611E-001,4.42302E-003,5.39603E-001,0,1.37172E+001,-3.17654E+000,9.99848E-001,-3.10253E+001,-3.90051E+001,9.99485E-001,2.75836E-002,-1.09888E-002,-8.33238E-004,2.76016E-002,-1.10068E-002,-1.23693E+000,2.77895E-002,1.02796E+000,-4.83738E-003,0.00000E+000,3.07304E-003,9.90239E-001,0.00000E+000,-1.51486E-003,-4.86893E-002,1.00000E+000,4
969,1327,3.33986E+000,-8.88322E-002,-3.54230E-002,1.03757E+000,-1.47283E-001,-5.92265E-003,1.04799E+000,6.27746E-003,5.11589E-001,0,1.59334E+001,-2.42742E+000,9.99919E-001,-2.80204E+001,-3.68945E+001,9.99327E-001,2.67983E-002,-1.09116E-002,7.81049E-004,2.68145E-002,-1.09278E-002,1.18603E+000,2.69669E-002,1.02716E+000,-1.08531E-002,0.00000E+000,1.24304E-002,9.89953E-001,0.00000E+000,-1.06163E-002,-4.21406E-002,1.00000E+000,4
889,1307,-2.03907E+000,-1.45219E+000,6.15412E-002,9.05904E-001,-1.76806E-001,1.07043E-001,9.29183E-001,5.47793E-003,5.01672E-001,0,1.36420E+001,-3.08651E+000,9.99766E-001,-3.10478E+001,-3.88760E+001,9.99165E-001,2.82472E-002,-1.09887E-002,-8.24542E-004,2.82646E-002,-1.10060E-002,-1.20336E+000,2.84941E-002,1.02864E+000,-4.83055E-003,0.00000E+000,3.07018E-003,9.90239E-001,0.00000E+000,-1.29836E-003,-4.86872E-002,1.00000E+000,4
969,1337,3.35387E+000,5.48956E-001,-4.31288E-002,1.03300E+000,-1.56056E-001,-3.24209E-002,1.04523E+000,5.61695E-003,4.60962E-001,0,1.59533E+001,-2.50252E+000,9.99873E-001,-2.77146E+001,-3.70509E+001,9.99510E-001,2.62701E-002,-1.09145E-002,7.34595E-004,2.62846E-002,-1.09291E-002,1.13131E+000,2.64086E-002,1.02660E+000,-1.08694E-002,0.00000E+000,1.22953E-002,9.89950E-001,0.00000E+000,-9.08491E-003,-4.20958E-002,1.00000E+000,4
969,1347,3.37155E+000,1.19694E+000,-2.96099E-002,1.02731E+000,-1.60765E-001,-5.88271E-002,1.04148E+000,4.85595E-003,4.89701E-001,0,1.59535E+001,-2.51112E+000,9.99857E-001,-2.73051E+001,-3.70598E+001,9.99448E-001,2.57350E-002,-1.09180E-002,6.85685E-004,2.57478E-002,-1.09308E-002,1.07136E+000,2.58454E-002,1.02604E+000,-1.08900E-002,0.00000E+000,1.21592E-002,9.89945E-001,0.00000E+000,-7.54108E-003,-4.20392E-002,1.00000E+000,4
879,1327,-2.68961E+000,-1.93109E-001,-3.16767E-002,8.84473E-001,-1.94642E-001,4.22076E-002,9.06620E-001,3.27162E-003,5.42874E-001,0,1.35336E+001,-3.23541E+000,9.99901E-001,-3.10551E+001,-3.93164E+001,9.99821E-001,2.71800E-002,-1.10960E-002,-1.01509E-003,2.72069E-002,-1.11229E-002,-1.51808E+000,2.73572E-002,1.02755E+000,-4.17555E-003,0.00000E+000,2.03156E-003,9.90127E-001,0.00000E+000,-5.38365E-004,-4.84999E-002,1.00000E+000,4
879,1337,-2.67623E+000,4.45072E-001,-5.09668E-002,8.81514E-001,-2.01051E-001,8.61657E-003,9.04191E-001,3.17083E-003,5.24692E-001,0,1.35953E+001,-3.26239E+000,9.99878E-001,-3.07743E+001,-3.94399E+001,9.99761E-001,2.65156E-002,-1.10952E-002,-1.01068E-003,2.65428E-002,-1.11224E-002,-1.53818E+000,2.66585E-002,1.02686E+000,-4.19259E-003,0.00000E+000,2.08200E-003,9.90128E-001,0.00000E+000,-1.01071E-003,-4.85116E-002,1.00000E+000,4
879,1347,-2.65343E+000,1.09187E+000,-2.95117E-002,8.79576E-001,-2.06003E-001,-2.42076E-002,9.03702E-001,4.15481E-003,5.30182E-001,0,1.36684E+001,-3.26351E+000,9.99881E-001,-3.02503E+001,-3.95098E+001,9.99674E-001,2.58445E-002,-1.10941E-002,-1.01036E-003,2.58721E-002,-1.11217E-002,-1.56562E+000,2.59568E-002,1.02617E+000,-4.21822E-003,0.00000E+000,2.13291E-003,9.90130E-001,0.00000E+000,-1.48742E-003,-4.85294E-002,1.00000E+000,4
879,1307,-2.70381E+000,-1.45488E+000,7.78452E-002,8.86964E-001,-1.77365E-001,1.03874E-001,9.10468E-001,5.48803E-003,5.07178E-001,0,1.33715E+001,-3.08219E+000,9.99768E-001,-3.12517E+001,-3.90369E+001,9.99277E-001,2.84987E-002,-1.10969E-002,-1.03172E-003,2.85256E-002,-1.11237E-002,-1.49158E+000,2.87549E-002,1.02890E+000,-4.15779E-003,0.00000E+000,1.93130E-003,9.90125E-001,0.00000E+000,4.00590E-004,-4.84876E-002,1.00000E+000,4
879,1317,-2.69892E+000,-8.27974E-001,9.31525E-003,8.86967E-001,-1.86480E-001,7.56619E-002,9.09511E-001,4.18312E-003,4.92576E-001,0,1.34641E+001,-3.17333E+000,9.99872E-001,-3.12207E+001,-3.92246E+001,9.99534E-001,2.78428E-002,-1.10966E-002,-1.02174E-003,2.78695E-002,-1.11234E-002,-1.50203E+000,2.80580E-002,1.02823E+000,-4.16314E-003,0.00000E+000,1.98120E-003,9.90126E-001,0.00000E+000,-6.66808E-005,-4.84913E-002,1.00000E+000,4
979,1307,4.01376E+000,-1.34111E+000,6.21395E-002,1.07379E+000,-1.24941E-001,3.55988E-002,1.08162E+000,8.89251E-003,5.17754E-001,0,1.63299E+001,-2.14687E+000,9.99950E-001,-2.75992E+001,-3.63623E+001,9.99527E-001,2.78344E-002,-1.08756E-002,8.48274E-004,2.78529E-002,-1.08942E-002,1.25475E+000,2.80722E-002,1.02825E+000,-1.13524E-002,0.00000E+000,1.31212E-002,9.89927E-001,0.00000E+000,-1.31261E-002,-4.08045E-002,1.00000E+000,4
979,1317,4.01305E+000,-7.08312E-001,1.23587E-002,1.06498E+000,-1.32606E-001,1.43939E-002,1.07330E+000,3.92785E-003,5.04073E-001,0,1.62689E+001,-2.22279E+000,9.99926E-001,-2.76139E+001,-3.64828E+001,9.99555E-001,2.74054E-002,-1.08768E-002,8.19289E-004,2.74229E-002,-1.08943E-002,1.22546E+000,2.76152E-002,1.02779E+000,-1.13582E-002,0.00000E+000,1.30167E-002,9.89926E-001,0.00000E+000,-1.17158E-002,-4.07867E-002,1.00000E+000,4
979,1327,4.01750E+000,-7.27313E-002,-2.40821E-002,1.05719E+000,-1.39707E-001,-1.19593E-002,1.06645E+000,4.11983E-003,4.95778E-001,0,1.62401E+001,-2.28984E+000,9.99856E-001,-2.75197E+001,-3.65871E+001,9.99331E-001,2.69733E-002,-1.08783E-002,7.88758E-004,2.69897E-002,-1.08947E-002,1.19325E+000,2.71562E-002,1.02733E+000,-1.13670E-002,0.00000E+000,1.29121E-002,9.89924E-001,0.00000E+000,-1.03024E-002,-4.07595E-002,1.00000E+000,4
979,1337,4.02729E+000,5.66256E-001,-4.19209E-002,1.05057E+000,-1.46447E-001,-3.82410E-002,1.06142E+000,5.65266E-003,4.79528E-001,0,1.62281E+001,-2.34442E+000,9.99760E-001,-2.73025E+001,-3.66847E+001,9.99127E-001,2.65375E-002,-1.08801E-002,7.56615E-004,2.65528E-002,-1.08954E-002,1.15794E+000,2.66948E-002,1.02687E+000,-1.13789E-002,0.00000E+000,1.28071E-002,9.89921E-001,0.00000E+000,-8.88403E-003,-4.07229E-002,1.00000E+000,4
979,1347,4.04477E+000,1.21326E+000,-2.54766E-002,1.04316E+000,-1.51886E-001,-6.78235E-002,1.05634E+000,6.01691E-003,4.81072E-001,0,1.62135E+001,-2.36493E+000,9.99642E-001,-2.68916E+001,-3.67274E+001,9.98839E-001,2.60961E-002,-1.08825E-002,7.21208E-004,2.61102E-002,-1.08966E-002,1.11689E+000,2.62289E-002,1.02640E+000,-1.13971E-002,0.00000E+000,1.27012E-002,9.89917E-001,0.00000E+000,-7.45443E-003,-4.06670E-002,1.00000E+000,4
979,1297,4.01304E+000,-1.96966E+000,1.26391E-001,1.07959E+000,-1.13574E-001,6.40951E-002,1.08744E+000,7.85595E-003,5.08095E-001,0,1.63185E+001,-2.02545E+000,9.99859E-001,-2.75745E+001,-3.62199E+001,9.99172E-001,2.82610E-002,-1.08746E-002,8.76652E-004,2.82806E-002,-1.08942E-002,1.28259E+000,2.85279E-002,1.02870E+000,-1.13478E-002,0.00000E+000,1.32255E-002,9.89928E-001,0.00000E+000,-1.45359E-002,-4.08187E-002,1.00000E+000,4
869,1317,-3.36727E+000,-8.31908E-001,1.12000E-002,8.67004E-001,-1.86396E-001,7.20726E-002,8.89738E-001,3.71618E-003,5.11104E-001,0,1.31783E+001,-3.15993E+000,9.99872E-001,-3.15106E+001,-3.93701E+001,9.99435E-001,2.80230E-002,-1.12068E-002,-1.09798E-003,2.80537E-002,-1.12375E-002,-1.60195E+000,2.82379E-002,1.02842E+000,-3.43967E-003,0.00000E+000,1.08474E-003,9.90004E-001,0.00000E+000,9.81610E-004,-4.82007E-002,1.00000E+000,4
869,1327,-3.35766E+000,-1.97972E-001,-2.99925E-002,8.65283E-001,-1.94049E-001,4.00580E-002,8.87679E-001,3.56331E-003,5.37263E-001,0,1.32543E+001,-3.22041E+000,9.99896E-001,-3.13402E+001,-3.94896E+001,9.99678E-001,2.74029E-002,-1.12061E-002,-1.08694E-003,2.74335E-002,-1.12367E-002,-1.61132E+000,2.75825E-002,1.02778E+000,-3.45086E-003,0.00000E+000,1.15142E-003,9.90006E-001,0.00000E+000,3.08791E-004,-4.82125E-002,1.00000E+000,4
869,1337,-3.34248E+000,4.39505E-001,-4.72465E-002,8.63664E-001,-2.01921E-001,5.65782E-003,8.86972E-001,3.56326E-003,5.30904E-001,0,1.33389E+001,-3.26560E+000,9.99864E-001,-3.10258E+001,-3.96238E+001,9.99659E-001,2.67792E-002,-1.12052E-002,-1.07838E-003,2.68097E-002,-1.12358E-002,-1.62490E+000,2.69265E-002,1.02714E+000,-3.46727E-003,0.00000E+000,1.21840E-003,9.90007E-001,0.00000E+000,-3.67132E-004,-4.82298E-002,1.00000E+000,4
869,1347,-3.32210E+000,1.08370E+000,-3.51386E-002,8.62035E-001,-2.06142E-001,-2.45062E-002,8.86678E-001,5.32573E-003,5.08769E-001,0,1.34077E+001,-3.26832E+000,9.99887E-001,-3.05598E+001,-3.97292E+001,9.99638E-001,2.61523E-002,-1.12039E-002,-1.07221E-003,2.61831E-002,-1.12347E-002,-1.64272E+000,2.62707E-002,1.02649E+000,-3.48865E-003,0.00000E+000,1.28563E-003,9.90009E-001,0.00000E+000,-1.04547E-003,-4.82523E-002,1.00000E+000,4
869,1307,-3.37052E+000,-1.45811E+000,8.72602E-002,8.68096E-001,-1.76556E-001,1.05407E-001,8.92117E-001,4.63900E-003,5.29889E-001,0,1.30865E+001,-3.08016E+000,9.99831E-001,-3.14983E+001,-3.91836E+001,9.99298E-001,2.86378E-002,-1.12071E-002,-1.11215E-003,2.86688E-002,-1.12382E-002,-1.59758E+000,2.88909E-002,1.02905E+000,-3.43516E-003,0.00000E+000,1.01853E-003,9.90004E-001,0.00000E+000,1.64969E-003,-4.81959E-002,1.00000E+000,4
989,1307,4.68829E+000,-1.32390E+000,6.23153E-002,1.09152E+000,-1.14702E-001,2.51663E-002,1.09782E+000,6.20803E-003,5.19197E-001,0,1.66208E+001,-1.96867E+000,9.99859E-001,-2.71658E+001,-3.60086E+001,9.99208E-001,2.78123E-002,-1.09097E-002,7.64766E-004,2.78274E-002,-1.09248E-002,1.13101E+000,2.80406E-002,1.02821E+000,-1.17544E-002,0.00000E+000,1.32883E-002,9.89842E-001,0.00000E+000,-1.21416E-002,-3.95875E-002,1.00000E+000,4
989,1317,4.68545E+000,-6.90119E-001,2.34890E-003,1.08170E+000,-1.22533E-001,-7.04082E-004,1.08862E+000,5.90023E-003,5.54593E-001,0,1.65612E+001,-2.03507E+000,9.99928E-001,-2.72359E+001,-3.60660E+001,9.99316E-001,2.74664E-002,-1.09101E-002,7.53070E-004,2.74812E-002,-1.09248E-002,1.12375E+000,2.76728E-002,1.02784E+000,-1.17584E-002,0.00000E+000,1.32216E-002,9.89841E-001,0.00000E+000,-1.08396E-002,-3.95734E-002,1.00000E+000,4
989,1327,4.69354E+000,-5.31549E-002,-2.19515E-002,1.07547E+000,-1.30553E-001,-2.35040E-002,1.08362E+000,7.51320E-003,5.77742E-001,0,1.65446E+001,-2.12723E+000,9.99858E-001,-2.70605E+001,-3.61574E+001,9.98989E-001,2.71177E-002,-1.09106E-002,7.39269E-004,2.71320E-002,-1.09250E-002,1.11327E+000,2.73029E-002,1.02746E+000,-1.17667E-002,0.00000E+000,1.31547E-002,9.89840E-001,0.00000E+000,-9.53358E-003,-3.95441E-002,1.00000E+000,4
989,1297,4.69135E+000,-1.95460E+000,1.25812E-001,1.10029E+000,-1.05219E-001,4.89992E-002,1.10640E+000,6.13727E-003,5.06124E-001,0,1.66705E+001,-1.87398E+000,9.99784E-001,-2.70845E+001,-3.59004E+001,9.99002E-001,2.81558E-002,-1.09094E-002,7.76055E-004,2.81712E-002,-1.09248E-002,1.13762E+000,2.84066E-002,1.02858E+000,-1.17511E-002,0.00000E+000,1.33548E-002,9.89842E-001,0.00000E+000,-1.34413E-002,-3.95989E-002,1.00000E+000,4
989,1337,4.70448E+000,5.84392E-001,-3.06313E-002,1.06714E+000,-1.38625E-001,-5.29564E-002,1.07741E+000,5.10135E-003,4.87426E-001,0,1.65180E+001,-2.19129E+000,9.99728E-001,-2.68070E+001,-3.63328E+001,9.99213E-001,2.67673E-002,-1.09113E-002,7.24027E-004,2.67812E-002,-1.09252E-002,1.10045E+000,2.69321E-002,1.02709E+000,-1.17780E-002,0.00000E+000,1.30879E-002,9.89838E-001,0.00000E+000,-8.22827E-003,-3.95045E-002,1.00000E+000,4
989,1347,4.72042E+000,1.22936E+000,-2.07978E-002,1.06029E+000,-1.43935E-001,-7.91601E-002,1.07294E+000,5.63530E-003,4.64823E-001,0,1.65013E+001,-2.22009E+000,9.99865E-001,-2.64360E+001,-3.64032E+001,9.99535E-001,2.64130E-002,-1.09120E-002,7.07662E-004,2.64264E-002,-1.09254E-002,1.08578E+000,2.65581E-002,1.02672E+000,-1.17913E-002,0.00000E+000,1.30206E-002,9.89835E-001,0.00000E+000,-6.91488E-003,-3.94577E-002,1.00000E+000,4
859,1327,-4.02401E+000,-2.01580E-001,-2.92967E-002,8.47175E-001,-1.92971E-001,3.60190E-002,8.69621E-001,3.85537E-003,5.33320E-001,0,1.29970E+001,-3.18493E+000,9.99808E-001,-3.15974E+001,-3.96403E+001,9.99530E-001,2.75783E-002,-1.13008E-002,-1.09575E-003,2.76092E-002,-1.13317E-002,-1.61308E+000,2.77565E-002,1.02796E+000,-2.74737E-003,0.00000E+000,4.36280E-004,9.89890E-001,0.00000E+000,7.61638E-004,-4.77298E-002,1.00000E+000,4
859,1337,-4.00844E+000,4.35067E-001,-4.42598E-002,8.46243E-001,-2.00617E-001,4.56657E-003,8.69710E-001,4.36185E-003,5.34687E-001,0,1.30819E+001,-3.24854E+000,9.99781E-001,-3.12705E+001,-3.97902E+001,9.99542E-001,2.70301E-002,-1.13000E-002,-1.08702E-003,2.70609E-002,-1.13308E-002,-1.62314E+000,2.71798E-002,1.02740E+000,-2.76156E-003,0.00000E+000,5.03276E-004,9.89891E-001,0.00000E+000,2.69968E-005,-4.77483E-002,1.00000E+000,4
859,1347,-3.98712E+000,1.07756E+000,-2.88303E-002,8.45088E-001,-2.06813E-001,-2.53707E-002,8.70395E-001,6.16270E-003,5.01316E-001,0,1.31573E+001,-3.27627E+000,9.99900E-001,-3.07805E+001,-3.99363E+001,9.99636E-001,2.64780E-002,-1.12988E-002,-1.08067E-003,2.65089E-002,-1.13297E-002,-1.63726E+000,2.66019E-002,1.02683E+000,-2.78076E-003,0.00000E+000,5.70638E-004,9.89893E-001,0.00000E+000,-7.11662E-004,-4.77733E-002,1.00000E+000,4
859,1307,-4.03669E+000,-1.45776E+000,9.25992E-002,8.49750E-001,-1.73768E-001,1.04939E-001,8.73661E-001,6.68289E-003,6.45769E-001,0,1.28149E+001,-3.06054E+000,9.99851E-001,-3.17420E+001,-3.92198E+001,9.99155E-001,2.86634E-002,-1.13017E-002,-1.12022E-003,2.86947E-002,-1.13331E-002,-1.60432E+000,2.89051E-002,1.02908E+000,-2.73389E-003,0.00000E+000,3.03390E-004,9.89888E-001,0.00000E+000,2.21884E-003,-4.77123E-002,1.00000E+000,4
859,1317,-4.03323E+000,-8.34352E-001,1.38773E-002,8.48874E-001,-1.85817E-001,6.86427E-002,8.71680E-001,4.72049E-003,5.52129E-001,0,1.29195E+001,-3.13694E+000,9.99818E-001,-3.17576E+001,-3.94829E+001,9.99212E-001,2.81227E-002,-1.13014E-002,-1.10668E-003,2.81538E-002,-1.13325E-002,-1.60667E+000,2.83316E-002,1.02852E+000,-2.73787E-003,0.00000E+000,3.69653E-004,9.89888E-001,0.00000E+000,1.49224E-003,-4.77175E-002,1.00000E+000,4
999,1337,5.37777E+000,5.98343E-001,-3.37271E-002,1.08544E+000,-1.29110E-001,-5.53057E-002,1.09449E+000,5.71802E-003,4.27138E-001,0,1.67920E+001,-2.03659E+000,9.99882E-001,-2.63991E+001,-3.60485E+001,9.99403E-001,2.69037E-002,-1.09448E-002,6.29386E-004,2.69142E-002,-1.09553E-002,9.52425E-001,2.70688E-002,1.02722E+000,-1.20711E-002,0.00000E+000,1.31326E-002,9.89753E-001,0.00000E+000,-7.22211E-003,-3.82099E-002,1.00000E+000,4
999,1347,5.39650E+000,1.24554E+000,-1.45594E-002,1.07894E+000,-1.35333E-001,-8.19570E-002,1.09048E+000,4.90804E-003,4.41045E-001,0,1.67827E+001,-2.07413E+000,9.99911E-001,-2.59670E+001,-3.60849E+001,9.99498E-001,2.66408E-002,-1.09447E-002,6.23277E-004,2.66512E-002,-1.09551E-002,9.49781E-001,2.67914E-002,1.02694E+000,-1.20820E-002,0.00000E+000,1.30891E-002,9.89752E-001,0.00000E+000,-6.04025E-003,-3.81637E-002,1.00000E+000,4
999,1307,5.36364E+000,-1.30842E+000,6.18288E-002,1.10963E+000,-1.06257E-001,1.42955E-002,1.11479E+000,4.34308E-003,5.17267E-001,0,1.69194E+001,-1.81459E+000,9.99869E-001,-2.67181E+001,-3.56819E+001,9.99396E-001,2.76744E-002,-1.09449E-002,6.39737E-004,2.76850E-002,-1.09555E-002,9.48768E-001,2.78850E-002,1.02804E+000,-1.20547E-002,0.00000E+000,1.32618E-002,9.89756E-001,0.00000E+000,-1.07252E-002,-3.82798E-002,1.00000E+000,4
999,1317,5.36193E+000,-6.73941E-001,9.05257E-003,1.10055E+000,-1.13017E-001,-5.87251E-003,1.10635E+000,8.17077E-003,5.23667E-001,0,1.68517E+001,-1.87525E+000,9.99634E-001,-2.67555E+001,-3.57566E+001,9.97630E-001,2.74193E-002,-1.09449E-002,6.37425E-004,2.74299E-002,-1.09555E-002,9.51625E-001,2.76143E-002,1.02777E+000,-1.20578E-002,0.00000E+000,1.32188E-002,9.89755E-001,0.00000E+000,-9.55913E-003,-3.82664E-002,1.00000E+000,4
999,1327,5.36863E+000,-3.96809E-002,-2.24839E-002,1.09439E+000,-1.22433E-001,-2.90875E-002,1.10161E+000,8.40481E-003,5.38684E-001,0,1.68389E+001,-1.99285E+000,9.99823E-001,-2.66182E+001,-3.58769E+001,9.98676E-001,2.71622E-002,-1.09448E-002,6.33962E-004,2.71727E-002,-1.09554E-002,9.52841E-001,2.73420E-002,1.02750E+000,-1.20633E-002,0.00000E+000,1.31757E-002,9.89755E-001,0.00000E+000,-8.39062E-003,-3.82430E-002,1.00000E+000,4
999,1297,5.36753E+000,-1.93938E+000,1.29233E-001,1.11885E+000,-9.72441E-002,4.01339E-002,1.12378E+000,4.57886E-003,5.11570E-001,0,1.69687E+001,-1.73244E+000,9.99717E-001,-2.66155E+001,-3.55838E+001,9.98828E-001,2.79278E-002,-1.09450E-002,6.41609E-004,2.79384E-002,-1.09555E-002,9.45345E-001,2.81542E-002,1.02832E+000,-1.20524E-002,0.00000E+000,1.33047E-002,9.89756E-001,0.00000E+000,-1.18896E-002,-3.82894E-002,1.00000E+000,4
849,1337,-4.67422E+000,4.32027E-001,-3.53826E-002,8.27738E-001,-2.00364E-001,5.49189E-003,8.51661E-001,5.85069E-003,5.60093E-001,0,1.28019E+001,-3.23412E+000,9.99828E-001,-3.14941E+001,-3.99372E+001,9.99617E-001,2.72483E-002,-1.13230E-002,-1.04351E-003,2.72766E-002,-1.13512E-002,-1.54857E+000,2.74041E-002,1.02762E+000,-2.16413E-003,0.00000E+000,1.18234E-005,9.89848E-001,0.00000E+000,8.69390E-005,-4.73103E-002,1.00000E+000,4
849,1347,-4.65628E+000,1.07126E+000,-3.13734E-002,8.26028E-001,-2.06609E-001,-2.31919E-002,8.51791E-001,4.77163E-003,5.03049E-001,0,1.28645E+001,-3.27098E+000,9.99870E-001,-3.10825E+001,-4.01225E+001,9.99767E-001,2.67758E-002,-1.13223E-002,-1.03861E-003,2.68041E-002,-1.13506E-002,-1.56042E+000,2.69085E-002,1.02714E+000,-2.17861E-003,0.00000E+000,7.06648E-005,9.89850E-001,0.00000E+000,-6.45260E-004,-4.73321E-002,1.00000E+000,4
849,1357,-4.62697E+000,1.72211E+000,2.22192E-002,8.25246E-001,-2.10836E-001,-5.29636E-002,8.53398E-001,4.17867E-003,5.07125E-001,0,1.29427E+001,-3.27682E+000,9.99903E-001,-3.03735E+001,-4.02108E+001,9.99727E-001,2.62965E-002,-1.13211E-002,-1.03726E-003,2.63251E-002,-1.13497E-002,-1.57826E+000,2.64082E-002,1.02664E+000,-2.20064E-003,0.00000E+000,1.30241E-004,9.89852E-001,0.00000E+000,-1.38660E-003,-4.73653E-002,1.00000E+000,4
849,1327,-4.68782E+000,-2.03625E-001,-1.92800E-002,8.29366E-001,-1.92137E-001,3.24970E-002,8.51951E-001,5.84956E-003,5.57891E-001,0,1.27419E+001,-3.16068E+000,9.99867E-001,-3.17889E+001,-3.97727E+001,9.99567E-001,2.77195E-002,-1.13236E-002,-1.04997E-003,2.77477E-002,-1.13518E-002,-1.53934E+000,2.79001E-002,1.02811E+000,-2.15284E-003,0.00000E+000,-4.69324E-005,9.89846E-001,0.00000E+000,8.18072E-004,-4.72932E-002,1.00000E+000,4
1009,1337,6.05179E+000,6.15710E-001,-4.30745E-002,1.10568E+000,-1.18532E-001,-5.62516E-002,1.11343E+000,6.76644E-003,4.69320E-001,0,1.70902E+001,-1.86680E+000,9.99923E-001,-2.59893E+001,-3.56465E+001,9.99586E-001,2.69632E-002,-1.09972E-002,5.02141E-004,2.69698E-002,-1.10039E-002,7.57734E-001,2.71215E-002,1.02727E+000,-1.22585E-002,0.00000E+000,1.30161E-002,9.89664E-001,0.00000E+000,-6.22046E-003,-3.71926E-002,1.00000E+000,4
1009,1347,6.07064E+000,1.25914E+000,-1.61537E-002,1.09707E+000,-1.28137E-001,-8.42594E-002,1.10773E+000,5.08548E-003,4.27172E-001,0,1.70549E+001,-1.95557E+000,9.99952E-001,-2.55417E+001,-3.57847E+001,9.99698E-001,2.67699E-002,-1.09973E-002,4.96163E-004,2.67764E-002,-1.10038E-002,7.52546E-001,2.69175E-002,1.02707E+000,-1.22672E-002,0.00000E+000,1.29796E-002,9.89663E-001,0.00000E+000,-5.26884E-003,-3.71522E-002,1.00000E+000,4
1009,1297,6.04165E+000,-1.92555E+000,1.27404E-001,1.13646E+000,-8.86610E-002,3.28663E-002,1.14039E+000,5.14087E-003,4.70229E-001,0,1.72468E+001,-1.57777E+000,9.99707E-001,-2.61857E+001,-3.53013E+001,9.98837E-001,2.77191E-002,-1.09971E-002,5.15382E-004,2.77260E-002,-1.10040E-002,7.62528E-001,2.79218E-002,1.02808E+000,-1.22457E-002,0.00000E+000,1.31604E-002,9.89667E-001,0.00000E+000,-9.98646E-003,-3.72526E-002,1.00000E+000,4
1009,1307,6.03855E+000,-1.29426E+000,6.13561E-002,1.12800E+000,-9.68147E-002,8.43337E-003,1.13218E+000,5.21877E-003,4.61522E-001,0,1.72046E+001,-1.65431E+000,9.99836E-001,-2.62733E+001,-3.54026E+001,9.99437E-001,2.75322E-002,-1.09971E-002,5.12834E-004,2.75390E-002,-1.10040E-002,7.62439E-001,2.77236E-002,1.02788E+000,-1.22473E-002,0.00000E+000,1.31245E-002,9.89666E-001,0.00000E+000,-9.04847E-003,-3.72448E-002,1.00000E+000,4
1009,1317,6.03868E+000,-6.60356E-001,1.03396E-002,1.12043E+000,-1.04248E-001,-1.12007E-002,1.12533E+000,5.70278E-003,4.70234E-001,0,1.71586E+001,-1.73274E+000,9.99882E-001,-2.62790E+001,-3.54871E+001,9.99370E-001,2.73439E-002,-1.09972E-002,5.09916E-004,2.73507E-002,-1.10039E-002,7.61823E-001,2.75241E-002,1.02768E+000,-1.22498E-002,0.00000E+000,1.30885E-002,9.89666E-001,0.00000E+000,-8.10836E-003,-3.72335E-002,1.00000E+000,4
849,1317,-4.69885E+000,-8.33517E-001,2.24123E-002,8.30514E-001,-1.81057E-001,7.02246E-002,8.52917E-001,6.22427E-003,6.00999E-001,0,1.26394E+001,-3.07991E+000,9.99845E-001,-3.19808E+001,-3.95539E+001,9.99357E-001,2.81881E-002,-1.13241E-002,-1.05747E-003,2.82164E-002,-1.13524E-002,-1.53195E+000,2.83952E-002,1.02859E+000,-2.14376E-003,0.00000E+000,-1.05464E-004,9.89845E-001,0.00000E+000,1.54642E-003,-4.72795E-002,1.00000E+000,4
1009,1327,6.04462E+000,-2.29308E-002,-1.73755E-002,1.11173E+000,-1.12449E-001,-3.77761E-002,1.11804E+000,6.00193E-003,4.85154E-001,0,1.71187E+001,-1.81331E+000,9.99907E-001,-2.61460E+001,-3.55653E+001,9.99552E-001,2.71539E-002,-1.09972E-002,5.05939E-004,2.71606E-002,-1.10039E-002,7.59646E-001,2.73231E-002,1.02748E+000,-1.22544E-002,0.00000E+000,1.30523E-002,9.89665E-001,0.00000E+000,-7.16395E-003,-3.72120E-002,1.00000E+000,4
849,1307,-4.70436E+000,-1.46121E+000,9.46220E-002,8.29352E-001,-1.72543E-001,1.00160E-001,8.53011E-001,7.27899E-003,6.18454E-001,0,1.25254E+001,-3.02078E+000,9.99825E-001,-3.20127E+001,-3.93796E+001,9.99173E-001,2.86533E-002,-1.13243E-002,-1.06765E-003,2.86818E-002,-1.13528E-002,-1.52870E+000,2.88886E-002,1.02907E+000,-2.14034E-003,0.00000E+000,-1.63668E-004,9.89845E-001,0.00000E+000,2.27068E-003,-4.72744E-002,1.00000E+000,4
839,1337,-5.34063E+000,4.26294E-001,-2.47983E-002,8.07945E-001,-2.01062E-001,6.60858E-003,8.32613E-001,1.11911E-002,5.59969E-001,0,1.25011E+001,-3.25267E+000,9.99881E-001,-3.17193E+001,-4.01424E+001,9.99533E-001,2.73882E-002,-1.13295E-002,-9.94958E-004,2.74138E-002,-1.13551E-002,-1.47108E+000,2.75479E-002,1.02777E+000,-1.73953E-003,0.00000E+000,-2.89650E-004,9.89816E-001,0.00000E+000,-1.45146E-004,-4.67619E-002,1.00000E+000,4
839,1347,-5.32378E+000,1.06531E+000,-2.88231E-002,8.07245E-001,-2.06275E-001,-2.06060E-002,8.33438E-001,4.45043E-003,5.01912E-001,0,1.25742E+001,-3.27071E+000,9.99852E-001,-3.13425E+001,-4.03159E+001,9.99682E-001,2.69483E-002,-1.13296E-002,-1.00259E-003,2.69745E-002,-1.13558E-002,-1.49935E+000,2.70866E-002,1.02731E+000,-1.75166E-003,0.00000E+000,-2.57459E-004,9.89817E-001,0.00000E+000,-9.00086E-004,-4.67822E-002,1.00000E+000,4
839,1357,-5.29457E+000,1.71598E+000,2.04502E-002,8.07480E-001,-2.09708E-001,-5.03793E-002,8.35787E-001,3.90212E-003,4.87729E-001,0,1.26674E+001,-3.25684E+000,9.99890E-001,-3.06431E+001,-4.04082E+001,9.99652E-001,2.65020E-002,-1.13297E-002,-1.01406E-003,2.65292E-002,-1.13569E-002,-1.53431E+000,2.66205E-002,1.02686E+000,-1.77156E-003,0.00000E+000,-2.24860E-004,9.89818E-001,0.00000E+000,-1.66462E-003,-4.68155E-002,1.00000E+000,4
1019,1337,6.72997E+000,6.34956E-001,-2.88470E-002,1.12351E+000,-1.09553E-001,-6.02215E-002,1.13045E+000,5.60909E-003,5.19767E-001,0,1.73614E+001,-1.72555E+000,9.99884E-001,-2.54626E+001,-3.52629E+001,9.99671E-001,2.69537E-002,-1.10425E-002,3.70563E-004,2.69573E-002,-1.10461E-002,5.58714E-001,2.71032E-002,1.02726E+000,-1.23983E-002,0.00000E+000,1.28509E-002,9.89592E-001,0.00000E+000,-5.27008E-003,-3.63929E-002,1.00000E+000,4
1019,1347,6.74359E+000,1.27708E+000,-1.79774E-002,1.11527E+000,-1.17623E-001,-7.90956E-002,1.12424E+000,4.97600E-003,4.81605E-001,0,1.73008E+001,-1.80368E+000,9.99916E-001,-2.51313E+001,-3.53832E+001,9.99757E-001,2.67995E-002,-1.10423E-002,3.69441E-004,2.68031E-002,-1.10459E-002,5.59295E-001,2.69407E-002,1.02710E+000,-1.24037E-002,0.00000E+000,1.28298E-002,9.89591E-001,0.00000E+000,-4.54968E-003,-3.63686E-002,1.00000E+000,4
839,1327,-5.35853E+000,-2.08624E-001,-2.75462E-002,8.09631E-001,-1.89742E-001,3.68512E-002,8.32384E-001,1.11869E-002,5.89702E-001,0,1.24322E+001,-3.14481E+000,9.99921E-001,-3.21277E+001,-3.99086E+001,9.99372E-001,2.78285E-002,-1.13294E-002,-9.86666E-004,2.78534E-002,-1.13543E-002,-1.44247E+000,2.80113E-002,1.02822E+000,-1.72601E-003,0.00000E+000,-3.21926E-004,9.89815E-001,0.00000E+000,6.11802E-004,-4.67393E-002,1.00000E+000,4
1019,1327,6.71885E+000,-8.46428E-003,-2.36860E-002,1.13067E+000,-1.04240E-001,-4.10044E-002,1.13620E+000,5.90271E-003,4.89342E-001,0,1.74048E+001,-1.67294E+000,9.99859E-001,-2.57220E+001,-3.52357E+001,9.99523E-001,2.71072E-002,-1.10427E-002,3.71238E-004,2.71108E-002,-1.10463E-002,5.57477E-001,2.72652E-002,1.02742E+000,-1.23937E-002,0.00000E+000,1.28721E-002,9.89593E-001,0.00000E+000,-5.98966E-003,-3.64132E-002,1.00000E+000,4
1019,1317,6.71602E+000,-6.46281E-001,1.48134E-002,1.13889E+000,-9.74371E-002,-1.97469E-002,1.14322E+000,7.30179E-003,4.47195E-001,0,1.74554E+001,-1.60524E+000,9.99891E-001,-2.57837E+001,-3.52016E+001,9.99179E-001,2.72595E-002,-1.10429E-002,3.71048E-004,2.72631E-002,-1.10465E-002,5.54974E-001,2.74261E-002,1.02758E+000,-1.23909E-002,0.00000E+000,1.28932E-002,9.89593E-001,0.00000E+000,-6.70621E-003,-3.64255E-002,1.00000E+000,4
839,1317,-5.36657E+000,-8.38962E-001,2.70358E-002,8.09560E-001,-1.80736E-001,6.71753E-002,8.32205E-001,5.20892E-003,5.56692E-001,0,1.23349E+001,-3.06495E+000,9.99873E-001,-3.22422E+001,-3.97603E+001,9.99076E-001,2.82645E-002,-1.13294E-002,-9.82239E-004,2.82889E-002,-1.13537E-002,-1.42022E+000,2.84718E-002,1.02867E+000,-1.72039E-003,0.00000E+000,-3.53944E-004,9.89814E-001,0.00000E+000,1.36269E-003,-4.67299E-002,1.00000E+000,4
1019,1297,6.71515E+000,-1.91185E+000,1.15455E-001,1.15437E+000,-7.98979E-002,2.15487E-002,1.15733E+000,6.58303E-003,4.53502E-001,0,1.75436E+001,-1.41604E+000,9.99891E-001,-2.57831E+001,-3.49873E+001,9.99056E-001,2.75615E-002,-1.10431E-002,3.69956E-004,2.75650E-002,-1.10467E-002,5.49010E-001,2.77455E-002,1.02790E+000,-1.23869E-002,0.00000E+000,1.29352E-002,9.89593E-001,0.00000E+000,-8.13375E-003,-3.64436E-002,1.00000E+000,4
1019,1307,6.71329E+000,-1.27908E+000,5.46071E-002,1.14633E+000,-8.88431E-002,-7.74486E-004,1.14977E+000,9.29713E-003,5.03111E-001,0,1.75013E+001,-1.51353E+000,9.99909E-001,-2.58410E+001,-3.50455E+001,9.98973E-001,2.74106E-002,-1.10430E-002,3.70745E-004,2.74142E-002,-1.10466E-002,5.52340E-001,2.75858E-002,1.02774E+000,-1.23884E-002,0.00000E+000,1.29141E-002,9.89593E-001,0.00000E+000,-7.41936E-003,-3.64368E-002,1.00000E+000,4
839,1307,-5.37004E+000,-1.46496E+000,1.00111E-001,8.09923E-001,-1.70699E-001,9.56543E-002,8.33224E-001,4.34318E-003,5.17599E-001,0,1.22492E+001,-2.95643E+000,9.99840E-001,-3.22397E+001,-3.95878E+001,9.99118E-001,2.86980E-002,-1.13294E-002,-9.79188E-004,2.87219E-002,-1.13533E-002,-1.40051E+000,2.89311E-002,1.02912E+000,-1.71759E-003,0.00000E+000,-3.85828E-004,9.89814E-001,0.00000E+000,2.11042E-003,-4.67253E-002,1.00000E+000,4
829,1337,-6.00886E+000,4.20520E-001,-3.22270E-002,7.89143E-001,-1.98966E-001,5.50397E-003,8.13857E-001,6.86872E-003,5.38936E-001,0,1.22219E+001,-3.22091E+000,9.99852E-001,-3.20127E+001,-4.03197E+001,9.99526E-001,2.73977E-002,-1.13284E-002,-9.22093E-004,2.74196E-002,-1.13503E-002,-1.36322E+000,2.75546E-002,1.02778E+000,-1.34743E-003,0.00000E+000,-5.10325E-004,9.89789E-001,0.00000E+000,-4.09654E-004,-4.61542E-002,1.00000E+000,4
829,1347,-5.98809E+000,1.06205E+000,-2.09917E-002,7.89938E-001,-2.04804E-001,-1.89844E-002,8.16277E-001,3.58013E-003,5.26312E-001,0,1.23088E+001,-3.25423E+000,9.99798E-001,-3.15363E+001,-4.04664E+001,9.99592E-001,2.69707E-002,-1.13304E-002,-9.61353E-004,2.69948E-002,-1.13545E-002,-1.43691E+000,2.71080E-002,1.02734E+000,-1.36083E-003,0.00000E+000,-5.36399E-004,9.89788E-001,0.00000E+000,-1.24563E-003,-4.61798E-002,1.00000E+000,4
829,1357,-5.96036E+000,1.71052E+000,2.20361E-002,7.90354E-001,-2.09313E-001,-4.79768E-002,8.19007E-001,4.18983E-003,5.22241E-001,0,1.24024E+001,-3.26174E+000,9.99859E-001,-3.08729E+001,-4.05757E+001,9.99645E-001,2.65398E-002,-1.13331E-002,-1.00325E-003,2.65664E-002,-1.13597E-002,-1.51634E+000,2.66591E-002,1.02690E+000,-1.37909E-003,0.00000E+000,-5.62656E-004,9.89787E-001,0.00000E+000,-2.08745E-003,-4.62147E-002,1.00000E+000,4
1029,1337,7.40032E+000,6.46675E-001,-4.10656E-002,1.13895E+000,-1.02321E-001,-6.53338E-002,1.14540E+000,5.40595E-003,4.89194E-001,0,1.76016E+001,-1.60041E+000,9.99836E-001,-2.51086E+001,-3.49790E+001,9.99359E-001,2.69661E-002,-1.10195E-002,2.44704E-004,2.69677E-002,-1.10211E-002,3.69080E-001,2.71172E-002,1.02726E+000,-1.24879E-002,0.00000E+000,1.26472E-002,9.89596E-001,0.00000E+000,-4.18884E-003,-3.58109E-002,1.00000E+000,4
1029,1347,7.41495E+000,1.29204E+000,-3.01181E-002,1.13064E+000,-1.08955E-001,-8.79467E-002,1.13928E+000,4.72006E-003,5.04639E-001,0,1.75528E+001,-1.65903E+000,9.99891E-001,-2.47631E+001,-3.50206E+001,9.99432E-001,2.68624E-002,-1.10183E-002,2.54622E-004,2.68641E-002,-1.10200E-002,3.85100E-001,2.70081E-002,1.02716E+000,-1.24917E-002,0.00000E+000,1.26491E-002,9.89596E-001,0.00000E+000,-3.55247E-003,-3.57885E-002,1.00000E+000,4
1029,1327,7.39380E+000,5.05380E-003,-2.35013E-002,1.14817E+000,-9.60601E-002,-4.52897E-002,1.15307E+000,5.85968E-003,4.58802E-001,0,1.76722E+001,-1.54465E+000,9.99828E-001,-2.52697E+001,-3.49522E+001,9.99408E-001,2.70690E-002,-1.10204E-002,2.34247E-004,2.70704E-002,-1.10218E-002,3.52347E-001,2.72255E-002,1.02737E+000,-1.24852E-002,0.00000E+000,1.26452E-002,9.89596E-001,0.00000E+000,-4.82253E-003,-3.58262E-002,1.00000E+000,4
829,1327,-6.02424E+000,-2.13039E-001,-1.78614E-002,7.89363E-001,-1.89028E-001,3.39048E-002,8.12388E-001,7.02408E-003,5.63299E-001,0,1.21365E+001,-3.13111E+000,9.99904E-001,-3.23411E+001,-4.01028E+001,9.99614E-001,2.78217E-002,-1.13268E-002,-8.84439E-004,2.78416E-002,-1.13467E-002,-1.29354E+000,2.79998E-002,1.02821E+000,-1.33695E-003,0.00000E+000,-4.84380E-004,9.89789E-001,0.00000E+000,4.22147E-004,-4.61342E-002,1.00000E+000,4
829,1307,-6.03358E+000,-1.46973E+000,1.12895E-001,7.92310E-001,-1.70582E-001,9.89449E-002,8.16482E-001,5.85633E-003,4.84902E-001,0,1.19767E+001,-2.95861E+000,9.99830E-001,-3.24126E+001,-3.97930E+001,9.98874E-001,2.86611E-002,-1.13255E-002,-8.15717E-004,2.86777E-002,-1.13421E-002,-1.16817E+000,2.88857E-002,1.02908E+000,-1.32854E-003,0.00000E+000,-4.32857E-004,9.89790E-001,0.00000E+000,2.07404E-003,-4.61182E-002,1.00000E+000,4
829,1317,-6.03215E+000,-8.43109E-001,3.15326E-002,7.90678E-001,-1.79606E-001,6.57668E-002,8.13484E-001,5.83676E-003,5.40472E-001,0,1.20566E+001,-3.04413E+000,9.99866E-001,-3.24669E+001,-3.99323E+001,9.99434E-001,2.82428E-002,-1.13258E-002,-8.49007E-004,2.82610E-002,-1.13440E-002,-1.22862E+000,2.84436E-002,1.02865E+000,-1.33070E-003,0.00000E+000,-4.58559E-004,9.89790E-001,0.00000E+000,1.24999E-003,-4.61223E-002,1.00000E+000,4
1029,1317,7.39032E+000,-6.32052E-001,1.00598E-002,1.15607E+000,-8.99975E-002,-2.77691E-002,1.15990E+000,7.13027E-003,4.85388E-001,0,1.77308E+001,-1.48574E+000,9.99893E-001,-2.53511E+001,-3.48639E+001,9.99220E-001,2.71708E-002,-1.10211E-002,2.23503E-004,2.71721E-002,-1.10224E-002,3.35285E-001,2.73329E-002,1.02748E+000,-1.24833E-002,0.00000E+000,1.26433E-002,9.89596E-001,0.00000E+000,-5.45242E-003,-3.58374E-002,1.00000E+000,4
1029,1307,7.38960E+000,-1.26510E+000,6.06294E-002,1.16416E+000,-8.17444E-002,-4.36874E-003,1.16703E+000,7.21157E-003,4.99684E-001,0,1.77703E+001,-1.39713E+000,9.99934E-001,-2.53543E+001,-3.47569E+001,9.98074E-001,2.72720E-002,-1.10218E-002,2.12569E-004,2.72732E-002,-1.10230E-002,3.18036E-001,2.74397E-002,1.02759E+000,-1.24818E-002,0.00000E+000,1.26414E-002,9.89596E-001,0.00000E+000,-6.08097E-003,-3.58460E-002,1.00000E+000,4
1029,1297,7.39195E+000,-1.89634E+000,1.21971E-001,1.17313E+000,-7.12483E-002,2.01942E-002,1.17546E+000,6.42720E-003,4.84953E-001,0,1.78179E+001,-1.29072E+000,9.99926E-001,-2.52876E+001,-3.46600E+001,9.98274E-001,2.73730E-002,-1.10223E-002,2.01439E-004,2.73740E-002,-1.10234E-002,3.00588E-001,2.75463E-002,1.02770E+000,-1.24807E-002,0.00000E+000,1.26395E-002,9.89596E-001,0.00000E+000,-6.71037E-003,-3.58525E-002,1.00000E+000,4
819,1317,-6.69608E+000,-8.48913E-001,4.06262E-002,7.72304E-001,-1.80922E-001,6.53125E-002,7.95897E-001,6.38375E-003,4.99902E-001,0,1.17834E+001,-3.04729E+000,9.99819E-001,-3.26509E+001,-4.01517E+001,9.98983E-001,2.80896E-002,-1.12697E-002,-7.16224E-004,2.81027E-002,-1.12827E-002,-1.04215E+000,2.82839E-002,1.02849E+000,-9.61645E-004,0.00000E+000,-5.36640E-004,9.89808E-001,0.00000E+000,9.71326E-004,-4.52989E-002,1.00000E+000,4
819,1327,-6.68982E+000,-2.20577E-001,-1.85590E-002,7.71632E-001,-1.90010E-001,3.45841E-002,7.95434E-001,7.41776E-003,5.05414E-001,0,1.18693E+001,-3.12732E+000,9.99854E-001,-3.25747E+001,-4.03385E+001,9.98873E-001,2.76881E-002,-1.12709E-002,-7.72633E-004,2.77034E-002,-1.12862E-002,-1.13569E+000,2.78614E-002,1.02808E+000,-9.66159E-004,0.00000E+000,-6.07404E-004,9.89807E-001,0.00000E+000,1.64452E-004,-4.53077E-002,1.00000E+000,4
819,1337,-6.67434E+000,4.16096E-001,-3.49597E-002,7.72316E-001,-1.97099E-001,7.55390E-003,7.97105E-001,4.45648E-003,5.48792E-001,0,1.19629E+001,-3.19477E+000,9.99838E-001,-3.22484E+001,-4.04709E+001,9.99526E-001,2.72825E-002,-1.12734E-002,-8.31935E-004,2.73005E-002,-1.12913E-002,-1.23552E+000,2.74360E-002,1.02766E+000,-9.75690E-004,0.00000E+000,-6.78744E-004,9.89806E-001,0.00000E+000,-6.48992E-004,-4.53263E-002,1.00000E+000,4
819,1307,-6.70089E+000,-1.47298E+000,1.11199E-001,7.71391E-001,-1.70946E-001,9.22727E-002,7.95475E-001,6.68935E-003,5.31520E-001,0,1.16839E+001,-2.94548E+000,9.99806E-001,-3.26752E+001,-3.99052E+001,9.98928E-001,2.84885E-002,-1.12690E-002,-6.61017E-004,2.84995E-002,-1.12800E-002,-9.52262E-001,2.87050E-002,1.02890E+000,-9.59082E-004,0.00000E+000,-4.66201E-004,9.89808E-001,0.00000E+000,1.77449E-003,-4.52939E-002,1.00000E+000,4
819,1347,-6.65362E+000,1.05795E+000,-1.93024E-002,7.72838E-001,-2.02952E-001,-1.43877E-002,7.99172E-001,4.53216E-003,5.53243E-001,0,1.20373E+001,-3.23814E+000,9.99873E-001,-3.17601E+001,-4.06156E+001,9.99655E-001,2.68741E-002,-1.12768E-002,-8.93207E-004,2.68950E-002,-1.12977E-002,-1.34046E+000,2.70093E-002,1.02724E+000,-9.88671E-004,0.00000E+000,-7.50434E-004,9.89803E-001,0.00000E+000,-1.46643E-003,-4.53517E-002,1.00000E+000,4
819,1357,-6.62566E+000,1.70472E+000,2.67354E-002,7.73155E-001,-2.09128E-001,-4.31733E-002,8.02102E-001,4.94318E-003,5.38101E-001,0,1.21286E+001,-3.26992E+000,9.99901E-001,-3.10835E+001,-4.07648E+001,9.99602E-001,2.64622E-002,-1.12815E-002,-9.57187E-004,2.64865E-002,-1.13057E-002,-1.45179E+000,2.65808E-002,1.02682E+000,-1.00642E-003,0.00000E+000,-8.22586E-004,9.89800E-001,0.00000E+000,-2.28912E-003,-4.53863E-002,1.00000E+000,4
1039,1337,8.07533E+000,6.60926E-001,-4.69257E-002,1.15698E+000,-9.49157E-002,-7.09377E-002,1.16303E+000,5.05993E-003,5.06665E-001,0,1.78824E+001,-1.47532E+000,9.99881E-001,-2.46654E+001,-3.46455E+001,9.99155E-001,2.69464E-002,-1.09648E-002,9.71212E-005,2.69467E-002,-1.09651E-002,1.46779E-001,2.71019E-002,1.02724E+000,-1.25343E-002,0.00000E+000,1.23613E-002,9.89642E-001,0.00000E+000,-3.09985E-003,-3.54939E-002,1.00000E+000,4
1039,1347,8.08857E+000,1.30320E+000,-3.52644E-002,1.14757E+000,-1.02563E-001,-9.10623E-002,1.15574E+000,5.32741E-003,4.55031E-001,0,1.78091E+001,-1.55320E+000,9.99929E-001,-2.43419E+001,-3.47685E+001,9.99455E-001,2.68945E-002,-1.09639E-002,1.06052E-004,2.68948E-002,-1.09641E-002,1.60500E-001,2.70472E-002,1.02719E+000,-1.25362E-002,0.00000E+000,1.23619E-002,9.89642E-001,0.00000E+000,-2.54220E-003,-3.54746E-002,1.00000E+000,4
1039,1317,8.06358E+000,-6.17975E-001,5.29341E-003,1.17348E+000,-8.06963E-002,-2.85219E-002,1.17659E+000,4.73743E-003,4.70383E-001,0,1.79834E+001,-1.34211E+000,9.99897E-001,-2.49306E+001,-3.45552E+001,9.99398E-001,2.70491E-002,-1.09662E-002,7.86020E-005,2.70493E-002,-1.09663E-002,1.18466E-001,2.72101E-002,1.02735E+000,-1.25319E-002,0.00000E+000,1.23603E-002,9.89642E-001,0.00000E+000,-4.21215E-003,-3.55181E-002,1.00000E+000,4
1039,1327,8.06831E+000,1.81561E-002,-2.52914E-002,1.16602E+000,-8.80996E-002,-4.61263E-002,1.17025E+000,4.94720E-003,4.32990E-001,0,1.79327E+001,-1.42102E+000,9.99876E-001,-2.48248E+001,-3.46687E+001,9.99238E-001,2.69981E-002,-1.09656E-002,8.79026E-005,2.69983E-002,-1.09658E-002,1.32664E-001,2.71563E-002,1.02729E+000,-1.25329E-002,0.00000E+000,1.23608E-002,9.89642E-001,0.00000E+000,-3.65829E-003,-3.55077E-002,1.00000E+000,4
1039,1307,8.06223E+000,-1.25291E+000,4.91267E-002,1.18145E+000,-7.35330E-002,-9.97352E-003,1.18378E+000,5.34261E-003,4.80457E-001,0,1.80384E+001,-1.26228E+000,9.99924E-001,-2.49570E+001,-3.44669E+001,9.99056E-001,2.70997E-002,-1.09667E-002,6.91942E-005,2.70998E-002,-1.09669E-002,1.04147E-001,2.72635E-002,1.02740E+000,-1.25311E-002,0.00000E+000,1.23598E-002,9.89642E-001,0.00000E+000,-4.76523E-003,-3.55261E-002,1.00000E+000,4
1039,1297,8.06552E+000,-1.88473E+000,1.14471E-001,1.19084E+000,-6.41313E-002,1.61222E-002,1.19267E+000,5.16256E-003,4.68445E-001,0,1.80866E+001,-1.17156E+000,9.99888E-001,-2.48675E+001,-3.43879E+001,9.98961E-001,2.71500E-002,-1.09672E-002,5.96574E-005,2.71500E-002,-1.09673E-002,8.96738E-002,2.73165E-002,1.02746E+000,-1.25306E-002,0.00000E+000,1.23593E-002,9.89642E-001,0.00000E+000,-5.31810E-003,-3.55314E-002,1.00000E+000,4
1049,1337,8.75289E+000,6.73974E-001,-4.60798E-002,1.17645E+000,-8.66840E-002,-7.28154E-002,1.18189E+000,7.57902E-003,4.64985E-001,0,1.81711E+001,-1.35485E+000,9.99933E-001,-2.41656E+001,-3.43748E+001,9.99476E-001,2.69064E-002,-1.09911E-002,-7.62674E-005,2.69066E-002,-1.09913E-002,-1.15305E-001,2.70564E-002,1.02720E+000,-1.25876E-002,0.00000E+000,1.20360E-002,9.89605E-001,0.00000E+000,-2.15810E-003,-3.50754E-002,1.00000E+000,4
1049,1347,8.76985E+000,1.32101E+000,-2.38053E-002,1.16829E+000,-9.35010E-002,-9.18587E-002,1.17562E+000,7.01606E-003,4.71510E-001,0,1.81127E+001,-1.41644E+000,9.99894E-001,-2.37650E+001,-3.44167E+001,9.99152E-001,2.69349E-002,-1.09902E-002,-6.61227E-005,2.69351E-002,-1.09903E-002,-9.98952E-002,2.70865E-002,1.02722E+000,-1.25865E-002,0.00000E+000,1.20431E-002,9.89605E-001,0.00000E+000,-1.82433E-003,-3.50627E-002,1.00000E+000,4
1049,1307,8.74090E+000,-1.23810E+000,6.30765E-002,1.20050E+000,-6.43259E-002,-6.57522E-003,1.20224E+000,7.22829E-003,4.36207E-001,0,1.82996E+001,-1.13054E+000,9.99914E-001,-2.44108E+001,-3.42027E+001,9.99201E-001,2.68211E-002,-1.09929E-002,-1.05592E-004,2.68214E-002,-1.09932E-002,-1.59991E-001,2.69663E-002,1.02711E+000,-1.25892E-002,0.00000E+000,1.20149E-002,9.89605E-001,0.00000E+000,-3.14920E-003,-3.50938E-002,1.00000E+000,4
1049,1317,8.74215E+000,-6.02547E-001,1.97836E-002,1.19202E+000,-7.17209E-002,-2.58666E-002,1.19446E+000,7.33295E-003,4.44787E-001,0,1.82402E+001,-1.21536E+000,9.99830E-001,-2.43857E+001,-3.42721E+001,9.98226E-001,2.68496E-002,-1.09924E-002,-9.58842E-005,2.68499E-002,-1.09926E-002,-1.45175E-001,2.69964E-002,1.02714E+000,-1.25887E-002,0.00000E+000,1.20219E-002,9.89605E-001,0.00000E+000,-2.81958E-003,-3.50888E-002,1.00000E+000,4
1049,1327,8.74343E+000,3.24067E-002,-2.73289E-002,1.18417E+000,-7.99510E-002,-4.64427E-002,1.18777E+000,4.47613E-003,4.50901E-001,0,1.81953E+001,-1.30133E+000,9.99897E-001,-2.43677E+001,-3.43451E+001,9.98776E-001,2.68780E-002,-1.09919E-002,-8.61870E-005,2.68782E-002,-1.09921E-002,-1.30397E-001,2.70263E-002,1.02717E+000,-1.25883E-002,0.00000E+000,1.20289E-002,9.89605E-001,0.00000E+000,-2.48977E-003,-3.50841E-002,1.00000E+000,4
809,1347,-7.32118E+000,1.04911E+000,-2.69946E-002,7.53615E-001,-2.04286E-001,-1.76767E-002,7.81012E-001,4.21234E-003,5.42597E-001,0,1.17579E+001,-3.25538E+000,9.99934E-001,-3.20354E+001,-4.08360E+001,9.99675E-001,2.67493E-002,-1.12269E-002,-7.97531E-004,2.67661E-002,-1.12436E-002,-1.20255E+000,2.68798E-002,1.02711E+000,-6.63736E-004,0.00000E+000,-8.65287E-004,9.89819E-001,0.00000E+000,-1.67923E-003,-4.45980E-002,1.00000E+000,4
809,1357,-7.29372E+000,1.69715E+000,2.27526E-002,7.52942E-001,-2.10059E-001,-4.62648E-002,7.83062E-001,5.41640E-003,5.32299E-001,0,1.18326E+001,-3.27459E+000,9.99906E-001,-3.13544E+001,-4.09732E+001,9.99364E-001,2.63686E-002,-1.12339E-002,-8.88526E-004,2.63896E-002,-1.12549E-002,-1.35286E+000,2.64845E-002,1.02672E+000,-6.80451E-004,0.00000E+000,-9.93191E-004,9.89814E-001,0.00000E+000,-2.48899E-003,-4.46328E-002,1.00000E+000,4
809,1327,-7.35700E+000,-2.26766E-001,-2.47835E-002,7.51857E-001,-1.92218E-001,3.00127E-002,7.76619E-001,5.71600E-003,5.44213E-001,0,1.15865E+001,-3.13902E+000,9.99893E-001,-3.28435E+001,-4.04937E+001,9.98619E-001,2.74987E-002,-1.12183E-002,-6.24142E-004,2.75087E-002,-1.12283E-002,-9.23325E-001,2.76630E-002,1.02788E+000,-6.43462E-004,0.00000E+000,-6.12724E-004,9.89826E-001,0.00000E+000,-8.02461E-005,-4.45558E-002,1.00000E+000,4
809,1337,-7.34026E+000,4.09949E-001,-3.34520E-002,7.53507E-001,-1.97889E-001,8.36353E-003,7.79104E-001,3.63989E-003,5.57218E-001,0,1.16776E+001,-3.20433E+000,9.99908E-001,-3.24769E+001,-4.06588E+001,9.99644E-001,2.71252E-002,-1.12221E-002,-7.10099E-004,2.71383E-002,-1.12352E-002,-1.06050E+000,2.72718E-002,1.02750E+000,-6.52450E-004,0.00000E+000,-7.38748E-004,9.89823E-001,0.00000E+000,-8.78108E-004,-4.45745E-002,1.00000E+000,4
809,1307,-7.36860E+000,-1.47758E+000,1.08318E-001,7.51056E-001,-1.70628E-001,9.13303E-002,7.75591E-001,6.86330E-003,5.84150E-001,0,1.13818E+001,-2.95383E+000,9.99657E-001,-3.29437E+001,-4.00330E+001,9.98535E-001,2.82378E-002,-1.12155E-002,-4.59066E-004,2.82432E-002,-1.12208E-002,-6.66554E-001,2.84411E-002,1.02864E+000,-6.36977E-004,0.00000E+000,-3.62558E-004,9.89828E-001,0.00000E+000,1.50356E-003,-4.45423E-002,1.00000E+000,4
809,1317,-7.36236E+000,-8.53469E-001,3.58601E-002,7.53616E-001,-1.81508E-001,6.34187E-002,7.77756E-001,7.33286E-003,5.66113E-001,0,1.15094E+001,-3.05442E+000,9.99882E-001,-3.29020E+001,-4.02694E+001,9.98909E-001,2.78692E-002,-1.12164E-002,-5.40984E-004,2.78767E-002,-1.12239E-002,-7.92828E-001,2.80524E-002,1.02826E+000,-6.39203E-004,0.00000E+000,-4.87451E-004,9.89827E-001,0.00000E+000,7.12856E-004,-4.45470E-002,1.00000E+000,4
1049,1297,8.73958E+000,-1.87290E+000,1.12677E-001,1.20773E+000,-5.70858E-002,1.40161E-002,1.20916E+000,6.04975E-003,4.28777E-001,0,1.83353E+001,-1.04988E+000,9.99814E-001,-2.44243E+001,-3.41361E+001,9.98540E-001,2.67926E-002,-1.09933E-002,-1.15267E-004,2.67929E-002,-1.09937E-002,-1.74780E-001,2.69362E-002,1.02708E+000,-1.25896E-002,0.00000E+000,1.20080E-002,9.89604E-001,0.00000E+000,-3.47848E-003,-3.50981E-002,1.00000E+000,4
799,1337,-8.00595E+000,4.02588E-001,-3.68441E-002,7.35440E-001,-1.98672E-001,8.90829E-003,7.61854E-001,3.62046E-003,5.40821E-001,0,1.14043E+001,-3.20954E+000,9.99940E-001,-3.27104E+001,-4.08673E+001,9.99679E-001,2.68718E-002,-1.11610E-002,-5.76387E-004,2.68805E-002,-1.11698E-002,-8.68050E-001,2.70081E-002,1.02724E+000,-3.45861E-004,0.00000E+000,-7.63434E-004,9.89851E-001,0.00000E+000,-1.02013E-003,-4.38417E-002,1.00000E+000,4
799,1347,-7.98729E+000,1.04247E+000,-3.00754E-002,7.35641E-001,-2.04235E-001,-1.50202E-002,7.63614E-001,4.42188E-003,5.40344E-001,0,1.14789E+001,-3.25369E+000,9.99882E-001,-3.22729E+001,-4.10286E+001,9.99560E-001,2.65245E-002,-1.11668E-002,-6.82631E-004,2.65369E-002,-1.11791E-002,-1.03724E+000,2.66463E-002,1.02688E+000,-3.56026E-004,0.00000E+000,-9.32269E-004,9.89846E-001,0.00000E+000,-1.74518E-003,-4.38624E-002,1.00000E+000,4
799,1357,-7.95885E+000,1.69146E+000,2.16791E-002,7.36006E-001,-2.08734E-001,-4.25088E-002,7.66212E-001,4.28159E-003,5.36025E-001,0,1.15653E+001,-3.26231E+000,9.99891E-001,-3.15691E+001,-4.11542E+001,9.99429E-001,2.61729E-002,-1.11755E-002,-7.92535E-004,2.61897E-002,-1.11923E-002,-1.21509E+000,2.62817E-002,1.02652E+000,-3.71474E-004,0.00000E+000,-1.10286E-003,9.89839E-001,0.00000E+000,-2.47779E-003,-4.38939E-002,1.00000E+000,4
799,1327,-8.02092E+000,-2.33568E-001,-1.94612E-002,7.35014E-001,-1.91880E-001,3.70289E-002,7.60549E-001,9.54439E-003,5.42267E-001,0,1.13124E+001,-3.16600E+000,9.99923E-001,-3.30289E+001,-4.07032E+001,9.98748E-001,2.72174E-002,-1.11565E-002,-4.71517E-004,2.72232E-002,-1.11623E-002,-7.03877E-001,2.73697E-002,1.02759E+000,-3.37849E-004,0.00000E+000,-5.95111E-004,9.89855E-001,0.00000E+000,-2.97278E-004,-4.38254E-002,1.00000E+000,4
1059,1327,9.41887E+000,4.63380E-002,-2.58774E-002,1.20134E+000,-7.25197E-002,-4.68360E-002,1.20444E+000,6.97154E-003,4.50018E-001,0,1.84431E+001,-1.18527E+000,9.99920E-001,-2.38950E+001,-3.40435E+001,9.98965E-001,2.67999E-002,-1.10314E-002,-1.87991E-004,2.68008E-002,-1.10324E-002,-2.84704E-001,2.69400E-002,1.02709E+000,-1.24873E-002,0.00000E+000,1.16928E-002,9.89560E-001,0.00000E+000,-1.40540E-003,-3.48147E-002,1.00000E+000,4
1059,1337,9.42942E+000,6.89772E-001,-3.85455E-002,1.19420E+000,-7.77983E-002,-6.87488E-002,1.19871E+000,5.77640E-003,4.65547E-001,0,1.84117E+001,-1.22811E+000,9.99921E-001,-2.36650E+001,-3.40554E+001,9.99466E-001,2.68885E-002,-1.10305E-002,-1.74002E-004,2.68893E-002,-1.10313E-002,-2.62910E-001,2.70333E-002,1.02718E+000,-1.24848E-002,0.00000E+000,1.17126E-002,9.89560E-001,0.00000E+000,-1.27348E-003,-3.48111E-002,1.00000E+000,4
1059,1347,9.44682E+000,1.33524E+000,-2.09367E-002,1.18608E+000,-8.55626E-002,-9.34834E-002,1.19283E+000,8.31312E-003,4.38365E-001,0,1.83749E+001,-1.29036E+000,9.99919E-001,-2.32689E+001,-3.41265E+001,9.99075E-001,2.69774E-002,-1.10292E-002,-1.59429E-004,2.69781E-002,-1.10299E-002,-2.40337E-001,2.71271E-002,1.02727E+000,-1.24813E-002,0.00000E+000,1.17324E-002,9.89561E-001,0.00000E+000,-1.14091E-003,-3.48060E-002,1.00000E+000,4
1059,1297,9.41332E+000,-1.86098E+000,1.06023E-001,1.22587E+000,-4.82698E-002,1.56283E-002,1.22692E+000,5.19389E-003,4.05334E-001,0,1.85891E+001,-9.24811E-001,9.99861E-001,-2.39923E+001,-3.38644E+001,9.98906E-001,2.65354E-002,-1.10335E-002,-2.28224E-004,2.65368E-002,-1.10348E-002,-3.48044E-001,2.66618E-002,1.02682E+000,-1.24915E-002,0.00000E+000,1.16340E-002,9.89559E-001,0.00000E+000,-1.79904E-003,-3.48208E-002,1.00000E+000,4
1059,1307,9.41457E+000,-1.22736E+000,5.41411E-002,1.21851E+000,-5.60134E-002,-7.28086E-003,1.21982E+000,7.19053E-003,3.81659E-001,0,1.85605E+001,-1.00693E+000,9.99928E-001,-2.39848E+001,-3.39584E+001,9.99024E-001,2.66233E-002,-1.10328E-002,-2.14951E-004,2.66245E-002,-1.10341E-002,-3.27045E-001,2.67542E-002,1.02691E+000,-1.24903E-002,0.00000E+000,1.16536E-002,9.89559E-001,0.00000E+000,-1.66829E-003,-3.48190E-002,1.00000E+000,4
1059,1317,9.41481E+000,-5.92366E-001,7.34640E-003,1.20948E+000,-6.47905E-002,-2.77318E-002,1.21153E+000,8.13895E-003,4.19978E-001,0,1.84978E+001,-1.11081E+000,9.99904E-001,-2.39831E+001,-3.40124E+001,9.98135E-001,2.67115E-002,-1.10322E-002,-2.01589E-004,2.67125E-002,-1.10333E-002,-3.06006E-001,2.68469E-002,1.02700E+000,-1.24890E-002,0.00000E+000,1.16732E-002,9.89559E-001,0.00000E+000,-1.53706E-003,-3.48171E-002,1.00000E+000,4
799,1307,-8.03129E+000,-1.48414E+000,1.16918E-001,7.34146E-001,-1.71548E-001,9.57334E-002,7.59977E-001,8.57773E-003,5.59972E-001,0,1.11161E+001,-2.97982E+000,9.99768E-001,-3.31018E+001,-4.02531E+001,9.99217E-001,2.79000E-002,-1.11535E-002,-2.68970E-004,2.79019E-002,-1.11554E-002,-3.94583E-001,2.80880E-002,1.02829E+000,-3.32586E-004,0.00000E+000,-2.61681E-004,9.89857E-001,0.00000E+000,1.13462E-003,-4.38146E-002,1.00000E+000,4
799,1317,-8.02998E+000,-8.60900E-001,2.54254E-002,7.34482E-001,-1.81484E-001,6.22676E-002,7.59129E-001,9.08750E-003,5.75446E-001,0,1.12257E+001,-3.06511E+000,9.99882E-001,-3.31849E+001,-4.04480E+001,9.98501E-001,2.75600E-002,-1.11539E-002,-3.68958E-004,2.75635E-002,-1.11574E-002,-5.45985E-001,2.77296E-002,1.02794E+000,-3.33142E-004,0.00000E+000,-4.27938E-004,9.89857E-001,0.00000E+000,4.20641E-004,-4.38158E-002,1.00000E+000,4
789,1327,-8.68534E+000,-2.39294E-001,-2.17222E-002,7.17925E-001,-1.90810E-001,4.00045E-002,7.43926E-001,7.32221E-003,5.51298E-001,0,1.10464E+001,-3.16508E+000,9.99907E-001,-3.32372E+001,-4.08745E+001,9.99115E-001,2.69376E-002,-1.10768E-002,-3.38753E-004,2.69406E-002,-1.10798E-002,-5.10519E-001,2.70817E-002,1.02730E+000,-3.12968E-005,0.00000E+000,-6.22729E-004,9.89902E-001,0.00000E+000,-4.08099E-004,-4.30862E-002,1.00000E+000,4
789,1337,-8.67019E+000,3.97429E-001,-3.85504E-002,7.18003E-001,-1.97295E-001,9.10469E-003,7.44672E-001,3.95702E-003,5.33806E-001,0,1.11406E+001,-3.18940E+000,9.99879E-001,-3.29132E+001,-4.10407E+001,9.99712E-001,2.66137E-002,-1.10820E-002,-4.55666E-004,2.66192E-002,-1.10875E-002,-6.92457E-001,2.67426E-002,1.02697E+000,-3.90820E-005,0.00000E+000,-8.20032E-004,9.89897E-001,0.00000E+000,-1.03013E-003,-4.31008E-002,1.00000E+000,4
789,1347,-8.65081E+000,1.03818E+000,-2.95420E-002,7.18628E-001,-2.03021E-001,-1.48006E-002,7.46902E-001,4.32399E-003,5.52942E-001,0,1.12213E+001,-3.23158E+000,9.99843E-001,-3.24572E+001,-4.11854E+001,9.99581E-001,2.62879E-002,-1.10885E-002,-5.74013E-004,2.62967E-002,-1.10973E-002,-8.79650E-001,2.64032E-002,1.02664E+000,-4.87751E-005,0.00000E+000,-1.01819E-003,9.89891E-001,0.00000E+000,-1.65484E-003,-4.31190E-002,1.00000E+000,4
789,1357,-8.62416E+000,1.68531E+000,1.71801E-002,7.18716E-001,-2.08183E-001,-4.07878E-002,7.49370E-001,4.11052E-003,5.53984E-001,0,1.12988E+001,-3.25657E+000,9.99828E-001,-3.17917E+001,-4.13276E+001,9.99453E-001,2.59592E-002,-1.10977E-002,-6.95185E-004,2.59722E-002,-1.11108E-002,-1.07436E+000,2.60623E-002,1.02630E+000,-6.24963E-005,0.00000E+000,-1.21781E-003,9.89883E-001,0.00000E+000,-2.28417E-003,-4.31447E-002,1.00000E+000,4
1069,1327,1.00950E+001,5.90420E-002,-2.96806E-002,1.21980E+000,-6.64978E-002,-4.77937E-002,1.22255E+000,7.70147E-003,4.58440E-001,0,1.87128E+001,-1.08149E+000,9.99912E-001,-2.34191E+001,-3.37450E+001,9.98531E-001,2.67147E-002,-1.10019E-002,-2.92054E-004,2.67169E-002,-1.10041E-002,-4.43628E-001,2.68549E-002,1.02700E+000,-1.23658E-002,0.00000E+000,1.13449E-002,9.89588E-001,0.00000E+000,-6.35515E-004,-3.46771E-002,1.00000E+000,4
1069,1337,1.01030E+001,7.01691E-001,-4.48304E-002,1.21089E+000,-7.07253E-002,-6.85284E-002,1.21489E+000,5.02343E-003,4.13792E-001,0,1.86505E+001,-1.10432E+000,9.99901E-001,-2.32346E+001,-3.37921E+001,9.99074E-001,2.68263E-002,-1.10007E-002,-2.74869E-004,2.68283E-002,-1.10027E-002,-4.16309E-001,2.69724E-002,1.02712E+000,-1.23629E-002,0.00000E+000,1.13785E-002,9.89589E-001,0.00000E+000,-7.43649E-004,-3.46799E-002,1.00000E+000,4
1069,1347,1.01187E+001,1.34666E+000,-3.51191E-002,1.20270E+000,-7.89098E-002,-9.33976E-002,1.20890E+000,4.69014E-003,4.35168E-001,0,1.86144E+001,-1.18415E+000,9.99927E-001,-2.28826E+001,-3.38278E+001,9.99394E-001,2.69387E-002,-1.09993E-002,-2.56975E-004,2.69405E-002,-1.10010E-002,-3.88072E-001,2.70909E-002,1.02723E+000,-1.23587E-002,0.00000E+000,1.14123E-002,9.89590E-001,0.00000E+000,-8.52639E-004,-3.46839E-002,1.00000E+000,4
789,1307,-8.69616E+000,-1.48940E+000,1.10311E-001,7.16798E-001,-1.70639E-001,9.59842E-002,7.43054E-001,8.60433E-003,5.32912E-001,0,1.08558E+001,-2.95072E+000,9.99776E-001,-3.33280E+001,-4.04227E+001,9.97673E-001,2.75771E-002,-1.10735E-002,-1.12444E-004,2.75774E-002,-1.10738E-002,-1.66686E-001,2.77550E-002,1.02796E+000,-2.62822E-005,0.00000E+000,-2.32234E-004,9.89905E-001,0.00000E+000,8.22998E-004,-4.30769E-002,1.00000E+000,4
789,1317,-8.69084E+000,-8.65992E-001,4.13287E-002,7.18361E-001,-1.81432E-001,7.06149E-002,7.44276E-001,9.75147E-003,5.32707E-001,0,1.09591E+001,-3.07201E+000,9.99802E-001,-3.32920E+001,-4.06721E+001,9.97004E-001,2.72580E-002,-1.10748E-002,-2.25183E-004,2.72593E-002,-1.10761E-002,-3.36565E-001,2.74183E-002,1.02763E+000,-2.82265E-005,0.00000E+000,-4.27239E-004,9.89904E-001,0.00000E+000,2.08216E-004,-4.30805E-002,1.00000E+000,4
1069,1297,1.00830E+001,-1.85066E+000,8.62543E-002,1.24128E+000,-4.12675E-002,1.16818E-002,1.24202E+000,5.77797E-003,4.16403E-001,0,1.88219E+001,-8.13485E-001,9.99848E-001,-2.36455E+001,-3.35733E+001,9.98903E-001,2.63802E-002,-1.10045E-002,-3.42095E-004,2.63833E-002,-1.10076E-002,-5.24236E-001,2.65036E-002,1.02666E+000,-1.23718E-002,0.00000E+000,1.12445E-002,9.89586E-001,0.00000E+000,-3.11583E-004,-3.46716E-002,1.00000E+000,4
1069,1307,1.00841E+001,-1.21800E+000,3.00872E-002,1.23485E+000,-4.93056E-002,-1.05640E-002,1.23588E+000,5.75927E-003,3.68575E-001,0,1.88059E+001,-8.92319E-001,9.99906E-001,-2.36496E+001,-3.36830E+001,9.98827E-001,2.64911E-002,-1.10038E-002,-3.25810E-004,2.64939E-002,-1.10066E-002,-4.97820E-001,2.66199E-002,1.02677E+000,-1.23704E-002,0.00000E+000,1.12778E-002,9.89587E-001,0.00000E+000,-4.18945E-004,-3.46728E-002,1.00000E+000,4
1069,1317,1.00895E+001,-5.78823E-001,-4.43340E-004,1.22743E+000,-5.70954E-002,-2.93490E-002,1.22911E+000,7.36358E-003,4.28000E-001,0,1.87612E+001,-9.81454E-001,9.99907E-001,-2.35358E+001,-3.36941E+001,9.98420E-001,2.66029E-002,-1.10028E-002,-3.08944E-004,2.66054E-002,-1.10054E-002,-4.70663E-001,2.67373E-002,1.02689E+000,-1.23681E-002,0.00000E+000,1.13114E-002,9.89587E-001,0.00000E+000,-5.27208E-004,-3.46750E-002,1.00000E+000,4
779,1327,-9.34714E+000,-2.42013E-001,-1.89725E-002,7.02025E-001,-1.89354E-001,4.31263E-002,7.28391E-001,1.07626E-002,5.87808E-001,0,1.07980E+001,-3.14281E+000,9.99919E-001,-3.33881E+001,-4.09964E+001,9.98865E-001,2.66033E-002,-1.09620E-002,-2.88790E-004,2.66056E-002,-1.09642E-002,-4.40436E-001,2.67423E-002,1.02696E+000,2.18328E-004,0.00000E+000,-7.61665E-004,9.89989E-001,0.00000E+000,-4.72715E-004,-4.24728E-002,1.00000E+000,4
779,1337,-9.33334E+000,3.91644E-001,-3.71485E-002,7.01238E-001,-1.97578E-001,1.25361E-002,7.28648E-001,3.97322E-003,5.46598E-001,0,1.08779E+001,-3.19631E+000,9.99837E-001,-3.30876E+001,-4.12207E+001,9.99593E-001,2.63350E-002,-1.09667E-002,-3.99626E-004,2.63393E-002,-1.09710E-002,-6.13734E-001,2.64614E-002,1.02669E+000,2.12069E-004,0.00000E+000,-9.53787E-004,9.89985E-001,0.00000E+000,-9.77804E-004,-4.24843E-002,1.00000E+000,4
779,1347,-9.31435E+000,1.03217E+000,-2.85853E-002,7.01080E-001,-2.02588E-001,-1.47526E-002,7.29913E-001,4.32738E-003,5.42307E-001,0,1.09559E+001,-3.22567E+000,9.99812E-001,-3.26371E+001,-4.13814E+001,9.99560E-001,2.60651E-002,-1.09730E-002,-5.11938E-004,2.60722E-002,-1.09801E-002,-7.91735E-001,2.61800E-002,1.02641E+000,2.03854E-004,0.00000E+000,-1.14682E-003,9.89979E-001,0.00000E+000,-1.48529E-003,-4.24994E-002,1.00000E+000,4
779,1357,-9.28860E+000,1.67873E+000,1.31078E-002,7.01226E-001,-2.07891E-001,-4.20009E-002,7.32598E-001,3.43091E-003,5.52222E-001,0,1.10377E+001,-3.24893E+000,9.99821E-001,-3.19960E+001,-4.15186E+001,9.99647E-001,2.57925E-002,-1.09815E-002,-6.26539E-004,2.58032E-002,-1.09922E-002,-9.75803E-001,2.58972E-002,1.02613E+000,1.92863E-004,0.00000E+000,-1.34149E-003,9.89972E-001,0.00000E+000,-1.99709E-003,-4.25195E-002,1.00000E+000,4
779,1317,-9.35374E+000,-8.70293E-001,4.32352E-002,7.01181E-001,-1.79902E-001,7.20528E-002,7.27469E-001,1.23892E-002,5.10284E-001,0,1.06965E+001,-3.04594E+000,9.99919E-001,-3.34620E+001,-4.08443E+001,9.98499E-001,2.68701E-002,-1.09601E-002,-1.80305E-004,2.68709E-002,-1.09610E-002,-2.73073E-001,2.70224E-002,1.02723E+000,2.20795E-004,0.00000E+000,-5.70431E-004,9.89991E-001,0.00000E+000,3.00386E-005,-4.24682E-002,1.00000E+000,4
1079,1337,1.07792E+001,7.13474E-001,-5.68253E-002,1.22908E+000,-6.53576E-002,-7.68499E-002,1.23321E+000,4.83844E-003,4.34968E-001,0,1.89431E+001,-1.00689E+000,9.99935E-001,-2.27707E+001,-3.34818E+001,9.99576E-001,2.67902E-002,-1.09902E-002,-3.61411E-004,2.67937E-002,-1.09936E-002,-5.48029E-001,2.69370E-002,1.02708E+000,-1.22203E-002,0.00000E+000,1.10533E-002,9.89603E-001,0.00000E+000,-2.37416E-004,-3.46691E-002,1.00000E+000,4
1079,1347,1.07950E+001,1.35984E+000,-4.16252E-002,1.22078E+000,-7.23284E-002,-9.66264E-002,1.22673E+000,3.37160E-003,4.49418E-001,0,1.88869E+001,-1.07759E+000,9.99950E-001,-2.24074E+001,-3.35097E+001,9.99761E-001,2.69327E-002,-1.09884E-002,-3.39085E-004,2.69358E-002,-1.09914E-002,-5.12276E-001,2.70871E-002,1.02723E+000,-1.22150E-002,0.00000E+000,1.11001E-002,9.89604E-001,0.00000E+000,-5.13624E-004,-3.46792E-002,1.00000E+000,4
1079,1297,1.07599E+001,-1.83679E+000,9.07073E-002,1.25964E+000,-3.33043E-002,1.60043E-002,1.26018E+000,6.49045E-003,4.31559E-001,0,1.90681E+001,-7.02219E-001,9.99844E-001,-2.31358E+001,-3.32757E+001,9.98927E-001,2.62244E-002,-1.09948E-002,-4.45065E-004,2.62297E-002,-1.10001E-002,-6.85009E-001,2.63431E-002,1.02650E+000,-1.22315E-002,0.00000E+000,1.08676E-002,9.89599E-001,0.00000E+000,8.57385E-004,-3.46481E-002,1.00000E+000,4
1079,1307,1.07577E+001,-1.20528E+000,2.25747E-002,1.25133E+000,-4.25156E-002,-1.22045E-002,1.25211E+000,6.80034E-003,4.06820E-001,0,1.90466E+001,-7.87857E-001,9.99887E-001,-2.32136E+001,-3.33650E+001,9.98766E-001,2.63651E-002,-1.09940E-002,-4.24937E-004,2.63700E-002,-1.09988E-002,-6.51592E-001,2.64905E-002,1.02664E+000,-1.22301E-002,0.00000E+000,1.09137E-002,9.89600E-001,0.00000E+000,5.85323E-004,-3.46507E-002,1.00000E+000,4
1079,1327,1.07713E+001,7.24142E-002,-3.18276E-002,1.23780E+000,-5.93043E-002,-4.83538E-002,1.24016E+000,6.32737E-003,4.56852E-001,0,1.89731E+001,-9.66474E-001,9.99936E-001,-2.29320E+001,-3.34447E+001,9.99448E-001,2.66487E-002,-1.09916E-002,-3.82781E-004,2.66526E-002,-1.09955E-002,-5.82585E-001,2.67882E-002,1.02693E+000,-1.22240E-002,0.00000E+000,1.10068E-002,9.89601E-001,0.00000E+000,3.66593E-005,-3.46622E-002,1.00000E+000,4
1079,1317,1.07636E+001,-5.65300E-001,-8.18512E-003,1.24447E+000,-4.98699E-002,-3.04907E-002,1.24585E+000,6.52541E-003,4.33838E-001,0,1.90090E+001,-8.51649E-001,9.99911E-001,-2.30931E+001,-3.33776E+001,9.98970E-001,2.65070E-002,-1.09928E-002,-4.03934E-004,2.65114E-002,-1.09972E-002,-6.17073E-001,2.66393E-002,1.02679E+000,-1.22272E-002,0.00000E+000,1.09603E-002,9.89600E-001,0.00000E+000,3.10899E-004,-3.46561E-002,1.00000E+000,4
779,1307,-9.35926E+000,-1.49596E+000,1.13025E-001,6.99147E-001,-1.72815E-001,9.72109E-002,7.26719E-001,7.57027E-003,5.38164E-001,0,1.05883E+001,-2.97922E+000,9.99865E-001,-3.34996E+001,-4.06159E+001,9.98598E-001,2.71345E-002,-1.09590E-002,-7.30836E-005,2.71346E-002,-1.09592E-002,-1.09923E-001,2.73013E-002,1.02751E+000,2.22287E-004,0.00000E+000,-3.80599E-004,9.89992E-001,0.00000E+000,5.29108E-004,-4.24655E-002,1.00000E+000,4
1089,1337,1.14542E+001,7.27346E-001,-5.93729E-002,1.24571E+000,-5.85332E-002,-7.54917E-002,1.24937E+000,3.64458E-003,4.85560E-001,0,1.91762E+001,-9.13101E-001,9.99911E-001,-2.23025E+001,-3.31456E+001,9.99718E-001,2.68495E-002,-1.09808E-002,-4.15508E-004,2.68541E-002,-1.09854E-002,-6.29205E-001,2.70017E-002,1.02714E+000,-1.20247E-002,0.00000E+000,1.07431E-002,9.89617E-001,0.00000E+000,1.77374E-004,-3.47099E-002,1.00000E+000,4
1089,1347,1.14703E+001,1.37363E+000,-4.85381E-002,1.23755E+000,-6.47563E-002,-9.91946E-002,1.24320E+000,4.06916E-003,4.55459E-001,0,1.91365E+001,-9.56813E-001,9.99908E-001,-2.19464E+001,-3.31857E+001,9.99483E-001,2.70483E-002,-1.09788E-002,-3.89644E-004,2.70523E-002,-1.09828E-002,-5.86998E-001,2.72113E-002,1.02735E+000,-1.20172E-002,0.00000E+000,1.07980E-002,9.89619E-001,0.00000E+000,-2.04986E-004,-3.47239E-002,1.00000E+000,4
769,1347,-9.97743E+000,1.02645E+000,-2.81472E-002,6.84346E-001,-2.01993E-001,-1.11963E-002,7.13622E-001,3.68302E-003,5.58491E-001,0,1.06922E+001,-3.22776E+000,9.99860E-001,-3.28074E+001,-4.15583E+001,9.99470E-001,2.57863E-002,-1.09238E-002,-4.71620E-004,2.57924E-002,-1.09299E-002,-7.35925E-001,2.58921E-002,1.02612E+000,5.04847E-004,0.00000E+000,-1.36428E-003,9.90004E-001,0.00000E+000,-1.33066E-003,-4.19320E-002,1.00000E+000,4
769,1357,-9.95142E+000,1.67282E+000,1.04663E-002,6.85312E-001,-2.07093E-001,-3.97529E-002,7.17022E-001,3.46977E-003,5.65714E-001,0,1.07901E+001,-3.24227E+000,9.99878E-001,-3.21679E+001,-4.16947E+001,9.99667E-001,2.55320E-002,-1.09307E-002,-5.67229E-004,2.55408E-002,-1.09395E-002,-8.91030E-001,2.56282E-002,1.02586E+000,4.94823E-004,0.00000E+000,-1.52576E-003,9.89998E-001,0.00000E+000,-1.76813E-003,-4.19488E-002,1.00000E+000,4
769,1327,-1.00087E+001,-2.46479E-001,-6.72764E-003,6.83622E-001,-1.88841E-001,4.34874E-002,7.10556E-001,8.20890E-003,5.56333E-001,0,1.05189E+001,-3.13466E+000,9.99908E-001,-3.35066E+001,-4.11998E+001,9.98297E-001,2.62886E-002,-1.09156E-002,-2.86222E-004,2.62908E-002,-1.09178E-002,-4.40757E-001,2.64163E-002,1.02664E+000,5.17077E-004,0.00000E+000,-1.04485E-003,9.90012E-001,0.00000E+000,-4.65238E-004,-4.19114E-002,1.00000E+000,4
769,1337,-9.99647E+000,3.86327E-001,-3.41175E-002,6.83830E-001,-1.97166E-001,1.63473E-002,7.11874E-001,3.68688E-003,5.65488E-001,0,1.06035E+001,-3.20284E+000,9.99876E-001,-3.32535E+001,-4.13941E+001,9.99465E-001,2.60381E-002,-1.09188E-002,-3.78081E-004,2.60420E-002,-1.09227E-002,-5.86071E-001,2.61545E-002,1.02638E+000,5.12259E-004,0.00000E+000,-1.20420E-003,9.90009E-001,0.00000E+000,-8.96964E-004,-4.19195E-002,1.00000E+000,4
1089,1327,1.14446E+001,8.38803E-002,-4.72148E-002,1.25443E+000,-5.13013E-002,-5.33096E-002,1.25661E+000,5.85851E-003,4.31536E-001,0,1.92285E+001,-8.39810E-001,9.99894E-001,-2.25144E+001,-3.31573E+001,9.99120E-001,2.66508E-002,-1.09824E-002,-4.40478E-004,2.66560E-002,-1.09876E-002,-6.70495E-001,2.67926E-002,1.02694E+000,-1.20304E-002,0.00000E+000,1.06884E-002,9.89615E-001,0.00000E+000,5.59182E-004,-3.46993E-002,1.00000E+000,4
1089,1317,1.14394E+001,-5.54400E-001,-1.40228E-002,1.26220E+000,-4.38575E-002,-3.21111E-002,1.26337E+000,5.90799E-003,4.48534E-001,0,1.92688E+001,-7.71358E-001,9.99909E-001,-2.26178E+001,-3.31013E+001,9.99337E-001,2.64532E-002,-1.09838E-002,-4.64515E-004,2.64590E-002,-1.09895E-002,-7.10775E-001,2.65851E-002,1.02674E+000,-1.20344E-002,0.00000E+000,1.06340E-002,9.89614E-001,0.00000E+000,9.38528E-004,-3.46917E-002,1.00000E+000,4
1089,1297,1.14364E+001,-1.82275E+000,8.90784E-002,1.27736E+000,-2.58762E-002,1.50617E-002,1.27771E+000,5.32524E-003,4.67489E-001,0,1.93235E+001,-5.86078E-001,9.99893E-001,-2.26398E+001,-3.29525E+001,9.99401E-001,2.60586E-002,-1.09859E-002,-5.11322E-004,2.60657E-002,-1.09929E-002,-7.90647E-001,2.61719E-002,1.02633E+000,-1.20401E-002,0.00000E+000,1.05256E-002,9.89612E-001,0.00000E+000,1.69488E-003,-3.46810E-002,1.00000E+000,4
1089,1307,1.14352E+001,-1.19130E+000,2.43950E-002,1.26966E+000,-3.56830E-002,-1.10353E-002,1.27021E+000,6.00845E-003,4.56268E-001,0,1.93042E+001,-6.90639E-001,9.99910E-001,-2.26959E+001,-3.30416E+001,9.99276E-001,2.62555E-002,-1.09850E-002,-4.88351E-004,2.62620E-002,-1.09914E-002,-7.51172E-001,2.63779E-002,1.02653E+000,-1.20381E-002,0.00000E+000,1.05797E-002,9.89613E-001,0.00000E+000,1.31761E-003,-3.46849E-002,1.00000E+000,4
769,1317,-1.00162E+001,-8.73947E-001,4.56997E-002,6.84114E-001,-1.80487E-001,7.51117E-002,7.11498E-001,9.53888E-003,5.55946E-001,0,1.04313E+001,-3.04572E+000,9.99928E-001,-3.36209E+001,-4.09739E+001,9.99130E-001,2.65369E-002,-1.09135E-002,-1.95814E-004,2.65379E-002,-1.09145E-002,-2.99567E-001,2.66768E-002,1.02689E+000,5.20291E-004,0.00000E+000,-8.86674E-004,9.90014E-001,0.00000E+000,-3.67183E-005,-4.19060E-002,1.00000E+000,4
1099,1327,1.21192E+001,9.55850E-002,-5.77105E-002,1.27175E+000,-4.48961E-002,-5.37229E-002,1.27367E+000,5.36057E-003,4.50194E-001,0,1.94777E+001,-7.42491E-001,9.99804E-001,-2.20644E+001,-3.28551E+001,9.98972E-001,2.66481E-002,-1.09919E-002,-4.89932E-004,2.66545E-002,-1.09982E-002,-7.45609E-001,2.67898E-002,1.02694E+000,-1.18108E-002,0.00000E+000,1.03704E-002,9.89623E-001,0.00000E+000,7.99778E-004,-3.51027E-002,1.00000E+000,4
1099,1337,1.21321E+001,7.41538E-001,-6.02399E-002,1.26454E+000,-5.00804E-002,-7.32146E-002,1.26765E+000,5.08073E-003,4.72571E-001,0,1.94380E+001,-7.87117E-001,9.99806E-001,-2.17838E+001,-3.28397E+001,9.99329E-001,2.69030E-002,-1.09892E-002,-4.52075E-004,2.69084E-002,-1.09946E-002,-6.83441E-001,2.70579E-002,1.02720E+000,-1.18028E-002,0.00000E+000,1.04480E-002,9.89625E-001,0.00000E+000,4.19148E-004,-3.51143E-002,1.00000E+000,4
1099,1347,1.21506E+001,1.38965E+000,-4.01832E-002,1.25664E+000,-5.63062E-002,-9.60636E-002,1.26157E+000,4.61055E-003,4.56989E-001,0,1.93994E+001,-8.34680E-001,9.99833E-001,-2.13736E+001,-3.28631E+001,9.99413E-001,2.71587E-002,-1.09858E-002,-4.12911E-004,2.71631E-002,-1.09903E-002,-6.20125E-001,2.73274E-002,1.02746E+000,-1.17924E-002,0.00000E+000,1.05258E-002,9.89629E-001,0.00000E+000,3.71461E-005,-3.51295E-002,1.00000E+000,4
759,1347,-1.06390E+001,1.02246E+000,-2.92425E-002,6.68813E-001,-1.99951E-001,-8.56388E-003,6.98115E-001,3.39502E-003,5.58534E-001,0,1.04493E+001,-3.19167E+000,9.99860E-001,-3.29541E+001,-4.17135E+001,9.99453E-001,2.55204E-002,-1.09149E-002,-4.32008E-004,2.55255E-002,-1.09200E-002,-6.79219E-001,2.56141E-002,1.02585E+000,8.46509E-004,0.00000E+000,-1.62220E-003,9.89993E-001,0.00000E+000,-1.17520E-003,-4.14532E-002,1.00000E+000,4
759,1357,-1.06143E+001,1.66790E+000,9.16353E-003,6.69012E-001,-2.05395E-001,-3.57773E-002,7.00746E-001,3.91333E-003,5.79003E-001,0,1.05309E+001,-3.22320E+000,9.99845E-001,-3.23328E+001,-4.18588E+001,9.99473E-001,2.52538E-002,-1.09194E-002,-4.99017E-004,2.52606E-002,-1.09263E-002,-7.90207E-001,2.53372E-002,1.02558E+000,8.36215E-004,0.00000E+000,-1.72841E-003,9.89989E-001,0.00000E+000,-1.58152E-003,-4.14685E-002,1.00000E+000,4
1099,1297,1.21111E+001,-1.81210E+000,7.72986E-002,1.29459E+000,-2.03278E-002,1.12841E-002,1.29480E+000,4.81588E-003,4.97156E-001,0,1.95826E+001,-4.97399E-001,9.99825E-001,-2.21879E+001,-3.26636E+001,9.99137E-001,2.58887E-002,-1.09971E-002,-5.97045E-004,2.58983E-002,-1.10068E-002,-9.27085E-001,2.59953E-002,1.02616E+000,-1.18233E-002,0.00000E+000,1.01399E-002,9.89619E-001,0.00000E+000,1.93162E-003,-3.50845E-002,1.00000E+000,4
1099,1307,1.21111E+001,-1.17882E+000,1.55182E-002,1.28798E+000,-2.89250E-002,-1.18003E-002,1.28836E+000,5.69035E-003,4.76226E-001,0,1.95689E+001,-5.78642E-001,9.99886E-001,-2.22208E+001,-3.27334E+001,9.99303E-001,2.61414E-002,-1.09957E-002,-5.62134E-004,2.61499E-002,-1.10042E-002,-8.67005E-001,2.62590E-002,1.02642E+000,-1.18206E-002,0.00000E+000,1.02165E-002,9.89620E-001,0.00000E+000,1.55534E-003,-3.50885E-002,1.00000E+000,4
1099,1317,1.21136E+001,-5.42773E-001,-2.86231E-002,1.28006E+000,-3.69628E-002,-3.33538E-002,1.28103E+000,5.97912E-003,4.69427E-001,0,1.95288E+001,-6.63953E-001,9.99891E-001,-2.21801E+001,-3.27919E+001,9.99216E-001,2.63945E-002,-1.09940E-002,-5.26396E-004,2.64019E-002,-1.10014E-002,-8.06460E-001,2.65238E-002,1.02668E+000,-1.18163E-002,0.00000E+000,1.02934E-002,9.89621E-001,0.00000E+000,1.17807E-003,-3.50946E-002,1.00000E+000,4
759,1327,-1.06713E+001,-2.52212E-001,-8.74894E-003,6.66023E-001,-1.88636E-001,4.09424E-002,6.93431E-001,4.61471E-003,5.41246E-001,0,1.02608E+001,-3.12287E+000,9.99868E-001,-3.36738E+001,-4.13840E+001,9.99621E-001,2.60476E-002,-1.09096E-002,-3.03259E-004,2.60501E-002,-1.09121E-002,-4.70108E-001,2.61641E-002,1.02639E+000,8.58889E-004,0.00000E+000,-1.41191E-003,9.89998E-001,0.00000E+000,-3.70723E-004,-4.14348E-002,1.00000E+000,4
759,1337,-1.06578E+001,3.83327E-001,-3.21972E-002,6.67285E-001,-1.94491E-001,1.62472E-002,6.95241E-001,3.47345E-003,5.65237E-001,0,1.03532E+001,-3.16149E+000,9.99836E-001,-3.33900E+001,-4.15389E+001,9.99525E-001,2.57847E-002,-1.09118E-002,-3.66995E-004,2.57883E-002,-1.09154E-002,-5.72930E-001,2.58893E-002,1.02612E+000,8.53758E-004,0.00000E+000,-1.51685E-003,9.89996E-001,0.00000E+000,-7.72187E-004,-4.14424E-002,1.00000E+000,4
759,1317,-1.06789E+001,-8.78846E-001,4.68082E-002,6.65397E-001,-1.79834E-001,7.08916E-002,6.92906E-001,7.60880E-003,5.70273E-001,0,1.01612E+001,-3.04618E+000,9.99875E-001,-3.37820E+001,-4.11356E+001,9.99302E-001,2.63082E-002,-1.09084E-002,-2.41084E-004,2.63098E-002,-1.09099E-002,-3.71133E-001,2.64372E-002,1.02666E+000,8.61848E-004,0.00000E+000,-1.30782E-003,9.89999E-001,0.00000E+000,2.74682E-005,-4.14304E-002,1.00000E+000,4
749,1317,-1.13374E+001,-8.81424E-001,5.74061E-002,6.49246E-001,-1.79149E-001,6.99019E-002,6.77127E-001,6.03908E-003,5.93613E-001,0,9.92075E+000,-3.03657E+000,9.99844E-001,-3.38494E+001,-4.12770E+001,9.99080E-001,2.61256E-002,-1.09211E-002,-2.95005E-004,2.61279E-002,-1.09235E-002,-4.56211E-001,2.62446E-002,1.02647E+000,1.23381E-003,0.00000E+000,-1.78025E-003,9.89960E-001,0.00000E+000,2.12510E-004,-4.08030E-002,1.00000E+000,4
749,1327,-1.13311E+001,-2.54897E-001,-5.30282E-003,6.50089E-001,-1.87295E-001,4.09157E-002,6.77768E-001,3.96930E-003,5.71134E-001,0,1.00203E+001,-3.09900E+000,9.99825E-001,-3.37812E+001,-4.15104E+001,9.99392E-001,2.58435E-002,-1.09216E-002,-3.29212E-004,2.58465E-002,-1.09245E-002,-5.12998E-001,2.59493E-002,1.02618E+000,1.23133E-003,0.00000E+000,-1.82992E-003,9.89959E-001,0.00000E+000,-1.83207E-004,-4.08064E-002,1.00000E+000,4
749,1337,-1.13185E+001,3.79571E-001,-2.89770E-002,6.50877E-001,-1.93185E-001,1.70448E-002,6.79155E-001,3.41729E-003,5.71717E-001,0,1.01025E+001,-3.13851E+000,9.99835E-001,-3.35095E+001,-4.16949E+001,9.99627E-001,2.55591E-002,-1.09227E-002,-3.65093E-004,2.55627E-002,-1.09264E-002,-5.73314E-001,2.56523E-002,1.02589E+000,1.22592E-003,0.00000E+000,-1.87996E-003,9.89959E-001,0.00000E+000,-5.81885E-004,-4.08138E-002,1.00000E+000,4
749,1347,-1.13010E+001,1.01714E+000,-2.98470E-002,6.51914E-001,-1.99002E-001,-7.90698E-003,6.81657E-001,3.39641E-003,5.51262E-001,0,1.01911E+001,-3.17393E+000,9.99891E-001,-3.31032E+001,-4.18940E+001,9.99653E-001,2.52733E-002,-1.09243E-002,-4.02102E-004,2.52778E-002,-1.09288E-002,-6.36366E-001,2.53548E-002,1.02560E+000,1.21847E-003,0.00000E+000,-1.93019E-003,9.89957E-001,0.00000E+000,-9.82041E-004,-4.08240E-002,1.00000E+000,4
1109,1297,1.27849E+001,-1.80267E+000,6.54234E-002,1.31214E+000,-1.38197E-002,1.42853E-002,1.31229E+000,4.77483E-003,4.80383E-001,0,1.98209E+001,-4.04270E-001,9.99793E-001,-2.17471E+001,-3.24167E+001,9.98835E-001,2.57678E-002,-1.10122E-002,-6.56329E-004,2.57795E-002,-1.10239E-002,-1.02199E+000,2.58694E-002,1.02604E+000,-1.14802E-002,0.00000E+000,9.68839E-003,9.89622E-001,0.00000E+000,2.04861E-003,-3.54613E-002,1.00000E+000,4
1109,1307,1.27844E+001,-1.16869E+000,4.83219E-003,1.30510E+000,-2.16385E-002,-7.40770E-003,1.30530E+000,5.44924E-003,4.50805E-001,0,1.97959E+001,-4.76443E-001,9.99869E-001,-2.17845E+001,-3.24808E+001,9.99182E-001,2.60549E-002,-1.10102E-002,-6.04338E-004,2.60648E-002,-1.10200E-002,-9.33863E-001,2.61682E-002,1.02634E+000,-1.14771E-002,0.00000E+000,9.80050E-003,9.89623E-001,0.00000E+000,1.60963E-003,-3.54659E-002,1.00000E+000,4
1109,1317,1.27870E+001,-5.31818E-001,-3.98123E-002,1.29731E+000,-2.91885E-002,-2.87318E-002,1.29795E+000,4.98394E-003,4.59951E-001,0,1.97573E+001,-5.59358E-001,9.99896E-001,-2.17445E+001,-3.25158E+001,9.99225E-001,2.63427E-002,-1.10075E-002,-5.51361E-004,2.63509E-002,-1.10157E-002,-8.45549E-001,2.64686E-002,1.02663E+000,-1.14724E-002,0.00000E+000,9.91299E-003,9.89625E-001,0.00000E+000,1.16917E-003,-3.54730E-002,1.00000E+000,4
749,1357,-1.12759E+001,1.66170E+000,8.47532E-003,6.52995E-001,-2.04537E-001,-3.36990E-002,6.85109E-001,4.17282E-003,5.59254E-001,0,1.02818E+001,-3.20933E+000,9.99878E-001,-3.24743E+001,-4.20606E+001,9.99662E-001,2.49848E-002,-1.09267E-002,-4.41094E-004,2.49902E-002,-1.09321E-002,-7.03611E-001,2.50553E-002,1.02530E+000,1.20756E-003,0.00000E+000,-1.98086E-003,9.89955E-001,0.00000E+000,-1.38569E-003,-4.08389E-002,1.00000E+000,4
1109,1327,1.27942E+001,1.06780E-001,-6.74465E-002,1.28922E+000,-3.79843E-002,-5.28010E-002,1.29086E+000,4.06130E-003,4.46102E-001,0,1.97240E+001,-6.43835E-001,9.99856E-001,-2.16023E+001,-3.25737E+001,9.99231E-001,2.66313E-002,-1.10042E-002,-4.97164E-004,2.66378E-002,-1.10108E-002,-7.56700E-001,2.67708E-002,1.02693E+000,-1.14655E-002,0.00000E+000,1.00259E-002,9.89628E-001,0.00000E+000,7.27079E-004,-3.54833E-002,1.00000E+000,4
1109,1337,1.28076E+001,7.52653E-001,-7.10178E-002,1.28206E+000,-4.38664E-002,-7.45925E-002,1.28498E+000,5.26944E-003,4.71192E-001,0,1.96940E+001,-6.92334E-001,9.99867E-001,-2.13174E+001,-3.25541E+001,9.99324E-001,2.69211E-002,-1.10000E-002,-4.41532E-004,2.69263E-002,-1.10052E-002,-6.66998E-001,2.70754E-002,1.02722E+000,-1.14562E-002,0.00000E+000,1.01395E-002,9.89631E-001,0.00000E+000,2.82452E-004,-3.54972E-002,1.00000E+000,4
1109,1347,1.28302E+001,1.40397E+000,-3.43932E-002,1.27461E+000,-4.94199E-002,-9.47852E-002,1.27908E+000,5.46787E-003,4.78362E-001,0,1.96519E+001,-7.43025E-001,9.99838E-001,-2.08155E+001,-3.25513E+001,9.99249E-001,2.72124E-002,-1.09945E-002,-3.83574E-004,2.72163E-002,-1.09983E-002,-5.75138E-001,2.73826E-002,1.02752E+000,-1.14427E-002,0.00000E+000,1.02537E-002,9.89636E-001,0.00000E+000,-1.64891E-004,-3.55173E-002,1.00000E+000,4
739,1337,-1.19788E+001,3.73392E-001,-2.89197E-002,6.34623E-001,-1.93602E-001,1.54303E-002,6.63676E-001,3.57869E-003,5.63196E-001,0,9.86137E+000,-3.13888E+000,9.99872E-001,-3.36276E+001,-4.18889E+001,9.99590E-001,2.53120E-002,-1.08958E-002,-4.08679E-004,2.53166E-002,-1.09004E-002,-6.46590E-001,2.53979E-002,1.02563E+000,1.55319E-003,0.00000E+000,-2.28418E-003,9.89962E-001,0.00000E+000,-5.34019E-004,-4.02451E-002,1.00000E+000,4
739,1347,-1.19622E+001,1.01128E+000,-3.00220E-002,6.35271E-001,-1.98781E-001,-8.17130E-003,6.65695E-001,3.27314E-003,5.45474E-001,0,9.93940E+000,-3.16661E+000,9.99910E-001,-3.32333E+001,-4.20830E+001,9.99683E-001,2.49830E-002,-1.08969E-002,-4.37261E-004,2.49884E-002,-1.09023E-002,-6.98112E-001,2.50559E-002,1.02530E+000,1.54485E-003,0.00000E+000,-2.31231E-003,9.89961E-001,0.00000E+000,-1.05841E-003,-4.02581E-002,1.00000E+000,4
739,1357,-1.19379E+001,1.65597E+000,8.30527E-003,6.36122E-001,-2.03528E-001,-3.19991E-002,6.68654E-001,2.80639E-003,5.47073E-001,0,1.00201E+001,-3.19306E+000,9.99924E-001,-3.26144E+001,-4.22525E+001,9.99775E-001,2.46510E-002,-1.08986E-002,-4.67958E-004,2.46571E-002,-1.09048E-002,-7.54039E-001,2.47119E-002,1.02496E+000,1.53262E-003,0.00000E+000,-2.34068E-003,9.89960E-001,0.00000E+000,-1.58710E-003,-4.02771E-002,1.00000E+000,4
739,1327,-1.19918E+001,-2.60132E-001,-3.37796E-003,6.33291E-001,-1.86746E-001,4.09855E-002,6.61522E-001,4.73403E-003,5.37572E-001,0,9.76606E+000,-3.07945E+000,9.99901E-001,-3.39011E+001,-4.17047E+001,9.99481E-001,2.56396E-002,-1.08950E-002,-3.81253E-004,2.56435E-002,-1.08990E-002,-5.97818E-001,2.57395E-002,1.02597E+000,1.55933E-003,0.00000E+000,-2.25613E-003,9.89962E-001,0.00000E+000,-1.13086E-005,-4.02355E-002,1.00000E+000,4
1119,1297,1.34571E+001,-1.79251E+000,5.49434E-002,1.32778E+000,-6.79187E-003,1.89626E-002,1.32794E+000,4.98733E-003,4.71879E-001,0,2.00236E+001,-3.07213E-001,9.99903E-001,-2.13236E+001,-3.21579E+001,9.99372E-001,2.56599E-002,-1.09229E-002,-7.15201E-004,2.56739E-002,-1.09368E-002,-1.11958E+000,2.57674E-002,1.02593E+000,-1.11143E-002,0.00000E+000,9.22850E-003,9.89728E-001,0.00000E+000,1.82235E-003,-3.58381E-002,1.00000E+000,4
1119,1307,1.34586E+001,-1.15787E+000,-1.50449E-003,1.32121E+000,-1.50627E-002,-4.23230E-003,1.32131E+000,3.67017E-003,4.62105E-001,0,2.00117E+001,-3.91656E-001,9.99909E-001,-2.13238E+001,-3.22087E+001,9.99724E-001,2.59680E-002,-1.09200E-002,-6.49231E-004,2.59794E-002,-1.09314E-002,-1.00799E+000,2.60879E-002,1.02625E+000,-1.11103E-002,0.00000E+000,9.36824E-003,9.89730E-001,0.00000E+000,1.36069E-003,-3.58440E-002,1.00000E+000,4
1119,1317,1.34631E+001,-5.21083E-001,-4.31766E-002,1.31449E+000,-2.29438E-002,-2.57210E-002,1.31494E+000,3.32515E-003,4.49017E-001,0,1.99903E+001,-4.75131E-001,9.99902E-001,-2.12493E+001,-3.22606E+001,9.99732E-001,2.62764E-002,-1.09165E-002,-5.82393E-004,2.62855E-002,-1.09257E-002,-8.96884E-001,2.64099E-002,1.02657E+000,-1.11048E-002,0.00000E+000,9.50829E-003,9.89733E-001,0.00000E+000,8.98040E-004,-3.58521E-002,1.00000E+000,4
1119,1327,1.34709E+001,1.18693E-001,-6.96212E-002,1.30626E+000,-3.10023E-002,-5.16683E-002,1.30765E+000,3.33287E-003,4.25117E-001,0,1.99619E+001,-5.42875E-001,9.99891E-001,-2.10945E+001,-3.23061E+001,9.99600E-001,2.65858E-002,-1.09122E-002,-5.14190E-004,2.65928E-002,-1.09192E-002,-7.85470E-001,2.67341E-002,1.02688E+000,-1.10969E-002,0.00000E+000,9.64890E-003,9.89736E-001,0.00000E+000,4.33514E-004,-3.58635E-002,1.00000E+000,4
1119,1337,1.34853E+001,7.64098E-001,-7.20217E-002,1.29920E+000,-3.82818E-002,-7.48587E-002,1.30192E+000,4.16224E-003,4.56504E-001,0,1.99397E+001,-6.08163E-001,9.99918E-001,-2.07951E+001,-3.22916E+001,9.99341E-001,2.68968E-002,-1.09068E-002,-4.44360E-004,2.69020E-002,-1.09120E-002,-6.73356E-001,2.70613E-002,1.02720E+000,-1.10866E-002,0.00000E+000,9.79043E-003,9.89741E-001,0.00000E+000,-3.40629E-005,-3.58786E-002,1.00000E+000,4
1119,1347,1.35075E+001,1.41506E+000,-3.85601E-002,1.29195E+000,-4.35299E-002,-9.53038E-002,1.29620E+000,5.73515E-003,4.52851E-001,0,1.99020E+001,-6.55640E-001,9.99909E-001,-2.03064E+001,-3.22912E+001,9.99426E-001,2.72087E-002,-1.08998E-002,-3.72426E-004,2.72123E-002,-1.09035E-002,-5.59867E-001,2.73907E-002,1.02752E+000,-1.10725E-002,0.00000E+000,9.93253E-003,9.89747E-001,0.00000E+000,-5.03498E-004,-3.58994E-002,1.00000E+000,4
739,1317,-1.19973E+001,-8.85025E-001,5.99951E-002,6.32884E-001,-1.77710E-001,6.91318E-002,6.60986E-001,5.80253E-003,5.78174E-001,0,9.67603E+000,-3.00569E+000,9.99871E-001,-3.39553E+001,-4.14365E+001,9.99363E-001,2.59639E-002,-1.08947E-002,-3.55730E-004,2.59673E-002,-1.08981E-002,-5.52905E-001,2.60788E-002,1.02630E+000,1.56200E-003,0.00000E+000,-2.22833E-003,9.89962E-001,0.00000E+000,5.06937E-004,-4.02313E-002,1.00000E+000,4
1129,1297,1.41318E+001,-1.78126E+000,4.81664E-002,1.34430E+000,7.78594E-004,2.25356E-002,1.34448E+000,6.91734E-003,4.46367E-001,0,2.02425E+001,-1.93175E-001,9.99920E-001,-2.08508E+001,-3.18981E+001,9.98980E-001,2.55271E-002,-1.08535E-002,-7.74568E-004,2.55436E-002,-1.08700E-002,-1.21913E+000,2.56378E-002,1.02580E+000,-1.07557E-002,0.00000E+000,8.78497E-003,9.89808E-001,0.00000E+000,1.32283E-003,-3.60315E-002,1.00000E+000,4
1129,1307,1.41331E+001,-1.14822E+000,-1.07415E-002,1.33735E+000,-9.24027E-003,-3.82842E-003,1.33739E+000,9.71950E-003,4.36445E-001,0,2.02380E+001,-3.00595E-001,9.99911E-001,-2.08581E+001,-3.19669E+001,9.98143E-001,2.58893E-002,-1.08500E-002,-6.93988E-004,2.59024E-002,-1.08631E-002,-1.08178E+000,2.60144E-002,1.02617E+000,-1.07509E-002,0.00000E+000,8.95109E-003,9.89810E-001,0.00000E+000,8.99508E-004,-3.60370E-002,1.00000E+000,4
1129,1317,1.41398E+001,-5.11327E-001,-4.93356E-002,1.33232E+000,-1.74323E-002,-2.38146E-002,1.33265E+000,5.81767E-003,4.20676E-001,0,2.02372E+001,-3.91629E-001,9.99904E-001,-2.07449E+001,-3.20232E+001,9.98341E-001,2.62521E-002,-1.08457E-002,-6.12282E-004,2.62622E-002,-1.08558E-002,-9.45298E-001,2.63933E-002,1.02654E+000,-1.07441E-002,0.00000E+000,9.11765E-003,9.89813E-001,0.00000E+000,4.75096E-004,-3.60448E-002,1.00000E+000,4
729,1347,-1.26203E+001,1.00677E+000,-2.51740E-002,6.20080E-001,-1.98624E-001,-9.54001E-003,6.51185E-001,3.21861E-003,5.62775E-001,0,9.71292E+000,-3.16187E+000,9.99925E-001,-3.32994E+001,-4.22504E+001,9.99786E-001,2.46932E-002,-1.07948E-002,-4.09627E-004,2.46980E-002,-1.07996E-002,-6.61228E-001,2.47627E-002,1.02500E+000,1.98167E-003,0.00000E+000,-2.68253E-003,9.90028E-001,0.00000E+000,-1.00579E-003,-3.94179E-002,1.00000E+000,4
729,1357,-1.25979E+001,1.65169E+000,8.24619E-003,6.20354E-001,-2.02204E-001,-3.21718E-002,6.53269E-001,2.89057E-003,5.77632E-001,0,9.78057E+000,-3.17664E+000,9.99921E-001,-3.27210E+001,-4.24011E+001,9.99824E-001,2.42901E-002,-1.07959E-002,-4.32613E-004,2.42954E-002,-1.08012E-002,-7.06318E-001,2.43451E-002,1.02459E+000,1.96767E-003,0.00000E+000,-2.68781E-003,9.90028E-001,0.00000E+000,-1.70981E-003,-3.94418E-002,1.00000E+000,4
1129,1327,1.41482E+001,1.29008E-001,-7.61300E-002,1.32507E+000,-2.42872E-002,-4.79004E-002,1.32615E+000,6.43879E-003,3.89053E-001,0,2.02167E+001,-4.49797E-001,9.99889E-001,-2.05834E+001,-3.20615E+001,9.98980E-001,2.66154E-002,-1.08405E-002,-5.29320E-004,2.66229E-002,-1.08480E-002,-8.09477E-001,2.67745E-002,1.02692E+000,-1.07352E-002,0.00000E+000,9.28463E-003,9.89817E-001,0.00000E+000,4.95780E-005,-3.60550E-002,1.00000E+000,4
729,1337,-1.26392E+001,3.69696E-001,-2.68991E-002,6.18164E-001,-1.91348E-001,1.74848E-002,6.47338E-001,3.21411E-003,5.53394E-001,0,9.60533E+000,-3.10436E+000,9.99912E-001,-3.37378E+001,-4.20497E+001,9.99698E-001,2.50936E-002,-1.07940E-002,-3.88316E-004,2.50978E-002,-1.07982E-002,-6.19861E-001,2.51791E-002,1.02541E+000,1.99244E-003,0.00000E+000,-2.67728E-003,9.90028E-001,0.00000E+000,-3.05462E-004,-3.93994E-002,1.00000E+000,4
729,1327,-1.26512E+001,-2.62093E-001,2.58358E-003,6.16876E-001,-1.84706E-001,4.23815E-002,6.45328E-001,4.16987E-003,5.60175E-001,0,9.51307E+000,-3.04655E+000,9.99873E-001,-3.39854E+001,-4.18293E+001,9.99456E-001,2.54902E-002,-1.07936E-002,-3.69066E-004,2.54940E-002,-1.07973E-002,-5.82713E-001,2.55932E-002,1.02582E+000,1.99927E-003,0.00000E+000,-2.67207E-003,9.90028E-001,0.00000E+000,3.89434E-004,-3.93878E-002,1.00000E+000,4
1129,1337,1.41688E+001,7.79614E-001,-5.76036E-002,1.31825E+000,-3.13103E-002,-7.36980E-002,1.32068E+000,5.79659E-003,4.77433E-001,0,2.02071E+001,-5.14361E-001,9.99918E-001,-2.01502E+001,-3.19819E+001,9.99274E-001,2.69836E-002,-1.08325E-002,-4.42076E-004,2.69887E-002,-1.08377E-002,-6.69675E-001,2.71625E-002,1.02730E+000,-1.07197E-002,0.00000E+000,9.45399E-003,9.89824E-001,0.00000E+000,-3.81983E-004,-3.60727E-002,1.00000E+000,4
729,1317,-1.26588E+001,-8.88794E-001,5.67595E-002,6.15695E-001,-1.75951E-001,6.89210E-002,6.44041E-001,6.01516E-003,5.75953E-001,0,9.41652E+000,-2.97116E+000,9.99848E-001,-3.40978E+001,-4.15801E+001,9.98891E-001,2.58848E-002,-1.07933E-002,-3.51201E-004,2.58881E-002,-1.07967E-002,-5.48554E-001,2.60066E-002,1.02622E+000,2.00339E-003,0.00000E+000,-2.66687E-003,9.90028E-001,0.00000E+000,1.08179E-003,-3.93807E-002,1.00000E+000,4
1129,1347,1.41880E+001,1.42952E+000,-3.61180E-002,1.31060E+000,-3.63138E-002,-9.45174E-002,1.31451E+000,6.52941E-003,4.82922E-001,0,2.01657E+001,-5.59508E-001,9.99907E-001,-1.97333E+001,-3.19657E+001,9.99203E-001,2.73499E-002,-1.08247E-002,-3.55333E-004,2.73532E-002,-1.08280E-002,-5.33253E-001,2.75502E-002,1.02767E+000,-1.07045E-002,0.00000E+000,9.62267E-003,9.89831E-001,0.00000E+000,-8.11791E-004,-3.60900E-002,1.00000E+000,4
719,1347,-1.32805E+001,1.00331E+000,-2.79166E-002,6.03826E-001,-1.95950E-001,-1.07875E-002,6.34917E-001,4.66842E-003,6.00767E-001,0,9.46861E+000,-3.13401E+000,9.99914E-001,-3.34143E+001,-4.23753E+001,9.99609E-001,2.44979E-002,-1.07211E-002,-4.08389E-004,2.45027E-002,-1.07259E-002,-6.64264E-001,2.45659E-002,1.02480E+000,2.43227E-003,0.00000E+000,-3.11879E-003,9.90072E-001,0.00000E+000,-9.35192E-004,-3.87125E-002,1.00000E+000,4
719,1357,-1.32579E+001,1.64727E+000,6.08897E-003,6.04617E-001,-2.00781E-001,-3.19970E-002,6.37885E-001,3.39915E-003,6.05962E-001,0,9.54021E+000,-3.15678E+000,9.99917E-001,-3.28295E+001,-4.25485E+001,9.99753E-001,2.40339E-002,-1.07216E-002,-4.22121E-004,2.40390E-002,-1.07267E-002,-6.95747E-001,2.40853E-002,1.02432E+000,2.41645E-003,0.00000E+000,-3.09991E-003,9.90073E-001,0.00000E+000,-1.76664E-003,-3.87403E-002,1.00000E+000,4
719,1337,-1.32983E+001,3.67261E-001,-2.61553E-002,6.02084E-001,-1.88855E-001,1.54664E-002,6.31198E-001,4.40623E-003,5.88220E-001,0,9.36645E+000,-3.07022E+000,9.99820E-001,-3.38271E+001,-4.21661E+001,9.99496E-001,2.49576E-002,-1.07209E-002,-3.96748E-004,2.49620E-002,-1.07253E-002,-6.37029E-001,2.50442E-002,1.02527E+000,2.44396E-003,0.00000E+000,-3.13753E-003,9.90072E-001,0.00000E+000,-1.09893E-004,-3.86920E-002,1.00000E+000,4
719,1327,-1.33105E+001,-2.63650E-001,7.94902E-003,6.00208E-001,-1.81877E-001,4.33296E-002,6.28654E-001,3.17547E-003,5.89988E-001,0,9.25691E+000,-3.00984E+000,9.99806E-001,-3.40654E+001,-4.19429E+001,9.99539E-001,2.54132E-002,-1.07207E-002,-3.87180E-004,2.54174E-002,-1.07248E-002,-6.13838E-001,2.55204E-002,1.02574E+000,2.45150E-003,0.00000E+000,-3.15614E-003,9.90072E-001,0.00000E+000,7.09764E-004,-3.86788E-002,1.00000E+000,4
719,1317,-1.33180E+001,-8.90749E-001,6.36914E-002,5.97944E-001,-1.74066E-001,6.56622E-002,6.26217E-001,4.58774E-003,5.83930E-001,0,9.15634E+000,-2.93633E+000,9.99851E-001,-3.41730E+001,-4.17122E+001,9.99194E-001,2.58664E-002,-1.07206E-002,-3.79406E-004,2.58703E-002,-1.07245E-002,-5.94070E-001,2.59960E-002,1.02620E+000,2.45542E-003,0.00000E+000,-3.17469E-003,9.90071E-001,0.00000E+000,1.52657E-003,-3.86719E-002,1.00000E+000,4
1139,1297,1.48113E+001,-1.77270E+000,4.98365E-002,1.36370E+000,5.97919E-003,2.87161E-002,1.36401E+000,5.43410E-003,3.72488E-001,0,2.04953E+001,-1.15634E-001,9.99950E-001,-2.02855E+001,-3.17219E+001,9.98990E-001,2.54637E-002,-1.08195E-002,-7.79063E-004,2.54804E-002,-1.08362E-002,-1.22948E+000,2.55751E-002,1.02574E+000,-1.03542E-002,0.00000E+000,8.41316E-003,9.89852E-001,0.00000E+000,6.67804E-004,-3.62127E-002,1.00000E+000,4
1139,1307,1.48109E+001,-1.14064E+000,-1.65435E-002,1.35612E+000,-5.06823E-003,-3.80391E-004,1.35613E+000,6.46529E-003,3.85231E-001,0,2.04927E+001,-2.36870E-001,9.99932E-001,-2.03336E+001,-3.17772E+001,9.98893E-001,2.58754E-002,-1.08162E-002,-6.95598E-004,2.58886E-002,-1.08294E-002,-1.08569E+000,2.60036E-002,1.02616E+000,-1.03494E-002,0.00000E+000,8.58278E-003,9.89854E-001,0.00000E+000,2.99696E-004,-3.62169E-002,1.00000E+000,4
1139,1337,1.48472E+001,7.93200E-001,-5.77801E-002,1.33548E+000,-2.36531E-002,-7.18660E-002,1.33762E+000,6.92133E-003,4.99232E-001,0,2.04445E+001,-4.17857E-001,9.99904E-001,-1.96085E+001,-3.16701E+001,9.98378E-001,2.71210E-002,-1.07978E-002,-4.31858E-004,2.71259E-002,-1.08027E-002,-6.52430E-001,2.73125E-002,1.02744E+000,-1.03124E-002,0.00000E+000,9.09679E-003,9.89869E-001,0.00000E+000,-8.15804E-004,-3.62491E-002,1.00000E+000,4
1139,1347,1.48717E+001,1.44410E+000,-2.26245E-002,1.32878E+000,-3.08162E-002,-9.54940E-002,1.33256E+000,6.79355E-003,4.97577E-001,0,2.04284E+001,-4.79270E-001,9.99872E-001,-1.90875E+001,-3.16704E+001,9.98319E-001,2.75393E-002,-1.07887E-002,-3.39477E-004,2.75423E-002,-1.07917E-002,-5.07423E-001,2.77564E-002,1.02787E+000,-1.02923E-002,0.00000E+000,9.26971E-003,9.89877E-001,0.00000E+000,-1.19109E-003,-3.62666E-002,1.00000E+000,4
1139,1327,1.48277E+001,1.42330E-001,-7.58601E-002,1.34328E+000,-1.84298E-002,-4.64656E-002,1.34421E+000,6.95622E-003,4.42430E-001,0,2.04705E+001,-3.70447E-001,9.99896E-001,-2.00227E+001,-3.17403E+001,9.98314E-001,2.67034E-002,-1.08059E-002,-5.22888E-004,2.67107E-002,-1.08132E-002,-7.98509E-001,2.68715E-002,1.02701E+000,-1.03300E-002,0.00000E+000,8.92428E-003,9.89862E-001,0.00000E+000,-4.41427E-004,-3.62337E-002,1.00000E+000,4
1139,1317,1.48145E+001,-5.02652E-001,-6.22587E-002,1.34901E+000,-1.24805E-002,-2.30341E-002,1.34927E+000,7.40649E-003,4.05683E-001,0,2.04709E+001,-3.16674E-001,9.99899E-001,-2.02816E+001,-3.17817E+001,9.98733E-001,2.62881E-002,-1.08121E-002,-6.10802E-004,2.62981E-002,-1.08221E-002,-9.42953E-001,2.64350E-002,1.02658E+000,-1.03423E-002,0.00000E+000,8.75291E-003,9.89857E-001,0.00000E+000,-6.95205E-005,-3.62230E-002,1.00000E+000,4
709,1347,-1.39418E+001,1.00027E+000,-2.90846E-002,5.86142E-001,-1.92763E-001,-1.01003E-002,6.17108E-001,4.35035E-003,5.90729E-001,0,9.19614E+000,-3.07867E+000,9.99894E-001,-3.35372E+001,-4.25214E+001,9.99586E-001,2.43201E-002,-1.05245E-002,-4.07813E-004,2.43249E-002,-1.05293E-002,-6.70453E-001,2.43979E-002,1.02461E+000,2.93724E-003,0.00000E+000,-3.61012E-003,9.90242E-001,0.00000E+000,-8.42508E-004,-3.80844E-002,1.00000E+000,4
709,1357,-1.39189E+001,1.64230E+000,2.09758E-003,5.88023E-001,-1.97967E-001,-3.10954E-002,6.21232E-001,3.71712E-003,5.82970E-001,0,9.28384E+000,-3.11519E+000,9.99907E-001,-3.29535E+001,-4.27261E+001,9.99757E-001,2.38060E-002,-1.05242E-002,-4.09732E-004,2.38109E-002,-1.05291E-002,-6.83698E-001,2.38639E-002,1.02409E+000,2.92031E-003,0.00000E+000,-3.56644E-003,9.90243E-001,0.00000E+000,-1.70669E-003,-3.81123E-002,1.00000E+000,4
709,1337,-1.39566E+001,3.64709E-001,-2.00048E-002,5.85688E-001,-1.86510E-001,1.54677E-002,6.14862E-001,4.11476E-003,5.78791E-001,0,9.11653E+000,-3.02791E+000,9.99825E-001,-3.38867E+001,-4.23182E+001,9.99458E-001,2.48297E-002,-1.05247E-002,-4.08447E-004,2.48344E-002,-1.05294E-002,-6.61816E-001,2.49299E-002,1.02514E+000,2.94889E-003,0.00000E+000,-3.65349E-003,9.90241E-001,0.00000E+000,1.57847E-005,-3.80653E-002,1.00000E+000,4
709,1317,-1.39737E+001,-8.90052E-001,8.19752E-002,5.82483E-001,-1.70476E-001,6.92432E-002,6.10854E-001,5.38208E-003,6.09825E-001,0,8.91118E+000,-2.89480E+000,9.99894E-001,-3.41587E+001,-4.18184E+001,9.99358E-001,2.58375E-002,-1.05249E-002,-4.15484E-004,2.58422E-002,-1.05296E-002,-6.54561E-001,2.59893E-002,1.02617E+000,2.96021E-003,0.00000E+000,-3.73953E-003,9.90240E-001,0.00000E+000,1.71828E-003,-3.80466E-002,1.00000E+000,4
709,1327,-1.39658E+001,-2.64166E-001,2.41806E-002,5.84645E-001,-1.79106E-001,4.21161E-002,6.12913E-001,5.54950E-003,5.93818E-001,0,9.02357E+000,-2.96855E+000,9.99875E-001,-3.40516E+001,-4.20764E+001,9.99482E-001,2.53346E-002,-1.05248E-002,-4.11501E-004,2.53393E-002,-1.05295E-002,-6.57377E-001,2.54596E-002,1.02565E+000,2.95551E-003,0.00000E+000,-3.69656E-003,9.90240E-001,0.00000E+000,8.67963E-004,-3.80544E-002,1.00000E+000,4
1149,1297,1.54854E+001,-1.76328E+000,3.44972E-002,1.37922E+000,1.06550E-002,2.58355E-002,1.37950E+000,9.95220E-003,4.09636E-001,0,2.07236E+001,-4.33116E-002,9.99900E-001,-1.98304E+001,-3.14414E+001,9.98053E-001,2.54499E-002,-1.08125E-002,-7.82042E-004,2.54668E-002,-1.08293E-002,-1.23489E+000,2.55615E-002,1.02573E+000,-9.95638E-003,0.00000E+000,8.05802E-003,9.89871E-001,0.00000E+000,-2.81013E-004,-3.64677E-002,1.00000E+000,4
1149,1307,1.54885E+001,-1.12874E+000,-2.22709E-002,1.37381E+000,2.09970E-003,1.33954E-003,1.37381E+000,6.58498E-003,3.85423E-001,0,2.07359E+001,-1.32429E-001,9.99910E-001,-1.98073E+001,-3.14950E+001,9.98849E-001,2.59049E-002,-1.08092E-002,-7.03442E-004,2.59184E-002,-1.08227E-002,-1.09725E+000,2.60356E-002,1.02620E+000,-9.95015E-003,0.00000E+000,8.21224E-003,9.89873E-001,0.00000E+000,-5.31345E-004,-3.64711E-002,1.00000E+000,4
1149,1317,1.54953E+001,-4.89508E-001,-5.83043E-002,1.36762E+000,-5.80465E-003,-2.02746E-002,1.36779E+000,5.32884E-003,4.12498E-001,0,2.07243E+001,-2.21594E-001,9.99921E-001,-1.96893E+001,-3.14960E+001,9.98985E-001,2.63622E-002,-1.08049E-002,-6.22881E-004,2.63726E-002,-1.08153E-002,-9.59857E-001,2.65143E-002,1.02667E+000,-9.94074E-003,0.00000E+000,8.36732E-003,9.89876E-001,0.00000E+000,-7.83079E-004,-3.64761E-002,1.00000E+000,4
1149,1327,1.55056E+001,1.53146E-001,-8.08662E-002,1.36060E+000,-1.11908E-002,-4.61870E-002,1.36143E+000,5.63306E-003,3.89387E-001,0,2.07145E+001,-2.65289E-001,9.99915E-001,-1.94915E+001,-3.14999E+001,9.98599E-001,2.68195E-002,-1.07996E-002,-5.40766E-004,2.68272E-002,-1.08074E-002,-8.23387E-001,2.69955E-002,1.02713E+000,-9.92822E-003,0.00000E+000,8.52252E-003,9.89881E-001,0.00000E+000,-1.03500E-003,-3.64828E-002,1.00000E+000,4
1149,1337,1.55231E+001,8.02909E-001,-7.13004E-002,1.35216E+000,-1.88666E-002,-7.33971E-002,1.35428E+000,9.72659E-003,4.83758E-001,0,2.06874E+001,-3.32834E-001,9.99927E-001,-1.91270E+001,-3.14078E+001,9.98489E-001,2.72825E-002,-1.07924E-002,-4.54740E-004,2.72879E-002,-1.07978E-002,-6.84171E-001,2.74851E-002,1.02761E+000,-9.90968E-003,0.00000E+000,8.67978E-003,9.89887E-001,0.00000E+000,-1.29027E-003,-3.64928E-002,1.00000E+000,4
1149,1347,1.55534E+001,1.45828E+000,-1.76457E-002,1.34726E+000,-2.46980E-002,-9.36290E-002,1.35074E+000,9.24190E-003,4.97117E-001,0,2.06850E+001,-3.78750E-001,9.99899E-001,-1.84848E+001,-3.13704E+001,9.98540E-001,2.77472E-002,-1.07831E-002,-3.65229E-004,2.77506E-002,-1.07866E-002,-5.43042E-001,2.79789E-002,1.02809E+000,-9.88462E-003,0.00000E+000,8.83773E-003,9.89895E-001,0.00000E+000,-1.54667E-003,-3.65062E-002,1.00000E+000,4
699,1347,-1.45980E+001,9.99227E-001,-1.91965E-002,5.71723E-001,-1.90042E-001,-6.09648E-003,6.02511E-001,3.90178E-003,6.03042E-001,0,8.96479E+000,-3.02949E+000,9.99938E-001,-3.35470E+001,-4.26494E+001,9.99747E-001,2.41393E-002,-1.02720E-002,-3.74694E-004,2.41434E-002,-1.02761E-002,-6.23777E-001,2.42323E-002,1.02443E+000,3.49548E-003,0.00000E+000,-4.09089E-003,9.90463E-001,0.00000E+000,-7.00025E-004,-3.73570E-002,1.00000E+000,4
699,1357,-1.45763E+001,1.63922E+000,6.52643E-003,5.72906E-001,-1.96797E-001,-3.08145E-002,6.06547E-001,3.53698E-003,5.72586E-001,0,9.05233E+000,-3.07043E+000,9.99915E-001,-3.29950E+001,-4.28866E+001,9.99778E-001,2.35822E-002,-1.02699E-002,-3.45220E-004,2.35857E-002,-1.02735E-002,-5.84215E-001,2.36508E-002,1.02386E+000,3.47758E-003,0.00000E+000,-3.98615E-003,9.90466E-001,0.00000E+000,-1.53755E-003,-3.73833E-002,1.00000E+000,4
699,1337,-1.46151E+001,3.61564E-001,-1.43652E-002,5.69103E-001,-1.84730E-001,1.62455E-002,5.98554E-001,3.68685E-003,5.74189E-001,0,8.86134E+000,-2.99631E+000,9.99884E-001,-3.39441E+001,-4.24760E+001,9.99586E-001,2.46930E-002,-1.02734E-002,-4.06559E-004,2.46977E-002,-1.02781E-002,-6.66066E-001,2.48132E-002,1.02499E+000,3.50817E-003,0.00000E+000,-4.19517E-003,9.90460E-001,0.00000E+000,1.33825E-004,-3.73384E-002,1.00000E+000,4
699,1317,-1.46304E+001,-8.88068E-001,9.79118E-002,5.65252E-001,-1.66657E-001,6.82695E-002,5.93250E-001,7.23420E-003,6.39156E-001,0,8.65119E+000,-2.82963E+000,9.99892E-001,-3.41610E+001,-4.18984E+001,9.98931E-001,2.57840E-002,-1.02741E-002,-4.76791E-004,2.57903E-002,-1.02805E-002,-7.57437E-001,2.59664E-002,1.02611E+000,3.51839E-003,0.00000E+000,-4.40122E-003,9.90458E-001,0.00000E+000,1.78138E-003,-3.73233E-002,1.00000E+000,4
699,1327,-1.46242E+001,-2.62090E-001,3.20598E-002,5.67378E-001,-1.75197E-001,4.22100E-002,5.95310E-001,6.43069E-003,6.82642E-001,0,8.75956E+000,-2.91101E+000,9.99837E-001,-3.41028E+001,-4.21104E+001,9.98264E-001,2.52382E-002,-1.02740E-002,-4.40895E-004,2.52436E-002,-1.02794E-002,-7.11200E-001,2.53881E-002,1.02555E+000,3.51477E-003,0.00000E+000,-4.29804E-003,9.90459E-001,0.00000E+000,9.56379E-004,-3.73287E-002,1.00000E+000,4
1159,1307,1.61645E+001,-1.11905E+000,-3.50425E-002,1.39077E+000,7.68837E-003,8.96189E-004,1.39080E+000,5.18271E-003,3.90365E-001,0,2.09765E+001,-4.94504E-002,9.99783E-001,-1.93133E+001,-3.12301E+001,9.99141E-001,2.59967E-002,-1.08429E-002,-6.76381E-004,2.60091E-002,-1.08553E-002,-1.05149E+000,2.61272E-002,1.02629E+000,-9.54581E-003,0.00000E+000,7.90322E-003,9.89850E-001,0.00000E+000,-1.30404E-003,-3.66728E-002,1.00000E+000,4
1159,1317,1.61714E+001,-4.78057E-001,-7.38894E-002,1.38447E+000,7.15934E-004,-2.36282E-002,1.38468E+000,5.02690E-003,4.39073E-001,0,2.09744E+001,-1.19509E-001,9.99857E-001,-1.92006E+001,-3.11849E+001,9.99479E-001,2.64894E-002,-1.08401E-002,-6.19707E-004,2.64997E-002,-1.08503E-002,-9.50818E-001,2.66442E-002,1.02680E+000,-9.53556E-003,0.00000E+000,8.00915E-003,9.89852E-001,0.00000E+000,-1.52912E-003,-3.66774E-002,1.00000E+000,4
1159,1327,1.61857E+001,1.65906E-001,-8.31622E-002,1.37888E+000,-6.07534E-003,-4.56062E-002,1.37965E+000,4.11773E-003,4.29799E-001,0,2.09719E+001,-1.83141E-001,9.99923E-001,-1.89194E+001,-3.11885E+001,9.99431E-001,2.69835E-002,-1.08362E-002,-5.60359E-004,2.69918E-002,-1.08445E-002,-8.48682E-001,2.71648E-002,1.02731E+000,-9.52013E-003,0.00000E+000,8.11544E-003,9.89855E-001,0.00000E+000,-1.75497E-003,-3.66842E-002,1.00000E+000,4
1159,1297,1.61606E+001,-1.75438E+000,1.65378E-002,1.39611E+000,1.54018E-002,2.32240E-002,1.39639E+000,7.09299E-003,4.43952E-001,0,2.09714E+001,2.77233E-002,9.99829E-001,-1.93592E+001,-3.11649E+001,9.97612E-001,2.55071E-002,-1.08452E-002,-7.31274E-004,2.55218E-002,-1.08599E-002,-1.15196E+000,2.56161E-002,1.02579E+000,-9.55313E-003,0.00000E+000,7.79804E-003,9.89848E-001,0.00000E+000,-1.08054E-003,-3.66695E-002,1.00000E+000,4
1159,1337,1.62097E+001,8.16466E-001,-5.81699E-002,1.37337E+000,-1.34442E-002,-7.12815E-002,1.37528E+000,6.79128E-003,4.60663E-001,0,2.09831E+001,-2.45861E-001,9.99941E-001,-1.84272E+001,-3.11477E+001,9.99614E-001,2.74819E-002,-1.08308E-002,-4.96962E-004,2.74884E-002,-1.08373E-002,-7.43028E-001,2.76926E-002,1.02782E+000,-9.49737E-003,0.00000E+000,8.22276E-003,9.89860E-001,0.00000E+000,-1.98302E-003,-3.66943E-002,1.00000E+000,4
1159,1347,1.62354E+001,1.46958E+000,-1.94640E-002,1.36643E+000,-1.86876E-002,-9.56530E-002,1.36990E+000,6.49057E-003,4.59583E-001,0,2.09662E+001,-2.89271E-001,9.99902E-001,-1.78853E+001,-3.11182E+001,9.99425E-001,2.79802E-002,-1.08251E-002,-4.32432E-004,2.79850E-002,-1.08299E-002,-6.38377E-001,2.82223E-002,1.02833E+000,-9.47225E-003,0.00000E+000,8.33011E-003,9.89865E-001,0.00000E+000,-2.21112E-003,-3.67055E-002,1.00000E+000,4
689,1347,-1.52542E+001,9.97546E-001,-1.16385E-002,5.56369E-001,-1.88071E-001,-6.92265E-003,5.87337E-001,5.21366E-003,6.23954E-001,0,8.73245E+000,-2.98946E+000,9.99921E-001,-3.35605E+001,-4.27779E+001,9.99365E-001,2.39634E-002,-1.01919E-002,-3.60729E-004,2.39672E-002,-1.01957E-002,-6.05038E-001,2.40559E-002,1.02425E+000,4.04368E-003,0.00000E+000,-4.59748E-003,9.90512E-001,0.00000E+000,-6.09910E-004,-3.66081E-002,1.00000E+000,4
689,1357,-1.52349E+001,1.63519E+000,1.04692E-003,5.57546E-001,-1.94682E-001,-3.29185E-002,5.91475E-001,4.25100E-003,5.76022E-001,0,8.82321E+000,-3.02478E+000,9.99904E-001,-3.30791E+001,-4.30333E+001,9.99714E-001,2.33865E-002,-1.01904E-002,-3.36690E-004,2.33899E-002,-1.01938E-002,-5.74454E-001,2.34540E-002,1.02366E+000,4.02719E-003,0.00000E+000,-4.50934E-003,9.90515E-001,0.00000E+000,-1.35060E-003,-3.66288E-002,1.00000E+000,4
689,1337,-1.52714E+001,3.60663E-001,-8.44746E-003,5.54524E-001,-1.80563E-001,1.90848E-002,5.83492E-001,5.27259E-003,5.76864E-001,0,8.63067E+000,-2.93431E+000,9.99868E-001,-3.39644E+001,-4.25963E+001,9.99649E-001,2.45399E-002,-1.01931E-002,-3.86053E-004,2.45442E-002,-1.01973E-002,-6.36731E-001,2.46608E-002,1.02484E+000,4.05765E-003,0.00000E+000,-4.68569E-003,9.90510E-001,0.00000E+000,1.31497E-004,-3.65906E-002,1.00000E+000,4
1169,1327,1.68638E+001,1.76817E-001,-9.54053E-002,1.39530E+000,-7.98291E-004,-5.28324E-002,1.39630E+000,4.35879E-003,4.57748E-001,0,2.12307E+001,-1.01314E-001,9.99948E-001,-1.83917E+001,-3.08906E+001,9.99504E-001,2.71194E-002,-1.08842E-002,-5.19668E-004,2.71265E-002,-1.08913E-002,-7.83277E-001,2.73014E-002,1.02745E+000,-9.04065E-003,0.00000E+000,7.75897E-003,9.89814E-001,0.00000E+000,-2.46456E-003,-3.67778E-002,1.00000E+000,4
1169,1337,1.68908E+001,8.28192E-001,-6.22067E-002,1.39069E+000,-7.67397E-003,-7.77321E-002,1.39288E+000,6.14487E-003,4.63538E-001,0,2.12524E+001,-1.61348E-001,9.99949E-001,-1.78414E+001,-3.08656E+001,9.99513E-001,2.76331E-002,-1.08809E-002,-4.75465E-004,2.76389E-002,-1.08867E-002,-7.07188E-001,2.78456E-002,1.02798E+000,-9.01553E-003,0.00000E+000,7.82426E-003,9.89817E-001,0.00000E+000,-2.64096E-003,-3.67862E-002,1.00000E+000,4
1169,1347,1.69198E+001,1.48207E+000,-1.30569E-002,1.38495E+000,-1.38099E-002,-9.91471E-002,1.38857E+000,4.87454E-003,4.41848E-001,0,2.12429E+001,-2.10396E-001,9.99921E-001,-1.72320E+001,-3.08562E+001,9.99520E-001,2.81476E-002,-1.08773E-002,-4.30000E-004,2.81523E-002,-1.08820E-002,-6.31217E-001,2.83929E-002,1.02851E+000,-8.98792E-003,0.00000E+000,7.88971E-003,9.89821E-001,0.00000E+000,-2.81776E-003,-3.67954E-002,1.00000E+000,4
689,1327,-1.52854E+001,-2.67081E-001,2.13989E-002,5.50151E-001,-1.72231E-001,4.07329E-002,5.77918E-001,5.86657E-003,6.46297E-001,0,8.50089E+000,-2.85883E+000,9.99828E-001,-3.42441E+001,-4.22760E+001,9.99155E-001,2.51089E-002,-1.01937E-002,-4.13531E-004,2.51138E-002,-1.01986E-002,-6.71033E-001,2.52610E-002,1.02542E+000,4.06646E-003,0.00000E+000,-4.77290E-003,9.90509E-001,0.00000E+000,8.64417E-004,-3.65795E-002,1.00000E+000,4
1169,1317,1.68486E+001,-4.70549E-001,-8.18646E-002,1.39979E+000,4.97912E-003,-2.83842E-002,1.40009E+000,6.19824E-003,3.77513E-001,0,2.12070E+001,-5.13273E-002,9.99914E-001,-1.86774E+001,-3.09956E+001,9.99605E-001,2.66086E-002,-1.08865E-002,-5.59121E-004,2.66170E-002,-1.08948E-002,-8.54133E-001,2.67625E-002,1.02693E+000,-9.05638E-003,0.00000E+000,7.69408E-003,9.89812E-001,0.00000E+000,-2.28928E-003,-3.67725E-002,1.00000E+000,4
1169,1307,1.68409E+001,-1.10970E+000,-4.83681E-002,1.40667E+000,1.12359E-002,-3.34857E-003,1.40672E+000,5.34285E-003,4.35229E-001,0,2.12159E+001,9.56969E-003,9.99904E-001,-1.88131E+001,-3.09493E+001,9.99479E-001,2.61033E-002,-1.08883E-002,-5.96290E-004,2.61129E-002,-1.08979E-002,-9.23267E-001,2.62315E-002,1.02641E+000,-9.06812E-003,0.00000E+000,7.62993E-003,9.89811E-001,0.00000E+000,-2.11597E-003,-3.67686E-002,1.00000E+000,4
1169,1297,1.68395E+001,-1.74460E+000,1.03715E-002,1.41371E+000,2.04386E-002,2.23901E-002,1.41404E+000,6.25512E-003,4.58099E-001,0,2.12221E+001,9.65258E-002,9.99866E-001,-1.88065E+001,-3.09094E+001,9.98307E-001,2.55982E-002,-1.08896E-002,-6.31069E-004,2.56091E-002,-1.09005E-002,-9.90557E-001,2.57033E-002,1.02589E+000,-9.07501E-003,0.00000E+000,7.56586E-003,9.89810E-001,0.00000E+000,-1.94288E-003,-3.67663E-002,1.00000E+000,4
689,1317,-1.52921E+001,-8.91632E-001,8.65591E-002,5.47325E-001,-1.64070E-001,6.54017E-002,5.75118E-001,6.06910E-003,6.41276E-001,0,8.38616E+000,-2.77670E+000,9.99871E-001,-3.43116E+001,-4.20200E+001,9.98913E-001,2.56750E-002,-1.01938E-002,-4.43452E-004,2.56805E-002,-1.01993E-002,-7.08212E-001,2.58609E-002,1.02600E+000,4.07002E-003,0.00000E+000,-4.85979E-003,9.90508E-001,0.00000E+000,1.59460E-003,-3.65750E-002,1.00000E+000,4
679,1347,-1.59144E+001,9.90982E-001,-1.69412E-002,5.38580E-001,-1.86204E-001,-1.06981E-002,5.69961E-001,7.97097E-003,5.82940E-001,0,8.47019E+000,-2.96475E+000,9.99854E-001,-3.36664E+001,-4.29848E+001,9.99156E-001,2.37740E-002,-1.01149E-002,-3.96303E-004,2.37786E-002,-1.01195E-002,-6.69907E-001,2.38662E-002,1.02405E+000,4.56237E-003,0.00000E+000,-5.17235E-003,9.90565E-001,0.00000E+000,-5.58633E-004,-3.60279E-002,1.00000E+000,4
679,1357,-1.58932E+001,1.63041E+000,-4.02465E-003,5.43271E-001,-1.92143E-001,-2.82641E-002,5.76941E-001,3.47286E-003,6.17496E-001,0,8.59165E+000,-3.01145E+000,9.99859E-001,-3.31533E+001,-4.31736E+001,9.99734E-001,2.31555E-002,-1.01146E-002,-3.95581E-004,2.31602E-002,-1.01193E-002,-6.81118E-001,2.32216E-002,1.02342E+000,4.54624E-003,0.00000E+000,-5.13221E-003,9.90566E-001,0.00000E+000,-1.28286E-003,-3.60464E-002,1.00000E+000,4
1179,1297,1.75123E+001,-1.73873E+000,-1.65521E-002,1.42940E+000,2.39098E-002,1.89222E-002,1.42973E+000,1.14895E-002,4.88894E-001,0,2.14552E+001,1.41480E-001,9.99924E-001,-1.83803E+001,-3.06630E+001,9.98209E-001,2.56925E-002,-1.09375E-002,-5.48075E-004,2.57007E-002,-1.09457E-002,-8.57031E-001,2.57947E-002,1.02599E+000,-8.60191E-003,0.00000E+000,7.31310E-003,9.89769E-001,0.00000E+000,-3.03322E-003,-3.68980E-002,1.00000E+000,4
1179,1307,1.75178E+001,-1.10481E+000,-6.28341E-002,1.42399E+000,1.44218E-002,-4.24583E-003,1.42407E+000,4.69245E-003,3.63604E-001,0,2.14640E+001,5.98092E-002,9.99938E-001,-1.83009E+001,-3.07933E+001,9.99133E-001,2.62042E-002,-1.09361E-002,-5.14874E-004,2.62113E-002,-1.09432E-002,-7.94086E-001,2.63300E-002,1.02652E+000,-8.59290E-003,0.00000E+000,7.36681E-003,9.89770E-001,0.00000E+000,-3.05836E-003,-3.68984E-002,1.00000E+000,4
1179,1317,1.75235E+001,-4.65113E-001,-1.13146E-001,1.41970E+000,9.63850E-003,-2.74125E-002,1.42000E+000,1.17414E-002,3.42959E-001,0,2.14878E+001,2.22659E-002,9.99945E-001,-1.82263E+001,-3.07745E+001,9.99129E-001,2.67164E-002,-1.09349E-002,-4.82013E-004,2.67226E-002,-1.09410E-002,-7.33342E-001,2.68683E-002,1.02704E+000,-8.58469E-003,0.00000E+000,7.42061E-003,9.89771E-001,0.00000E+000,-3.08354E-003,-3.68988E-002,1.00000E+000,4
1179,1337,1.75719E+001,8.37625E-001,-6.84395E-002,1.40821E+000,-3.55814E-003,-8.39894E-002,1.41072E+000,5.19704E-003,4.24712E-001,0,2.15245E+001,-8.67637E-002,9.99935E-001,-1.72547E+001,-3.06353E+001,9.99092E-001,2.77590E-002,-1.09291E-002,-3.99736E-004,2.77632E-002,-1.09332E-002,-5.91911E-001,2.79711E-002,1.02812E+000,-8.53634E-003,0.00000E+000,7.53023E-003,9.89776E-001,0.00000E+000,-3.13484E-003,-3.69012E-002,1.00000E+000,4
1179,1347,1.76051E+001,1.49544E+000,-1.15883E-002,1.40398E+000,-8.61369E-003,-1.07047E-001,1.40808E+000,5.19428E-003,4.42007E-001,0,2.15436E+001,-1.16201E-001,9.99922E-001,-1.65701E+001,-3.05605E+001,9.99395E-001,2.82833E-002,-1.09255E-002,-3.55515E-004,2.82866E-002,-1.09288E-002,-5.19456E-001,2.85291E-002,1.02866E+000,-8.50616E-003,0.00000E+000,7.58540E-003,9.89779E-001,0.00000E+000,-3.16066E-003,-3.69026E-002,1.00000E+000,4
679,1327,-1.59428E+001,-2.70635E-001,2.25940E-002,5.34221E-001,-1.70033E-001,3.99515E-002,5.62049E-001,5.90989E-003,6.20938E-001,0,8.26007E+000,-2.81682E+000,9.99835E-001,-3.42909E+001,-4.24391E+001,9.99220E-001,2.49973E-002,-1.01153E-002,-4.01918E-004,2.50019E-002,-1.01199E-002,-6.55725E-001,2.51526E-002,1.02530E+000,4.58587E-003,0.00000E+000,-5.25191E-003,9.90563E-001,0.00000E+000,8.77105E-004,-3.60010E-002,1.00000E+000,4
679,1337,-1.59307E+001,3.58162E-001,-1.25489E-002,5.37695E-001,-1.77302E-001,1.78679E-002,5.66455E-001,5.18995E-003,6.02179E-001,0,8.37643E+000,-2.88611E+000,9.99880E-001,-3.40536E+001,-4.27085E+001,9.99759E-001,2.43882E-002,-1.01151E-002,-3.97553E-004,2.43928E-002,-1.01197E-002,-6.60054E-001,2.45104E-002,1.02468E+000,4.57736E-003,0.00000E+000,-5.21227E-003,9.90564E-001,0.00000E+000,1.61731E-004,-3.60107E-002,1.00000E+000,4
1179,1327,1.75444E+001,1.85485E-001,-1.03169E-001,1.41477E+000,5.17082E-003,-5.21091E-002,1.41573E+000,8.39455E-003,4.13965E-001,0,2.15045E+001,-2.90466E-002,9.99941E-001,-1.78127E+001,-3.06728E+001,9.98431E-001,2.72358E-002,-1.09323E-002,-4.42576E-004,2.72410E-002,-1.09374E-002,-6.64250E-001,2.74166E-002,1.02758E+000,-8.56379E-003,0.00000E+000,7.47520E-003,9.89773E-001,0.00000E+000,-3.10909E-003,-3.68998E-002,1.00000E+000,4
679,1317,-1.59508E+001,-8.94789E-001,8.40600E-002,5.30166E-001,-1.61763E-001,6.15876E-002,5.57707E-001,5.98771E-003,6.39234E-001,0,8.13511E+000,-2.73540E+000,9.99908E-001,-3.43887E+001,-4.21559E+001,9.98640E-001,2.56028E-002,-1.01153E-002,-4.08513E-004,2.56075E-002,-1.01200E-002,-6.55185E-001,2.57943E-002,1.02592E+000,4.58972E-003,0.00000E+000,-5.29138E-003,9.90563E-001,0.00000E+000,1.58937E-003,-3.59966E-002,1.00000E+000,4
669,1327,-1.65998E+001,-2.75666E-001,2.04497E-002,5.18997E-001,-1.68255E-001,3.97980E-002,5.47039E-001,6.63239E-003,5.72591E-001,0,8.02841E+000,-2.77897E+000,9.99911E-001,-3.43375E+001,-4.26294E+001,9.99054E-001,2.48413E-002,-1.00448E-002,-3.63504E-004,2.48451E-002,-1.00486E-002,-5.96920E-001,2.49959E-002,1.02514E+000,5.24160E-003,0.00000E+000,-5.80835E-003,9.90607E-001,0.00000E+000,8.50312E-004,-3.53502E-002,1.00000E+000,4
669,1337,-1.65884E+001,3.55575E-001,-1.22025E-002,5.21398E-001,-1.75043E-001,1.78846E-002,5.50287E-001,3.74113E-003,6.29072E-001,0,8.12692E+000,-2.85037E+000,9.99906E-001,-3.41032E+001,-4.28309E+001,9.99708E-001,2.41777E-002,-1.00451E-002,-3.82607E-004,2.41820E-002,-1.00494E-002,-6.40454E-001,2.42966E-002,1.02446E+000,5.23198E-003,0.00000E+000,-5.81422E-003,9.90607E-001,0.00000E+000,1.06315E-004,-3.53607E-002,1.00000E+000,4
669,1347,-1.65737E+001,9.87552E-001,-2.64435E-002,5.24181E-001,-1.82005E-001,-2.12544E-003,5.54884E-001,3.60477E-003,5.99624E-001,0,8.22589E+000,-2.91098E+000,9.99909E-001,-3.37660E+001,-4.31057E+001,9.99549E-001,2.35127E-002,-1.00455E-002,-4.03215E-004,2.35175E-002,-1.00504E-002,-6.88300E-001,2.36001E-002,1.02378E+000,5.21932E-003,0.00000E+000,-5.82009E-003,9.90607E-001,0.00000E+000,-6.38080E-004,-3.53746E-002,1.00000E+000,4
669,1357,-1.65504E+001,1.62765E+000,-4.36119E-004,5.28063E-001,-1.87317E-001,-2.38423E-002,5.60809E-001,3.69873E-003,5.84267E-001,0,8.34540E+000,-2.94863E+000,9.99828E-001,-3.31823E+001,-4.33392E+001,9.99695E-001,2.28414E-002,-1.00463E-002,-4.27810E-004,2.28470E-002,-1.00519E-002,-7.45146E-001,2.29018E-002,1.02309E+000,5.19876E-003,0.00000E+000,-5.82601E-003,9.90607E-001,0.00000E+000,-1.38833E-003,-3.53970E-002,1.00000E+000,4
1189,1337,1.82549E+001,8.48469E-001,-7.19210E-002,1.42662E+000,-2.82114E-004,-8.91800E-002,1.42941E+000,7.44602E-003,4.28483E-001,0,2.18061E+001,-1.83303E-002,9.99918E-001,-1.66309E+001,-3.03679E+001,9.99154E-001,2.78400E-002,-1.09985E-002,-3.49371E-004,2.78431E-002,-1.10017E-002,-5.15347E-001,2.80465E-002,1.02820E+000,-8.09529E-003,0.00000E+000,7.21681E-003,9.89707E-001,0.00000E+000,-3.47135E-003,-3.68367E-002,1.00000E+000,4
669,1317,-1.66067E+001,-8.97735E-001,9.08342E-002,5.14743E-001,-1.58365E-001,6.35320E-002,5.42288E-001,9.59846E-003,5.81980E-001,0,7.89436E+000,-2.68357E+000,9.99936E-001,-3.43936E+001,-4.23357E+001,9.98306E-001,2.54989E-002,-1.00449E-002,-3.47808E-004,2.55023E-002,-1.00483E-002,-5.60587E-001,2.56926E-002,1.02581E+000,5.24446E-003,0.00000E+000,-5.80253E-003,9.90607E-001,0.00000E+000,1.58868E-003,-3.53471E-002,1.00000E+000,4
1189,1297,1.81973E+001,-1.72792E+000,-8.35014E-004,1.44666E+000,2.85557E-002,1.80761E-002,1.44706E+000,9.10781E-003,4.37284E-001,0,2.16992E+001,2.10695E-001,9.99927E-001,-1.76873E+001,-3.04707E+001,9.97393E-001,2.58336E-002,-1.10002E-002,-4.09124E-004,2.58381E-002,-1.10047E-002,-6.36297E-001,2.59325E-002,1.02614E+000,-8.15645E-003,0.00000E+000,7.19220E-003,9.89707E-001,0.00000E+000,-3.99317E-003,-3.68522E-002,1.00000E+000,4
1189,1307,1.81977E+001,-1.09259E+000,-6.74486E-002,1.44051E+000,1.98038E-002,-7.42154E-003,1.44066E+000,5.21095E-003,4.23855E-001,0,2.17068E+001,1.35494E-001,9.99910E-001,-1.77238E+001,-3.04791E+001,9.98965E-001,2.63308E-002,-1.10000E-002,-3.99130E-004,2.63351E-002,-1.10043E-002,-6.12495E-001,2.64533E-002,1.02665E+000,-8.15120E-003,0.00000E+000,7.19829E-003,9.89707E-001,0.00000E+000,-3.86397E-003,-3.68509E-002,1.00000E+000,4
1189,1317,1.82139E+001,-4.45670E-001,-8.61003E-002,1.43716E+000,1.39915E-002,-3.54374E-002,1.43767E+000,5.58817E-003,4.80952E-001,0,2.17627E+001,9.65429E-002,9.99941E-001,-1.74333E+001,-3.03754E+001,9.99627E-001,2.68337E-002,-1.09996E-002,-3.84119E-004,2.68376E-002,-1.10035E-002,-5.81641E-001,2.69821E-002,1.02717E+000,-8.13581E-003,0.00000E+000,7.20446E-003,9.89707E-001,0.00000E+000,-3.73323E-003,-3.68470E-002,1.00000E+000,4
1189,1327,1.82318E+001,1.98997E-001,-8.94004E-002,1.43151E+000,5.74140E-003,-6.41911E-002,1.43296E+000,8.36506E-003,4.58866E-001,0,2.17868E+001,2.53375E-002,9.99941E-001,-1.70895E+001,-3.03824E+001,9.99352E-001,2.73361E-002,-1.09991E-002,-3.67579E-004,2.73396E-002,-1.10026E-002,-5.49316E-001,2.75126E-002,1.02769E+000,-8.11725E-003,0.00000E+000,7.21062E-003,9.89707E-001,0.00000E+000,-3.60251E-003,-3.68423E-002,1.00000E+000,4
659,1327,-1.72561E+001,-2.75588E-001,2.27142E-002,5.02904E-001,-1.63640E-001,3.73265E-002,5.30173E-001,1.11974E-002,5.88895E-001,0,7.78829E+000,-2.70405E+000,9.99839E-001,-3.43552E+001,-4.27185E+001,9.97845E-001,2.46259E-002,-9.99025E-003,-3.52319E-004,2.46294E-002,-9.99384E-003,-5.83070E-001,2.47748E-002,1.02491E+000,5.90152E-003,0.00000E+000,-6.41803E-003,9.90641E-001,0.00000E+000,6.66580E-004,-3.48837E-002,1.00000E+000,4
659,1337,-1.72399E+001,3.54127E-001,-6.82419E-003,5.10186E-001,-1.71889E-001,1.83212E-002,5.38675E-001,8.89536E-003,7.03332E-001,0,7.95475E+000,-2.83325E+000,9.99901E-001,-3.40384E+001,-4.29224E+001,9.99520E-001,2.39500E-002,-9.99074E-003,-3.85342E-004,2.39544E-002,-9.99511E-003,-6.50388E-001,2.40635E-002,1.02422E+000,5.89179E-003,0.00000E+000,-6.45361E-003,9.90641E-001,0.00000E+000,-3.63105E-005,-3.48936E-002,1.00000E+000,4
659,1347,-1.72259E+001,9.86489E-001,-2.00777E-002,5.12166E-001,-1.78168E-001,-1.64827E-003,5.42274E-001,4.84050E-003,6.30941E-001,0,8.04061E+000,-2.86499E+000,9.99943E-001,-3.37085E+001,-4.32168E+001,9.99777E-001,2.32732E-002,-9.99150E-003,-4.19944E-004,2.32785E-002,-9.99680E-003,-7.23167E-001,2.33556E-002,1.02353E+000,5.87885E-003,0.00000E+000,-6.48919E-003,9.90640E-001,0.00000E+000,-7.39255E-004,-3.49067E-002,1.00000E+000,4
659,1357,-1.72056E+001,1.62659E+000,6.01023E-003,5.13824E-001,-1.82662E-001,-2.00846E-002,5.45696E-001,3.24090E-003,5.99017E-001,0,8.11593E+000,-2.89052E+000,9.99894E-001,-3.31679E+001,-4.34610E+001,9.99824E-001,2.25904E-002,-9.99288E-003,-4.58274E-004,2.25969E-002,-9.99933E-003,-8.05635E-001,2.26466E-002,1.02283E+000,5.85874E-003,0.00000E+000,-6.52503E-003,9.90639E-001,0.00000E+000,-1.44725E-003,-3.49271E-002,1.00000E+000,4
1199,1307,1.88814E+001,-1.08009E+000,-6.37248E-002,1.45738E+000,2.42488E-002,-1.41760E-002,1.45765E+000,7.66197E-003,4.53282E-001,0,2.19685E+001,2.12192E-001,9.99915E-001,-1.70685E+001,-3.01934E+001,9.98602E-001,2.64365E-002,-1.09989E-002,-2.85728E-004,2.64387E-002,-1.10011E-002,-4.37280E-001,2.65624E-002,1.02677E+000,-7.70532E-003,0.00000E+000,7.00666E-003,9.89706E-001,0.00000E+000,-4.25796E-003,-3.67683E-002,1.00000E+000,4
1199,1317,1.88946E+001,-4.38076E-001,-9.05033E-002,1.45342E+000,1.64203E-002,-4.10109E-002,1.45409E+000,5.77172E-003,4.47188E-001,0,2.20123E+001,1.43179E-001,9.99841E-001,-1.68384E+001,-3.01786E+001,9.98839E-001,2.69228E-002,-1.09998E-002,-2.90995E-004,2.69250E-002,-1.10020E-002,-4.39620E-001,2.70745E-002,1.02727E+000,-7.69213E-003,0.00000E+000,6.97253E-003,9.89705E-001,0.00000E+000,-4.05502E-003,-3.67630E-002,1.00000E+000,4
1199,1327,1.89111E+001,2.06846E-001,-1.04992E-001,1.44993E+000,1.04150E-002,-6.63262E-002,1.45148E+000,6.56411E-003,4.31915E-001,0,2.20559E+001,9.35314E-002,9.99877E-001,-1.65375E+001,-3.01523E+001,9.99024E-001,2.74094E-002,-1.10008E-002,-2.95266E-004,2.74117E-002,-1.10031E-002,-4.40408E-001,2.75888E-002,1.02777E+000,-7.67684E-003,0.00000E+000,6.93836E-003,9.89704E-001,0.00000E+000,-3.85181E-003,-3.67568E-002,1.00000E+000,4
659,1317,-1.72671E+001,-9.01001E-001,7.51976E-002,4.97025E-001,-1.56158E-001,5.71623E-002,5.24106E-001,9.42855E-003,5.95378E-001,0,7.64102E+000,-2.62278E+000,9.99735E-001,-3.45247E+001,-4.24382E+001,9.95724E-001,2.52962E-002,-9.99014E-003,-3.21550E-004,2.52991E-002,-9.99307E-003,-5.22055E-001,2.54844E-002,1.02560E+000,5.90702E-003,0.00000E+000,-6.38269E-003,9.90641E-001,0.00000E+000,1.36477E-003,-3.48781E-002,1.00000E+000,4
1199,1337,1.89428E+001,8.62658E-001,-5.84066E-002,1.44681E+000,5.44937E-003,-8.76580E-002,1.44947E+000,6.81303E-003,4.48055E-001,0,2.20865E+001,5.49947E-002,9.99906E-001,-1.58990E+001,-3.00780E+001,9.98594E-001,2.79022E-002,-1.10024E-002,-2.94238E-004,2.79044E-002,-1.10047E-002,-4.33298E-001,2.81112E-002,1.02827E+000,-7.65032E-003,0.00000E+000,6.90373E-003,9.89702E-001,0.00000E+000,-3.64588E-003,-3.67460E-002,1.00000E+000,4
1199,1297,1.88799E+001,-1.71579E+000,-1.32064E-003,1.46320E+000,3.32640E-002,9.74900E-003,1.46362E+000,5.74283E-003,4.38751E-001,0,2.19614E+001,3.08463E-001,9.99884E-001,-1.70553E+001,-3.01973E+001,9.98435E-001,2.59531E-002,-1.09984E-002,-2.76866E-004,2.59552E-002,-1.10005E-002,-4.29268E-001,2.60554E-002,1.02627E+000,-7.71096E-003,0.00000E+000,7.04056E-003,9.89706E-001,0.00000E+000,-4.45955E-003,-3.67706E-002,1.00000E+000,4
649,1347,-1.78828E+001,9.86824E-001,-1.75984E-002,4.95344E-001,-1.73129E-001,-3.45562E-003,5.24739E-001,4.84698E-003,6.58849E-001,0,7.78608E+000,-2.78593E+000,9.99922E-001,-3.37292E+001,-4.33005E+001,9.99471E-001,2.30222E-002,-9.95962E-003,-3.93856E-004,2.30269E-002,-9.96432E-003,-6.84074E-001,2.30962E-002,1.02327E+000,6.59078E-003,0.00000E+000,-7.12901E-003,9.90647E-001,0.00000E+000,-7.12711E-004,-3.43322E-002,1.00000E+000,4
649,1357,-1.78617E+001,1.62555E+000,6.78012E-003,4.98414E-001,-1.77947E-001,-2.10751E-002,5.29647E-001,3.41893E-003,6.02232E-001,0,7.88106E+000,-2.81334E+000,9.99911E-001,-3.31798E+001,-4.35760E+001,9.99729E-001,2.23085E-002,-9.96097E-003,-4.33408E-004,2.23143E-002,-9.96679E-003,-7.69348E-001,2.23566E-002,1.02254E+000,6.57043E-003,0.00000E+000,-7.16979E-003,9.90646E-001,0.00000E+000,-1.37110E-003,-3.43506E-002,1.00000E+000,4
649,1337,-1.79000E+001,3.53761E-001,-2.15011E-003,4.89863E-001,-1.66030E-001,1.76667E-002,5.17537E-001,5.75881E-003,6.13972E-001,0,7.64277E+000,-2.71331E+000,9.99930E-001,-3.41028E+001,-4.30786E+001,9.99437E-001,2.37326E-002,-9.95889E-003,-3.57884E-004,2.37364E-002,-9.96269E-003,-6.08526E-001,2.38381E-002,1.02400E+000,6.60403E-003,0.00000E+000,-7.08836E-003,9.90648E-001,0.00000E+000,-5.63780E-005,-3.43202E-002,1.00000E+000,4
649,1327,-1.79128E+001,-2.74129E-001,2.79403E-002,4.85545E-001,-1.58364E-001,3.51152E-002,5.11924E-001,5.37393E-003,6.31076E-001,0,7.52703E+000,-2.62744E+000,9.99910E-001,-3.43662E+001,-4.27799E+001,9.99643E-001,2.44377E-002,-9.95848E-003,-3.23878E-004,2.44408E-002,-9.96153E-003,-5.39439E-001,2.45796E-002,1.02472E+000,6.61364E-003,0.00000E+000,-7.04795E-003,9.90649E-001,0.00000E+000,5.95947E-004,-3.43116E-002,1.00000E+000,4
1209,1307,1.95666E+001,-1.06874E+000,-6.22618E-002,1.47591E+000,2.87932E-002,-2.05805E-002,1.47633E+000,5.62611E-003,4.57199E-001,0,2.22534E+001,2.88030E-001,9.99904E-001,-1.63909E+001,-2.99334E+001,9.98926E-001,2.64677E-002,-1.09040E-002,-1.45360E-004,2.64683E-002,-1.09046E-002,-2.22851E-001,2.66046E-002,1.02680E+000,-7.20184E-003,0.00000E+000,6.80400E-003,9.89789E-001,0.00000E+000,-4.40306E-003,-3.64161E-002,1.00000E+000,4
1209,1317,1.95782E+001,-4.28324E-001,-9.27275E-002,1.47197E+000,2.01732E-002,-4.40719E-002,1.47276E+000,6.09305E-003,4.47712E-001,0,2.22858E+001,2.00650E-001,9.99909E-001,-1.61942E+001,-2.99359E+001,9.98764E-001,2.69769E-002,-1.09050E-002,-1.52285E-004,2.69776E-002,-1.09056E-002,-2.30323E-001,2.71420E-002,1.02733E+000,-7.18938E-003,0.00000E+000,6.76308E-003,9.89788E-001,0.00000E+000,-4.07936E-003,-3.64083E-002,1.00000E+000,4
1209,1327,1.96001E+001,2.19620E-001,-9.12548E-002,1.46917E+000,1.49145E-002,-7.10820E-002,1.47096E+000,5.76841E-003,4.14782E-001,0,2.23457E+001,1.66533E-001,9.99913E-001,-1.57840E+001,-2.99043E+001,9.99221E-001,2.74884E-002,-1.09063E-002,-1.55721E-004,2.74891E-002,-1.09069E-002,-2.32375E-001,2.76837E-002,1.02785E+000,-7.16960E-003,0.00000E+000,6.72195E-003,9.89786E-001,0.00000E+000,-3.75396E-003,-3.63961E-002,1.00000E+000,4
1209,1337,1.96332E+001,8.76305E-001,-4.36424E-002,1.46702E+000,9.33737E-003,-9.24036E-002,1.46996E+000,6.97963E-003,4.49036E-001,0,2.23914E+001,1.25713E-001,9.99915E-001,-1.51234E+001,-2.98085E+001,9.98303E-001,2.80059E-002,-1.09081E-002,-1.55219E-004,2.80066E-002,-1.09087E-002,-2.28535E-001,2.82336E-002,1.02838E+000,-7.14136E-003,0.00000E+000,6.68029E-003,9.89784E-001,0.00000E+000,-3.42447E-003,-3.63786E-002,1.00000E+000,4
1209,1297,1.95626E+001,-1.70552E+000,-5.26489E-003,1.48108E+000,3.84588E-002,4.81289E-003,1.48159E+000,5.25345E-003,4.16683E-001,0,2.22305E+001,3.96435E-001,9.99873E-001,-1.64253E+001,-2.99573E+001,9.98752E-001,2.59597E-002,-1.09034E-002,-1.36007E-004,2.59602E-002,-1.09039E-002,-2.11390E-001,2.60707E-002,1.02628E+000,-7.20923E-003,0.00000E+000,6.84479E-003,9.89789E-001,0.00000E+000,-4.72572E-003,-3.64207E-002,1.00000E+000,4
649,1317,-1.79208E+001,-8.98015E-001,9.23672E-002,4.81237E-001,-1.50586E-001,5.94272E-002,5.07737E-001,4.22502E-003,6.25688E-001,0,7.39229E+000,-2.54620E+000,9.99854E-001,-3.44564E+001,-4.25052E+001,9.99620E-001,2.51388E-002,-9.95854E-003,-2.92639E-004,2.51412E-002,-9.96098E-003,-4.77685E-001,2.53211E-002,1.02544E+000,6.61785E-003,0.00000E+000,-7.00772E-003,9.90649E-001,0.00000E+000,1.24535E-003,-3.43077E-002,1.00000E+000,4
639,1347,-1.85395E+001,9.86356E-001,-1.96767E-002,4.79379E-001,-1.67365E-001,-3.77099E-003,5.07769E-001,5.14126E-003,6.29158E-001,0,7.54056E+000,-2.67989E+000,9.99877E-001,-3.37560E+001,-4.34153E+001,9.99383E-001,2.27646E-002,-9.89696E-003,-3.98055E-004,2.27694E-002,-9.90181E-003,-6.98141E-001,2.28337E-002,1.02300E+000,7.29707E-003,0.00000E+000,-7.82557E-003,9.90684E-001,0.00000E+000,-6.40661E-004,-3.37416E-002,1.00000E+000,4
639,1357,-1.85170E+001,1.62535E+000,4.92418E-003,4.83869E-001,-1.72536E-001,-2.22276E-002,5.14191E-001,3.21219E-003,6.07143E-001,0,7.65970E+000,-2.71812E+000,9.99910E-001,-3.31821E+001,-4.36716E+001,9.99728E-001,2.20201E-002,-9.89847E-003,-4.42609E-004,2.20263E-002,-9.90461E-003,-7.94306E-001,2.20634E-002,1.02224E+000,7.27582E-003,0.00000E+000,-7.87776E-003,9.90683E-001,0.00000E+000,-1.26042E-003,-3.37589E-002,1.00000E+000,4
639,1317,-1.85752E+001,-8.95115E-001,1.06498E-001,4.64642E-001,-1.46315E-001,6.03594E-002,4.90860E-001,6.33219E-003,6.67055E-001,0,7.13484E+000,-2.46988E+000,9.99862E-001,-3.44032E+001,-4.25619E+001,9.99074E-001,2.49662E-002,-9.89619E-003,-2.84685E-004,2.49685E-002,-9.89852E-003,-4.67835E-001,2.51464E-002,1.02525E+000,7.32186E-003,0.00000E+000,-7.67080E-003,9.90686E-001,0.00000E+000,1.19701E-003,-3.37214E-002,1.00000E+000,4
639,1327,-1.85681E+001,-2.76025E-001,3.80884E-002,4.69542E-001,-1.55506E-001,3.98208E-002,4.96224E-001,4.78117E-003,6.06626E-001,0,7.26867E+000,-2.58069E+000,9.99899E-001,-3.43382E+001,-4.29367E+001,9.99248E-001,2.42388E-002,-9.89591E-003,-3.19495E-004,2.42418E-002,-9.89890E-003,-5.36215E-001,2.43772E-002,1.02451E+000,7.31917E-003,0.00000E+000,-7.72200E-003,9.90686E-001,0.00000E+000,5.89100E-004,-3.37236E-002,1.00000E+000,4
639,1337,-1.85568E+001,3.53298E-001,-8.31996E-003,4.74260E-001,-1.61967E-001,1.64792E-002,5.01426E-001,4.27094E-003,6.60284E-001,0,7.40607E+000,-2.64002E+000,9.99923E-001,-3.41435E+001,-4.31449E+001,9.99514E-001,2.35030E-002,-9.89613E-003,-3.57158E-004,2.35068E-002,-9.89995E-003,-6.12607E-001,2.36040E-002,1.02376E+000,7.31135E-003,0.00000E+000,-7.77372E-003,9.90685E-001,0.00000E+000,-2.51018E-005,-3.37300E-002,1.00000E+000,4
1219,1317,2.02666E+001,-4.14204E-001,-8.51177E-002,1.49127E+000,2.39754E-002,-5.10407E-002,1.49234E+000,7.13853E-003,4.93991E-001,0,2.25849E+001,2.80229E-001,9.99929E-001,-1.54541E+001,-2.96235E+001,9.98720E-001,2.69934E-002,-1.08808E-002,9.76780E-006,2.69934E-002,-1.08808E-002,1.47767E-002,2.71618E-002,1.02735E+000,-6.63906E-003,0.00000E+000,6.54330E-003,9.89792E-001,0.00000E+000,-3.83180E-003,-3.58282E-002,1.00000E+000,4
1219,1327,2.02866E+001,2.31814E-001,-8.64928E-002,1.48854E+000,1.88361E-002,-7.29220E-002,1.49044E+000,4.16765E-003,4.31328E-001,0,2.26267E+001,2.33717E-001,9.99931E-001,-1.50796E+001,-2.96294E+001,9.99364E-001,2.74989E-002,-1.08822E-002,2.45524E-006,2.74989E-002,-1.08822E-002,3.66521E-003,2.76974E-002,1.02786E+000,-6.62098E-003,0.00000E+000,6.49347E-003,9.89790E-001,0.00000E+000,-3.41733E-003,-3.58138E-002,1.00000E+000,4
1219,1337,2.03205E+001,8.88931E-001,-3.85586E-002,1.48626E+000,1.31199E-002,-9.64665E-002,1.48944E+000,5.21758E-003,4.64853E-001,0,2.26793E+001,1.95064E-001,9.99920E-001,-1.44093E+001,-2.95264E+001,9.99129E-001,2.80120E-002,-1.08844E-002,5.51069E-008,2.80120E-002,-1.08844E-002,8.11743E-005,2.82430E-002,1.02839E+000,-6.59225E-003,0.00000E+000,6.44284E-003,9.89788E-001,0.00000E+000,-2.99616E-003,-3.57908E-002,1.00000E+000,4
1219,1297,2.02475E+001,-1.69456E+000,-5.15983E-003,1.49959E+000,4.23275E-002,-2.14137E-004,1.50019E+000,5.82557E-003,4.19987E-001,0,2.25094E+001,4.73178E-001,9.99862E-001,-1.57505E+001,-2.97025E+001,9.98764E-001,2.59826E-002,-1.08788E-002,3.13080E-005,2.59826E-002,-1.08789E-002,4.86637E-002,2.60969E-002,1.02631E+000,-6.66085E-003,0.00000E+000,6.64279E-003,9.89794E-001,0.00000E+000,-4.65945E-003,-3.58456E-002,1.00000E+000,4
1219,1307,2.02557E+001,-1.05553E+000,-5.21168E-002,1.49607E+000,3.32273E-002,-2.51176E-002,1.49665E+000,7.09941E-003,4.55492E-001,0,2.25552E+001,3.75938E-001,9.99896E-001,-1.56342E+001,-2.96658E+001,9.98506E-001,2.64874E-002,-1.08797E-002,1.98114E-005,2.64874E-002,-1.08797E-002,3.03772E-002,2.66277E-002,1.02683E+000,-6.65150E-003,0.00000E+000,6.59313E-003,9.89793E-001,0.00000E+000,-4.24630E-003,-3.58382E-002,1.00000E+000,4
629,1347,-1.91953E+001,9.84317E-001,-2.31032E-002,4.64473E-001,-1.63036E-001,-2.76798E-003,4.92264E-001,4.29084E-003,6.14542E-001,0,7.30814E+000,-2.60321E+000,9.99871E-001,-3.37679E+001,-4.35439E+001,9.99491E-001,2.25470E-002,-9.99802E-003,-4.10731E-004,2.25522E-002,-1.00032E-002,-7.22943E-001,2.26000E-002,1.02277E+000,8.00891E-003,0.00000E+000,-8.54426E-003,9.90556E-001,0.00000E+000,-5.30952E-004,-3.30592E-002,1.00000E+000,4
629,1357,-1.91718E+001,1.62334E+000,1.30354E-003,4.69693E-001,-1.68264E-001,-2.32502E-002,4.99465E-001,3.71978E-003,6.08199E-001,0,7.44374E+000,-2.64519E+000,9.99876E-001,-3.31795E+001,-4.37929E+001,9.99595E-001,2.18549E-002,-9.99760E-003,-4.06959E-004,2.18601E-002,-1.00028E-002,-7.31873E-001,2.18863E-002,1.02207E+000,7.98906E-003,0.00000E+000,-8.50465E-003,9.90557E-001,0.00000E+000,-1.08955E-003,-3.30749E-002,1.00000E+000,4
629,1327,-1.92240E+001,-2.76273E-001,3.42650E-002,4.53849E-001,-1.49979E-001,3.83090E-002,4.79521E-001,3.96320E-003,5.95157E-001,0,7.03110E+000,-2.48351E+000,9.99913E-001,-3.43558E+001,-4.30319E+001,9.99366E-001,2.39177E-002,-9.99827E-003,-4.27761E-004,2.39231E-002,-1.00037E-002,-7.22482E-001,2.40297E-002,1.02417E+000,8.02881E-003,0.00000E+000,-8.62286E-003,9.90555E-001,0.00000E+000,5.77343E-004,-3.30435E-002,1.00000E+000,4
629,1337,-1.92114E+001,3.51915E-001,-1.06760E-002,4.59855E-001,-1.57272E-001,1.59704E-002,4.86268E-001,3.65341E-003,6.33620E-001,0,7.18573E+000,-2.55297E+000,9.99901E-001,-3.41370E+001,-4.32699E+001,9.99644E-001,2.32335E-002,-9.99822E-003,-4.17951E-004,2.32388E-002,-1.00035E-002,-7.20449E-001,2.33136E-002,1.02347E+000,8.02154E-003,0.00000E+000,-8.58360E-003,9.90555E-001,0.00000E+000,2.38133E-005,-3.30492E-002,1.00000E+000,4
1229,1317,2.09528E+001,-4.02431E-001,-8.16669E-002,1.51098E+000,2.93671E-002,-5.04831E-002,1.51210E+000,6.08031E-003,4.79493E-001,0,2.28600E+001,3.62848E-001,9.99910E-001,-1.47520E+001,-2.93692E+001,9.99428E-001,2.69815E-002,-1.08516E-002,1.67105E-004,2.69822E-002,-1.08524E-002,2.53063E-001,2.71537E-002,1.02734E+000,-6.10788E-003,0.00000E+000,6.32969E-003,9.89805E-001,0.00000E+000,-3.47976E-003,-3.53296E-002,1.00000E+000,4
1229,1327,2.09728E+001,2.45182E-001,-8.46556E-002,1.50761E+000,2.25357E-002,-7.52976E-002,1.50966E+000,4.99167E-003,5.00048E-001,0,2.29050E+001,2.99271E-001,9.99918E-001,-1.43826E+001,-2.93038E+001,9.99112E-001,2.74751E-002,-1.08532E-002,1.58568E-004,2.74758E-002,-1.08539E-002,2.37033E-001,2.76768E-002,1.02784E+000,-6.08984E-003,0.00000E+000,6.27477E-003,9.89803E-001,0.00000E+000,-2.97261E-003,-3.53115E-002,1.00000E+000,4
1229,1337,2.10038E+001,8.98095E-001,-5.07856E-002,1.50523E+000,1.76249E-002,-1.01769E-001,1.50877E+000,5.35577E-003,4.37975E-001,0,2.29683E+001,2.71045E-001,9.99918E-001,-1.37822E+001,-2.92815E+001,9.98795E-001,2.79700E-002,-1.08554E-002,1.53728E-004,2.79706E-002,-1.08560E-002,2.26856E-001,2.82030E-002,1.02835E+000,-6.06403E-003,0.00000E+000,6.21964E-003,9.89800E-001,0.00000E+000,-2.46356E-003,-3.52856E-002,1.00000E+000,4
629,1317,-1.92317E+001,-8.97007E-001,1.04446E-001,4.48213E-001,-1.42245E-001,5.95117E-002,4.73994E-001,5.02807E-003,6.68783E-001,0,6.88467E+000,-2.41249E+000,9.99897E-001,-3.44240E+001,-4.26779E+001,9.99235E-001,2.45948E-002,-9.99816E-003,-4.39882E-004,2.46004E-002,-1.00038E-002,-7.28412E-001,2.47429E-002,1.02487E+000,8.03108E-003,0.00000E+000,-8.66175E-003,9.90555E-001,0.00000E+000,1.12578E-003,-3.30417E-002,1.00000E+000,4
1229,1297,2.09328E+001,-1.68256E+000,-4.26747E-003,1.51791E+000,4.69403E-002,-4.32363E-003,1.51865E+000,5.79287E-003,4.64980E-001,0,2.27813E+001,5.43381E-001,9.99857E-001,-1.50668E+001,-2.94124E+001,9.98476E-001,2.59998E-002,-1.08496E-002,1.91309E-004,2.60008E-002,-1.08506E-002,2.97449E-001,2.61190E-002,1.02633E+000,-6.12874E-003,0.00000E+000,6.43875E-003,9.89807E-001,0.00000E+000,-4.48678E-003,-3.53505E-002,1.00000E+000,4
1229,1307,2.09414E+001,-1.04330E+000,-5.24443E-002,1.51610E+000,3.91326E-002,-2.51485E-002,1.51681E+000,7.96178E-003,4.80035E-001,0,2.28368E+001,4.58365E-001,9.99867E-001,-1.49468E+001,-2.93783E+001,9.98685E-001,2.64898E-002,-1.08504E-002,1.78089E-004,2.64906E-002,-1.08513E-002,2.73256E-001,2.66345E-002,1.02683E+000,-6.12069E-003,0.00000E+000,6.38435E-003,9.89806E-001,0.00000E+000,-3.98444E-003,-3.53424E-002,1.00000E+000,4
619,1327,-1.98791E+001,-2.77418E-001,3.19145E-002,4.38362E-001,-1.45591E-001,3.69494E-002,4.63383E-001,3.22652E-003,5.92119E-001,0,6.79625E+000,-2.40823E+000,9.99896E-001,-3.43528E+001,-4.31399E+001,9.99561E-001,2.36699E-002,-9.91919E-003,-5.00077E-004,2.36774E-002,-9.92663E-003,-8.52771E-001,2.37801E-002,1.02391E+000,8.78679E-003,0.00000E+000,-9.50125E-003,9.90602E-001,0.00000E+000,5.84820E-004,-3.23376E-002,1.00000E+000,4
619,1337,-1.98658E+001,3.51596E-001,-7.96833E-003,4.44364E-001,-1.52451E-001,1.50630E-002,4.70030E-001,2.96947E-003,6.27592E-001,0,6.94903E+000,-2.47127E+000,9.99855E-001,-3.41077E+001,-4.33793E+001,9.99670E-001,2.29981E-002,-9.91900E-003,-4.60570E-004,2.30045E-002,-9.92544E-003,-8.01464E-001,2.30765E-002,1.02323E+000,8.77891E-003,0.00000E+000,-9.40478E-003,9.90603E-001,0.00000E+000,7.49196E-005,-3.23434E-002,1.00000E+000,4
619,1347,-1.98503E+001,9.83053E-001,-2.82879E-002,4.49691E-001,-1.57962E-001,-4.35165E-003,4.76647E-001,3.63410E-003,6.10694E-001,0,7.08403E+000,-2.51614E+000,9.99859E-001,-3.37706E+001,-4.36513E+001,9.99623E-001,2.23252E-002,-9.91845E-003,-4.22529E-004,2.23307E-002,-9.92398E-003,-7.50648E-001,2.23767E-002,1.02254E+000,8.76800E-003,0.00000E+000,-9.30825E-003,9.90605E-001,0.00000E+000,-4.35215E-004,-3.23515E-002,1.00000E+000,4
619,1357,-1.98275E+001,1.62143E+000,-7.56252E-003,4.55483E-001,-1.62690E-001,-2.28097E-002,4.84203E-001,3.74504E-003,6.00869E-001,0,7.22283E+000,-2.55454E+000,9.99904E-001,-3.32001E+001,-4.39057E+001,9.99653E-001,2.16470E-002,-9.91704E-003,-3.87749E-004,2.16518E-002,-9.92181E-003,-7.03709E-001,2.16769E-002,1.02185E+000,8.74983E-003,0.00000E+000,-9.21109E-003,9.90607E-001,0.00000E+000,-9.48758E-004,-3.23650E-002,1.00000E+000,4
619,1317,-1.98859E+001,-8.97353E-001,1.03965E-001,4.33688E-001,-1.35616E-001,6.05265E-002,4.58411E-001,5.47079E-003,6.30920E-001,0,6.65836E+000,-2.31448E+000,9.99851E-001,-3.44016E+001,-4.27931E+001,9.99408E-001,2.43362E-002,-9.91874E-003,-5.41972E-004,2.43448E-002,-9.92731E-003,-9.06214E-001,2.44825E-002,1.02460E+000,8.78912E-003,0.00000E+000,-9.59704E-003,9.90602E-001,0.00000E+000,1.09109E-003,-3.23358E-002,1.00000E+000,4
1239,1307,2.16229E+001,-1.03552E+000,-6.10817E-002,1.53233E+000,4.21937E-002,-3.05510E-002,1.53321E+000,8.20687E-003,4.66276E-001,0,2.30837E+001,5.09608E-001,9.99815E-001,-1.43335E+001,-2.91617E+001,9.99032E-001,2.64394E-002,-1.07745E-002,2.69704E-004,2.64414E-002,-1.07765E-002,4.15216E-001,2.65916E-002,1.02678E+000,-5.66003E-003,0.00000E+000,6.11525E-003,9.89868E-001,0.00000E+000,-3.80973E-003,-3.49169E-002,1.00000E+000,4
1239,1317,2.16368E+001,-3.92073E-001,-8.86313E-002,1.52998E+000,3.58250E-002,-5.29109E-002,1.53132E+000,7.27711E-003,4.40719E-001,0,2.31360E+001,4.58411E-001,9.99863E-001,-1.40973E+001,-2.91267E+001,9.99229E-001,2.69253E-002,-1.07749E-002,2.70876E-004,2.69273E-002,-1.07768E-002,4.11641E-001,2.71054E-002,1.02728E+000,-5.64755E-003,0.00000E+000,6.08000E-003,9.89867E-001,0.00000E+000,-3.14767E-003,-3.49003E-002,1.00000E+000,4
1239,1327,2.16615E+001,2.58943E-001,-7.37209E-002,1.52652E+000,2.74607E-002,-7.71527E-002,1.52872E+000,5.86697E-003,5.11426E-001,0,2.31774E+001,3.78667E-001,9.99910E-001,-1.36282E+001,-2.90208E+001,9.99163E-001,2.74168E-002,-1.07755E-002,2.76372E-004,2.74188E-002,-1.07775E-002,4.14583E-001,2.76270E-002,1.02778E+000,-5.62603E-003,0.00000E+000,6.04428E-003,9.89866E-001,0.00000E+000,-2.47708E-003,-3.48716E-002,1.00000E+000,4
1239,1337,2.16889E+001,9.09791E-001,-4.88417E-002,1.52395E+000,2.32281E-002,-9.87204E-002,1.52732E+000,5.11326E-003,4.23301E-001,0,2.32194E+001,3.47930E-001,9.99888E-001,-1.31015E+001,-2.90228E+001,9.98686E-001,2.79042E-002,-1.07762E-002,2.82525E-004,2.79063E-002,-1.07782E-002,4.18464E-001,2.81460E-002,1.02828E+000,-5.60316E-003,0.00000E+000,6.00882E-003,9.89864E-001,0.00000E+000,-1.81108E-003,-3.48412E-002,1.00000E+000,4
1239,1297,2.16169E+001,-1.67308E+000,-4.69377E-003,1.53581E+000,5.13403E-002,-5.54433E-003,1.53667E+000,4.96613E-003,4.71086E-001,0,2.30353E+001,5.96838E-001,9.99857E-001,-1.43988E+001,-2.91784E+001,9.99092E-001,2.59546E-002,-1.07742E-002,2.71079E-004,2.59566E-002,-1.07762E-002,4.22844E-001,2.60808E-002,1.02629E+000,-5.66723E-003,0.00000E+000,6.15038E-003,9.89869E-001,0.00000E+000,-4.46932E-003,-3.49265E-002,1.00000E+000,4
609,1347,-2.05037E+001,9.83551E-001,-2.70581E-002,4.35225E-001,-1.52360E-001,-4.93390E-003,4.61150E-001,4.92809E-003,6.26642E-001,0,6.86166E+000,-2.42657E+000,9.99854E-001,-3.37251E+001,-4.37358E+001,9.99452E-001,2.21180E-002,-9.71954E-003,-4.90207E-004,2.21256E-002,-9.72708E-003,-8.81911E-001,2.21793E-002,1.02232E+000,9.44266E-003,0.00000E+000,-1.01054E-002,9.90769E-001,0.00000E+000,-2.53166E-004,-3.15417E-002,1.00000E+000,4
609,1357,-2.04817E+001,1.62196E+000,-1.07245E-002,4.41292E-001,-1.55939E-001,-2.24294E-002,4.68571E-001,4.10230E-003,6.16804E-001,0,7.00172E+000,-2.45085E+000,9.99886E-001,-3.31780E+001,-4.39819E+001,9.99615E-001,2.14622E-002,-9.71787E-003,-4.38864E-004,2.14684E-002,-9.72404E-003,-8.06234E-001,2.15000E-002,1.02165E+000,9.42622E-003,0.00000E+000,-9.97839E-003,9.90772E-001,0.00000E+000,-7.44601E-004,-3.15538E-002,1.00000E+000,4
609,1317,-2.05408E+001,-8.97658E-001,1.03538E-001,4.17561E-001,-1.30355E-001,5.82926E-002,4.41302E-001,7.55416E-003,6.18287E-001,0,6.41563E+000,-2.22892E+000,9.99839E-001,-3.43847E+001,-4.28954E+001,9.98739E-001,2.40665E-002,-9.71965E-003,-6.57128E-004,2.40793E-002,-9.73242E-003,-1.11382E+000,2.42262E-002,1.02432E+000,9.46287E-003,0.00000E+000,-1.04835E-002,9.90765E-001,0.00000E+000,1.21012E-003,-3.15269E-002,1.00000E+000,4
609,1327,-2.05334E+001,-2.77272E-001,3.02759E-002,4.23301E-001,-1.40930E-001,3.63984E-002,4.47627E-001,4.49838E-003,6.30254E-001,0,6.56548E+000,-2.33546E+000,9.99870E-001,-3.43310E+001,-4.32091E+001,9.99225E-001,2.34198E-002,-9.72045E-003,-5.99249E-004,2.34306E-002,-9.73128E-003,-1.03558E+000,2.35423E-002,1.02365E+000,9.46111E-003,0.00000E+000,-1.03578E-002,9.90765E-001,0.00000E+000,7.23894E-004,-3.15282E-002,1.00000E+000,4
609,1337,-2.05200E+001,3.50859E-001,-9.75365E-003,4.29441E-001,-1.46974E-001,1.38931E-002,4.54108E-001,4.35895E-003,6.14920E-001,0,6.72146E+000,-2.38283E+000,9.99843E-001,-3.40841E+001,-4.34888E+001,9.99391E-001,2.27707E-002,-9.72027E-003,-5.44058E-004,2.27799E-002,-9.72938E-003,-9.59052E-001,2.28604E-002,1.02299E+000,9.45354E-003,0.00000E+000,-1.02319E-002,9.90767E-001,0.00000E+000,2.36498E-004,-3.15337E-002,1.00000E+000,4
1249,1297,2.23028E+001,-1.66150E+000,-3.50381E-003,1.55339E+000,5.58395E-002,-1.08227E-002,1.55443E+000,6.21536E-003,4.78147E-001,0,2.33002E+001,6.78029E-001,9.99876E-001,-1.36979E+001,-2.89147E+001,9.99062E-001,2.57922E-002,-1.05693E-002,3.70516E-004,2.57960E-002,-1.05731E-002,5.83751E-001,2.59353E-002,1.02613E+000,-5.05580E-003,0.00000E+000,5.76349E-003,9.90057E-001,0.00000E+000,-4.63005E-003,-3.44340E-002,1.00000E+000,4
1249,1307,2.23060E+001,-1.02576E+000,-6.84834E-002,1.54962E+000,4.65439E-002,-3.49759E-002,1.55071E+000,8.40547E-003,4.67587E-001,0,2.33418E+001,5.80810E-001,9.99856E-001,-1.36891E+001,-2.89094E+001,9.98802E-001,2.63081E-002,-1.05679E-002,4.18047E-004,2.63128E-002,-1.05726E-002,6.49427E-001,2.64814E-002,1.02665E+000,-5.05014E-003,0.00000E+000,5.82124E-003,9.90058E-001,0.00000E+000,-3.79812E-003,-3.44251E-002,1.00000E+000,4
1249,1317,2.23183E+001,-3.84528E-001,-9.91239E-002,1.54652E+000,3.86394E-002,-5.65904E-002,1.54803E+000,6.99079E-003,4.24169E-001,0,2.33811E+001,5.07669E-001,9.99827E-001,-1.34848E+001,-2.89096E+001,9.98712E-001,2.68255E-002,-1.05654E-002,4.69146E-004,2.68314E-002,-1.05713E-002,7.18743E-001,2.70317E-002,1.02718E+000,-5.03759E-003,0.00000E+000,5.87928E-003,9.90059E-001,0.00000E+000,-2.96211E-003,-3.44053E-002,1.00000E+000,4
1249,1327,2.23416E+001,2.66301E-001,-9.30334E-002,1.54423E+000,3.32205E-002,-7.94338E-002,1.54663E+000,6.08711E-003,4.44324E-001,0,2.34343E+001,4.65894E-001,9.99848E-001,-1.30530E+001,-2.88109E+001,9.99017E-001,2.73467E-002,-1.05615E-002,5.24664E-004,2.73539E-002,-1.05687E-002,7.92794E-001,2.75884E-002,1.02771E+000,-5.01676E-003,0.00000E+000,5.93785E-003,9.90061E-001,0.00000E+000,-2.11839E-003,-3.43723E-002,1.00000E+000,4
1249,1337,2.23717E+001,9.20709E-001,-5.77026E-002,1.54143E+000,2.85659E-002,-1.00722E-001,1.54498E+000,4.27449E-003,4.30962E-001,0,2.34718E+001,4.25797E-001,9.99930E-001,-1.24699E+001,-2.87414E+001,9.99509E-001,2.78684E-002,-1.05566E-002,5.83182E-004,2.78772E-002,-1.05654E-002,8.69321E-001,2.81480E-002,1.02825E+000,-4.98995E-003,0.00000E+000,5.99660E-003,9.90064E-001,0.00000E+000,-1.27211E-003,-3.43299E-002,1.00000E+000,4
1259,1327,2.30258E+001,2.74206E-001,-9.89428E-002,1.56204E+000,3.64999E-002,-8.18672E-002,1.56461E+000,5.57754E-003,4.10038E-001,0,2.36933E+001,5.14999E-001,9.99928E-001,-1.23880E+001,-2.86052E+001,9.99208E-001,2.72967E-002,-1.05278E-002,7.99990E-004,2.73136E-002,-1.05447E-002,1.21109E+000,2.75490E-002,1.02766E+000,-4.46289E-003,0.00000E+000,5.92897E-003,9.90074E-001,0.00000E+000,-1.51588E-003,-3.37441E-002,1.00000E+000,4
1259,1337,2.30569E+001,9.28371E-001,-6.31350E-002,1.55955E+000,3.08199E-002,-1.04316E-001,1.56334E+000,5.30299E-003,4.03048E-001,0,2.37408E+001,4.63060E-001,9.99957E-001,-1.17916E+001,-2.85357E+001,9.99469E-001,2.78057E-002,-1.05194E-002,8.89522E-004,2.78263E-002,-1.05400E-002,1.32888E+000,2.80976E-002,1.02819E+000,-4.43620E-003,0.00000E+000,6.04459E-003,9.90080E-001,0.00000E+000,-5.03223E-004,-3.36924E-002,1.00000E+000,4
599,1347,-2.11539E+001,9.86677E-001,-1.86247E-002,4.23028E-001,-1.44103E-001,-1.29607E-003,4.46900E-001,4.70766E-003,6.37884E-001,0,6.66274E+000,-2.31028E+000,9.99918E-001,-3.36054E+001,-4.37979E+001,9.99648E-001,2.20138E-002,-9.78317E-003,-3.86421E-004,2.20185E-002,-9.78786E-003,-6.96165E-001,2.20636E-002,1.02221E+000,1.00549E-002,0.00000E+000,-1.04984E-002,9.90679E-001,0.00000E+000,-8.32410E-005,-3.08086E-002,1.00000E+000,4
599,1357,-2.11323E+001,1.62327E+000,-5.92294E-003,4.29370E-001,-1.49177E-001,-1.96286E-002,4.54970E-001,3.52088E-003,6.34540E-001,0,6.80944E+000,-2.35488E+000,9.99912E-001,-3.30732E+001,-4.40626E+001,9.99676E-001,2.14071E-002,-9.77991E-003,-2.68703E-004,2.14095E-002,-9.78222E-003,-4.93603E-001,2.14359E-002,1.02159E+000,1.00403E-002,0.00000E+000,-1.02413E-002,9.90685E-001,0.00000E+000,-5.98266E-004,-3.08208E-002,1.00000E+000,4
1259,1287,2.29860E+001,-2.28822E+000,6.98026E-002,1.57338E+000,6.93088E-002,9.64315E-003,1.57494E+000,7.84859E-003,4.07001E-001,0,2.34955E+001,8.48888E-001,9.99874E-001,-1.29839E+001,-2.87576E+001,9.96897E-001,2.52740E-002,-1.05425E-002,4.77581E-004,2.52803E-002,-1.05489E-002,7.63807E-001,2.53954E-002,1.02560E+000,-4.50355E-003,0.00000E+000,5.47248E-003,9.90065E-001,0.00000E+000,-5.51411E-003,-3.38229E-002,1.00000E+000,4
1259,1297,2.29844E+001,-1.65465E+000,-1.83239E-002,1.57036E+000,5.90015E-002,-1.64731E-002,1.57155E+000,5.73442E-003,4.39653E-001,0,2.35583E+001,7.43554E-001,9.99869E-001,-1.30856E+001,-2.87136E+001,9.98359E-001,2.57788E-002,-1.05415E-002,5.53371E-004,2.57872E-002,-1.05499E-002,8.72681E-001,2.59289E-002,1.02611E+000,-4.50246E-003,0.00000E+000,5.58598E-003,9.90065E-001,0.00000E+000,-4.52001E-003,-3.38207E-002,1.00000E+000,4
1259,1307,2.29902E+001,-1.01577E+000,-7.47782E-002,1.56787E+000,5.11597E-002,-3.67108E-002,1.56914E+000,5.85259E-003,4.56825E-001,0,2.36033E+001,6.58601E-001,9.99889E-001,-1.30232E+001,-2.86621E+001,9.98716E-001,2.62839E-002,-1.05389E-002,6.32063E-004,2.62948E-002,-1.05497E-002,9.83096E-001,2.64653E-002,1.02663E+000,-4.49588E-003,0.00000E+000,5.69983E-003,9.90066E-001,0.00000E+000,-3.52283E-003,-3.38080E-002,1.00000E+000,4
599,1327,-2.11853E+001,-2.72058E-001,3.91182E-002,4.08821E-001,-1.31636E-001,3.80701E-002,4.31176E-001,4.23518E-003,6.34734E-001,0,6.33646E+000,-2.18987E+000,9.99891E-001,-3.42366E+001,-4.32396E+001,9.99463E-001,2.32175E-002,-9.78463E-003,-6.26505E-004,2.32294E-002,-9.79652E-003,-1.08717E+000,2.33240E-002,1.02344E+000,1.00713E-002,0.00000E+000,-1.10094E-002,9.90672E-001,0.00000E+000,9.40423E-004,-3.07950E-002,1.00000E+000,4
599,1337,-2.11732E+001,3.53317E-001,-8.91086E-003,4.15268E-001,-1.38892E-001,1.61945E-002,4.38179E-001,3.84404E-003,6.26478E-001,0,6.49558E+000,-2.26274E+000,9.99882E-001,-3.40325E+001,-4.35429E+001,9.99573E-001,2.26180E-002,-9.78496E-003,-5.05560E-004,2.26258E-002,-9.79285E-003,-8.93656E-001,2.26938E-002,1.02283E+000,1.00658E-002,0.00000E+000,-1.07547E-002,9.90674E-001,0.00000E+000,4.30269E-004,-3.07996E-002,1.00000E+000,4
1259,1317,2.30039E+001,-3.72917E-001,-1.00466E-001,1.56575E+000,4.38975E-002,-5.45133E-002,1.56731E+000,5.70459E-003,4.43124E-001,0,2.36420E+001,5.80954E-001,9.99941E-001,-1.27905E+001,-2.86312E+001,9.98978E-001,2.67897E-002,-1.05345E-002,7.13959E-004,2.68034E-002,-1.05481E-002,1.09545E+000,2.70052E-002,1.02715E+000,-4.48329E-003,0.00000E+000,5.81412E-003,9.90069E-001,0.00000E+000,-2.52182E-003,-3.37836E-002,1.00000E+000,4
599,1317,-2.11944E+001,-8.94585E-001,1.09172E-001,4.01154E-001,-1.24176E-001,5.57271E-002,4.23615E-001,5.80000E-003,6.12071E-001,0,6.16876E+000,-2.10719E+000,9.99887E-001,-3.43263E+001,-4.29556E+001,9.99405E-001,2.38151E-002,-9.78267E-003,-7.49199E-004,2.38318E-002,-9.79936E-003,-1.27680E+000,2.39568E-002,1.02405E+000,1.00727E-002,0.00000E+000,-1.12635E-002,9.90671E-001,0.00000E+000,1.44955E-003,-3.07938E-002,1.00000E+000,4
589,1347,-2.18072E+001,9.88997E-001,-1.76808E-002,4.08223E-001,-1.36164E-001,-6.23786E-004,4.30334E-001,3.52037E-003,6.46029E-001,0,6.43081E+000,-2.18766E+000,9.99923E-001,-3.35492E+001,-4.38581E+001,9.99686E-001,2.19174E-002,-9.76742E-003,-2.20735E-004,2.19189E-002,-9.76895E-003,-3.99130E-001,2.19620E-002,1.02210E+000,1.07788E-002,0.00000E+000,-1.08726E-002,9.90675E-001,0.00000E+000,-8.17544E-005,-3.02969E-002,1.00000E+000,4
589,1357,-2.17845E+001,1.62619E+000,-2.57130E-003,4.15182E-001,-1.41647E-001,-1.98671E-002,4.39129E-001,2.97368E-003,6.43852E-001,0,6.58935E+000,-2.22595E+000,9.99927E-001,-3.29923E+001,-4.41199E+001,9.99718E-001,2.13253E-002,-9.76396E-003,-9.58643E-005,2.13256E-002,-9.76426E-003,-1.76671E-001,2.13508E-002,1.02150E+000,1.07642E-002,0.00000E+000,-1.06019E-002,9.90681E-001,0.00000E+000,-5.94906E-004,-3.03093E-002,1.00000E+000,4
589,1337,-2.18249E+001,3.56035E-001,-6.99935E-004,4.00871E-001,-1.31268E-001,1.84021E-002,4.22217E-001,3.41780E-003,6.34352E-001,0,6.26628E+000,-2.15365E+000,9.99919E-001,-3.39331E+001,-4.36108E+001,9.99701E-001,2.25060E-002,-9.76875E-003,-3.47371E-004,2.25097E-002,-9.77249E-003,-6.16576E-001,2.25747E-002,1.02270E+000,1.07884E-002,0.00000E+000,-1.11419E-002,9.90671E-001,0.00000E+000,4.28915E-004,-3.02887E-002,1.00000E+000,4
589,1327,-2.18360E+001,-2.65847E-001,5.10191E-002,3.95619E-001,-1.21328E-001,4.53064E-002,4.16278E-001,6.86774E-003,7.08569E-001,0,6.11249E+000,-2.07117E+000,9.99916E-001,-3.41101E+001,-4.32269E+001,9.99269E-001,2.30896E-002,-9.76832E-003,-4.75067E-004,2.30965E-002,-9.77518E-003,-8.28163E-001,2.31871E-002,1.02330E+000,1.07939E-002,0.00000E+000,-1.14093E-002,9.90668E-001,0.00000E+000,9.35894E-004,-3.02840E-002,1.00000E+000,4
1269,1327,2.37125E+001,2.84369E-001,-9.80027E-002,1.58126E+000,3.99297E-002,-7.89902E-002,1.58373E+000,5.19259E-003,4.27765E-001,0,2.39515E+001,5.57442E-001,9.99937E-001,-1.16727E+001,-2.83536E+001,9.99161E-001,2.71930E-002,-1.04295E-002,9.99038E-004,2.72195E-002,-1.04560E-002,1.52002E+000,2.74621E-002,1.02756E+000,-3.93448E-003,0.00000E+000,5.80468E-003,9.90135E-001,0.00000E+000,-1.23041E-003,-3.26206E-002,1.00000E+000,4
1269,1337,2.37451E+001,9.37665E-001,-6.05746E-002,1.57928E+000,3.33257E-002,-1.03133E-001,1.58300E+000,5.02684E-003,4.02244E-001,0,2.40141E+001,4.93604E-001,9.99933E-001,-1.10513E+001,-2.83088E+001,9.99008E-001,2.76877E-002,-1.04197E-002,1.09759E-003,2.77193E-002,-1.04513E-002,1.64845E+000,2.79973E-002,1.02807E+000,-3.90770E-003,0.00000E+000,5.93996E-003,9.90142E-001,0.00000E+000,-2.30469E-004,-3.25679E-002,1.00000E+000,4
589,1317,-2.18461E+001,-8.90836E-001,1.18406E-001,3.86610E-001,-1.16325E-001,5.85665E-002,4.07957E-001,5.08278E-003,6.33248E-001,0,5.93618E+000,-1.99718E+000,9.99819E-001,-3.42236E+001,-4.29992E+001,9.98937E-001,2.36724E-002,-9.76597E-003,-6.04848E-004,2.36833E-002,-9.77691E-003,-1.03594E+000,2.38030E-002,1.02390E+000,1.07950E-002,0.00000E+000,-1.16766E-002,9.90668E-001,0.00000E+000,1.44265E-003,-3.02831E-002,1.00000E+000,4
1269,1317,2.36919E+001,-3.62706E-001,-9.52843E-002,1.58430E+000,4.74684E-002,-5.56844E-002,1.58599E+000,5.48781E-003,4.30063E-001,0,2.39054E+001,6.33868E-001,9.99929E-001,-1.20457E+001,-2.84047E+001,9.98962E-001,2.67000E-002,-1.04363E-002,9.05072E-004,2.67220E-002,-1.04584E-002,1.39529E+000,2.69314E-002,1.02706E+000,-3.95274E-003,0.00000E+000,5.67021E-003,9.90130E-001,0.00000E+000,-2.22437E-003,-3.26565E-002,1.00000E+000,4
1269,1307,2.36784E+001,-1.00524E+000,-6.79917E-002,1.58672E+000,5.48334E-002,-3.62538E-002,1.58808E+000,5.34584E-003,4.52378E-001,0,2.38642E+001,7.12711E-001,9.99902E-001,-1.22720E+001,-2.84310E+001,9.98811E-001,2.62085E-002,-1.04412E-002,8.14448E-004,2.62266E-002,-1.04593E-002,1.27242E+000,2.64050E-002,1.02655E+000,-3.96506E-003,0.00000E+000,5.53652E-003,9.90127E-001,0.00000E+000,-3.21259E-003,-3.26807E-002,1.00000E+000,4
1269,1297,2.36695E+001,-1.64595E+000,-1.92337E-002,1.58870E+000,6.20964E-002,-1.44038E-002,1.58998E+000,6.59893E-003,4.34428E-001,0,2.38056E+001,7.90760E-001,9.99862E-001,-1.23934E+001,-2.84967E+001,9.98364E-001,2.57168E-002,-1.04447E-002,7.25890E-004,2.57313E-002,-1.04593E-002,1.14951E+000,2.58809E-002,1.02605E+000,-3.97344E-003,0.00000E+000,5.40310E-003,9.90125E-001,0.00000E+000,-4.19883E-003,-3.26972E-002,1.00000E+000,4
1269,1287,2.36733E+001,-2.27938E+000,7.29150E-002,1.59164E+000,7.12905E-002,7.41540E-003,1.59325E+000,1.08159E-002,4.19521E-001,0,2.37581E+001,8.84487E-001,9.99911E-001,-1.22529E+001,-2.85395E+001,9.96731E-001,2.52268E-002,-1.04453E-002,6.42245E-004,2.52383E-002,-1.04568E-002,1.03112E+000,2.53615E-002,1.02555E+000,-3.97279E-003,0.00000E+000,5.27048E-003,9.90125E-001,0.00000E+000,-5.17913E-003,-3.26960E-002,1.00000E+000,4
579,1347,-2.24582E+001,9.90700E-001,-1.69379E-002,3.94508E-001,-1.29710E-001,-4.38606E-003,4.15307E-001,3.15094E-003,6.44215E-001,0,6.22745E+000,-2.06958E+000,9.99930E-001,-3.34564E+001,-4.39320E+001,9.99691E-001,2.16897E-002,-9.78130E-003,-7.63129E-005,2.16899E-002,-9.78148E-003,-1.38933E-001,2.17246E-002,1.02186E+000,1.14619E-002,0.00000E+000,-1.12478E-002,9.90647E-001,0.00000E+000,-1.74247E-004,-2.99691E-002,1.00000E+000,4
579,1357,-2.24347E+001,1.62843E+000,3.58113E-003,4.02167E-001,-1.34989E-001,-2.00869E-002,4.24693E-001,3.50956E-003,6.68979E-001,0,6.38744E+000,-2.12254E+000,9.99942E-001,-3.28686E+001,-4.41860E+001,9.99783E-001,2.10773E-002,-9.77786E-003,5.12047E-005,2.10774E-002,-9.77794E-003,9.50831E-002,2.10957E-002,1.02124E+000,1.14467E-002,0.00000E+000,-1.09690E-002,9.90654E-001,0.00000E+000,-7.91203E-004,-2.99841E-002,1.00000E+000,4
579,1337,-2.24771E+001,3.58627E-001,2.94519E-003,3.85882E-001,-1.24161E-001,1.75113E-002,4.05744E-001,2.97291E-003,6.42411E-001,0,6.03573E+000,-2.03632E+000,9.99912E-001,-3.38500E+001,-4.36709E+001,9.99712E-001,2.22979E-002,-9.78247E-003,-2.05700E-004,2.22992E-002,-9.78379E-003,-3.67361E-001,2.23549E-002,1.02248E+000,1.14718E-002,0.00000E+000,-1.15251E-002,9.90643E-001,0.00000E+000,4.39328E-004,-2.99594E-002,1.00000E+000,4
579,1327,-2.24913E+001,-2.64449E-001,4.19140E-002,3.78098E-001,-1.15626E-001,3.53735E-002,3.96962E-001,5.47872E-003,6.94811E-001,0,5.86649E+000,-1.93564E+000,9.99894E-001,-3.41124E+001,-4.32873E+001,9.99003E-001,2.29008E-002,-9.78210E-003,-3.35864E-004,2.29042E-002,-9.78555E-003,-5.88715E-001,2.29849E-002,1.02310E+000,1.14780E-002,0.00000E+000,-1.18003E-002,9.90640E-001,0.00000E+000,1.04834E-003,-2.99533E-002,1.00000E+000,4
579,1317,-2.24998E+001,-8.84627E-001,1.16700E-001,3.70873E-001,-1.07340E-001,5.76512E-002,3.90375E-001,6.64417E-003,7.20633E-001,0,5.69425E+000,-1.85792E+000,9.99813E-001,-3.41790E+001,-4.29493E+001,9.98683E-001,2.35015E-002,-9.77965E-003,-4.68087E-004,2.35080E-002,-9.78624E-003,-8.05631E-001,2.36176E-002,1.02372E+000,1.14793E-002,0.00000E+000,-1.20748E-002,9.90639E-001,0.00000E+000,1.65597E-003,-2.99520E-002,1.00000E+000,4
1279,1317,2.43755E+001,-3.55757E-001,-1.02138E-001,1.60133E+000,5.01378E-002,-5.64085E-002,1.60310E+000,5.30079E-003,4.12386E-001,0,2.41449E+001,6.65453E-001,9.99871E-001,-1.13844E+001,-2.82056E+001,9.98447E-001,2.65405E-002,-1.03134E-002,1.05828E-003,2.65708E-002,-1.03438E-002,1.64347E+000,2.67871E-002,1.02689E+000,-3.47253E-003,0.00000E+000,5.49977E-003,9.90220E-001,0.00000E+000,-1.89512E-003,-3.16120E-002,1.00000E+000,4
1279,1327,2.44000E+001,2.95158E-001,-9.56326E-002,1.60052E+000,4.39550E-002,-7.59282E-002,1.60292E+000,6.92164E-003,4.49319E-001,0,2.42086E+001,6.04070E-001,9.99926E-001,-1.09385E+001,-2.80935E+001,9.99005E-001,2.70421E-002,-1.03046E-002,1.17128E-003,2.70788E-002,-1.03413E-002,1.79457E+000,2.73295E-002,1.02741E+000,-3.45271E-003,0.00000E+000,5.66886E-003,9.90227E-001,0.00000E+000,-8.10972E-004,-3.15702E-002,1.00000E+000,4
1279,1337,2.44332E+001,9.50802E-001,-5.55167E-002,1.59892E+000,3.81453E-002,-9.68949E-002,1.60230E+000,4.46277E-003,4.40503E-001,0,2.42641E+001,5.57964E-001,9.99949E-001,-1.03078E+001,-2.80085E+001,9.99464E-001,2.75448E-002,-1.02929E-002,1.28831E-003,2.75886E-002,-1.03367E-002,1.94781E+000,2.78760E-002,1.02792E+000,-3.42547E-003,0.00000E+000,5.83877E-003,9.90236E-001,0.00000E+000,2.78429E-004,-3.15128E-002,1.00000E+000,4
1279,1307,2.43597E+001,-9.97648E-001,-7.92730E-002,1.60283E+000,5.81666E-002,-3.68923E-002,1.60431E+000,6.18080E-003,4.51514E-001,0,2.40892E+001,7.59407E-001,9.99897E-001,-1.16510E+001,-2.82057E+001,9.98010E-001,2.60421E-002,-1.03197E-002,9.49267E-004,2.60668E-002,-1.03445E-002,1.49442E+000,2.62511E-002,1.02638E+000,-3.48604E-003,0.00000E+000,5.33227E-003,9.90216E-001,0.00000E+000,-2.96905E-003,-3.16405E-002,1.00000E+000,4
1279,1297,2.43545E+001,-1.63784E+000,-1.86844E-002,1.60509E+000,6.54399E-002,-1.60771E-002,1.60650E+000,9.81751E-003,3.74170E-001,0,2.40377E+001,8.52634E-001,9.99903E-001,-1.16973E+001,-2.83197E+001,9.98624E-001,2.55431E-002,-1.03229E-002,8.44158E-004,2.55630E-002,-1.03428E-002,1.34754E+000,2.57176E-002,1.02587E+000,-3.49191E-003,0.00000E+000,5.16509E-003,9.90214E-001,0.00000E+000,-4.04094E-003,-3.16529E-002,1.00000E+000,4
1279,1287,2.43538E+001,-2.27578E+000,5.68916E-002,1.60748E+000,7.18996E-002,3.74303E-003,1.60909E+000,9.23154E-003,3.68931E-001,0,2.39917E+001,9.11933E-001,9.99901E-001,-1.16520E+001,-2.83945E+001,9.98096E-001,2.50448E-002,-1.03247E-002,7.41102E-004,2.50603E-002,-1.03402E-002,1.19983E+000,2.51875E-002,1.02537E+000,-3.49436E-003,0.00000E+000,4.99856E-003,9.90213E-001,0.00000E+000,-5.10865E-003,-3.16580E-002,1.00000E+000,4
569,1347,-2.31091E+001,9.95088E-001,-1.29746E-002,3.80823E-001,-1.20664E-001,-3.25205E-003,3.99495E-001,3.19144E-003,6.70530E-001,0,6.01106E+000,-1.93113E+000,9.99930E-001,-3.33470E+001,-4.39581E+001,9.99627E-001,2.15578E-002,-9.77994E-003,4.56330E-005,2.15579E-002,-9.78001E-003,8.34321E-002,2.15887E-002,1.02172E+000,1.21648E-002,0.00000E+000,-1.16883E-002,9.90629E-001,0.00000E+000,-1.96731E-004,-2.94682E-002,1.00000E+000,4
569,1357,-2.30867E+001,1.63012E+000,1.51642E-004,3.88739E-001,-1.26290E-001,-1.86835E-002,4.09165E-001,3.57552E-003,6.59475E-001,0,6.17436E+000,-1.98767E+000,9.99903E-001,-3.27983E+001,-4.42568E+001,9.99641E-001,2.09475E-002,-9.77707E-003,1.81414E-004,2.09485E-002,-9.77814E-003,3.38289E-001,2.09639E-002,1.02110E+000,1.21511E-002,0.00000E+000,-1.13926E-002,9.90635E-001,0.00000E+000,-9.04426E-004,-2.94838E-002,1.00000E+000,4
569,1327,-2.31435E+001,-2.63093E-001,3.82402E-002,3.63949E-001,-1.08904E-001,3.50755E-002,3.81509E-001,7.10495E-003,6.81673E-001,0,5.64787E+000,-1.81375E+000,9.99942E-001,-3.40479E+001,-4.33595E+001,9.99514E-001,2.27685E-002,-9.78080E-003,-2.29524E-004,2.27702E-002,-9.78242E-003,-4.03998E-001,2.28452E-002,1.02296E+000,1.21816E-002,0.00000E+000,-1.22763E-002,9.90621E-001,0.00000E+000,1.21041E-003,-2.94491E-002,1.00000E+000,4
569,1337,-2.31272E+001,3.63714E-001,6.75753E-003,3.72223E-001,-1.15411E-001,1.47455E-002,3.89983E-001,2.70565E-003,6.60694E-001,0,5.83009E+000,-1.88573E+000,9.99936E-001,-3.37302E+001,-4.36878E+001,9.99755E-001,2.21650E-002,-9.78071E-003,-9.18989E-005,2.21652E-002,-9.78098E-003,-1.64822E-001,2.22161E-002,1.02234E+000,1.21740E-002,0.00000E+000,-1.19830E-002,9.90624E-001,0.00000E+000,5.08380E-004,-2.94578E-002,1.00000E+000,4
1289,1327,2.50823E+001,3.02275E-001,-1.06404E-001,1.61700E+000,4.65798E-002,-7.51842E-002,1.61942E+000,5.88642E-003,4.37981E-001,0,2.44342E+001,6.39938E-001,9.99898E-001,-1.03021E+001,-2.78787E+001,9.98819E-001,2.68875E-002,-1.01067E-002,1.32448E-003,2.69348E-002,-1.01540E-002,2.04784E+000,2.72052E-002,1.02725E+000,-2.95750E-003,0.00000E+000,5.48540E-003,9.90388E-001,0.00000E+000,-4.56149E-004,-3.03989E-002,1.00000E+000,4
1289,1337,2.51159E+001,9.58245E-001,-6.75400E-002,1.61587E+000,4.06518E-002,-9.67219E-002,1.61927E+000,5.49777E-003,4.41284E-001,0,2.44996E+001,5.91886E-001,9.99944E-001,-9.66772E+000,-2.77781E+001,9.99127E-001,2.74145E-002,-1.00934E-002,1.45572E-003,2.74709E-002,-1.01498E-002,2.21926E+000,2.77811E-002,1.02779E+000,-2.92893E-003,0.00000E+000,5.68091E-003,9.90398E-001,0.00000E+000,7.24896E-004,-3.03367E-002,1.00000E+000,4
569,1317,-2.31515E+001,-8.81043E-001,1.21822E-001,3.55726E-001,-9.87267E-002,5.68985E-002,3.73531E-001,7.53692E-003,6.91945E-001,0,5.46090E+000,-1.71603E+000,9.99832E-001,-3.40790E+001,-4.30119E+001,9.98935E-001,2.33689E-002,-9.77741E-003,-3.70387E-004,2.33731E-002,-9.78155E-003,-6.40134E-001,2.34763E-002,1.02357E+000,1.21815E-002,0.00000E+000,-1.25686E-002,9.90621E-001,0.00000E+000,1.90983E-003,-2.94492E-002,1.00000E+000,4
1289,1317,2.50608E+001,-3.44101E-001,-1.03628E-001,1.61848E+000,5.37066E-002,-5.52867E-002,1.62032E+000,8.43099E-003,4.83160E-001,0,2.43778E+001,7.13509E-001,9.99897E-001,-1.06861E+001,-2.79009E+001,9.97971E-001,2.63643E-002,-1.01157E-002,1.19911E-003,2.64036E-002,-1.01551E-002,1.88062E+000,2.66370E-002,1.02671E+000,-2.97635E-003,0.00000E+000,5.29193E-003,9.90381E-001,0.00000E+000,-1.62487E-003,-3.04400E-002,1.00000E+000,4
1289,1287,2.50365E+001,-2.26528E+000,4.64472E-002,1.62322E+000,7.67669E-002,-6.29166E-004,1.62504E+000,8.13927E-003,4.13817E-001,0,2.42242E+001,9.85799E-001,9.99910E-001,-1.10059E+001,-2.81066E+001,9.98617E-001,2.47936E-002,-1.01286E-002,8.40623E-004,2.48138E-002,-1.01489E-002,1.37812E+000,2.49504E-002,1.02511E+000,-3.00025E-003,0.00000E+000,4.71483E-003,9.90373E-001,0.00000E+000,-5.11103E-003,-3.04920E-002,1.00000E+000,4
1289,1297,2.50420E+001,-1.62947E+000,-1.10415E-002,1.62209E+000,6.83918E-002,-1.53743E-002,1.62360E+000,9.50850E-003,3.43822E-001,0,2.42689E+001,8.88157E-001,9.99912E-001,-1.09504E+001,-2.81389E+001,9.98707E-001,2.53160E-002,-1.01254E-002,9.58295E-004,2.53419E-002,-1.01513E-002,1.54771E+000,2.55083E-002,1.02564E+000,-2.99479E-003,0.00000E+000,4.90616E-003,9.90375E-001,0.00000E+000,-3.95528E-003,-3.04801E-002,1.00000E+000,4
1289,1307,2.50459E+001,-9.88192E-001,-7.87096E-002,1.61968E+000,6.06549E-002,-3.87965E-002,1.62128E+000,8.65589E-003,4.70986E-001,0,2.43295E+001,7.98382E-001,9.99931E-001,-1.09343E+001,-2.79667E+001,9.98038E-001,2.58406E-002,-1.01223E-002,1.07671E-003,2.58729E-002,-1.01545E-002,1.71337E+000,2.60715E-002,1.02618E+000,-2.98953E-003,0.00000E+000,5.09893E-003,9.90377E-001,0.00000E+000,-2.79076E-003,-3.04687E-002,1.00000E+000,4
559,1327,-2.37919E+001,-2.57208E-001,3.75062E-002,3.52274E-001,-9.92740E-002,3.21039E-002,3.67400E-001,1.35235E-002,7.40542E-001,0,5.47367E+000,-1.66467E+000,9.99930E-001,-3.39120E+001,-4.33322E+001,9.99434E-001,2.26617E-002,-9.82352E-003,-1.23092E-004,2.26621E-002,-9.82398E-003,-2.17099E-001,2.27289E-002,1.02284E+000,1.28742E-002,0.00000E+000,-1.27389E-002,9.90553E-001,0.00000E+000,1.31850E-003,-2.87638E-002,1.00000E+000,4
559,1337,-2.37782E+001,3.67288E-001,5.62854E-003,3.58324E-001,-1.06941E-001,1.28758E-002,3.74163E-001,3.69171E-003,6.69133E-001,0,5.61823E+000,-1.74269E+000,9.99924E-001,-3.36342E+001,-4.37225E+001,9.99734E-001,2.20659E-002,-9.82372E-003,7.52739E-006,2.20659E-002,-9.82372E-003,1.35244E-002,2.21100E-002,1.02223E+000,1.28670E-002,0.00000E+000,-1.24592E-002,9.90556E-001,0.00000E+000,5.67069E-004,-2.87727E-002,1.00000E+000,4
559,1347,-2.37607E+001,9.97007E-001,-1.22737E-002,3.66334E-001,-1.12090E-001,-3.90592E-003,3.83119E-001,4.11873E-003,6.48638E-001,0,5.78650E+000,-1.79936E+000,9.99874E-001,-3.32543E+001,-4.40390E+001,9.99652E-001,2.14672E-002,-9.82317E-003,1.37740E-004,2.14678E-002,-9.82377E-003,2.52210E-001,2.14935E-002,1.02162E+000,1.28580E-002,0.00000E+000,-1.21786E-002,9.90560E-001,0.00000E+000,-1.86794E-004,-2.87837E-002,1.00000E+000,4
559,1357,-2.37379E+001,1.63149E+000,-1.84028E-003,3.75463E-001,-1.17188E-001,-1.82878E-002,3.93751E-001,3.37809E-003,6.29526E-001,0,5.96590E+000,-1.85095E+000,9.99888E-001,-3.27054E+001,-4.43460E+001,9.99760E-001,2.08645E-002,-9.82092E-003,2.66734E-004,2.08668E-002,-9.82324E-003,4.97996E-001,2.08787E-002,1.02100E+000,1.28451E-002,0.00000E+000,-1.18966E-002,9.90566E-001,0.00000E+000,-9.44503E-004,-2.87996E-002,1.00000E+000,4
559,1317,-2.38002E+001,-8.76649E-001,1.25575E-001,3.43204E-001,-9.12041E-002,5.56834E-002,3.59455E-001,1.31509E-002,7.11717E-001,0,5.26995E+000,-1.58357E+000,9.99900E-001,-3.39350E+001,-4.30348E+001,9.99230E-001,2.32548E-002,-9.81997E-003,-2.57101E-004,2.32568E-002,-9.82197E-003,-4.45342E-001,2.33502E-002,1.02345E+000,1.28737E-002,0.00000E+000,-1.30178E-002,9.90553E-001,0.00000E+000,2.06791E-003,-2.87644E-002,1.00000E+000,4
1299,1327,2.57702E+001,3.12342E-001,-1.08402E-001,1.63457E+000,4.92173E-002,-8.06350E-002,1.63730E+000,6.82324E-003,4.38889E-001,0,2.47000E+001,6.94639E-001,9.99892E-001,-9.56093E+000,-2.76308E+001,9.99355E-001,2.67536E-002,-9.87779E-003,1.44674E-003,2.68107E-002,-9.93484E-003,2.25817E+000,2.71085E-002,1.02711E+000,-2.41854E-003,0.00000E+000,5.20277E-003,9.90578E-001,0.00000E+000,-2.27475E-004,-2.90827E-002,1.00000E+000,4
1299,1337,2.58068E+001,9.69668E-001,-6.23246E-002,1.63484E+000,4.29868E-002,-9.95081E-002,1.63843E+000,6.87559E-003,4.74397E-001,0,2.47756E+001,6.31297E-001,9.99912E-001,-8.87397E+000,-2.75075E+001,9.98962E-001,2.73025E-002,-9.86310E-003,1.58804E-003,2.73702E-002,-9.93083E-003,2.44224E+000,2.77114E-002,1.02768E+000,-2.38756E-003,0.00000E+000,5.41473E-003,9.90590E-001,0.00000E+000,1.05764E-003,-2.90122E-002,1.00000E+000,4
1299,1287,2.57255E+001,-2.25352E+000,5.36918E-002,1.64053E+000,7.96982E-002,-3.08468E-003,1.64247E+000,7.12751E-003,4.94470E-001,0,2.44718E+001,1.02299E+000,9.99934E-001,-1.02315E+001,-2.78181E+001,9.98320E-001,2.45762E-002,-9.90048E-003,9.28747E-004,2.46012E-002,-9.92548E-003,1.54197E+000,2.47536E-002,1.02489E+000,-2.46183E-003,0.00000E+000,4.36948E-003,9.90562E-001,0.00000E+000,-5.27964E-003,-2.91811E-002,1.00000E+000,4
1299,1297,2.57294E+001,-1.61947E+000,-1.46935E-002,1.63917E+000,6.98196E-002,-2.33486E-002,1.64082E+000,7.58911E-003,4.33632E-001,0,2.45370E+001,9.13301E-001,9.99948E-001,-1.02174E+001,-2.78487E+001,9.98642E-001,2.51199E-002,-9.89767E-003,1.05440E-003,2.51517E-002,-9.92939E-003,1.72313E+000,2.53366E-002,1.02544E+000,-2.45734E-003,0.00000E+000,4.57646E-003,9.90563E-001,0.00000E+000,-4.02473E-003,-2.91709E-002,1.00000E+000,4
1299,1307,2.57393E+001,-9.75670E-001,-5.18855E-002,1.63844E+000,6.40612E-002,-3.16817E-002,1.64000E+000,1.34694E-002,5.11787E-001,0,2.45599E+001,8.16272E-001,9.99933E-001,-1.00658E+001,-2.77255E+001,9.98821E-001,2.56659E-002,-9.89279E-003,1.18322E-003,2.57052E-002,-9.93211E-003,1.90371E+000,2.59255E-002,1.02600E+000,-2.44828E-003,0.00000E+000,4.78502E-003,9.90567E-001,0.00000E+000,-2.76022E-003,-2.91503E-002,1.00000E+000,4
1299,1317,2.57529E+001,-3.32954E-001,-8.99286E-002,1.63660E+000,5.58427E-002,-5.87561E-002,1.63860E+000,1.02335E-002,4.81266E-001,0,2.46427E+001,7.55459E-001,9.99897E-001,-9.85633E+000,-2.76729E+001,9.98845E-001,2.62105E-002,-9.88604E-003,1.31415E-003,2.62583E-002,-9.93382E-003,2.08227E+000,2.65163E-002,1.02656E+000,-2.43508E-003,0.00000E+000,4.99382E-003,9.90572E-001,0.00000E+000,-1.49430E-003,-2.91203E-002,1.00000E+000,4
559,1307,-2.38087E+001,-1.49467E+000,2.16085E-001,3.32328E-001,-8.28617E-002,7.06564E-002,3.49715E-001,5.54868E-003,6.91393E-001,0,5.05939E+000,-1.48950E+000,9.99800E-001,-3.39507E+001,-4.27158E+001,9.99063E-001,2.38465E-002,-9.81571E-003,-3.91773E-004,2.38510E-002,-9.82026E-003,-6.66710E-001,2.39746E-002,1.02406E+000,1.28715E-002,0.00000E+000,-1.32965E-002,9.90554E-001,0.00000E+000,2.81671E-003,-2.87671E-002,1.00000E+000,4
549,1347,-2.44104E+001,1.00167E+000,-1.13361E-002,3.53316E-001,-1.03059E-001,-4.17085E-003,3.68064E-001,3.45216E-003,6.67252E-001,0,5.58379E+000,-1.64608E+000,9.99866E-001,-3.31276E+001,-4.40582E+001,9.99680E-001,2.13817E-002,-9.86716E-003,2.37127E-004,2.13835E-002,-9.86896E-003,4.34747E-001,2.14046E-002,1.02152E+000,1.35283E-002,0.00000E+000,-1.26340E-002,9.90490E-001,0.00000E+000,-1.19529E-004,-2.80377E-002,1.00000E+000,4
549,1357,-2.43873E+001,1.63747E+000,2.54182E-003,3.62046E-001,-1.07651E-001,-2.03911E-002,3.78261E-001,3.22530E-003,6.53210E-001,0,5.76114E+000,-1.68447E+000,9.99896E-001,-3.25616E+001,-4.43520E+001,9.99786E-001,2.07830E-002,-9.86487E-003,3.62547E-004,2.07873E-002,-9.86915E-003,6.77652E-001,2.07961E-002,1.02091E+000,1.35149E-002,0.00000E+000,-1.23579E-002,9.90496E-001,0.00000E+000,-9.33187E-004,-2.80555E-002,1.00000E+000,4
549,1327,-2.44438E+001,-2.51179E-001,4.99056E-002,3.35150E-001,-8.88635E-002,3.22854E-002,3.48230E-001,9.64289E-003,7.47664E-001,0,5.20533E+000,-1.51592E+000,9.99822E-001,-3.37845E+001,-4.33574E+001,9.98581E-001,2.25677E-002,-9.86645E-003,-1.79870E-005,2.25677E-002,-9.86646E-003,-3.17744E-002,2.26270E-002,1.02274E+000,1.35425E-002,0.00000E+000,-1.31823E-002,9.90483E-001,0.00000E+000,1.49658E-003,-2.80187E-002,1.00000E+000,4
549,1337,-2.44279E+001,3.71133E-001,9.79537E-003,3.44924E-001,-9.68140E-002,1.38058E-002,3.58520E-001,3.54830E-003,6.53689E-001,0,5.40638E+000,-1.59531E+000,9.99895E-001,-3.34986E+001,-4.37763E+001,9.99729E-001,2.19778E-002,-9.86739E-003,1.09681E-004,2.19782E-002,-9.86777E-003,1.97335E-001,2.20163E-002,1.02213E+000,1.35368E-002,0.00000E+000,-1.29093E-002,9.90486E-001,0.00000E+000,6.91994E-004,-2.80264E-002,1.00000E+000,4
1309,1317,2.64351E+001,-3.27472E-001,-1.05974E-001,1.65226E+000,5.75253E-002,-6.29894E-002,1.65446E+000,7.21527E-003,4.55050E-001,0,2.48758E+001,7.88213E-001,9.99893E-001,-9.22027E+000,-2.74814E+001,9.99114E-001,2.61224E-002,-9.68519E-003,1.42257E-003,2.61788E-002,-9.74161E-003,2.27149E+000,2.64627E-002,1.02647E+000,-1.85744E-003,0.00000E+000,4.64890E-003,9.90735E-001,0.00000E+000,-1.42427E-003,-2.77829E-002,1.00000E+000,4
1309,1327,2.64573E+001,3.20408E-001,-1.12653E-001,1.65227E+000,5.15095E-002,-8.28115E-002,1.65515E+000,8.01379E-003,4.28025E-001,0,2.49546E+001,7.29346E-001,9.99887E-001,-8.83374E+000,-2.74152E+001,9.99041E-001,2.66806E-002,-9.67649E-003,1.54992E-003,2.67465E-002,-9.74245E-003,2.43666E+000,2.70731E-002,1.02704E+000,-1.83802E-003,0.00000E+000,4.84596E-003,9.90742E-001,0.00000E+000,-1.30599E-004,-2.77390E-002,1.00000E+000,4
1309,1337,2.64923E+001,9.76848E-001,-7.13570E-002,1.65215E+000,4.50586E-002,-1.01595E-001,1.65589E+000,7.49644E-003,4.53301E-001,0,2.50247E+001,6.64364E-001,9.99928E-001,-8.17968E+000,-2.72987E+001,9.99348E-001,2.72429E-002,-9.66313E-003,1.68401E-003,2.73195E-002,-9.73981E-003,2.60717E+000,2.76920E-002,1.02762E+000,-1.80723E-003,0.00000E+000,5.04520E-003,9.90752E-001,0.00000E+000,1.17741E-003,-2.76695E-002,1.00000E+000,4
549,1317,-2.44524E+001,-8.71150E-001,1.27678E-001,3.26914E-001,-8.19600E-002,5.29274E-002,3.41162E-001,8.01655E-003,7.44464E-001,0,5.02294E+000,-1.43631E+000,9.99888E-001,-3.38437E+001,-4.30314E+001,9.99143E-001,2.31553E-002,-9.86331E-003,-1.47887E-004,2.31559E-002,-9.86398E-003,-2.56616E-001,2.32403E-002,1.02334E+000,1.35431E-002,0.00000E+000,-1.34548E-002,9.90483E-001,0.00000E+000,2.29947E-003,-2.80180E-002,1.00000E+000,4
549,1307,-2.44599E+001,-1.48965E+000,2.11507E-001,3.17921E-001,-7.34607E-002,6.68545E-002,3.33076E-001,5.85523E-003,7.26491E-001,0,4.84482E+000,-1.33957E+000,9.99817E-001,-3.38648E+001,-4.27025E+001,9.99081E-001,2.37426E-002,-9.85938E-003,-2.78832E-004,2.37449E-002,-9.86169E-003,-4.75402E-001,2.38581E-002,1.02394E+000,1.35418E-002,0.00000E+000,-1.37276E-002,9.90484E-001,0.00000E+000,3.10347E-003,-2.80197E-002,1.00000E+000,4
1309,1287,2.64160E+001,-2.24716E+000,6.26221E-002,1.65786E+000,8.02427E-002,-7.17563E-003,1.65981E+000,6.98939E-003,4.50320E-001,0,2.47270E+001,1.03502E+000,9.99930E-001,-9.43023E+000,-2.76794E+001,9.97979E-001,2.44473E-002,-9.69617E-003,1.06053E-003,2.44802E-002,-9.72908E-003,1.77738E+000,2.46513E-002,1.02476E+000,-1.87912E-003,0.00000E+000,4.06182E-003,9.90728E-001,0.00000E+000,-5.27841E-003,-2.78319E-002,1.00000E+000,4
1309,1297,2.64180E+001,-1.61111E+000,-1.42972E-002,1.65636E+000,7.06729E-002,-2.92414E-002,1.65812E+000,8.47712E-003,4.82538E-001,0,2.47980E+001,9.24520E-001,9.99902E-001,-9.45775E+000,-2.76129E+001,9.98467E-001,2.50066E-002,-9.69423E-003,1.17899E-003,2.50466E-002,-9.73424E-003,1.94369E+000,2.52528E-002,1.02533E+000,-1.87604E-003,0.00000E+000,4.25715E-003,9.90729E-001,0.00000E+000,-3.99607E-003,-2.78249E-002,1.00000E+000,4
1309,1307,2.64195E+001,-9.73477E-001,-8.18096E-002,1.65300E+000,6.42829E-002,-4.71563E-002,1.65492E+000,7.63384E-003,4.04537E-001,0,2.48227E+001,8.72140E-001,9.99909E-001,-9.47895E+000,-2.75975E+001,9.99363E-001,2.55624E-002,-9.69177E-003,1.29770E-003,2.56101E-002,-9.73947E-003,2.10525E+000,2.58536E-002,1.02590E+000,-1.87175E-003,0.00000E+000,4.45194E-003,9.90730E-001,0.00000E+000,-2.71730E-003,-2.78152E-002,1.00000E+000,4
539,1347,-2.50606E+001,1.00584E+000,-1.08553E-002,3.39349E-001,-9.31560E-002,-5.98047E-003,3.51954E-001,3.61990E-003,6.63044E-001,0,5.36947E+000,-1.48778E+000,9.99904E-001,-3.30047E+001,-4.40956E+001,9.99572E-001,2.13551E-002,-9.95821E-003,3.25516E-004,2.13585E-002,-9.96159E-003,5.95530E-001,2.13745E-002,1.02149E+000,1.41105E-002,0.00000E+000,-1.30288E-002,9.90375E-001,0.00000E+000,1.12047E-004,-2.73062E-002,1.00000E+000,4
539,1357,-2.50387E+001,1.64161E+000,-4.83634E-004,3.47927E-001,-9.70867E-002,-1.97225E-002,3.61757E-001,3.23669E-003,6.56486E-001,0,5.53802E+000,-1.51888E+000,9.99927E-001,-3.24669E+001,-4.43803E+001,9.99725E-001,2.08010E-002,-9.95638E-003,4.58257E-004,2.08079E-002,-9.96321E-003,8.53402E-001,2.08141E-002,1.02092E+000,1.40991E-002,0.00000E+000,-1.27402E-002,9.90380E-001,0.00000E+000,-7.12299E-004,-2.73228E-002,1.00000E+000,4
539,1327,-2.50936E+001,-2.50113E-001,4.63830E-002,3.21772E-001,-8.02872E-002,2.92231E-002,3.32922E-001,4.24521E-003,6.54214E-001,0,5.00441E+000,-1.35819E+000,9.99838E-001,-3.36712E+001,-4.34746E+001,9.99188E-001,2.24544E-002,-9.95730E-003,5.68340E-005,2.24545E-002,-9.95740E-003,1.00468E-001,2.25023E-002,1.02261E+000,1.41239E-002,0.00000E+000,-1.36032E-002,9.90368E-001,0.00000E+000,1.75245E-003,-2.72866E-002,1.00000E+000,4
539,1337,-2.50780E+001,3.75740E-001,8.68343E-003,3.30812E-001,-8.67501E-002,1.00362E-002,3.42144E-001,3.56937E-003,6.46878E-001,0,5.19490E+000,-1.42849E+000,9.99876E-001,-3.33811E+001,-4.38030E+001,9.99596E-001,2.19067E-002,-9.95825E-003,1.91310E-004,2.19078E-002,-9.95940E-003,3.43976E-001,2.19379E-002,1.02205E+000,1.41182E-002,0.00000E+000,-1.33167E-002,9.90371E-001,0.00000E+000,9.34380E-004,-2.72949E-002,1.00000E+000,4
1319,1297,2.70982E+001,-1.60772E+000,-3.13909E-002,1.66966E+000,7.19082E-002,-3.49254E-002,1.67158E+000,6.87672E-003,3.86019E-001,0,2.50012E+001,9.69119E-001,9.99888E-001,-8.84864E+000,-2.74909E+001,9.98853E-001,2.48735E-002,-9.42144E-003,1.31681E-003,2.49240E-002,-9.47192E-003,2.19565E+000,2.51620E-002,1.02519E+000,-1.22887E-003,0.00000E+000,3.90189E-003,9.90959E-001,0.00000E+000,-4.05087E-003,-2.62739E-002,1.00000E+000,4
1319,1307,2.71049E+001,-9.69102E-001,-9.00764E-002,1.66825E+000,6.37097E-002,-5.56545E-002,1.67039E+000,7.44351E-003,3.60188E-001,0,2.50670E+001,8.83055E-001,9.99890E-001,-8.77618E+000,-2.74507E+001,9.99322E-001,2.54618E-002,-9.41773E-003,1.44354E-003,2.55214E-002,-9.47737E-003,2.36588E+000,2.58015E-002,1.02579E+000,-1.22131E-003,0.00000E+000,4.10927E-003,9.90962E-001,0.00000E+000,-2.67751E-003,-2.62565E-002,1.00000E+000,4
539,1307,-2.51097E+001,-1.48583E+000,2.09527E-001,3.04033E-001,-6.36540E-002,6.24428E-002,3.16839E-001,4.19185E-003,6.90397E-001,0,4.63940E+000,-1.17815E+000,9.99860E-001,-3.37458E+001,-4.27487E+001,9.99259E-001,2.35408E-002,-9.94940E-003,-2.16658E-004,2.35422E-002,-9.95080E-003,-3.70644E-001,2.36358E-002,1.02373E+000,1.41228E-002,0.00000E+000,-1.41730E-002,9.90368E-001,0.00000E+000,3.37983E-003,-2.72882E-002,1.00000E+000,4
539,1317,-2.51034E+001,-8.70150E-001,1.19983E-001,3.12757E-001,-7.27634E-002,4.76527E-002,3.24626E-001,3.82419E-003,6.87605E-001,0,4.81536E+000,-1.29236E+000,9.99874E-001,-3.37597E+001,-4.31208E+001,9.99363E-001,2.29988E-002,-9.95398E-003,-7.94603E-005,2.29990E-002,-9.95418E-003,-1.38158E-001,2.30681E-002,1.02317E+000,1.41247E-002,0.00000E+000,-1.38885E-002,9.90367E-001,0.00000E+000,2.56718E-003,-2.72855E-002,1.00000E+000,4
1319,1287,2.71005E+001,-2.24305E+000,5.18847E-002,1.67302E+000,7.95530E-002,-1.51385E-002,1.67498E+000,7.84722E-003,4.25839E-001,0,2.49671E+001,1.04491E+000,9.99913E-001,-8.74641E+000,-2.75248E+001,9.98644E-001,2.42856E-002,-9.42245E-003,1.19380E-003,2.43278E-002,-9.46467E-003,2.02580E+000,2.45267E-002,1.02460E+000,-1.22990E-003,0.00000E+000,3.69541E-003,9.90959E-001,0.00000E+000,-5.41819E-003,-2.62762E-002,1.00000E+000,4
529,1327,-2.57426E+001,-2.46218E-001,4.74256E-002,3.07996E-001,-7.10725E-002,2.52345E-002,3.17096E-001,3.87135E-003,6.62154E-001,0,4.79878E+000,-1.21846E+000,9.99792E-001,-3.35261E+001,-4.35075E+001,9.99120E-001,2.23694E-002,-1.00544E-002,1.09453E-004,2.23698E-002,-1.00547E-002,1.93410E-001,2.24078E-002,1.02252E+000,1.44816E-002,0.00000E+000,-1.38579E-002,9.90252E-001,0.00000E+000,2.27373E-003,-2.66631E-002,1.00000E+000,4
529,1307,-2.57585E+001,-1.48219E+000,2.14735E-001,2.89859E-001,-5.53958E-002,5.91470E-002,3.00973E-001,4.74243E-003,6.67871E-001,0,4.42664E+000,-1.04232E+000,9.99895E-001,-3.35844E+001,-4.28058E+001,9.99584E-001,2.32850E-002,-1.00466E-002,-1.45233E-004,2.32856E-002,-1.00473E-002,-2.49644E-001,2.33584E-002,1.02346E+000,1.44802E-002,0.00000E+000,-1.43912E-002,9.90252E-001,0.00000E+000,3.90101E-003,-2.66655E-002,1.00000E+000,4
529,1317,-2.57535E+001,-8.66606E-001,1.16112E-001,2.98691E-001,-6.35737E-002,4.44751E-002,3.08603E-001,4.27000E-003,6.66391E-001,0,4.60366E+000,-1.13531E+000,9.99896E-001,-3.36474E+001,-4.31616E+001,9.99366E-001,2.28284E-002,-1.00515E-002,-1.71655E-005,2.28284E-002,-1.00515E-002,-2.99121E-002,2.28826E-002,1.02299E+000,1.44829E-002,0.00000E+000,-1.41250E-002,9.90251E-001,0.00000E+000,3.08868E-003,-2.66609E-002,1.00000E+000,4
