Coordinates.Image X [Pixel],Coordinates.Image Y [Pixel],coor.X [mm],coor.Y [mm],coor.Z [mm],disp.Horizontal Displacement U [mm],disp.Vertical Displacement V [mm],disp.Out-Of-Plane: W [mm],disp.Displacement Magnitude [mm],stats.Sigma [mm],stats.Epipolar Distance [Pixel],stats.Shape Index [-],SameCamera.Horizontal: u [Pixel],SameCamera.Vertical: v [Pixel],SameCamera.Correlation Value 2D [-],CrossCamera.Horizontal: q [Pixel],CrossCamera.Vertical: r [Pixel],CrossCamera.Correlation Value Persp [-],strain.Strain-global frame: Exx [ ],strain.Strain-global frame: Eyy [ ],strain.Strain-global frame: Exy [ ],strain.Maximum Principal Strain: EI [ ],strain.Minimum Principal Strain: EII [ ],strain.Shear Angle Gamma [deg],strain.Von Mises Equivalent Strain [ ],defgradient.F[0,0] [-],defgradient.F[0,1] [-],defgradient.F[0,2] [-],defgradient.F[1,0] [-],defgradient.F[1,1] [-],defgradient.F[1,2] [-],defgradient.F[2,0] [-],defgradient.F[2,1] [-],defgradient.F[2,2] [-],ext.Current Image [#]
929,1317,3.98118E+000,-1.10833E+000,7.20437E-002,4.31725E+000,-4.91970E-001,1.58764E-001,4.34809E+000,1.00796E-002,4.94929E-001,0,6.57174E+001,-8.54422E+000,9.99330E-001,2.19564E+001,-4.28014E+001,9.98146E-001,1.20153E-001,-4.99146E-002,5.77189E-005,1.20153E-001,-4.99146E-002,1.94455E-002,1.20725E-001,1.12763E+000,-1.75425E-002,0.00000E+000,1.60062E-002,9.54576E-001,0.00000E+000,-1.43484E-002,-8.43946E-002,1.00000E+000,18
919,1307,3.24358E+000,-1.72974E+000,1.30529E-001,4.24620E+000,-4.64103E-001,2.22047E-001,4.27725E+000,1.27036E-002,5.08471E-001,0,6.44655E+001,-8.21762E+000,9.98651E-001,2.05804E+001,-4.26183E+001,9.95992E-001,1.22692E-001,-4.96457E-002,-3.93969E-004,1.22693E-001,-4.96466E-002,-1.30979E-001,1.23435E-001,1.13051E+000,-1.57157E-002,0.00000E+000,1.34839E-002,9.54944E-001,0.00000E+000,-1.30580E-002,-8.53365E-002,1.00000E+000,18
919,1317,3.23202E+000,-1.13110E+000,2.72771E-002,4.23183E+000,-5.00462E-001,1.69706E-001,4.26470E+000,1.42305E-002,4.85199E-001,0,6.44328E+001,-8.69671E+000,9.98092E-001,2.02769E+001,-4.31602E+001,9.95577E-001,1.20872E-001,-4.96532E-002,-6.17200E-004,1.20874E-001,-4.96554E-002,-2.07373E-001,1.21514E-001,1.12843E+000,-1.57248E-002,0.00000E+000,1.29659E-002,9.54941E-001,0.00000E+000,-1.15425E-002,-8.53298E-002,1.00000E+000,18
919,1327,3.23869E+000,-5.21894E-001,-1.70257E-002,4.22137E+000,-5.38326E-001,1.10272E-001,4.25699E+000,1.15416E-002,5.21094E-001,0,6.44745E+001,-9.17224E+000,9.99013E-001,2.03844E+001,-4.36332E+001,9.97076E-001,1.19027E-001,-4.96698E-002,-8.63029E-004,1.19031E-001,-4.96742E-002,-2.93108E-001,1.19572E-001,1.12633E+000,-1.57800E-002,0.00000E+000,1.24420E-002,9.54928E-001,0.00000E+000,-1.00102E-002,-8.52896E-002,1.00000E+000,18
929,1307,3.98842E+000,-1.70794E+000,1.60221E-001,4.33167E+000,-4.53299E-001,2.15920E-001,4.36067E+000,1.03238E-002,5.23310E-001,0,6.57352E+001,-8.04488E+000,9.99305E-001,2.21598E+001,-4.22414E+001,9.98422E-001,1.22006E-001,-4.99110E-002,1.49375E-004,1.22006E-001,-4.99111E-002,4.97831E-002,1.22677E-001,1.12975E+000,-1.75188E-002,0.00000E+000,1.62828E-002,9.54579E-001,0.00000E+000,-1.61959E-002,-8.44152E-002,1.00000E+000,18
929,1327,3.98081E+000,-4.97889E-001,1.22583E-002,4.30344E+000,-5.23873E-001,1.01158E-001,4.33639E+000,9.37684E-003,4.71617E-001,0,6.57035E+001,-8.94087E+000,9.99357E-001,2.19219E+001,-4.32515E+001,9.98570E-001,1.18288E-001,-4.99195E-002,-4.33383E-005,1.18288E-001,-4.99195E-002,-1.47621E-002,1.18767E-001,1.12550E+000,-1.75869E-002,0.00000E+000,1.57288E-002,9.54570E-001,0.00000E+000,-1.24957E-002,-8.43559E-002,1.00000E+000,18
939,1307,4.72594E+000,-1.68934E+000,1.48208E-001,4.41486E+000,-4.41611E-001,1.93515E-001,4.44111E+000,1.14747E-002,5.22945E-001,0,6.70278E+001,-7.82384E+000,9.99333E-001,2.35402E+001,-4.18342E+001,9.98472E-001,1.21192E-001,-4.95362E-002,5.86918E-004,1.21194E-001,-4.95382E-002,1.96965E-001,1.21865E-001,1.12883E+000,-1.95755E-002,0.00000E+000,1.90251E-002,9.54784E-001,0.00000E+000,-1.84552E-002,-8.30423E-002,1.00000E+000,18
939,1317,4.71877E+000,-1.08899E+000,6.58245E-002,4.39971E+000,-4.79481E-001,1.38729E-001,4.42793E+000,1.15551E-002,4.67771E-001,0,6.69913E+001,-8.31450E+000,9.99087E-001,2.33509E+001,-4.24066E+001,9.97754E-001,1.19504E-001,-4.95383E-002,5.27252E-004,1.19506E-001,-4.95399E-002,1.78706E-001,1.20086E-001,1.12689E+000,-1.95997E-002,0.00000E+000,1.87917E-002,9.54781E-001,0.00000E+000,-1.63437E-002,-8.30160E-002,1.00000E+000,18
939,1327,4.72004E+000,-4.73061E-001,1.30302E-002,4.38589E+000,-5.09160E-001,8.13170E-002,4.41609E+000,9.12439E-003,4.95745E-001,0,6.69761E+001,-8.67104E+000,9.99014E-001,2.33569E+001,-4.27593E+001,9.98163E-001,1.17796E-001,-4.95412E-002,4.57629E-004,1.17798E-001,-4.95424E-002,1.56689E-001,1.18292E-001,1.12493E+000,-1.96455E-002,0.00000E+000,1.85566E-002,9.54776E-001,0.00000E+000,-1.42161E-002,-8.29662E-002,1.00000E+000,18
919,1337,3.25211E+000,9.68309E-002,-3.65836E-002,4.21275E+000,-5.68193E-001,5.25117E-002,4.25122E+000,9.92156E-003,4.89605E-001,0,6.45324E+001,-9.52365E+000,9.98715E-001,2.06522E+001,-4.40471E+001,9.98039E-001,1.17176E-001,-4.96895E-002,-1.11597E-003,1.17183E-001,-4.96970E-002,-3.83164E-001,1.17632E-001,1.12424E+000,-1.58509E-002,0.00000E+000,1.19184E-002,9.54910E-001,0.00000E+000,-8.47850E-003,-8.52378E-002,1.00000E+000,18
929,1337,3.98977E+000,1.15950E-001,-2.29438E-002,4.29279E+000,-5.57985E-001,3.98493E-002,4.32908E+000,9.21804E-003,4.64097E-001,0,6.57470E+001,-9.34922E+000,9.99400E-001,2.20849E+001,-4.36944E+001,9.98979E-001,1.16407E-001,-4.99257E-002,-1.53991E-004,1.16407E-001,-4.99259E-002,-5.30446E-002,1.16799E-001,1.12336E+000,-1.76516E-002,0.00000E+000,1.54500E-002,9.54562E-001,0.00000E+000,-1.06331E-002,-8.42996E-002,1.00000E+000,18
939,1337,4.72716E+000,1.41235E-001,-1.80645E-002,4.37425E+000,-5.41795E-001,2.86963E-002,4.40777E+000,8.33639E-003,4.94210E-001,0,6.69762E+001,-9.08812E+000,9.99298E-001,2.34993E+001,-4.31997E+001,9.98908E-001,1.16081E-001,-4.95444E-002,3.82857E-004,1.16082E-001,-4.95453E-002,1.32443E-001,1.16496E-001,1.12298E+000,-1.97023E-002,0.00000E+000,1.83215E-002,9.54769E-001,0.00000E+000,-1.20884E-002,-8.29044E-002,1.00000E+000,18
949,1317,5.46119E+000,-1.06214E+000,6.55938E-002,4.48518E+000,-4.62194E-001,1.18863E-001,4.51049E+000,1.57601E-002,4.92472E-001,0,6.83067E+001,-8.00838E+000,9.98204E-001,2.48379E+001,-4.18821E+001,9.96657E-001,1.18836E-001,-4.91240E-002,8.94329E-004,1.18841E-001,-4.91288E-002,3.05069E-001,1.19433E-001,1.12613E+000,-2.14872E-002,0.00000E+000,2.11974E-002,9.54985E-001,0.00000E+000,-1.79050E-002,-8.11298E-002,1.00000E+000,18
949,1327,5.45918E+000,-4.48842E-001,1.07943E-002,4.46915E+000,-4.92599E-001,6.47559E-002,4.49668E+000,1.42940E-002,4.79109E-001,0,6.82490E+001,-8.38413E+000,9.98491E-001,2.47884E+001,-4.22905E+001,9.97505E-001,1.17387E-001,-4.91234E-002,8.71476E-004,1.17391E-001,-4.91280E-002,2.99862E-001,1.17910E-001,1.12446E+000,-2.15237E-002,0.00000E+000,2.10191E-002,9.54981E-001,0.00000E+000,-1.54353E-002,-8.10759E-002,1.00000E+000,18
949,1337,5.46417E+000,1.65161E-001,-1.79308E-002,4.45588E+000,-5.25581E-001,1.74688E-002,4.48681E+000,1.06544E-002,4.74065E-001,0,6.82074E+001,-8.81286E+000,9.98975E-001,2.49019E+001,-4.27408E+001,9.98110E-001,1.15926E-001,-4.91227E-002,8.43464E-004,1.15930E-001,-4.91271E-002,2.92794E-001,1.16378E-001,1.12278E+000,-2.15713E-002,0.00000E+000,2.08402E-002,9.54976E-001,0.00000E+000,-1.29587E-002,-8.10056E-002,1.00000E+000,18
949,1307,5.46998E+000,-1.66750E+000,1.48121E-001,4.50165E+000,-4.28537E-001,1.72014E-001,4.52527E+000,1.23015E-002,5.20580E-001,0,6.83689E+001,-7.57851E+000,9.98905E-001,2.50516E+001,-4.14023E+001,9.97829E-001,1.20271E-001,-4.91245E-002,9.09787E-004,1.20276E-001,-4.91294E-002,3.07711E-001,1.20946E-001,1.12780E+000,-2.14671E-002,0.00000E+000,2.13751E-002,9.54987E-001,0.00000E+000,-2.03651E-002,-8.11594E-002,1.00000E+000,18
909,1317,2.50015E+000,-1.14684E+000,2.42388E-002,4.15167E+000,-5.08398E-001,1.68975E-001,4.18610E+000,1.37343E-002,4.62083E-001,0,6.32582E+001,-8.82684E+000,9.97291E-001,1.89595E+001,-4.35043E+001,9.95112E-001,1.21617E-001,-5.00079E-002,-1.32662E-003,1.21627E-001,-5.00182E-002,-4.42848E-001,1.22265E-001,1.12927E+000,-1.37237E-002,0.00000E+000,9.66733E-003,9.54651E-001,0.00000E+000,-8.46265E-003,-8.54918E-002,1.00000E+000,18
909,1327,2.51087E+000,-5.32919E-001,-1.96028E-002,4.14576E+000,-5.42089E-001,1.11772E-001,4.18254E+000,1.07874E-002,4.92278E-001,0,6.33594E+001,-9.22412E+000,9.98022E-001,1.91320E+001,-4.39093E+001,9.97414E-001,1.19827E-001,-5.00221E-002,-1.55473E-003,1.19841E-001,-5.00364E-002,-5.24404E-001,1.20383E-001,1.12724E+000,-1.37751E-002,0.00000E+000,9.21373E-003,9.54640E-001,0.00000E+000,-7.45896E-003,-8.54663E-002,1.00000E+000,18
909,1337,2.52373E+000,8.95644E-002,-3.54739E-002,4.13646E+000,-5.71107E-001,5.67215E-002,4.17609E+000,1.17261E-002,5.41473E-001,0,6.33962E+001,-9.56192E+000,9.98664E-001,1.94004E+001,-4.42347E+001,9.98114E-001,1.18027E-001,-5.00397E-002,-1.79114E-003,1.18046E-001,-5.00587E-002,-6.10526E-001,1.18499E-001,1.12521E+000,-1.38436E-002,0.00000E+000,8.75873E-003,9.54624E-001,0.00000E+000,-6.45216E-003,-8.54325E-002,1.00000E+000,18
909,1307,2.50783E+000,-1.74486E+000,1.33963E-001,4.16114E+000,-4.71618E-001,2.23093E-001,4.19372E+000,1.40641E-002,4.40952E-001,0,6.32106E+001,-8.33326E+000,9.97587E-001,1.92186E+001,-4.29876E+001,9.93521E-001,1.23382E-001,-5.00025E-002,-1.12106E-003,1.23389E-001,-5.00098E-002,-3.70440E-001,1.24125E-001,1.13127E+000,-1.37180E-002,0.00000E+000,1.01155E-002,9.54652E-001,0.00000E+000,-9.45429E-003,-8.54946E-002,1.00000E+000,18
919,1347,3.27289E+000,7.24319E-001,-4.31913E-002,4.20824E+000,-5.93252E-001,-7.20766E-003,4.24985E+000,1.54630E-002,5.05899E-001,0,6.46557E+001,-9.79589E+000,9.99244E-001,2.10628E+001,-4.43317E+001,9.98751E-001,1.15311E-001,-4.97114E-002,-1.37481E-003,1.15322E-001,-4.97228E-002,-4.77288E-001,1.15686E-001,1.12213E+000,-1.59322E-002,0.00000E+000,1.13925E-002,9.54890E-001,0.00000E+000,-6.94005E-003,-8.51784E-002,1.00000E+000,18
929,1347,4.00666E+000,7.37827E-001,-2.77921E-002,4.28490E+000,-5.87660E-001,-1.49282E-002,4.32503E+000,8.79956E-003,4.70526E-001,0,6.58050E+001,-9.71100E+000,9.99308E-001,2.24369E+001,-4.40736E+001,9.99046E-001,1.14514E-001,-4.99331E-002,-2.72681E-004,1.14514E-001,-4.99335E-002,-9.50059E-002,1.14826E-001,1.12122E+000,-1.77332E-002,0.00000E+000,1.51704E-002,9.54551E-001,0.00000E+000,-8.76556E-003,-8.42285E-002,1.00000E+000,18
939,1347,4.74471E+000,7.64024E-001,-1.61405E-002,4.36732E+000,-5.70662E-001,-1.69992E-002,4.40448E+000,1.27838E-002,5.04309E-001,0,6.70187E+001,-9.45692E+000,9.99167E-001,2.38744E+001,-4.35763E+001,9.98356E-001,1.14352E-001,-4.95483E-002,2.99920E-004,1.14352E-001,-4.95489E-002,1.04845E-001,1.14691E-001,1.12101E+000,-1.97765E-002,0.00000E+000,1.80853E-002,9.54760E-001,0.00000E+000,-9.95182E-003,-8.28238E-002,1.00000E+000,18
949,1347,5.48535E+000,7.86832E-001,-7.78194E-003,4.45054E+000,-5.57939E-001,-2.83240E-002,4.48546E+000,1.04110E-002,4.97173E-001,0,6.82752E+001,-9.22827E+000,9.98716E-001,2.53485E+001,-4.31443E+001,9.97853E-001,1.14447E-001,-4.91219E-002,8.05597E-004,1.14451E-001,-4.91259E-002,2.82180E-001,1.14832E-001,1.12109E+000,-2.16405E-002,0.00000E+000,2.06602E-002,9.54969E-001,0.00000E+000,-1.04659E-002,-8.09036E-002,1.00000E+000,18
959,1317,6.19634E+000,-1.04104E+000,5.45459E-002,4.56483E+000,-4.48160E-001,9.68167E-002,4.58779E+000,1.39150E-002,4.85755E-001,0,6.95423E+001,-7.75161E+000,9.98544E-001,2.61936E+001,-4.14398E+001,9.97737E-001,1.18234E-001,-4.86234E-002,9.89184E-004,1.18240E-001,-4.86293E-002,3.39651E-001,1.18859E-001,1.12543E+000,-2.34454E-002,0.00000E+000,2.30763E-002,9.55256E-001,0.00000E+000,-1.86697E-002,-7.89303E-002,1.00000E+000,18
959,1327,6.19566E+000,-4.28133E-001,-4.03392E-003,4.55180E+000,-4.78202E-001,4.70037E-002,4.57709E+000,1.96088E-002,4.83770E-001,0,6.95177E+001,-8.13469E+000,9.99327E-001,2.61563E+001,-4.18384E+001,9.98413E-001,1.16989E-001,-4.86181E-002,1.02791E-003,1.16995E-001,-4.86245E-002,3.55614E-001,1.17549E-001,1.12398E+000,-2.34733E-002,0.00000E+000,2.30031E-002,9.55255E-001,0.00000E+000,-1.60826E-002,-7.88804E-002,1.00000E+000,18
959,1337,6.20395E+000,1.85486E-001,-2.09848E-002,4.53946E+000,-5.14096E-001,1.56910E-003,4.56847E+000,1.50306E-002,4.74236E-001,0,6.94843E+001,-8.59722E+000,9.98764E-001,2.63442E+001,-4.23203E+001,9.98049E-001,1.15728E-001,-4.86112E-002,1.05849E-003,1.15734E-001,-4.86180E-002,3.69017E-001,1.16226E-001,1.12252E+000,-2.35200E-002,0.00000E+000,2.29295E-002,9.55252E-001,0.00000E+000,-1.34804E-002,-7.87970E-002,1.00000E+000,18
959,1307,6.20335E+000,-1.64517E+000,1.36913E-001,4.58040E+000,-4.11647E-001,1.53344E-001,4.60142E+000,1.04110E-002,5.00070E-001,0,6.95772E+001,-7.29157E+000,9.98842E-001,2.63795E+001,-4.09498E+001,9.98130E-001,1.19470E-001,-4.86279E-002,9.46593E-004,1.19475E-001,-4.86332E-002,3.22630E-001,1.20161E-001,1.12687E+000,-2.34260E-002,0.00000E+000,2.31493E-002,9.55257E-001,0.00000E+000,-2.12528E-002,-7.89650E-002,1.00000E+000,18
959,1347,6.21991E+000,8.03564E-001,-2.18900E-002,4.53080E+000,-5.47811E-001,-4.59096E-002,4.56403E+000,1.06729E-002,4.76947E-001,0,6.95104E+001,-9.03643E+000,9.98663E-001,2.66849E+001,-4.27641E+001,9.98336E-001,1.14456E-001,-4.86034E-002,1.08477E-003,1.14464E-001,-4.86106E-002,3.81141E-001,1.14896E-001,1.12106E+000,-2.35757E-002,0.00000E+000,2.28558E-002,9.55249E-001,0.00000E+000,-1.08745E-002,-7.86974E-002,1.00000E+000,18
909,1347,2.54553E+000,7.14631E-001,-2.52380E-002,4.13107E+000,-5.98091E-001,3.84978E-003,4.17414E+000,1.37831E-002,5.14765E-001,0,6.34810E+001,-9.88412E+000,9.99230E-001,1.98653E+001,-4.46169E+001,9.97931E-001,1.16226E-001,-5.00601E-002,-2.03422E-003,1.16251E-001,-5.00850E-002,-7.00774E-001,1.16621E-001,1.12318E+000,-1.39275E-002,0.00000E+000,8.30457E-003,9.54606E-001,0.00000E+000,-5.44723E-003,-8.53909E-002,1.00000E+000,18
899,1327,1.78309E+000,-5.34444E-001,1.29443E-002,4.06165E+000,-5.43560E-001,1.10645E-001,4.09935E+000,7.89113E-003,4.96272E-001,0,6.21153E+001,-9.22250E+000,9.98478E-001,1.79637E+001,-4.40985E+001,9.98438E-001,1.20412E-001,-5.03006E-002,-2.16111E-003,1.20439E-001,-5.03280E-002,-7.25173E-001,1.20980E-001,1.12791E+000,-1.19074E-002,0.00000E+000,6.26701E-003,9.54431E-001,0.00000E+000,-4.85566E-003,-8.58887E-002,1.00000E+000,18
899,1337,1.79866E+000,8.34406E-002,-2.48240E-002,4.05894E+000,-5.72781E-001,5.08910E-002,4.09948E+000,1.24774E-002,5.11015E-001,0,6.22701E+001,-9.56304E+000,9.99339E-001,1.82261E+001,-4.44664E+001,9.99030E-001,1.18778E-001,-5.03120E-002,-2.34670E-003,1.18810E-001,-5.03446E-002,-7.94971E-001,1.19270E-001,1.12607E+000,-1.19585E-002,0.00000E+000,5.93691E-003,9.54422E-001,0.00000E+000,-4.42396E-003,-8.58767E-002,1.00000E+000,18
899,1347,1.82571E+000,7.06600E-001,-1.33983E-002,4.05898E+000,-6.01848E-001,-9.35780E-004,4.10335E+000,1.04580E-002,5.02409E-001,0,6.24341E+001,-9.92378E+000,9.99286E-001,1.87760E+001,-4.48728E+001,9.98767E-001,1.17135E-001,-5.03275E-002,-2.54370E-003,1.17173E-001,-5.03662E-002,-8.70038E-001,1.17557E-001,1.12422E+000,-1.20340E-002,0.00000E+000,5.60568E-003,9.54409E-001,0.00000E+000,-3.99079E-003,-8.58590E-002,1.00000E+000,18
899,1317,1.77816E+000,-1.14361E+000,7.71162E-002,4.06938E+000,-5.09435E-001,1.70369E-001,4.10468E+000,1.02661E-002,5.12395E-001,0,6.20319E+001,-8.82280E+000,9.98326E-001,1.79256E+001,-4.36373E+001,9.97349E-001,1.22039E-001,-5.02919E-002,-1.98300E-003,1.22062E-001,-5.03147E-002,-6.59182E-001,1.22687E-001,1.12975E+000,-1.18718E-002,0.00000E+000,6.59611E-003,9.54438E-001,0.00000E+000,-5.28605E-003,-8.58970E-002,1.00000E+000,18
899,1307,1.77809E+000,-1.74377E+000,1.67893E-001,4.07632E+000,-4.70652E-001,2.30111E-001,4.10984E+000,1.08169E-002,4.60675E-001,0,6.19309E+001,-8.30767E+000,9.98349E-001,1.80238E+001,-4.31268E+001,9.95921E-001,1.23656E-001,-5.02858E-002,-1.81250E-003,1.23675E-001,-5.03047E-002,-5.96944E-001,1.24390E-001,1.13158E+000,-1.18520E-002,0.00000E+000,6.92394E-003,9.54441E-001,0.00000E+000,-5.71479E-003,-8.59016E-002,1.00000E+000,18
889,1327,1.05315E+000,-5.41300E-001,2.41417E-002,3.97973E+000,-5.46719E-001,1.10276E-001,4.01862E+000,6.86463E-003,5.17524E-001,0,6.09039E+001,-9.26525E+000,9.98875E-001,1.67190E+001,-4.43157E+001,9.98931E-001,1.21059E-001,-4.97309E-002,-2.78022E-003,1.21104E-001,-4.97762E-002,-9.32364E-001,1.21742E-001,1.12865E+000,-1.02887E-002,0.00000E+000,3.50149E-003,9.55049E-001,0.00000E+000,-2.15398E-003,-8.65992E-002,1.00000E+000,18
889,1337,1.06343E+000,7.62391E-002,-1.76377E-002,3.97302E+000,-5.74659E-001,5.17489E-002,4.01470E+000,1.09084E-002,5.10074E-001,0,6.09924E+001,-9.58689E+000,9.99293E-001,1.68917E+001,-4.46939E+001,9.99054E-001,1.19484E-001,-4.97315E-002,-2.81352E-003,1.19530E-001,-4.97782E-002,-9.52299E-001,1.20085E-001,1.12688E+000,-1.03344E-002,0.00000E+000,3.53135E-003,9.55050E-001,0.00000E+000,-2.65214E-003,-8.66121E-002,1.00000E+000,18
889,1347,1.09140E+000,6.97203E-001,-8.94982E-003,3.97475E+000,-6.05189E-001,-1.63061E-004,4.02055E+000,9.08330E-003,4.97324E-001,0,6.11825E+001,-9.96987E+000,9.99155E-001,1.74511E+001,-4.51320E+001,9.98776E-001,1.17898E-001,-4.97322E-002,-2.85787E-003,1.17947E-001,-4.97809E-002,-9.76436E-001,1.18424E-001,1.12509E+000,-1.04049E-002,0.00000E+000,3.56136E-003,9.55051E-001,0.00000E+000,-3.15265E-003,-8.66318E-002,1.00000E+000,18
969,1297,6.96156E+000,-2.22306E+000,2.32265E-001,4.68394E+000,-3.59748E-001,1.78542E-001,4.70113E+000,1.50382E-002,4.58358E-001,0,7.09971E+001,-6.51657E+000,9.99222E-001,2.82241E+001,-4.00149E+001,9.97959E-001,1.19682E-001,-4.83589E-002,8.48438E-004,1.19686E-001,-4.83631E-002,2.89277E-001,1.20418E-001,1.12714E+000,-2.51290E-002,0.00000E+000,2.45754E-002,9.55314E-001,0.00000E+000,-2.42413E-002,-7.66592E-002,1.00000E+000,18
969,1307,6.94152E+000,-1.62836E+000,1.31473E-001,4.66190E+000,-4.02483E-001,1.33494E-001,4.68115E+000,2.32676E-002,4.72177E-001,0,7.08321E+001,-7.09989E+000,9.98949E-001,2.77974E+001,-4.05980E+001,9.97189E-001,1.18656E-001,-4.83540E-002,9.27703E-004,1.18661E-001,-4.83591E-002,3.18252E-001,1.19336E-001,1.12592E+000,-2.51328E-002,0.00000E+000,2.45569E-002,9.55314E-001,0.00000E+000,-2.15815E-002,-7.66509E-002,1.00000E+000,18
969,1317,6.93549E+000,-1.02438E+000,5.38563E-002,4.64625E+000,-4.39372E-001,7.72598E-002,4.66761E+000,9.43474E-003,4.75325E-001,0,7.07957E+001,-7.58525E+000,9.99506E-001,2.76366E+001,-4.10900E+001,9.98880E-001,1.17622E-001,-4.83469E-002,1.00069E-003,1.17628E-001,-4.83529E-002,3.45441E-001,1.18246E-001,1.12470E+000,-2.51512E-002,0.00000E+000,2.45384E-002,9.55314E-001,0.00000E+000,-1.89181E-002,-7.66108E-002,1.00000E+000,18
889,1317,1.04545E+000,-1.14886E+000,8.96816E-002,3.98413E+000,-5.11613E-001,1.69218E-001,4.02041E+000,9.52067E-003,5.40621E-001,0,6.07728E+001,-8.85027E+000,9.98914E-001,1.66414E+001,-4.38275E+001,9.98531E-001,1.22629E-001,-4.97305E-002,-2.75278E-003,1.22673E-001,-4.97745E-002,-9.14770E-001,1.23397E-001,1.13043E+000,-1.02560E-002,0.00000E+000,3.47168E-003,9.55048E-001,0.00000E+000,-1.65678E-003,-8.65901E-002,1.00000E+000,18
969,1327,6.93310E+000,-4.08952E-001,2.15816E-003,4.63081E+000,-4.67402E-001,3.16585E-002,4.65444E+000,1.19462E-002,5.01969E-001,0,7.07195E+001,-7.96232E+000,9.99129E-001,2.75867E+001,-4.14487E+001,9.98900E-001,1.16577E-001,-4.83388E-002,1.07076E-003,1.16584E-001,-4.83457E-002,3.71989E-001,1.17148E-001,1.12348E+000,-2.51761E-002,0.00000E+000,2.45199E-002,9.55314E-001,0.00000E+000,-1.62487E-002,-7.65564E-002,1.00000E+000,18
889,1307,1.04144E+000,-1.75093E+000,1.79992E-001,3.98642E+000,-4.75543E-001,2.25494E-001,4.02101E+000,1.26152E-002,4.90585E-001,0,6.06142E+001,-8.36774E+000,9.98641E-001,1.66780E+001,-4.33431E+001,9.96423E-001,1.24190E-001,-4.97302E-002,-2.73225E-003,1.24232E-001,-4.97731E-002,-8.99813E-001,1.25047E-001,1.13219E+000,-1.02387E-002,0.00000E+000,3.44200E-003,9.55048E-001,0.00000E+000,-1.16165E-003,-8.65852E-002,1.00000E+000,18
969,1337,6.94001E+000,2.01921E-001,-2.85733E-002,4.61914E+000,-5.03091E-001,-1.78654E-002,4.64649E+000,1.22969E-002,4.27712E-001,0,7.07134E+001,-8.40824E+000,9.98953E-001,2.77239E+001,-4.19740E+001,9.98611E-001,1.15522E-001,-4.83290E-002,1.13608E-003,1.15530E-001,-4.83369E-002,3.97244E-001,1.16041E-001,1.12226E+000,-2.52116E-002,0.00000E+000,2.45013E-002,9.55313E-001,0.00000E+000,-1.35742E-002,-7.64789E-002,1.00000E+000,18
969,1347,6.95017E+000,8.31446E-001,-3.30106E-002,4.60594E+000,-5.26262E-001,-6.22278E-002,4.63632E+000,1.04805E-002,4.68778E-001,0,7.06575E+001,-8.68471E+000,9.98860E-001,2.79673E+001,-4.22128E+001,9.98401E-001,1.14451E-001,-4.83178E-002,1.19757E-003,1.14460E-001,-4.83266E-002,4.21522E-001,1.14920E-001,1.12102E+000,-2.52563E-002,0.00000E+000,2.44825E-002,9.55312E-001,0.00000E+000,-1.08809E-002,-7.63813E-002,1.00000E+000,18
879,1327,3.26603E-001,-5.44073E-001,4.26665E-002,3.90068E+000,-5.45606E-001,1.16551E-001,3.94038E+000,9.48579E-003,5.25981E-001,0,5.97112E+001,-9.25504E+000,9.99030E-001,1.55492E+001,-4.44919E+001,9.98938E-001,1.21662E-001,-4.99084E-002,-3.15159E-003,1.21720E-001,-4.99663E-002,-1.05200E+000,1.22368E-001,1.12935E+000,-8.88988E-003,0.00000E+000,1.44622E-003,9.54841E-001,0.00000E+000,-1.37240E-004,-8.60463E-002,1.00000E+000,18
879,1337,3.36643E-001,6.92945E-002,-8.72385E-003,3.89439E+000,-5.76828E-001,5.08595E-002,3.93721E+000,9.35969E-003,5.04838E-001,0,5.98299E+001,-9.60980E+000,9.98676E-001,1.56962E+001,-4.49225E+001,9.98515E-001,1.20229E-001,-4.99064E-002,-3.13797E-003,1.20286E-001,-4.99642E-002,-1.05628E+000,1.20859E-001,1.12773E+000,-8.92999E-003,0.00000E+000,1.60056E-003,9.54845E-001,0.00000E+000,-1.15954E-003,-8.60717E-002,1.00000E+000,18
879,1347,3.60422E-001,6.93010E-001,-6.06183E-003,3.89342E+000,-6.04866E-001,-7.57783E-004,3.94013E+000,1.11408E-002,5.29183E-001,0,5.99771E+001,-9.95104E+000,9.98670E-001,1.61793E+001,-4.52888E+001,9.98487E-001,1.18782E-001,-4.99034E-002,-3.13324E-003,1.18840E-001,-4.99616E-002,-1.06375E+000,1.19341E-001,1.12610E+000,-8.99056E-003,0.00000E+000,1.75597E-003,9.54851E-001,0.00000E+000,-2.18895E-003,-8.61100E-002,1.00000E+000,18
879,1307,3.06728E-001,-1.75185E+000,1.98549E-001,3.89750E+000,-4.74335E-001,2.24577E-001,3.93268E+000,1.35407E-002,5.03644E-001,0,5.92955E+001,-8.33671E+000,9.98275E-001,1.53829E+001,-4.34852E+001,9.96553E-001,1.24508E-001,-4.99109E-002,-3.19585E-003,1.24567E-001,-4.99694E-002,-1.04935E+000,1.25376E-001,1.13257E+000,-8.84851E-003,0.00000E+000,1.13874E-003,9.54837E-001,0.00000E+000,1.89940E-003,-8.60202E-002,1.00000E+000,18
879,1317,3.15883E-001,-1.15078E+000,1.12102E-001,3.90177E+000,-5.09285E-001,1.78448E-001,3.93891E+000,9.69076E-003,4.68024E-001,0,5.95204E+001,-8.79748E+000,9.99039E-001,1.54344E+001,-4.40374E+001,9.98427E-001,1.23092E-001,-4.99100E-002,-3.17012E-003,1.23150E-001,-4.99681E-002,-1.04943E+000,1.23877E-001,1.13097E+000,-8.86078E-003,0.00000E+000,1.29190E-003,9.54839E-001,0.00000E+000,8.84899E-004,-8.60280E-002,1.00000E+000,18
979,1307,7.69866E+000,-1.60780E+000,1.39042E-001,4.75870E+000,-3.91633E-001,1.12501E-001,4.77611E+000,1.48437E-002,4.68488E-001,0,7.23195E+001,-6.89319E+000,9.99570E-001,2.95403E+001,-4.02018E+001,9.99290E-001,1.17916E-001,-4.80542E-002,8.88772E-004,1.17921E-001,-4.80590E-002,3.06807E-001,1.18591E-001,1.12504E+000,-2.65139E-002,0.00000E+000,2.55657E-002,9.55389E-001,0.00000E+000,-2.07613E-002,-7.40765E-002,1.00000E+000,18
979,1317,7.68137E+000,-9.99302E-001,5.59317E-002,4.73330E+000,-4.23595E-001,5.79669E-002,4.75257E+000,8.28136E-003,4.74827E-001,0,7.21297E+001,-7.30080E+000,9.99304E-001,2.91946E+001,-4.06102E+001,9.98909E-001,1.17178E-001,-4.80451E-002,9.97318E-004,1.17184E-001,-4.80512E-002,3.45832E-001,1.17814E-001,1.12416E+000,-2.65250E-002,0.00000E+000,2.56192E-002,9.55389E-001,0.00000E+000,-1.82220E-002,-7.40443E-002,1.00000E+000,18
979,1327,7.67322E+000,-3.87508E-001,-1.34804E-004,4.71291E+000,-4.54484E-001,1.19880E-002,4.73479E+000,9.70137E-003,4.81671E-001,0,7.19823E+001,-7.71789E+000,9.98460E-001,2.90460E+001,-4.10247E+001,9.97807E-001,1.16432E-001,-4.80344E-002,1.10334E-003,1.16439E-001,-4.80418E-002,3.84352E-001,1.17031E-001,1.12328E+000,-2.65419E-002,0.00000E+000,2.56728E-002,9.55390E-001,0.00000E+000,-1.56794E-002,-7.39956E-002,1.00000E+000,18
979,1337,7.67534E+000,2.29843E-001,-3.42402E-002,4.69863E+000,-4.82860E-001,-3.05603E-002,4.72347E+000,1.29590E-002,4.62381E-001,0,7.19117E+001,-8.08689E+000,9.97807E-001,2.91019E+001,-4.14138E+001,9.97192E-001,1.15677E-001,-4.80221E-002,1.20689E-003,1.15686E-001,-4.80310E-002,4.22389E-001,1.16239E-001,1.12239E+000,-2.65646E-002,0.00000E+000,2.57266E-002,9.55392E-001,0.00000E+000,-1.31302E-002,-7.39304E-002,1.00000E+000,18
979,1347,7.68449E+000,8.57150E-001,-3.25905E-002,4.68288E+000,-5.07992E-001,-7.49374E-002,4.71095E+000,1.33107E-002,4.59012E-001,0,7.18180E+001,-8.39275E+000,9.97159E-001,2.93402E+001,-4.17211E+001,9.96279E-001,1.14910E-001,-4.80064E-002,1.30570E-003,1.14921E-001,-4.80169E-002,4.59159E-001,1.15437E-001,1.12150E+000,-2.65990E-002,0.00000E+000,2.57807E-002,9.55394E-001,0.00000E+000,-1.05657E-002,-7.38313E-002,1.00000E+000,18
979,1297,7.70068E+000,-2.20235E+000,2.23043E-001,4.76723E+000,-3.46256E-001,1.60747E-001,4.78249E+000,1.27701E-002,4.52604E-001,0,7.22687E+001,-6.26442E+000,9.99303E-001,2.96532E+001,-3.95856E+001,9.98670E-001,1.18647E-001,-4.80627E-002,7.79081E-004,1.18651E-001,-4.80663E-002,2.67751E-001,1.19361E-001,1.12592E+000,-2.65049E-002,0.00000E+000,2.55121E-002,9.55388E-001,0.00000E+000,-2.33006E-002,-7.41024E-002,1.00000E+000,18
869,1317,-4.23007E-001,-1.15175E+000,1.07375E-001,3.81127E+000,-5.06237E-001,1.68248E-001,3.84842E+000,7.77898E-003,4.73889E-001,0,5.82063E+001,-8.70930E+000,9.99209E-001,1.40265E+001,-4.41369E+001,9.98276E-001,1.23299E-001,-5.01667E-002,-3.26113E-003,1.23360E-001,-5.02280E-002,-1.07665E+000,1.24067E-001,1.13122E+000,-7.33397E-003,0.00000E+000,-3.03003E-004,9.54555E-001,0.00000E+000,2.61948E-003,-8.55357E-002,1.00000E+000,18
869,1327,-4.10907E-001,-5.44907E-001,4.16411E-002,3.81204E+000,-5.40983E-001,1.11692E-001,3.85185E+000,9.56574E-003,5.33995E-001,0,5.84062E+001,-9.17028E+000,9.98953E-001,1.41710E+001,-4.45977E+001,9.98475E-001,1.22102E-001,-5.01654E-002,-3.24327E-003,1.22163E-001,-5.02265E-002,-1.07820E+000,1.22804E-001,1.12986E+000,-7.35745E-003,0.00000E+000,-1.25195E-004,9.54558E-001,0.00000E+000,1.18558E-003,-8.55605E-002,1.00000E+000,18
869,1337,-3.95558E-001,6.57787E-002,2.24943E-004,3.81058E+000,-5.75647E-001,5.31292E-002,3.85418E+000,1.03765E-002,5.25159E-001,0,5.85752E+001,-9.59190E+000,9.98361E-001,1.44226E+001,-4.50864E+001,9.98104E-001,1.20897E-001,-5.01637E-002,-3.23029E-003,1.20958E-001,-5.02246E-002,-1.08145E+000,1.21536E-001,1.12850E+000,-7.39209E-003,0.00000E+000,5.31674E-005,9.54563E-001,0.00000E+000,-2.52783E-004,-8.55971E-002,1.00000E+000,18
869,1347,-3.74450E-001,6.90378E-001,-3.99059E-003,3.80968E+000,-5.99466E-001,6.64171E-003,3.85656E+000,1.35678E-002,5.16612E-001,0,5.87058E+001,-9.88356E+000,9.98754E-001,1.48508E+001,-4.54426E+001,9.98417E-001,1.19687E-001,-5.01614E-002,-3.22204E-003,1.19748E-001,-5.02225E-002,-1.08639E+000,1.20265E-001,1.12713E+000,-7.43736E-003,0.00000E+000,2.31914E-004,9.54569E-001,0.00000E+000,-1.69425E-003,-8.56449E-002,1.00000E+000,18
869,1307,-4.27320E-001,-1.75088E+000,2.09096E-001,3.81130E+000,-4.69320E-001,2.27242E-001,3.84680E+000,1.10740E-002,5.06093E-001,0,5.80051E+001,-8.25406E+000,9.98470E-001,1.40855E+001,-4.35865E+001,9.97431E-001,1.24487E-001,-5.01673E-002,-3.28513E-003,1.24548E-001,-5.02291E-002,-1.07719E+000,1.25323E-001,1.13257E+000,-7.32477E-003,0.00000E+000,-4.79897E-004,9.54554E-001,0.00000E+000,4.04601E-003,-8.55260E-002,1.00000E+000,18
989,1307,8.42896E+000,-1.57626E+000,1.22955E-001,4.83219E+000,-3.67055E-001,8.58062E-002,4.84687E+000,1.23023E-002,4.79795E-001,0,7.34693E+001,-6.47006E+000,9.98863E-001,3.08255E+001,-3.95811E+001,9.98227E-001,1.17269E-001,-4.79516E-002,7.88171E-004,1.17273E-001,-4.79554E-002,2.73317E-001,1.17919E-001,1.12426E+000,-2.73320E-002,0.00000E+000,2.59218E-002,9.55308E-001,0.00000E+000,-1.90515E-002,-7.16965E-002,1.00000E+000,18
989,1317,8.40920E+000,-9.64872E-001,4.38100E-002,4.80545E+000,-3.97285E-001,4.07570E-002,4.82202E+000,1.17948E-002,5.29472E-001,0,7.32272E+001,-6.86662E+000,9.99230E-001,3.04499E+001,-3.99301E+001,9.98524E-001,1.16799E-001,-4.79400E-002,9.41172E-004,1.16805E-001,-4.79454E-002,3.27322E-001,1.17427E-001,1.12369E+000,-2.73382E-002,0.00000E+000,2.60608E-002,9.55310E-001,0.00000E+000,-1.65739E-002,-7.16695E-002,1.00000E+000,18
989,1327,8.41188E+000,-3.55502E-001,-2.55056E-003,4.79381E+000,-4.32900E-001,-4.10304E-003,4.81332E+000,1.51387E-002,5.31657E-001,0,7.32104E+001,-7.34526E+000,9.98545E-001,3.04876E+001,-4.04022E+001,9.97505E-001,1.16323E-001,-4.79246E-002,1.09142E-003,1.16330E-001,-4.79319E-002,3.80706E-001,1.16929E-001,1.12311E+000,-2.73510E-002,0.00000E+000,2.62000E-002,9.55313E-001,0.00000E+000,-1.40926E-002,-7.16143E-002,1.00000E+000,18
989,1297,8.44464E+000,-2.17915E+000,2.19003E-001,4.85358E+000,-3.29776E-001,1.42190E-001,4.86685E+000,1.10348E-002,4.64733E-001,0,7.35861E+001,-5.99476E+000,9.98781E-001,3.11726E+001,-3.91194E+001,9.98025E-001,1.17731E-001,-4.79626E-002,6.34752E-004,1.17733E-001,-4.79650E-002,2.19489E-001,1.18405E-001,1.12483E+000,-2.73269E-002,0.00000E+000,2.57830E-002,9.55307E-001,0.00000E+000,-2.15252E-002,-7.17185E-002,1.00000E+000,18
989,1337,8.41317E+000,2.57958E-001,-2.62721E-002,4.77583E+000,-4.65059E-001,-4.85973E-002,4.79866E+000,1.17878E-002,4.62456E-001,0,7.30907E+001,-7.77624E+000,9.97466E-001,3.05502E+001,-4.08977E+001,9.97393E-001,1.15841E-001,-4.79067E-002,1.23923E-003,1.15850E-001,-4.79161E-002,4.33578E-001,1.16426E-001,1.12254E+000,-2.73682E-002,0.00000E+000,2.63390E-002,9.55317E-001,0.00000E+000,-1.16154E-002,-7.15398E-002,1.00000E+000,18
989,1347,8.42124E+000,8.83549E-001,-2.64870E-002,4.76111E+000,-4.89744E-001,-8.48493E-002,4.78699E+000,1.21590E-002,4.45312E-001,0,7.29861E+001,-8.10156E+000,9.98824E-001,3.07662E+001,-4.12330E+001,9.98728E-001,1.15350E-001,-4.78869E-002,1.38619E-003,1.15362E-001,-4.78987E-002,4.86504E-001,1.15914E-001,1.12196E+000,-2.73885E-002,0.00000E+000,2.64788E-002,9.55322E-001,0.00000E+000,-9.12458E-003,-7.14518E-002,1.00000E+000,18
859,1327,-1.14482E+000,-5.44046E-001,3.61456E-002,3.72636E+000,-5.35437E-001,1.01461E-001,3.76600E+000,9.33147E-003,5.31390E-001,0,5.71619E+001,-9.04462E+000,9.98410E-001,1.28428E+001,-4.46728E+001,9.98113E-001,1.22345E-001,-5.02914E-002,-3.18220E-003,1.22403E-001,-5.03501E-002,-1.05566E+000,1.23043E-001,1.13014E+000,-6.02632E-003,0.00000E+000,-1.16325E-003,9.54390E-001,0.00000E+000,1.65781E-003,-8.49846E-002,1.00000E+000,18
859,1337,-1.12695E+000,6.83688E-002,6.78521E-004,3.72773E+000,-5.67315E-001,4.95049E-002,3.77098E+000,1.07288E-002,5.34776E-001,0,5.73505E+001,-9.45524E+000,9.98314E-001,1.31478E+001,-4.51430E+001,9.97946E-001,1.21414E-001,-5.02913E-002,-3.19227E-003,1.21473E-001,-5.03506E-002,-1.06473E+000,1.22064E-001,1.12909E+000,-6.05266E-003,0.00000E+000,-1.02461E-003,9.54394E-001,0.00000E+000,3.39252E-005,-8.50252E-002,1.00000E+000,18
859,1347,-1.10529E+000,6.86358E-001,1.10942E-004,3.72692E+000,-5.98019E-001,3.57054E-003,3.77460E+000,1.46139E-002,5.12285E-001,0,5.74819E+001,-9.84704E+000,9.99016E-001,1.35935E+001,-4.56179E+001,9.98638E-001,1.20476E-001,-5.02911E-002,-3.20657E-003,1.20536E-001,-5.03513E-002,-1.07536E+000,1.21079E-001,1.12803E+000,-6.08842E-003,0.00000E+000,-8.85428E-004,9.54399E-001,0.00000E+000,-1.59620E-003,-8.50803E-002,1.00000E+000,18
859,1307,-1.16283E+000,-1.74824E+000,2.11111E-001,3.72362E+000,-4.64247E-001,2.23451E-001,3.75909E+000,1.40753E-002,5.92552E-001,0,5.67115E+001,-8.16940E+000,9.98579E-001,1.27508E+001,-4.36024E+001,9.98103E-001,1.24185E-001,-5.02916E-002,-3.17451E-003,1.24243E-001,-5.03493E-002,-1.04201E+000,1.24984E-001,1.13224E+000,-6.00168E-003,0.00000E+000,-1.43893E-003,9.54387E-001,0.00000E+000,4.88670E-003,-8.49466E-002,1.00000E+000,18
859,1317,-1.15403E+000,-1.15343E+000,1.07274E-001,3.72807E+000,-5.04899E-001,1.62039E-001,3.76559E+000,1.06048E-002,5.14820E-001,0,5.69892E+001,-8.66111E+000,9.98547E-001,1.27545E+001,-4.42390E+001,9.97316E-001,1.23268E-001,-5.02915E-002,-3.17607E-003,1.23326E-001,-5.03496E-002,-1.04802E+000,1.24016E-001,1.13119E+000,-6.00881E-003,0.00000E+000,-1.30134E-003,9.54388E-001,0.00000E+000,3.27521E-003,-8.49576E-002,1.00000E+000,18
999,1337,9.14736E+000,2.81074E-001,-3.21736E-002,4.85503E+000,-4.46379E-001,-5.37522E-002,4.87580E+000,1.01826E-002,3.91902E-001,0,7.42570E+001,-7.47686E+000,9.99385E-001,3.19184E+001,-4.04644E+001,9.98776E-001,1.15822E-001,-4.78597E-002,1.09000E-003,1.15829E-001,-4.78669E-002,3.81524E-001,1.16409E-001,1.12249E+000,-2.77971E-002,0.00000E+000,2.62717E-002,9.55188E-001,0.00000E+000,-9.75567E-003,-6.89748E-002,1.00000E+000,18
999,1347,9.16041E+000,9.09428E-001,-2.20821E-002,4.84284E+000,-4.71449E-001,-8.94797E-002,4.86656E+000,8.79276E-003,4.06630E-001,0,7.41881E+001,-7.80307E+000,9.99524E-001,3.22304E+001,-4.07615E+001,9.99057E-001,1.15574E-001,-4.78395E-002,1.23799E-003,1.15584E-001,-4.78489E-002,4.34027E-001,1.16152E-001,1.12219E+000,-2.78085E-002,0.00000E+000,2.64208E-002,9.55194E-001,0.00000E+000,-7.47813E-003,-6.88865E-002,1.00000E+000,18
999,1307,9.16460E+000,-1.54988E+000,1.16387E-001,4.91059E+000,-3.47715E-001,6.88537E-002,4.92336E+000,7.82412E-003,4.75565E-001,0,7.46599E+001,-6.14088E+000,9.99169E-001,3.22164E+001,-3.90678E+001,9.98952E-001,1.16528E-001,-4.79019E-002,6.41667E-004,1.16530E-001,-4.79044E-002,2.23585E-001,1.17143E-001,1.12337E+000,-2.77796E-002,0.00000E+000,2.58289E-002,9.55179E-001,0.00000E+000,-1.65234E-002,-6.91091E-002,1.00000E+000,18
999,1317,9.15036E+000,-9.41195E-001,3.89549E-002,4.88898E+000,-3.80271E-001,2.40298E-002,4.90381E+000,1.37604E-002,5.32289E-001,0,7.44969E+001,-6.59087E+000,9.98453E-001,3.19294E+001,-3.94562E+001,9.95632E-001,1.16298E-001,-4.78905E-002,7.92291E-004,1.16302E-001,-4.78943E-002,2.76472E-001,1.16903E-001,1.12308E+000,-2.77830E-002,0.00000E+000,2.59765E-002,9.55181E-001,0.00000E+000,-1.42681E-002,-6.90832E-002,1.00000E+000,18
999,1327,9.14952E+000,-3.36666E-001,-8.79523E-003,4.87528E+000,-4.19418E-001,-1.53989E-002,4.89332E+000,1.53949E-002,5.40272E-001,0,7.44328E+001,-7.14755E+000,9.98825E-001,3.19086E+001,-3.99960E+001,9.97150E-001,1.16062E-001,-4.78764E-002,9.41846E-004,1.16068E-001,-4.78818E-002,3.29156E-001,1.16658E-001,1.12278E+000,-2.77888E-002,0.00000E+000,2.61242E-002,9.55184E-001,0.00000E+000,-1.20107E-002,-6.90382E-002,1.00000E+000,18
999,1297,9.18282E+000,-2.15835E+000,2.14605E-001,4.93413E+000,-3.16220E-001,1.25505E-001,4.94585E+000,8.58653E-003,4.80278E-001,0,7.48088E+001,-5.76284E+000,9.98628E-001,3.26055E+001,-3.86886E+001,9.97117E-001,1.16753E-001,-4.79123E-002,4.90652E-004,1.16754E-001,-4.79138E-002,1.70722E-001,1.17378E-001,1.12366E+000,-2.77772E-002,0.00000E+000,2.56814E-002,9.55178E-001,0.00000E+000,-1.87765E-002,-6.91278E-002,1.00000E+000,18
849,1337,-1.85932E+000,6.71007E-002,1.71417E-003,3.64264E+000,-5.65290E-001,4.25886E-002,3.68649E+000,1.32145E-002,5.44826E-001,0,5.61019E+001,-9.38010E+000,9.98861E-001,1.18633E+001,-4.52605E+001,9.98495E-001,1.21713E-001,-5.01616E-002,-2.91397E-003,1.21762E-001,-5.02110E-002,-9.71023E-001,1.22384E-001,1.12943E+000,-4.88418E-003,0.00000E+000,-1.46777E-003,9.54426E-001,0.00000E+000,-4.86617E-005,-8.39115E-002,1.00000E+000,18
849,1347,-1.84201E+000,6.80506E-001,-4.89194E-003,3.64030E+000,-5.97366E-001,3.28953E-003,3.68899E+000,1.18349E-002,4.94312E-001,0,5.61893E+001,-9.81106E+000,9.99060E-001,1.22286E+001,-4.58093E+001,9.98807E-001,1.21098E-001,-5.01615E-002,-2.92241E-003,1.21148E-001,-5.02114E-002,-9.77329E-001,1.21737E-001,1.12873E+000,-4.90477E-003,0.00000E+000,-1.33993E-003,9.54430E-001,0.00000E+000,-1.60704E-003,-8.39578E-002,1.00000E+000,18
849,1357,-1.81092E+000,1.30731E+000,3.39584E-002,3.64129E+000,-6.25635E-001,-4.12243E-002,3.69487E+000,9.88250E-003,4.92067E-001,0,5.63370E+001,-1.01663E+001,9.99136E-001,1.29146E+001,-4.62290E+001,9.99035E-001,1.20474E-001,-5.01614E-002,-2.93575E-003,1.20525E-001,-5.02119E-002,-9.85371E-001,1.21082E-001,1.12803E+000,-4.93622E-003,0.00000E+000,-1.21084E-003,9.54436E-001,0.00000E+000,-3.18054E-003,-8.40284E-002,1.00000E+000,18
849,1327,-1.87225E+000,-5.41293E-001,4.10465E-002,3.64494E+000,-5.29804E-001,9.28235E-002,3.68441E+000,1.28993E-002,5.40536E-001,0,5.59742E+001,-8.91938E+000,9.98991E-001,1.16434E+001,-4.47346E+001,9.98706E-001,1.22325E-001,-5.01616E-002,-2.90761E-003,1.22374E-001,-5.02106E-002,-9.65471E-001,1.23028E-001,1.13012E+000,-4.86817E-003,0.00000E+000,-1.59559E-003,9.54423E-001,0.00000E+000,1.50933E-003,-8.38755E-002,1.00000E+000,18
1009,1337,9.88720E+000,3.14665E-001,-3.68529E-002,4.94109E+000,-4.19578E-001,-5.00301E-002,4.95913E+000,1.32566E-002,4.23917E-001,0,7.54918E+001,-7.07100E+000,9.99358E-001,3.33817E+001,-3.98198E+001,9.99228E-001,1.15723E-001,-4.77935E-002,8.30202E-004,1.15728E-001,-4.77977E-002,2.90890E-001,1.16310E-001,1.12236E+000,-2.79620E-002,0.00000E+000,2.57918E-002,9.55124E-001,0.00000E+000,-8.02976E-003,-6.68584E-002,1.00000E+000,18
1009,1347,9.89593E+000,9.25952E-001,-2.60367E-002,4.92235E+000,-4.61326E-001,-9.41424E-002,4.94482E+000,8.91938E-003,3.97912E-001,0,7.53590E+001,-7.64529E+000,9.99722E-001,3.36239E+001,-4.04017E+001,9.99485E-001,1.15661E-001,-4.77774E-002,9.46566E-004,1.15667E-001,-4.77829E-002,3.31817E-001,1.16248E-001,1.12228E+000,-2.79654E-002,0.00000E+000,2.59010E-002,9.55128E-001,0.00000E+000,-6.17824E-003,-6.67803E-002,1.00000E+000,18
1009,1297,9.91630E+000,-2.13763E+000,2.05419E-001,5.01110E+000,-3.00747E-001,1.10881E-001,5.02135E+000,1.06164E-002,4.27275E-001,0,7.59689E+001,-5.48757E+000,9.98098E-001,3.39611E+001,-3.82838E+001,9.96822E-001,1.15936E-001,-4.78326E-002,3.63132E-004,1.15937E-001,-4.78334E-002,1.27043E-001,1.16526E-001,1.12268E+000,-2.79569E-002,0.00000E+000,2.53583E-002,9.55117E-001,0.00000E+000,-1.53821E-002,-6.69749E-002,1.00000E+000,18
1009,1307,9.90195E+000,-1.52684E+000,1.14618E-001,4.99141E+000,-3.29393E-001,6.16957E-002,5.00264E+000,1.03205E-002,4.37753E-001,0,7.58520E+001,-5.85748E+000,9.98835E-001,3.36473E+001,-3.86329E+001,9.98790E-001,1.15888E-001,-4.78246E-002,4.79985E-004,1.15890E-001,-4.78260E-002,1.67982E-001,1.16477E-001,1.12260E+000,-2.79576E-002,0.00000E+000,2.54664E-002,9.55118E-001,0.00000E+000,-1.35491E-002,-6.69596E-002,1.00000E+000,18
1009,1317,9.89386E+000,-9.17725E-001,4.76487E-002,4.97560E+000,-3.61616E-001,2.61084E-002,4.98880E+000,1.05882E-002,4.53935E-001,0,7.57447E+001,-6.30796E+000,9.99085E-001,3.34765E+001,-3.90550E+001,9.98847E-001,1.15837E-001,-4.78158E-002,5.96834E-004,1.15839E-001,-4.78180E-002,2.08952E-001,1.16425E-001,1.12252E+000,-2.79585E-002,0.00000E+000,2.55747E-002,9.55119E-001,0.00000E+000,-1.17128E-002,-6.69376E-002,1.00000E+000,18
849,1317,-1.88770E+000,-1.14509E+000,1.12021E-001,3.64167E+000,-4.92631E-001,1.59834E-001,3.67831E+000,1.38562E-002,6.01470E-001,0,5.57040E+001,-8.49045E+000,9.98701E-001,1.14593E+001,-4.41745E+001,9.97743E-001,1.22932E-001,-5.01617E-002,-2.90270E-003,1.22981E-001,-5.02104E-002,-9.60463E-001,1.23669E-001,1.13081E+000,-4.85534E-003,0.00000E+000,-1.72303E-003,9.54421E-001,0.00000E+000,3.06265E-003,-8.38467E-002,1.00000E+000,18
1009,1327,9.88969E+000,-3.04528E-001,4.59681E-003,4.95680E+000,-3.94046E-001,-1.58038E-002,4.97246E+000,1.06490E-002,4.54245E-001,0,7.56093E+001,-6.74083E+000,9.99340E-001,3.34139E+001,-3.94738E+001,9.99231E-001,1.15782E-001,-4.78044E-002,7.13603E-004,1.15785E-001,-4.78075E-002,2.49932E-001,1.16369E-001,1.12244E+000,-2.79603E-002,0.00000E+000,2.56833E-002,9.55121E-001,0.00000E+000,-9.87062E-003,-6.68960E-002,1.00000E+000,18
849,1307,-1.90005E+000,-1.74707E+000,2.12021E-001,3.63366E+000,-4.58397E-001,2.17558E-001,3.66892E+000,1.60706E-002,5.66895E-001,0,5.53873E+001,-8.04855E+000,9.98506E-001,1.13920E+001,-4.36951E+001,9.97674E-001,1.23535E-001,-5.01617E-002,-2.90137E-003,1.23583E-001,-5.02102E-002,-9.56694E-001,1.24305E-001,1.13150E+000,-4.85065E-003,0.00000E+000,-1.85002E-003,9.54420E-001,0.00000E+000,4.61059E-003,-8.38361E-002,1.00000E+000,18
839,1337,-2.59123E+000,5.97401E-002,2.78808E-002,3.55734E+000,-5.67617E-001,5.92877E-002,3.60283E+000,2.50602E-002,5.48625E-001,0,5.47729E+001,-9.45262E+000,9.99083E-001,1.06485E+001,-4.55300E+001,9.98345E-001,1.21796E-001,-5.01857E-002,-2.49553E-003,1.21832E-001,-5.02219E-002,-8.31154E-001,1.22456E-001,1.12952E+000,-3.93421E-003,0.00000E+000,-1.42713E-003,9.54295E-001,0.00000E+000,-5.33011E-004,-8.25672E-002,1.00000E+000,18
839,1347,-2.57568E+000,6.74084E-001,-1.39758E-003,3.55534E+000,-5.97505E-001,6.81959E-003,3.60521E+000,9.99228E-003,4.89718E-001,0,5.49079E+001,-9.81046E+000,9.99127E-001,1.09349E+001,-4.60211E+001,9.98763E-001,1.21352E-001,-5.01853E-002,-2.49381E-003,1.21389E-001,-5.02216E-002,-8.32730E-001,1.21989E-001,1.12902E+000,-3.94755E-003,0.00000E+000,-1.28780E-003,9.54298E-001,0.00000E+000,-2.10724E-003,-8.26093E-002,1.00000E+000,18
839,1357,-2.54382E+000,1.30464E+000,3.26107E-002,3.55823E+000,-6.21049E-001,-3.82188E-002,3.61223E+000,7.98511E-003,4.78091E-001,0,5.50848E+001,-1.00882E+001,9.99328E-001,1.16247E+001,-4.63788E+001,9.99101E-001,1.20902E-001,-5.01846E-002,-2.49592E-003,1.20938E-001,-5.02210E-002,-8.35631E-001,1.21516E-001,1.12852E+000,-3.96950E-003,0.00000E+000,-1.14711E-003,9.54304E-001,0.00000E+000,-3.69670E-003,-8.26785E-002,1.00000E+000,18
1019,1337,1.06314E+001,3.42381E-001,-2.97106E-002,5.02499E+000,-4.02129E-001,-6.10851E-002,5.04142E+000,1.13726E-002,4.96814E-001,0,7.67437E+001,-6.80359E+000,9.99287E-001,3.49390E+001,-3.92711E+001,9.99146E-001,1.15623E-001,-4.77664E-002,5.78651E-004,1.15625E-001,-4.77684E-002,2.02912E-001,1.16205E-001,1.12223E+000,-2.80585E-002,0.00000E+000,2.52754E-002,9.55072E-001,0.00000E+000,-6.24639E-003,-6.54649E-002,1.00000E+000,18
1019,1347,1.06327E+001,9.53600E-001,-2.77824E-002,5.00437E+000,-4.41100E-001,-8.89006E-002,5.02456E+000,1.04243E-002,4.51984E-001,0,7.65277E+001,-7.35262E+000,9.99479E-001,3.50463E+001,-3.98434E+001,9.99339E-001,1.15696E-001,-4.77536E-002,6.88761E-004,1.15699E-001,-4.77565E-002,2.41433E-001,1.16285E-001,1.12231E+000,-2.80560E-002,0.00000E+000,2.53831E-002,9.55076E-001,0.00000E+000,-4.65367E-003,-6.54115E-002,1.00000E+000,18
839,1327,-2.61708E+000,-5.41358E-001,4.50647E-002,3.55109E+000,-5.22475E-001,1.09462E-001,3.59099E+000,2.25421E-002,5.54549E-001,0,5.45147E+001,-8.83627E+000,9.99336E-001,1.01780E+001,-4.48382E+001,9.98558E-001,1.22237E-001,-5.01862E-002,-2.49667E-003,1.22274E-001,-5.02224E-002,-8.29402E-001,1.22921E-001,1.13002E+000,-3.91933E-003,0.00000E+000,-1.56676E-003,9.54290E-001,0.00000E+000,1.04457E-003,-8.25202E-002,1.00000E+000,18
1019,1327,1.06273E+001,-2.81639E-001,-7.00945E-003,5.03915E+000,-3.77415E-001,-2.43278E-002,5.05332E+000,1.08366E-002,4.56314E-001,0,7.68319E+001,-6.46638E+000,9.99140E-001,3.48334E+001,-3.89967E+001,9.99047E-001,1.15547E-001,-4.77780E-002,4.68638E-004,1.15548E-001,-4.77793E-002,1.64401E-001,1.16123E-001,1.12216E+000,-2.80607E-002,0.00000E+000,2.51677E-002,9.55069E-001,0.00000E+000,-7.83837E-003,-6.55096E-002,1.00000E+000,18
1019,1317,1.06324E+001,-8.97576E-001,4.34508E-002,5.05524E+000,-3.48732E-001,8.89053E-003,5.06726E+000,1.15844E-002,4.54064E-001,0,7.69551E+001,-6.08741E+000,9.99309E-001,3.49240E+001,-3.86390E+001,9.98829E-001,1.15469E-001,-4.77872E-002,3.59205E-004,1.15469E-001,-4.77880E-002,1.26065E-001,1.16039E-001,1.12208E+000,-2.80620E-002,0.00000E+000,2.50603E-002,9.55067E-001,0.00000E+000,-9.42588E-003,-6.55367E-002,1.00000E+000,18
839,1317,-2.62436E+000,-1.14471E+000,1.13359E-001,3.55177E+000,-4.86487E-001,1.53499E-001,3.58822E+000,1.16942E-002,5.44182E-001,0,5.43784E+001,-8.36338E+000,9.98746E-001,1.01141E+001,-4.42982E+001,9.97121E-001,1.22674E-001,-5.01864E-002,-2.50165E-003,1.22710E-001,-5.02226E-002,-8.28957E-001,1.23382E-001,1.13052E+000,-3.91322E-003,0.00000E+000,-1.70571E-003,9.54289E-001,0.00000E+000,2.61440E-003,-8.25010E-002,1.00000E+000,18
1019,1297,1.06501E+001,-2.11429E+000,1.86768E-001,5.08936E+000,-2.82339E-001,9.28618E-002,5.09803E+000,1.12570E-002,4.26172E-001,0,7.71594E+001,-5.17794E+000,9.99306E-001,3.53087E+001,-3.77925E+001,9.98512E-001,1.15305E-001,-4.78035E-002,1.41099E-004,1.15305E-001,-4.78036E-002,4.95645E-002,1.15865E-001,1.12193E+000,-2.80639E-002,0.00000E+000,2.48463E-002,9.55064E-001,0.00000E+000,-1.25903E-002,-6.55767E-002,1.00000E+000,18
1019,1307,1.06364E+001,-1.50553E+000,1.00356E-001,5.06948E+000,-3.15294E-001,4.49739E-002,5.07947E+000,1.45088E-002,4.85015E-001,0,7.70374E+001,-5.61636E+000,9.99402E-001,3.50129E+001,-3.81562E+001,9.98673E-001,1.15388E-001,-4.77960E-002,2.50219E-004,1.15389E-001,-4.77964E-002,8.78545E-002,1.15953E-001,1.12201E+000,-2.80631E-002,0.00000E+000,2.49535E-002,9.55065E-001,0.00000E+000,-1.10061E-002,-6.55616E-002,1.00000E+000,18
839,1307,-2.63021E+000,-1.74365E+000,2.09934E-001,3.54975E+000,-4.49388E-001,2.05477E-001,3.58398E+000,1.03295E-002,5.25158E-001,0,5.41722E+001,-7.87931E+000,9.98317E-001,1.01402E+001,-4.37540E+001,9.96847E-001,1.23107E-001,-5.01866E-002,-2.50799E-003,1.23143E-001,-5.02228E-002,-8.28982E-001,1.23839E-001,1.13102E+000,-3.91023E-003,0.00000E+000,-1.84423E-003,9.54288E-001,0.00000E+000,4.17939E-003,-8.24915E-002,1.00000E+000,18
829,1337,-3.32864E+000,5.85967E-002,1.47695E-002,3.46936E+000,-5.60889E-001,5.25005E-002,3.51480E+000,1.81859E-002,5.41335E-001,0,5.34756E+001,-9.33500E+000,9.98432E-001,9.26245E+000,-4.56246E+001,9.97596E-001,1.21496E-001,-5.01381E-002,-2.07017E-003,1.21521E-001,-5.01631E-002,-6.90941E-001,1.22136E-001,1.12919E+000,-3.23854E-003,0.00000E+000,-1.14129E-003,9.54235E-001,0.00000E+000,-1.26127E-003,-8.12380E-002,1.00000E+000,18
829,1347,-3.30653E+000,6.74144E-001,7.70638E-003,3.47150E+000,-5.92710E-001,9.71367E-003,3.52175E+000,8.89410E-003,5.21022E-001,0,5.36413E+001,-9.74034E+000,9.98398E-001,9.70372E+000,-4.61274E+001,9.98292E-001,1.21174E-001,-5.01413E-002,-2.12644E-003,1.21200E-001,-5.01677E-002,-7.11033E-001,1.21798E-001,1.12883E+000,-3.24951E-003,0.00000E+000,-1.10582E-003,9.54236E-001,0.00000E+000,-2.98459E-003,-8.12906E-002,1.00000E+000,18
829,1357,-3.27770E+000,1.30214E+000,3.49272E-002,3.47302E+000,-6.17688E-001,-3.50857E-002,3.52769E+000,8.78926E-003,5.15666E-001,0,5.37971E+001,-1.00416E+001,9.99046E-001,1.03326E+001,-4.65086E+001,9.99039E-001,1.20847E-001,-5.01457E-002,-2.18486E-003,1.20875E-001,-5.01736E-002,-7.31938E-001,1.21455E-001,1.12846E+000,-3.26450E-003,0.00000E+000,-1.07017E-003,9.54238E-001,0.00000E+000,-4.71664E-003,-8.13624E-002,1.00000E+000,18
1029,1337,1.13580E+001,3.59405E-001,-3.78015E-002,5.09662E+000,-3.89591E-001,-6.20697E-002,5.11186E+000,1.03802E-002,4.79889E-001,0,7.77776E+001,-6.62048E+000,9.98907E-001,3.61956E+001,-3.89018E+001,9.98416E-001,1.15620E-001,-4.75903E-002,3.84764E-004,1.15621E-001,-4.75912E-002,1.35072E-001,1.16222E-001,1.12222E+000,-2.79937E-002,0.00000E+000,2.47345E-002,9.55186E-001,0.00000E+000,-4.38187E-003,-6.44077E-002,1.00000E+000,18
1029,1347,1.13611E+001,9.83331E-001,-3.61516E-002,5.07675E+000,-4.17662E-001,-9.39802E-002,5.09477E+000,9.93396E-003,4.86432E-001,0,7.75839E+001,-7.00257E+000,9.99165E-001,3.63304E+001,-3.92493E+001,9.98558E-001,1.15807E-001,-4.75765E-002,5.03966E-004,1.15809E-001,-4.75780E-002,1.76730E-001,1.16421E-001,1.12243E+000,-2.79865E-002,0.00000E+000,2.48612E-002,9.55190E-001,0.00000E+000,-2.89397E-003,-6.43556E-002,1.00000E+000,18
1029,1327,1.13623E+001,-2.60668E-001,-1.00878E-002,5.11667E+000,-3.61782E-001,-3.18762E-002,5.12955E+000,1.07459E-002,4.60118E-001,0,7.79751E+001,-6.24118E+000,9.98939E-001,3.62321E+001,-3.85675E+001,9.98750E-001,1.15432E-001,-4.76015E-002,2.66763E-004,1.15432E-001,-4.76019E-002,9.37500E-002,1.16021E-001,1.12202E+000,-2.79987E-002,0.00000E+000,2.46082E-002,9.55183E-001,0.00000E+000,-5.86554E-003,-6.44435E-002,1.00000E+000,18
829,1327,-3.34835E+000,-5.43567E-001,4.36675E-002,3.46525E+000,-5.19556E-001,9.54337E-002,3.50528E+000,1.66141E-002,5.44594E-001,0,5.32733E+001,-8.76446E+000,9.99090E-001,8.91316E+000,-4.49735E+001,9.98672E-001,1.21814E-001,-5.01355E-002,-2.01525E-003,1.21838E-001,-5.01592E-002,-6.71385E-001,1.22469E-001,1.12954E+000,-3.22996E-003,0.00000E+000,-1.17662E-003,9.54234E-001,0.00000E+000,4.55441E-004,-8.11969E-002,1.00000E+000,18
829,1307,-3.35312E+000,-1.74993E+000,2.28343E-001,3.47277E+000,-4.50780E-001,2.14392E-001,3.50846E+000,1.22341E-002,4.68781E-001,0,5.29979E+001,-7.89865E+000,9.98711E-001,9.05154E+000,-4.40125E+001,9.96956E-001,1.22438E-001,-5.01334E-002,-1.91054E-003,1.22459E-001,-5.01545E-002,-6.34218E-001,1.23125E-001,1.13026E+000,-3.22313E-003,0.00000E+000,-1.24696E-003,9.54234E-001,0.00000E+000,3.87332E-003,-8.11642E-002,1.00000E+000,18
829,1317,-3.35513E+000,-1.14756E+000,1.18531E-001,3.46770E+000,-4.84057E-001,1.52765E-001,3.50465E+000,1.37401E-002,4.86484E-001,0,5.31239E+001,-8.29567E+000,9.98756E-001,8.87283E+000,-4.44793E+001,9.98117E-001,1.22128E-001,-5.01340E-002,-1.96207E-003,1.22150E-001,-5.01563E-002,-6.52489E-001,1.22799E-001,1.12990E+000,-3.22486E-003,0.00000E+000,-1.21184E-003,9.54234E-001,0.00000E+000,2.16688E-003,-8.11725E-002,1.00000E+000,18
1029,1317,1.13676E+001,-8.78450E-001,3.67440E-002,5.13336E+000,-3.36396E-001,-1.08497E-003,5.14437E+000,1.20299E-002,4.46901E-001,0,7.81169E+001,-5.87349E+000,9.99278E-001,3.63203E+001,-3.82377E+001,9.98653E-001,1.15242E-001,-4.76111E-002,1.49868E-004,1.15242E-001,-4.76113E-002,5.27275E-002,1.15820E-001,1.12181E+000,-2.80023E-002,0.00000E+000,2.44826E-002,9.55180E-001,0.00000E+000,-7.34152E-003,-6.44695E-002,1.00000E+000,18
1029,1307,1.13771E+001,-1.48615E+000,1.09699E-001,5.15162E+000,-3.02795E-001,4.47011E-002,5.16071E+000,1.11241E-002,4.79732E-001,0,7.82225E+001,-5.43103E+000,9.99409E-001,3.65237E+001,-3.77853E+001,9.97406E-001,1.15050E-001,-4.76199E-002,3.34371E-005,1.15050E-001,-4.76199E-002,1.17773E-002,1.15617E-001,1.12161E+000,-2.80051E-002,0.00000E+000,2.43571E-002,9.55179E-001,0.00000E+000,-8.81508E-003,-6.44896E-002,1.00000E+000,18
1029,1297,1.13893E+001,-2.09131E+000,1.93490E-001,5.17051E+000,-2.66214E-001,9.17134E-002,5.17817E+000,1.02398E-002,4.70695E-001,0,7.83302E+001,-4.95180E+000,9.99224E-001,3.67919E+001,-3.73371E+001,9.97794E-001,1.14855E-001,-4.76279E-002,-8.29677E-005,1.14855E-001,-4.76279E-002,-2.92566E-002,1.15411E-001,1.12140E+000,-2.80072E-002,0.00000E+000,2.42314E-002,9.55177E-001,0.00000E+000,-1.02912E-002,-6.45047E-002,1.00000E+000,18
819,1317,-4.08350E+000,-1.15715E+000,1.25445E-001,3.38489E+000,-4.89156E-001,1.50131E-001,3.42334E+000,1.33548E-002,4.84938E-001,0,5.18947E+001,-8.36540E+000,9.98530E-001,7.67588E+000,-4.47399E+001,9.97296E-001,1.21263E-001,-4.99345E-002,-1.52088E-003,1.21276E-001,-4.99480E-002,-5.08948E-001,1.21903E-001,1.12892E+000,-2.88814E-003,0.00000E+000,-6.03649E-004,9.54291E-001,0.00000E+000,1.61890E-003,-7.94439E-002,1.00000E+000,18
819,1327,-4.07928E+000,-5.54684E-001,4.82430E-002,3.38217E+000,-5.24118E-001,1.01386E-001,3.42404E+000,1.32426E-002,4.94585E-001,0,5.20127E+001,-8.82449E+000,9.98965E-001,7.67103E+000,-4.52792E+001,9.97818E-001,1.21034E-001,-4.99369E-002,-1.62370E-003,1.21049E-001,-4.99524E-002,-5.44070E-001,1.21663E-001,1.12866E+000,-2.89095E-003,0.00000E+000,-6.71589E-004,9.54291E-001,0.00000E+000,-4.95264E-005,-7.94619E-002,1.00000E+000,18
819,1337,-4.06169E+000,5.73980E-002,1.17317E-002,3.38496E+000,-5.55797E-001,5.42453E-002,3.43071E+000,1.08668E-002,5.39992E-001,0,5.22045E+001,-9.24440E+000,9.98515E-001,7.97172E+000,-4.57387E+001,9.98180E-001,1.20801E-001,-4.99418E-002,-1.72858E-003,1.20818E-001,-4.99593E-002,-5.79978E-001,1.21419E-001,1.12840E+000,-2.89691E-003,0.00000E+000,-7.39940E-004,9.54289E-001,0.00000E+000,-1.72806E-003,-7.95002E-002,1.00000E+000,18
819,1307,-4.08872E+000,-1.75579E+000,2.17022E-001,3.38356E+000,-4.53752E-001,1.98096E-001,3.41959E+000,1.31046E-002,5.25021E-001,0,5.17148E+001,-7.90275E+000,9.98696E-001,7.70075E+000,-4.41473E+001,9.97305E-001,1.21488E-001,-4.99330E-002,-1.41900E-003,1.21500E-001,-4.99448E-002,-4.74241E-001,1.22139E-001,1.12918E+000,-2.88655E-003,0.00000E+000,-5.35967E-004,9.54292E-001,0.00000E+000,3.28101E-003,-7.94337E-002,1.00000E+000,18
819,1347,-4.03674E+000,6.77327E-001,8.29800E-003,3.38972E+000,-5.83571E-001,1.32127E-002,3.43961E+000,1.00622E-002,5.38617E-001,0,5.24028E+001,-9.59593E+000,9.99029E-001,8.46763E+000,-4.61738E+001,9.99043E-001,1.20564E-001,-4.99484E-002,-1.83486E-003,1.20583E-001,-4.99681E-002,-6.16457E-001,1.21171E-001,1.12814E+000,-2.90504E-003,0.00000E+000,-8.08530E-004,9.54287E-001,0.00000E+000,-3.41245E-003,-7.95523E-002,1.00000E+000,18
819,1357,-4.01020E+000,1.29396E+000,3.83392E-002,3.38861E+000,-6.19894E-001,-3.15695E-002,3.44499E+000,1.21420E-002,5.29793E-001,0,5.25207E+001,-1.00746E+001,9.98815E-001,9.06805E+000,-4.67402E+001,9.98743E-001,1.20323E-001,-4.99573E-002,-1.94305E-003,1.20345E-001,-4.99794E-002,-6.53684E-001,1.20919E-001,1.12787E+000,-2.91615E-003,0.00000E+000,-8.77428E-004,9.54284E-001,0.00000E+000,-5.10441E-003,-7.96236E-002,1.00000E+000,18
1039,1337,1.20941E+001,3.81907E-001,-4.68268E-002,5.17573E+000,-3.73934E-001,-7.08387E-002,5.18971E+000,9.66525E-003,4.97288E-001,0,7.89494E+001,-6.36982E+000,9.99111E-001,3.76038E+001,-3.84273E+001,9.98165E-001,1.15612E-001,-4.73046E-002,3.77529E-005,1.15612E-001,-4.73046E-002,1.32772E-002,1.16246E-001,1.12221E+000,-2.79409E-002,0.00000E+000,2.39259E-002,9.55431E-001,0.00000E+000,-2.66040E-003,-6.36593E-002,1.00000E+000,18
1039,1347,1.20963E+001,9.95791E-001,-4.00512E-002,5.15528E+000,-4.09967E-001,-9.58491E-002,5.17244E+000,9.37161E-003,4.30902E-001,0,7.87255E+001,-6.88547E+000,9.99502E-001,3.77317E+001,-3.89763E+001,9.99024E-001,1.15891E-001,-4.72960E-002,1.17987E-004,1.15891E-001,-4.72961E-002,4.14260E-002,1.16541E-001,1.12253E+000,-2.79301E-002,0.00000E+000,2.39821E-002,9.55433E-001,0.00000E+000,-1.30870E-003,-6.36126E-002,1.00000E+000,18
1039,1317,1.21009E+001,-8.51480E-001,3.01517E-002,5.21080E+000,-3.14202E-001,-3.66362E-003,5.22027E+000,9.69960E-003,4.49751E-001,0,7.92371E+001,-5.54393E+000,9.99134E-001,3.76919E+001,-3.77105E+001,9.98477E-001,1.15050E-001,-4.73181E-002,-1.19289E-004,1.15050E-001,-4.73182E-002,-4.20943E-002,1.15652E-001,1.12159E+000,-2.79544E-002,0.00000E+000,2.38136E-002,9.55428E-001,0.00000E+000,-5.36087E-003,-6.37177E-002,1.00000E+000,18
1039,1327,1.20977E+001,-2.39717E-001,-1.54010E-002,5.19544E+000,-3.45972E-001,-3.62359E-002,5.20708E+000,9.02050E-003,4.44572E-001,0,7.91246E+001,-6.00228E+000,9.99174E-001,3.76378E+001,-3.81434E+001,9.98478E-001,1.15331E-001,-4.73118E-002,-4.14159E-005,1.15331E-001,-4.73118E-002,-1.45900E-002,1.15949E-001,1.12190E+000,-2.79486E-002,0.00000E+000,2.38696E-002,9.55429E-001,0.00000E+000,-4.01573E-003,-6.36925E-002,1.00000E+000,18
1039,1307,1.21110E+001,-1.46507E+000,9.21778E-002,5.23026E+000,-2.85690E-001,3.30776E-002,5.23816E+000,9.95287E-003,4.46816E-001,0,7.93952E+001,-5.14727E+000,9.99136E-001,3.78847E+001,-3.73454E+001,9.98320E-001,1.14767E-001,-4.73237E-002,-1.96573E-004,1.14767E-001,-4.73239E-002,-6.94842E-002,1.15354E-001,1.12128E+000,-2.79589E-002,0.00000E+000,2.37578E-002,9.55428E-001,0.00000E+000,-6.70486E-003,-6.37371E-002,1.00000E+000,18
1039,1297,1.21253E+001,-2.07353E+000,1.80431E-001,5.25061E+000,-2.52925E-001,8.20821E-002,5.25734E+000,9.99452E-003,4.38571E-001,0,7.95175E+001,-4.72576E+000,9.98766E-001,3.81913E+001,-3.69592E+001,9.98097E-001,1.14483E-001,-4.73286E-002,-2.73254E-004,1.14483E-001,-4.73291E-002,-9.67564E-002,1.15054E-001,1.12097E+000,-2.79618E-002,0.00000E+000,2.37019E-002,9.55427E-001,0.00000E+000,-8.04914E-003,-6.37498E-002,1.00000E+000,18
1049,1337,1.28373E+001,4.03740E-001,-4.85917E-002,5.26085E+000,-3.56919E-001,-7.53273E-002,5.27348E+000,1.39883E-002,4.64917E-001,0,8.01932E+001,-6.12222E+000,9.99594E-001,3.91401E+001,-3.80032E+001,9.98736E-001,1.15563E-001,-4.72463E-002,-4.41882E-004,1.15564E-001,-4.72475E-002,-1.55506E-001,1.16202E-001,1.12216E+000,-2.78486E-002,0.00000E+000,2.28520E-002,9.55437E-001,0.00000E+000,-1.34566E-003,-6.24318E-002,1.00000E+000,18
1049,1347,1.28458E+001,1.02239E+000,-3.21059E-002,5.24421E+000,-3.92120E-001,-1.00159E-001,5.25981E+000,1.14099E-002,4.60023E-001,0,8.00250E+001,-6.62164E+000,9.99428E-001,3.93821E+001,-3.84670E+001,9.98417E-001,1.15951E-001,-4.72430E-002,-4.03325E-004,1.15952E-001,-4.72440E-002,-1.41602E-001,1.16612E-001,1.12260E+000,-2.78320E-002,0.00000E+000,2.28452E-002,9.55437E-001,0.00000E+000,-3.79396E-004,-6.23950E-002,1.00000E+000,18
1049,1307,1.28525E+001,-1.44053E+000,1.03542E-001,5.31206E+000,-2.66761E-001,3.38900E-002,5.31886E+000,1.30865E-002,3.97249E-001,0,8.05645E+001,-4.86551E+000,9.99301E-001,3.94201E+001,-3.69213E+001,9.98399E-001,1.14400E-001,-4.72531E-002,-5.45672E-004,1.14402E-001,-4.72550E-002,-1.93403E-001,1.14977E-001,1.12086E+000,-2.78726E-002,0.00000E+000,2.28721E-002,9.55438E-001,0.00000E+000,-4.22160E-003,-6.24848E-002,1.00000E+000,18
1049,1317,1.28415E+001,-8.27117E-001,4.50733E-002,5.29133E+000,-2.96290E-001,-5.76860E-004,5.29962E+000,1.22719E-002,4.18230E-001,0,8.03800E+001,-5.28561E+000,9.98807E-001,3.92200E+001,-3.72865E+001,9.96985E-001,1.14788E-001,-4.72511E-002,-5.11755E-004,1.14790E-001,-4.72527E-002,-1.80950E-001,1.15385E-001,1.12129E+000,-2.78661E-002,0.00000E+000,2.28655E-002,9.55438E-001,0.00000E+000,-3.26471E-003,-6.24705E-002,1.00000E+000,18
1049,1327,1.28349E+001,-2.19796E-001,-1.68305E-002,5.27567E+000,-3.32154E-001,-3.59443E-002,5.28624E+000,7.82246E-003,4.20707E-001,0,8.02782E+001,-5.78430E+000,9.99281E-001,3.90823E+001,-3.77478E+001,9.97690E-001,1.15175E-001,-4.72490E-002,-4.78034E-004,1.15177E-001,-4.72504E-002,-1.68627E-001,1.15793E-001,1.12172E+000,-2.78601E-002,0.00000E+000,2.28587E-002,9.55438E-001,0.00000E+000,-2.30720E-003,-6.24571E-002,1.00000E+000,18
809,1347,-4.77617E+000,6.65039E-001,3.30691E-003,3.29863E+000,-5.88361E-001,1.26248E-002,3.35071E+000,8.24554E-003,5.23939E-001,0,5.10364E+001,-9.66226E+000,9.99472E-001,7.07794E+000,-4.64639E+001,9.99362E-001,1.19887E-001,-4.97317E-002,-1.54502E-003,1.19901E-001,-4.97458E-002,-5.21840E-001,1.20478E-001,1.12737E+000,-2.79865E-003,0.00000E+000,-3.27291E-004,9.54361E-001,0.00000E+000,-3.68718E-003,-7.77801E-002,1.00000E+000,18
809,1357,-4.74924E+000,1.28665E+000,4.02675E-002,3.29741E+000,-6.20560E-001,-2.87499E-002,3.35542E+000,1.02139E-002,5.27209E-001,0,5.11396E+001,-1.00813E+001,9.99254E-001,7.70425E+000,-4.69645E+001,9.98725E-001,1.19764E-001,-4.97473E-002,-1.72416E-003,1.19781E-001,-4.97648E-002,-5.82697E-001,1.20351E-001,1.12724E+000,-2.80423E-003,0.00000E+000,-5.41969E-004,9.54352E-001,0.00000E+000,-5.34748E-003,-7.78515E-002,1.00000E+000,18
809,1327,-4.81276E+000,-5.66569E-001,3.62078E-002,3.29610E+000,-5.32021E-001,9.10041E-002,3.34000E+000,9.46540E-003,5.42390E-001,0,5.07567E+001,-8.90914E+000,9.99308E-001,6.35302E+000,-4.55125E+001,9.97876E-001,1.20121E-001,-4.97124E-002,-1.19255E-003,1.20130E-001,-4.97208E-002,-4.02296E-001,1.20722E-001,1.12763E+000,-2.79188E-003,0.00000E+000,9.78200E-005,9.54372E-001,0.00000E+000,-3.99414E-004,-7.76935E-002,1.00000E+000,18
809,1337,-4.79355E+000,4.69517E-002,1.48934E-002,3.30022E+000,-5.60887E-001,5.67090E-002,3.34802E+000,7.10316E-003,5.31364E-001,0,5.09266E+001,-9.30825E+000,9.99364E-001,6.71716E+000,-4.60124E+001,9.99278E-001,1.20005E-001,-4.97210E-002,-1.36831E-003,1.20016E-001,-4.97321E-002,-4.61868E-001,1.20602E-001,1.12750E+000,-2.79488E-003,0.00000E+000,-1.14409E-004,9.54367E-001,0.00000E+000,-2.04077E-003,-7.77319E-002,1.00000E+000,18
809,1307,-4.82337E+000,-1.75952E+000,2.14863E-001,3.29629E+000,-4.52568E-001,1.97875E-001,3.33309E+000,1.57908E-002,5.79340E-001,0,5.04078E+001,-7.89292E+000,9.96836E-001,6.39126E+000,-4.42697E+001,9.95462E-001,1.20344E-001,-4.97054E-002,-8.44577E-004,1.20348E-001,-4.97096E-002,-2.84560E-001,1.20953E-001,1.12789E+000,-2.78973E-003,0.00000E+000,5.20176E-004,9.54376E-001,0.00000E+000,2.86704E-003,-7.76659E-002,1.00000E+000,18
809,1317,-4.81638E+000,-1.16340E+000,1.17609E-001,3.29959E+000,-4.91441E-001,1.45168E-001,3.33914E+000,1.42161E-002,5.54807E-001,0,5.06331E+001,-8.38672E+000,9.99055E-001,6.37854E+000,-4.48829E+001,9.97576E-001,1.20234E-001,-4.97080E-002,-1.01822E-003,1.20240E-001,-4.97141E-002,-3.43274E-001,1.20839E-001,1.12776E+000,-2.79047E-003,0.00000E+000,3.09222E-004,9.54374E-001,0.00000E+000,1.23555E-003,-7.76754E-002,1.00000E+000,18
1049,1297,1.28592E+001,-2.05689E+000,1.77550E-001,5.32735E+000,-2.41074E-001,7.88886E-002,5.33339E+000,1.06147E-002,3.88342E-001,0,8.06284E+001,-4.53003E+000,9.98868E-001,3.95824E+001,-3.66299E+001,9.97324E-001,1.14011E-001,-4.72551E-002,-5.79259E-004,1.14013E-001,-4.72572E-002,-2.05800E-001,1.14568E-001,1.12043E+000,-2.78783E-002,0.00000E+000,2.28788E-002,9.55438E-001,0.00000E+000,-5.17768E-003,-6.24975E-002,1.00000E+000,18
799,1337,-5.52730E+000,3.85851E-002,1.12118E-002,3.21409E+000,-5.62675E-001,5.69641E-002,3.26347E+000,7.46955E-003,5.35518E-001,0,4.96319E+001,-9.33093E+000,9.99411E-001,5.42173E+000,-4.62333E+001,9.99331E-001,1.18915E-001,-4.94946E-002,-9.73439E-004,1.18921E-001,-4.95002E-002,-3.31166E-001,1.19476E-001,1.12627E+000,-2.75308E-003,0.00000E+000,6.27134E-004,9.54457E-001,0.00000E+000,-2.34397E-003,-7.60140E-002,1.00000E+000,18
799,1347,-5.50887E+000,6.55358E-001,7.21327E-004,3.21406E+000,-5.91348E-001,1.57766E-002,3.26805E+000,9.09751E-003,5.31986E-001,0,4.97566E+001,-9.70611E+000,9.99130E-001,5.80236E+000,-4.67071E+001,9.98930E-001,1.18865E-001,-4.95087E-002,-1.20808E-003,1.18874E-001,-4.95173E-002,-4.11066E-001,1.19425E-001,1.12622E+000,-2.75453E-003,0.00000E+000,2.83823E-004,9.54447E-001,0.00000E+000,-3.78490E-003,-7.60551E-002,1.00000E+000,18
799,1357,-5.47848E+000,1.28170E+000,3.97046E-002,3.21637E+000,-6.18495E-001,-2.44834E-002,3.27539E+000,9.46019E-003,5.21553E-001,0,4.99083E+001,-1.00460E+001,9.98985E-001,6.49040E+000,-4.71474E+001,9.98404E-001,1.18813E-001,-4.95296E-002,-1.44503E-003,1.18826E-001,-4.95420E-002,-4.91770E-001,1.19371E-001,1.12617E+000,-2.75673E-003,0.00000E+000,-6.22317E-005,9.54432E-001,0.00000E+000,-5.23734E-003,-7.61176E-002,1.00000E+000,18
799,1327,-5.54067E+000,-5.76801E-001,4.96478E-002,3.21526E+000,-5.35114E-001,1.06138E-001,3.26121E+000,1.54659E-002,5.26017E-001,0,4.94978E+001,-8.99292E+000,9.99428E-001,5.18816E+000,-4.58067E+001,9.98015E-001,1.18962E-001,-4.94833E-002,-7.39481E-004,1.18966E-001,-4.94865E-002,-2.51524E-001,1.19524E-001,1.12633E+000,-2.75194E-003,0.00000E+000,9.69748E-004,9.54464E-001,0.00000E+000,-9.05968E-004,-7.59816E-002,1.00000E+000,18
1059,1327,1.35739E+001,-2.02350E-001,-1.27270E-002,5.35637E+000,-3.21207E-001,-3.36856E-002,5.36610E+000,1.19768E-002,4.23638E-001,0,8.14299E+001,-5.63060E+000,9.99438E-001,4.05679E+001,-3.73891E+001,9.98064E-001,1.15160E-001,-4.74051E-002,-7.65710E-004,1.15164E-001,-4.74087E-002,-2.69865E-001,1.15761E-001,1.12172E+000,-2.73390E-002,0.00000E+000,2.17777E-002,9.55247E-001,0.00000E+000,-8.69097E-004,-6.13576E-002,1.00000E+000,18
1059,1337,1.35780E+001,4.24523E-001,-3.89971E-002,5.34279E+000,-3.43048E-001,-6.92003E-002,5.35424E+000,9.74342E-003,4.49854E-001,0,8.13488E+001,-5.92463E+000,9.99627E-001,4.06626E+001,-3.76121E+001,9.98973E-001,1.15618E-001,-4.74051E-002,-7.54583E-004,1.15622E-001,-4.74086E-002,-2.65196E-001,1.16244E-001,1.12224E+000,-2.73252E-002,0.00000E+000,2.17431E-002,9.55246E-001,0.00000E+000,-2.95237E-004,-6.13421E-002,1.00000E+000,18
1059,1347,1.35890E+001,1.04390E+000,-2.31057E-002,5.32821E+000,-3.76908E-001,-9.56524E-002,5.34238E+000,1.33496E-002,4.45177E-001,0,8.12174E+001,-6.41609E+000,9.99530E-001,4.09395E+001,-3.80616E+001,9.98493E-001,1.16077E-001,-4.74052E-002,-7.40769E-004,1.16081E-001,-4.74085E-002,-2.59610E-001,1.16728E-001,1.12275E+000,-2.73051E-002,0.00000E+000,2.17083E-002,9.55245E-001,0.00000E+000,2.80642E-004,-6.13198E-002,1.00000E+000,18
1059,1297,1.35929E+001,-2.03751E+000,1.68011E-001,5.40544E+000,-2.24809E-001,7.76164E-002,5.41067E+000,1.04683E-002,3.55496E-001,0,8.17505E+001,-4.28698E+000,9.98960E-001,4.09621E+001,-3.62356E+001,9.97136E-001,1.13788E-001,-4.74050E-002,-7.91225E-004,1.13792E-001,-4.74089E-002,-2.81231E-001,1.14318E-001,1.12018E+000,-2.73628E-002,0.00000E+000,2.18812E-002,9.55249E-001,0.00000E+000,-2.58361E-003,-6.13840E-002,1.00000E+000,18
1059,1307,1.35869E+001,-1.42481E+000,9.49697E-002,5.39084E+000,-2.53459E-001,3.35477E-002,5.39690E+000,1.20808E-002,3.51825E-001,0,8.16959E+001,-4.67844E+000,9.99407E-001,4.08129E+001,-3.65900E+001,9.98292E-001,1.14244E-001,-4.74050E-002,-7.83206E-004,1.14248E-001,-4.74088E-002,-2.77595E-001,1.14798E-001,1.12069E+000,-2.73560E-002,0.00000E+000,2.18468E-002,9.55248E-001,0.00000E+000,-2.01396E-003,-6.13764E-002,1.00000E+000,18
1059,1317,1.35757E+001,-8.12625E-001,3.86553E-002,5.37037E+000,-2.85049E-001,3.57710E-003,5.37793E+000,1.34138E-002,3.93198E-001,0,8.15007E+001,-5.13611E+000,9.99143E-001,4.06131E+001,-3.69669E+001,9.96795E-001,1.14702E-001,-4.74050E-002,-7.74958E-004,1.14706E-001,-4.74087E-002,-2.73896E-001,1.15279E-001,1.12121E+000,-2.73486E-002,0.00000E+000,2.18123E-002,9.55248E-001,0.00000E+000,-1.44234E-003,-6.13682E-002,1.00000E+000,18
799,1307,-5.54894E+000,-1.76813E+000,2.24722E-001,3.21650E+000,-4.55538E-001,2.03537E-001,3.25496E+000,2.00338E-002,5.68562E-001,0,4.91963E+001,-7.95356E+000,9.97825E-001,5.25495E+000,-4.45241E+001,9.97400E-001,1.19050E-001,-4.94745E-002,-2.75639E-004,1.19050E-001,-4.94750E-002,-9.37128E-002,1.19615E-001,1.12643E+000,-2.75119E-003,0.00000E+000,1.65014E-003,9.54470E-001,0.00000E+000,1.94973E-003,-7.59603E-002,1.00000E+000,18
799,1317,-5.54875E+000,-1.17302E+000,1.14194E-001,3.21572E+000,-4.93602E-001,1.51037E-001,3.25688E+000,1.72878E-002,5.58949E-001,0,4.93581E+001,-8.43717E+000,9.98793E-001,5.10411E+000,-4.51200E+001,9.97112E-001,1.19007E-001,-4.94762E-002,-5.07013E-004,1.19009E-001,-4.94777E-002,-1.72417E-001,1.19571E-001,1.12638E+000,-2.75127E-003,0.00000E+000,1.31055E-003,9.54469E-001,0.00000E+000,5.24409E-004,-7.59625E-002,1.00000E+000,18
789,1327,-6.26783E+000,-5.82233E-001,5.34740E-002,3.13544E+000,-5.33750E-001,1.15201E-001,3.18263E+000,1.30583E-002,5.48629E-001,0,4.82712E+001,-9.00067E+000,9.99266E-001,4.01704E+000,-4.59869E+001,9.98350E-001,1.17829E-001,-4.92610E-002,-4.45008E-004,1.17830E-001,-4.92622E-002,-1.52594E-001,1.18356E-001,1.12505E+000,-2.82809E-003,0.00000E+000,1.63082E-003,9.54570E-001,0.00000E+000,-1.35306E-003,-7.45072E-002,1.00000E+000,18
789,1337,-6.25428E+000,3.53173E-002,1.48949E-002,3.13391E+000,-5.59407E-001,6.25500E-002,3.18406E+000,9.07639E-003,5.27731E-001,0,4.84087E+001,-9.28570E+000,9.99104E-001,4.25420E+000,-4.63968E+001,9.98983E-001,1.17867E-001,-4.92756E-002,-7.31633E-004,1.17870E-001,-4.92788E-002,-2.50795E-001,1.18396E-001,1.12509E+000,-2.82703E-003,0.00000E+000,1.16856E-003,9.54559E-001,0.00000E+000,-2.58198E-003,-7.45359E-002,1.00000E+000,18
789,1347,-6.23331E+000,6.52224E-001,7.32735E-003,3.13612E+000,-5.88976E-001,2.20687E-002,3.19103E+000,1.02680E-002,5.51039E-001,0,4.85650E+001,-9.67572E+000,9.98771E-001,4.68220E+000,-4.68630E+001,9.98329E-001,1.17903E-001,-4.92933E-002,-1.01917E-003,1.17909E-001,-4.92996E-002,-3.49237E-001,1.18435E-001,1.12514E+000,-2.82571E-003,0.00000E+000,7.04742E-004,9.54546E-001,0.00000E+000,-3.81506E-003,-7.45717E-002,1.00000E+000,18
789,1357,-6.20788E+000,1.27498E+000,3.85503E-002,3.13500E+000,-6.18513E-001,-1.94177E-002,3.19549E+000,9.21863E-003,5.47826E-001,0,4.86685E+001,-1.00532E+001,9.98646E-001,5.27653E+000,-4.73403E+001,9.98196E-001,1.17938E-001,-4.93179E-002,-1.30811E-003,1.17948E-001,-4.93281E-002,-4.48076E-001,1.18473E-001,1.12519E+000,-2.82384E-003,0.00000E+000,2.38397E-004,9.54527E-001,0.00000E+000,-5.05485E-003,-7.46222E-002,1.00000E+000,18
1069,1327,1.43130E+001,-1.86832E-001,-1.98984E-002,5.43786E+000,-3.12372E-001,-3.80115E-002,5.44696E+000,1.30366E-002,4.50994E-001,0,8.26177E+001,-5.49446E+000,9.99352E-001,4.20391E+001,-3.70237E+001,9.97409E-001,1.15184E-001,-4.73756E-002,-1.03611E-003,1.15190E-001,-4.73822E-002,-3.65169E-001,1.15792E-001,1.12176E+000,-2.68614E-002,0.00000E+000,2.07976E-002,9.55250E-001,0.00000E+000,1.27990E-004,-6.05537E-002,1.00000E+000,18
1069,1337,1.43118E+001,4.37969E-001,-4.21841E-002,5.41974E+000,-3.34446E-001,-6.58821E-002,5.43045E+000,8.48753E-003,4.17024E-001,0,8.24411E+001,-5.80237E+000,9.99443E-001,4.20573E+001,-3.73165E+001,9.98340E-001,1.15635E-001,-4.73772E-002,-1.04180E-003,1.15641E-001,-4.73839E-002,-3.66155E-001,1.16268E-001,1.12227E+000,-2.68483E-002,0.00000E+000,2.07544E-002,9.55249E-001,0.00000E+000,3.15842E-004,-6.05489E-002,1.00000E+000,18
1069,1347,1.43198E+001,1.05880E+000,-4.06080E-002,5.40388E+000,-3.66769E-001,-9.88865E-002,5.41722E+000,8.25527E-003,4.34473E-001,0,8.23163E+001,-6.25395E+000,9.99541E-001,4.22610E+001,-3.76994E+001,9.98848E-001,1.16089E-001,-4.73792E-002,-1.04521E-003,1.16095E-001,-4.73859E-002,-3.66328E-001,1.16746E-001,1.12278E+000,-2.68298E-002,0.00000E+000,2.07109E-002,9.55247E-001,0.00000E+000,5.04967E-004,-6.05421E-002,1.00000E+000,18
789,1307,-6.27163E+000,-1.77485E+000,2.28360E-001,3.14133E+000,-4.56088E-001,2.14033E-001,3.18147E+000,1.43807E-002,5.65718E-001,0,4.80403E+001,-7.97580E+000,9.98660E-001,4.15286E+000,-4.47320E+001,9.95889E-001,1.17749E-001,-4.92496E-002,1.24289E-004,1.17749E-001,-4.92497E-002,4.26425E-002,1.18272E-001,1.12496E+000,-2.82877E-003,0.00000E+000,2.54807E-003,9.54577E-001,0.00000E+000,1.08549E-003,-7.44886E-002,1.00000E+000,18
789,1317,-6.27159E+000,-1.18215E+000,1.39304E-001,3.13761E+000,-4.97585E-001,1.68590E-001,3.18129E+000,1.58258E-002,5.33602E-001,0,4.81331E+001,-8.52898E+000,9.98615E-001,4.05167E+000,-4.54239E+001,9.95176E-001,1.17789E-001,-4.92544E-002,-1.60112E-004,1.17790E-001,-4.92546E-002,-5.49180E-002,1.18314E-001,1.12500E+000,-2.82851E-003,0.00000E+000,2.08989E-003,9.54574E-001,0.00000E+000,-1.32613E-004,-7.44958E-002,1.00000E+000,18
1069,1297,1.43191E+001,-2.02039E+000,1.48695E-001,5.47739E+000,-2.10993E-001,7.41230E-002,5.48195E+000,1.35961E-002,3.75304E-001,0,8.27888E+001,-4.08344E+000,9.98202E-001,4.22119E+001,-3.58301E+001,9.96174E-001,1.13829E-001,-4.73716E-002,-1.01321E-003,1.13835E-001,-4.73779E-002,-3.60110E-001,1.14367E-001,1.12024E+000,-2.68874E-002,0.00000E+000,2.09272E-002,9.55252E-001,0.00000E+000,-4.35304E-004,-6.05634E-002,1.00000E+000,18
1069,1307,1.43147E+001,-1.41009E+000,7.23035E-002,5.46551E+000,-2.41398E-001,3.16522E-002,5.47093E+000,1.01259E-002,3.50818E-001,0,8.27721E+001,-4.49829E+000,9.99264E-001,4.20816E+001,-3.62229E+001,9.97817E-001,1.14278E-001,-4.73727E-002,-1.02203E-003,1.14285E-001,-4.73792E-002,-3.62228E-001,1.14839E-001,1.12074E+000,-2.68816E-002,0.00000E+000,2.08842E-002,9.55252E-001,0.00000E+000,-2.48496E-004,-6.05612E-002,1.00000E+000,18
1069,1317,1.43152E+001,-7.93313E-001,2.71171E-002,5.45317E+000,-2.71586E-001,-1.78854E-003,5.45993E+000,1.12257E-002,4.27700E-001,0,8.27100E+001,-4.93187E+000,9.99492E-001,4.20837E+001,-3.65313E+001,9.97560E-001,1.14731E-001,-4.73741E-002,-1.02910E-003,1.14738E-001,-4.73807E-002,-3.63714E-001,1.15316E-001,1.12125E+000,-2.68716E-002,0.00000E+000,2.08409E-002,9.55251E-001,0.00000E+000,-6.02870E-005,-6.05575E-002,1.00000E+000,18
779,1327,-6.98953E+000,-5.83385E-001,6.33602E-002,3.05963E+000,-5.30726E-001,1.25459E-001,3.10785E+000,1.90240E-002,5.90715E-001,0,4.71006E+001,-8.96596E+000,9.99163E-001,2.95033E+000,-4.61039E+001,9.97921E-001,1.16637E-001,-4.88758E-002,-3.66979E-004,1.16638E-001,-4.88767E-002,-1.27036E-001,1.17147E-001,1.12371E+000,-3.11222E-003,0.00000E+000,2.03396E-003,9.54843E-001,0.00000E+000,-1.52036E-003,-7.31640E-002,1.00000E+000,18
779,1337,-6.97644E+000,2.33349E-002,1.99102E-002,3.05813E+000,-5.65887E-001,6.95948E-002,3.11083E+000,8.71305E-003,5.40967E-001,0,4.72505E+001,-9.39076E+000,9.98928E-001,3.16694E+000,-4.66865E+001,9.98660E-001,1.16823E-001,-4.88934E-002,-7.15704E-004,1.16826E-001,-4.88965E-002,-2.47446E-001,1.17342E-001,1.12392E+000,-3.10743E-003,0.00000E+000,1.43399E-003,9.54829E-001,0.00000E+000,-2.55333E-003,-7.31875E-002,1.00000E+000,18
779,1347,-6.95928E+000,6.44156E-001,9.42715E-003,3.05615E+000,-5.90599E-001,2.32598E-002,3.11278E+000,1.10486E-002,5.24061E-001,0,4.73576E+001,-9.68878E+000,9.98452E-001,3.53157E+000,-4.71085E+001,9.97868E-001,1.17008E-001,-4.89157E-002,-1.06508E-003,1.17015E-001,-4.89226E-002,-3.67765E-001,1.17537E-001,1.12413E+000,-3.10114E-003,0.00000E+000,8.31863E-004,9.54811E-001,0.00000E+000,-3.59003E-003,-7.32182E-002,1.00000E+000,18
779,1357,-6.93629E+000,1.26826E+000,3.56220E-002,3.05354E+000,-6.18358E-001,-1.94867E-002,3.11558E+000,8.50155E-003,5.29568E-001,0,4.74412E+001,-1.00342E+001,9.98649E-001,4.07839E+000,-4.75517E+001,9.98510E-001,1.17193E-001,-4.89449E-002,-1.41600E-003,1.17205E-001,-4.89570E-002,-4.88288E-001,1.17733E-001,1.12435E+000,-3.09274E-003,0.00000E+000,2.25573E-004,9.54788E-001,0.00000E+000,-4.63389E-003,-7.32593E-002,1.00000E+000,18
779,1317,-6.99041E+000,-1.18037E+000,1.40817E-001,3.06451E+000,-4.89979E-001,1.69634E-001,3.10806E+000,1.97042E-002,5.16980E-001,0,4.70323E+001,-8.40443E+000,9.99331E-001,3.00972E+000,-4.55048E+001,9.97764E-001,1.16451E-001,-4.88677E-002,-1.78376E-005,1.16451E-001,-4.88677E-002,-6.18211E-003,1.16951E-001,1.12350E+000,-3.11412E-003,0.00000E+000,2.63247E-003,9.54848E-001,0.00000E+000,-4.89876E-004,-7.31548E-002,1.00000E+000,18
1079,1337,1.50500E+001,4.55626E-001,-5.53602E-002,5.49994E+000,-3.23206E-001,-7.53848E-002,5.50994E+000,1.11607E-002,4.41535E-001,0,8.36268E+001,-5.62280E+000,9.99137E-001,4.35070E+001,-3.69046E+001,9.99024E-001,1.15852E-001,-4.74756E-002,-1.30760E-003,1.15863E-001,-4.74861E-002,-4.58671E-001,1.16489E-001,1.12253E+000,-2.63367E-002,0.00000E+000,1.97781E-002,9.55147E-001,0.00000E+000,7.93348E-004,-6.00565E-002,1.00000E+000,18
1079,1347,1.50604E+001,1.07780E+000,-4.94514E-002,5.48613E+000,-3.54367E-001,-1.04453E-001,5.49856E+000,6.34349E-003,4.60053E-001,0,8.35184E+001,-6.06793E+000,9.99672E-001,4.37528E+001,-3.72736E+001,9.99534E-001,1.16308E-001,-4.74803E-002,-1.33392E-003,1.16319E-001,-4.74912E-002,-4.66586E-001,1.16969E-001,1.12304E+000,-2.63179E-002,0.00000E+000,1.97077E-002,9.55145E-001,0.00000E+000,6.84053E-004,-6.00605E-002,1.00000E+000,18
1079,1297,1.50593E+001,-1.99805E+000,1.57064E-001,5.55910E+000,-1.94574E-001,8.23607E-002,5.56311E+000,1.31859E-002,4.26630E-001,0,8.39242E+001,-3.87638E+000,9.98672E-001,4.37336E+001,-3.53853E+001,9.97227E-001,1.14039E-001,-4.74625E-002,-1.18740E-003,1.14048E-001,-4.74712E-002,-4.21224E-001,1.14580E-001,1.12049E+000,-2.63755E-002,0.00000E+000,2.00575E-002,9.55153E-001,0.00000E+000,1.22738E-003,-6.00482E-002,1.00000E+000,18
1079,1307,1.50500E+001,-1.39357E+000,6.80246E-002,5.54364E+000,-2.30802E-001,3.32454E-002,5.54854E+000,1.16246E-002,3.80303E-001,0,8.38830E+001,-4.34615E+000,9.99290E-001,4.35038E+001,-3.58510E+001,9.97906E-001,1.14490E-001,-4.74650E-002,-1.21944E-003,1.14499E-001,-4.74742E-002,-4.31375E-001,1.15055E-001,1.12100E+000,-2.63707E-002,0.00000E+000,1.99880E-002,9.55152E-001,0.00000E+000,1.11941E-003,-6.00492E-002,1.00000E+000,18
1079,1327,1.50508E+001,-1.70011E-001,-2.70450E-002,5.51724E+000,-3.01730E-001,-4.35712E-002,5.52566E+000,1.29942E-002,4.43186E-001,0,8.37755E+001,-5.32103E+000,9.99335E-001,4.34938E+001,-3.66560E+001,9.98720E-001,1.15399E-001,-4.74719E-002,-1.27892E-003,1.15409E-001,-4.74819E-002,-4.49869E-001,1.16011E-001,1.12202E+000,-2.63495E-002,0.00000E+000,1.98480E-002,9.55149E-001,0.00000E+000,9.01931E-004,-6.00538E-002,1.00000E+000,18
1079,1317,1.50484E+001,-7.75273E-001,1.75261E-002,5.52921E+000,-2.59842E-001,-4.77942E-003,5.53532E+000,1.09737E-002,4.09269E-001,0,8.38075E+001,-4.72466E+000,9.99246E-001,4.34631E+001,-3.61471E+001,9.98441E-001,1.14945E-001,-4.74683E-002,-1.24946E-003,1.14955E-001,-4.74780E-002,-4.40746E-001,1.15533E-001,1.12151E+000,-2.63607E-002,0.00000E+000,1.99180E-002,9.55151E-001,0.00000E+000,1.01062E-003,-6.00514E-002,1.00000E+000,18
779,1307,-6.99822E+000,-1.78766E+000,2.30783E-001,3.06018E+000,-4.64507E-001,2.14969E-001,3.10269E+000,1.33798E-002,5.58871E-001,0,4.68217E+001,-8.08812E+000,9.99076E-001,2.99130E+000,-4.50339E+001,9.97229E-001,1.16264E-001,-4.88618E-002,3.29261E-004,1.16265E-001,-4.88625E-002,1.14247E-001,1.16757E-001,1.12329E+000,-3.11527E-003,0.00000E+000,3.22695E-003,9.54852E-001,0.00000E+000,5.33636E-004,-7.31491E-002,1.00000E+000,18
1089,1337,1.57876E+001,4.75628E-001,-6.22062E-002,5.57908E+000,-3.10252E-001,-7.83250E-002,5.58825E+000,9.84994E-003,4.81443E-001,0,8.47695E+001,-5.42896E+000,9.98964E-001,4.49625E+001,-3.64629E+001,9.98709E-001,1.16417E-001,-4.76263E-002,-1.45615E-003,1.16430E-001,-4.76392E-002,-5.08540E-001,1.17069E-001,1.12318E+000,-2.56046E-002,0.00000E+000,1.88333E-002,9.55003E-001,0.00000E+000,1.23342E-003,-5.97072E-002,1.00000E+000,18
1089,1347,1.57976E+001,1.09752E+000,-5.68464E-002,5.56486E+000,-3.40867E-001,-1.07503E-001,5.57633E+000,7.53393E-003,4.45234E-001,0,8.46558E+001,-5.85391E+000,9.99482E-001,4.52000E+001,-3.68609E+001,9.98838E-001,1.16975E-001,-4.76336E-002,-1.50268E-003,1.16989E-001,-4.76473E-002,-5.22984E-001,1.17657E-001,1.12381E+000,-2.55816E-002,0.00000E+000,1.87300E-002,9.54999E-001,0.00000E+000,9.25171E-004,-5.97185E-002,1.00000E+000,18
769,1347,-7.68482E+000,6.35467E-001,1.01136E-002,2.97696E+000,-5.92980E-001,2.70645E-002,3.03557E+000,9.01146E-003,5.23552E-001,0,4.61532E+001,-9.72203E+000,9.98595E-001,2.38837E+000,-4.73473E+001,9.98191E-001,1.15821E-001,-4.85391E-002,-1.01646E-003,1.15827E-001,-4.85454E-002,-3.54319E-001,1.16331E-001,1.12280E+000,-3.23895E-003,0.00000E+000,1.01313E-003,9.55087E-001,0.00000E+000,-3.17947E-003,-7.19965E-002,1.00000E+000,18
769,1357,-7.66053E+000,1.26150E+000,3.37287E-002,2.97620E+000,-6.18415E-001,-1.64906E-002,3.03982E+000,8.56499E-003,5.34035E-001,0,4.62667E+001,-1.00306E+001,9.98884E-001,2.95106E+000,-4.77543E+001,9.98815E-001,1.15962E-001,-4.85659E-002,-1.34530E-003,1.15973E-001,-4.85769E-002,-4.68448E-001,1.16481E-001,1.12296E+000,-3.23265E-003,0.00000E+000,4.42544E-004,9.55065E-001,0.00000E+000,-4.12051E-003,-7.20327E-002,1.00000E+000,18
769,1327,-7.71300E+000,-5.91302E-001,6.98960E-002,2.97933E+000,-5.33664E-001,1.20111E-001,3.02913E+000,1.43407E-002,5.75511E-001,0,4.59076E+001,-9.00029E+000,9.98929E-001,1.85203E+000,-4.63468E+001,9.97069E-001,1.15536E-001,-4.85049E-002,-3.62404E-004,1.15537E-001,-4.85057E-002,-1.26578E-001,1.16031E-001,1.12247E+000,-3.24664E-003,0.00000E+000,2.14455E-003,9.55113E-001,0.00000E+000,-1.31347E-003,-7.19522E-002,1.00000E+000,18
769,1337,-7.70279E+000,1.20624E-002,2.05474E-002,2.97751E+000,-5.71430E-001,7.10122E-002,3.03268E+000,8.36469E-003,5.34467E-001,0,4.60328E+001,-9.46475E+000,9.98870E-001,2.00927E+000,-4.69663E+001,9.98411E-001,1.15679E-001,-4.85188E-002,-6.89291E-004,1.15682E-001,-4.85217E-002,-2.40518E-001,1.16181E-001,1.12263E+000,-3.24361E-003,0.00000E+000,1.57968E-003,9.55103E-001,0.00000E+000,-2.24509E-003,-7.19697E-002,1.00000E+000,18
1089,1327,1.57848E+001,-1.46238E-001,-4.48158E-002,5.59464E+000,-2.81420E-001,-5.09106E-002,5.60194E+000,1.17204E-002,4.27188E-001,0,8.49061E+001,-5.01312E+000,9.98919E-001,4.48774E+001,-3.61621E+001,9.98068E-001,1.15860E-001,-4.76201E-002,-1.40722E-003,1.15872E-001,-4.76322E-002,-4.93148E-001,1.16481E-001,1.12255E+000,-2.56220E-002,0.00000E+000,1.89367E-002,9.55006E-001,0.00000E+000,1.54152E-003,-5.96987E-002,1.00000E+000,18
1089,1317,1.57878E+001,-7.63084E-001,4.83356E-003,5.61060E+000,-2.52542E-001,-1.32548E-002,5.61630E+000,1.06167E-002,4.50747E-001,0,8.50056E+001,-4.63195E+000,9.99322E-001,4.49385E+001,-3.58161E+001,9.98791E-001,1.15304E-001,-4.76149E-002,-1.35636E-003,1.15316E-001,-4.76262E-002,-4.76964E-001,1.15896E-001,1.12193E+000,-2.56344E-002,0.00000E+000,1.90394E-002,9.55008E-001,0.00000E+000,1.84789E-003,-5.96926E-002,1.00000E+000,18
1089,1297,1.57992E+001,-1.97694E+000,1.54573E-001,5.64012E+000,-1.80060E-001,8.05568E-002,5.64356E+000,9.78767E-003,4.51741E-001,0,8.50858E+001,-3.65224E+000,9.99355E-001,4.52338E+001,-3.49495E+001,9.98759E-001,1.14195E-001,-4.76060E-002,-1.25172E-003,1.14205E-001,-4.76157E-002,-4.43215E-001,1.14729E-001,1.12069E+000,-2.56518E-002,0.00000E+000,1.92444E-002,9.55010E-001,0.00000E+000,2.45912E-003,-5.96840E-002,1.00000E+000,18
1089,1307,1.57906E+001,-1.37471E+000,6.27118E-002,5.62498E+000,-2.19084E-001,2.72816E-002,5.62931E+000,9.59165E-003,4.44745E-001,0,8.50673E+001,-4.17431E+000,9.99519E-001,4.50100E+001,-3.54228E+001,9.98963E-001,1.14749E-001,-4.76100E-002,-1.30501E-003,1.14760E-001,-4.76204E-002,-4.60492E-001,1.15311E-001,1.12131E+000,-2.56455E-002,0.00000E+000,1.91421E-002,9.55009E-001,0.00000E+000,2.15411E-003,-5.96871E-002,1.00000E+000,18
769,1317,-7.72028E+000,-1.18860E+000,1.42666E-001,2.98008E+000,-4.95137E-001,1.72078E-001,3.02583E+000,1.63747E-002,5.43254E-001,0,4.57549E+001,-8.45697E+000,9.99410E-001,1.80118E+000,-4.57208E+001,9.98467E-001,1.15394E-001,-4.84949E-002,-3.72049E-005,1.15394E-001,-4.84949E-002,-1.30069E-002,1.15882E-001,1.12231E+000,-3.24866E-003,0.00000E+000,2.70578E-003,9.55120E-001,0.00000E+000,-3.87861E-004,-7.19406E-002,1.00000E+000,18
1099,1327,1.65195E+001,-1.29232E-001,-5.44056E-002,5.67207E+000,-2.69714E-001,-5.04180E-002,5.67870E+000,1.23777E-002,4.57475E-001,0,8.60091E+001,-4.85083E+000,9.98062E-001,4.62881E+001,-3.57677E+001,9.96473E-001,1.16351E-001,-4.77710E-002,-1.53998E-003,1.16366E-001,-4.77855E-002,-5.37550E-001,1.16984E-001,1.12312E+000,-2.49588E-002,0.00000E+000,1.80874E-002,9.54895E-001,0.00000E+000,1.86988E-003,-6.00012E-002,1.00000E+000,18
1099,1337,1.65280E+001,4.96125E-001,-6.32930E-002,5.66045E+000,-2.95493E-001,-7.62677E-002,5.66867E+000,1.13565E-002,4.69135E-001,0,8.59240E+001,-5.21518E+000,9.98430E-001,4.64765E+001,-3.60521E+001,9.97888E-001,1.17034E-001,-4.77774E-002,-1.58508E-003,1.17050E-001,-4.77927E-002,-5.50974E-001,1.17704E-001,1.12389E+000,-2.49354E-002,0.00000E+000,1.79904E-002,9.54892E-001,0.00000E+000,1.45097E-003,-6.00140E-002,1.00000E+000,18
1099,1347,1.65406E+001,1.12195E+000,-5.12868E-002,5.64667E+000,-3.24006E-001,-1.07167E-001,5.65697E+000,9.49989E-003,4.56639E-001,0,8.58216E+001,-5.61062E+000,9.99005E-001,4.67652E+001,-3.63902E+001,9.98225E-001,1.17718E-001,-4.77851E-002,-1.62713E-003,1.17734E-001,-4.78011E-002,-5.63225E-001,1.18425E-001,1.12466E+000,-2.49047E-002,0.00000E+000,1.78932E-002,9.54888E-001,0.00000E+000,1.03096E-003,-6.00308E-002,1.00000E+000,18
759,1347,-8.40637E+000,6.31180E-001,1.23372E-002,2.90143E+000,-5.91233E-001,3.30158E-002,2.96124E+000,8.49019E-003,5.39265E-001,0,4.49961E+001,-9.69908E+000,9.98448E-001,1.31560E+000,-4.75134E+001,9.98061E-001,1.14618E-001,-4.82141E-002,-9.23408E-004,1.14623E-001,-4.82194E-002,-3.24906E-001,1.15103E-001,1.12145E+000,-3.21485E-003,0.00000E+000,1.15610E-003,9.55324E-001,0.00000E+000,-2.94922E-003,-7.09306E-002,1.00000E+000,18
759,1357,-8.38553E+000,1.25380E+000,3.60893E-002,2.89775E+000,-6.19497E-001,-8.85159E-003,2.96324E+000,9.09164E-003,5.58953E-001,0,4.50596E+001,-1.00616E+001,9.98643E-001,1.82718E+000,-4.79708E+001,9.98296E-001,1.14609E-001,-4.82332E-002,-1.16332E-003,1.14617E-001,-4.82415E-002,-4.09286E-001,1.15094E-001,1.12144E+000,-3.21510E-003,0.00000E+000,7.60586E-004,9.55309E-001,0.00000E+000,-3.88978E-003,-7.09661E-002,1.00000E+000,18
1099,1297,1.65348E+001,-1.96376E+000,1.38533E-001,5.71825E+000,-1.71980E-001,7.25183E-002,5.72130E+000,9.11311E-003,4.90562E-001,0,8.62296E+001,-3.52830E+000,9.98941E-001,4.66481E+001,-3.46018E+001,9.98005E-001,1.14314E-001,-4.77573E-002,-1.39092E-003,1.14325E-001,-4.77692E-002,-4.91674E-001,1.14839E-001,1.12084E+000,-2.49950E-002,0.00000E+000,1.83762E-002,9.54900E-001,0.00000E+000,3.11749E-003,-5.99814E-002,1.00000E+000,18
1099,1307,1.65294E+001,-1.35461E+000,5.79642E-002,5.70627E+000,-2.04718E-001,3.06458E-002,5.71002E+000,1.05498E-002,4.59295E-001,0,8.62142E+001,-3.96010E+000,9.99222E-001,4.64950E+001,-3.50019E+001,9.98571E-001,1.14992E-001,-4.77611E-002,-1.44239E-003,1.15005E-001,-4.77739E-002,-5.07727E-001,1.15552E-001,1.12160E+000,-2.49872E-002,0.00000E+000,1.82801E-002,9.54899E-001,0.00000E+000,2.70246E-003,-5.99857E-002,1.00000E+000,18
1099,1317,1.65232E+001,-7.43592E-001,-8.37777E-003,5.68964E+000,-2.37782E-001,-1.31084E-002,5.69462E+000,1.29145E-002,4.70770E-001,0,8.61326E+001,-4.41468E+000,9.98808E-001,4.63549E+001,-3.53823E+001,9.97830E-001,1.15671E-001,-4.77658E-002,-1.49198E-003,1.15685E-001,-4.77794E-002,-5.22982E-001,1.16267E-001,1.12236E+000,-2.49750E-002,0.00000E+000,1.81838E-002,9.54897E-001,0.00000E+000,2.28662E-003,-5.99924E-002,1.00000E+000,18
759,1327,-8.43996E+000,-6.01562E-001,6.76081E-002,2.89733E+000,-5.37987E-001,1.17299E-001,2.94919E+000,9.87827E-003,5.50528E-001,0,4.46802E+001,-9.04656E+000,9.99022E-001,6.82145E-001,-4.66124E+001,9.98929E-001,1.14633E-001,-4.81902E-002,-4.47470E-004,1.14635E-001,-4.81914E-002,-1.57458E-001,1.15118E-001,1.12146E+000,-3.21456E-003,0.00000E+000,1.94105E-003,9.55342E-001,0.00000E+000,-1.08257E-003,-7.08880E-002,1.00000E+000,18
759,1337,-8.42453E+000,1.40442E-002,2.75345E-002,2.90055E+000,-5.63775E-001,7.59789E-002,2.95580E+000,8.37540E-003,5.56066E-001,0,4.48548E+001,-9.36132E+000,9.98622E-001,9.45827E-001,-4.70413E+001,9.98245E-001,1.14626E-001,-4.82004E-002,-6.85101E-004,1.14629E-001,-4.82032E-002,-2.41069E-001,1.15111E-001,1.12145E+000,-3.21468E-003,0.00000E+000,1.54909E-003,9.55335E-001,0.00000E+000,-2.01467E-003,-7.09057E-002,1.00000E+000,18
759,1317,-8.44469E+000,-1.20255E+000,1.42398E-001,2.89963E+000,-5.03541E-001,1.66481E-001,2.94773E+000,1.39721E-002,5.79129E-001,0,4.45617E+001,-8.60005E+000,9.99162E-001,6.74500E-001,-4.60152E+001,9.98542E-001,1.14640E-001,-4.81838E-002,-2.11518E-004,1.14640E-001,-4.81841E-002,-7.44306E-002,1.15124E-001,1.12146E+000,-3.21449E-003,0.00000E+000,2.33031E-003,9.55347E-001,0.00000E+000,-1.56898E-004,-7.08778E-002,1.00000E+000,18
749,1317,-9.16127E+000,-1.20546E+000,1.56196E-001,2.82539E+000,-5.03182E-001,1.68692E-001,2.87480E+000,1.07080E-002,5.93108E-001,0,4.34360E+001,-8.59171E+000,9.99057E-001,-2.88663E-001,-4.61792E+001,9.98209E-001,1.13946E-001,-4.79492E-002,-3.54048E-004,1.13947E-001,-4.79500E-002,-1.25299E-001,1.14422E-001,1.12069E+000,-2.91135E-003,0.00000E+000,1.79417E-003,9.55511E-001,0.00000E+000,-2.87171E-005,-6.99651E-002,1.00000E+000,18
749,1327,-9.15731E+000,-6.04288E-001,7.04280E-002,2.82393E+000,-5.36686E-001,1.16646E-001,2.87684E+000,7.98841E-003,5.56379E-001,0,4.35755E+001,-9.00359E+000,9.98822E-001,-3.21279E-001,-4.67564E+001,9.98560E-001,1.13803E-001,-4.79527E-002,-5.16102E-004,1.13805E-001,-4.79543E-002,-1.82807E-001,1.14273E-001,1.12053E+000,-2.91271E-003,0.00000E+000,1.53944E-003,9.55509E-001,0.00000E+000,-8.41068E-004,-6.99720E-002,1.00000E+000,18
749,1337,-9.14653E+000,9.99866E-003,2.95503E-002,2.82283E+000,-5.62757E-001,7.55721E-002,2.87937E+000,8.08159E-003,5.73879E-001,0,4.36819E+001,-9.33904E+000,9.98780E-001,-1.30732E-001,-4.72005E+001,9.98544E-001,1.13658E-001,-4.79593E-002,-6.79836E-004,1.13661E-001,-4.79622E-002,-2.41006E-001,1.14121E-001,1.12037E+000,-2.91568E-003,0.00000E+000,1.28322E-003,9.55504E-001,0.00000E+000,-1.65821E-003,-6.99871E-002,1.00000E+000,18
749,1347,-9.13094E+000,6.24924E-001,1.15326E-002,2.82202E+000,-5.91219E-001,3.34726E-002,2.88348E+000,8.87850E-003,5.39584E-001,0,4.37943E+001,-9.69204E+000,9.98823E-001,1.93272E-001,-4.77113E+001,9.98611E-001,1.13512E-001,-4.79683E-002,-8.44515E-004,1.13517E-001,-4.79727E-002,-2.99636E-001,1.13969E-001,1.12021E+000,-2.91978E-003,0.00000E+000,1.02632E-003,9.55497E-001,0.00000E+000,-2.47748E-003,-7.00079E-002,1.00000E+000,18
1109,1297,1.72712E+001,-1.94896E+000,1.27137E-001,5.79847E+000,-1.60115E-001,7.59990E-002,5.80117E+000,9.63373E-003,4.82622E-001,0,8.73589E+001,-3.36650E+000,9.98554E-001,4.80880E+001,-3.42624E+001,9.96827E-001,1.14581E-001,-4.80386E-002,-1.49719E-003,1.14594E-001,-4.80524E-002,-5.27448E-001,1.15091E-001,1.12116E+000,-2.39746E-002,0.00000E+000,1.72625E-002,9.54677E-001,0.00000E+000,3.67144E-003,-6.04172E-002,1.00000E+000,18
1109,1307,1.72643E+001,-1.33829E+000,4.80549E-002,5.78503E+000,-1.91243E-001,3.58151E-002,5.78830E+000,1.07361E-002,4.33148E-001,0,8.73155E+001,-3.77249E+000,9.98852E-001,4.79154E+001,-3.46494E+001,9.98152E-001,1.15312E-001,-4.80403E-002,-1.51421E-003,1.15326E-001,-4.80544E-002,-5.31046E-001,1.15859E-001,1.12198E+000,-2.39662E-002,0.00000E+000,1.72430E-002,9.54677E-001,0.00000E+000,3.05604E-003,-6.04235E-002,1.00000E+000,18
1109,1317,1.72588E+001,-7.26273E-001,-1.64472E-002,5.76912E+000,-2.23643E-001,-5.36678E-003,5.77346E+000,1.17124E-002,4.43337E-001,0,8.72360E+001,-4.21895E+000,9.98468E-001,4.77883E+001,-3.50170E+001,9.97704E-001,1.16045E-001,-4.80424E-002,-1.52920E-003,1.16059E-001,-4.80566E-002,-5.33903E-001,1.16629E-001,1.12280E+000,-2.39531E-002,0.00000E+000,1.72236E-002,9.54676E-001,0.00000E+000,2.43894E-003,-6.04334E-002,1.00000E+000,18
749,1357,-9.10687E+000,1.24668E+000,3.95728E-002,2.82206E+000,-6.19551E-001,-2.60160E-003,2.88927E+000,1.07831E-002,5.54354E-001,0,4.38974E+001,-1.00720E+001,9.98842E-001,7.67264E-001,-4.81953E+001,9.98523E-001,1.13365E-001,-4.79810E-002,-1.01119E-003,1.13371E-001,-4.79873E-002,-3.59068E-001,1.13815E-001,1.12004E+000,-2.92578E-003,0.00000E+000,7.67658E-004,9.55488E-001,0.00000E+000,-3.30240E-003,-7.00384E-002,1.00000E+000,18
1109,1327,1.72573E+001,-1.12586E-001,-6.00519E-002,5.75240E+000,-2.57350E-001,-4.54064E-002,5.75833E+000,1.04427E-002,4.34861E-001,0,8.71364E+001,-4.67722E+000,9.97928E-001,4.77594E+001,-3.54139E+001,9.97116E-001,1.16779E-001,-4.80448E-002,-1.54163E-003,1.16793E-001,-4.80592E-002,-5.35836E-001,1.17402E-001,1.12362E+000,-2.39340E-002,0.00000E+000,1.72041E-002,9.54676E-001,0.00000E+000,1.82003E-003,-6.04477E-002,1.00000E+000,18
1109,1337,1.72629E+001,5.13094E-001,-7.47841E-002,5.73741E+000,-2.83425E-001,-7.83587E-002,5.74494E+000,1.06731E-002,4.72449E-001,0,8.70282E+001,-5.04006E+000,9.98914E-001,4.78911E+001,-3.56660E+001,9.98445E-001,1.17515E-001,-4.80477E-002,-1.55125E-003,1.17530E-001,-4.80622E-002,-5.36772E-001,1.18178E-001,1.12445E+000,-2.39082E-002,0.00000E+000,1.71844E-002,9.54675E-001,0.00000E+000,1.19809E-003,-6.04671E-002,1.00000E+000,18
1109,1347,1.72807E+001,1.13989E+000,-4.68039E-002,5.72512E+000,-3.13506E-001,-1.07196E-001,5.73470E+000,1.11403E-002,4.76491E-001,0,8.69387E+001,-5.46893E+000,9.98949E-001,4.82841E+001,-3.60141E+001,9.97895E-001,1.18254E-001,-4.80514E-002,-1.55584E-003,1.18269E-001,-4.80660E-002,-5.35956E-001,1.18957E-001,1.12528E+000,-2.38707E-002,0.00000E+000,1.71647E-002,9.54674E-001,0.00000E+000,5.73271E-004,-6.04953E-002,1.00000E+000,18
739,1337,-9.86676E+000,-2.83315E-004,2.99634E-002,2.74663E+000,-5.67278E-001,7.43134E-002,2.80558E+000,9.11201E-003,5.61402E-001,0,4.25351E+001,-9.39555E+000,9.98685E-001,-1.18077E+000,-4.74672E+001,9.98402E-001,1.12616E-001,-4.75700E-002,-7.72593E-004,1.12620E-001,-4.75737E-002,-2.76335E-001,1.13071E-001,1.11920E+000,-2.70517E-003,0.00000E+000,9.13265E-004,9.55835E-001,0.00000E+000,-1.42068E-003,-6.93556E-002,1.00000E+000,18
739,1347,-9.85417E+000,6.16580E-001,1.45366E-002,2.74327E+000,-5.93480E-001,3.63874E-002,2.80697E+000,6.81963E-003,5.43142E-001,0,4.25942E+001,-9.72821E+000,9.99355E-001,-8.94558E-001,-4.79481E+001,9.99229E-001,1.12303E-001,-4.75782E-002,-9.33484E-004,1.12309E-001,-4.75837E-002,-3.34512E-001,1.12744E-001,1.11885E+000,-2.71377E-003,0.00000E+000,6.69767E-004,9.55829E-001,0.00000E+000,-2.27783E-003,-6.93768E-002,1.00000E+000,18
739,1357,-9.83099E+000,1.24004E+000,4.00469E-002,2.74301E+000,-6.19458E-001,-2.57430E-004,2.81209E+000,7.61104E-003,5.39240E-001,0,4.26934E+001,-1.00627E+001,9.99089E-001,-3.38001E-001,-4.84115E+001,9.99047E-001,1.11987E-001,-4.75901E-002,-1.09721E-003,1.11995E-001,-4.75976E-002,-3.93924E-001,1.12414E-001,1.11850E+000,-2.72639E-003,0.00000E+000,4.24711E-004,9.55820E-001,0.00000E+000,-3.14046E-003,-6.94078E-002,1.00000E+000,18
739,1327,-9.87904E+000,-6.10344E-001,7.11156E-002,2.74609E+000,-5.36958E-001,1.15479E-001,2.80048E+000,8.85771E-003,5.23560E-001,0,4.24027E+001,-8.98793E+000,9.99277E-001,-1.39308E+000,-4.69673E+001,9.99071E-001,1.12927E-001,-4.75637E-002,-6.13077E-004,1.12930E-001,-4.75660E-002,-2.18866E-001,1.13396E-001,1.11955E+000,-2.69884E-003,0.00000E+000,1.15623E-003,9.55839E-001,0.00000E+000,-5.65403E-004,-6.93400E-002,1.00000E+000,18
1119,1297,1.80058E+001,-1.93410E+000,1.17458E-001,5.87651E+000,-1.48380E-001,8.14770E-002,5.87894E+000,1.02438E-002,4.42671E-001,0,8.84457E+001,-3.19166E+000,9.99219E-001,4.95072E+001,-3.39419E+001,9.98361E-001,1.15013E-001,-4.78985E-002,-1.67481E-003,1.15030E-001,-4.79157E-002,-5.88946E-001,1.15563E-001,1.12167E+000,-2.29886E-002,0.00000E+000,1.60900E-002,9.54864E-001,0.00000E+000,3.44884E-003,-6.09621E-002,1.00000E+000,18
1119,1307,1.80003E+001,-1.32457E+000,4.06220E-002,5.86291E+000,-1.81764E-001,3.78942E-002,5.86585E+000,9.11244E-003,4.42749E-001,0,8.84137E+001,-3.64851E+000,9.99139E-001,4.93582E+001,-3.43247E+001,9.98879E-001,1.15716E-001,-4.78972E-002,-1.64372E-003,1.15733E-001,-4.79137E-002,-5.75537E-001,1.16302E-001,1.12245E+000,-2.29787E-002,0.00000E+000,1.61673E-002,9.54865E-001,0.00000E+000,2.76002E-003,-6.09707E-002,1.00000E+000,18
1119,1317,1.79988E+001,-7.11267E-001,-1.99266E-002,5.85025E+000,-2.13127E-001,-2.47105E-003,5.85413E+000,9.47258E-003,4.34836E-001,0,8.83800E+001,-4.07913E+000,9.98747E-001,4.93016E+001,-3.46878E+001,9.98664E-001,1.16420E-001,-4.78958E-002,-1.61093E-003,1.16436E-001,-4.79115E-002,-5.61649E-001,1.17042E-001,1.12324E+000,-2.29651E-002,0.00000E+000,1.62447E-002,9.54866E-001,0.00000E+000,2.07007E-003,-6.09826E-002,1.00000E+000,18
1119,1327,1.79989E+001,-9.50633E-002,-5.72642E-002,5.83426E+000,-2.44758E-001,-3.93113E-002,5.83953E+000,8.71940E-003,4.06683E-001,0,8.82786E+001,-4.50680E+000,9.98616E-001,4.93078E+001,-3.50672E+001,9.98550E-001,1.17125E-001,-4.78940E-002,-1.57555E-003,1.17140E-001,-4.79090E-002,-5.46974E-001,1.17785E-001,1.12403E+000,-2.29457E-002,0.00000E+000,1.63223E-002,9.54868E-001,0.00000E+000,1.37785E-003,-6.09996E-002,1.00000E+000,18
1119,1337,1.80049E+001,5.26126E-001,-7.31669E-002,5.81887E+000,-2.76254E-001,-7.60040E-002,5.82592E+000,8.08398E-003,4.54570E-001,0,8.81811E+001,-4.94540E+000,9.99312E-001,4.94416E+001,-3.53797E+001,9.98691E-001,1.17833E-001,-4.78919E-002,-1.53727E-003,1.17847E-001,-4.79062E-002,-5.31418E-001,1.18532E-001,1.12483E+000,-2.29201E-002,0.00000E+000,1.64004E-002,9.54870E-001,0.00000E+000,6.81661E-004,-6.10221E-002,1.00000E+000,18
1119,1347,1.80204E+001,1.15292E+000,-4.91708E-002,5.80479E+000,-3.05663E-001,-1.05914E-001,5.81380E+000,1.21078E-002,4.46670E-001,0,8.80697E+001,-5.36309E+000,9.99196E-001,4.97897E+001,-3.57236E+001,9.98481E-001,1.18542E-001,-4.78893E-002,-1.49473E-003,1.18555E-001,-4.79027E-002,-5.14523E-001,1.19280E-001,1.12562E+000,-2.28848E-002,0.00000E+000,1.64787E-002,9.54874E-001,0.00000E+000,-1.64136E-005,-6.10530E-002,1.00000E+000,18
739,1317,-9.87955E+000,-1.21001E+000,1.54273E-001,2.75065E+000,-5.02690E-001,1.63410E-001,2.80097E+000,1.12423E-002,5.67742E-001,0,4.23242E+001,-8.55461E+000,9.99116E-001,-1.31371E+000,-4.63553E+001,9.98650E-001,1.13236E-001,-4.75606E-002,-4.56254E-004,1.13237E-001,-4.75619E-002,-1.62573E-001,1.13719E-001,1.11989E+000,-2.69608E-003,0.00000E+000,1.39752E-003,9.55841E-001,0.00000E+000,2.83952E-004,-6.93332E-002,1.00000E+000,18
1129,1297,1.87398E+001,-1.91338E+000,1.11396E-001,5.95226E+000,-1.31339E-001,8.57656E-002,5.95433E+000,1.14382E-002,4.27699E-001,0,8.94974E+001,-2.94689E+000,9.99468E-001,5.09266E+001,-3.35258E+001,9.98387E-001,1.15275E-001,-4.78756E-002,-1.86936E-003,1.15296E-001,-4.78970E-002,-6.56374E-001,1.15845E-001,1.12198E+000,-2.20466E-002,0.00000E+000,1.49580E-002,9.54925E-001,0.00000E+000,2.66716E-003,-6.13009E-002,1.00000E+000,18
1129,1307,1.87346E+001,-1.31168E+000,2.89997E-002,5.93881E+000,-1.72698E-001,3.59128E-002,5.94143E+000,1.58748E-002,4.13734E-001,0,8.94961E+001,-3.50922E+000,9.99365E-001,5.07739E+001,-3.40234E+001,9.96903E-001,1.16041E-001,-4.78715E-002,-1.79103E-003,1.16060E-001,-4.78911E-002,-6.25958E-001,1.16649E-001,1.12283E+000,-2.20356E-002,0.00000E+000,1.51256E-002,9.54928E-001,0.00000E+000,1.95819E-003,-6.13100E-002,1.00000E+000,18
1129,1317,1.87376E+001,-6.99504E-001,-2.51207E-002,5.93011E+000,-2.05609E-001,4.00362E-004,5.93367E+000,9.16720E-003,4.05717E-001,0,8.95043E+001,-3.97543E+000,9.99413E-001,5.07965E+001,-3.44157E+001,9.97461E-001,1.16807E-001,-4.78667E-002,-1.71063E-003,1.16825E-001,-4.78844E-002,-5.95101E-001,1.17456E-001,1.12369E+000,-2.20202E-002,0.00000E+000,1.52935E-002,9.54931E-001,0.00000E+000,1.24780E-003,-6.13228E-002,1.00000E+000,18
729,1347,-1.05670E+001,6.05200E-001,2.17860E-002,2.67330E+000,-6.00197E-001,3.74200E-002,2.74010E+000,6.04016E-003,5.56095E-001,0,4.15348E+001,-9.82785E+000,9.99645E-001,-1.80847E+000,-4.82348E+001,9.99490E-001,1.11059E-001,-4.72114E-002,-8.06149E-004,1.11063E-001,-4.72155E-002,-2.91826E-001,1.11477E-001,1.11746E+000,-2.03127E-003,0.00000E+000,3.30391E-004,9.56122E-001,0.00000E+000,-2.22248E-003,-6.85030E-002,1.00000E+000,18
729,1357,-1.05492E+001,1.23279E+000,3.85941E-002,2.66902E+000,-6.21106E-001,-1.82391E-003,2.74034E+000,7.02295E-003,5.56064E-001,0,4.15780E+001,-1.00758E+001,9.99297E-001,-1.35405E+000,-4.86163E+001,9.99372E-001,1.10503E-001,-4.72200E-002,-9.38881E-004,1.10508E-001,-4.72256E-002,-3.41050E-001,1.10897E-001,1.11684E+000,-2.05223E-003,0.00000E+000,1.65224E-004,9.56116E-001,0.00000E+000,-3.29827E-003,-6.85395E-002,1.00000E+000,18
1129,1327,1.87411E+001,-7.94760E-002,-5.76014E-002,5.91792E+000,-2.32772E-001,-2.93718E-002,5.92257E+000,1.02003E-002,4.07867E-001,0,8.94321E+001,-4.37431E+000,9.99342E-001,5.08624E+001,-3.47293E+001,9.98573E-001,1.17574E-001,-4.78610E-002,-1.62789E-003,1.17590E-001,-4.78771E-002,-5.63719E-001,1.18264E-001,1.12455E+000,-2.19996E-002,0.00000E+000,1.54617E-002,9.54935E-001,0.00000E+000,5.35986E-004,-6.13398E-002,1.00000E+000,18
729,1337,-1.05861E+001,-5.85613E-003,3.71748E-002,2.67120E+000,-5.66900E-001,8.15586E-002,2.73192E+000,8.13035E-003,5.46638E-001,0,4.13722E+001,-9.39299E+000,9.99100E-001,-2.19402E+000,-4.76773E+001,9.98776E-001,1.11611E-001,-4.72047E-002,-6.76117E-004,1.11614E-001,-4.72076E-002,-2.43916E-001,1.12055E-001,1.11808E+000,-2.01514E-003,0.00000E+000,4.94897E-004,9.56126E-001,0.00000E+000,-1.15099E-003,-6.84749E-002,1.00000E+000,18
729,1327,-1.05974E+001,-6.14047E-001,7.89614E-002,2.67065E+000,-5.36660E-001,1.18759E-001,2.72662E+000,8.84373E-003,5.46207E-001,0,4.12517E+001,-8.98007E+000,9.98949E-001,-2.39004E+000,-4.71293E+001,9.98657E-001,1.12159E-001,-4.72003E-002,-5.49526E-004,1.12160E-001,-4.72022E-002,-1.97573E-001,1.12628E-001,1.11869E+000,-2.00492E-003,0.00000E+000,6.58375E-004,9.56129E-001,0.00000E+000,-8.62037E-005,-6.84571E-002,1.00000E+000,18
1129,1337,1.87555E+001,5.44085E-001,-5.77225E-002,5.90491E+000,-2.66839E-001,-7.38169E-002,5.91140E+000,1.04587E-002,4.71210E-001,0,8.93975E+001,-4.82419E+000,9.99206E-001,5.11519E+001,-3.50295E+001,9.98877E-001,1.18349E-001,-4.78530E-002,-1.53760E-003,1.18364E-001,-4.78672E-002,-5.30003E-001,1.19083E-001,1.12543E+000,-2.19639E-002,0.00000E+000,1.56320E-002,9.54942E-001,0.00000E+000,-1.84631E-004,-6.13693E-002,1.00000E+000,18
729,1317,-1.06014E+001,-1.21626E+000,1.52876E-001,2.67309E+000,-5.03416E-001,1.65038E-001,2.72509E+000,1.03513E-002,5.70818E-001,0,4.11474E+001,-8.55947E+000,9.98917E-001,-2.38854E+000,-4.65451E+001,9.98291E-001,1.12703E-001,-4.71975E-002,-4.25082E-004,1.12704E-001,-4.71987E-002,-1.52315E-001,1.13199E-001,1.11930E+000,-1.99876E-003,0.00000E+000,8.21428E-004,9.56131E-001,0.00000E+000,9.75823E-004,-6.84464E-002,1.00000E+000,18
1129,1347,1.87648E+001,1.17271E+000,-4.77733E-002,5.88743E+000,-2.93119E-001,-1.06173E-001,5.89568E+000,1.26294E-002,4.73177E-001,0,8.92461E+001,-5.19082E+000,9.99016E-001,5.13801E+001,-3.53084E+001,9.98385E-001,1.19120E-001,-4.78451E-002,-1.44801E-003,1.19133E-001,-4.78577E-002,-4.96848E-001,1.19898E-001,1.12629E+000,-2.19289E-002,0.00000E+000,1.58016E-002,9.54948E-001,0.00000E+000,-9.02370E-004,-6.13982E-002,1.00000E+000,18
719,1347,-1.12889E+001,6.04106E-001,2.02125E-002,2.59542E+000,-5.95153E-001,3.73417E-002,2.66305E+000,9.51929E-003,5.69492E-001,0,4.03521E+001,-9.74627E+000,9.99218E-001,-2.87583E+000,-4.83453E+001,9.99107E-001,1.10161E-001,-4.70301E-002,-7.58212E-004,1.10165E-001,-4.70338E-002,-2.76357E-001,1.10556E-001,1.11646E+000,-1.24603E-003,0.00000E+000,-2.64610E-004,9.56224E-001,0.00000E+000,-1.95971E-003,-6.74065E-002,1.00000E+000,18
719,1357,-1.12715E+001,1.22482E+000,3.87131E-002,2.59101E+000,-6.23226E-001,6.27198E-004,2.66491E+000,8.09203E-003,6.00158E-001,0,4.03870E+001,-1.01171E+001,9.99176E-001,-2.42403E+000,-4.88229E+001,9.99281E-001,1.09383E-001,-4.70354E-002,-8.48790E-004,1.09387E-001,-4.70400E-002,-3.10899E-001,1.09744E-001,1.11559E+000,-1.27490E-003,0.00000E+000,-3.31408E-004,9.56222E-001,0.00000E+000,-3.22358E-003,-6.74487E-002,1.00000E+000,18
719,1337,-1.13061E+001,-8.58750E-003,3.61591E-002,2.59425E+000,-5.64703E-001,7.77808E-002,2.65614E+000,1.06893E-002,5.74991E-001,0,4.02158E+001,-9.34964E+000,9.98551E-001,-3.23282E+000,-4.78047E+001,9.97989E-001,1.10933E-001,-4.70262E-002,-6.71551E-004,1.10936E-001,-4.70291E-002,-2.43582E-001,1.11363E-001,1.11732E+000,-1.22472E-003,0.00000E+000,-1.98216E-004,9.56226E-001,0.00000E+000,-7.03466E-004,-6.73754E-002,1.00000E+000,18
719,1327,-1.13150E+001,-6.15634E-001,8.53682E-002,2.59568E+000,-5.33861E-001,1.20749E-001,2.65276E+000,7.91856E-003,5.84146E-001,0,4.01094E+001,-8.94413E+000,9.98408E-001,-3.37277E+000,-4.72479E+001,9.98032E-001,1.11698E-001,-4.70237E-002,-5.88726E-004,1.11701E-001,-4.70258E-002,-2.12516E-001,1.12164E-001,1.11818E+000,-1.21097E-003,0.00000E+000,-1.32183E-004,9.56227E-001,0.00000E+000,5.45921E-004,-6.73553E-002,1.00000E+000,18
719,1317,-1.13203E+001,-1.21864E+000,1.63517E-001,2.59569E+000,-5.01957E-001,1.65488E-001,2.64895E+000,1.03601E-002,5.72208E-001,0,3.99730E+001,-8.52996E+000,9.98467E-001,-3.37975E+000,-4.67015E+001,9.97700E-001,1.12460E-001,-4.70223E-002,-5.09049E-004,1.12461E-001,-4.70239E-002,-1.82879E-001,1.12963E-001,1.11903E+000,-1.20385E-003,0.00000E+000,-6.62993E-005,9.56227E-001,0.00000E+000,1.79250E-003,-6.73449E-002,1.00000E+000,18
1139,1297,1.94879E+001,-1.90333E+000,1.13168E-001,6.04037E+000,-1.24645E-001,9.20478E-002,6.04236E+000,7.87497E-003,3.62727E-001,0,9.07277E+001,-2.86044E+000,9.99707E-001,5.25835E+001,-3.33154E+001,9.98708E-001,1.15516E-001,-4.79753E-002,-1.99291E-003,1.15540E-001,-4.79996E-002,-6.98282E-001,1.16089E-001,1.12226E+000,-2.11031E-002,0.00000E+000,1.39760E-002,9.54877E-001,0.00000E+000,1.60730E-003,-6.18169E-002,1.00000E+000,18
1139,1307,1.94814E+001,-1.30195E+000,2.40539E-002,6.02661E+000,-1.66374E-001,4.02169E-002,6.02904E+000,9.96301E-003,3.57476E-001,0,9.07319E+001,-3.42142E+000,9.99521E-001,5.23983E+001,-3.37978E+001,9.98495E-001,1.16386E-001,-4.79705E-002,-1.89612E-003,1.16408E-001,-4.79924E-002,-6.60885E-001,1.17003E-001,1.12324E+000,-2.10921E-002,0.00000E+000,1.41750E-002,9.54879E-001,0.00000E+000,9.50822E-004,-6.18242E-002,1.00000E+000,18
1139,1337,1.94963E+001,5.65494E-001,-5.77344E-002,5.98454E+000,-2.51359E-001,-7.18203E-002,5.99025E+000,1.13757E-002,4.90623E-001,0,9.05167E+001,-4.61624E+000,9.98923E-001,5.26893E+001,-3.45918E+001,9.97915E-001,1.19010E-001,-4.79469E-002,-1.58082E-003,1.19025E-001,-4.79619E-002,-5.42436E-001,1.19770E-001,1.12619E+000,-2.10072E-002,0.00000E+000,1.47768E-002,9.54897E-001,0.00000E+000,-1.03483E-003,-6.18814E-002,1.00000E+000,18
1139,1347,1.95167E+001,1.19058E+000,-3.19351E-002,5.97383E+000,-2.84336E-001,-1.04805E-001,5.98151E+000,1.18688E-002,4.86220E-001,0,9.04693E+001,-5.07511E+000,9.98750E-001,5.31133E+001,-3.49611E+001,9.97409E-001,1.19889E-001,-4.79359E-002,-1.46733E-003,1.19901E-001,-4.79488E-002,-5.00900E-001,1.20700E-001,1.12718E+000,-2.09610E-002,0.00000E+000,1.49789E-002,9.54906E-001,0.00000E+000,-1.70160E-003,-6.19125E-002,1.00000E+000,18
1139,1327,1.94859E+001,-6.42463E-002,-6.55101E-002,6.00150E+000,-2.25006E-001,-3.61156E-002,6.00582E+000,1.15378E-002,4.54056E-001,0,9.06467E+001,-4.25386E+000,9.99073E-001,5.24505E+001,-3.43576E+001,9.97475E-001,1.18132E-001,-4.79569E-002,-1.69176E-003,1.18149E-001,-4.79742E-002,-5.83529E-001,1.18842E-001,1.12520E+000,-2.10478E-002,0.00000E+000,1.45751E-002,9.54888E-001,0.00000E+000,-3.69279E-004,-6.18541E-002,1.00000E+000,18
1139,1317,1.94757E+001,-6.88505E-001,-4.05341E-002,6.01027E+000,-1.98334E-001,-1.30947E-003,6.01354E+000,1.14046E-002,4.15297E-001,0,9.06500E+001,-3.88080E+000,9.99506E-001,5.22686E+001,-3.41142E+001,9.97995E-001,1.17257E-001,-4.79648E-002,-1.79686E-003,1.17276E-001,-4.79843E-002,-6.23017E-001,1.17920E-001,1.12422E+000,-2.10760E-002,0.00000E+000,1.43745E-002,9.54882E-001,0.00000E+000,2.92742E-004,-6.18351E-002,1.00000E+000,18
709,1347,-1.20138E+001,6.03175E-001,2.03766E-002,2.51412E+000,-5.89858E-001,3.93609E-002,2.58269E+000,9.34598E-003,5.57771E-001,0,3.91084E+001,-9.65298E+000,9.98960E-001,-3.98094E+000,-4.84702E+001,9.98940E-001,1.09306E-001,-4.62976E-002,-8.38171E-004,1.09310E-001,-4.63021E-002,-3.08616E-001,1.09735E-001,1.11551E+000,-3.90345E-004,0.00000E+000,-1.16107E-003,9.56857E-001,0.00000E+000,-1.78027E-003,-6.63519E-002,1.00000E+000,18
709,1357,-1.19941E+001,1.22278E+000,3.34369E-002,2.51287E+000,-6.17488E-001,2.43915E-004,2.58763E+000,8.64465E-003,5.65010E-001,0,3.91989E+001,-1.00138E+001,9.99136E-001,-3.50518E+000,-4.89661E+001,9.99286E-001,1.08396E-001,-4.63041E-002,-9.55256E-004,1.08402E-001,-4.63100E-002,-3.53776E-001,1.08785E-001,1.11450E+000,-4.22862E-004,0.00000E+000,-1.28241E-003,9.56853E-001,0.00000E+000,-2.96432E-003,-6.63900E-002,1.00000E+000,18
709,1337,-1.20226E+001,-1.40505E-002,4.17051E-002,2.51972E+000,-5.65270E-001,7.71776E-002,2.58350E+000,8.55526E-003,5.63969E-001,0,3.90865E+001,-9.34428E+000,9.98850E-001,-4.19704E+000,-4.80077E+001,9.98527E-001,1.10208E-001,-4.62931E-002,-7.26224E-004,1.10212E-001,-4.62965E-002,-2.65866E-001,1.10680E-001,1.11651E+000,-3.67969E-004,0.00000E+000,-1.04037E-003,9.56860E-001,0.00000E+000,-6.02451E-004,-6.63257E-002,1.00000E+000,18
709,1317,-1.20346E+001,-1.21963E+000,1.77067E-001,2.52163E+000,-5.00049E-001,1.64335E-001,2.57598E+000,1.08872E-002,5.80644E-001,0,3.88530E+001,-8.48926E+000,9.99014E-001,-4.28784E+000,-4.68386E+001,9.98633E-001,1.11995E-001,-4.62888E-002,-5.14036E-004,1.11997E-001,-4.62904E-002,-1.86069E-001,1.12556E-001,1.11851E+000,-3.46275E-004,0.00000E+000,-8.00520E-004,9.56862E-001,0.00000E+000,1.73807E-003,-6.63003E-002,1.00000E+000,18
709,1327,-1.20270E+001,-6.17562E-001,1.01715E-001,2.52344E+000,-5.32503E-001,1.19651E-001,2.58179E+000,1.17567E-002,6.00972E-001,0,3.90164E+001,-8.92569E+000,9.99040E-001,-4.23945E+000,-4.74032E+001,9.98592E-001,1.11104E-001,-4.62906E-002,-6.19211E-004,1.11106E-001,-4.62930E-002,-2.25405E-001,1.11619E-001,1.11751E+000,-3.55273E-004,0.00000E+000,-9.20350E-004,9.56861E-001,0.00000E+000,5.68743E-004,-6.63108E-002,1.00000E+000,18
1149,1297,2.02268E+001,-1.89343E+000,9.81402E-002,6.12058E+000,-1.19489E-001,8.94785E-002,6.12240E+000,1.79925E-002,3.95376E-001,0,9.18738E+001,-2.78805E+000,9.99118E-001,5.40707E+001,-3.30242E+001,9.96503E-001,1.15775E-001,-4.80604E-002,-2.09857E-003,1.15802E-001,-4.80873E-002,-7.33742E-001,1.16355E-001,1.12257E+000,-2.01922E-002,0.00000E+000,1.30762E-002,9.54844E-001,0.00000E+000,2.30699E-004,-6.23870E-002,1.00000E+000,18
1149,1307,2.02290E+001,-1.28016E+000,2.36908E-002,6.11437E+000,-1.49322E-001,4.73012E-002,6.11637E+000,1.15646E-002,3.89103E-001,0,9.19488E+001,-3.20203E+000,9.99315E-001,5.40484E+001,-3.33512E+001,9.97908E-001,1.16738E-001,-4.80563E-002,-2.01512E-003,1.16763E-001,-4.80810E-002,-7.00479E-001,1.17367E-001,1.12365E+000,-2.01780E-002,0.00000E+000,1.32394E-002,9.54846E-001,0.00000E+000,-3.09717E-004,-6.23941E-002,1.00000E+000,18
1149,1317,2.02267E+001,-6.68081E-001,-3.74959E-002,6.09904E+000,-1.84379E-001,5.33764E-004,6.10182E+000,1.01173E-002,4.32301E-001,0,9.19032E+001,-3.68708E+000,9.99276E-001,5.39751E+001,-3.37014E+001,9.97932E-001,1.17704E-001,-4.80513E-002,-1.92809E-003,1.17726E-001,-4.80737E-002,-6.66353E-001,1.18384E-001,1.12473E+000,-2.01564E-002,0.00000E+000,1.34034E-002,9.54849E-001,0.00000E+000,-8.52773E-004,-6.24049E-002,1.00000E+000,18
1149,1327,2.02282E+001,-4.60174E-002,-7.16277E-002,6.08321E+000,-2.10354E-001,-3.69485E-002,6.08696E+000,1.04286E-002,3.97401E-001,0,9.18063E+001,-4.04030E+000,9.99138E-001,5.40073E+001,-3.39951E+001,9.97518E-001,1.18668E-001,-4.80453E-002,-1.83795E-003,1.18689E-001,-4.80656E-002,-6.31559E-001,1.19401E-001,1.12582E+000,-2.01276E-002,0.00000E+000,1.35674E-002,9.54854E-001,0.00000E+000,-1.39585E-003,-6.24193E-002,1.00000E+000,18
1149,1337,2.02405E+001,5.76958E-001,-6.70771E-002,6.06959E+000,-2.44818E-001,-6.91737E-002,6.07492E+000,1.53721E-002,4.62133E-001,0,9.17183E+001,-4.51763E+000,9.99224E-001,5.42679E+001,-3.43111E+001,9.98211E-001,1.19643E-001,-4.80375E-002,-1.74083E-003,1.19661E-001,-4.80556E-002,-5.94751E-001,1.20431E-001,1.12692E+000,-2.00849E-002,0.00000E+000,1.37333E-002,9.54860E-001,0.00000E+000,-1.94543E-003,-6.24407E-002,1.00000E+000,18
1149,1347,2.02678E+001,1.20514E+000,-2.85804E-002,6.06165E+000,-2.77838E-001,-1.04564E-001,6.06891E+000,1.52587E-002,4.63567E-001,0,9.17193E+001,-4.96503E+000,9.99116E-001,5.48159E+001,-3.46553E+001,9.98010E-001,1.20619E-001,-4.80278E-002,-1.63694E-003,1.20635E-001,-4.80437E-002,-5.56062E-001,1.21465E-001,1.12802E+000,-2.00271E-002,0.00000E+000,1.38998E-002,9.54869E-001,0.00000E+000,-2.49663E-003,-6.24696E-002,1.00000E+000,18
699,1347,-1.27236E+001,5.98843E-001,2.68428E-002,2.44604E+000,-5.90426E-001,3.99428E-002,2.51661E+000,9.12522E-003,5.88200E-001,0,3.80734E+001,-9.65071E+000,9.99271E-001,-4.83444E+000,-4.86383E+001,9.99296E-001,1.08354E-001,-4.55691E-002,-7.43117E-004,1.08357E-001,-4.55727E-002,-2.76607E-001,1.08812E-001,1.11444E+000,8.26860E-004,0.00000E+000,-2.03618E-003,9.57472E-001,0.00000E+000,-1.56142E-003,-6.50696E-002,1.00000E+000,18
699,1357,-1.27069E+001,1.21311E+000,3.89828E-002,2.44226E+000,-6.22904E-001,1.64191E-003,2.52045E+000,9.03428E-003,5.75415E-001,0,3.81232E+001,-1.00787E+001,9.99184E-001,-4.40695E+000,-4.92265E+001,9.99161E-001,1.07353E-001,-4.55720E-002,-8.06249E-004,1.07357E-001,-4.55762E-002,-3.02062E-001,1.07764E-001,1.11333E+000,7.91999E-004,0.00000E+000,-2.06794E-003,9.57471E-001,0.00000E+000,-2.52940E-003,-6.51000E-002,1.00000E+000,18
699,1337,-1.27405E+001,-2.16242E-002,4.71857E-002,2.44363E+000,-5.67919E-001,7.77965E-002,2.50996E+000,7.35105E-003,5.54057E-001,0,3.79285E+001,-9.37242E+000,9.99234E-001,-5.17863E+000,-4.82427E+001,9.99037E-001,1.09349E-001,-4.55671E-002,-6.84711E-004,1.09352E-001,-4.55701E-002,-2.53233E-001,1.09857E-001,1.11555E+000,8.51584E-004,0.00000E+000,-2.00451E-003,9.57473E-001,0.00000E+000,-5.96335E-004,-6.50481E-002,1.00000E+000,18
699,1317,-1.27529E+001,-1.21984E+000,1.91873E-001,2.44280E+000,-4.98427E-001,1.62231E-001,2.49840E+000,1.13343E-002,6.18971E-001,0,3.76600E+001,-8.45412E+000,9.99210E-001,-5.24832E+000,-4.69523E+001,9.98702E-001,1.11315E-001,-4.55656E-002,-5.82142E-004,1.11317E-001,-4.55678E-002,-2.12605E-001,1.11925E-001,1.11775E+000,8.71410E-004,0.00000E+000,-1.94181E-003,9.57474E-001,0.00000E+000,1.31447E-003,-6.50309E-002,1.00000E+000,18
699,1327,-1.27477E+001,-6.18668E-001,1.04525E-001,2.44396E+000,-5.31774E-001,1.14676E-001,2.50377E+000,9.18221E-003,6.75057E-001,0,3.78217E+001,-8.89245E+000,9.99242E-001,-5.26894E+000,-4.74896E+001,9.97941E-001,1.10331E-001,-4.55661E-002,-6.32216E-004,1.10334E-001,-4.55686E-002,-2.32348E-001,1.10889E-001,1.11665E+000,8.64395E-004,0.00000E+000,-1.97322E-003,9.57473E-001,0.00000E+000,3.57250E-004,-6.50370E-002,1.00000E+000,18
1159,1307,2.09653E+001,-1.27113E+000,4.45040E-003,6.19153E+000,-1.44389E-001,4.03891E-002,6.19334E+000,1.20065E-002,3.81036E-001,0,9.30655E+001,-3.11757E+000,9.98281E-001,5.54945E+001,-3.30832E+001,9.97040E-001,1.17212E-001,-4.83219E-002,-2.03845E-003,1.17237E-001,-4.83470E-002,-7.05418E-001,1.17836E-001,1.12420E+000,-1.93186E-002,0.00000E+000,1.25279E-002,9.54627E-001,0.00000E+000,-1.51649E-003,-6.27948E-002,1.00000E+000,18
1159,1317,2.09681E+001,-6.51658E-001,-5.22695E-002,6.18123E+000,-1.72885E-001,-2.00829E-003,6.18365E+000,1.19539E-002,4.48230E-001,0,9.30766E+001,-3.51478E+000,9.98567E-001,5.55092E+001,-3.33138E+001,9.98375E-001,1.18235E-001,-4.83214E-002,-2.01311E-003,1.18260E-001,-4.83457E-002,-6.92380E-001,1.18913E-001,1.12535E+000,-1.92954E-002,0.00000E+000,1.25738E-002,9.54628E-001,0.00000E+000,-2.08402E-003,-6.28062E-002,1.00000E+000,18
1159,1327,2.09783E+001,-3.24416E-002,-7.18376E-002,6.17143E+000,-2.04423E-001,-3.42815E-002,6.17491E+000,8.31987E-003,4.29105E-001,0,9.30507E+001,-3.95641E+000,9.99289E-001,5.56963E+001,-3.36729E+001,9.98777E-001,1.19259E-001,-4.83207E-002,-1.98263E-003,1.19282E-001,-4.83441E-002,-6.77737E-001,1.19994E-001,1.12650E+000,-1.92606E-002,0.00000E+000,1.26198E-002,9.54629E-001,0.00000E+000,-2.65286E-003,-6.28234E-002,1.00000E+000,18
1159,1297,2.09641E+001,-1.88141E+000,7.53299E-002,6.19957E+000,-1.11622E-001,8.20161E-002,6.20112E+000,1.30705E-002,4.32745E-001,0,9.30185E+001,-2.66897E+000,9.98616E-001,5.55269E+001,-3.26814E+001,9.95023E-001,1.16195E-001,-4.83223E-002,-2.06079E-003,1.16220E-001,-4.83481E-002,-7.17556E-001,1.16766E-001,1.12305E+000,-1.93351E-002,0.00000E+000,1.24822E-002,9.54626E-001,0.00000E+000,-9.52637E-004,-6.27866E-002,1.00000E+000,18
1159,1337,2.10002E+001,5.90060E-001,-5.83199E-002,6.16384E+000,-2.39850E-001,-7.14315E-002,6.16892E+000,1.16107E-002,4.33309E-001,0,9.30706E+001,-4.43631E+000,9.99666E-001,5.61200E+001,-3.40435E+001,9.99370E-001,1.20290E-001,-4.83198E-002,-1.94476E-003,1.20312E-001,-4.83422E-002,-6.60739E-001,1.21083E-001,1.12767E+000,-1.92090E-002,0.00000E+000,1.26663E-002,9.54631E-001,0.00000E+000,-3.22638E-003,-6.28488E-002,1.00000E+000,18
1159,1347,2.10195E+001,1.21883E+000,-3.53228E-002,6.15047E+000,-2.69444E-001,-1.11512E-001,6.15738E+000,1.29346E-002,4.37377E-001,0,9.30100E+001,-4.84472E+000,9.99198E-001,5.65169E+001,-3.43424E+001,9.98707E-001,1.21318E-001,-4.83188E-002,-1.90464E-003,1.21340E-001,-4.83402E-002,-6.43194E-001,1.22172E-001,1.12883E+000,-1.91522E-002,0.00000E+000,1.27127E-002,9.54634E-001,0.00000E+000,-3.79976E-003,-6.28768E-002,1.00000E+000,18
689,1347,-1.34377E+001,5.91408E-001,3.52232E-002,2.37285E+000,-5.94210E-001,3.99391E-002,2.44645E+000,8.74866E-003,6.14112E-001,0,3.69600E+001,-9.69859E+000,9.99476E-001,-5.74396E+000,-4.88613E+001,9.98929E-001,1.07345E-001,-4.51068E-002,-7.24186E-004,1.07349E-001,-4.51103E-002,-2.72161E-001,1.07803E-001,1.11332E+000,1.99100E-003,0.00000E+000,-3.00602E-003,9.57852E-001,0.00000E+000,-1.46924E-003,-6.40811E-002,1.00000E+000,18
689,1357,-1.34236E+001,1.20461E+000,3.78828E-002,2.36888E+000,-6.25267E-001,3.91732E-003,2.45001E+000,8.61176E-003,5.79472E-001,0,3.70003E+001,-1.01068E+001,9.99350E-001,-5.37922E+000,-4.94582E+001,9.99305E-001,1.06194E-001,-4.51100E-002,-8.00762E-004,1.06198E-001,-4.51142E-002,-3.03221E-001,1.06598E-001,1.11204E+000,1.95534E-003,0.00000E+000,-3.07601E-003,9.57850E-001,0.00000E+000,-2.25773E-003,-6.41031E-002,1.00000E+000,18
689,1337,-1.34519E+001,-1.89805E-002,5.03958E-002,2.37398E+000,-5.60206E-001,7.79280E-002,2.44043E+000,9.21288E-003,5.78167E-001,0,3.68675E+001,-9.25406E+000,9.99391E-001,-6.05970E+000,-4.82980E+001,9.99373E-001,1.08497E-001,-4.51042E-002,-6.50014E-004,1.08499E-001,-4.51070E-002,-2.42461E-001,1.09012E-001,1.11460E+000,2.02118E-003,0.00000E+000,-2.93591E-003,9.57853E-001,0.00000E+000,-6.79441E-004,-6.40625E-002,1.00000E+000,18
1169,1327,2.17193E+001,-1.95264E-002,-8.25020E-002,6.25076E+000,-1.97141E-001,-3.99292E-002,6.25400E+000,7.90330E-003,4.44355E-001,0,9.41922E+001,-3.85061E+000,9.99522E-001,5.72324E+001,-3.33476E+001,9.99164E-001,1.19723E-001,-4.85265E-002,-1.92282E-003,1.19745E-001,-4.85485E-002,-6.54681E-001,1.20457E-001,1.12705E+000,-1.82616E-002,0.00000E+000,1.19567E-002,9.54449E-001,0.00000E+000,-3.90773E-003,-6.29484E-002,1.00000E+000,18
1169,1337,2.17448E+001,6.07915E-001,-6.19867E-002,6.24471E+000,-2.27951E-001,-7.75120E-002,6.24935E+000,1.05741E-002,4.57916E-001,0,9.42339E+001,-4.27917E+000,9.99647E-001,5.77213E+001,-3.36502E+001,9.99160E-001,1.20769E-001,-4.85291E-002,-1.91178E-003,1.20791E-001,-4.85507E-002,-6.46894E-001,1.21563E-001,1.12823E+000,-1.82056E-002,0.00000E+000,1.19427E-002,9.54449E-001,0.00000E+000,-4.38154E-003,-6.29708E-002,1.00000E+000,18
1169,1347,2.17713E+001,1.23437E+000,-2.90003E-002,6.23642E+000,-2.61510E-001,-1.15090E-001,6.24296E+000,1.01518E-002,4.33109E-001,0,9.42404E+001,-4.73600E+000,9.99229E-001,5.82438E+001,-3.40193E+001,9.98908E-001,1.21816E-001,-4.85319E-002,-1.89841E-003,1.21837E-001,-4.85531E-002,-6.38416E-001,1.22671E-001,1.12941E+000,-1.81440E-002,0.00000E+000,1.19287E-002,9.54448E-001,0.00000E+000,-4.85621E-003,-6.29955E-002,1.00000E+000,18
689,1327,-1.34704E+001,-6.26356E-001,9.39206E-002,2.36519E+000,-5.31506E-001,1.13255E-001,2.42682E+000,1.04611E-002,6.30954E-001,0,3.66275E+001,-8.87239E+000,9.99000E-001,-6.36261E+000,-4.77079E+001,9.98363E-001,1.09634E-001,-4.51026E-002,-5.81474E-004,1.09636E-001,-4.51048E-002,-2.15304E-001,1.10208E-001,1.11587E+000,2.04022E-003,0.00000E+000,-2.86651E-003,9.57854E-001,0.00000E+000,1.02350E-004,-6.40508E-002,1.00000E+000,18
1169,1317,2.17100E+001,-6.40717E-001,-4.82969E-002,6.26119E+000,-1.65188E-001,5.18354E-003,6.26337E+000,1.39692E-002,3.66141E-001,0,9.41755E+001,-3.41914E+000,9.99115E-001,5.70832E+001,-3.31012E+001,9.98980E-001,1.18681E-001,-4.85247E-002,-1.92475E-003,1.18703E-001,-4.85468E-002,-6.59432E-001,1.19357E-001,1.12587E+000,-1.82966E-002,0.00000E+000,1.19706E-002,9.54450E-001,0.00000E+000,-3.43605E-003,-6.29343E-002,1.00000E+000,18
1169,1307,2.17053E+001,-1.25905E+000,-4.08330E-003,6.27106E+000,-1.38111E-001,4.09362E-002,6.27271E+000,1.20401E-002,4.09756E-001,0,9.41852E+001,-3.02805E+000,9.99156E-001,5.70191E+001,-3.27723E+001,9.98333E-001,1.17647E-001,-4.85231E-002,-1.92296E-003,1.17670E-001,-4.85454E-002,-6.62919E-001,1.18268E-001,1.12470E+000,-1.83228E-002,0.00000E+000,1.19844E-002,9.54450E-001,0.00000E+000,-2.96932E-003,-6.29238E-002,1.00000E+000,18
1169,1297,2.17076E+001,-1.86848E+000,7.53288E-002,6.28187E+000,-1.03443E-001,8.73474E-002,6.28333E+000,1.08627E-002,4.75018E-001,0,9.41581E+001,-2.58791E+000,9.99243E-001,5.71209E+001,-3.23700E+001,9.96494E-001,1.16613E-001,-4.85220E-002,-1.91642E-003,1.16635E-001,-4.85442E-002,-6.64809E-001,1.17180E-001,1.12354E+000,-1.83381E-002,0.00000E+000,1.19982E-002,9.54450E-001,0.00000E+000,-2.50271E-003,-6.29177E-002,1.00000E+000,18
689,1317,-1.34763E+001,-1.22605E+000,1.82029E-001,2.36308E+000,-4.98486E-001,1.60871E-001,2.42044E+000,1.14995E-002,6.15982E-001,0,3.64521E+001,-8.43720E+000,9.98996E-001,-6.35058E+000,-4.71274E+001,9.97680E-001,1.10767E-001,-4.51022E-002,-5.18165E-004,1.10769E-001,-4.51039E-002,-1.90469E-001,1.11403E-001,1.11713E+000,2.04788E-003,0.00000E+000,-2.79728E-003,9.57855E-001,0.00000E+000,8.82313E-004,-6.40461E-002,1.00000E+000,18
679,1347,-1.41606E+001,5.84727E-001,2.51182E-002,2.29239E+000,-5.92459E-001,3.13613E-002,2.36792E+000,1.37202E-002,6.29140E-001,0,3.57554E+001,-9.68645E+000,9.98970E-001,-6.83283E+000,-4.90391E+001,9.98721E-001,1.06299E-001,-4.46938E-002,-7.51720E-004,1.06303E-001,-4.46976E-002,-2.85238E-001,1.06751E-001,1.11215E+000,3.22950E-003,0.00000E+000,-4.12351E-003,9.58200E-001,0.00000E+000,-1.50478E-003,-6.33756E-002,1.00000E+000,18
679,1357,-1.41349E+001,1.19935E+000,3.12830E-002,2.30154E+000,-6.23201E-001,7.04351E-003,2.38443E+000,6.69058E-003,5.92276E-001,0,3.59666E+001,-1.00772E+001,9.99348E-001,-6.28008E+000,-4.96229E+001,9.99286E-001,1.04936E-001,-4.47003E-002,-9.15688E-004,1.04942E-001,-4.47059E-002,-3.50600E-001,1.05324E-001,1.11064E+000,3.19103E-003,0.00000E+000,-4.36305E-003,9.58194E-001,0.00000E+000,-2.26181E-003,-6.33949E-002,1.00000E+000,18
1179,1297,2.24436E+001,-1.86232E+000,4.79990E-002,6.36074E+000,-9.96800E-002,8.34734E-002,6.36207E+000,1.80651E-002,5.10086E-001,0,9.52864E+001,-2.54862E+000,9.99510E-001,5.85582E+001,-3.21102E+001,9.97199E-001,1.16965E-001,-4.86220E-002,-1.83122E-003,1.16985E-001,-4.86422E-002,-6.33528E-001,1.17537E-001,1.12395E+000,-1.75086E-002,0.00000E+000,1.15381E-002,9.54385E-001,0.00000E+000,-3.90858E-003,-6.33156E-002,1.00000E+000,18
1179,1307,2.24482E+001,-1.25232E+000,-1.81192E-002,6.35437E+000,-1.33089E-001,4.04691E-002,6.35590E+000,8.01751E-003,3.42794E-001,0,9.53650E+001,-2.96232E+000,9.99634E-001,5.85863E+001,-3.25802E+001,9.98446E-001,1.17954E-001,-4.86215E-002,-1.80866E-003,1.17974E-001,-4.86411E-002,-6.22016E-001,1.18577E-001,1.12507E+000,-1.74896E-002,0.00000E+000,1.15714E-002,9.54386E-001,0.00000E+000,-4.25648E-003,-6.33215E-002,1.00000E+000,18
1179,1317,2.24510E+001,-6.32517E-001,-8.59725E-002,6.34715E+000,-1.57766E-001,-2.38592E-004,6.34911E+000,1.85805E-002,3.70734E-001,0,9.54185E+001,-3.31870E+000,9.99592E-001,5.85827E+001,-3.27974E+001,9.98802E-001,1.18944E-001,-4.86211E-002,-1.78686E-003,1.18963E-001,-4.86401E-002,-6.10890E-001,1.19620E-001,1.12618E+000,-1.74723E-002,0.00000E+000,1.16048E-002,9.54386E-001,0.00000E+000,-4.60505E-003,-6.33269E-002,1.00000E+000,18
1179,1337,2.24906E+001,6.18093E-001,-7.75926E-002,6.32691E+000,-2.23091E-001,-9.31425E-002,6.33153E+000,9.29069E-003,4.46558E-001,0,9.54568E+001,-4.19631E+000,9.99525E-001,5.93267E+001,-3.33675E+001,9.98319E-001,1.20950E-001,-4.86193E-002,-1.71336E-003,1.20968E-001,-4.86366E-002,-5.78846E-001,1.21739E-001,1.12845E+000,-1.73705E-002,0.00000E+000,1.16726E-002,9.54389E-001,0.00000E+000,-5.31300E-003,-6.33587E-002,1.00000E+000,18
1179,1347,2.25267E+001,1.25005E+000,-3.24571E-002,6.32561E+000,-2.54013E-001,-1.27916E-001,6.33200E+000,9.17102E-003,4.38263E-001,0,9.55542E+001,-4.60934E+000,9.99519E-001,6.00159E+001,-3.36672E+001,9.98866E-001,1.21957E-001,-4.86182E-002,-1.67109E-003,1.21974E-001,-4.86346E-002,-5.61242E-001,1.22805E-001,1.12959E+000,-1.73070E-002,0.00000E+000,1.17066E-002,9.54391E-001,0.00000E+000,-5.66892E-003,-6.33786E-002,1.00000E+000,18
679,1327,-1.41864E+001,-6.31672E-001,1.01582E-001,2.29059E+000,-5.31070E-001,1.18939E-001,2.35436E+000,1.23521E-002,5.97590E-001,0,3.54752E+001,-8.86221E+000,9.98754E-001,-7.29999E+000,-4.79227E+001,9.97828E-001,1.08998E-001,-4.46848E-002,-4.35613E-004,1.08999E-001,-4.46860E-002,-1.62402E-001,1.09587E-001,1.11516E+000,3.28553E-003,0.00000E+000,-3.64813E-003,9.58209E-001,0.00000E+000,-2.43286E-006,-6.33476E-002,1.00000E+000,18
679,1337,-1.41736E+001,-2.42161E-002,4.94161E-002,2.29480E+000,-5.59680E-001,7.98329E-002,2.36341E+000,1.31592E-002,5.82610E-001,0,3.56544E+001,-9.23830E+000,9.99093E-001,-7.10534E+000,-4.84768E+001,9.98853E-001,1.07654E-001,-4.46878E-002,-5.89786E-004,1.07656E-001,-4.46901E-002,-2.21815E-001,1.08172E-001,1.11366E+000,3.26525E-003,0.00000E+000,-3.88518E-003,9.58206E-001,0.00000E+000,-7.51594E-004,-6.33577E-002,1.00000E+000,18
1179,1327,2.24658E+001,-1.22838E-002,-9.13707E-002,6.33608E+000,-1.92598E-001,-4.03103E-002,6.33914E+000,1.28472E-002,4.16519E-001,0,9.54025E+001,-3.81569E+000,9.99589E-001,5.88610E+001,-3.31351E+001,9.97733E-001,1.19945E-001,-4.86203E-002,-1.75316E-003,1.19963E-001,-4.86385E-002,-5.95819E-001,1.20676E-001,1.12731E+000,-1.74283E-002,0.00000E+000,1.16386E-002,9.54387E-001,0.00000E+000,-4.95784E-003,-6.33407E-002,1.00000E+000,18
679,1317,-1.41935E+001,-1.23096E+000,1.86510E-001,2.28740E+000,-4.97931E-001,1.64038E-001,2.34671E+000,1.03795E-002,6.26519E-001,0,3.52912E+001,-8.43924E+000,9.99143E-001,-7.31392E+000,-4.73055E+001,9.97702E-001,1.10336E-001,-4.46840E-002,-2.86889E-004,1.10337E-001,-4.46845E-002,-1.06035E-001,1.10999E-001,1.11665E+000,3.29470E-003,0.00000E+000,-3.41183E-003,9.58210E-001,0.00000E+000,7.44333E-004,-6.33430E-002,1.00000E+000,18
669,1327,-1.48974E+001,-6.42320E-001,1.03554E-001,2.22147E+000,-5.34909E-001,1.22902E-001,2.28826E+000,9.91364E-003,5.74821E-001,0,3.44131E+001,-8.92914E+000,9.99521E-001,-8.17065E+000,-4.82015E+001,9.98783E-001,1.08256E-001,-4.43378E-002,-2.47735E-004,1.08256E-001,-4.43382E-002,-9.30191E-002,1.08845E-001,1.11432E+000,5.03654E-003,0.00000E+000,-4.78322E-003,9.58490E-001,0.00000E+000,-1.32544E-004,-6.25738E-002,1.00000E+000,18
669,1337,-1.48876E+001,-2.92395E-002,5.21003E-002,2.22223E+000,-5.59858E-001,8.21874E-002,2.29314E+000,8.22520E-003,6.10514E-001,0,3.45414E+001,-9.24057E+000,9.99296E-001,-8.01976E+000,-4.86477E+001,9.99111E-001,1.06659E-001,-4.43415E-002,-4.59994E-004,1.06660E-001,-4.43429E-002,-1.74539E-001,1.07164E-001,1.11254E+000,5.01156E-003,0.00000E+000,-5.13046E-003,9.58485E-001,0.00000E+000,-8.99192E-004,-6.25846E-002,1.00000E+000,18
669,1347,-1.48727E+001,5.79056E-001,2.20933E-002,2.22521E+000,-5.90501E-001,4.64113E-002,2.30270E+000,7.18528E-003,5.89471E-001,0,3.46904E+001,-9.64838E+000,9.99177E-001,-7.73193E+000,-4.92428E+001,9.99075E-001,1.05059E-001,-4.43471E-002,-6.75837E-004,1.05062E-001,-4.43502E-002,-2.59170E-001,1.05486E-001,1.11077E+000,4.97866E-003,0.00000E+000,-5.47764E-003,9.58479E-001,0.00000E+000,-1.66571E-003,-6.25988E-002,1.00000E+000,18
669,1357,-1.48481E+001,1.19951E+000,3.36092E-002,2.23035E+000,-6.15452E-001,1.02030E-002,2.31373E+000,7.30251E-003,5.74499E-001,0,3.48692E+001,-9.96738E+000,9.99122E-001,-7.17897E+000,-4.97397E+001,9.99200E-001,1.03446E-001,-4.43573E-002,-9.02198E-004,1.03451E-001,-4.43628E-002,-3.49719E-001,1.03800E-001,1.10898E+000,4.92526E-003,0.00000E+000,-5.82693E-003,9.58468E-001,0.00000E+000,-2.43689E-003,-6.26218E-002,1.00000E+000,18
1189,1337,2.32438E+001,6.29315E-001,-8.48961E-002,6.41553E+000,-2.19436E-001,-1.02155E-001,6.42010E+000,1.20119E-002,4.31278E-001,0,9.67480E+001,-4.11521E+000,9.99587E-001,6.10647E+001,-3.30882E+001,9.98646E-001,1.20809E-001,-4.87993E-002,-1.53286E-003,1.20823E-001,-4.88132E-002,-5.17764E-001,1.21562E-001,1.12830E+000,-1.66313E-002,0.00000E+000,1.14349E-002,9.54219E-001,0.00000E+000,-5.97115E-003,-6.33515E-002,1.00000E+000,18
669,1317,-1.49029E+001,-1.23760E+000,1.97171E-001,2.21856E+000,-4.98227E-001,1.69869E-001,2.28015E+000,1.23724E-002,5.84464E-001,0,3.42277E+001,-8.45633E+000,9.99493E-001,-8.13548E+000,-4.75486E+001,9.98606E-001,1.09839E-001,-4.43379E-002,-4.45888E-005,1.09839E-001,-4.43380E-002,-1.65702E-002,1.10517E-001,1.11609E+000,5.04395E-003,0.00000E+000,-4.43808E-003,9.58491E-001,0.00000E+000,6.29474E-004,-6.25706E-002,1.00000E+000,18
1189,1297,2.31970E+001,-1.85155E+000,5.98693E-002,6.44639E+000,-9.50771E-002,7.87804E-002,6.44758E+000,1.31360E-002,4.64379E-001,0,9.65085E+001,-2.48421E+000,9.99409E-001,6.03319E+001,-3.19008E+001,9.96767E-001,1.17304E-001,-4.87945E-002,-1.55070E-003,1.17318E-001,-4.88089E-002,-5.34853E-001,1.17868E-001,1.12435E+000,-1.67480E-002,0.00000E+000,1.15132E-002,9.54222E-001,0.00000E+000,-5.37462E-003,-6.33339E-002,1.00000E+000,18
1189,1307,2.31906E+001,-1.24342E+000,-2.84170E-002,6.43346E+000,-1.31020E-001,3.16101E-002,6.43487E+000,9.71208E-003,4.34422E-001,0,9.65114E+001,-2.94987E+000,9.98960E-001,6.01538E+001,-3.22835E+001,9.98386E-001,1.18175E-001,-4.87951E-002,-1.55456E-003,1.18189E-001,-4.88096E-002,-5.33388E-001,1.18784E-001,1.12533E+000,-1.67379E-002,0.00000E+000,1.14938E-002,9.54222E-001,0.00000E+000,-5.52262E-003,-6.33354E-002,1.00000E+000,18
1189,1317,2.32085E+001,-6.13290E-001,-6.51757E-002,6.43179E+000,-1.53628E-001,-1.45128E-002,6.43364E+000,9.92890E-003,4.56325E-001,0,9.66617E+001,-3.21804E+000,9.99584E-001,6.04332E+001,-3.24075E+001,9.99414E-001,1.19053E-001,-4.87963E-002,-1.55001E-003,1.19067E-001,-4.88107E-002,-5.29040E-001,1.19710E-001,1.12632E+000,-1.67086E-002,0.00000E+000,1.14741E-002,9.54221E-001,0.00000E+000,-5.67208E-003,-6.33398E-002,1.00000E+000,18
1189,1327,2.32236E+001,4.23946E-003,-8.49685E-002,6.42325E+000,-1.89016E-001,-5.97592E-002,6.42631E+000,1.26814E-002,4.46594E-001,0,9.67075E+001,-3.70229E+000,9.99644E-001,6.06934E+001,-3.27821E+001,9.99247E-001,1.19930E-001,-4.87977E-002,-1.54283E-003,1.19944E-001,-4.88119E-002,-5.23849E-001,1.20635E-001,1.12731E+000,-1.66732E-002,0.00000E+000,1.14545E-002,9.54220E-001,0.00000E+000,-5.82141E-003,-6.33451E-002,1.00000E+000,18
659,1327,-1.56089E+001,-6.33357E-001,1.10310E-001,2.15011E+000,-5.21409E-001,1.24922E-001,2.21595E+000,1.49070E-002,5.68597E-001,0,3.33152E+001,-8.70818E+000,9.99350E-001,-9.02795E+000,-4.81810E+001,9.97763E-001,1.07323E-001,-4.40491E-002,-2.10749E-004,1.07324E-001,-4.40494E-002,-7.97703E-002,1.07896E-001,1.11327E+000,6.82413E-003,0.00000E+000,-6.24168E-003,9.58726E-001,0.00000E+000,-2.94761E-004,-6.20425E-002,1.00000E+000,18
659,1337,-1.55838E+001,-3.77826E-002,7.32856E-002,2.16622E+000,-5.63799E-001,9.84310E-002,2.24055E+000,2.01566E-002,6.90860E-001,0,3.36463E+001,-9.36862E+000,9.99148E-001,-8.60750E+000,-4.88842E+001,9.98758E-001,1.05617E-001,-4.40525E-002,-4.45698E-004,1.05619E-001,-4.40539E-002,-1.70617E-001,1.06101E-001,1.11138E+000,6.79765E-003,0.00000E+000,-6.63251E-003,9.58721E-001,0.00000E+000,-1.09899E-003,-6.20537E-002,1.00000E+000,18
659,1347,-1.55737E+001,5.76760E-001,3.69540E-002,2.16440E+000,-5.87897E-001,5.53834E-002,2.24350E+000,1.00774E-002,6.58044E-001,0,3.37383E+001,-9.65476E+000,9.99542E-001,-8.40774E+000,-4.93782E+001,9.99522E-001,1.03909E-001,-4.40580E-002,-6.84497E-004,1.03912E-001,-4.40612E-002,-2.65043E-001,1.04311E-001,1.10948E+000,6.76243E-003,0.00000E+000,-7.02309E-003,9.58714E-001,0.00000E+000,-1.90269E-003,-6.20687E-002,1.00000E+000,18
659,1357,-1.55551E+001,1.20011E+000,4.20527E-002,2.16432E+000,-6.09140E-001,1.59579E-002,2.24846E+000,6.97452E-003,5.91990E-001,0,3.38436E+001,-9.88369E+000,9.99324E-001,-7.96129E+000,-4.98450E+001,9.99508E-001,1.02187E-001,-4.40681E-002,-9.33430E-004,1.02193E-001,-4.40741E-002,-3.65653E-001,1.02514E-001,1.10758E+000,6.70766E-003,0.00000E+000,-7.41585E-003,9.58702E-001,0.00000E+000,-2.71087E-003,-6.20919E-002,1.00000E+000,18
1199,1307,2.39394E+001,-1.22984E+000,-3.06228E-002,6.51536E+000,-1.25504E-001,1.89260E-002,6.51659E+000,1.25638E-002,4.45450E-001,0,9.77096E+001,-2.84433E+000,9.99188E-001,6.18377E+001,-3.19713E+001,9.97995E-001,1.18273E-001,-4.87841E-002,-1.21697E-003,1.18282E-001,-4.87929E-002,-4.17358E-001,1.18884E-001,1.12546E+000,-1.58072E-002,0.00000E+000,1.13989E-002,9.54221E-001,0.00000E+000,-6.30965E-003,-6.31332E-002,1.00000E+000,18
1199,1317,2.39499E+001,-6.10650E-001,-7.73309E-002,6.50872E+000,-1.56154E-001,-2.78385E-002,6.51065E+000,1.10327E-002,4.34525E-001,0,9.77946E+001,-3.24558E+000,9.98829E-001,6.19871E+001,-3.22591E+001,9.97346E-001,1.19073E-001,-4.87864E-002,-1.23151E-003,1.19082E-001,-4.87955E-002,-4.20322E-001,1.19727E-001,1.12636E+000,-1.57836E-002,0.00000E+000,1.13367E-002,9.54219E-001,0.00000E+000,-6.24989E-003,-6.31316E-002,1.00000E+000,18
1199,1327,2.39667E+001,1.32046E-002,-1.06163E-001,6.50545E+000,-1.83226E-001,-6.74979E-002,6.50838E+000,1.17655E-002,4.13421E-001,0,9.78973E+001,-3.61156E+000,9.99155E-001,6.22591E+001,-3.25193E+001,9.98054E-001,1.19874E-001,-4.87890E-002,-1.24443E-003,1.19883E-001,-4.87982E-002,-4.22711E-001,1.20571E-001,1.12726E+000,-1.57561E-002,0.00000E+000,1.12744E-002,9.54217E-001,0.00000E+000,-6.19008E-003,-6.31298E-002,1.00000E+000,18
659,1317,-1.56234E+001,-1.24000E+000,1.78867E-001,2.14065E+000,-4.95155E-001,1.60831E-001,2.20305E+000,1.26449E-002,6.05657E-001,0,3.30637E+001,-8.37441E+000,9.98597E-001,-9.20203E+000,-4.76353E+001,9.95373E-001,1.09016E-001,-4.40483E-002,1.77123E-005,1.09016E-001,-4.40483E-002,6.63016E-003,1.09683E-001,1.11516E+000,6.83910E-003,0.00000E+000,-5.85308E-003,9.58730E-001,0.00000E+000,5.04852E-004,-6.20362E-002,1.00000E+000,18
1199,1337,2.39978E+001,6.43132E-001,-7.97995E-002,6.50180E+000,-2.14077E-001,-1.09051E-001,6.50624E+000,9.77072E-003,4.31344E-001,0,9.79904E+001,-4.02965E+000,9.99515E-001,6.28373E+001,-3.27886E+001,9.98205E-001,1.20682E-001,-4.87930E-002,-1.24878E-003,1.20691E-001,-4.88022E-002,-4.22156E-001,1.21425E-001,1.12817E+000,-1.57085E-002,0.00000E+000,1.12115E-002,9.54214E-001,0.00000E+000,-6.12960E-003,-6.31266E-002,1.00000E+000,18
1199,1297,2.39430E+001,-1.83582E+000,5.25586E-002,6.52632E+000,-8.67678E-002,6.36282E-002,6.52720E+000,9.88201E-003,4.55940E-001,0,9.76853E+001,-2.32082E+000,9.99006E-001,6.19657E+001,-3.15560E+001,9.97435E-001,1.17476E-001,-4.87826E-002,-1.19661E-003,1.17484E-001,-4.87912E-002,-4.12345E-001,1.18045E-001,1.12456E+000,-1.58174E-002,0.00000E+000,1.14608E-002,9.54221E-001,0.00000E+000,-6.36911E-003,-6.31339E-002,1.00000E+000,18
649,1347,-1.62902E+001,5.80453E-001,3.35210E-002,2.08792E+000,-5.79500E-001,4.76638E-002,2.16737E+000,1.05523E-002,6.53753E-001,0,3.25864E+001,-9.48695E+000,9.99316E-001,-9.36550E+000,-4.94205E+001,9.98487E-001,1.02639E-001,-4.36740E-002,-6.28994E-004,1.02641E-001,-4.36767E-002,-2.46307E-001,1.03020E-001,1.10806E+000,8.76049E-003,0.00000E+000,-8.63822E-003,9.59028E-001,0.00000E+000,-2.11718E-003,-6.13761E-002,1.00000E+000,18
649,1357,-1.62682E+001,1.19878E+000,4.60860E-002,2.09193E+000,-6.04718E-001,1.82308E-002,2.17766E+000,7.45876E-003,5.89118E-001,0,3.27284E+001,-9.80915E+000,9.99413E-001,-8.84464E+000,-4.99815E+001,9.99123E-001,1.00725E-001,-4.36829E-002,-8.78152E-004,1.00730E-001,-4.36882E-002,-3.48403E-001,1.01024E-001,1.10594E+000,8.70169E-003,0.00000E+000,-9.03389E-003,9.59017E-001,0.00000E+000,-2.90886E-003,-6.13981E-002,1.00000E+000,18
649,1337,-1.63103E+001,-2.98951E-002,6.52511E-002,2.07953E+000,-5.49687E-001,8.50678E-002,2.15264E+000,1.12253E-002,6.14333E-001,0,3.23503E+001,-9.09038E+000,9.99471E-001,-9.72936E+000,-4.88877E+001,9.98744E-001,1.04545E-001,-4.36695E-002,-3.89538E-004,1.04546E-001,-4.36705E-002,-1.50584E-001,1.05017E-001,1.11017E+000,8.79877E-003,0.00000E+000,-8.24318E-003,9.59035E-001,0.00000E+000,-1.32676E-003,-6.13618E-002,1.00000E+000,18
649,1327,-1.63280E+001,-6.27558E-001,1.09587E-001,2.07029E+000,-5.11793E-001,1.16762E-001,2.13581E+000,8.98455E-003,5.86739E-001,0,3.21131E+001,-8.53162E+000,9.99653E-001,-1.00182E+001,-4.81823E+001,9.99340E-001,1.06437E-001,-4.36672E-002,-1.56067E-004,1.06437E-001,-4.36674E-002,-5.95719E-002,1.07007E-001,1.11227E+000,8.82653E-003,0.00000E+000,-7.85025E-003,9.59040E-001,0.00000E+000,-5.40561E-004,-6.13514E-002,1.00000E+000,18
1209,1307,2.46893E+001,-1.21428E+000,-3.05965E-002,6.59865E+000,-1.16749E-001,1.10847E-002,6.59969E+000,9.89779E-003,4.54107E-001,0,9.89065E+001,-2.71255E+000,9.99293E-001,6.35477E+001,-3.16344E+001,9.98013E-001,1.18104E-001,-4.85094E-002,-8.45586E-004,1.18108E-001,-4.85137E-002,-2.90774E-001,1.18734E-001,1.12528E+000,-1.48113E-002,0.00000E+000,1.12865E-002,9.54464E-001,0.00000E+000,-6.55124E-003,-6.28027E-002,1.00000E+000,18
1209,1317,2.46978E+001,-6.00407E-001,-8.10610E-002,6.59165E+000,-1.51910E-001,-3.24054E-002,6.59348E+000,1.12690E-002,4.44201E-001,0,9.89774E+001,-3.19148E+000,9.99319E-001,6.36584E+001,-3.19947E+001,9.97159E-001,1.18931E-001,-4.85111E-002,-8.53949E-004,1.18936E-001,-4.85155E-002,-2.92196E-001,1.19606E-001,1.12621E+000,-1.47892E-002,0.00000E+000,1.12251E-002,9.54462E-001,0.00000E+000,-6.27977E-003,-6.27963E-002,1.00000E+000,18
1209,1327,2.47225E+001,2.80887E-002,-9.78215E-002,6.59165E+000,-1.76617E-001,-7.76488E-002,6.59448E+000,1.07787E-002,3.97607E-001,0,9.91472E+001,-3.50531E+000,9.99419E-001,6.40720E+001,-3.22196E+001,9.98174E-001,1.19761E-001,-4.85134E-002,-8.56692E-004,1.19765E-001,-4.85178E-002,-2.91686E-001,1.20482E-001,1.12715E+000,-1.47542E-002,0.00000E+000,1.11635E-002,9.54460E-001,0.00000E+000,-6.00726E-003,-6.27861E-002,1.00000E+000,18
1209,1337,2.47548E+001,6.57186E-001,-6.62739E-002,6.58860E+000,-2.09782E-001,-1.15035E-001,6.59295E+000,1.09495E-002,4.49233E-001,0,9.92338E+001,-3.96866E+000,9.99344E-001,6.46726E+001,-3.24949E+001,9.97525E-001,1.20598E-001,-4.85165E-002,-8.53075E-004,1.20602E-001,-4.85208E-002,-2.89011E-001,1.21367E-001,1.12809E+000,-1.47042E-002,0.00000E+000,1.11013E-002,9.54456E-001,0.00000E+000,-5.73177E-003,-6.27715E-002,1.00000E+000,18
1209,1297,2.46916E+001,-1.82224E+000,4.51709E-002,6.61005E+000,-7.82613E-002,5.52486E-002,6.61075E+000,9.55729E-003,4.21614E-001,0,9.88916E+001,-2.17815E+000,9.99164E-001,6.36426E+001,-3.12570E+001,9.97422E-001,1.17278E-001,-4.85082E-002,-8.33313E-004,1.17282E-001,-4.85124E-002,-2.87984E-001,1.17864E-001,1.12435E+000,-1.48244E-002,0.00000E+000,1.13477E-002,9.54464E-001,0.00000E+000,-6.82211E-003,-6.28066E-002,1.00000E+000,18
649,1317,-1.63345E+001,-1.23439E+000,1.88528E-001,2.06751E+000,-4.86958E-001,1.55588E-001,2.12978E+000,8.09644E-003,6.14690E-001,0,3.19582E+001,-8.22358E+000,9.99272E-001,-1.00399E+001,-4.76630E+001,9.99070E-001,1.08318E-001,-4.36682E-002,6.96350E-005,1.08318E-001,-4.36682E-002,2.62510E-002,1.08994E-001,1.11437E+000,8.83870E-003,0.00000E+000,-7.45861E-003,9.59042E-001,0.00000E+000,2.43041E-004,-6.13469E-002,1.00000E+000,18
639,1347,-1.70038E+001,5.84902E-001,3.11297E-002,2.01514E+000,-5.68819E-001,4.70354E-002,2.09441E+000,1.08574E-002,6.17119E-001,0,3.14706E+001,-9.29369E+000,9.99034E-001,-1.02691E+001,-4.94694E+001,9.98346E-001,1.01455E-001,-4.31931E-002,-5.84351E-004,1.01458E-001,-4.31954E-002,-2.31459E-001,1.01830E-001,1.10673E+000,1.09603E-002,0.00000E+000,-1.04595E-002,9.59423E-001,0.00000E+000,-2.25486E-003,-6.05682E-002,1.00000E+000,18
639,1357,-1.69795E+001,1.20461E+000,4.53076E-002,2.02132E+000,-5.93275E-001,1.81558E-002,2.10666E+000,7.01527E-003,6.01816E-001,0,3.16441E+001,-9.61986E+000,9.99318E-001,-9.70847E+000,-4.99897E+001,9.99238E-001,9.93959E-002,-4.32008E-002,-8.26214E-004,9.94007E-002,-4.32056E-002,-3.31960E-001,9.96832E-002,1.10446E+000,1.08971E-002,0.00000E+000,-1.08433E-002,9.59413E-001,0.00000E+000,-3.04244E-003,-6.05901E-002,1.00000E+000,18
639,1317,-1.70430E+001,-1.23743E+000,2.09678E-001,1.99687E+000,-4.88628E-001,1.63539E-001,2.06228E+000,1.06952E-002,7.18231E-001,0,3.08563E+001,-8.28213E+000,9.99292E-001,-1.08033E+001,-4.78008E+001,9.98452E-001,1.07548E-001,-4.31920E-002,8.28463E-005,1.07548E-001,-4.31921E-002,3.14896E-002,1.08240E-001,1.11349E+000,1.10340E-002,0.00000E+000,-9.31843E-003,9.59436E-001,0.00000E+000,8.66446E-005,-6.05427E-002,1.00000E+000,18
639,1327,-1.70345E+001,-6.38463E-001,1.25176E-001,2.00317E+000,-5.17944E-001,1.26908E-001,2.07293E+000,7.90448E-003,6.24263E-001,0,3.10610E+001,-8.66452E+000,9.99507E-001,-1.07674E+001,-4.84640E+001,9.98752E-001,1.05535E-001,-4.31892E-002,-1.30706E-004,1.05535E-001,-4.31894E-002,-5.03541E-002,1.06113E-001,1.11125E+000,1.10260E-002,0.00000E+000,-9.69634E-003,9.59434E-001,0.00000E+000,-6.88840E-004,-6.05454E-002,1.00000E+000,18
639,1337,-1.70230E+001,-2.72003E-002,5.90775E-002,2.00803E+000,-5.42465E-001,8.38767E-002,2.08170E+000,8.82863E-003,6.53664E-001,0,3.12577E+001,-8.95848E+000,9.99390E-001,-1.06320E+001,-4.89155E+001,9.98745E-001,1.03499E-001,-4.31893E-002,-3.53090E-004,1.03499E-001,-4.31902E-002,-1.37915E-001,1.03970E-001,1.10899E+000,1.10027E-002,0.00000E+000,-1.00777E-002,9.59430E-001,0.00000E+000,-1.47151E-003,-6.05535E-002,1.00000E+000,18
1219,1317,2.54536E+001,-5.85744E-001,-7.47671E-002,6.67827E+000,-1.47565E-001,-4.06901E-002,6.68002E+000,1.33672E-002,4.99929E-001,0,1.00225E+002,-3.11536E+000,9.99358E-001,6.54703E+001,-3.16598E+001,9.97221E-001,1.18643E-001,-4.84530E-002,-4.30919E-004,1.18644E-001,-4.84541E-002,-1.47757E-001,1.19306E-001,1.12590E+000,-1.36615E-002,0.00000E+000,1.10667E-002,9.54480E-001,0.00000E+000,-5.99679E-003,-6.21454E-002,1.00000E+000,18
1219,1327,2.54747E+001,4.08305E-002,-9.39822E-002,6.67665E+000,-1.72147E-001,-8.04113E-002,6.67935E+000,7.15064E-003,4.29606E-001,0,1.00351E+002,-3.44543E+000,9.99694E-001,6.58233E+001,-3.19200E+001,9.98692E-001,1.19429E-001,-4.84538E-002,-4.21273E-004,1.19430E-001,-4.84549E-002,-1.43773E-001,1.20136E-001,1.12678E+000,-1.36309E-002,0.00000E+000,1.10204E-002,9.54478E-001,0.00000E+000,-5.49450E-003,-6.21280E-002,1.00000E+000,18
1219,1337,2.55089E+001,6.72910E-001,-6.19105E-002,6.67462E+000,-2.02900E-001,-1.19818E-001,6.67878E+000,9.93521E-003,4.72767E-001,0,1.00460E+002,-3.86458E+000,9.99349E-001,6.64524E+001,-3.21528E+001,9.98171E-001,1.20225E-001,-4.84550E-002,-4.03756E-004,1.20226E-001,-4.84559E-002,-1.37144E-001,1.20977E-001,1.12768E+000,-1.35822E-002,0.00000E+000,1.09735E-002,9.54476E-001,0.00000E+000,-4.98512E-003,-6.21003E-002,1.00000E+000,18
1219,1297,2.54439E+001,-1.80956E+000,4.14962E-002,6.69595E+000,-7.26704E-002,4.64419E-002,6.69650E+000,1.05145E-002,4.01786E-001,0,1.00130E+002,-2.06518E+000,9.99147E-001,6.53875E+001,-3.09726E+001,9.97400E-001,1.17069E-001,-4.84519E-002,-4.39553E-004,1.17070E-001,-4.84531E-002,-1.52152E-001,1.17647E-001,1.12414E+000,-1.36986E-002,0.00000E+000,1.11593E-002,9.54482E-001,0.00000E+000,-7.00121E-003,-6.21665E-002,1.00000E+000,18
1219,1307,2.54468E+001,-1.19917E+000,-2.14293E-002,6.68711E+000,-1.10412E-001,5.56987E-003,6.68803E+000,1.31530E-002,4.40300E-001,0,1.00169E+002,-2.59737E+000,9.99243E-001,6.53915E+001,-3.13345E+001,9.96839E-001,1.17855E-001,-4.84524E-002,-4.36382E-004,1.17857E-001,-4.84536E-002,-1.50339E-001,1.18476E-001,1.12502E+000,-1.36827E-002,0.00000E+000,1.11131E-002,9.54481E-001,0.00000E+000,-6.49966E-003,-6.21574E-002,1.00000E+000,18
629,1347,-1.77131E+001,5.82118E-001,2.79365E-002,1.94661E+000,-5.65235E-001,4.82717E-002,2.02759E+000,9.58360E-003,6.04503E-001,0,3.04167E+001,-9.22478E+000,9.98923E-001,-1.11081E+001,-4.96152E+001,9.98370E-001,1.00462E-001,-4.34978E-002,-5.82871E-004,1.00465E-001,-4.35002E-002,-2.31976E-001,1.00765E-001,1.10561E+000,1.32461E-002,0.00000E+000,-1.24445E-002,9.59063E-001,0.00000E+000,-2.18793E-003,-5.98083E-002,1.00000E+000,18
629,1357,-1.76857E+001,1.20155E+000,4.19044E-002,1.95582E+000,-5.90059E-001,1.73506E-002,2.04296E+000,8.11294E-003,5.90400E-001,0,3.06425E+001,-9.55230E+000,9.98974E-001,-1.04980E+001,-5.01400E+001,9.98793E-001,9.84775E-002,-4.35003E-002,-6.77839E-004,9.84807E-002,-4.35035E-002,-2.73537E-001,9.87032E-002,1.10342E+000,1.31850E-002,0.00000E+000,-1.25507E-002,9.59060E-001,0.00000E+000,-2.99056E-003,-5.98308E-002,1.00000E+000,18
629,1327,-1.77445E+001,-6.36909E-001,1.19586E-001,1.93334E+000,-5.10616E-001,1.23630E-001,2.00345E+000,8.05438E-003,6.01895E-001,0,2.99995E+001,-8.52443E+000,9.99193E-001,-1.16242E+001,-4.85394E+001,9.98587E-001,1.04395E-001,-4.34973E-002,-4.21346E-004,1.04396E-001,-4.34985E-002,-1.63234E-001,1.04878E-001,1.10996E+000,1.33073E-002,0.00000E+000,-1.22333E-002,9.59066E-001,0.00000E+000,-5.91936E-004,-5.97859E-002,1.00000E+000,18
629,1337,-1.77297E+001,-2.96605E-002,5.72677E-002,1.94152E+000,-5.38848E-001,8.39142E-002,2.01666E+000,8.91335E-003,6.43483E-001,0,3.02390E+001,-8.89274E+000,9.99147E-001,-1.14283E+001,-4.90560E+001,9.98660E-001,1.02432E-001,-4.34970E-002,-4.98350E-004,1.02433E-001,-4.34987E-002,-1.95663E-001,1.02820E-001,1.10778E+000,1.32850E-002,0.00000E+000,-1.23389E-002,9.59065E-001,0.00000E+000,-1.38952E-003,-5.97941E-002,1.00000E+000,18
1229,1317,2.62096E+001,-5.66023E-001,-7.71173E-002,6.76775E+000,-1.34224E-001,-4.59334E-002,6.76924E+000,1.23741E-002,4.80112E-001,0,1.01500E+002,-2.90633E+000,9.99314E-001,6.72785E+001,-3.12654E+001,9.98586E-001,1.18462E-001,-4.82120E-002,4.85605E-005,1.18462E-001,-4.82120E-002,1.66931E-002,1.19144E-001,1.12571E+000,-1.25047E-002,0.00000E+000,1.09721E-002,9.54673E-001,0.00000E+000,-5.36749E-003,-6.15085E-002,1.00000E+000,18
1229,1327,2.62256E+001,5.18473E-002,-9.58682E-002,6.76042E+000,-1.70799E-001,-8.65102E-002,6.76313E+000,9.04072E-003,4.87216E-001,0,1.01549E+002,-3.41224E+000,9.99468E-001,6.75496E+001,-3.16222E+001,9.98205E-001,1.19200E-001,-4.82107E-002,7.94249E-005,1.19200E-001,-4.82107E-002,2.71829E-002,1.19923E-001,1.12653E+000,-1.24753E-002,0.00000E+000,1.09558E-002,9.54672E-001,0.00000E+000,-4.63773E-003,-6.14825E-002,1.00000E+000,18
1229,1337,2.62595E+001,6.85592E-001,-7.67706E-002,6.76092E+000,-1.94878E-001,-1.27754E-001,6.76494E+000,9.59451E-003,4.32077E-001,0,1.01704E+002,-3.73302E+000,9.99202E-001,6.81546E+001,-3.18479E+001,9.97844E-001,1.19938E-001,-4.82090E-002,1.15858E-004,1.19938E-001,-4.82090E-002,3.94784E-002,1.20704E-001,1.12736E+000,-1.24333E-002,0.00000E+000,1.09394E-002,9.54672E-001,0.00000E+000,-3.90635E-003,-6.14454E-002,1.00000E+000,18
629,1317,-1.77569E+001,-1.23504E+000,2.09192E-001,1.92299E+000,-4.80278E-001,1.64258E-001,1.98885E+000,9.33442E-003,6.83769E-001,0,2.97210E+001,-8.13724E+000,9.99254E-001,-1.17034E+001,-4.78790E+001,9.98502E-001,1.06337E-001,-4.34987E-002,-3.51776E-004,1.06338E-001,-4.34995E-002,-1.34515E-001,1.06922E-001,1.11212E+000,1.33143E-002,0.00000E+000,-1.21286E-002,9.59067E-001,0.00000E+000,1.99198E-004,-5.97834E-002,1.00000E+000,18
1229,1297,2.61958E+001,-1.79457E+000,3.75154E-002,6.78098E+000,-6.50744E-002,3.74593E-002,6.78139E+000,1.09431E-002,4.57840E-001,0,1.01354E+002,-1.95389E+000,9.98896E-001,6.71296E+001,-3.06139E+001,9.96654E-001,1.16992E-001,-4.82137E-002,-2.12282E-006,1.16992E-001,-4.82137E-002,-7.36224E-004,1.17593E-001,1.12406E+000,-1.25388E-002,0.00000E+000,1.10046E-002,9.54674E-001,0.00000E+000,-6.81873E-003,-6.15385E-002,1.00000E+000,18
1229,1307,2.62059E+001,-1.17914E+000,-2.46402E-002,6.78068E+000,-9.67054E-002,2.65559E-003,6.78137E+000,1.51076E-002,4.71382E-001,0,1.01494E+002,-2.40323E+000,9.98832E-001,6.72479E+001,-3.09092E+001,9.97393E-001,1.17727E-001,-4.82130E-002,2.14829E-005,1.17727E-001,-4.82130E-002,7.41765E-003,1.18367E-001,1.12488E+000,-1.25256E-002,0.00000E+000,1.09884E-002,9.54673E-001,0.00000E+000,-6.09445E-003,-6.15269E-002,1.00000E+000,18
619,1327,-1.84559E+001,-6.37097E-001,1.17020E-001,1.86160E+000,-5.05271E-001,1.22055E-001,1.93281E+000,6.59873E-003,5.91840E-001,0,2.89023E+001,-8.42459E+000,9.99122E-001,-1.24879E+001,-4.86423E+001,9.99027E-001,1.03492E-001,-4.31315E-002,-6.14254E-004,1.03495E-001,-4.31341E-002,-2.40025E-001,1.03971E-001,1.10893E+000,1.56691E-002,0.00000E+000,-1.46594E-002,9.59350E-001,0.00000E+000,-5.27340E-004,-5.92105E-002,1.00000E+000,18
619,1337,-1.84384E+001,-2.82837E-002,6.18186E-002,1.87175E+000,-5.32331E-001,8.48499E-002,1.94783E+000,7.74232E-003,6.38553E-001,0,2.91643E+001,-8.78380E+000,9.98607E-001,-1.22303E+001,-4.91491E+001,9.98491E-001,1.01472E-001,-4.31315E-002,-6.18078E-004,1.01475E-001,-4.31341E-002,-2.44892E-001,1.01854E-001,1.10669E+000,1.56438E-002,0.00000E+000,-1.46285E-002,9.59351E-001,0.00000E+000,-1.29683E-003,-5.92192E-002,1.00000E+000,18
619,1347,-1.84192E+001,5.84594E-001,2.83145E-002,1.88082E+000,-5.56421E-001,5.22508E-002,1.96209E+000,8.93673E-003,6.13440E-001,0,2.93951E+001,-9.09313E+000,9.98717E-001,-1.18811E+001,-4.96770E+001,9.98423E-001,9.94484E-002,-4.31315E-002,-6.26313E-004,9.94512E-002,-4.31343E-002,-2.51678E-001,9.97420E-002,1.10446E+000,1.56087E-002,0.00000E+000,-1.45977E-002,9.59351E-001,0.00000E+000,-2.06613E-003,-5.92313E-002,1.00000E+000,18
619,1357,-1.83917E+001,1.20315E+000,3.46208E-002,1.89123E+000,-5.80964E-001,1.93736E-002,1.97855E+000,8.15623E-003,5.82221E-001,0,2.96450E+001,-9.40457E+000,9.99186E-001,-1.12906E+001,-5.02088E+001,9.98973E-001,9.74093E-002,-4.31317E-002,-6.45097E-004,9.74123E-002,-4.31346E-002,-2.62986E-001,9.76245E-002,1.10221E+000,1.55502E-002,0.00000E+000,-1.45666E-002,9.59352E-001,0.00000E+000,-2.83927E-003,-5.92514E-002,1.00000E+000,18
619,1317,-1.84658E+001,-1.23155E+000,2.10787E-001,1.85384E+000,-4.69812E-001,1.67349E-001,1.91975E+000,1.11794E-002,6.21337E-001,0,2.86512E+001,-7.96603E+000,9.98879E-001,-1.25150E+001,-4.79582E+001,9.98495E-001,1.05495E-001,-4.31317E-002,-6.18373E-004,1.05498E-001,-4.31343E-002,-2.38378E-001,1.06080E-001,1.11115E+000,1.56765E-002,0.00000E+000,-1.46901E-002,9.59350E-001,0.00000E+000,2.37659E-004,-5.92080E-002,1.00000E+000,18
1239,1307,2.69488E+001,-1.17022E+000,-4.11875E-002,6.85823E+000,-9.25029E-002,-1.06568E-002,6.85886E+000,1.55880E-002,4.44554E-001,0,1.02626E+002,-2.32030E+000,9.98763E-001,6.88339E+001,-3.06587E+001,9.97595E-001,1.17366E-001,-4.78101E-002,2.31798E-004,1.17366E-001,-4.78104E-002,8.04053E-002,1.18036E-001,1.12449E+000,-1.16310E-002,0.00000E+000,1.06372E-002,9.55030E-001,0.00000E+000,-6.05435E-003,-6.09718E-002,1.00000E+000,18
1239,1317,2.69624E+001,-5.46862E-001,-8.29185E-002,6.85554E+000,-1.18964E-001,-4.71981E-002,6.85673E+000,1.42522E-002,4.31758E-001,0,1.02731E+002,-2.68434E+000,9.98954E-001,6.90358E+001,-3.08869E+001,9.98307E-001,1.18150E-001,-4.78051E-002,3.15242E-004,1.18150E-001,-4.78057E-002,1.08836E-001,1.18865E-001,1.12536E+000,-1.16091E-002,0.00000E+000,1.07061E-002,9.55031E-001,0.00000E+000,-4.94127E-003,-6.09439E-002,1.00000E+000,18
1239,1327,2.69828E+001,7.25987E-002,-8.16583E-002,6.84777E+000,-1.58884E-001,-8.50900E-002,6.85014E+000,1.18972E-002,5.16540E-001,0,1.02762E+002,-3.25233E+000,9.99082E-001,6.94010E+001,-3.12222E+001,9.98084E-001,1.18940E-001,-4.77976E-002,4.06435E-004,1.18941E-001,-4.77986E-002,1.39662E-001,1.19702E-001,1.12625E+000,-1.15713E-002,0.00000E+000,1.07757E-002,9.55034E-001,0.00000E+000,-3.81583E-003,-6.08959E-002,1.00000E+000,18
1239,1337,2.70074E+001,7.03214E-001,-7.28569E-002,6.84242E+000,-1.83350E-001,-1.22736E-001,6.84597E+000,1.02651E-002,4.14568E-001,0,1.02818E+002,-3.57846E+000,9.98782E-001,6.98437E+001,-3.14971E+001,9.96933E-001,1.19723E-001,-4.77897E-002,4.98031E-004,1.19724E-001,-4.77912E-002,1.70344E-001,1.20533E-001,1.12713E+000,-1.15312E-002,0.00000E+000,1.08449E-002,9.55038E-001,0.00000E+000,-2.69840E-003,-6.08449E-002,1.00000E+000,18
1239,1297,2.69448E+001,-1.78318E+000,3.24617E-002,6.86368E+000,-5.87646E-002,3.16112E-002,6.86401E+000,9.90169E-003,4.53625E-001,0,1.02530E+002,-1.86563E+000,9.99029E-001,6.88276E+001,-3.03394E+001,9.97489E-001,1.16583E-001,-4.78136E-002,1.52601E-004,1.16583E-001,-4.78137E-002,5.31848E-002,1.17209E-001,1.12361E+000,-1.16437E-002,0.00000E+000,1.05685E-002,9.55029E-001,0.00000E+000,-7.16444E-003,-6.09879E-002,1.00000E+000,18
609,1347,-1.91235E+001,5.84759E-001,2.90122E-002,1.81540E+000,-5.51151E-001,5.11364E-002,1.89791E+000,1.14508E-002,6.40152E-001,0,2.83924E+001,-9.00780E+000,9.98530E-001,-1.26230E+001,-4.97661E+001,9.98237E-001,9.84930E-002,-4.22669E-002,-8.40049E-004,9.84980E-002,-4.22719E-002,-3.41922E-001,9.88269E-002,1.10337E+000,1.77732E-002,0.00000E+000,-1.69263E-002,9.60096E-001,0.00000E+000,-1.83636E-003,-5.83995E-002,1.00000E+000,18
609,1357,-1.90983E+001,1.20804E+000,3.11421E-002,1.82465E+000,-5.69857E-001,1.94371E-002,1.91167E+000,9.04653E-003,6.13899E-001,0,2.86194E+001,-9.23445E+000,9.99129E-001,-1.20761E+001,-5.02158E+001,9.98762E-001,9.64382E-002,-4.22666E-002,-8.27446E-004,9.64432E-002,-4.22716E-002,-3.41783E-001,9.66876E-002,1.10111E+000,1.77180E-002,0.00000E+000,-1.68364E-002,9.60099E-001,0.00000E+000,-2.71873E-003,-5.84210E-002,1.00000E+000,18
609,1317,-1.91782E+001,-1.23266E+000,2.07427E-001,1.78009E+000,-4.65362E-001,1.62181E-001,1.84705E+000,1.19866E-002,6.14680E-001,0,2.75317E+001,-7.88423E+000,9.99065E-001,-1.33929E+001,-4.80704E+001,9.98050E-001,1.04594E-001,-4.22661E-002,-9.21351E-004,1.04600E-001,-4.22719E-002,-3.59435E-001,1.05239E-001,1.11012E+000,1.78406E-002,0.00000E+000,-1.71947E-002,9.60094E-001,0.00000E+000,7.97081E-004,-5.83732E-002,1.00000E+000,18
609,1327,-1.91647E+001,-6.38801E-001,1.16856E-001,1.79201E+000,-5.02459E-001,1.22979E-001,1.86518E+000,8.29455E-003,6.39657E-001,0,2.78309E+001,-8.38385E+000,9.99152E-001,-1.33019E+001,-4.87445E+001,9.98533E-001,1.02570E-001,-4.22667E-002,-8.86845E-004,1.02575E-001,-4.22721E-002,-3.50809E-001,1.03102E-001,1.10787E+000,1.78349E-002,0.00000E+000,-1.71054E-002,9.60094E-001,0.00000E+000,-7.90238E-005,-5.83754E-002,1.00000E+000,18
609,1337,-1.91447E+001,-2.70133E-002,6.17152E-002,1.80470E+000,-5.24846E-001,8.53619E-002,1.88141E+000,9.60361E-003,6.23240E-001,0,2.81320E+001,-8.66111E+000,9.98534E-001,-1.30044E+001,-4.92389E+001,9.98331E-001,1.00538E-001,-4.22669E-002,-8.61026E-004,1.00543E-001,-4.22721E-002,-3.45442E-001,1.00966E-001,1.10562E+000,1.78096E-002,0.00000E+000,-1.70161E-002,9.60095E-001,0.00000E+000,-9.56003E-004,-5.83853E-002,1.00000E+000,18
1249,1297,2.76981E+001,-1.76567E+000,4.19094E-002,6.94866E+000,-4.83300E-002,3.45905E-002,6.94891E+000,1.20180E-002,5.03228E-001,0,1.03697E+002,-1.74170E+000,9.99070E-001,7.06165E+001,-2.99737E+001,9.97615E-001,1.15875E-001,-4.72251E-002,3.53677E-004,1.15876E-001,-4.72259E-002,1.24243E-001,1.16535E-001,1.12283E+000,-1.03823E-002,0.00000E+000,9.91156E-003,9.55561E-001,0.00000E+000,-7.48078E-003,-6.03429E-002,1.00000E+000,18
1249,1307,2.76961E+001,-1.15748E+000,-4.47816E-002,6.93973E+000,-8.51710E-002,-1.12741E-002,6.94026E+000,1.51458E-002,4.58252E-001,0,1.03762E+002,-2.22732E+000,9.99062E-001,7.05125E+001,-3.03562E+001,9.97261E-001,1.16805E-001,-4.72166E-002,5.70394E-004,1.16807E-001,-4.72186E-002,1.99246E-001,1.17518E-001,1.12387E+000,-1.03712E-002,0.00000E+000,1.02224E-002,9.55564E-001,0.00000E+000,-5.97016E-003,-6.03266E-002,1.00000E+000,18
1249,1317,2.77055E+001,-5.40034E-001,-9.23068E-002,6.93367E+000,-1.16866E-001,-4.97733E-002,6.93484E+000,1.37033E-002,4.11773E-001,0,1.03829E+002,-2.65632E+000,9.98376E-001,7.06389E+001,-3.06794E+001,9.97085E-001,1.17734E-001,-4.72026E-002,7.93741E-004,1.17738E-001,-4.72065E-002,2.75722E-001,1.18505E-001,1.12491E+000,-1.03466E-002,0.00000E+000,1.05343E-002,9.55571E-001,0.00000E+000,-4.45405E-003,-6.02907E-002,1.00000E+000,18
1249,1327,2.77248E+001,8.98632E-002,-1.03224E-001,6.92742E+000,-1.43217E-001,-8.96244E-002,6.92948E+000,1.27125E-002,4.61777E-001,0,1.03887E+002,-3.02478E+000,9.98374E-001,7.09701E+001,-3.08416E+001,9.97736E-001,1.18667E-001,-4.71821E-002,1.02572E-003,1.18673E-001,-4.71884E-002,3.54337E-001,1.19499E-001,1.12595E+000,-1.03059E-002,0.00000E+000,1.08487E-002,9.55584E-001,0.00000E+000,-2.92622E-003,-6.02312E-002,1.00000E+000,18
1249,1337,2.77523E+001,7.22185E-001,-8.14315E-002,6.92203E+000,-1.69958E-001,-1.24451E-001,6.92524E+000,9.83294E-003,4.33646E-001,0,1.03931E+002,-3.39389E+000,9.99137E-001,7.14738E+001,-3.10797E+001,9.98681E-001,1.19598E-001,-4.71568E-002,1.26306E-003,1.19608E-001,-4.71664E-002,4.33945E-001,1.20495E-001,1.12700E+000,-1.02535E-002,0.00000E+000,1.11637E-002,9.55599E-001,0.00000E+000,-1.39538E-003,-6.01546E-002,1.00000E+000,18
1259,1327,2.84720E+001,1.01025E-001,-1.12477E-001,7.00818E+000,-1.36681E-001,-9.54015E-002,7.01016E+000,1.03237E-002,4.36531E-001,0,1.05033E+002,-2.93299E+000,9.99251E-001,7.26409E+001,-3.05677E+001,9.98680E-001,1.18485E-001,-4.69317E-002,1.62337E-003,1.18501E-001,-4.69476E-002,5.62219E-001,1.19349E-001,1.12575E+000,-9.37380E-003,0.00000E+000,1.11289E-002,9.55769E-001,0.00000E+000,-1.52685E-003,-5.93284E-002,1.00000E+000,18
1259,1337,2.85010E+001,7.31953E-001,-8.85773E-002,7.00360E+000,-1.65598E-001,-1.29759E-001,7.00676E+000,9.39632E-003,4.20166E-001,0,1.05088E+002,-3.33802E+000,9.99524E-001,7.31679E+001,-3.08244E+001,9.99239E-001,1.19428E-001,-4.68946E-002,1.95501E-003,1.19451E-001,-4.69176E-002,6.73350E-001,1.20363E-001,1.12682E+000,-9.31948E-003,0.00000E+000,1.16017E-002,9.55793E-001,0.00000E+000,4.23806E-004,-5.92288E-002,1.00000E+000,18
599,1347,-1.98224E+001,5.94724E-001,3.81363E-002,1.75455E+000,-5.36056E-001,5.54649E-002,1.83545E+000,1.09130E-002,6.57927E-001,0,2.74427E+001,-8.78426E+000,9.99075E-001,-1.32499E+001,-4.97270E+001,9.99105E-001,9.80331E-002,-4.24139E-002,-5.97897E-004,9.80357E-002,-4.24164E-002,-2.43908E-001,9.83316E-002,1.10283E+000,1.95942E-002,0.00000E+000,-1.80629E-002,9.59868E-001,0.00000E+000,-1.56666E-003,-5.72093E-002,1.00000E+000,18
599,1357,-1.97949E+001,1.21035E+000,3.65413E-002,1.76679E+000,-5.62099E-001,2.28357E-002,1.85419E+000,7.49048E-003,6.46488E-001,0,2.77204E+001,-9.12708E+000,9.99296E-001,-1.26785E+001,-5.02804E+001,9.99097E-001,9.61085E-002,-4.24115E-002,-3.70953E-004,9.61095E-002,-4.24125E-002,-1.53435E-001,9.63301E-002,1.10071E+000,1.95447E-002,0.00000E+000,-1.75642E-002,9.59880E-001,0.00000E+000,-2.51583E-003,-5.72315E-002,1.00000E+000,18
1259,1287,2.84478E+001,-2.36351E+000,1.23252E-001,7.03513E+000,-5.98410E-003,6.30926E-002,7.03542E+000,1.30200E-002,4.16653E-001,0,1.04772E+002,-1.11660E+000,9.98763E-001,7.24059E+001,-2.93973E+001,9.94861E-001,1.14701E-001,-4.70015E-002,3.66033E-004,1.14701E-001,-4.70023E-002,1.29695E-001,1.15322E-001,1.12154E+000,-9.45673E-003,0.00000E+000,9.25653E-003,9.55732E-001,0.00000E+000,-9.25175E-003,-5.94804E-002,1.00000E+000,18
1259,1297,2.84427E+001,-1.75613E+000,1.85351E-002,7.02868E+000,-4.24751E-002,2.03859E-002,7.02883E+000,1.12762E-002,4.62624E-001,0,1.04866E+002,-1.62516E+000,9.98786E-001,7.22298E+001,-2.97077E+001,9.96246E-001,1.15650E-001,-4.69948E-002,6.71239E-004,1.15653E-001,-4.69976E-002,2.36455E-001,1.16327E-001,1.12259E+000,-9.45443E-003,0.00000E+000,9.72285E-003,9.55733E-001,0.00000E+000,-7.32782E-003,-5.94762E-002,1.00000E+000,18
1259,1307,2.84452E+001,-1.14253E+000,-5.61041E-002,7.02291E+000,-7.56000E-002,-1.80366E-002,7.02334E+000,1.10267E-002,4.65891E-001,0,1.04945E+002,-2.08188E+000,9.98984E-001,7.22124E+001,-3.00058E+001,9.97442E-001,1.16597E-001,-4.69816E-002,9.81938E-004,1.16603E-001,-4.69875E-002,3.43921E-001,1.17333E-001,1.12364E+000,-9.44101E-003,0.00000E+000,1.01901E-002,9.55739E-001,0.00000E+000,-5.39991E-003,-5.94516E-002,1.00000E+000,18
599,1327,-1.98701E+001,-6.24202E-001,1.26083E-001,1.72409E+000,-4.83781E-001,1.25035E-001,1.79503E+000,8.77998E-003,6.35813E-001,0,2.67768E+001,-8.08240E+000,9.99259E-001,-1.40267E+001,-4.86421E+001,9.98559E-001,1.01850E-001,-4.24090E-002,-1.06883E-003,1.01858E-001,-4.24169E-002,-4.24479E-001,1.02331E-001,1.10704E+000,1.96499E-002,0.00000E+000,-1.90558E-002,9.59855E-001,0.00000E+000,3.22995E-004,-5.71843E-002,1.00000E+000,18
599,1337,-1.98504E+001,-1.96619E-002,6.23608E-002,1.73807E+000,-5.11871E-001,8.74661E-002,1.81399E+000,7.89121E-003,6.29069E-001,0,2.70992E+001,-8.45570E+000,9.99115E-001,-1.37599E+001,-4.92265E+001,9.98978E-001,9.99490E-002,-4.24135E-002,-8.29923E-004,9.99539E-002,-4.24183E-002,-3.33999E-001,1.00334E-001,1.10494E+000,1.96312E-002,0.00000E+000,-1.85606E-002,9.59860E-001,0.00000E+000,-6.19396E-004,-5.71927E-002,1.00000E+000,18
1259,1317,2.84556E+001,-5.22722E-001,-9.36597E-002,7.01748E+000,-1.05908E-001,-4.77071E-002,7.01844E+000,1.07775E-002,4.63774E-001,0,1.04985E+002,-2.52199E+000,9.99241E-001,7.23676E+001,-3.02899E+001,9.98185E-001,1.17542E-001,-4.69613E-002,1.29873E-003,1.17552E-001,-4.69715E-002,4.52306E-001,1.18340E-001,1.12470E+000,-9.41534E-003,0.00000E+000,1.06587E-002,9.55751E-001,0.00000E+000,-3.46675E-003,-5.94045E-002,1.00000E+000,18
599,1317,-1.98885E+001,-1.22607E+000,2.13102E-001,1.70701E+000,-4.55663E-001,1.59658E-001,1.77398E+000,1.17308E-002,6.17476E-001,0,2.64123E+001,-7.70653E+000,9.99091E-001,-1.42048E+001,-4.80786E+001,9.98575E-001,1.03745E-001,-4.24014E-002,-1.31368E-003,1.03757E-001,-4.24132E-002,-5.14967E-001,1.04331E-001,1.10914E+000,1.96545E-002,0.00000E+000,-1.95504E-002,9.59854E-001,0.00000E+000,1.26451E-003,-5.71822E-002,1.00000E+000,18
589,1347,-2.05294E+001,6.04935E-001,4.23534E-002,1.68602E+000,-5.20226E-001,5.94104E-002,1.76546E+000,8.27978E-003,6.46713E-001,0,2.63729E+001,-8.52986E+000,9.99166E-001,-1.40086E+001,-4.96894E+001,9.99057E-001,9.75975E-002,-4.22562E-002,-5.38238E-005,9.75975E-002,-4.22562E-002,-2.20507E-002,9.78895E-002,1.10230E+000,2.19987E-002,0.00000E+000,-1.91216E-002,9.59943E-001,0.00000E+000,-1.47621E-003,-5.61845E-002,1.00000E+000,18
589,1357,-2.04979E+001,1.22013E+000,4.41488E-002,1.70178E+000,-5.47710E-001,2.68530E-002,1.78795E+000,6.61592E-003,6.44709E-001,0,2.67052E+001,-8.88933E+000,9.99249E-001,-1.33661E+001,-5.02535E+001,9.99326E-001,9.56685E-002,-4.22543E-002,1.77121E-004,9.56687E-002,-4.22545E-002,7.35792E-002,9.58854E-002,1.10018E+000,2.19479E-002,0.00000E+000,-1.86218E-002,9.59955E-001,0.00000E+000,-2.37574E-003,-5.62060E-002,1.00000E+000,18
589,1337,-2.05537E+001,-1.29086E-002,6.96307E-002,1.67212E+000,-5.00211E-001,8.87328E-002,1.74759E+000,6.46006E-003,6.16507E-001,0,2.60781E+001,-8.26561E+000,9.99419E-001,-1.44557E+001,-4.92465E+001,9.99402E-001,9.95148E-002,-4.22542E-002,-2.91582E-004,9.95154E-002,-4.22548E-002,-1.17842E-001,9.98918E-002,1.10442E+000,2.20323E-002,0.00000E+000,-1.96197E-002,9.59935E-001,0.00000E+000,-5.79865E-004,-5.61703E-002,1.00000E+000,18
589,1327,-2.05693E+001,-6.09298E-001,1.32102E-001,1.66235E+000,-4.64779E-001,1.26389E-001,1.73073E+000,1.19768E-002,6.77626E-001,0,2.58202E+001,-7.79312E+000,9.99512E-001,-1.46623E+001,-4.85047E+001,9.98657E-001,1.01415E-001,-4.22490E-002,-5.34195E-004,1.01417E-001,-4.22510E-002,-2.13042E-001,1.01887E-001,1.10652E+000,2.20514E-002,0.00000E+000,-2.01146E-002,9.59931E-001,0.00000E+000,3.10978E-004,-5.61622E-002,1.00000E+000,18
1269,1327,2.92262E+001,1.16166E-001,-1.06782E-001,7.09499E+000,-1.28273E-001,-8.77695E-002,7.09669E+000,8.70919E-003,4.34671E-001,0,1.06209E+002,-2.82580E+000,9.99481E-001,7.44448E+001,-3.02526E+001,9.98774E-001,1.18348E-001,-4.65048E-002,2.10264E-003,1.18375E-001,-4.65316E-002,7.30629E-001,1.19273E-001,1.12561E+000,-8.43407E-003,0.00000E+000,1.12129E-002,9.56062E-001,0.00000E+000,-7.35436E-004,-5.72429E-002,1.00000E+000,18
1269,1337,2.92594E+001,7.42149E-001,-8.21108E-002,7.09349E+000,-1.62190E-001,-1.24669E-001,7.09644E+000,9.26699E-003,4.19276E-001,0,1.06323E+002,-3.31352E+000,9.99369E-001,7.50352E+001,-3.05855E+001,9.98029E-001,1.19341E-001,-4.64579E-002,2.50871E-003,1.19379E-001,-4.64959E-002,8.66682E-001,1.20347E-001,1.12673E+000,-8.37491E-003,0.00000E+000,1.18244E-002,9.56094E-001,0.00000E+000,1.30100E-003,-5.71356E-002,1.00000E+000,18
589,1317,-2.05910E+001,-1.21262E+000,2.26295E-001,1.64171E+000,-4.38113E-001,1.66455E-001,1.70729E+000,9.70040E-003,6.14396E-001,0,2.53864E+001,-7.43595E+000,9.98743E-001,-1.48684E+001,-4.79995E+001,9.97663E-001,1.03313E-001,-4.22403E-002,-7.83806E-004,1.03317E-001,-4.22445E-002,-3.08527E-001,1.03887E-001,1.10862E+000,2.20550E-002,0.00000E+000,-2.06100E-002,9.59930E-001,0.00000E+000,1.20250E-003,-5.61606E-002,1.00000E+000,18
1269,1317,2.92112E+001,-5.07541E-001,-9.18905E-002,7.10365E+000,-9.73666E-002,-5.22906E-002,7.10451E+000,8.94957E-003,4.19470E-001,0,1.06200E+002,-2.38075E+000,9.99436E-001,7.41899E+001,-2.99880E+001,9.98526E-001,1.17354E-001,-4.65389E-002,1.70615E-003,1.17372E-001,-4.65566E-002,5.96371E-001,1.18205E-001,1.12449E+000,-8.47443E-003,0.00000E+000,1.06041E-002,9.56040E-001,0.00000E+000,-2.76286E-003,-5.73162E-002,1.00000E+000,18
1269,1307,2.91994E+001,-1.12778E+000,-5.06788E-002,7.10772E+000,-6.77039E-002,-1.89410E-002,7.10807E+000,9.88783E-003,4.46570E-001,0,1.06124E+002,-1.96278E+000,9.99017E-001,7.40169E+001,-2.97075E+001,9.97889E-001,1.16360E-001,-4.65638E-002,1.31695E-003,1.16370E-001,-4.65745E-002,4.63096E-001,1.17140E-001,1.12338E+000,-8.50168E-003,0.00000E+000,9.99821E-003,9.56025E-001,0.00000E+000,-4.78078E-003,-5.73657E-002,1.00000E+000,18
1269,1297,2.91910E+001,-1.74514E+000,1.05669E-002,7.11021E+000,-3.70964E-002,1.53969E-002,7.11033E+000,1.09447E-002,4.45203E-001,0,1.06016E+002,-1.53133E+000,9.98919E-001,7.39254E+001,-2.94405E+001,9.97410E-001,1.15361E-001,-4.65827E-002,9.31894E-004,1.15366E-001,-4.65881E-002,3.29690E-001,1.16076E-001,1.12227E+000,-8.52022E-003,0.00000E+000,9.39305E-003,9.56015E-001,0.00000E+000,-6.79615E-003,-5.73993E-002,1.00000E+000,18
1269,1287,2.91992E+001,-2.35338E+000,1.23130E-001,7.11760E+000,-2.70468E-003,5.76304E-002,7.11783E+000,1.55444E-002,4.08428E-001,0,1.05936E+002,-1.05317E+000,9.99154E-001,7.41599E+001,-2.91567E+001,9.96049E-001,1.14361E-001,-4.65880E-002,5.57221E-004,1.14363E-001,-4.65899E-002,1.98360E-001,1.15015E-001,1.12116E+000,-8.51885E-003,0.00000E+000,8.79052E-003,9.56016E-001,0.00000E+000,-8.80276E-003,-5.73968E-002,1.00000E+000,18
579,1347,-2.12302E+001,6.12211E-001,4.64110E-002,1.62252E+000,-5.08198E-001,5.89629E-002,1.70127E+000,6.82590E-003,6.39708E-001,0,2.53929E+001,-8.32414E+000,9.99271E-001,-1.46704E+001,-4.96935E+001,9.99272E-001,9.67246E-002,-4.20098E-002,4.93900E-004,9.67264E-002,-4.20116E-002,2.03972E-001,9.70040E-002,1.10129E+000,2.43738E-002,0.00000E+000,-2.01373E-002,9.60117E-001,0.00000E+000,-1.82375E-003,-5.53949E-002,1.00000E+000,18
579,1357,-2.11942E+001,1.23326E+000,5.13344E-002,1.64259E+000,-5.30160E-001,2.76663E-002,1.72625E+000,7.23681E-003,6.55774E-001,0,2.57875E+001,-8.60549E+000,9.99490E-001,-1.39478E+001,-5.01672E+001,9.99531E-001,9.46735E-002,-4.20085E-002,7.52993E-004,9.46777E-002,-4.20126E-002,3.15634E-001,9.48772E-002,1.09904E+000,2.43195E-002,0.00000E+000,-1.95813E-002,9.60130E-001,0.00000E+000,-2.84037E-003,-5.54194E-002,1.00000E+000,18
579,1337,-2.12590E+001,-3.17444E-003,7.72897E-002,1.60397E+000,-4.85963E-001,9.18558E-002,1.67849E+000,6.93035E-003,6.40658E-001,0,2.50158E+001,-8.04807E+000,9.99062E-001,-1.51761E+001,-4.92039E+001,9.99199E-001,9.87615E-002,-4.20066E-002,2.27400E-004,9.87619E-002,-4.20070E-002,9.25566E-002,9.91283E-002,1.10354E+000,2.44090E-002,0.00000E+000,-2.06910E-002,9.60108E-001,0.00000E+000,-8.11321E-004,-5.53790E-002,1.00000E+000,18
579,1327,-2.12823E+001,-6.00790E-001,1.31671E-001,1.58713E+000,-4.51967E-001,1.25130E-001,1.65497E+000,8.29067E-003,6.84108E-001,0,2.46601E+001,-7.57007E+000,9.99462E-001,-1.55226E+001,-4.84714E+001,9.98676E-001,1.00780E-001,-4.20003E-002,-4.30430E-005,1.00780E-001,-4.20003E-002,-1.72726E-002,1.01244E-001,1.10576E+000,2.44310E-002,0.00000E+000,-2.12410E-002,9.60103E-001,0.00000E+000,1.94512E-004,-5.53691E-002,1.00000E+000,18
579,1317,-2.12985E+001,-1.19885E+000,2.24268E-001,1.57219E+000,-4.21561E-001,1.65220E-001,1.63609E+000,1.20952E-002,6.86929E-001,0,2.43153E+001,-7.16451E+000,9.98765E-001,-1.56482E+001,-4.78465E+001,9.97398E-001,1.02790E-001,-4.19899E-002,-3.20893E-004,1.02791E-001,-4.19906E-002,-1.26990E-001,1.03363E-001,1.10799E+000,2.44355E-002,0.00000E+000,-2.17906E-002,9.60102E-001,0.00000E+000,1.19935E-003,-5.53670E-002,1.00000E+000,18
1279,1317,2.99581E+001,-4.99810E-001,-9.82793E-002,7.18390E+000,-9.39145E-002,-5.25498E-002,7.18470E+000,8.34958E-003,3.78293E-001,0,1.07312E+002,-2.33644E+000,9.99146E-001,7.58669E+001,-2.97837E+001,9.97880E-001,1.16981E-001,-4.58997E-002,2.03910E-003,1.17006E-001,-4.59252E-002,7.17135E-001,1.17904E-001,1.12408E+000,-7.49233E-003,0.00000E+000,1.03843E-002,9.56541E-001,0.00000E+000,-2.19287E-003,-5.51970E-002,1.00000E+000,18
1279,1327,2.99835E+001,1.29621E-001,-1.03532E-001,7.18405E+000,-1.21582E-001,-8.38273E-002,7.18557E+000,1.26787E-002,4.31963E-001,0,1.07433E+002,-2.73951E+000,9.98966E-001,7.62969E+001,-2.99585E+001,9.98480E-001,1.18075E-001,-4.58574E-002,2.51119E-003,1.18113E-001,-4.58959E-002,8.77409E-001,1.19087E-001,1.12531E+000,-7.44488E-003,0.00000E+000,1.11286E-002,9.56570E-001,0.00000E+000,-6.21491E-006,-5.51127E-002,1.00000E+000,18
1279,1337,3.00163E+001,7.57011E-001,-7.49757E-002,7.18203E+000,-1.55646E-001,-1.16354E-001,7.18466E+000,9.86599E-003,4.39742E-001,0,1.07520E+002,-3.22972E+000,9.99277E-001,7.68837E+001,-3.02655E+001,9.98690E-001,1.19166E-001,-4.58019E-002,2.99222E-003,1.19221E-001,-4.58562E-002,1.03878E+000,1.20274E-001,1.12655E+000,-7.37968E-003,0.00000E+000,1.18754E-002,9.56609E-001,0.00000E+000,2.18815E-003,-5.49969E-002,1.00000E+000,18
1279,1307,2.99407E+001,-1.11862E+000,-6.31175E-002,7.18377E+000,-6.28085E-002,-2.07368E-002,7.18407E+000,1.00569E-002,4.35626E-001,0,1.07181E+002,-1.89387E+000,9.99116E-001,7.56009E+001,-2.94552E+001,9.96935E-001,1.15889E-001,-4.59307E-002,1.57708E-003,1.15905E-001,-4.59460E-002,5.58327E-001,1.16731E-001,1.12286E+000,-7.52471E-003,0.00000E+000,9.64625E-003,9.56521E-001,0.00000E+000,-4.36130E-003,-5.52545E-002,1.00000E+000,18
1279,1297,2.99407E+001,-1.73160E+000,1.70820E-002,7.19123E+000,-2.83151E-002,1.96893E-002,7.19132E+000,1.71218E-002,3.65833E-001,0,1.07115E+002,-1.39904E+000,9.98961E-001,7.56648E+001,-2.91955E+001,9.97544E-001,1.14792E-001,-4.59479E-002,1.12317E-003,1.14800E-001,-4.59558E-002,4.00328E-001,1.15558E-001,1.12164E+000,-7.53877E-003,0.00000E+000,8.90856E-003,9.56513E-001,0.00000E+000,-6.52864E-003,-5.52795E-002,1.00000E+000,18
1279,1287,2.99430E+001,-2.35253E+000,1.10381E-001,7.19663E+000,-4.85339E-003,5.72327E-002,7.19686E+000,1.55053E-002,3.26055E-001,0,1.07032E+002,-1.06816E+000,9.99117E-001,7.57802E+001,-2.90719E+001,9.96808E-001,1.13692E-001,-4.59589E-002,6.74226E-004,1.13695E-001,-4.59618E-002,2.41961E-001,1.14388E-001,1.12042E+000,-7.54467E-003,0.00000E+000,8.17331E-003,9.56509E-001,0.00000E+000,-8.68883E-003,-5.52899E-002,1.00000E+000,18
569,1347,-2.19302E+001,6.25861E-001,4.91362E-002,1.55969E+000,-4.89891E-001,5.88588E-002,1.63587E+000,7.40684E-003,6.60760E-001,0,2.44199E+001,-8.02984E+000,9.99173E-001,-1.53178E+001,-4.95832E+001,9.98920E-001,9.62156E-002,-4.16624E-002,9.47907E-004,9.62221E-002,-4.16689E-002,3.93882E-001,9.65093E-002,1.10068E+000,2.68330E-002,0.00000E+000,-2.14209E-002,9.60383E-001,0.00000E+000,-1.86640E-003,-5.46375E-002,1.00000E+000,18
569,1357,-2.18964E+001,1.24042E+000,4.68886E-002,1.57907E+000,-5.15988E-001,2.80535E-002,1.66147E+000,7.56081E-003,6.57301E-001,0,2.48034E+001,-8.38287E+000,9.99353E-001,-1.46492E+001,-5.01526E+001,9.98944E-001,9.40948E-002,-4.16633E-002,1.27582E-003,9.41068E-002,-4.16753E-002,5.38390E-001,9.43114E-002,1.09835E+000,2.67820E-002,0.00000E+000,-2.07324E-002,9.60399E-001,0.00000E+000,-3.06716E-003,-5.46639E-002,1.00000E+000,18
569,1327,-2.19849E+001,-5.95587E-001,1.32284E-001,1.52257E+000,-4.41399E-001,1.29119E-001,1.59051E+000,1.20947E-002,6.99317E-001,0,2.36525E+001,-7.40703E+000,9.99543E-001,-1.62184E+001,-4.84856E+001,9.99209E-001,1.00420E-001,-4.16489E-002,2.77468E-004,1.00420E-001,-4.16494E-002,1.11901E-001,1.00905E-001,1.10531E+000,2.68950E-002,0.00000E+000,-2.27919E-002,9.60365E-001,0.00000E+000,5.24465E-004,-5.46055E-002,1.00000E+000,18
569,1337,-2.19596E+001,1.25239E-002,8.10448E-002,1.53988E+000,-4.66602E-001,8.90328E-002,1.61148E+000,6.62457E-003,6.42461E-001,0,2.40301E+001,-7.71736E+000,9.99259E-001,-1.58284E+001,-4.90721E+001,9.99226E-001,9.83249E-002,-4.16565E-002,6.13149E-004,9.83276E-002,-4.16591E-002,2.50962E-001,9.87087E-002,1.10300E+000,2.68667E-002,0.00000E+000,-2.21078E-002,9.60373E-001,0.00000E+000,-6.68578E-004,-5.46201E-002,1.00000E+000,18
1289,1327,3.07267E+001,1.37104E-001,-1.12625E-001,7.26142E+000,-1.18592E-001,-8.14052E-002,7.26284E+000,1.18206E-002,4.33111E-001,0,1.08491E+002,-2.71755E+000,9.98617E-001,7.79151E+001,-2.97302E+001,9.97686E-001,1.17757E-001,-4.49755E-002,2.89952E-003,1.17809E-001,-4.50272E-002,1.02045E+000,1.18893E-001,1.12496E+000,-6.26195E-003,0.00000E+000,1.08520E-002,9.57299E-001,0.00000E+000,6.04633E-004,-5.27857E-002,1.00000E+000,18
1289,1337,3.07608E+001,7.68904E-001,-8.78206E-002,7.26077E+000,-1.48689E-001,-1.17002E-001,7.26323E+000,1.12783E-002,4.38564E-001,0,1.08610E+002,-3.13533E+000,9.99160E-001,7.85173E+001,-2.99595E+001,9.98227E-001,1.18997E-001,-4.49149E-002,3.43182E-003,1.19069E-001,-4.49867E-002,1.19890E+000,1.20248E-001,1.12637E+000,-6.18781E-003,0.00000E+000,1.16888E-002,9.57343E-001,0.00000E+000,2.93756E-003,-5.26626E-002,1.00000E+000,18
569,1317,-2.20055E+001,-1.18832E+000,2.23012E-001,1.50167E+000,-4.06000E-001,1.58089E-001,1.56360E+000,1.38138E-002,6.77068E-001,0,2.32422E+001,-6.90370E+000,9.98966E-001,-1.64147E+001,-4.77861E+001,9.97552E-001,1.02504E-001,-4.16330E-002,-7.03801E-005,1.02504E-001,-4.16331E-002,-2.79767E-002,1.03104E-001,1.10762E+000,2.68943E-002,0.00000E+000,-2.34748E-002,9.60365E-001,0.00000E+000,1.71553E-003,-5.46059E-002,1.00000E+000,18
1289,1317,3.07042E+001,-4.89272E-001,-9.70133E-002,7.26191E+000,-9.14638E-002,-4.86724E-002,7.26265E+000,1.36332E-002,4.78646E-001,0,1.08371E+002,-2.33532E+000,9.99203E-001,7.75457E+001,-2.94823E+001,9.96804E-001,1.16520E-001,-4.50179E-002,2.38221E-003,1.16555E-001,-4.50531E-002,8.44698E-001,1.17551E-001,1.12357E+000,-6.31087E-003,0.00000E+000,1.00226E-002,9.57270E-001,0.00000E+000,-1.70762E-003,-5.28669E-002,1.00000E+000,18
1289,1287,3.06863E+001,-2.33450E+000,9.77806E-002,7.27310E+000,7.54348E-003,5.07043E-002,7.27328E+000,1.59600E-002,4.11104E-001,0,1.08106E+002,-9.03285E-001,9.99128E-001,7.73994E+001,-2.86367E+001,9.96640E-001,1.12780E-001,-4.50828E-002,8.71724E-004,1.12785E-001,-4.50876E-002,3.16376E-001,1.13538E-001,1.11941E+000,-6.37290E-003,0.00000E+000,7.54410E-003,9.57233E-001,0.00000E+000,-8.61747E-003,-5.29698E-002,1.00000E+000,18
1289,1297,3.06893E+001,-1.72380E+000,1.67360E-002,7.26941E+000,-2.59356E-002,1.24032E-002,7.26947E+000,1.69319E-002,3.28911E-001,0,1.08220E+002,-1.36110E+000,9.99198E-001,7.73817E+001,-2.90044E+001,9.97498E-001,1.14028E-001,-4.50662E-002,1.37007E-003,1.14040E-001,-4.50780E-002,4.93365E-001,1.14870E-001,1.12079E+000,-6.35872E-003,0.00000E+000,8.36613E-003,9.57241E-001,0.00000E+000,-6.32572E-003,-5.29463E-002,1.00000E+000,18
1289,1307,3.06914E+001,-1.10931E+000,-6.35469E-002,7.26510E+000,-6.04582E-002,-2.36339E-002,7.26539E+000,1.24217E-002,4.68437E-001,0,1.08316E+002,-1.87113E+000,9.99579E-001,7.73498E+001,-2.92036E+001,9.97480E-001,1.15278E-001,-4.50496E-002,1.87175E-003,1.15300E-001,-4.50714E-002,6.68781E-001,1.16211E-001,1.12218E+000,-6.34507E-003,0.00000E+000,9.19443E-003,9.57249E-001,0.00000E+000,-4.01649E-003,-5.29236E-002,1.00000E+000,18
559,1327,-2.26798E+001,-5.85638E-001,1.24044E-001,1.46437E+000,-4.27704E-001,1.18642E-001,1.53016E+000,2.25733E-002,8.38230E-001,0,2.27794E+001,-7.21401E+000,9.99639E-001,-1.68186E+001,-4.83454E+001,9.98870E-001,1.00022E-001,-4.15707E-002,7.29407E-004,1.00026E-001,-4.15745E-002,2.95146E-001,1.00499E-001,1.10480E+000,2.94667E-002,0.00000E+000,-2.41719E-002,9.60346E-001,0.00000E+000,6.95436E-004,-5.34290E-002,1.00000E+000,18
559,1337,-2.26599E+001,2.37057E-002,7.83421E-002,1.47659E+000,-4.50523E-001,8.55894E-002,1.54616E+000,6.23597E-003,6.56421E-001,0,2.30582E+001,-7.44922E+000,9.99595E-001,-1.64933E+001,-4.89898E+001,9.99591E-001,9.79765E-002,-4.15782E-002,1.00627E-003,9.79837E-002,-4.15855E-002,4.13105E-001,9.83562E-002,1.10255E+000,2.94404E-002,0.00000E+000,-2.36036E-002,9.60353E-001,0.00000E+000,-5.75109E-004,-5.34438E-002,1.00000E+000,18
559,1347,-2.26336E+001,6.37109E-001,5.00526E-002,1.49340E+000,-4.71988E-001,5.84203E-002,1.56730E+000,8.72609E-003,6.48381E-001,0,2.33924E+001,-7.75156E+000,9.99227E-001,-1.60172E+001,-4.95233E+001,9.98885E-001,9.59192E-002,-4.15842E-002,1.28119E-003,9.59312E-002,-4.15961E-002,5.33795E-001,9.62127E-002,1.10028E+000,2.94078E-002,0.00000E+000,-2.30336E-002,9.60361E-001,0.00000E+000,-1.84918E-003,-5.34622E-002,1.00000E+000,18
559,1357,-2.25982E+001,1.25070E+000,4.46679E-002,1.51520E+000,-4.97985E-001,2.82204E-002,1.59518E+000,7.77478E-003,6.40365E-001,0,2.38121E+001,-8.10720E+000,9.99212E-001,-1.53319E+001,-5.01046E+001,9.99081E-001,9.38473E-002,-4.15867E-002,1.55093E-003,9.38650E-002,-4.16044E-002,6.56010E-001,9.40665E-002,1.09801E+000,2.93607E-002,0.00000E+000,-2.24614E-002,9.60373E-001,0.00000E+000,-3.12842E-003,-5.34887E-002,1.00000E+000,18
559,1317,-2.27057E+001,-1.17369E+000,2.24768E-001,1.43773E+000,-3.88241E-001,1.54876E-001,1.49726E+000,2.24032E-002,7.16504E-001,0,2.22601E+001,-6.61126E+000,9.99367E-001,-1.70626E+001,-4.76438E+001,9.98470E-001,1.02060E-001,-4.15565E-002,4.40142E-004,1.02061E-001,-4.15579E-002,1.75593E-001,1.02645E-001,1.10706E+000,2.94645E-002,0.00000E+000,-2.47399E-002,9.60347E-001,0.00000E+000,1.96523E-003,-5.34302E-002,1.00000E+000,18
1299,1327,3.14778E+001,1.49884E-001,-1.15955E-001,7.34213E+000,-1.13241E-001,-8.81880E-002,7.34354E+000,1.56002E-002,4.39327E-001,0,1.09630E+002,-2.63127E+000,9.98641E-001,7.96688E+001,-2.94289E+001,9.97791E-001,1.17474E-001,-4.39990E-002,3.24164E-003,1.17539E-001,-4.40640E-002,1.14962E+000,1.18759E-001,1.12465E+000,-4.75820E-003,0.00000E+000,1.02211E-002,9.58116E-001,0.00000E+000,1.11713E-003,-5.02045E-002,1.00000E+000,18
1299,1337,3.15216E+001,7.82182E-001,-7.75530E-002,7.34964E+000,-1.44499E-001,-1.14736E-001,7.35196E+000,1.43292E-002,4.79524E-001,0,1.09832E+002,-3.09388E+000,9.98618E-001,8.04358E+001,-2.96608E+001,9.97515E-001,1.18872E-001,-4.39327E-002,3.81510E-003,1.18961E-001,-4.40221E-002,1.34167E+000,1.20293E-001,1.12624E+000,-4.67115E-003,0.00000E+000,1.11255E-002,9.58166E-001,0.00000E+000,3.62127E-003,-5.00669E-002,1.00000E+000,18
1299,1287,3.14391E+001,-2.32315E+000,1.01476E-001,7.35409E+000,1.00679E-002,4.46993E-002,7.35424E+000,1.18998E-002,5.02204E-001,0,1.09243E+002,-8.79007E-001,9.99248E-001,7.91886E+001,-2.83362E+001,9.97353E-001,1.11875E-001,-4.41070E-002,1.07337E-003,1.11882E-001,-4.41144E-002,3.94251E-001,1.12712E-001,1.11840E+000,-4.87980E-003,0.00000E+000,6.65421E-003,9.58047E-001,0.00000E+000,-8.75832E-003,-5.03966E-002,1.00000E+000,18
1299,1297,3.14415E+001,-1.71592E+000,2.10970E-002,7.35130E+000,-2.66306E-002,1.24418E-002,7.35136E+000,1.26173E-002,4.90855E-001,0,1.09348E+002,-1.43019E+000,9.99497E-001,7.91633E+001,-2.87225E+001,9.97689E-001,1.13280E-001,-4.40927E-002,1.60506E-003,1.13296E-001,-4.41091E-002,5.84285E-001,1.14218E-001,1.11996E+000,-4.86721E-003,0.00000E+000,7.54107E-003,9.58054E-001,0.00000E+000,-6.30289E-003,-5.03767E-002,1.00000E+000,18
1299,1307,3.14559E+001,-1.09261E+000,-3.00169E-002,7.35505E+000,-5.28807E-002,-9.81317E-003,7.35525E+000,2.26539E-002,5.21265E-001,0,1.09498E+002,-1.82018E+000,9.99457E-001,7.93605E+001,-2.88995E+001,9.97975E-001,1.14686E-001,-4.40692E-002,2.14590E-003,1.14715E-001,-4.40983E-002,7.74281E-001,1.15732E-001,1.12152E+000,-4.84175E-003,0.00000E+000,8.43408E-003,9.58068E-001,0.00000E+000,-3.83046E-003,-5.03365E-002,1.00000E+000,18
1299,1317,3.14654E+001,-4.72653E-001,-8.19119E-002,7.34912E+000,-8.38567E-002,-5.07394E-002,7.34977E+000,1.98387E-002,5.05663E-001,0,1.09582E+002,-2.23767E+000,9.98801E-001,7.94813E+001,-2.91515E+001,9.97517E-001,1.16084E-001,-4.40375E-002,2.69185E-003,1.16129E-001,-4.40827E-002,9.62852E-001,1.17246E-001,1.12309E+000,-4.80465E-003,0.00000E+000,9.32749E-003,9.58090E-001,0.00000E+000,-1.35690E-003,-5.02779E-002,1.00000E+000,18
559,1307,-2.27281E+001,-1.76950E+000,3.36543E-001,1.41293E+000,-3.57691E-001,1.91114E-001,1.46998E+000,1.04703E-002,6.90145E-001,0,2.17710E+001,-6.20296E+000,9.98773E-001,-1.72207E+001,-4.70352E+001,9.97870E-001,1.04090E-001,-4.15408E-002,1.48533E-004,1.04091E-001,-4.15410E-002,5.84374E-002,1.04795E-001,1.10931E+000,2.94563E-002,0.00000E+000,-2.53077E-002,9.60349E-001,0.00000E+000,3.23454E-003,-5.34348E-002,1.00000E+000,18
549,1347,-2.33300E+001,6.51409E-001,5.00614E-002,1.43375E+000,-4.53320E-001,5.72266E-002,1.50479E+000,7.66228E-003,6.68213E-001,0,2.24695E+001,-7.44067E+000,9.99140E-001,-1.66068E+001,-4.93977E+001,9.98915E-001,9.56449E-002,-4.14106E-002,1.61967E-003,9.56640E-002,-4.14297E-002,6.76974E-001,9.59492E-002,1.09992E+000,3.18438E-002,0.00000E+000,-2.45284E-002,9.60431E-001,0.00000E+000,-1.65054E-003,-5.22545E-002,1.00000E+000,18
549,1357,-2.32945E+001,1.27057E+000,5.11156E-002,1.45487E+000,-4.74550E-001,2.81827E-002,1.53057E+000,8.22813E-003,6.55951E-001,0,2.28740E+001,-7.71816E+000,9.99134E-001,-1.58987E+001,-4.99119E+001,9.99074E-001,9.36399E-002,-4.14134E-002,1.87643E-003,9.36660E-002,-4.14395E-002,7.95861E-001,9.38728E-002,1.09772E+000,3.17961E-002,0.00000E+000,-2.39824E-002,9.60443E-001,0.00000E+000,-2.97305E-003,-5.22832E-002,1.00000E+000,18
549,1327,-2.33957E+001,-5.66266E-001,1.42764E-001,1.38324E+000,-4.03950E-001,1.25144E-001,1.44644E+000,1.80986E-002,7.60042E-001,0,2.14992E+001,-6.81929E+000,9.99068E-001,-1.76478E+001,-4.82298E+001,9.97206E-001,9.96153E-002,-4.13944E-002,1.08921E-003,9.96237E-002,-4.14028E-002,4.42540E-001,1.00096E-001,1.10429E+000,3.18942E-002,0.00000E+000,-2.56147E-002,9.60418E-001,0.00000E+000,9.80689E-004,-5.22241E-002,1.00000E+000,18
549,1337,-2.33591E+001,4.06214E-002,8.24853E-002,1.41375E+000,-4.27326E-001,8.64956E-002,1.47945E+000,6.43382E-003,6.46113E-001,0,2.20791E+001,-7.09418E+000,9.99455E-001,-1.71128E+001,-4.88465E+001,9.99421E-001,9.76409E-002,-4.14036E-002,1.35552E-003,9.76541E-002,-4.14168E-002,5.58496E-001,9.80282E-002,1.10211E+000,3.18740E-002,0.00000E+000,-2.50736E-002,9.60423E-001,0.00000E+000,-3.29766E-004,-5.22363E-002,1.00000E+000,18
1309,1317,3.22062E+001,-4.69777E-001,-1.07729E-001,7.42343E+000,-8.47801E-002,-6.47447E-002,7.42420E+000,1.56151E-002,4.51675E-001,0,1.10661E+002,-2.21937E+000,9.98729E-001,8.10521E+001,-2.89880E+001,9.97490E-001,1.15940E-001,-4.32686E-002,3.04454E-003,1.15999E-001,-4.33268E-002,1.09513E+000,1.17229E-001,1.12294E+000,-2.92574E-003,0.00000E+000,8.40888E-003,9.58717E-001,0.00000E+000,-1.33115E-003,-4.77201E-002,1.00000E+000,18
1309,1327,3.22306E+001,1.58080E-001,-1.23147E-001,7.42561E+000,-1.10818E-001,-9.33061E-002,7.42703E+000,1.83484E-002,4.24467E-001,0,1.10804E+002,-2.59685E+000,9.98447E-001,8.14486E+001,-2.92007E+001,9.97008E-001,1.17480E-001,-4.32309E-002,3.55217E-003,1.17559E-001,-4.33093E-002,1.26558E+000,1.18908E-001,1.12467E+000,-2.86695E-003,0.00000E+000,9.21755E-003,9.58745E-001,0.00000E+000,1.18491E-003,-4.76348E-002,1.00000E+000,18
1309,1337,3.22710E+001,7.92640E-001,-8.84166E-002,7.43086E+000,-1.39149E-001,-1.18655E-001,7.43311E+000,1.70821E-002,4.64060E-001,0,1.10968E+002,-3.02009E+000,9.98986E-001,8.21557E+001,-2.93886E+001,9.98283E-001,1.19025E-001,-4.31737E-002,4.07887E-003,1.19127E-001,-4.32762E-002,1.43962E+000,1.20603E-001,1.12642E+000,-2.77374E-003,0.00000E+000,1.00338E-002,9.58788E-001,0.00000E+000,3.72458E-003,-4.74996E-002,1.00000E+000,18
549,1317,-2.34095E+001,-1.15998E+000,2.38066E-001,1.36982E+000,-3.70787E-001,1.63315E-001,1.42848E+000,1.50805E-002,7.62673E-001,0,2.11848E+001,-6.36166E+000,9.99232E-001,-1.77259E+001,-4.75376E+001,9.98221E-001,1.01582E-001,-4.13809E-002,8.14949E-004,1.01587E-001,-4.13855E-002,3.26596E-001,1.02166E-001,1.10646E+000,3.18958E-002,0.00000E+000,-2.61553E-002,9.60418E-001,0.00000E+000,2.29026E-003,-5.22232E-002,1.00000E+000,18
549,1307,-2.34296E+001,-1.75578E+000,3.30486E-001,1.34818E+000,-3.39591E-001,1.85833E-001,1.40266E+000,1.09614E-002,7.10019E-001,0,2.07811E+001,-5.90076E+000,9.98778E-001,-1.79072E+001,-4.68989E+001,9.98114E-001,1.03547E-001,-4.13658E-002,5.37468E-004,1.03549E-001,-4.13678E-002,2.12501E-001,1.04244E-001,1.10864E+000,3.18909E-002,0.00000E+000,-2.66970E-002,9.60419E-001,0.00000E+000,3.60229E-003,-5.22261E-002,1.00000E+000,18
1309,1287,3.21911E+001,-2.31943E+000,1.00892E-001,7.43299E+000,7.96966E-003,3.10941E-002,7.43305E+000,1.09220E-002,4.79701E-001,0,1.10381E+002,-9.06813E-001,9.99276E-001,8.09645E+001,-2.82023E+001,9.97187E-001,1.11290E-001,-4.33185E-002,1.57618E-003,1.11306E-001,-4.33346E-002,5.84032E-001,1.12211E-001,1.11776E+000,-2.99138E-003,0.00000E+000,5.99524E-003,9.58687E-001,0.00000E+000,-8.84085E-003,-4.78153E-002,1.00000E+000,18
1309,1297,3.21918E+001,-1.71184E+000,1.26576E-002,7.43022E+000,-3.00643E-002,-2.28661E-003,7.43028E+000,1.42714E-002,5.14481E-001,0,1.10495E+002,-1.46235E+000,9.99230E-001,8.09032E+001,-2.85418E+001,9.97213E-001,1.12847E-001,-4.33092E-002,2.05968E-003,1.12874E-001,-4.33364E-002,7.55547E-001,1.13884E-001,1.11948E+000,-2.98203E-003,0.00000E+000,6.79881E-003,9.58691E-001,0.00000E+000,-6.34066E-003,-4.78018E-002,1.00000E+000,18
1309,1307,3.21924E+001,-1.09043E+000,-6.85326E-002,7.42595E+000,-5.26662E-002,-3.38793E-002,7.42621E+000,1.47693E-002,4.00522E-001,0,1.10570E+002,-1.74845E+000,9.99220E-001,8.08499E+001,-2.87551E+001,9.98442E-001,1.14391E-001,-4.32975E-002,2.54321E-003,1.14432E-001,-4.33385E-002,9.23750E-001,1.15549E-001,1.12120E+000,-2.96905E-003,0.00000E+000,7.59999E-003,9.58697E-001,0.00000E+000,-3.84790E-003,-4.77829E-002,1.00000E+000,18
539,1347,-2.40302E+001,6.68156E-001,5.13209E-002,1.36975E+000,-4.30840E-001,5.61958E-002,1.43701E+000,6.88668E-003,6.52879E-001,0,2.14760E+001,-7.07566E+000,9.99264E-001,-1.72449E+001,-4.92557E+001,9.99222E-001,9.54558E-002,-4.11990E-002,1.79184E-003,9.54793E-002,-4.12225E-002,7.51101E-001,9.57754E-002,1.09964E+000,3.40063E-002,0.00000E+000,-2.61049E-002,9.60531E-001,0.00000E+000,-1.45317E-003,-5.10010E-002,1.00000E+000,18
539,1357,-2.39942E+001,1.28835E+000,4.34724E-002,1.39246E+000,-4.50352E-001,2.42336E-002,1.46368E+000,6.53620E-003,6.54456E-001,0,2.19123E+001,-7.32032E+000,9.99466E-001,-1.65551E+001,-4.97295E+001,9.99357E-001,9.35847E-002,-4.12033E-002,2.03753E-003,9.36155E-002,-4.12341E-002,8.65852E-001,9.38364E-002,1.09759E+000,3.39652E-002,0.00000E+000,-2.55860E-002,9.60542E-001,0.00000E+000,-2.80201E-003,-5.10279E-002,1.00000E+000,18
539,1327,-2.40886E+001,-5.48381E-001,1.33124E-001,1.32684E+000,-3.78555E-001,1.15964E-001,1.38465E+000,8.31097E-003,6.47867E-001,0,2.06459E+001,-6.37009E+000,9.98497E-001,-1.82080E+001,-4.80903E+001,9.98345E-001,9.91673E-002,-4.11822E-002,1.28740E-003,9.91791E-002,-4.11940E-002,5.25503E-001,9.96518E-002,1.10373E+000,3.40541E-002,0.00000E+000,-2.71389E-002,9.60519E-001,0.00000E+000,1.23466E-003,-5.09695E-002,1.00000E+000,18
539,1337,-2.40596E+001,5.96977E-002,8.26657E-002,1.34924E+000,-4.02792E-001,8.40184E-002,1.41058E+000,7.18311E-003,6.39338E-001,0,2.10808E+001,-6.69773E+000,9.99099E-001,-1.77598E+001,-4.86603E+001,9.99086E-001,9.73186E-002,-4.11914E-002,1.54060E-003,9.73357E-002,-4.12086E-002,6.37176E-001,9.77161E-002,1.10169E+000,3.40339E-002,0.00000E+000,-2.66231E-002,9.60524E-001,0.00000E+000,-1.06162E-004,-5.09828E-002,1.00000E+000,18
1319,1297,3.29284E+001,-1.70554E+000,-1.12087E-002,7.49983E+000,-2.59095E-002,-1.47432E-002,7.49989E+000,1.21472E-002,3.73831E-001,0,1.11493E+002,-1.34588E+000,9.99260E-001,8.24145E+001,-2.83771E+001,9.97853E-001,1.12402E-001,-4.24343E-002,2.64689E-003,1.12447E-001,-4.24795E-002,9.79075E-001,1.13562E-001,1.11900E+000,-5.95198E-004,0.00000E+000,5.89721E-003,9.59395E-001,0.00000E+000,-6.88478E-003,-4.45451E-002,1.00000E+000,18
1319,1307,3.29378E+001,-1.08875E+000,-7.83898E-002,7.50106E+000,-5.59399E-002,-4.39679E-002,7.50139E+000,1.40871E-002,3.40546E-001,0,1.11640E+002,-1.77684E+000,9.99167E-001,8.25148E+001,-2.86495E+001,9.98555E-001,1.14164E-001,-4.24196E-002,3.12683E-003,1.14227E-001,-4.24820E-002,1.14354E+000,1.15469E-001,1.12096E+000,-5.70514E-004,0.00000E+000,6.68000E-003,9.59405E-001,0.00000E+000,-4.08656E-003,-4.45099E-002,1.00000E+000,18
539,1307,-2.41305E+001,-1.74425E+000,3.22400E-001,1.28330E+000,-3.22067E-001,1.75315E-001,1.33467E+000,7.16598E-003,6.58826E-001,0,1.98007E+001,-5.59225E+000,9.99185E-001,-1.85845E+001,-4.68274E+001,9.98766E-001,1.02835E-001,-4.11531E-002,7.63206E-004,1.02839E-001,-4.11571E-002,3.03684E-001,1.03519E-001,1.10779E+000,3.40494E-002,0.00000E+000,-2.81669E-002,9.60520E-001,0.00000E+000,3.90690E-003,-5.09725E-002,1.00000E+000,18
539,1317,-2.41112E+001,-1.15224E+000,2.19313E-001,1.30495E+000,-3.54855E-001,1.46982E-001,1.36030E+000,8.01018E-003,6.76145E-001,0,2.02196E+001,-6.06747E+000,9.98863E-001,-1.84493E+001,-4.75213E+001,9.98352E-001,1.01005E-001,-4.11688E-002,1.02708E-003,1.01013E-001,-4.11762E-002,4.13882E-001,1.01586E-001,1.10576E+000,3.40565E-002,0.00000E+000,-2.76533E-002,9.60519E-001,0.00000E+000,2.57196E-003,-5.09679E-002,1.00000E+000,18
1319,1287,3.29341E+001,-2.32086E+000,8.42438E-002,7.50665E+000,1.73887E-003,1.72206E-002,7.50667E+000,1.27100E-002,4.34264E-001,0,1.11447E+002,-9.67281E-001,9.99111E-001,8.25839E+001,-2.81270E+001,9.98237E-001,1.10635E-001,-4.24384E-002,2.17792E-003,1.10666E-001,-4.24694E-002,8.14983E-001,1.11658E-001,1.11704E+000,-5.98596E-004,0.00000E+000,5.11713E-003,9.59394E-001,0.00000E+000,-9.67331E-003,-4.45500E-002,1.00000E+000,18
529,1327,-2.47861E+001,-5.33239E-001,1.33783E-001,1.26451E+000,-3.58093E-001,1.11592E-001,1.31897E+000,7.43591E-003,6.46732E-001,0,1.96867E+001,-6.04316E+000,9.98443E-001,-1.88041E+001,-4.79605E+001,9.98209E-001,9.88037E-002,-4.07592E-002,1.52797E-003,9.88204E-002,-4.07759E-002,6.27187E-001,9.93221E-002,1.10328E+000,3.55858E-002,0.00000E+000,-2.80593E-002,9.60849E-001,0.00000E+000,1.86848E-003,-4.98877E-002,1.00000E+000,18
529,1307,-2.48290E+001,-1.72875E+000,3.24768E-001,1.21933E+000,-3.01950E-001,1.69180E-001,1.26751E+000,9.58186E-003,6.26345E-001,0,1.88212E+001,-5.25396E+000,9.99307E-001,-1.91898E+001,-4.67076E+001,9.98827E-001,1.02021E-001,-4.07411E-002,1.19970E-003,1.02031E-001,-4.07512E-002,4.81438E-001,1.02717E-001,1.10684E+000,3.55801E-002,0.00000E+000,-2.87170E-002,9.60850E-001,0.00000E+000,4.57583E-003,-4.98920E-002,1.00000E+000,18
529,1317,-2.48102E+001,-1.13512E+000,2.14583E-001,1.24202E+000,-3.32089E-001,1.42946E-001,1.29357E+000,7.65982E-003,6.23134E-001,0,1.92504E+001,-5.67416E+000,9.99334E-001,-1.90831E+001,-4.73738E+001,9.98755E-001,1.00416E-001,-4.07513E-002,1.36686E-003,1.00430E-001,-4.07645E-002,5.54701E-001,1.01021E-001,1.10506E+000,3.55903E-002,0.00000E+000,-2.83885E-002,9.60848E-001,0.00000E+000,3.22341E-003,-4.98843E-002,1.00000E+000,18
