Coordinates.Image X [Pixel],Coordinates.Image Y [Pixel],coor.X [mm],coor.Y [mm],coor.Z [mm],disp.Horizontal Displacement U [mm],disp.Vertical Displacement V [mm],disp.Out-Of-Plane: W [mm],disp.Displacement Magnitude [mm],stats.Sigma [mm],stats.Epipolar Distance [Pixel],stats.Shape Index [-],SameCamera.Horizontal: u [Pixel],SameCamera.Vertical: v [Pixel],SameCamera.Correlation Value 2D [-],CrossCamera.Horizontal: q [Pixel],CrossCamera.Vertical: r [Pixel],CrossCamera.Correlation Value Persp [-],strain.Strain-global frame: Exx [ ],strain.Strain-global frame: Eyy [ ],strain.Strain-global frame: Exy [ ],strain.Maximum Principal Strain: EI [ ],strain.Minimum Principal Strain: EII [ ],strain.Shear Angle Gamma [deg],strain.Von Mises Equivalent Strain [ ],defgradient.F[0,0] [-],defgradient.F[0,1] [-],defgradient.F[0,2] [-],defgradient.F[1,0] [-],defgradient.F[1,1] [-],defgradient.F[1,2] [-],defgradient.F[2,0] [-],defgradient.F[2,1] [-],defgradient.F[2,2] [-],ext.Current Image [#]
929,1317,9.00799E+000,-1.17686E+000,6.29682E-002,9.34406E+000,-5.60503E-001,1.49689E-001,9.36206E+000,1.91017E-002,4.60438E-001,0,1.42335E+002,-1.02310E+001,9.96992E-001,9.97370E+001,-4.32086E+001,9.95457E-001,2.48167E-001,-1.04394E-001,-6.84880E-004,2.48169E-001,-1.04395E-001,-1.11301E-001,2.49208E-001,1.28160E+000,-2.37006E-002,0.00000E+000,1.68459E-002,9.05364E-001,0.00000E+000,-1.68239E-002,-1.01451E-001,1.00000E+000,39
919,1307,8.17557E+000,-1.76212E+000,1.35613E-001,9.17819E+000,-4.96489E-001,2.27130E-001,9.19441E+000,2.18164E-002,4.94027E-001,0,1.39640E+002,-9.34678E+000,9.94166E-001,9.68977E+001,-4.25090E+001,9.92404E-001,2.52474E-001,-1.04128E-001,-1.43535E-003,2.52480E-001,-1.04133E-001,-2.30615E-001,2.53767E-001,1.28716E+000,-2.09318E-002,0.00000E+000,1.33435E-002,9.05716E-001,0.00000E+000,-1.53682E-002,-1.02083E-001,1.00000E+000,39
919,1317,8.15665E+000,-1.19942E+000,1.97340E-002,9.15645E+000,-5.68780E-001,1.62162E-001,9.17554E+000,2.82795E-002,4.56719E-001,0,1.39559E+002,-1.03718E+001,9.90270E-001,9.64548E+001,-4.35760E+001,9.88924E-001,2.49931E-001,-1.04134E-001,-1.62983E-003,2.49939E-001,-1.04142E-001,-2.63735E-001,2.51093E-001,1.28386E+000,-2.09461E-002,0.00000E+000,1.28815E-002,9.05714E-001,0.00000E+000,-1.37111E-002,-1.02076E-001,1.00000E+000,39
919,1327,8.16033E+000,-6.27263E-001,-3.61594E-002,9.14301E+000,-6.43695E-001,9.11382E-002,9.16610E+000,2.06032E-002,4.89748E-001,0,1.39605E+002,-1.14181E+001,9.95314E-001,9.64835E+001,-4.45869E+001,9.93906E-001,2.47356E-001,-1.04149E-001,-1.85363E-003,2.47366E-001,-1.04159E-001,-3.02133E-001,2.48391E-001,1.28053E+000,-2.10327E-002,0.00000E+000,1.24152E-002,9.05702E-001,0.00000E+000,-1.20385E-002,-1.02032E-001,1.00000E+000,39
929,1307,9.02229E+000,-1.73865E+000,1.62854E-001,9.36554E+000,-4.84008E-001,2.18554E-001,9.38059E+000,1.86029E-002,5.05087E-001,0,1.42401E+002,-9.15539E+000,9.97705E-001,1.00075E+002,-4.20912E+001,9.96262E-001,2.50776E-001,-1.04397E-001,-6.91668E-004,2.50777E-001,-1.04398E-001,-1.11578E-001,2.51946E-001,1.28499E+000,-2.36631E-002,0.00000E+000,1.69550E-002,9.05365E-001,0.00000E+000,-1.89181E-002,-1.01475E-001,1.00000E+000,39
929,1327,9.00128E+000,-5.98821E-001,-1.13766E-002,9.32391E+000,-6.24805E-001,7.75234E-002,9.34515E+000,1.72243E-002,4.39076E-001,0,1.42287E+002,-1.11225E+001,9.97429E-001,9.95691E+001,-4.41160E+001,9.96622E-001,2.45542E-001,-1.04391E-001,-6.90678E-004,2.45543E-001,-1.04392E-001,-1.13087E-001,2.46459E-001,1.27820E+000,-2.37708E-002,0.00000E+000,1.67367E-002,9.05362E-001,0.00000E+000,-1.47255E-002,-1.01408E-001,1.00000E+000,39
939,1307,9.86138E+000,-1.72149E+000,1.42957E-001,9.55030E+000,-4.73757E-001,1.88264E-001,9.56389E+000,2.04821E-002,5.11561E-001,0,1.45206E+002,-8.95785E+000,9.97755E-001,1.03046E+002,-4.16744E+001,9.96588E-001,2.48781E-001,-1.03650E-001,-2.04191E-004,2.48781E-001,-1.03650E-001,-3.31959E-002,2.49931E-001,1.28241E+000,-2.70804E-002,0.00000E+000,2.04987E-002,9.05831E-001,0.00000E+000,-2.15237E-002,-9.98450E-002,1.00000E+000,39
939,1317,9.84519E+000,-1.15693E+000,4.75775E-002,9.52612E+000,-5.47420E-001,1.20482E-001,9.54260E+000,2.00216E-002,4.37975E-001,0,1.45095E+002,-9.98943E+000,9.96732E-001,1.02688E+002,-4.27712E+001,9.95211E-001,2.46436E-001,-1.03643E-001,-1.33971E-004,2.46436E-001,-1.03643E-001,-2.19264E-002,2.47471E-001,1.27935E+000,-2.71182E-002,0.00000E+000,2.04815E-002,9.05831E-001,0.00000E+000,-1.91094E-002,-9.98152E-002,1.00000E+000,39
939,1327,9.84187E+000,-5.70239E-001,-1.31657E-002,9.50771E+000,-6.06338E-001,5.51210E-002,9.52718E+000,1.72948E-002,4.63663E-001,0,1.45046E+002,-1.08047E+001,9.96184E-001,1.02600E+002,-4.35481E+001,9.95546E-001,2.44065E-001,-1.03633E-001,-7.61742E-005,2.44065E-001,-1.03633E-001,-1.25525E-002,2.44988E-001,1.27627E+000,-2.71896E-002,0.00000E+000,2.04643E-002,9.05830E-001,0.00000E+000,-1.66787E-002,-9.97589E-002,1.00000E+000,39
919,1337,8.17024E+000,-3.85182E-002,-5.98077E-002,9.13088E+000,-7.03543E-001,2.92876E-002,9.15799E+000,2.01390E-002,4.61879E-001,0,1.39625E+002,-1.22501E+001,9.94861E-001,9.66763E+001,-4.54417E+001,9.94210E-001,2.44774E-001,-1.04166E-001,-2.08720E-003,2.44787E-001,-1.04178E-001,-3.42701E-001,2.45689E-001,1.27721E+000,-2.11442E-002,0.00000E+000,1.19493E-002,9.05686E-001,0.00000E+000,-1.03674E-002,-1.01976E-001,1.00000E+000,39
929,1337,9.00763E+000,-2.03045E-002,-5.08960E-002,9.31065E+000,-6.94239E-001,1.18971E-002,9.33650E+000,1.78784E-002,4.42384E-001,0,1.42312E+002,-1.20973E+001,9.97760E-001,9.96723E+001,-4.50781E+001,9.97130E-001,2.42894E-001,-1.04386E-001,-7.09034E-004,2.42895E-001,-1.04388E-001,-1.16979E-001,2.43693E-001,1.27478E+000,-2.38731E-002,0.00000E+000,1.66270E-002,9.05359E-001,0.00000E+000,-1.26174E-002,-1.01345E-001,1.00000E+000,39
939,1337,9.84515E+000,9.00971E-003,-5.18691E-002,9.49224E+000,-6.74021E-001,-5.10837E-003,9.51615E+000,1.61656E-002,4.62734E-001,0,1.45021E+002,-1.17718E+001,9.97538E-001,1.02657E+002,-4.45014E+001,9.96958E-001,2.41683E-001,-1.03622E-001,-2.54243E-005,2.41683E-001,-1.03622E-001,-4.21861E-003,2.42499E-001,1.27319E+000,-2.72782E-002,0.00000E+000,2.04471E-002,9.05830E-001,0.00000E+000,-1.42490E-002,-9.96890E-002,1.00000E+000,39
949,1317,1.06890E+001,-1.12524E+000,5.24747E-002,9.71300E+000,-5.25293E-001,1.05744E-001,9.72777E+000,3.11753E-002,4.63899E-001,0,1.47866E+002,-9.63563E+000,9.91430E-001,1.05789E+002,-4.21704E+001,9.88995E-001,2.44639E-001,-1.02766E-001,3.13867E-004,2.44639E-001,-1.02766E-001,5.17645E-002,2.45679E-001,1.27703E+000,-3.01485E-002,0.00000E+000,2.36242E-002,9.06338E-001,0.00000E+000,-2.10721E-002,-9.73290E-002,1.00000E+000,39
949,1327,1.06782E+001,-5.40767E-001,-2.16118E-002,9.68820E+000,-5.84525E-001,3.23498E-002,9.70588E+000,2.63275E-002,4.54300E-001,0,1.47753E+002,-1.04419E+001,9.93477E-001,1.05559E+002,-4.29697E+001,9.92010E-001,2.42740E-001,-1.02751E-001,4.37789E-004,2.42741E-001,-1.02751E-001,7.26023E-002,2.43691E-001,1.27454E+000,-3.02023E-002,0.00000E+000,2.36693E-002,9.06339E-001,0.00000E+000,-1.81053E-002,-9.72649E-002,1.00000E+000,39
949,1337,1.06824E+001,3.65728E-002,-5.68557E-002,9.67412E+000,-6.54169E-001,-2.14560E-002,9.69624E+000,1.96993E-002,4.68328E-001,0,1.47729E+002,-1.14577E+001,9.96014E-001,1.05635E+002,-4.39505E+001,9.95176E-001,2.40824E-001,-1.02733E-001,5.55416E-004,2.40825E-001,-1.02734E-001,9.26275E-002,2.41689E-001,1.27204E+000,-3.02723E-002,0.00000E+000,2.37145E-002,9.06340E-001,0.00000E+000,-1.51314E-002,-9.71814E-002,1.00000E+000,39
949,1307,1.07076E+001,-1.70040E+000,1.35185E-001,9.73926E+000,-4.61442E-001,1.59078E-001,9.75149E+000,2.60093E-002,4.98582E-001,0,1.48063E+002,-8.71740E+000,9.94833E-001,1.06157E+002,-4.12317E+001,9.93027E-001,2.46519E-001,-1.02778E-001,1.80951E-004,2.46520E-001,-1.02778E-001,2.96817E-002,2.47651E-001,1.27951E+000,-3.01189E-002,0.00000E+000,2.35792E-002,9.06337E-001,0.00000E+000,-2.40295E-002,-9.73642E-002,1.00000E+000,39
909,1317,7.32435E+000,-1.21453E+000,1.53044E-002,8.97587E+000,-5.76088E-001,1.60041E-001,8.99576E+000,2.53131E-002,4.43815E-001,0,1.36919E+002,-1.04799E+001,9.87397E-001,9.35508E+001,-4.39139E+001,9.87127E-001,2.51691E-001,-1.04955E-001,-2.68106E-003,2.51712E-001,-1.04975E-001,-4.30683E-001,2.52864E-001,1.28613E+000,-1.80171E-002,0.00000E+000,8.54714E-003,9.05012E-001,0.00000E+000,-1.01802E-002,-1.01994E-001,1.00000E+000,39
909,1327,7.33532E+000,-6.34533E-001,-4.03685E-002,8.97021E+000,-6.43703E-001,9.10060E-002,8.99373E+000,2.14311E-002,4.66892E-001,0,1.37073E+002,-1.13972E+001,9.90985E-001,9.36943E+001,-4.48096E+001,9.92533E-001,2.49198E-001,-1.04966E-001,-2.87925E-003,2.49221E-001,-1.04990E-001,-4.65756E-001,2.50249E-001,1.28291E+000,-1.80979E-002,0.00000E+000,8.17465E-003,9.05003E-001,0.00000E+000,-9.11908E-003,-1.01967E-001,1.00000E+000,39
909,1337,7.34237E+000,-4.29486E-002,-5.99538E-002,8.95510E+000,-7.03620E-001,3.22416E-002,8.98276E+000,2.34879E-002,5.22274E-001,0,1.37035E+002,-1.22311E+001,9.95010E-001,9.38521E+001,-4.55900E+001,9.94935E-001,2.46691E-001,-1.04981E-001,-3.08840E-003,2.46718E-001,-1.05008E-001,-5.03123E-001,2.47626E-001,1.27969E+000,-1.82055E-002,0.00000E+000,7.80126E-003,9.04990E-001,0.00000E+000,-8.05537E-003,-1.01931E-001,1.00000E+000,39
909,1307,7.33524E+000,-1.77671E+000,1.37026E-001,8.98854E+000,-5.03467E-001,2.26156E-001,9.00547E+000,2.39324E-002,4.33647E-001,0,1.36859E+002,-9.43874E+000,9.90530E-001,9.38830E+001,-4.28741E+001,9.86073E-001,2.54153E-001,-1.04950E-001,-2.51201E-003,2.54171E-001,-1.04968E-001,-4.00770E-001,2.55450E-001,1.28931E+000,-1.80083E-002,0.00000E+000,8.91580E-003,9.05013E-001,0.00000E+000,-1.12304E-002,-1.01997E-001,1.00000E+000,39
919,1347,8.19129E+000,5.60281E-001,-7.15543E-002,9.12663E+000,-7.57290E-001,-3.55707E-002,9.15807E+000,2.98892E-002,4.96262E-001,0,1.39769E+002,-1.29879E+001,9.97185E-001,9.70665E+001,-4.61367E+001,9.96225E-001,2.42172E-001,-1.04185E-001,-2.32838E-003,2.42188E-001,-1.04200E-001,-3.85147E-001,2.42972E-001,1.27387E+000,-2.12720E-002,0.00000E+000,1.14816E-002,9.05669E-001,0.00000E+000,-8.68973E-003,-1.01912E-001,1.00000E+000,39
929,1347,9.02496E+000,5.69677E-001,-5.91433E-002,9.30320E+000,-7.55810E-001,-4.62794E-002,9.33396E+000,1.72472E-002,4.41512E-001,0,1.42389E+002,-1.29655E+001,9.97563E-001,1.00009E+002,-4.59335E+001,9.97013E-001,2.40229E-001,-1.04381E-001,-7.38173E-004,2.40230E-001,-1.04383E-001,-1.22730E-001,2.40916E-001,1.27136E+000,-2.40024E-002,0.00000E+000,1.65170E-002,9.05354E-001,0.00000E+000,-1.05049E-002,-1.01265E-001,1.00000E+000,39
939,1347,9.86228E+000,5.97101E-001,-5.76006E-002,9.48489E+000,-7.37585E-001,-5.84593E-002,9.51371E+000,2.27607E-002,4.45458E-001,0,1.45084E+002,-1.26708E+001,9.97470E-001,1.02994E+002,-4.53982E+001,9.95613E-001,2.39281E-001,-1.03609E-001,1.47827E-005,2.39281E-001,-1.03609E-001,2.47015E-003,2.39996E-001,1.27010E+000,-2.73939E-002,0.00000E+000,2.04298E-002,9.05829E-001,0.00000E+000,-1.18106E-002,-9.95978E-002,1.00000E+000,39
949,1347,1.07050E+001,6.22494E-001,-4.93967E-002,9.67020E+000,-7.22277E-001,-6.99388E-002,9.69738E+000,1.89185E-002,4.78600E-001,0,1.47826E+002,-1.24382E+001,9.95806E-001,1.06081E+002,-4.48938E+001,9.94462E-001,2.38886E-001,-1.02711E-001,6.61207E-004,2.38887E-001,-1.02712E-001,1.10903E-001,2.39667E-001,1.26953E+000,-3.03741E-002,0.00000E+000,2.37600E-002,9.06342E-001,0.00000E+000,-1.21409E-002,-9.70601E-002,1.00000E+000,39
959,1317,1.15221E+001,-1.10306E+000,2.49277E-002,9.89058E+000,-5.10185E-001,6.71985E-002,9.90396E+000,2.83284E-002,4.45849E-001,0,1.50585E+002,-9.33580E+000,9.92949E-001,1.08665E+002,-4.16706E+001,9.91470E-001,2.42998E-001,-1.01766E-001,3.03366E-004,2.42999E-001,-1.01766E-001,5.04159E-002,2.44065E-001,1.27487E+000,-3.34300E-002,0.00000E+000,2.60109E-002,9.06968E-001,0.00000E+000,-2.19517E-002,-9.48058E-002,1.00000E+000,39
959,1327,1.15212E+001,-5.17892E-001,-3.50761E-002,9.87737E+000,-5.67961E-001,1.59615E-002,9.89370E+000,3.80960E-002,4.15549E-001,0,1.50571E+002,-1.01568E+001,9.96781E-001,1.08617E+002,-4.24963E+001,9.95714E-001,2.41471E-001,-1.01742E-001,5.24594E-004,2.41472E-001,-1.01743E-001,8.75751E-002,2.42466E-001,1.27285E+000,-3.34686E-002,0.00000E+000,2.62153E-002,9.06972E-001,0.00000E+000,-1.88477E-002,-9.47465E-002,1.00000E+000,39
959,1337,1.15256E+001,5.79593E-002,-5.26580E-002,9.86108E+000,-6.41623E-001,-3.01041E-002,9.88198E+000,2.82446E-002,4.51682E-001,0,1.50484E+002,-1.12495E+001,9.95127E-001,1.08728E+002,-4.35259E+001,9.94475E-001,2.39925E-001,-1.01711E-001,7.36786E-004,2.39926E-001,-1.01713E-001,1.23565E-001,2.40850E-001,1.27082E+000,-3.35330E-002,0.00000E+000,2.64206E-002,9.06978E-001,0.00000E+000,-1.57284E-002,-9.46475E-002,1.00000E+000,39
959,1307,1.15357E+001,-1.67378E+000,1.19612E-001,9.91271E+000,-4.40258E-001,1.36043E-001,9.92342E+000,2.16114E-002,4.79016E-001,0,1.50660E+002,-8.36947E+000,9.94546E-001,1.08978E+002,-4.06923E+001,9.93070E-001,2.44512E-001,-1.01786E-001,7.76502E-005,2.44512E-001,-1.01786E-001,1.28474E-002,2.45652E-001,1.27688E+000,-3.34033E-002,0.00000E+000,2.58069E-002,9.06965E-001,0.00000E+000,-2.50521E-002,-9.48470E-002,1.00000E+000,39
959,1347,1.15373E+001,6.37125E-001,-6.42816E-002,9.84822E+000,-7.14250E-001,-8.83012E-002,9.87448E+000,2.14844E-002,4.46898E-001,0,1.50487E+002,-1.22871E+001,9.94874E-001,1.08965E+002,-4.45388E+001,9.93983E-001,2.38365E-001,-1.01677E-001,9.43864E-004,2.38368E-001,-1.01680E-001,1.59036E-001,2.39223E-001,1.26879E+000,-3.36098E-002,0.00000E+000,2.66261E-002,9.06986E-001,0.00000E+000,-1.26059E-002,-9.45293E-002,1.00000E+000,39
909,1347,7.36244E+000,5.51096E-001,-5.63101E-002,8.94798E+000,-7.61626E-001,-2.72223E-002,8.98038E+000,2.56701E-002,5.08688E-001,0,1.37114E+002,-1.30485E+001,9.97151E-001,9.42596E+001,-4.64182E+001,9.95254E-001,2.44183E-001,-1.04997E-001,-3.30689E-003,2.44214E-001,-1.05029E-001,-5.42552E-001,2.45009E-001,1.27648E+000,-1.83375E-002,0.00000E+000,7.42879E-003,9.04975E-001,0.00000E+000,-6.99428E-003,-1.01888E-001,1.00000E+000,39
899,1327,6.50155E+000,-6.32772E-001,-3.39840E-003,8.78011E+000,-6.41888E-001,9.43021E-002,8.80405E+000,1.60403E-002,4.73230E-001,0,1.34248E+002,-1.13402E+001,9.94149E-001,9.08607E+001,-4.49686E+001,9.94579E-001,2.50466E-001,-1.05638E-001,-3.71265E-003,2.50504E-001,-1.05677E-001,-5.97264E-001,2.51522E-001,1.28456E+000,-1.54338E-002,0.00000E+000,4.47948E-003,9.04423E-001,0.00000E+000,-6.00471E-003,-1.01967E-001,1.00000E+000,39
899,1337,6.51958E+000,-4.47806E-002,-4.46762E-002,8.77987E+000,-7.01002E-001,3.10388E-002,8.80787E+000,2.42522E-002,4.97000E-001,0,1.34457E+002,-1.21642E+001,9.97381E-001,9.11447E+001,-4.57740E+001,9.97147E-001,2.48242E-001,-1.05648E-001,-3.88584E-003,2.48285E-001,-1.05691E-001,-6.29026E-001,2.49197E-001,1.28170E+000,-1.55125E-002,0.00000E+000,4.20735E-003,9.04415E-001,0.00000E+000,-5.62660E-003,-1.01956E-001,1.00000E+000,39
899,1347,6.55357E+000,5.42549E-001,-4.39384E-002,8.78684E+000,-7.65899E-001,-3.14758E-002,8.82021E+000,2.05135E-002,4.91062E-001,0,1.34762E+002,-1.30810E+001,9.97252E-001,9.17623E+001,-4.66961E+001,9.96705E-001,2.46009E-001,-1.05662E-001,-4.07395E-003,2.46056E-001,-1.05709E-001,-6.63627E-001,2.46867E-001,1.27884E+000,-1.56288E-002,0.00000E+000,3.93457E-003,9.04404E-001,0.00000E+000,-5.24758E-003,-1.01941E-001,1.00000E+000,39
899,1317,6.50039E+000,-1.20783E+000,7.36651E-002,8.79161E+000,-5.73655E-001,1.66918E-001,8.81189E+000,2.01552E-002,4.79674E-001,0,1.34167E+002,-1.04123E+001,9.92979E-001,9.09136E+001,-4.40237E+001,9.91161E-001,2.52679E-001,-1.05630E-001,-3.54917E-003,2.52714E-001,-1.05666E-001,-5.67459E-001,2.53841E-001,1.28741E+000,-1.53792E-002,0.00000E+000,4.75096E-003,9.04428E-001,0.00000E+000,-6.38193E-003,-1.01974E-001,1.00000E+000,39
899,1307,6.50165E+000,-1.77130E+000,1.72163E-001,8.79988E+000,-4.98184E-001,2.34381E-001,8.81708E+000,1.99700E-002,4.28394E-001,0,1.34043E+002,-9.32222E+000,9.93180E-001,9.10503E+001,-4.29732E+001,9.89552E-001,2.54880E-001,-1.05625E-001,-3.39553E-003,2.54912E-001,-1.05657E-001,-5.39595E-001,2.56152E-001,1.29025E+000,-1.53489E-002,0.00000E+000,5.02158E-003,9.04431E-001,0.00000E+000,-6.75795E-003,-1.01978E-001,1.00000E+000,39
889,1327,5.67091E+000,-6.39710E-001,9.66856E-003,8.59750E+000,-6.45128E-001,9.58027E-002,8.62221E+000,1.41978E-002,4.99095E-001,0,1.31548E+002,-1.13761E+001,9.96007E-001,8.80317E+001,-4.52004E+001,9.96011E-001,2.51764E-001,-1.04997E-001,-4.62660E-003,2.51824E-001,-1.05057E-001,-7.42866E-001,2.52973E-001,1.28625E+000,-1.34689E-002,0.00000E+000,1.09749E-003,9.05069E-001,0.00000E+000,-2.48135E-003,-1.02501E-001,1.00000E+000,39
889,1337,5.68178E+000,-5.10478E-002,-3.73167E-002,8.59137E+000,-7.01946E-001,3.20699E-002,8.62006E+000,2.15779E-002,4.98076E-001,0,1.31668E+002,-1.21599E+001,9.97426E-001,8.81937E+001,-4.59985E+001,9.96968E-001,2.49599E-001,-1.04996E-001,-4.64252E-003,2.49659E-001,-1.05056E-001,-7.49973E-001,2.50701E-001,1.28346E+000,-1.35403E-002,0.00000E+000,1.22730E-003,9.05073E-001,0.00000E+000,-3.42605E-003,-1.02525E-001,1.00000E+000,39
889,1347,5.71665E+000,5.34141E-001,-3.71986E-002,8.59999E+000,-7.68251E-001,-2.84119E-002,8.63429E+000,1.73882E-002,4.77984E-001,0,1.31992E+002,-1.30974E+001,9.97001E-001,8.88252E+001,-4.69612E+001,9.96495E-001,2.47420E-001,-1.04994E-001,-4.67332E-003,2.47482E-001,-1.05056E-001,-7.59614E-001,2.48421E-001,1.28067E+000,-1.36503E-002,0.00000E+000,1.35758E-003,9.05078E-001,0.00000E+000,-4.37423E-003,-1.02562E-001,1.00000E+000,39
969,1297,1.24039E+001,-2.21509E+000,2.24007E-001,1.01263E+001,-3.51785E-001,1.70283E-001,1.01338E+001,2.71386E-002,4.61467E-001,0,1.53628E+002,-7.04969E+000,9.97368E-001,1.12579E+002,-3.91984E+001,9.95309E-001,2.43788E-001,-1.01202E-001,-2.69409E-004,2.43788E-001,-1.01203E-001,-4.47432E-002,2.44956E-001,1.27598E+000,-3.61697E-002,0.00000E+000,2.73722E-002,9.07223E-001,0.00000E+000,-2.83829E-002,-9.20432E-002,1.00000E+000,39
969,1307,1.23600E+001,-1.66353E+000,9.19902E-002,1.00804E+001,-4.37661E-001,9.40114E-002,1.00903E+001,5.34641E-002,4.42829E-001,0,1.53240E+002,-8.24046E+000,9.96007E-001,1.11724E+002,-4.03896E+001,9.93641E-001,2.42626E-001,-1.01184E-001,-3.74418E-006,2.42626E-001,-1.01184E-001,-6.23966E-004,2.43736E-001,1.27440E+000,-3.61746E-002,0.00000E+000,2.76282E-002,9.07224E-001,0.00000E+000,-2.51824E-002,-9.20332E-002,1.00000E+000,39
969,1317,1.23592E+001,-1.09112E+000,2.63338E-002,1.00700E+001,-5.06114E-001,4.97373E-002,1.00828E+001,1.69957E-002,4.05724E-001,0,1.53253E+002,-9.24667E+000,9.98086E-001,1.11664E+002,-4.14022E+001,9.97586E-001,2.41451E-001,-1.01159E-001,2.54889E-004,2.41451E-001,-1.01159E-001,4.26257E-002,2.42506E-001,1.27282E+000,-3.61983E-002,0.00000E+000,2.78844E-002,9.07227E-001,0.00000E+000,-2.19801E-002,-9.19854E-002,1.00000E+000,39
889,1317,5.66258E+000,-1.21230E+000,8.55219E-002,8.60127E+000,-5.75047E-001,1.65058E-001,8.62205E+000,1.87602E-002,5.28542E-001,0,1.31361E+002,-1.04217E+001,9.95966E-001,8.79717E+001,-4.42020E+001,9.95504E-001,2.53921E-001,-1.04998E-001,-4.61859E-003,2.53980E-001,-1.05057E-001,-7.37125E-001,2.55240E-001,1.28902E+000,-1.34180E-002,0.00000E+000,9.67863E-004,9.05067E-001,0.00000E+000,-1.53792E-003,-1.02484E-001,1.00000E+000,39
969,1327,1.23493E+001,-5.07170E-001,-3.93553E-002,1.00470E+001,-5.65620E-001,-9.85492E-003,1.00629E+001,2.56542E-002,4.13410E-001,0,1.53122E+002,-1.00960E+001,9.96631E-001,1.11463E+002,-4.22149E+001,9.94864E-001,2.40263E-001,-1.01131E-001,5.10503E-004,2.40264E-001,-1.01132E-001,8.56770E-002,2.41263E-001,1.27123E+000,-3.62303E-002,0.00000E+000,2.81410E-002,9.07233E-001,0.00000E+000,-1.87718E-002,-9.19205E-002,1.00000E+000,39
889,1307,5.65653E+000,-1.77818E+000,1.82909E-001,8.60150E+000,-5.02793E-001,2.28411E-001,8.61921E+000,2.21238E-002,4.75246E-001,0,1.31131E+002,-9.36854E+000,9.94570E-001,8.79934E+001,-4.31863E+001,9.92258E-001,2.56065E-001,-1.04998E-001,-4.61983E-003,2.56124E-001,-1.05057E-001,-7.32944E-001,2.57498E-001,1.29179E+000,-1.33914E-002,0.00000E+000,8.38686E-004,9.05066E-001,0.00000E+000,-5.97797E-004,-1.02475E-001,1.00000E+000,39
969,1337,1.23525E+001,6.94822E-002,-7.25446E-002,1.00316E+001,-6.35530E-001,-6.18367E-002,1.00519E+001,2.37048E-002,3.61111E-001,0,1.53073E+002,-1.11018E+001,9.96421E-001,1.11526E+002,-4.32404E+001,9.95822E-001,2.39062E-001,-1.01098E-001,7.60883E-004,2.39063E-001,-1.01099E-001,1.28161E-001,2.40009E-001,1.26964E+000,-3.62759E-002,0.00000E+000,2.83980E-002,9.07240E-001,0.00000E+000,-1.55591E-002,-9.18282E-002,1.00000E+000,39
969,1347,1.23599E+001,6.74613E-001,-7.42799E-002,1.00157E+001,-6.83095E-001,-1.03497E-001,1.00395E+001,1.94764E-002,4.36137E-001,0,1.52963E+002,-1.18038E+001,9.96233E-001,1.11718E+002,-4.38320E+001,9.95431E-001,2.37841E-001,-1.01060E-001,1.00795E-003,2.37844E-001,-1.01063E-001,1.70406E-001,2.38736E-001,1.26805E+000,-3.63333E-002,0.00000E+000,2.86567E-002,9.07249E-001,0.00000E+000,-1.23254E-002,-9.17121E-002,1.00000E+000,39
879,1327,4.84626E+000,-6.40232E-001,2.72737E-002,8.42034E+000,-6.41765E-001,1.01158E-001,8.44537E+000,2.02856E-002,5.10621E-001,0,1.28912E+002,-1.13165E+001,9.96193E-001,8.53122E+001,-4.53495E+001,9.95933E-001,2.52724E-001,-1.05305E-001,-5.15720E-003,2.52798E-001,-1.05379E-001,-8.25085E-001,2.53961E-001,1.28750E+000,-1.16151E-002,0.00000E+000,-1.40018E-003,9.04729E-001,0.00000E+000,-5.44931E-005,-1.01766E-001,1.00000E+000,39
879,1337,4.85561E+000,-5.80176E-002,-2.89476E-002,8.41336E+000,-7.04140E-001,3.06358E-002,8.44283E+000,1.96823E-002,4.89344E-001,0,1.29043E+002,-1.21656E+001,9.94985E-001,8.54308E+001,-4.62396E+001,9.94491E-001,2.50826E-001,-1.05299E-001,-5.08912E-003,2.50898E-001,-1.05372E-001,-8.18550E-001,2.51967E-001,1.28506E+000,-1.16755E-002,0.00000E+000,-1.06649E-003,9.04737E-001,0.00000E+000,-1.68922E-003,-1.01807E-001,1.00000E+000,39
879,1347,4.88612E+000,5.33446E-001,-3.24359E-002,8.41912E+000,-7.64430E-001,-2.71318E-002,8.45380E+000,2.23711E-002,5.01643E-001,0,1.29313E+002,-1.30096E+001,9.95183E-001,8.59895E+001,-4.70838E+001,9.94640E-001,2.48910E-001,-1.05291E-001,-5.03243E-003,2.48981E-001,-1.05362E-001,-8.13830E-001,2.49959E-001,1.28260E+000,-1.17668E-002,0.00000E+000,-7.30781E-004,9.04750E-001,0.00000E+000,-3.33380E-003,-1.01868E-001,1.00000E+000,39
879,1307,4.81385E+000,-1.77611E+000,2.02046E-001,8.40463E+000,-4.98601E-001,2.28074E-001,8.42249E+000,2.63823E-002,4.82189E-001,0,1.28214E+002,-9.27495E+000,9.92841E-001,8.50002E+001,-4.32989E+001,9.90701E-001,2.56491E-001,-1.05311E-001,-5.31533E-003,2.56569E-001,-1.05389E-001,-8.41506E-001,2.57927E-001,1.29237E+000,-1.15531E-002,0.00000E+000,-2.06558E-003,9.04720E-001,0.00000E+000,3.20515E-003,-1.01725E-001,1.00000E+000,39
879,1317,4.82935E+000,-1.20964E+000,1.06951E-001,8.41524E+000,-5.68146E-001,1.73297E-001,8.43618E+000,1.98891E-002,4.41364E-001,0,1.28579E+002,-1.02743E+001,9.96195E-001,8.51290E+001,-4.43583E+001,9.95212E-001,2.54617E-001,-1.05309E-001,-5.23174E-003,2.54693E-001,-1.05385E-001,-8.32595E-001,2.55952E-001,1.28995E+000,-1.15714E-002,0.00000E+000,-1.73400E-003,9.04723E-001,0.00000E+000,1.58081E-003,-1.01737E-001,1.00000E+000,39
979,1307,1.32363E+001,-1.64402E+000,1.15629E-001,1.02963E+001,-4.27845E-001,8.90883E-002,1.03056E+001,2.84031E-002,4.08861E-001,0,1.56403E+002,-8.08637E+000,9.98119E-001,1.15377E+002,-4.00453E+001,9.98024E-001,2.40916E-001,-1.00490E-001,-4.09396E-005,2.40916E-001,-1.00490E-001,-6.87059E-003,2.42017E-001,1.27214E+000,-3.81783E-002,0.00000E+000,2.88983E-002,9.07538E-001,0.00000E+000,-2.42504E-002,-8.86545E-002,1.00000E+000,39
979,1317,1.32047E+001,-1.06406E+000,2.49626E-002,1.02567E+001,-4.88355E-001,2.69978E-002,1.02683E+001,1.70270E-002,4.07383E-001,0,1.56040E+002,-8.94066E+000,9.97097E-001,1.14794E+002,-4.08719E+001,9.96523E-001,2.40226E-001,-1.00461E-001,2.76668E-004,2.40227E-001,-1.00462E-001,4.65290E-002,2.41296E-001,1.27118E+000,-3.81904E-002,0.00000E+000,2.92577E-002,9.07542E-001,0.00000E+000,-2.10984E-002,-8.86147E-002,1.00000E+000,39
979,1327,1.31856E+001,-4.83462E-001,-4.20981E-002,1.02252E+001,-5.50438E-001,-2.99753E-002,1.02401E+001,1.85743E-002,4.04277E-001,0,1.55776E+002,-9.83636E+000,9.94749E-001,1.14447E+002,-4.17384E+001,9.93158E-001,2.39526E-001,-1.00428E-001,5.91923E-004,2.39527E-001,-1.00429E-001,9.97623E-002,2.40565E-001,1.27022E+000,-3.82086E-002,0.00000E+000,2.96173E-002,9.07549E-001,0.00000E+000,-1.79436E-002,-8.85548E-002,1.00000E+000,39
979,1337,1.31822E+001,1.03525E-001,-8.21434E-002,1.02054E+001,-6.09177E-001,-7.84635E-002,1.02239E+001,2.47491E-002,4.05027E-001,0,1.55648E+002,-1.06973E+001,9.92048E-001,1.14396E+002,-4.25614E+001,9.91500E-001,2.38813E-001,-1.00390E-001,9.05110E-004,2.38815E-001,-1.00392E-001,1.52883E-001,2.39823E-001,1.26926E+000,-3.82330E-002,0.00000E+000,2.99778E-002,9.07558E-001,0.00000E+000,-1.47820E-002,-8.84744E-002,1.00000E+000,39
979,1347,1.31869E+001,7.03461E-001,-7.94470E-002,1.01853E+001,-6.61680E-001,-1.21794E-001,1.02075E+001,2.52276E-002,4.30405E-001,0,1.55481E+002,-1.14684E+001,9.89439E-001,1.14551E+002,-4.32666E+001,9.88962E-001,2.38086E-001,-1.00343E-001,1.21465E-003,2.38090E-001,-1.00347E-001,2.05635E-001,2.39067E-001,1.26829E+000,-3.82701E-002,0.00000E+000,3.03402E-002,9.07572E-001,0.00000E+000,-1.16038E-002,-8.83525E-002,1.00000E+000,39
979,1297,1.32380E+001,-2.19601E+000,2.09172E-001,1.03046E+001,-3.39923E-001,1.46876E-001,1.03112E+001,2.27542E-002,4.63382E-001,0,1.56293E+002,-6.82860E+000,9.97519E-001,1.15505E+002,-3.87681E+001,9.97041E-001,2.41596E-001,-1.00517E-001,-3.59778E-004,2.41596E-001,-1.00518E-001,-6.02542E-002,2.42728E-001,1.27309E+000,-3.81686E-002,0.00000E+000,2.85389E-002,9.07534E-001,0.00000E+000,-2.74028E-002,-8.86864E-002,1.00000E+000,39
869,1317,3.98159E+000,-1.20501E+000,9.95570E-002,8.21587E+000,-5.59493E-001,1.60430E-001,8.23646E+000,1.44862E-002,4.45315E-001,0,1.25663E+002,-1.00776E+001,9.97198E-001,8.20064E+001,-4.43791E+001,9.95604E-001,2.54822E-001,-1.05818E-001,-5.32716E-003,2.54901E-001,-1.05897E-001,-8.46092E-001,2.56113E-001,1.29024E+000,-9.47178E-003,0.00000E+000,-3.53749E-003,9.04183E-001,0.00000E+000,3.48240E-003,-1.00897E-001,1.00000E+000,39
869,1327,4.00182E+000,-6.34823E-001,2.76944E-002,8.22476E+000,-6.30900E-001,9.77449E-002,8.24951E+000,2.04247E-002,5.23636E-001,0,1.26019E+002,-1.11257E+001,9.95585E-001,8.22572E+001,-4.53721E+001,9.94436E-001,2.53345E-001,-1.05814E-001,-5.24713E-003,2.53421E-001,-1.05891E-001,-8.36825E-001,2.54559E-001,1.28832E+000,-9.50473E-003,0.00000E+000,-3.17357E-003,9.04189E-001,0.00000E+000,1.46103E-003,-1.00932E-001,1.00000E+000,39
869,1337,4.01975E+000,-5.97253E-002,-1.73323E-002,8.22589E+000,-7.01151E-001,3.55720E-002,8.25580E+000,2.17462E-002,4.99807E-001,0,1.26247E+002,-1.21056E+001,9.93699E-001,8.25316E+001,-4.63985E+001,9.92958E-001,2.51857E-001,-1.05809E-001,-5.17294E-003,2.51932E-001,-1.05884E-001,-8.28441E-001,2.52997E-001,1.28640E+000,-9.55344E-003,0.00000E+000,-2.80873E-003,9.04198E-001,0.00000E+000,-5.65417E-004,-1.00984E-001,1.00000E+000,39
869,1347,4.04502E+000,5.36065E-001,-2.89117E-002,8.22915E+000,-7.53779E-001,-1.82794E-002,8.26362E+000,2.63908E-002,4.96935E-001,0,1.26465E+002,-1.28524E+001,9.95355E-001,8.29944E+001,-4.71684E+001,9.94680E-001,2.50361E-001,-1.05802E-001,-5.10446E-003,2.50434E-001,-1.05875E-001,-8.20928E-001,2.51428E-001,1.28448E+000,-9.61715E-003,0.00000E+000,-2.44332E-003,9.04211E-001,0.00000E+000,-2.59508E-003,-1.01051E-001,1.00000E+000,39
869,1307,3.97479E+000,-1.76932E+000,2.15709E-001,8.21341E+000,-4.87768E-001,2.33855E-001,8.23121E+000,2.17543E-002,4.87511E-001,0,1.25359E+002,-9.09622E+000,9.94208E-001,8.20585E+001,-4.33275E+001,9.92354E-001,2.56287E-001,-1.05820E-001,-5.41441E-003,2.56368E-001,-1.05901E-001,-8.56460E-001,2.57656E-001,1.29214E+000,-9.45900E-003,0.00000E+000,-3.89981E-003,9.04180E-001,0.00000E+000,5.49493E-003,-1.00884E-001,1.00000E+000,39
989,1307,1.40514E+001,-1.60242E+000,9.42379E-002,1.04547E+001,-3.93215E-001,5.70889E-002,1.04622E+001,2.20882E-002,4.69647E-001,0,1.58787E+002,-7.53506E+000,9.96108E-001,1.18005E+002,-3.92233E+001,9.95847E-001,2.39483E-001,-1.00201E-001,-8.47195E-005,2.39483E-001,-1.00201E-001,-1.42900E-002,2.40543E-001,1.27024E+000,-3.90100E-002,0.00000E+000,2.92575E-002,9.07538E-001,0.00000E+000,-2.24901E-002,-8.55195E-002,1.00000E+000,39
989,1317,1.40174E+001,-1.01926E+000,1.63323E-002,1.04136E+001,-4.51675E-001,1.32793E-002,1.04234E+001,2.32513E-002,5.21007E-001,0,1.58338E+002,-8.39734E+000,9.96613E-001,1.17407E+002,-3.99996E+001,9.95906E-001,2.39197E-001,-1.00168E-001,2.94073E-004,2.39198E-001,-1.00168E-001,4.96489E-002,2.40247E-001,1.26981E+000,-3.90147E-002,0.00000E+000,2.97222E-002,9.07543E-001,0.00000E+000,-1.93293E-002,-8.54853E-002,1.00000E+000,39
989,1327,1.40175E+001,-4.45380E-001,-4.37045E-002,1.03994E+001,-5.22778E-001,-4.52570E-002,1.04127E+001,2.69199E-002,4.93982E-001,0,1.58342E+002,-9.40677E+000,9.95180E-001,1.17372E+002,-4.09931E+001,9.92943E-001,2.38902E-001,-1.00127E-001,6.70994E-004,2.38903E-001,-1.00128E-001,1.13398E-001,2.39943E-001,1.26937E+000,-3.90244E-002,0.00000E+000,3.01873E-002,9.07553E-001,0.00000E+000,-1.61660E-002,-8.54153E-002,1.00000E+000,39
989,1297,1.40787E+001,-2.17270E+000,2.03596E-001,1.04876E+001,-3.23324E-001,1.26783E-001,1.04934E+001,2.00752E-002,4.62569E-001,0,1.59011E+002,-6.56179E+000,9.95921E-001,1.18556E+002,-3.82926E+001,9.95026E-001,2.39757E-001,-1.00231E-001,-4.63579E-004,2.39758E-001,-1.00232E-001,-7.81233E-002,2.40829E-001,1.27068E+000,-3.90062E-002,0.00000E+000,2.87935E-002,9.07534E-001,0.00000E+000,-2.56462E-002,-8.55474E-002,1.00000E+000,39
989,1337,1.40132E+001,1.34721E-001,-7.30649E-002,1.03759E+001,-5.88297E-001,-9.53901E-002,1.03930E+001,2.20359E-002,4.28514E-001,0,1.58164E+002,-1.03685E+001,9.91369E-001,1.17325E+002,-4.19777E+001,9.91506E-001,2.38596E-001,-1.00079E-001,1.04539E-003,2.38600E-001,-1.00082E-001,1.76853E-001,2.39629E-001,1.26893E+000,-3.90374E-002,0.00000E+000,3.06514E-002,9.07567E-001,0.00000E+000,-1.30092E-002,-8.53211E-002,1.00000E+000,39
989,1347,1.40177E+001,7.33787E-001,-7.27395E-002,1.03576E+001,-6.39507E-001,-1.31102E-001,1.03781E+001,2.39066E-002,4.43292E-001,0,1.57999E+002,-1.11469E+001,9.95370E-001,1.17470E+002,-4.26950E+001,9.95843E-001,2.38279E-001,-1.00026E-001,1.42025E-003,2.38285E-001,-1.00032E-001,2.40529E-001,2.39305E-001,1.26850E+000,-3.90527E-002,0.00000E+000,3.11179E-002,9.07583E-001,0.00000E+000,-9.83620E-003,-8.52098E-002,1.00000E+000,39
859,1327,3.16214E+000,-6.27913E-001,2.51142E-002,8.03332E+000,-6.19304E-001,9.04298E-002,8.05767E+000,1.90280E-002,5.30287E-001,0,1.23198E+002,-1.09027E+001,9.94161E-001,7.92754E+001,-4.53677E+001,9.93156E-001,2.53571E-001,-1.05903E-001,-5.00803E-003,2.53641E-001,-1.05972E-001,-7.98013E-001,2.54781E-001,1.28863E+000,-7.63934E-003,0.00000E+000,-4.10237E-003,9.03992E-001,0.00000E+000,2.28350E-003,-9.96896E-002,1.00000E+000,39
859,1337,3.18665E+000,-4.88588E-002,-1.89991E-002,8.04133E+000,-6.84542E-001,2.98272E-002,8.07047E+000,2.20082E-002,5.21163E-001,0,1.23523E+002,-1.18274E+001,9.93438E-001,7.96545E+001,-4.63287E+001,9.92314E-001,2.52531E-001,-1.05901E-001,-4.99131E-003,2.52600E-001,-1.05970E-001,-7.97661E-001,2.53689E-001,1.28728E+000,-7.67294E-003,0.00000E+000,-3.84169E-003,9.03998E-001,0.00000E+000,4.27527E-005,-9.97455E-002,1.00000E+000,39
859,1347,3.21117E+000,5.34015E-001,-2.78692E-002,8.04338E+000,-7.50362E-001,-2.44097E-002,8.07834E+000,2.90868E-002,4.85003E-001,0,1.23726E+002,-1.27594E+001,9.95902E-001,8.01111E+001,-4.73227E+001,9.95456E-001,2.51481E-001,-1.05899E-001,-4.97924E-003,2.51550E-001,-1.05968E-001,-7.98074E-001,2.52588E-001,1.28593E+000,-7.71862E-003,0.00000E+000,-3.58018E-003,9.04007E-001,0.00000E+000,-2.20521E-003,-9.98216E-002,1.00000E+000,39
859,1307,3.13333E+000,-1.76380E+000,2.14386E-001,8.01977E+000,-4.79806E-001,2.26726E-001,8.03731E+000,2.49736E-002,5.87659E-001,0,1.22507E+002,-8.95222E+000,9.95823E-001,7.90529E+001,-4.32971E+001,9.95232E-001,2.55624E-001,-1.05904E-001,-5.05498E-003,2.55695E-001,-1.05975E-001,-8.00915E-001,2.56939E-001,1.29131E+000,-7.60807E-003,0.00000E+000,-4.62117E-003,9.03986E-001,0.00000E+000,6.74314E-003,-9.96375E-002,1.00000E+000,39
859,1317,3.15070E+000,-1.20755E+000,1.00783E-001,8.03280E+000,-5.59014E-001,1.55548E-001,8.05373E+000,1.92610E-002,5.12729E-001,0,1.22966E+002,-1.00452E+001,9.95513E-001,7.91671E+001,-4.44957E+001,9.93042E-001,2.54602E-001,-1.05904E-001,-5.02903E-003,2.54672E-001,-1.05974E-001,-7.99064E-001,2.55864E-001,1.28997E+000,-7.61705E-003,0.00000E+000,-4.36215E-003,9.03987E-001,0.00000E+000,4.51663E-003,-9.96524E-002,1.00000E+000,39
999,1337,1.48388E+001,1.60934E-001,-8.27685E-002,1.05464E+001,-5.66519E-001,-1.04347E-001,1.05622E+001,1.71996E-002,3.65180E-001,0,1.60657E+002,-1.00319E+001,9.98395E-001,1.20140E+002,-4.14742E+001,9.97241E-001,2.38260E-001,-9.99258E-002,8.96170E-004,2.38262E-001,-9.99282E-002,1.51829E-001,2.39292E-001,1.26847E+000,-3.92478E-002,0.00000E+000,3.03338E-002,9.07458E-001,0.00000E+000,-1.06543E-002,-8.19962E-002,1.00000E+000,39
999,1347,1.48533E+001,7.62376E-001,-6.73653E-002,1.05358E+001,-6.18500E-001,-1.34763E-001,1.05548E+001,1.59527E-002,3.91295E-001,0,1.60585E+002,-1.08185E+001,9.98419E-001,1.20466E+002,-4.21792E+001,9.97817E-001,2.38317E-001,-9.98751E-002,1.25252E-003,2.38321E-001,-9.98797E-002,2.12196E-001,2.39359E-001,1.26852E+000,-3.92460E-002,0.00000E+000,3.07669E-002,9.07475E-001,0.00000E+000,-7.66126E-003,-8.18808E-002,1.00000E+000,39
999,1307,1.48816E+001,-1.57076E+000,8.67944E-002,1.06276E+001,-3.68593E-001,3.92610E-002,1.06341E+001,1.50152E-002,4.49162E-001,0,1.61340E+002,-7.12924E+000,9.97062E-001,1.20898E+002,-3.86239E+001,9.97099E-001,2.38038E-001,-1.00035E-001,-1.65675E-004,2.38038E-001,-1.00035E-001,-2.80782E-002,2.39045E-001,1.26833E+000,-3.92506E-002,0.00000E+000,2.90456E-002,9.07433E-001,0.00000E+000,-1.95573E-002,-8.21717E-002,1.00000E+000,39
999,1317,1.48591E+001,-9.92374E-001,9.53270E-003,1.05977E+001,-4.31450E-001,-5.39238E-003,1.06065E+001,2.14035E-002,4.96171E-001,0,1.61065E+002,-8.06984E+000,9.95526E-001,1.20480E+002,-3.94743E+001,9.92919E-001,2.38121E-001,-1.00005E-001,1.88539E-004,2.38121E-001,-1.00005E-001,3.19481E-002,2.39135E-001,1.26838E+000,-3.92501E-002,0.00000E+000,2.94751E-002,9.07438E-001,0.00000E+000,-1.65891E-002,-8.21379E-002,1.00000E+000,39
999,1327,1.48524E+001,-4.26697E-001,-4.96818E-002,1.05781E+001,-5.09449E-001,-5.62855E-002,1.05906E+001,2.50341E-002,4.79541E-001,0,1.60966E+002,-9.21580E+000,9.96638E-001,1.20338E+002,-4.05905E+001,9.94056E-001,2.38195E-001,-9.99683E-002,5.42771E-004,2.38196E-001,-9.99692E-002,9.19627E-002,2.39218E-001,1.26843E+000,-3.92491E-002,0.00000E+000,2.99048E-002,9.07446E-001,0.00000E+000,-1.36194E-002,-8.20790E-002,1.00000E+000,39
999,1297,1.49108E+001,-2.15159E+000,1.98533E-001,1.06621E+001,-3.09459E-001,1.09433E-001,1.06671E+001,1.59862E-002,4.71619E-001,0,1.61586E+002,-6.33450E+000,9.94835E-001,1.21479E+002,-3.78485E+001,9.92645E-001,2.37946E-001,-1.00063E-001,-5.19843E-004,2.37946E-001,-1.00064E-001,-8.81181E-002,2.38946E-001,1.26828E+000,-3.92510E-002,0.00000E+000,2.86165E-002,9.07429E-001,0.00000E+000,-2.25232E-002,-8.21962E-002,1.00000E+000,39
849,1337,2.35056E+000,-4.70192E-002,-1.01667E-002,7.85252E+000,-6.79409E-001,3.07077E-002,7.88192E+000,2.63630E-002,5.35649E-001,0,1.20709E+002,-1.17087E+001,9.95472E-001,7.67585E+001,-4.64254E+001,9.94753E-001,2.52790E-001,-1.05586E-001,-4.49769E-003,2.52846E-001,-1.05642E-001,-7.18922E-001,2.53982E-001,1.28762E+000,-6.14142E-003,0.00000E+000,-3.99930E-003,9.04129E-001,0.00000E+000,2.38122E-005,-9.80748E-002,1.00000E+000,39
849,1347,2.36868E+000,5.30817E-001,-2.95698E-002,7.85099E+000,-7.47055E-001,-2.13883E-002,7.88648E+000,2.33113E-002,4.73545E-001,0,1.20854E+002,-1.26775E+001,9.96130E-001,7.70938E+001,-4.74899E+001,9.96012E-001,2.52258E-001,-1.05585E-001,-4.48605E-003,2.52314E-001,-1.05641E-001,-7.18131E-001,2.53424E-001,1.28694E+000,-6.16172E-003,0.00000E+000,-3.77313E-003,9.04135E-001,0.00000E+000,-2.11421E-003,-9.81383E-002,1.00000E+000,39
849,1357,2.40431E+000,1.12568E+000,4.43326E-003,7.85652E+000,-8.07268E-001,-7.07495E-002,7.89820E+000,1.97373E-002,4.97042E-001,0,1.21081E+002,-1.35504E+001,9.96677E-001,7.78193E+001,-4.83668E+001,9.96725E-001,2.51717E-001,-1.05583E-001,-4.47852E-003,2.51773E-001,-1.05639E-001,-7.18015E-001,2.52856E-001,1.28625E+000,-6.19276E-003,0.00000E+000,-3.54501E-003,9.04146E-001,0.00000E+000,-4.27071E-003,-9.82355E-002,1.00000E+000,39
849,1327,2.33594E+000,-6.19123E-001,2.88730E-002,7.85313E+000,-6.07635E-001,8.06500E-002,7.87702E+000,2.59172E-002,5.30062E-001,0,1.20550E+002,-1.06629E+001,9.96309E-001,7.65218E+001,-4.53501E+001,9.95721E-001,2.53317E-001,-1.05587E-001,-4.51117E-003,2.53374E-001,-1.05644E-001,-7.20016E-001,2.54536E-001,1.28830E+000,-6.12566E-003,0.00000E+000,-4.22551E-003,9.04124E-001,0.00000E+000,2.16227E-003,-9.80255E-002,1.00000E+000,39
1009,1337,1.56776E+001,2.06540E-001,-8.48332E-002,1.07315E+001,-5.27703E-001,-9.80103E-002,1.07449E+001,2.51283E-002,4.31675E-001,0,1.63302E+002,-9.48056E+000,9.98013E-001,1.23181E+002,-4.06205E+001,9.98009E-001,2.37921E-001,-9.96879E-002,5.30421E-004,2.37922E-001,-9.96887E-002,9.00177E-002,2.38961E-001,1.26803E+000,-3.90549E-002,0.00000E+000,2.93709E-002,9.07488E-001,0.00000E+000,-8.60660E-003,-7.90892E-002,1.00000E+000,39
1009,1347,1.56819E+001,7.75485E-001,-6.71525E-002,1.07084E+001,-6.11793E-001,-1.35258E-001,1.07267E+001,1.71854E-002,4.02163E-001,0,1.63077E+002,-1.07476E+001,9.98961E-001,1.23347E+002,-4.18614E+001,9.98622E-001,2.38254E-001,-9.96497E-002,7.98349E-004,2.38256E-001,-9.96516E-002,1.35369E-001,2.39315E-001,1.26844E+000,-3.90378E-002,0.00000E+000,2.96613E-002,9.07500E-001,0.00000E+000,-6.04680E-003,-7.89817E-002,1.00000E+000,39
1009,1297,1.57363E+001,-2.13097E+000,1.91374E-001,1.08311E+001,-2.94084E-001,9.68364E-002,1.08355E+001,2.06653E-002,3.70156E-001,0,1.64059E+002,-6.05491E+000,9.92700E-001,1.24303E+002,-3.74638E+001,9.90996E-001,2.36531E-001,-9.97846E-002,-5.22153E-004,2.36532E-001,-9.97854E-002,-8.89553E-002,2.37493E-001,1.26641E+000,-3.90804E-002,0.00000E+000,2.82164E-002,9.07470E-001,0.00000E+000,-1.87854E-002,-7.92496E-002,1.00000E+000,39
1009,1307,1.57146E+001,-1.54506E+000,8.44218E-002,1.08040E+001,-3.47608E-001,3.14991E-002,1.08097E+001,2.06146E-002,3.89860E-001,0,1.63907E+002,-6.80770E+000,9.95494E-001,1.23847E+002,-3.81466E+001,9.96084E-001,2.36888E-001,-9.97644E-002,-2.60403E-004,2.36888E-001,-9.97646E-002,-4.43186E-002,2.37868E-001,1.26682E+000,-3.90771E-002,0.00000E+000,2.85043E-002,9.07472E-001,0.00000E+000,-1.62467E-002,-7.92286E-002,1.00000E+000,39
1009,1317,1.56946E+001,-9.68877E-001,-3.40736E-003,1.07764E+001,-4.12769E-001,-2.49477E-002,1.07843E+001,2.11150E-002,4.29383E-001,0,1.63712E+002,-7.76024E+000,9.96249E-001,1.23450E+002,-3.90102E+001,9.96152E-001,2.37239E-001,-9.97423E-002,2.09346E-006,2.37239E-001,-9.97423E-002,3.55945E-004,2.38238E-001,1.26722E+000,-3.90723E-002,0.00000E+000,2.87927E-002,9.07476E-001,0.00000E+000,-1.37040E-002,-7.91983E-002,1.00000E+000,39
849,1317,2.31212E+000,-1.19129E+000,1.07313E-001,7.84149E+000,-5.38834E-001,1.55125E-001,7.86151E+000,2.46020E-002,6.02658E-001,0,1.20117E+002,-9.74317E+000,9.95933E-001,7.62293E+001,-4.43233E+001,9.93921E-001,2.53838E-001,-1.05588E-001,-4.52587E-003,2.53895E-001,-1.05645E-001,-7.21313E-001,2.55084E-001,1.28898E+000,-6.11304E-003,0.00000E+000,-4.45112E-003,9.04119E-001,0.00000E+000,4.29500E-003,-9.79860E-002,1.00000E+000,39
1009,1327,1.56878E+001,-3.88208E-001,-5.10310E-002,1.07549E+001,-4.77727E-001,-7.14316E-002,1.07657E+001,1.93152E-002,4.17623E-001,0,1.63561E+002,-8.70695E+000,9.98018E-001,1.23329E+002,-3.99149E+001,9.97806E-001,2.37583E-001,-9.97146E-002,2.66682E-004,2.37584E-001,-9.97148E-002,4.53005E-002,2.38603E-001,1.26763E+000,-3.90631E-002,0.00000E+000,2.90819E-002,9.07482E-001,0.00000E+000,-1.11546E-002,-7.91410E-002,1.00000E+000,39
849,1307,2.28668E+000,-1.76085E+000,2.10712E-001,7.82039E+000,-4.72182E-001,2.16250E-001,7.83762E+000,2.58487E-002,6.37507E-001,0,1.19574E+002,-8.81756E+000,9.96193E-001,7.59676E+001,-4.33277E+001,9.95361E-001,2.54353E-001,-1.05588E-001,-4.54356E-003,2.54410E-001,-1.05645E-001,-7.23096E-001,2.55625E-001,1.28966E+000,-6.10847E-003,0.00000E+000,-4.67612E-003,9.04118E-001,0.00000E+000,6.42203E-003,-9.79717E-002,1.00000E+000,39
839,1337,1.51293E+000,-5.65947E-002,1.39792E-002,7.66151E+000,-6.83951E-001,4.53860E-002,7.69211E+000,4.56756E-002,5.06777E-001,0,1.17814E+002,-1.17792E+001,9.96644E-001,7.38773E+001,-4.67538E+001,9.95569E-001,2.52701E-001,-1.05725E-001,-3.72136E-003,2.52740E-001,-1.05764E-001,-5.94789E-001,2.53857E-001,1.28750E+000,-4.71819E-003,0.00000E+000,-3.49774E-003,9.03821E-001,0.00000E+000,-7.06066E-004,-9.60378E-002,1.00000E+000,39
839,1347,1.53081E+000,5.25320E-001,-2.32033E-002,7.66183E+000,-7.46268E-001,-1.49861E-002,7.69811E+000,1.89604E-002,4.76888E-001,0,1.18015E+002,-1.26575E+001,9.96822E-001,7.41711E+001,-4.77026E+001,9.96481E-001,2.52450E-001,-1.05723E-001,-3.69229E-003,2.52488E-001,-1.05761E-001,-5.90559E-001,2.53593E-001,1.28718E+000,-4.72673E-003,0.00000E+000,-3.24785E-003,9.03827E-001,0.00000E+000,-2.90771E-003,-9.60967E-002,1.00000E+000,39
839,1357,1.56858E+000,1.12656E+000,2.70215E-003,7.67063E+000,-7.99128E-001,-6.81273E-002,7.71245E+000,1.61651E-002,4.83925E-001,0,1.18303E+002,-1.34015E+001,9.97457E-001,7.49154E+001,-4.84731E+001,9.97333E-001,2.52192E-001,-1.05720E-001,-3.66524E-003,2.52229E-001,-1.05758E-001,-5.86662E-001,2.53322E-001,1.28686E+000,-4.74079E-003,0.00000E+000,-2.99582E-003,9.03838E-001,0.00000E+000,-5.12820E-003,-9.61936E-002,1.00000E+000,39
1019,1337,1.65245E+001,2.34514E-001,-7.96492E-002,1.09181E+001,-5.09995E-001,-1.11024E-001,1.09305E+001,2.29495E-002,5.03906E-001,0,1.66037E+002,-9.22135E+000,9.97125E-001,1.26364E+002,-4.00522E+001,9.97325E-001,2.37619E-001,-9.95333E-002,1.88868E-004,2.37619E-001,-9.95334E-002,3.20962E-002,2.38659E-001,1.26764E+000,-3.88089E-002,0.00000E+000,2.84330E-002,9.07514E-001,0.00000E+000,-6.67320E-003,-7.71108E-002,1.00000E+000,39
1019,1347,1.65178E+001,8.06604E-001,-6.90440E-002,1.08895E+001,-5.88096E-001,-1.30162E-001,1.09061E+001,2.02860E-002,4.42460E-001,0,1.65670E+002,-1.04111E+001,9.97889E-001,1.26344E+002,-4.12446E+001,9.97806E-001,2.38101E-001,-9.95070E-002,4.05466E-004,2.38101E-001,-9.95075E-002,6.88119E-002,2.39168E-001,1.26825E+000,-3.87888E-002,0.00000E+000,2.86530E-002,9.07521E-001,0.00000E+000,-4.48782E-003,-7.70378E-002,1.00000E+000,39
839,1327,1.47440E+000,-6.16552E-001,2.23242E-002,7.64257E+000,-5.97669E-001,8.67217E-002,7.66639E+000,4.03117E-002,5.47661E-001,0,1.17386E+002,-1.05012E+001,9.97677E-001,7.32042E+001,-4.54024E+001,9.96826E-001,2.52948E-001,-1.05727E-001,-3.75026E-003,2.52987E-001,-1.05766E-001,-5.98991E-001,2.54117E-001,1.28782E+000,-4.70867E-003,0.00000E+000,-3.74812E-003,9.03813E-001,0.00000E+000,1.49983E-003,-9.59722E-002,1.00000E+000,39
1019,1327,1.65235E+001,-3.63776E-001,-6.36048E-002,1.09353E+001,-4.59551E-001,-8.09232E-002,1.09453E+001,2.12766E-002,4.41670E-001,0,1.66197E+002,-8.43351E+000,9.96810E-001,1.26308E+002,-3.93899E+001,9.96809E-001,2.37132E-001,-9.95574E-002,-2.67483E-005,2.37132E-001,-9.95574E-002,-4.55186E-003,2.38146E-001,1.26704E+000,-3.88258E-002,0.00000E+000,2.82129E-002,9.07508E-001,0.00000E+000,-8.85815E-003,-7.71719E-002,1.00000E+000,39
1019,1317,1.65306E+001,-9.49789E-001,-8.30484E-003,1.09535E+001,-4.00946E-001,-4.28652E-002,1.09609E+001,2.13338E-002,4.30721E-001,0,1.66326E+002,-7.57043E+000,9.97148E-001,1.26447E+002,-3.85977E+001,9.97109E-001,2.36641E-001,-9.95768E-002,-2.39605E-004,2.36641E-001,-9.95770E-002,-4.08316E-002,2.37629E-001,1.26644E+000,-3.88360E-002,0.00000E+000,2.79934E-002,9.07504E-001,0.00000E+000,-1.10382E-002,-7.72089E-002,1.00000E+000,39
839,1317,1.46970E+000,-1.18344E+000,1.04126E-001,7.64583E+000,-5.25215E-001,1.44265E-001,7.66521E+000,2.06474E-002,5.34486E-001,0,1.17233E+002,-9.47056E+000,9.96048E-001,7.32164E+001,-4.43397E+001,9.93264E-001,2.53189E-001,-1.05728E-001,-3.78124E-003,2.53229E-001,-1.05768E-001,-6.03529E-001,2.54370E-001,1.28814E+000,-4.70477E-003,0.00000E+000,-3.99755E-003,9.03810E-001,0.00000E+000,3.69744E-003,-9.59453E-002,1.00000E+000,39
1019,1297,1.65590E+001,-2.10384E+000,1.56108E-001,1.09982E+001,-2.71892E-001,6.22017E-002,1.10018E+001,2.05550E-002,3.79127E-001,0,1.66583E+002,-5.67068E+000,9.97555E-001,1.27040E+002,-3.68639E+001,9.96716E-001,2.35647E-001,-9.96119E-002,-6.62636E-004,2.35648E-001,-9.96132E-002,-1.13244E-001,2.36585E-001,1.26524E+000,-3.88511E-002,0.00000E+000,2.75557E-002,9.07498E-001,0.00000E+000,-1.53847E-002,-7.72636E-002,1.00000E+000,39
1019,1307,1.65375E+001,-1.52585E+000,5.89694E-002,1.09706E+001,-3.35621E-001,3.58773E-003,1.09757E+001,2.51017E-002,4.49371E-001,0,1.66401E+002,-6.59514E+000,9.97725E-001,1.26604E+002,-3.76629E+001,9.97474E-001,2.36147E-001,-9.95956E-002,-4.51439E-004,2.36148E-001,-9.95962E-002,-7.70396E-002,2.37110E-001,1.26584E+000,-3.88454E-002,0.00000E+000,2.77749E-002,9.07500E-001,0.00000E+000,-1.32084E-002,-7.72429E-002,1.00000E+000,39
839,1307,1.46096E+000,-1.74859E+000,2.12115E-001,7.64092E+000,-4.54321E-001,2.07658E-001,7.65723E+000,1.82254E-002,5.13124E-001,0,1.16930E+002,-8.46437E+000,9.94488E-001,7.32252E+001,-4.33096E+001,9.92382E-001,2.53424E-001,-1.05728E-001,-3.81289E-003,2.53465E-001,-1.05769E-001,-6.08181E-001,2.54618E-001,1.28846E+000,-4.70287E-003,0.00000E+000,-4.24631E-003,9.03809E-001,0.00000E+000,5.88916E-003,-9.59323E-002,1.00000E+000,39
829,1337,6.74882E-001,-5.21538E-002,2.71153E-003,7.47289E+000,-6.71639E-001,4.04425E-002,7.50312E+000,3.32267E-002,5.36703E-001,0,1.15016E+002,-1.15836E+001,9.94442E-001,7.09189E+001,-4.67597E+001,9.93286E-001,2.51983E-001,-1.05672E-001,-2.94915E-003,2.52008E-001,-1.05696E-001,-4.72406E-001,2.53096E-001,1.28658E+000,-3.69780E-003,0.00000E+000,-2.71099E-003,9.03702E-001,0.00000E+000,-1.60318E-003,-9.41166E-002,1.00000E+000,39
829,1347,6.96879E-001,5.28192E-001,-1.62999E-002,7.47491E+000,-7.38662E-001,-1.42926E-002,7.51133E+000,1.80808E-002,4.98952E-001,0,1.15221E+002,-1.25192E+001,9.94304E-001,7.13177E+001,-4.77777E+001,9.93945E-001,2.51947E-001,-1.05676E-001,-3.01526E-003,2.51973E-001,-1.05701E-001,-4.83038E-001,2.53059E-001,1.28654E+000,-3.69898E-003,0.00000E+000,-2.63580E-003,9.03704E-001,0.00000E+000,-3.92272E-003,-9.41874E-002,1.00000E+000,39
829,1357,7.28024E-001,1.12580E+000,8.15048E-003,7.47874E+000,-7.94032E-001,-6.18624E-002,7.52102E+000,1.84432E-002,5.09634E-001,0,1.15417E+002,-1.33130E+001,9.96445E-001,7.19582E+001,-4.86021E+001,9.96381E-001,2.51905E-001,-1.05682E-001,-3.08206E-003,2.51932E-001,-1.05708E-001,-4.93787E-001,2.53016E-001,1.28650E+000,-3.70060E-003,0.00000E+000,-2.56028E-003,9.03707E-001,0.00000E+000,-6.25239E-003,-9.42840E-002,1.00000E+000,39
1029,1337,1.73368E+001,2.50022E-001,-9.35259E-002,1.10754E+001,-4.98974E-001,-1.17794E-001,1.10873E+001,1.92321E-002,4.64952E-001,0,1.68316E+002,-9.05231E+000,9.95662E-001,1.28979E+002,-3.96953E+001,9.95585E-001,2.37500E-001,-9.91598E-002,-2.10332E-005,2.37500E-001,-9.91598E-002,-3.57962E-003,2.38575E-001,1.26750E+000,-3.83744E-002,0.00000E+000,2.76089E-002,9.07759E-001,0.00000E+000,-4.69716E-003,-7.54456E-002,1.00000E+000,39
1029,1347,1.73343E+001,8.44382E-001,-8.35055E-002,1.10500E+001,-5.56610E-001,-1.41334E-001,1.10649E+001,1.89695E-002,4.87022E-001,0,1.68004E+002,-9.94420E+000,9.96914E-001,1.29023E+002,-4.04974E+001,9.96318E-001,2.38108E-001,-9.91335E-002,1.96440E-004,2.38108E-001,-9.91336E-002,3.33743E-002,2.39216E-001,1.26827E+000,-3.83476E-002,0.00000E+000,2.78369E-002,9.07767E-001,0.00000E+000,-2.67109E-003,-7.53748E-002,1.00000E+000,39
1029,1327,1.73515E+001,-3.39017E-001,-5.85708E-002,1.11059E+001,-4.40131E-001,-8.03592E-002,1.11149E+001,2.06573E-002,4.45370E-001,0,1.68638E+002,-8.18281E+000,9.95967E-001,1.29202E+002,-3.89095E+001,9.95842E-001,2.36889E-001,-9.91816E-002,-2.35113E-004,2.36890E-001,-9.91818E-002,-4.00837E-002,2.37932E-001,1.26673E+000,-3.83928E-002,0.00000E+000,2.73813E-002,9.07754E-001,0.00000E+000,-6.71853E-003,-7.54942E-002,1.00000E+000,39
829,1327,6.44457E-001,-6.17066E-001,2.52049E-002,7.45806E+000,-5.93054E-001,7.69711E-002,7.48199E+000,3.72406E-002,5.60310E-001,0,1.14665E+002,-1.04101E+001,9.95125E-001,7.04008E+001,-4.55212E+001,9.95221E-001,2.52014E-001,-1.05669E-001,-2.88351E-003,2.52037E-001,-1.05692E-001,-4.61858E-001,2.53128E-001,1.28662E+000,-3.69687E-003,0.00000E+000,-2.78592E-003,9.03700E-001,0.00000E+000,7.08438E-004,-9.40614E-002,1.00000E+000,39
829,1307,6.45690E-001,-1.75806E+000,2.29170E-001,7.47158E+000,-4.58917E-001,2.15220E-001,7.48876E+000,2.23611E-002,4.63046E-001,0,1.14391E+002,-8.52127E+000,9.95364E-001,7.06807E+001,-4.36224E+001,9.93230E-001,2.52060E-001,-1.05666E-001,-2.75332E-003,2.52081E-001,-1.05687E-001,-4.40956E-001,2.53174E-001,1.28670E+000,-3.69614E-003,0.00000E+000,-2.93524E-003,9.03698E-001,0.00000E+000,5.31496E-003,-9.40175E-002,1.00000E+000,39
829,1317,6.38246E-001,-1.18579E+000,1.04639E-001,7.46108E+000,-5.22289E-001,1.38874E-001,7.48063E+000,2.65895E-002,4.92011E-001,0,1.14497E+002,-9.37888E+000,9.94263E-001,7.03849E+001,-4.45076E+001,9.94014E-001,2.52040E-001,-1.05667E-001,-2.81826E-003,2.52062E-001,-1.05689E-001,-4.51379E-001,2.53154E-001,1.28666E+000,-3.69632E-003,0.00000E+000,-2.86067E-003,9.03699E-001,0.00000E+000,3.01437E-003,-9.40286E-002,1.00000E+000,39
1029,1317,1.73598E+001,-9.32821E-001,-1.69790E-002,1.11256E+001,-3.90767E-001,-5.48079E-002,1.11326E+001,2.12401E-002,4.45065E-001,0,1.68841E+002,-7.41108E+000,9.97683E-001,1.29336E+002,-3.82046E+001,9.96420E-001,2.36277E-001,-9.92007E-002,-4.46482E-004,2.36278E-001,-9.92013E-002,-7.62538E-002,2.37287E-001,1.26597E+000,-3.84062E-002,0.00000E+000,2.71549E-002,9.07750E-001,0.00000E+000,-8.73005E-003,-7.55293E-002,1.00000E+000,39
1029,1307,1.73760E+001,-1.50694E+000,7.34953E-002,1.11505E+001,-3.23581E-001,8.49712E-003,1.11552E+001,1.77417E-002,4.96793E-001,0,1.68966E+002,-6.46901E+000,9.97899E-001,1.29677E+002,-3.72735E+001,9.95815E-001,2.35661E-001,-9.92181E-002,-6.56609E-004,2.35662E-001,-9.92194E-002,-1.12341E-001,2.36640E-001,1.26521E+000,-3.84165E-002,0.00000E+000,2.69288E-002,9.07747E-001,0.00000E+000,-1.07387E-002,-7.55566E-002,1.00000E+000,39
1029,1297,1.73941E+001,-2.07769E+000,1.73014E-001,1.11753E+001,-2.52601E-001,7.12368E-002,1.11784E+001,1.81622E-002,4.54140E-001,0,1.69085E+002,-5.44697E+000,9.96888E-001,1.30065E+002,-3.63555E+001,9.95891E-001,2.35039E-001,-9.92341E-002,-8.66349E-004,2.35042E-001,-9.92364E-002,-1.48494E-001,2.35988E-001,1.26444E+000,-3.84243E-002,0.00000E+000,2.67023E-002,9.07744E-001,0.00000E+000,-1.27511E-002,-7.55771E-002,1.00000E+000,39
819,1317,-1.90129E-001,-1.19851E+000,1.08359E-001,7.27826E+000,-5.30520E-001,1.33045E-001,7.29878E+000,2.61548E-002,4.82126E-001,0,1.11790E+002,-9.47223E+000,9.92715E-001,6.76119E+001,-4.48260E+001,9.91961E-001,2.50348E-001,-1.05316E-001,-2.13820E-003,2.50361E-001,-1.05329E-001,-3.44436E-001,2.51408E-001,1.28448E+000,-3.52885E-003,0.00000E+000,-1.63542E-003,9.03833E-001,0.00000E+000,2.03042E-003,-9.18549E-002,1.00000E+000,39
819,1327,-1.85838E-001,-6.30017E-001,3.12598E-002,7.27561E+000,-5.99450E-001,8.44029E-002,7.30075E+000,2.61034E-002,4.82591E-001,0,1.11921E+002,-1.04739E+001,9.94592E-001,6.76035E+001,-4.58843E+001,9.93988E-001,2.50459E-001,-1.05319E-001,-2.28347E-003,2.50474E-001,-1.05334E-001,-3.67718E-001,2.51526E-001,1.28462E+000,-3.52734E-003,0.00000E+000,-1.72980E-003,9.03832E-001,0.00000E+000,-8.38239E-005,-9.18777E-002,1.00000E+000,39
819,1337,-1.64666E-001,-5.08040E-002,-1.13366E-002,7.28199E+000,-6.63999E-001,3.11770E-002,7.31226E+000,2.20374E-002,5.09413E-001,0,1.12193E+002,-1.14009E+001,9.94361E-001,6.79361E+001,-4.68364E+001,9.93652E-001,2.50566E-001,-1.05326E-001,-2.42895E-003,2.50583E-001,-1.05343E-001,-3.91018E-001,2.51639E-001,1.28476E+000,-3.52415E-003,0.00000E+000,-1.82467E-003,9.03830E-001,0.00000E+000,-2.20928E-003,-9.19260E-002,1.00000E+000,39
819,1307,-1.94874E-001,-1.76510E+000,2.03878E-001,7.27740E+000,-4.63066E-001,1.84952E-001,7.29447E+000,2.44109E-002,5.00813E-001,0,1.11592E+002,-8.49015E+000,9.94737E-001,6.76557E+001,-4.37675E+001,9.93786E-001,2.50234E-001,-1.05314E-001,-1.99321E-003,2.50245E-001,-1.05325E-001,-3.21188E-001,2.51287E-001,1.28434E+000,-3.52969E-003,0.00000E+000,-1.54138E-003,9.03834E-001,0.00000E+000,4.13727E-003,-9.18420E-002,1.00000E+000,39
819,1347,-1.34185E-001,5.40356E-001,-1.62614E-002,7.29227E+000,-7.20542E-001,-1.13467E-002,7.32780E+000,2.13802E-002,5.16387E-001,0,1.12480E+002,-1.22195E+001,9.96480E-001,6.85007E+001,-4.76966E+001,9.96415E-001,2.50669E-001,-1.05336E-001,-2.57457E-003,2.50687E-001,-1.05355E-001,-4.14325E-001,2.51748E-001,1.28490E+000,-3.51980E-003,0.00000E+000,-1.91982E-003,9.03827E-001,0.00000E+000,-4.34106E-003,-9.19919E-002,1.00000E+000,39
819,1357,-1.07233E-001,1.11698E+000,1.64849E-002,7.29158E+000,-7.96872E-001,-5.34238E-002,7.33519E+000,2.63541E-002,5.26865E-001,0,1.12594E+002,-1.33530E+001,9.95200E-001,6.90941E+001,-4.88657E+001,9.95078E-001,2.50767E-001,-1.05349E-001,-2.72034E-003,2.50788E-001,-1.05370E-001,-4.37643E-001,2.51851E-001,1.28504E+000,-3.51384E-003,0.00000E+000,-2.01534E-003,9.03823E-001,0.00000E+000,-6.48091E-003,-9.20821E-002,1.00000E+000,39
1039,1337,1.81701E+001,2.75836E-001,-9.46246E-002,1.12518E+001,-4.80006E-001,-1.18637E-001,1.12626E+001,1.71107E-002,4.59852E-001,0,1.70848E+002,-8.77322E+000,9.96934E-001,1.31950E+002,-3.91874E+001,9.95857E-001,2.37550E-001,-9.86549E-002,-5.33055E-004,2.37551E-001,-9.86557E-002,-9.08426E-002,2.38684E-001,1.26756E+000,-3.82116E-002,0.00000E+000,2.64158E-002,9.08178E-001,0.00000E+000,-2.58201E-003,-7.43943E-002,1.00000E+000,39
1039,1347,1.81642E+001,8.51206E-001,-8.74608E-002,1.12232E+001,-5.54553E-001,-1.43259E-001,1.12378E+001,1.73581E-002,4.11715E-001,0,1.70500E+002,-9.91971E+000,9.98099E-001,1.31931E+002,-4.03112E+001,9.97548E-001,2.38245E-001,-9.86415E-002,-4.08918E-004,2.38246E-001,-9.86420E-002,-6.95463E-002,2.39417E-001,1.26845E+000,-3.81811E-002,0.00000E+000,2.64789E-002,9.08181E-001,0.00000E+000,-7.11174E-004,-7.43298E-002,1.00000E+000,39
1039,1317,1.81878E+001,-8.96372E-001,-1.41046E-002,1.12977E+001,-3.59094E-001,-4.79199E-002,1.13035E+001,1.81177E-002,4.07736E-001,0,1.71274E+002,-6.95165E+000,9.97144E-001,1.32233E+002,-3.75605E+001,9.95537E-001,2.36148E-001,-9.86762E-002,-7.73159E-004,2.36149E-001,-9.86780E-002,-1.32304E-001,2.37209E-001,1.26579E+000,-3.82497E-002,0.00000E+000,2.62897E-002,9.08176E-001,0.00000E+000,-6.32188E-003,-7.44749E-002,1.00000E+000,39
1039,1327,1.81809E+001,-3.14820E-001,-5.52180E-002,1.12786E+001,-4.21076E-001,-7.60528E-002,1.12867E+001,1.57525E-002,4.11467E-001,0,1.71096E+002,-7.91922E+000,9.97283E-001,1.32120E+002,-3.84528E+001,9.96471E-001,2.36848E-001,-9.86662E-002,-6.54412E-004,2.36850E-001,-9.86675E-002,-1.11753E-001,2.37946E-001,1.26668E+000,-3.82333E-002,0.00000E+000,2.63525E-002,9.08177E-001,0.00000E+000,-4.45875E-003,-7.44401E-002,1.00000E+000,39
1039,1307,1.82050E+001,-1.48243E+000,5.49679E-002,1.13242E+001,-3.03051E-001,-4.13229E-003,1.13283E+001,1.94169E-002,4.19591E-001,0,1.71502E+002,-6.12360E+000,9.96470E-001,1.32553E+002,-3.67899E+001,9.95303E-001,2.35443E-001,-9.86854E-002,-8.90540E-004,2.35446E-001,-9.86877E-002,-1.52707E-001,2.36469E-001,1.26491E+000,-3.82623E-002,0.00000E+000,2.62270E-002,9.08175E-001,0.00000E+000,-8.18380E-003,-7.45016E-002,1.00000E+000,39
1039,1297,1.82259E+001,-2.05979E+000,1.58431E-001,1.13512E+001,-2.39191E-001,6.00828E-002,1.13539E+001,2.02504E-002,4.16212E-001,0,1.71648E+002,-5.22760E+000,9.94466E-001,1.32988E+002,-3.59650E+001,9.94470E-001,2.34735E-001,-9.86935E-002,-1.00646E-003,2.34738E-001,-9.86965E-002,-1.72946E-001,2.35726E-001,1.26403E+000,-3.82706E-002,0.00000E+000,2.61642E-002,9.08174E-001,0.00000E+000,-1.00466E-002,-7.45191E-002,1.00000E+000,39
1049,1337,1.90120E+001,3.02405E-001,-9.45677E-002,1.14356E+001,-4.58253E-001,-1.21303E-001,1.14454E+001,2.25110E-002,4.42636E-001,0,1.73492E+002,-8.48103E+000,9.98595E-001,1.35060E+002,-3.86754E+001,9.97589E-001,2.37569E-001,-9.85973E-002,-1.27786E-003,2.37574E-001,-9.86022E-002,-2.17793E-001,2.38715E-001,1.26760E+000,-3.79539E-002,0.00000E+000,2.47582E-002,9.08167E-001,0.00000E+000,-1.06613E-003,-7.27579E-002,1.00000E+000,39
1049,1347,1.90196E+001,8.82442E-001,-7.73622E-002,1.14181E+001,-5.32064E-001,-1.45416E-001,1.14314E+001,1.82396E-002,4.57671E-001,0,1.73306E+002,-9.61564E+000,9.98137E-001,1.35268E+002,-3.97144E+001,9.96714E-001,2.38375E-001,-9.85979E-002,-1.25559E-003,2.38380E-001,-9.86026E-002,-2.13486E-001,2.39562E-001,1.26862E+000,-3.79148E-002,0.00000E+000,2.46538E-002,9.08163E-001,0.00000E+000,3.90768E-004,-7.27025E-002,1.00000E+000,39
1049,1307,1.90417E+001,-1.45509E+000,6.02296E-002,1.15013E+001,-2.81316E-001,-9.42210E-003,1.15048E+001,2.35540E-002,3.66880E-001,0,1.74049E+002,-5.79919E+000,9.96942E-001,1.35593E+002,-3.63006E+001,9.96278E-001,2.35150E-001,-9.85962E-002,-1.32185E-003,2.35155E-001,-9.86015E-002,-2.26924E-001,2.36173E-001,1.26454E+000,-3.80102E-002,0.00000E+000,2.50692E-002,9.08173E-001,0.00000E+000,-5.40621E-003,-7.28376E-002,1.00000E+000,39
1049,1317,1.90218E+001,-8.71751E-001,-8.24751E-003,1.14717E+001,-3.40924E-001,-5.38977E-002,1.14769E+001,1.91744E-002,4.16430E-001,0,1.73780E+002,-6.70493E+000,9.96109E-001,1.35232E+002,-3.70826E+001,9.94952E-001,2.35958E-001,-9.85966E-002,-1.30845E-003,2.35963E-001,-9.86017E-002,-2.24080E-001,2.37021E-001,1.26555E+000,-3.79950E-002,0.00000E+000,2.49657E-002,9.08171E-001,0.00000E+000,-3.96195E-003,-7.28161E-002,1.00000E+000,39
1049,1327,1.90142E+001,-2.97539E-001,-5.85369E-002,1.14549E+001,-4.09897E-001,-7.76508E-002,1.14625E+001,1.25367E-002,3.95869E-001,0,1.73628E+002,-7.75756E+000,9.97674E-001,1.35091E+002,-3.80795E+001,9.96042E-001,2.36763E-001,-9.85969E-002,-1.29551E-003,2.36768E-001,-9.86019E-002,-2.21332E-001,2.37868E-001,1.26657E+000,-3.79807E-002,0.00000E+000,2.48621E-002,9.08170E-001,0.00000E+000,-2.51669E-003,-7.27959E-002,1.00000E+000,39
809,1347,-9.82555E-001,5.24708E-001,-2.31557E-002,7.09224E+000,-7.28692E-001,-1.38378E-002,7.12959E+000,1.74834E-002,4.97216E-001,0,1.09494E+002,-1.23155E+001,9.97869E-001,6.54020E+001,-4.80503E+001,9.97812E-001,2.49233E-001,-1.04933E-001,-2.17751E-003,2.49246E-001,-1.04947E-001,-3.52253E-001,2.50279E-001,1.28305E+000,-3.88641E-003,0.00000E+000,-9.19680E-004,9.04024E-001,0.00000E+000,-4.55812E-003,-8.99446E-002,1.00000E+000,39
809,1357,-9.55409E-001,1.10829E+000,1.78209E-002,7.09125E+000,-7.98923E-001,-5.11966E-002,7.13629E+000,2.04944E-002,4.96689E-001,0,1.09585E+002,-1.33498E+001,9.96876E-001,6.60214E+001,-4.91374E+001,9.96240E-001,2.49516E-001,-1.04957E-001,-2.44010E-003,2.49533E-001,-1.04974E-001,-3.94383E-001,2.50577E-001,1.28343E+000,-3.87016E-003,0.00000E+000,-1.25760E-003,9.04009E-001,0.00000E+000,-6.50099E-003,-9.00281E-002,1.00000E+000,39
809,1327,-1.02197E+000,-6.46253E-001,1.84190E-002,7.08689E+000,-6.11706E-001,7.32153E-002,7.11362E+000,1.61849E-002,5.24159E-001,0,1.09139E+002,-1.06068E+001,9.97533E-001,6.46771E+001,-4.61988E+001,9.96313E-001,2.48659E-001,-1.04903E-001,-1.65269E-003,2.48666E-001,-1.04911E-001,-2.67815E-001,2.49676E-001,1.28230E+000,-3.90612E-003,0.00000E+000,-2.49830E-004,9.04042E-001,0.00000E+000,-7.06819E-004,-8.98434E-002,1.00000E+000,39
809,1337,-1.00068E+000,-6.51860E-002,-3.56922E-003,7.09309E+000,-6.73024E-001,3.82463E-002,7.12505E+000,1.52561E-002,5.06898E-001,0,1.09346E+002,-1.15242E+001,9.97415E-001,6.50603E+001,-4.71907E+001,9.97340E-001,2.48947E-001,-1.04917E-001,-1.91511E-003,2.48957E-001,-1.04927E-001,-3.10073E-001,2.49979E-001,1.28268E+000,-3.89739E-003,0.00000E+000,-5.84302E-004,9.04034E-001,0.00000E+000,-2.62986E-003,-8.98883E-002,1.00000E+000,39
809,1307,-1.03222E+000,-1.76499E+000,2.11867E-001,7.08743E+000,-4.58041E-001,1.94879E-001,7.10489E+000,2.91907E-002,5.81241E-001,0,1.08719E+002,-8.44202E+000,9.89251E-001,6.47627E+001,-4.38513E+001,9.88207E-001,2.48072E-001,-1.04892E-001,-1.12585E-003,2.48076E-001,-1.04896E-001,-1.82753E-001,2.49059E-001,1.28156E+000,-3.91240E-003,0.00000E+000,4.16417E-004,9.04047E-001,0.00000E+000,3.12377E-003,-8.98111E-002,1.00000E+000,39
809,1317,-1.02387E+000,-1.20342E+000,1.03981E-001,7.09211E+000,-5.31458E-001,1.31540E-001,7.11321E+000,2.59001E-002,5.52983E-001,0,1.09014E+002,-9.46685E+000,9.96100E-001,6.47442E+001,-4.49672E+001,9.94775E-001,2.48367E-001,-1.04896E-001,-1.38940E-003,2.48373E-001,-1.04902E-001,-2.25342E-001,2.49369E-001,1.28193E+000,-3.91025E-003,0.00000E+000,8.35927E-005,9.04045E-001,0.00000E+000,1.21019E-003,-8.98222E-002,1.00000E+000,39
1049,1297,1.90517E+001,-2.04578E+000,1.49009E-001,1.15198E+001,-2.29963E-001,5.03480E-002,1.15222E+001,2.01223E-002,3.54232E-001,0,1.74092E+002,-5.06663E+000,9.95222E-001,1.35832E+002,-3.56588E+001,9.93550E-001,2.34340E-001,-9.85959E-002,-1.33466E-003,2.34345E-001,-9.86012E-002,-2.29680E-001,2.35324E-001,1.26352E+000,-3.80235E-002,0.00000E+000,2.51726E-002,9.08174E-001,0.00000E+000,-6.84936E-003,-7.28566E-002,1.00000E+000,39
799,1337,-1.83735E+000,-7.33742E-002,-6.91957E-003,6.90404E+000,-6.74634E-001,3.88328E-002,6.93703E+000,1.57865E-002,5.07247E-001,0,1.06513E+002,-1.15283E+001,9.97464E-001,6.21558E+001,-4.74242E+001,9.97695E-001,2.46814E-001,-1.04477E-001,-1.35296E-003,2.46820E-001,-1.04482E-001,-2.20663E-001,2.47785E-001,1.27994E+000,-4.42453E-003,0.00000E+000,8.47225E-004,9.04269E-001,0.00000E+000,-2.95713E-003,-8.78815E-002,1.00000E+000,39
799,1347,-1.81703E+000,5.11672E-001,-1.89381E-002,6.90590E+000,-7.35033E-001,-3.88285E-003,6.94491E+000,1.82972E-002,5.06807E-001,0,1.06673E+002,-1.24126E+001,9.96653E-001,6.25492E+001,-4.83721E+001,9.96593E-001,2.47173E-001,-1.04500E-001,-1.71628E-003,2.47181E-001,-1.04509E-001,-2.79613E-001,2.48161E-001,1.28041E+000,-4.41122E-003,0.00000E+000,2.94326E-004,9.04253E-001,0.00000E+000,-4.55010E-003,-8.79269E-002,1.00000E+000,39
799,1357,-1.78316E+000,1.10530E+000,1.63965E-002,6.91169E+000,-7.94896E-001,-4.77914E-002,6.95742E+000,1.90690E-002,5.07761E-001,0,1.06886E+002,-1.32760E+001,9.95637E-001,6.32636E+001,-4.92921E+001,9.95387E-001,2.47531E-001,-1.04534E-001,-2.07970E-003,2.47543E-001,-1.04546E-001,-3.38439E-001,2.48537E-001,1.28088E+000,-4.39100E-003,0.00000E+000,-2.62501E-004,9.04229E-001,0.00000E+000,-6.15439E-003,-8.79958E-002,1.00000E+000,39
799,1327,-1.84847E+000,-6.59698E-001,4.27013E-002,6.90747E+000,-6.18010E-001,9.91913E-002,6.93577E+000,2.44883E-002,5.17027E-001,0,1.06373E+002,-1.07550E+001,9.97889E-001,6.19919E+001,-4.65735E+001,9.96962E-001,2.46454E-001,-1.04458E-001,-9.89231E-004,2.46456E-001,-1.04461E-001,-1.61517E-001,2.47407E-001,1.27947E+000,-4.43502E-003,0.00000E+000,1.39920E-003,9.04282E-001,0.00000E+000,-1.36682E-003,-8.78457E-002,1.00000E+000,39
1059,1327,1.98486E+001,-2.84405E-001,-6.05513E-002,1.16311E+001,-4.03263E-001,-8.15099E-002,1.16383E+001,1.88823E-002,4.23884E-001,0,1.76162E+002,-7.68471E+000,9.98134E-001,1.38086E+002,-3.77516E+001,9.96933E-001,2.36955E-001,-9.89861E-002,-1.66826E-003,2.36963E-001,-9.89944E-002,-2.84517E-001,2.38029E-001,1.26685E+000,-3.68993E-002,0.00000E+000,2.32883E-002,9.07757E-001,0.00000E+000,-9.68567E-004,-7.12646E-002,1.00000E+000,39
1059,1337,1.98516E+001,3.21531E-001,-8.68973E-002,1.16164E+001,-4.46039E-001,-1.17101E-001,1.16256E+001,1.55328E-002,4.35846E-001,0,1.76064E+002,-8.32526E+000,9.98812E-001,1.38152E+002,-3.82909E+001,9.98366E-001,2.37779E-001,-9.89944E-002,-1.72059E-003,2.37788E-001,-9.90032E-002,-2.92716E-001,2.38895E-001,1.26790E+000,-3.68711E-002,0.00000E+000,2.30921E-002,9.07752E-001,0.00000E+000,-7.76767E-005,-7.12406E-002,1.00000E+000,39
1059,1347,1.98618E+001,9.03834E-001,-7.37892E-002,1.16011E+001,-5.16973E-001,-1.46336E-001,1.16135E+001,2.14478E-002,4.14623E-001,0,1.75929E+002,-9.40285E+000,9.98589E-001,1.38391E+002,-3.93020E+001,9.97011E-001,2.38604E-001,-9.90044E-002,-1.76838E-003,2.38613E-001,-9.90137E-002,-3.00101E-001,2.39761E-001,1.26895E+000,-3.68305E-002,0.00000E+000,2.28954E-002,9.07744E-001,0.00000E+000,8.15897E-004,-7.12060E-002,1.00000E+000,39
1059,1297,1.98783E+001,-2.02383E+000,1.30738E-001,1.16909E+001,-2.11122E-001,4.03426E-002,1.16929E+001,1.91340E-002,2.99832E-001,0,1.76570E+002,-4.76929E+000,9.96261E-001,1.38682E+002,-3.52068E+001,9.93101E-001,2.34481E-001,-9.89666E-002,-1.49816E-003,2.34488E-001,-9.89733E-002,-2.57419E-001,2.35435E-001,1.26372E+000,-3.69475E-002,0.00000E+000,2.38745E-002,9.07766E-001,0.00000E+000,-3.63158E-003,-7.13055E-002,1.00000E+000,39
1059,1307,1.98700E+001,-1.43825E+000,5.36147E-002,1.16740E+001,-2.66901E-001,-7.80729E-003,1.16770E+001,1.97749E-002,3.17945E-001,0,1.76508E+002,-5.61226E+000,9.97647E-001,1.38487E+002,-3.59480E+001,9.96986E-001,2.35305E-001,-9.89728E-002,-1.55548E-003,2.35312E-001,-9.89800E-002,-2.66605E-001,2.36298E-001,1.26476E+000,-3.69337E-002,0.00000E+000,2.36797E-002,9.07763E-001,0.00000E+000,-2.74672E-003,-7.12938E-002,1.00000E+000,39
1059,1317,1.98476E+001,-8.61484E-001,-3.03711E-002,1.16423E+001,-3.33908E-001,-6.54494E-002,1.16472E+001,2.08775E-002,4.19433E-001,0,1.76265E+002,-6.61497E+000,9.97056E-001,1.38061E+002,-3.67709E+001,9.95113E-001,2.36129E-001,-9.89791E-002,-1.61266E-003,2.36137E-001,-9.89869E-002,-2.75719E-001,2.37163E-001,1.26580E+000,-3.69188E-002,0.00000E+000,2.34842E-002,9.07761E-001,0.00000E+000,-1.85882E-003,-7.12811E-002,1.00000E+000,39
799,1307,-1.85347E+000,-1.77332E+000,2.24548E-001,6.91197E+000,-4.60730E-001,2.03363E-001,6.93029E+000,3.73372E-002,5.60639E-001,0,1.06071E+002,-8.48654E+000,9.92508E-001,6.21342E+001,-4.41238E+001,9.92141E-001,2.45728E-001,-1.04443E-001,-2.60977E-004,2.45728E-001,-1.04443E-001,-4.27017E-002,2.46647E-001,1.27855E+000,-4.44191E-003,0.00000E+000,2.49637E-003,9.04290E-001,0.00000E+000,1.79427E-003,-8.78222E-002,1.00000E+000,39
799,1317,-1.85352E+000,-1.21338E+000,1.17836E-001,6.91095E+000,-5.33960E-001,1.54678E-001,6.93327E+000,3.14294E-002,5.81192E-001,0,1.06233E+002,-9.55899E+000,9.95235E-001,6.19871E+001,-4.52462E+001,9.94043E-001,2.46092E-001,-1.04446E-001,-6.25631E-004,2.46093E-001,-1.04448E-001,-1.02259E-001,2.47028E-001,1.27901E+000,-4.44118E-003,0.00000E+000,1.94856E-003,9.04289E-001,0.00000E+000,2.15961E-004,-8.78247E-002,1.00000E+000,39
789,1327,-2.67494E+000,-6.64918E-001,4.09841E-002,6.72832E+000,-6.16434E-001,1.02711E-001,6.75728E+000,2.36330E-002,5.34163E-001,0,1.03678E+002,-1.07308E+001,9.97014E-001,5.92540E+001,-4.67533E+001,9.96329E-001,2.44312E-001,-1.04002E-001,-6.42322E-004,2.44313E-001,-1.04003E-001,-1.05658E-001,2.45211E-001,1.27673E+000,-5.20793E-003,0.00000E+000,2.63551E-003,9.04551E-001,0.00000E+000,-1.99558E-003,-8.60445E-002,1.00000E+000,39
789,1337,-2.66065E+000,-7.33862E-002,-2.69733E-003,6.72754E+000,-6.68110E-001,4.49578E-002,6.76079E+000,1.91370E-002,4.92697E-001,0,1.03847E+002,-1.14167E+001,9.96082E-001,5.94823E+001,-4.75540E+001,9.96339E-001,2.44805E-001,-1.04026E-001,-1.09113E-003,2.44809E-001,-1.04030E-001,-1.79217E-001,2.45727E-001,1.27737E+000,-5.19313E-003,0.00000E+000,1.89729E-003,9.04534E-001,0.00000E+000,-3.28322E-003,-8.60746E-002,1.00000E+000,39
789,1347,-2.63545E+000,5.11111E-001,-1.54286E-002,6.73398E+000,-7.30089E-001,-6.87179E-004,6.77344E+000,2.04500E-002,5.27943E-001,0,1.04087E+002,-1.23227E+001,9.94897E-001,5.99502E+001,-4.84922E+001,9.94777E-001,2.45298E-001,-1.04056E-001,-1.53997E-003,2.45305E-001,-1.04063E-001,-2.52556E-001,2.46242E-001,1.27801E+000,-5.17471E-003,0.00000E+000,1.15682E-003,9.04512E-001,0.00000E+000,-4.57479E-003,-8.61119E-002,1.00000E+000,39
789,1357,-2.61118E+000,1.09958E+000,1.63097E-002,6.73170E+000,-7.93913E-001,-4.16582E-002,6.77848E+000,1.89676E-002,5.35401E-001,0,1.04168E+002,-1.32560E+001,9.93854E-001,6.05100E+001,-4.94838E+001,9.93954E-001,2.45791E-001,-1.04096E-001,-1.98811E-003,2.45802E-001,-1.04108E-001,-3.25548E-001,2.46758E-001,1.27865E+000,-5.14865E-003,0.00000E+000,4.12835E-004,9.04482E-001,0.00000E+000,-5.87247E-003,-8.61648E-002,1.00000E+000,39
1069,1327,2.06837E+001,-2.70545E-001,-7.19338E-002,1.18085E+001,-3.96085E-001,-9.00469E-002,1.18155E+001,1.99503E-002,4.34731E-001,0,1.78732E+002,-7.57227E+000,9.97802E-001,1.41082E+002,-3.74007E+001,9.96169E-001,2.37221E-001,-9.90451E-002,-2.01729E-003,2.37233E-001,-9.90572E-002,-3.43706E-001,2.38305E-001,1.26722E+000,-3.60157E-002,0.00000E+000,2.19380E-002,9.07663E-001,0.00000E+000,1.22737E-004,-7.01115E-002,1.00000E+000,39
1069,1337,2.06794E+001,3.28976E-001,-9.07945E-002,1.17874E+001,-4.43440E-001,-1.14492E-001,1.17963E+001,1.30484E-002,3.82641E-001,0,1.78496E+002,-8.29921E+000,9.98333E-001,1.41045E+002,-3.80870E+001,9.97550E-001,2.37962E-001,-9.90574E-002,-2.11327E-003,2.37976E-001,-9.90707E-002,-3.59253E-001,2.39084E-001,1.26816E+000,-3.59914E-002,0.00000E+000,2.17017E-002,9.07657E-001,0.00000E+000,4.73882E-004,-7.01024E-002,1.00000E+000,39
1069,1347,2.06841E+001,9.18259E-001,-8.96107E-002,1.17681E+001,-5.07311E-001,-1.47889E-001,1.17800E+001,1.36777E-002,4.37939E-001,0,1.78320E+002,-9.28437E+000,9.98634E-001,1.41176E+002,-3.89241E+001,9.97749E-001,2.38708E-001,-9.90722E-002,-2.20608E-003,2.38723E-001,-9.90866E-002,-3.74184E-001,2.39868E-001,1.26911E+000,-3.59571E-002,0.00000E+000,2.14639E-002,9.07649E-001,0.00000E+000,8.27256E-004,-7.00896E-002,1.00000E+000,39
789,1307,-2.67151E+000,-1.78516E+000,2.20788E-001,6.74145E+000,-4.66401E-001,2.06461E-001,6.76071E+000,2.45734E-002,5.45903E-001,0,1.03516E+002,-8.55380E+000,9.95091E-001,5.95218E+001,-4.44125E+001,9.91676E-001,2.43325E-001,-1.03980E-001,2.56711E-004,2.43326E-001,-1.03981E-001,4.23502E-002,2.44181E-001,1.27547E+000,-5.21751E-003,0.00000E+000,4.10174E-003,9.04562E-001,0.00000E+000,5.61883E-004,-8.60251E-002,1.00000E+000,39
789,1317,-2.67658E+000,-1.23061E+000,1.32306E-001,6.73262E+000,-5.46046E-001,1.61592E-001,6.75666E+000,2.54278E-002,5.59819E-001,0,1.03543E+002,-9.74193E+000,9.95092E-001,5.93384E+001,-4.56628E+001,9.91681E-001,2.43819E-001,-1.03990E-001,-1.92839E-004,2.43819E-001,-1.03990E-001,-3.17669E-002,2.44696E-001,1.27610E+000,-5.21379E-003,0.00000E+000,3.36926E-003,9.04558E-001,0.00000E+000,-7.15746E-004,-8.60327E-002,1.00000E+000,39
1069,1297,2.06903E+001,-2.00476E+000,1.13170E-001,1.18486E+001,-1.95364E-001,3.85974E-002,1.18503E+001,2.50281E-002,3.47229E-001,0,1.78815E+002,-4.56670E+000,9.93670E-001,1.41308E+002,-3.47522E+001,9.88890E-001,2.34991E-001,-9.90142E-002,-1.71984E-003,2.34999E-001,-9.90231E-002,-2.95015E-001,2.35966E-001,1.26439E+000,-3.60640E-002,0.00000E+000,2.26468E-002,9.07675E-001,0.00000E+000,-9.30589E-004,-7.01294E-002,1.00000E+000,39
1069,1307,2.06882E+001,-1.42357E+000,2.57285E-002,1.18390E+001,-2.54875E-001,-1.49228E-002,1.18418E+001,1.69028E-002,3.10506E-001,0,1.78889E+002,-5.43271E+000,9.97433E-001,1.41195E+002,-3.55639E+001,9.95757E-001,2.35731E-001,-9.90232E-002,-1.82050E-003,2.35741E-001,-9.90331E-002,-3.11580E-001,2.36742E-001,1.26532E+000,-3.60532E-002,0.00000E+000,2.24117E-002,9.07673E-001,0.00000E+000,-5.81190E-004,-7.01254E-002,1.00000E+000,39
1069,1317,2.06879E+001,-8.38341E-001,-2.94431E-002,1.18258E+001,-3.16613E-001,-5.83488E-002,1.18302E+001,1.71803E-002,4.36248E-001,0,1.78861E+002,-6.38624E+000,9.98235E-001,1.41159E+002,-3.63008E+001,9.96285E-001,2.36476E-001,-9.90342E-002,-1.91893E-003,2.36487E-001,-9.90451E-002,-3.27685E-001,2.37524E-001,1.26627E+000,-3.60346E-002,0.00000E+000,2.21749E-002,9.07668E-001,0.00000E+000,-2.29288E-004,-7.01185E-002,1.00000E+000,39
779,1327,-3.49235E+000,-6.62845E-001,5.35747E-002,6.55681E+000,-6.10185E-001,1.15673E-001,6.58616E+000,3.26124E-002,5.59089E-001,0,1.01064E+002,-1.06301E+001,9.96779E-001,5.66969E+001,-4.68466E+001,9.95386E-001,2.42083E-001,-1.03240E-001,-6.23449E-004,2.42084E-001,-1.03241E-001,-1.03442E-001,2.42955E-001,1.27389E+000,-6.36553E-003,0.00000E+000,3.51980E-003,9.05126E-001,0.00000E+000,-2.31712E-003,-8.45919E-002,1.00000E+000,39
779,1337,-3.47799E+000,-8.97993E-002,3.87546E-003,6.55659E+000,-6.79021E-001,5.35601E-002,6.59187E+000,1.86745E-002,5.06196E-001,0,1.01260E+002,-1.15806E+001,9.95126E-001,5.69091E+001,-4.79271E+001,9.95213E-001,2.42817E-001,-1.03272E-001,-1.19891E-003,2.42821E-001,-1.03276E-001,-1.98479E-001,2.43722E-001,1.27483E+000,-6.34425E-003,0.00000E+000,2.51442E-003,9.05103E-001,0.00000E+000,-3.26294E-003,-8.46133E-002,1.00000E+000,39
779,1347,-3.46097E+000,5.01607E-001,-1.10666E-002,6.55447E+000,-7.33148E-001,2.76612E-003,6.59534E+000,2.30263E-002,5.00446E-001,0,1.01381E+002,-1.23486E+001,9.93090E-001,5.72487E+001,-4.87775E+001,9.92742E-001,2.43552E-001,-1.03312E-001,-1.77368E-003,2.43561E-001,-1.03321E-001,-2.92970E-001,2.44492E-001,1.27577E+000,-6.31636E-003,0.00000E+000,1.50582E-003,9.05073E-001,0.00000E+000,-4.21178E-003,-8.46413E-002,1.00000E+000,39
779,1357,-3.44023E+000,1.09457E+000,1.72028E-002,6.54960E+000,-7.92048E-001,-3.79059E-002,6.59743E+000,1.88718E-002,5.19404E-001,0,1.01420E+002,-1.32055E+001,9.94061E-001,5.77491E+001,-4.96889E+001,9.94049E-001,2.44289E-001,-1.03363E-001,-2.34855E-003,2.44305E-001,-1.03379E-001,-3.87037E-001,2.45264E-001,1.27672E+000,-6.27906E-003,0.00000E+000,4.90826E-004,9.05033E-001,0.00000E+000,-5.16663E-003,-8.46789E-002,1.00000E+000,39
779,1317,-3.48160E+000,-1.21997E+000,1.34019E-001,6.57332E+000,-5.29575E-001,1.62837E-001,6.59663E+000,3.11111E-002,5.39147E-001,0,1.01152E+002,-9.46640E+000,9.97534E-001,5.69487E+001,-4.56197E+001,9.96097E-001,2.41348E-001,-1.03224E-001,-4.39315E-005,2.41348E-001,-1.03224E-001,-7.30498E-003,2.42188E-001,1.27295E+000,-6.37395E-003,0.00000E+000,4.52357E-003,9.05135E-001,0.00000E+000,-1.37282E-003,-8.45834E-002,1.00000E+000,39
1079,1337,2.15123E+001,3.45438E-001,-1.09568E-001,1.19622E+001,-4.33394E-001,-1.29593E-001,1.19708E+001,2.19739E-002,3.84754E-001,0,1.81048E+002,-8.13060E+000,9.97009E-001,1.43999E+002,-3.76823E+001,9.97089E-001,2.38568E-001,-9.93467E-002,-2.46105E-003,2.38585E-001,-9.93646E-002,-4.17259E-001,2.39693E-001,1.26896E+000,-3.50747E-002,0.00000E+000,2.03657E-002,9.07386E-001,0.00000E+000,8.14246E-004,-6.94524E-002,1.00000E+000,39
1079,1347,2.15237E+001,9.34658E-001,-9.62469E-002,1.19494E+001,-4.97510E-001,-1.51248E-001,1.19607E+001,1.24644E-002,4.25347E-001,0,1.80922E+002,-9.14126E+000,9.98784E-001,1.44252E+002,-3.85521E+001,9.98668E-001,2.39229E-001,-9.93694E-002,-2.62056E-003,2.39249E-001,-9.93897E-002,-4.43400E-001,2.40388E-001,1.26980E+000,-3.50440E-002,0.00000E+000,2.00427E-002,9.07374E-001,0.00000E+000,6.46055E-004,-6.94585E-002,1.00000E+000,39
1079,1297,2.15292E+001,-1.98112E+000,1.17168E-001,1.20289E+001,-1.77638E-001,4.24652E-002,1.20303E+001,2.37251E-002,4.29154E-001,0,1.81365E+002,-4.36067E+000,9.95585E-001,1.44393E+002,-3.42521E+001,9.93038E-001,2.35932E-001,-9.92812E-002,-1.80436E-003,2.35942E-001,-9.92909E-002,-3.08395E-001,2.36925E-001,1.26561E+000,-3.51385E-002,0.00000E+000,2.16492E-002,9.07411E-001,0.00000E+000,1.48264E-003,-6.94396E-002,1.00000E+000,39
1079,1307,2.15196E+001,-1.41074E+000,2.28917E-002,1.20132E+001,-2.47981E-001,-1.18874E-002,1.20158E+001,1.96552E-002,3.80293E-001,0,1.81359E+002,-5.37550E+000,9.97650E-001,1.44151E+002,-3.52224E+001,9.96123E-001,2.36589E-001,-9.92942E-002,-1.97089E-003,2.36600E-001,-9.93057E-002,-3.36184E-001,2.37615E-001,1.26644E+000,-3.51306E-002,0.00000E+000,2.13298E-002,9.07407E-001,0.00000E+000,1.31631E-003,-6.94412E-002,1.00000E+000,39
1079,1327,2.15159E+001,-2.55129E-001,-8.44035E-002,1.19824E+001,-3.86848E-001,-1.00930E-001,1.19890E+001,2.36699E-002,4.02937E-001,0,1.81251E+002,-7.41259E+000,9.97484E-001,1.44037E+002,-3.70451E+001,9.96761E-001,2.37909E-001,-9.93282E-002,-2.29882E-003,2.37925E-001,-9.93438E-002,-3.90540E-001,2.39001E-001,1.26812E+000,-3.50959E-002,0.00000E+000,2.06867E-002,9.07394E-001,0.00000E+000,9.81420E-004,-6.94482E-002,1.00000E+000,39
1079,1317,2.15136E+001,-8.20727E-001,-3.93266E-002,1.19945E+001,-3.05296E-001,-6.16322E-002,1.19985E+001,1.91457E-002,4.20434E-001,0,1.81272E+002,-6.20140E+000,9.97388E-001,1.44018E+002,-3.59115E+001,9.96425E-001,2.37250E-001,-9.93108E-002,-2.13533E-003,2.37263E-001,-9.93243E-002,-3.63498E-001,2.38308E-001,1.26728E+000,-3.51142E-002,0.00000E+000,2.10081E-002,9.07401E-001,0.00000E+000,1.14878E-003,-6.94445E-002,1.00000E+000,39
779,1307,-3.49906E+000,-1.80263E+000,2.33830E-001,6.55934E+000,-4.79482E-001,2.18015E-001,6.58046E+000,2.22223E-002,5.50067E-001,0,1.00752E+002,-8.75364E+000,9.96862E-001,5.68075E+001,-4.48156E+001,9.94425E-001,2.40616E-001,-1.03211E-001,5.33106E-004,2.40617E-001,-1.03212E-001,8.88372E-002,2.41425E-001,1.27202E+000,-6.37908E-003,0.00000E+000,5.52075E-003,9.05140E-001,0.00000E+000,-4.34721E-004,-8.45782E-002,1.00000E+000,39
1089,1337,2.23440E+001,3.67041E-001,-1.17512E-001,1.21355E+001,-4.18838E-001,-1.33630E-001,1.21435E+001,1.93094E-002,4.70840E-001,0,1.83526E+002,-7.94872E+000,9.96437E-001,1.46957E+002,-3.71803E+001,9.95810E-001,2.39789E-001,-9.97931E-002,-2.54558E-003,2.39808E-001,-9.98122E-002,-4.29470E-001,2.40928E-001,1.27055E+000,-3.37273E-002,0.00000E+000,1.91704E-002,9.06948E-001,0.00000E+000,1.52466E-003,-6.85055E-002,1.00000E+000,39
1089,1347,2.23521E+001,9.54767E-001,-1.07760E-001,1.21194E+001,-4.83617E-001,-1.58417E-001,1.21300E+001,1.34634E-002,4.26721E-001,0,1.83364E+002,-8.93617E+000,9.98193E-001,1.47151E+002,-3.81062E+001,9.97432E-001,2.40538E-001,-9.98218E-002,-2.75390E-003,2.40561E-001,-9.98441E-002,-4.63547E-001,2.41715E-001,1.27150E+000,-3.36924E-002,0.00000E+000,1.87660E-002,9.06933E-001,0.00000E+000,1.14221E-003,-6.85196E-002,1.00000E+000,39
769,1347,-4.28553E+000,4.90859E-001,-4.44207E-003,6.37625E+000,-7.37588E-001,1.25088E-002,6.41878E+000,1.91109E-002,5.02663E-001,0,9.86721E+001,-1.24142E+001,9.94154E-001,5.45728E+001,-4.90723E+001,9.94048E-001,2.41197E-001,-1.02590E-001,-1.84510E-003,2.41207E-001,-1.02600E-001,-3.07494E-001,2.42101E-001,1.27276E+000,-7.23901E-003,0.00000E+000,2.01062E-003,9.05628E-001,0.00000E+000,-3.89118E-003,-8.33372E-002,1.00000E+000,39
769,1357,-4.26049E+000,1.08792E+000,1.64085E-002,6.37624E+000,-7.91990E-001,-3.38108E-002,6.42533E+000,1.86266E-002,5.28890E-001,0,9.88029E+001,-1.31911E+001,9.95565E-001,5.51247E+001,-4.99019E+001,9.95626E-001,2.41794E-001,-1.02640E-001,-2.40949E-003,2.41811E-001,-1.02656E-001,-4.00788E-001,2.42727E-001,1.27353E+000,-7.20957E-003,0.00000E+000,1.00710E-003,9.05589E-001,0.00000E+000,-4.68530E-003,-8.33677E-002,1.00000E+000,39
769,1327,-4.31183E+000,-6.71953E-001,6.43591E-002,6.38050E+000,-6.14315E-001,1.14574E-001,6.41103E+000,2.37307E-002,5.81543E-001,0,9.84178E+001,-1.06981E+001,9.96237E-001,5.41079E+001,-4.71102E+001,9.94635E-001,2.40007E-001,-1.02524E-001,-7.16320E-004,2.40009E-001,-1.02525E-001,-1.19819E-001,2.40856E-001,1.27124E+000,-7.27497E-003,0.00000E+000,4.00221E-003,9.05675E-001,0.00000E+000,-2.31516E-003,-8.32999E-002,1.00000E+000,39
769,1337,-4.30361E+000,-1.06544E-001,8.41665E-003,6.37669E+000,-6.90037E-001,5.88815E-002,6.41418E+000,1.67909E-002,5.14856E-001,0,9.85421E+001,-1.17420E+001,9.95588E-001,5.42093E+001,-4.83046E+001,9.95248E-001,2.40602E-001,-1.02551E-001,-1.28151E-003,2.40607E-001,-1.02556E-001,-2.13968E-001,2.41478E-001,1.27200E+000,-7.26080E-003,0.00000E+000,3.00759E-003,9.05656E-001,0.00000E+000,-3.10224E-003,-8.33146E-002,1.00000E+000,39
1089,1327,2.23448E+001,-2.24594E-001,-9.95733E-002,1.21546E+001,-3.59776E-001,-1.05668E-001,1.21604E+001,2.08224E-002,4.02679E-001,0,1.83713E+002,-7.03058E+000,9.96329E-001,1.46943E+002,-3.64339E+001,9.95186E-001,2.39039E-001,-9.97685E-002,-2.33402E-003,2.39055E-001,-9.97846E-002,-3.94683E-001,2.40139E-001,1.26959E+000,-3.37539E-002,0.00000E+000,1.95748E-002,9.06959E-001,0.00000E+000,1.90704E-003,-6.84949E-002,1.00000E+000,39
1089,1317,2.23509E+001,-8.13166E-001,-4.69746E-002,1.21737E+001,-3.02623E-001,-6.50629E-002,1.21776E+001,1.95082E-002,4.45982E-001,0,1.83840E+002,-6.19817E+000,9.97484E-001,1.47064E+002,-3.56611E+001,9.96945E-001,2.38292E-001,-9.97476E-002,-2.12063E-003,2.38305E-001,-9.97609E-002,-3.59416E-001,2.39355E-001,1.26865E+000,-3.37727E-002,0.00000E+000,1.99770E-002,9.06967E-001,0.00000E+000,2.28740E-003,-6.84874E-002,1.00000E+000,39
1089,1297,2.23674E+001,-1.95788E+000,1.21662E-001,1.22084E+001,-1.61005E-001,4.76451E-002,1.22096E+001,1.70225E-002,4.71126E-001,0,1.83893E+002,-4.14246E+000,9.97782E-001,1.47474E+002,-3.37795E+001,9.97440E-001,2.36798E-001,-9.97111E-002,-1.69048E-003,2.36807E-001,-9.97196E-002,-2.87820E-001,2.37788E-001,1.26675E+000,-3.37992E-002,0.00000E+000,2.07796E-002,9.06978E-001,0.00000E+000,3.04639E-003,-6.84767E-002,1.00000E+000,39
1089,1307,2.23565E+001,-1.39098E+000,1.74925E-002,1.21909E+001,-2.35361E-001,-1.79378E-002,1.21932E+001,1.69450E-002,4.54364E-001,0,1.83907E+002,-5.20951E+000,9.98136E-001,1.47196E+002,-3.47651E+001,9.98035E-001,2.37544E-001,-9.97276E-002,-1.90661E-003,2.37555E-001,-9.97384E-002,-3.23881E-001,2.38570E-001,1.26770E+000,-3.37897E-002,0.00000E+000,2.03790E-002,9.06974E-001,0.00000E+000,2.66759E-003,-6.84806E-002,1.00000E+000,39
769,1317,-4.32076E+000,-1.23211E+000,1.33298E-001,6.37960E+000,-5.38652E-001,1.62710E-001,6.40436E+000,2.68246E-002,5.35241E-001,0,9.82401E+001,-9.54438E+000,9.97672E-001,5.40289E+001,-4.59193E+001,9.97390E-001,2.39414E-001,-1.02503E-001,-1.52752E-004,2.39414E-001,-1.02503E-001,-2.55970E-002,2.40237E-001,1.27048E+000,-7.28444E-003,0.00000E+000,4.99076E-003,9.05687E-001,0.00000E+000,-1.53288E-003,-8.32901E-002,1.00000E+000,39
1099,1327,2.31706E+001,-2.08063E-001,-1.11341E-001,1.23231E+001,-3.48544E-001,-1.07353E-001,1.23285E+001,2.34338E-002,4.22773E-001,0,1.86110E+002,-6.88104E+000,9.92621E-001,1.49809E+002,-3.60378E+001,9.89356E-001,2.40357E-001,-1.00152E-001,-2.45405E-003,2.40375E-001,-1.00170E-001,-4.12901E-001,2.41484E-001,1.27130E+000,-3.27462E-002,0.00000E+000,1.85623E-002,9.06636E-001,0.00000E+000,2.48558E-003,-6.85456E-002,1.00000E+000,39
1099,1337,2.31794E+001,3.89077E-001,-1.19662E-001,1.23119E+001,-4.02542E-001,-1.32637E-001,1.23192E+001,2.30125E-002,4.55498E-001,0,1.86025E+002,-7.72385E+000,9.93889E-001,1.49987E+002,-3.67347E+001,9.92940E-001,2.41279E-001,-1.00178E-001,-2.66481E-003,2.41300E-001,-1.00199E-001,-4.47113E-001,2.42452E-001,1.27247E+000,-3.27103E-002,0.00000E+000,1.81490E-002,9.06623E-001,0.00000E+000,2.10887E-003,-6.85571E-002,1.00000E+000,39
1099,1347,2.31908E+001,9.83589E-001,-1.04806E-001,1.22968E+001,-4.62365E-001,-1.60687E-001,1.23065E+001,1.80942E-002,4.59823E-001,0,1.85886E+002,-8.64732E+000,9.95994E-001,1.50238E+002,-3.75406E+001,9.95250E-001,2.42201E-001,-1.00209E-001,-2.87178E-003,2.42225E-001,-1.00233E-001,-4.80493E-001,2.43422E-001,1.27365E+000,-3.26633E-002,0.00000E+000,1.77348E-002,9.06606E-001,0.00000E+000,1.73130E-003,-6.85722E-002,1.00000E+000,39
759,1347,-5.09907E+000,4.88517E-001,-4.46835E-003,6.20874E+000,-7.33896E-001,1.62103E-002,6.25198E+000,1.70514E-002,5.15450E-001,0,9.61412E+001,-1.23415E+001,9.94063E-001,5.20580E+001,-4.92164E+001,9.93917E-001,2.38866E-001,-1.01985E-001,-1.81717E-003,2.38876E-001,-1.01994E-001,-3.05448E-001,2.39723E-001,1.26979E+000,-7.91850E-003,0.00000E+000,2.52107E-003,9.06114E-001,0.00000E+000,-3.42818E-003,-8.25267E-002,1.00000E+000,39
759,1357,-5.08068E+000,1.07869E+000,1.80375E-002,6.20260E+000,-7.94607E-001,-2.69034E-002,6.25335E+000,1.86329E-002,5.42095E-001,0,9.61692E+001,-1.32245E+001,9.94739E-001,5.25124E+001,-5.01584E+001,9.94281E-001,2.39199E-001,-1.02020E-001,-2.22201E-003,2.39213E-001,-1.02034E-001,-3.73089E-001,2.40072E-001,1.27022E+000,-7.90246E-003,0.00000E+000,1.80955E-003,9.06088E-001,0.00000E+000,-4.06494E-003,-8.25507E-002,1.00000E+000,39
1099,1297,2.31957E+001,-1.94871E+000,9.39032E-002,1.23792E+001,-1.56934E-001,2.78886E-002,1.23802E+001,1.65654E-002,4.71262E-001,0,1.86393E+002,-4.05035E+000,9.96403E-001,1.50354E+002,-3.34790E+001,9.94882E-001,2.37605E-001,-1.00095E-001,-1.80600E-003,2.37614E-001,-1.00105E-001,-3.06403E-001,2.38594E-001,1.26781E+000,-3.28015E-002,0.00000E+000,1.97937E-002,9.06655E-001,0.00000E+000,3.60810E-003,-6.85278E-002,1.00000E+000,39
1099,1307,2.31910E+001,-1.36969E+000,1.62947E-002,1.23679E+001,-2.19800E-001,-1.10238E-002,1.23698E+001,1.90146E-002,4.67937E-001,0,1.86390E+002,-4.99936E+000,9.97275E-001,1.50215E+002,-3.43239E+001,9.96496E-001,2.38522E-001,-1.00112E-001,-2.02418E-003,2.38534E-001,-1.00124E-001,-3.42470E-001,2.39556E-001,1.26897E+000,-3.27897E-002,0.00000E+000,1.93840E-002,9.06651E-001,0.00000E+000,3.23461E-003,-6.85316E-002,1.00000E+000,39
1099,1317,2.31783E+001,-7.92413E-001,-6.80854E-002,1.23447E+001,-2.86603E-001,-7.28160E-002,1.23482E+001,2.46728E-002,4.53644E-001,0,1.86297E+002,-5.95371E+000,9.95208E-001,1.49942E+002,-3.51870E+001,9.93317E-001,2.39439E-001,-1.00131E-001,-2.24005E-003,2.39454E-001,-1.00145E-001,-3.77943E-001,2.40519E-001,1.27013E+000,-3.27709E-002,0.00000E+000,1.89735E-002,9.06644E-001,0.00000E+000,2.86047E-003,-6.85376E-002,1.00000E+000,39
759,1327,-5.13787E+000,-6.85849E-001,6.13724E-002,6.19942E+000,-6.22274E-001,1.11064E-001,6.23157E+000,2.04177E-002,5.42665E-001,0,9.57051E+001,-1.07789E+001,9.95771E-001,5.13901E+001,-4.74496E+001,9.96603E-001,2.38203E-001,-1.01938E-001,-1.00816E-003,2.38206E-001,-1.01941E-001,-1.69819E-001,2.39029E-001,1.26895E+000,-7.93781E-003,0.00000E+000,3.93442E-003,9.06147E-001,0.00000E+000,-2.16334E-003,-8.24979E-002,1.00000E+000,39
759,1337,-5.11830E+000,-9.75586E-002,1.61278E-002,6.20678E+000,-6.75377E-001,6.45721E-002,6.24375E+000,1.67064E-002,5.34860E-001,0,9.59640E+001,-1.15175E+001,9.94566E-001,5.16966E+001,-4.82856E+001,9.94818E-001,2.38535E-001,-1.01958E-001,-1.41286E-003,2.38541E-001,-1.01964E-001,-2.37741E-001,2.39376E-001,1.26937E+000,-7.92981E-003,0.00000E+000,3.22851E-003,9.06133E-001,0.00000E+000,-2.79508E-003,-8.25099E-002,1.00000E+000,39
759,1317,-5.13968E+000,-1.25176E+000,1.42335E-001,6.20464E+000,-5.52748E-001,1.66419E-001,6.23143E+000,2.52906E-002,5.65102E-001,0,9.56010E+001,-9.78056E+000,9.96433E-001,5.14485E+001,-4.63360E+001,9.96844E-001,2.37873E-001,-1.01924E-001,-6.04753E-004,2.37874E-001,-1.01926E-001,-1.01971E-001,2.38684E-001,1.26852E+000,-7.94243E-003,0.00000E+000,4.63579E-003,9.06154E-001,0.00000E+000,-1.53567E-003,-8.24910E-002,1.00000E+000,39
749,1317,-5.94622E+000,-1.25451E+000,1.64896E-001,6.04044E+000,-5.52234E-001,1.77392E-001,6.06823E+000,1.91574E-002,5.72210E-001,0,9.30956E+001,-9.77341E+000,9.96608E-001,4.91018E+001,-4.65308E+001,9.95657E-001,2.36298E-001,-1.01365E-001,-8.73330E-004,2.36300E-001,-1.01367E-001,-1.48188E-001,2.37094E-001,1.26653E+000,-7.94992E-003,0.00000E+000,4.16209E-003,9.06616E-001,0.00000E+000,-1.59630E-003,-8.18389E-002,1.00000E+000,39
749,1327,-5.94382E+000,-6.85188E-001,6.52368E-002,6.03742E+000,-6.17586E-001,1.11455E-001,6.06995E+000,1.62560E-002,5.29730E-001,0,9.32655E+001,-1.06640E+001,9.95068E-001,4.90064E+001,-4.75640E+001,9.95539E-001,2.36396E-001,-1.01373E-001,-1.17343E-003,2.36400E-001,-1.01377E-001,-1.99045E-001,2.37197E-001,1.26665E+000,-7.94885E-003,0.00000E+000,3.64011E-003,9.06612E-001,0.00000E+000,-2.03158E-003,-8.18426E-002,1.00000E+000,39
749,1337,-5.93490E+000,-1.00030E-001,1.77462E-002,6.03446E+000,-6.72786E-001,6.37681E-002,6.07218E+000,1.61664E-002,5.75691E-001,0,9.33688E+001,-1.14684E+001,9.95155E-001,4.91431E+001,-4.84200E+001,9.95432E-001,2.36494E-001,-1.01388E-001,-1.47462E-003,2.36501E-001,-1.01394E-001,-2.50049E-001,2.37300E-001,1.26678E+000,-7.94653E-003,0.00000E+000,3.11538E-003,9.06602E-001,0.00000E+000,-2.46917E-003,-8.18507E-002,1.00000E+000,39
749,1347,-5.92076E+000,4.82507E-001,-6.61929E-003,6.03220E+000,-7.33636E-001,1.53208E-002,6.07667E+000,1.80856E-002,5.21245E-001,0,9.34820E+001,-1.23166E+001,9.95555E-001,4.94175E+001,-4.94172E+001,9.95509E-001,2.36592E-001,-1.01407E-001,-1.77613E-003,2.36602E-001,-1.01416E-001,-3.01069E-001,2.37404E-001,1.26691E+000,-7.94333E-003,0.00000E+000,2.58950E-003,9.06589E-001,0.00000E+000,-2.90771E-003,-8.18618E-002,1.00000E+000,39
1109,1297,2.40312E+001,-1.93048E+000,9.22276E-002,1.25584E+001,-1.41635E-001,4.10895E-002,1.25593E+001,1.73230E-002,4.82436E-001,0,1.88882E+002,-3.88126E+000,9.94858E-001,1.53391E+002,-3.30871E+001,9.92705E-001,2.38661E-001,-1.00784E-001,-1.82518E-003,2.38671E-001,-1.00794E-001,-3.08065E-001,2.39629E-001,1.26919E+000,-3.10759E-002,0.00000E+000,1.84421E-002,9.06049E-001,0.00000E+000,4.45156E-003,-6.83772E-002,1.00000E+000,39
1109,1307,2.40224E+001,-1.35085E+000,5.06004E-003,1.25431E+001,-2.03801E-001,-7.17985E-003,1.25448E+001,1.97159E-002,4.23129E-001,0,1.88858E+002,-4.77655E+000,9.95719E-001,1.53177E+002,-3.39286E+001,9.95281E-001,2.39641E-001,-1.00797E-001,-1.99953E-003,2.39653E-001,-1.00809E-001,-3.36505E-001,2.40657E-001,1.27044E+000,-3.10632E-002,0.00000E+000,1.81269E-002,9.06045E-001,0.00000E+000,3.84246E-003,-6.83834E-002,1.00000E+000,39
1109,1317,2.40124E+001,-7.70803E-001,-6.40568E-002,1.25226E+001,-2.68173E-001,-5.29763E-002,1.25256E+001,2.32947E-002,4.37381E-001,0,1.88742E+002,-5.73986E+000,9.93746E-001,1.52967E+002,-3.47656E+001,9.92319E-001,2.40623E-001,-1.00812E-001,-2.17154E-003,2.40637E-001,-1.00826E-001,-3.64384E-001,2.41687E-001,1.27168E+000,-3.10433E-002,0.00000E+000,1.78110E-002,9.06040E-001,0.00000E+000,3.23180E-003,-6.83932E-002,1.00000E+000,39
749,1357,-5.89612E+000,1.07150E+000,2.11416E-002,6.03282E+000,-7.94732E-001,-2.10328E-002,6.08497E+000,2.16531E-002,5.37159E-001,0,9.35931E+001,-1.32213E+001,9.95462E-001,4.99832E+001,-5.03953E+001,9.95108E-001,2.36691E-001,-1.01432E-001,-2.07895E-003,2.36703E-001,-1.01445E-001,-3.52266E-001,2.37507E-001,1.26703E+000,-7.93865E-003,0.00000E+000,2.06037E-003,9.06569E-001,0.00000E+000,-3.34895E-003,-8.18780E-002,1.00000E+000,39
1109,1327,2.40046E+001,-1.89614E-001,-1.10039E-001,1.24997E+001,-3.34379E-001,-9.53932E-002,1.25045E+001,2.08519E-002,4.25624E-001,0,1.88565E+002,-6.72357E+000,9.92223E-001,1.52828E+002,-3.56484E+001,9.90014E-001,2.41606E-001,-1.00830E-001,-2.34051E-003,2.41622E-001,-1.00846E-001,-3.91586E-001,2.42719E-001,1.27293E+000,-3.10142E-002,0.00000E+000,1.74942E-002,9.06033E-001,0.00000E+000,2.61949E-003,-6.84074E-002,1.00000E+000,39
1109,1337,2.40059E+001,4.06813E-001,-1.30409E-001,1.24803E+001,-3.89707E-001,-1.33984E-001,1.24871E+001,2.18680E-002,4.75427E-001,0,1.88415E+002,-7.56260E+000,9.95420E-001,1.52869E+002,-3.63206E+001,9.94930E-001,2.42592E-001,-1.00851E-001,-2.50642E-003,2.42610E-001,-1.00869E-001,-4.18110E-001,2.43755E-001,1.27419E+000,-3.09750E-002,0.00000E+000,1.71760E-002,9.06023E-001,0.00000E+000,2.00435E-003,-6.84267E-002,1.00000E+000,39
1109,1347,2.40255E+001,1.00022E+000,-9.54783E-002,1.24699E+001,-4.53175E-001,-1.55870E-001,1.24791E+001,2.03007E-002,4.78614E-001,0,1.88316E+002,-8.55223E+000,9.96239E-001,1.53276E+002,-3.71862E+001,9.94743E-001,2.43580E-001,-1.00877E-001,-2.66622E-003,2.43601E-001,-1.00898E-001,-4.43454E-001,2.44794E-001,1.27545E+000,-3.09180E-002,0.00000E+000,1.68564E-002,9.06009E-001,0.00000E+000,1.38665E-003,-6.84546E-002,1.00000E+000,39
739,1337,-6.74800E+000,-1.15046E-001,1.88912E-002,5.86539E+000,-6.82040E-001,6.32412E-002,5.90525E+000,1.88265E-002,5.69551E-001,0,9.08229E+001,-1.15905E+001,9.94738E-001,4.66459E+001,-4.87698E+001,9.94663E-001,2.34368E-001,-1.00470E-001,-1.64270E-003,2.34376E-001,-1.00478E-001,-2.81082E-001,2.35169E-001,1.26409E+000,-8.08346E-003,0.00000E+000,2.89382E-003,9.07444E-001,0.00000E+000,-2.12459E-003,-8.19561E-002,1.00000E+000,39
739,1347,-6.74101E+000,4.71832E-001,-4.43834E-003,5.85643E+000,-7.38228E-001,1.74124E-002,5.90280E+000,1.40347E-002,5.40712E-001,0,9.08226E+001,-1.23814E+001,9.97496E-001,4.68149E+001,-4.96926E+001,9.97502E-001,2.34188E-001,-1.00489E-001,-1.97460E-003,2.34200E-001,-1.00501E-001,-3.38030E-001,2.34983E-001,1.26386E+000,-8.08900E-003,0.00000E+000,2.32484E-003,9.07430E-001,0.00000E+000,-2.63381E-003,-8.19686E-002,1.00000E+000,39
739,1357,-6.71661E+000,1.06530E+000,1.92697E-002,5.85739E+000,-7.94205E-001,-2.10347E-002,5.91102E+000,1.56110E-002,5.20401E-001,0,9.09440E+001,-1.31851E+001,9.96488E-001,4.73702E+001,-5.06130E+001,9.96702E-001,2.34007E-001,-1.00517E-001,-2.30940E-003,2.34023E-001,-1.00533E-001,-3.95518E-001,2.34795E-001,1.26364E+000,-8.09713E-003,0.00000E+000,1.75265E-003,9.07409E-001,0.00000E+000,-3.14591E-003,-8.19870E-002,1.00000E+000,39
739,1327,-6.75989E+000,-6.93199E-001,6.89815E-002,5.86524E+000,-6.19812E-001,1.13345E-001,5.89899E+000,1.74096E-002,5.02232E-001,0,9.06629E+001,-1.06755E+001,9.97318E-001,4.64712E+001,-4.78206E+001,9.97329E-001,2.34547E-001,-1.00454E-001,-1.31197E-003,2.34553E-001,-1.00459E-001,-2.24384E-001,2.35355E-001,1.26431E+000,-8.07938E-003,0.00000E+000,3.46180E-003,9.07454E-001,0.00000E+000,-1.61625E-003,-8.19468E-002,1.00000E+000,39
1119,1297,2.48618E+001,-1.91493E+000,7.95422E-002,1.27325E+001,-1.29208E-001,4.35615E-002,1.27332E+001,1.87200E-002,4.52506E-001,0,1.91333E+002,-3.70947E+000,9.97046E-001,1.56342E+002,-3.27347E+001,9.96400E-001,2.40142E-001,-1.00751E-001,-2.04514E-003,2.40154E-001,-1.00763E-001,-3.43722E-001,2.41187E-001,1.27111E+000,-2.96806E-002,0.00000E+000,1.69892E-002,9.06138E-001,0.00000E+000,4.80870E-003,-6.88597E-002,1.00000E+000,39
1119,1307,2.48548E+001,-1.33707E+000,1.47910E-004,1.27175E+001,-1.94267E-001,-2.57990E-003,1.27190E+001,1.73221E-002,4.09449E-001,0,1.91305E+002,-4.66087E+000,9.96794E-001,1.56167E+002,-3.36103E+001,9.97019E-001,2.40989E-001,-1.00760E-001,-2.15540E-003,2.41002E-001,-1.00773E-001,-3.61344E-001,2.42077E-001,1.27219E+000,-2.96673E-002,0.00000E+000,1.68088E-002,9.06136E-001,0.00000E+000,3.99246E-003,-6.88698E-002,1.00000E+000,39
1119,1317,2.48520E+001,-7.54873E-001,-6.60949E-002,1.27034E+001,-2.56734E-001,-4.86393E-002,1.27061E+001,1.90918E-002,4.15725E-001,0,1.91284E+002,-5.59870E+000,9.95286E-001,1.56074E+002,-3.44214E+001,9.95446E-001,2.41836E-001,-1.00769E-001,-2.26383E-003,2.41851E-001,-1.00784E-001,-3.78571E-001,2.42966E-001,1.27326E+000,-2.96488E-002,0.00000E+000,1.66280E-002,9.06133E-001,0.00000E+000,3.17502E-003,-6.88839E-002,1.00000E+000,39
1119,1327,2.48473E+001,-1.69855E-001,-1.04580E-001,1.26826E+001,-3.19549E-001,-8.66272E-002,1.26869E+001,1.75397E-002,4.03387E-001,0,1.91121E+002,-6.54446E+000,9.95138E-001,1.55994E+002,-3.52594E+001,9.95168E-001,2.42684E-001,-1.00781E-001,-2.36959E-003,2.42700E-001,-1.00797E-001,-3.95264E-001,2.43858E-001,1.27434E+000,-2.96223E-002,0.00000E+000,1.64468E-002,9.06129E-001,0.00000E+000,2.35509E-003,-6.89041E-002,1.00000E+000,39
1119,1337,2.48476E+001,4.17189E-001,-1.26025E-001,1.26616E+001,-3.85192E-001,-1.28862E-001,1.26681E+001,1.57678E-002,4.62059E-001,0,1.90963E+002,-7.53361E+000,9.97264E-001,1.56016E+002,-3.60691E+001,9.96856E-001,2.43535E-001,-1.00795E-001,-2.47271E-003,2.43552E-001,-1.00812E-001,-4.11426E-001,2.44752E-001,1.27542E+000,-2.95873E-002,0.00000E+000,1.62645E-002,9.06123E-001,0.00000E+000,1.53067E-003,-6.89307E-002,1.00000E+000,39
1119,1347,2.48620E+001,1.00871E+000,-9.98472E-002,1.26465E+001,-4.49880E-001,-1.56591E-001,1.26554E+001,2.24479E-002,4.32439E-001,0,1.90820E+002,-8.52029E+000,9.97159E-001,1.56326E+002,-3.69600E+001,9.96119E-001,2.44386E-001,-1.00811E-001,-2.57106E-003,2.44405E-001,-1.00831E-001,-4.26712E-001,2.45648E-001,1.27651E+000,-2.95390E-002,0.00000E+000,1.60818E-002,9.06115E-001,0.00000E+000,7.04345E-004,-6.89675E-002,1.00000E+000,39
739,1317,-6.75481E+000,-1.25876E+000,1.60283E-001,5.87539E+000,-5.51442E-001,1.69420E-001,5.90364E+000,2.08202E-002,5.53210E-001,0,9.06340E+001,-9.71719E+000,9.97015E-001,4.66622E+001,-4.67044E+001,9.96573E-001,2.34725E-001,-1.00445E-001,-9.84203E-004,2.34728E-001,-1.00448E-001,-1.68243E-001,2.35539E-001,1.26454E+000,-8.07761E-003,0.00000E+000,4.02622E-003,9.07459E-001,0.00000E+000,-1.11110E-003,-8.19428E-002,1.00000E+000,39
1129,1297,2.56907E+001,-1.88887E+000,7.97436E-002,1.29032E+001,-1.06829E-001,5.41128E-002,1.29038E+001,1.85722E-002,3.93047E-001,0,1.93690E+002,-3.38952E+000,9.98112E-001,1.59290E+002,-3.22616E+001,9.97456E-001,2.41241E-001,-1.00952E-001,-2.42215E-003,2.41259E-001,-1.00969E-001,-4.05530E-001,2.42324E-001,1.27254E+000,-2.84608E-002,0.00000E+000,1.54347E-002,9.06017E-001,0.00000E+000,4.25566E-003,-6.93363E-002,1.00000E+000,39
1129,1307,2.56821E+001,-1.32551E+000,-1.57914E-002,1.28864E+001,-1.86527E-001,-8.87826E-003,1.28877E+001,2.50906E-002,3.55737E-001,0,1.93711E+002,-4.53554E+000,9.97844E-001,1.59066E+002,-3.33233E+001,9.94750E-001,2.42124E-001,-1.00954E-001,-2.43598E-003,2.42142E-001,-1.00971E-001,-4.06794E-001,2.43251E-001,1.27366E+000,-2.84465E-002,0.00000E+000,1.54341E-002,9.06017E-001,0.00000E+000,3.40105E-003,-6.93472E-002,1.00000E+000,39
1129,1317,2.56870E+001,-7.45198E-001,-7.12551E-002,1.28794E+001,-2.51304E-001,-4.57340E-002,1.28820E+001,1.50270E-002,3.58059E-001,0,1.93760E+002,-5.52868E+000,9.97782E-001,1.59109E+002,-3.41863E+001,9.95828E-001,2.43007E-001,-1.00956E-001,-2.44765E-003,2.43025E-001,-1.00973E-001,-4.07689E-001,2.44179E-001,1.27478E+000,-2.84263E-002,0.00000E+000,1.54335E-002,9.06017E-001,0.00000E+000,2.54486E-003,-6.93626E-002,1.00000E+000,39
729,1347,-7.53971E+000,4.54371E-001,6.49494E-003,5.70064E+000,-7.51027E-001,2.21289E-002,5.74994E+000,1.26664E-002,5.52730E-001,0,8.84609E+001,-1.25714E+001,9.98545E-001,4.45698E+001,-5.00925E+001,9.98222E-001,2.31739E-001,-9.97405E-002,-1.78931E-003,2.31748E-001,-9.97501E-002,-3.09268E-001,2.32495E-001,1.26077E+000,-7.48131E-003,0.00000E+000,2.24364E-003,9.08047E-001,0.00000E+000,-2.58507E-003,-8.11318E-002,1.00000E+000,39
729,1357,-7.52533E+000,1.05601E+000,1.61444E-002,5.69293E+000,-7.97884E-001,-2.42736E-002,5.74862E+000,1.50107E-002,5.34343E-001,0,8.84709E+001,-1.32116E+001,9.97240E-001,4.49398E+001,-5.08585E+001,9.97376E-001,2.31226E-001,-9.97601E-002,-2.05187E-003,2.31239E-001,-9.97729E-002,-3.55173E-001,2.31961E-001,1.26013E+000,-7.50309E-003,0.00000E+000,1.83806E-003,9.08034E-001,0.00000E+000,-3.40299E-003,-8.11595E-002,1.00000E+000,39
1129,1327,2.56868E+001,-1.56934E-001,-1.13303E-001,1.28636E+001,-3.10230E-001,-8.50732E-002,1.28676E+001,1.85601E-002,3.71765E-001,0,1.93677E+002,-6.43462E+000,9.97264E-001,1.59093E+002,-3.49510E+001,9.96750E-001,2.43891E-001,-1.00959E-001,-2.45684E-003,2.43908E-001,-1.00976E-001,-4.08169E-001,2.45108E-001,1.27590E+000,-2.83995E-002,0.00000E+000,1.54329E-002,9.06017E-001,0.00000E+000,1.68713E-003,-6.93831E-002,1.00000E+000,39
729,1337,-7.55994E+000,-1.22120E-001,2.61921E-002,5.69740E+000,-6.83163E-001,7.05759E-002,5.73865E+000,1.70423E-002,5.50571E-001,0,8.82635E+001,-1.15967E+001,9.96189E-001,4.41896E+001,-4.90171E+001,9.95776E-001,2.32249E-001,-9.97247E-002,-1.52965E-003,2.32256E-001,-9.97318E-002,-2.63998E-001,2.33026E-001,1.26142E+000,-7.46455E-003,0.00000E+000,2.64780E-003,9.08058E-001,0.00000E+000,-1.77001E-003,-8.11105E-002,1.00000E+000,39
729,1327,-7.56940E+000,-6.98105E-001,7.59949E-002,5.69868E+000,-6.20718E-001,1.15793E-001,5.73355E+000,1.70159E-002,5.25488E-001,0,8.81405E+001,-1.06726E+001,9.96292E-001,4.40512E+001,-4.80104E+001,9.96107E-001,2.32755E-001,-9.97138E-002,-1.27385E-003,2.32760E-001,-9.97187E-002,-2.19524E-001,2.33554E-001,1.26205E+000,-7.45394E-003,0.00000E+000,3.04969E-003,9.08065E-001,0.00000E+000,-9.59519E-004,-8.10970E-002,1.00000E+000,39
1129,1337,2.57015E+001,4.31946E-001,-1.12387E-001,1.28509E+001,-3.78978E-001,-1.28481E-001,1.28571E+001,2.19489E-002,4.70829E-001,0,1.93640E+002,-7.47090E+000,9.96412E-001,1.59369E+002,-3.57578E+001,9.96341E-001,2.44782E-001,-1.00962E-001,-2.45866E-003,2.44800E-001,-1.00980E-001,-4.07415E-001,2.46046E-001,1.27704E+000,-2.83527E-002,0.00000E+000,1.54323E-002,9.06017E-001,0.00000E+000,8.19288E-004,-6.94188E-002,1.00000E+000,39
729,1317,-7.57021E+000,-1.26790E+000,1.53207E-001,5.70431E+000,-5.55062E-001,1.65368E-001,5.73364E+000,1.85627E-002,5.56958E-001,0,8.80655E+001,-9.74279E+000,9.96415E-001,4.41161E+001,-4.69380E+001,9.95960E-001,2.33260E-001,-9.97062E-002,-1.02027E-003,2.33263E-001,-9.97093E-002,-1.75564E-001,2.34080E-001,1.26269E+000,-7.44754E-003,0.00000E+000,3.45072E-003,9.08069E-001,0.00000E+000,-1.50771E-004,-8.10889E-002,1.00000E+000,39
1129,1347,2.57053E+001,1.02996E+000,-1.02510E-001,1.28279E+001,-4.35869E-001,-1.60909E-001,1.28363E+001,2.53166E-002,4.83611E-001,0,1.93401E+002,-8.34605E+000,9.95691E-001,1.59490E+002,-3.64903E+001,9.94586E-001,2.45669E-001,-1.00966E-001,-2.46088E-003,2.45686E-001,-1.00983E-001,-4.06736E-001,2.46979E-001,1.27817E+000,-2.83069E-002,0.00000E+000,1.54317E-002,9.06017E-001,0.00000E+000,-4.51080E-005,-6.94538E-002,1.00000E+000,39
719,1347,-8.35575E+000,4.57686E-001,9.25593E-003,5.52855E+000,-7.41573E-001,2.63851E-002,5.57813E+000,1.91990E-002,5.43828E-001,0,8.58402E+001,-1.24064E+001,9.96939E-001,4.20482E+001,-5.01678E+001,9.96917E-001,2.29793E-001,-9.92883E-002,-1.63375E-003,2.29802E-001,-9.92964E-002,-2.84439E-001,2.30507E-001,1.25833E+000,-6.51108E-003,0.00000E+000,1.82698E-003,9.08340E-001,0.00000E+000,-2.35192E-003,-7.94939E-002,1.00000E+000,39
719,1357,-8.34523E+000,1.04503E+000,1.81998E-002,5.51733E+000,-8.03015E-001,-1.98861E-002,5.57549E+000,1.70691E-002,5.34866E-001,0,8.57994E+001,-1.32682E+001,9.97009E-001,4.23562E+001,-5.11501E+001,9.97181E-001,2.28985E-001,-9.92993E-002,-1.79428E-003,2.28995E-001,-9.93091E-002,-3.13144E-001,2.29666E-001,1.25732E+000,-6.54481E-003,0.00000E+000,1.63583E-003,9.08333E-001,0.00000E+000,-3.41784E-003,-7.95294E-002,1.00000E+000,39
719,1337,-8.37332E+000,-1.22932E-001,2.81146E-002,5.52702E+000,-6.79048E-001,6.97363E-002,5.56901E+000,2.12942E-002,5.56254E-001,0,8.56862E+001,-1.15058E+001,9.94482E-001,4.17047E+001,-4.91445E+001,9.93438E-001,2.30595E-001,-9.92799E-002,-1.47755E-003,2.30602E-001,-9.92865E-002,-2.56629E-001,2.31342E-001,1.25934E+000,-6.48620E-003,0.00000E+000,2.01708E-003,9.08344E-001,0.00000E+000,-1.29182E-003,-7.94677E-002,1.00000E+000,39
719,1327,-8.37765E+000,-6.98644E-001,7.85740E-002,5.53301E+000,-6.16870E-001,1.13955E-001,5.56845E+000,1.54771E-002,5.59322E-001,0,8.56397E+001,-1.05977E+001,9.94548E-001,4.16462E+001,-4.81182E+001,9.93586E-001,2.31392E-001,-9.92740E-002,-1.32558E-003,2.31397E-001,-9.92793E-002,-2.29684E-001,2.32172E-001,1.26034E+000,-6.47015E-003,0.00000E+000,2.20625E-003,9.08347E-001,0.00000E+000,-2.36915E-004,-7.94509E-002,1.00000E+000,39
719,1317,-8.38091E+000,-1.27086E+000,1.63603E-001,5.53506E+000,-5.54176E-001,1.65574E-001,5.56520E+000,2.01437E-002,5.47218E-001,0,8.55044E+001,-9.70400E+000,9.94199E-001,4.16937E+001,-4.71197E+001,9.93254E-001,2.32185E-001,-9.92704E-002,-1.17692E-003,2.32189E-001,-9.92745E-002,-2.03441E-001,2.33000E-001,1.26134E+000,-6.46184E-003,0.00000E+000,2.39510E-003,9.08349E-001,0.00000E+000,8.16161E-004,-7.94421E-002,1.00000E+000,39
1139,1297,2.65453E+001,-1.88141E+000,8.02610E-002,1.30977E+001,-1.02729E-001,5.91407E-002,1.30983E+001,1.19849E-002,3.50360E-001,0,1.96424E+002,-3.36739E+000,9.98899E-001,1.62643E+002,-3.20671E+001,9.98333E-001,2.42103E-001,-1.01236E-001,-2.71371E-003,2.42124E-001,-1.01257E-001,-4.52823E-001,2.43202E-001,1.27365E+000,-2.71922E-002,0.00000E+000,1.40535E-002,9.05831E-001,0.00000E+000,2.98694E-003,-7.00491E-002,1.00000E+000,39
1139,1307,2.65325E+001,-1.31936E+000,-2.60730E-002,1.30777E+001,-1.83790E-001,-9.90988E-003,1.30790E+001,1.78585E-002,2.97817E-001,0,1.96427E+002,-4.50682E+000,9.98052E-001,1.62339E+002,-3.31323E+001,9.96956E-001,2.43128E-001,-1.01234E-001,-2.67269E-003,2.43149E-001,-1.01255E-001,-4.44653E-001,2.44279E-001,1.27496E+000,-2.71776E-002,0.00000E+000,1.41483E-002,9.05832E-001,0.00000E+000,2.19736E-003,-7.00579E-002,1.00000E+000,39
1139,1337,2.65408E+001,4.56910E-001,-1.12876E-001,1.30290E+001,-3.59943E-001,-1.26962E-001,1.30346E+001,2.16416E-002,4.87321E-001,0,1.96141E+002,-7.22316E+000,9.95218E-001,1.62481E+002,-3.52550E+001,9.94165E-001,2.46218E-001,-1.01226E-001,-2.52241E-003,2.46236E-001,-1.01245E-001,-4.15933E-001,2.47528E-001,1.27890E+000,-2.70640E-002,0.00000E+000,1.44350E-002,9.05840E-001,0.00000E+000,-1.89457E-004,-7.01267E-002,1.00000E+000,39
1139,1347,2.65597E+001,1.04697E+000,-9.16743E-002,1.30168E+001,-4.27950E-001,-1.64544E-001,1.30249E+001,2.21529E-002,5.05554E-001,0,1.96081E+002,-8.25447E+000,9.94860E-001,1.62850E+002,-3.61302E+001,9.93413E-001,2.47251E-001,-1.01223E-001,-2.46312E-003,2.47269E-001,-1.01240E-001,-4.04958E-001,2.48617E-001,1.28022E+000,-2.70022E-002,0.00000E+000,1.45312E-002,9.05845E-001,0.00000E+000,-9.90455E-004,-7.01642E-002,1.00000E+000,39
1139,1327,2.65347E+001,-1.43775E-001,-1.20620E-001,1.30503E+001,-3.04535E-001,-9.12256E-002,1.30542E+001,2.07902E-002,4.20968E-001,0,1.96342E+002,-6.36578E+000,9.96371E-001,1.62331E+002,-3.46006E+001,9.94504E-001,2.45185E-001,-1.01229E-001,-2.57890E-003,2.45204E-001,-1.01249E-001,-4.26510E-001,2.46441E-001,1.27758E+000,-2.71183E-002,0.00000E+000,1.43390E-002,9.05836E-001,0.00000E+000,6.10223E-004,-7.00938E-002,1.00000E+000,39
1139,1317,2.65218E+001,-7.36968E-001,-8.99712E-002,1.30563E+001,-2.46797E-001,-5.07465E-002,1.30587E+001,1.74242E-002,3.64933E-001,0,1.96279E+002,-5.48367E+000,9.98540E-001,1.62126E+002,-3.39124E+001,9.96787E-001,2.44155E-001,-1.01232E-001,-2.62897E-003,2.44175E-001,-1.01252E-001,-4.36082E-001,2.45357E-001,1.27627E+000,-2.71561E-002,0.00000E+000,1.42434E-002,9.05833E-001,0.00000E+000,1.40600E-003,-7.00709E-002,1.00000E+000,39
709,1347,-9.17886E+000,4.58407E-001,3.57123E-003,5.34906E+000,-7.34627E-001,2.25555E-002,5.39932E+000,1.87536E-002,5.49029E-001,0,8.31264E+001,-1.22692E+001,9.95925E-001,3.94020E+001,-5.02587E+001,9.96057E-001,2.27929E-001,-9.78234E-002,-1.83199E-003,2.27939E-001,-9.78337E-002,-3.22210E-001,2.28700E-001,1.25599E+000,-5.68763E-003,0.00000E+000,8.62826E-004,9.09588E-001,0.00000E+000,-2.12689E-003,-7.83051E-002,1.00000E+000,39
709,1357,-9.16203E+000,1.04793E+000,1.26075E-002,5.34492E+000,-7.92336E-001,-2.05855E-002,5.40337E+000,1.81034E-002,5.31863E-001,0,8.31844E+001,-1.30901E+001,9.96878E-001,3.98094E+001,-5.12128E+001,9.97018E-001,2.26984E-001,-9.78422E-002,-2.11103E-003,2.26998E-001,-9.78559E-002,-3.72342E-001,2.27716E-001,1.25481E+000,-5.72560E-003,0.00000E+000,4.64227E-004,9.09576E-001,0.00000E+000,-3.32447E-003,-7.83436E-002,1.00000E+000,39
709,1337,-9.17878E+000,-1.32471E-001,3.29023E-002,5.36355E+000,-6.83690E-001,6.83748E-002,5.40738E+000,1.72647E-002,5.33069E-001,0,8.32154E+001,-1.15440E+001,9.95718E-001,3.93530E+001,-4.94259E+001,9.95080E-001,2.28867E-001,-9.78100E-002,-1.55891E-003,2.28875E-001,-9.78174E-002,-2.73409E-001,2.29678E-001,1.25716E+000,-5.66151E-003,0.00000E+000,1.25959E-003,9.09597E-001,0.00000E+000,-9.34821E-004,-7.82786E-002,1.00000E+000,39
709,1317,-9.18471E+000,-1.27222E+000,1.81986E-001,5.37150E+000,-5.52643E-001,1.69254E-001,5.40250E+000,2.20079E-002,5.48760E-001,0,8.30158E+001,-9.66467E+000,9.96017E-001,3.94043E+001,-4.72875E+001,9.95751E-001,2.30725E-001,-9.77949E-002,-1.02653E-003,2.30729E-001,-9.77981E-002,-1.79030E-001,2.31619E-001,1.25950E+000,-5.63622E-003,0.00000E+000,2.04862E-003,9.09606E-001,0.00000E+000,1.43580E-003,-7.82530E-002,1.00000E+000,39
709,1327,-9.17842E+000,-7.02549E-001,9.32825E-002,5.37204E+000,-6.17489E-001,1.11218E-001,5.40856E+000,2.37333E-002,5.72031E-001,0,8.32095E+001,-1.05925E+001,9.96342E-001,3.93928E+001,-4.83136E+001,9.95387E-001,2.29798E-001,-9.78015E-002,-1.29166E-003,2.29803E-001,-9.78066E-002,-2.25901E-001,2.30649E-001,1.25834E+000,-5.64670E-003,0.00000E+000,1.65437E-003,9.09602E-001,0.00000E+000,2.51291E-004,-7.82636E-002,1.00000E+000,39
1149,1297,2.73829E+001,-1.87615E+000,6.01807E-002,1.32768E+001,-1.02213E-001,5.15190E-002,1.32773E+001,2.91308E-002,3.90616E-001,0,1.98980E+002,-3.37442E+000,9.97142E-001,1.65707E+002,-3.18235E+001,9.94620E-001,2.42759E-001,-1.01406E-001,-2.95799E-003,2.42784E-001,-1.01431E-001,-4.92392E-001,2.43876E-001,1.27451E+000,-2.59975E-002,0.00000E+000,1.28352E-002,9.05754E-001,0.00000E+000,1.48923E-003,-7.09279E-002,1.00000E+000,39
1149,1307,2.73908E+001,-1.29032E+000,-1.51738E-002,1.32761E+001,-1.59485E-001,8.43666E-003,1.32771E+001,1.87909E-002,3.79503E-001,0,1.99153E+002,-4.24283E+000,9.97717E-001,1.65770E+002,-3.25608E+001,9.96454E-001,2.43945E-001,-1.01404E-001,-2.91672E-003,2.43969E-001,-1.01429E-001,-4.83859E-001,2.45121E-001,1.27602E+000,-2.59777E-002,0.00000E+000,1.29190E-002,9.05755E-001,0.00000E+000,7.96744E-004,-7.09370E-002,1.00000E+000,39
1149,1317,2.73827E+001,-7.11175E-001,-8.18333E-002,1.32551E+001,-2.27472E-001,-4.38036E-002,1.32571E+001,1.74064E-002,4.11773E-001,0,1.99056E+002,-5.25147E+000,9.97619E-001,1.65595E+002,-3.34009E+001,9.95848E-001,2.45134E-001,-1.01402E-001,-2.87141E-003,2.45158E-001,-1.01426E-001,-4.74712E-001,2.46371E-001,1.27754E+000,-2.59475E-002,0.00000E+000,1.30032E-002,9.05756E-001,0.00000E+000,1.01042E-004,-7.09508E-002,1.00000E+000,39
1149,1327,2.73763E+001,-1.20179E-001,-1.28023E-001,1.32313E+001,-2.84516E-001,-9.33440E-002,1.32347E+001,1.90797E-002,3.81086E-001,0,1.98895E+002,-6.09260E+000,9.97039E-001,1.65475E+002,-3.41334E+001,9.94859E-001,2.46321E-001,-1.01400E-001,-2.82234E-003,2.46344E-001,-1.01423E-001,-4.65011E-001,2.47621E-001,1.27906E+000,-2.59073E-002,0.00000E+000,1.30874E-002,9.05759E-001,0.00000E+000,-5.94533E-004,-7.09693E-002,1.00000E+000,39
1149,1337,2.73888E+001,4.63049E-001,-1.37019E-001,1.32178E+001,-3.58727E-001,-1.39115E-001,1.32234E+001,2.91990E-002,4.84355E-001,0,1.98865E+002,-7.20384E+000,9.96434E-001,1.65699E+002,-3.50009E+001,9.95616E-001,2.47520E-001,-1.01398E-001,-2.76555E-003,2.47542E-001,-1.01419E-001,-4.54093E-001,2.48883E-001,1.28059E+000,-2.58476E-002,0.00000E+000,1.31725E-002,9.05762E-001,0.00000E+000,-1.29813E-003,-7.09966E-002,1.00000E+000,39
1149,1347,2.74174E+001,1.05803E+000,-8.70741E-002,1.32113E+001,-4.24949E-001,-1.63057E-001,1.32192E+001,2.60828E-002,4.62459E-001,0,1.98827E+002,-8.20902E+000,9.96908E-001,1.66257E+002,-3.58807E+001,9.95784E-001,2.48719E-001,-1.01394E-001,-2.70072E-003,2.48740E-001,-1.01415E-001,-4.41936E-001,2.50148E-001,1.28213E+000,-2.57666E-002,0.00000E+000,1.32579E-002,9.05766E-001,0.00000E+000,-2.00346E-003,-7.10337E-002,1.00000E+000,39
699,1347,-9.97313E+000,4.52216E-001,1.78121E-002,5.19654E+000,-7.37053E-001,3.09121E-002,5.24864E+000,1.96957E-002,5.74624E-001,0,8.07908E+001,-1.22993E+001,9.97036E-001,3.72539E+001,-5.04856E+001,9.97050E-001,2.25913E-001,-9.65713E-002,-1.61391E-003,2.25921E-001,-9.65794E-002,-2.86735E-001,2.26711E-001,1.25346E+000,-4.01337E-003,0.00000E+000,4.61792E-005,9.10643E-001,0.00000E+000,-1.85469E-003,-7.71052E-002,1.00000E+000,39
699,1357,-9.96029E+000,1.03297E+000,2.80202E-002,5.18892E+000,-8.03043E-001,-9.32073E-003,5.25070E+000,1.95819E-002,5.58623E-001,0,8.07885E+001,-1.32559E+001,9.96841E-001,3.76033E+001,-5.15792E+001,9.96733E-001,2.24956E-001,-9.65878E-002,-1.87396E-003,2.24967E-001,-9.65987E-002,-3.33905E-001,2.25714E-001,1.25227E+000,-4.05081E-003,0.00000E+000,-3.28922E-004,9.10631E-001,0.00000E+000,-2.93026E-003,-7.71389E-002,1.00000E+000,39
699,1337,-9.98732E+000,-1.44041E-001,3.88920E-002,5.19684E+000,-6.90335E-001,6.95028E-002,5.24295E+000,1.41478E-002,5.44727E-001,0,8.06841E+001,-1.16342E+001,9.97248E-001,3.69626E+001,-4.97244E+001,9.97185E-001,2.26865E-001,-9.65593E-002,-1.35883E-003,2.26871E-001,-9.65650E-002,-2.40716E-001,2.27706E-001,1.25466E+000,-3.98683E-003,0.00000E+000,4.20390E-004,9.10651E-001,0.00000E+000,-7.81665E-004,-7.70814E-002,1.00000E+000,39
699,1317,-9.99761E+000,-1.27362E+000,2.00228E-001,5.19805E+000,-5.52208E-001,1.70586E-001,5.23008E+000,2.01227E-002,6.06649E-001,0,8.03777E+001,-9.65319E+000,9.97134E-001,3.69814E+001,-4.74289E+001,9.97198E-001,2.28746E-001,-9.65483E-002,-8.65836E-004,2.28748E-001,-9.65506E-002,-1.52503E-001,2.29672E-001,1.25702E+000,-3.96561E-003,0.00000E+000,1.16196E-003,9.10658E-001,0.00000E+000,1.34475E-003,-7.70623E-002,1.00000E+000,39
699,1327,-9.99184E+000,-7.05102E-001,1.02988E-001,5.19978E+000,-6.18209E-001,1.13138E-001,5.23762E+000,1.53808E-002,6.83140E-001,0,8.05885E+001,-1.06036E+001,9.97323E-001,3.69384E+001,-4.84303E+001,9.96293E-001,2.27805E-001,-9.65526E-002,-1.11159E-003,2.27809E-001,-9.65564E-002,-1.96352E-001,2.28688E-001,1.25584E+000,-3.97310E-003,0.00000E+000,7.90405E-004,9.10656E-001,0.00000E+000,2.79326E-004,-7.70690E-002,1.00000E+000,39
1159,1307,2.82209E+001,-1.28355E+000,-4.27713E-002,1.34472E+001,-1.56807E-001,-6.83261E-003,1.34481E+001,2.26275E-002,3.74151E-001,0,2.01617E+002,-4.19148E+000,9.93700E-001,1.68713E+002,-3.22993E+001,9.92060E-001,2.44812E-001,-1.01865E-001,-3.01890E-003,2.44838E-001,-1.01892E-001,-4.98887E-001,2.45983E-001,1.27715E+000,-2.48262E-002,0.00000E+000,1.19979E-002,9.05394E-001,0.00000E+000,-8.04789E-004,-7.15857E-002,1.00000E+000,39
1159,1317,2.82277E+001,-6.91144E-001,-8.87466E-002,1.34408E+001,-2.12370E-001,-3.84854E-002,1.34425E+001,2.36082E-002,4.12514E-001,0,2.01649E+002,-5.05057E+000,9.94440E-001,1.68798E+002,-3.29715E+001,9.94682E-001,2.46114E-001,-1.01870E-001,-3.05249E-003,2.46141E-001,-1.01896E-001,-5.02543E-001,2.47352E-001,1.27881E+000,-2.47928E-002,0.00000E+000,1.19331E-002,9.05392E-001,0.00000E+000,-1.49066E-003,-7.15995E-002,1.00000E+000,39
1159,1327,2.82374E+001,-1.06488E-001,-1.15148E-001,1.34306E+001,-2.78469E-001,-7.75923E-002,1.34337E+001,1.69629E-002,4.16508E-001,0,2.01647E+002,-6.05537E+000,9.97016E-001,1.68955E+002,-3.38250E+001,9.96385E-001,2.47416E-001,-1.01875E-001,-3.07974E-003,2.47443E-001,-1.01902E-001,-5.05131E-001,2.48723E-001,1.28048E+000,-2.47424E-002,0.00000E+000,1.18681E-002,9.05390E-001,0.00000E+000,-2.17787E-003,-7.16202E-002,1.00000E+000,39
1159,1297,2.82211E+001,-1.86245E+000,3.38797E-002,1.34566E+001,-9.26674E-002,4.05659E-002,1.34570E+001,2.15546E-002,4.16927E-001,0,2.01554E+002,-3.23260E+000,9.95351E-001,1.68778E+002,-3.14426E+001,9.91341E-001,2.43516E-001,-1.01862E-001,-2.98197E-003,2.43542E-001,-1.01887E-001,-4.94640E-001,2.44622E-001,1.27549E+000,-2.48500E-002,0.00000E+000,1.20624E-002,9.05395E-001,0.00000E+000,-1.23228E-004,-7.15759E-002,1.00000E+000,39
1159,1337,2.82621E+001,4.76322E-001,-1.05998E-001,1.34257E+001,-3.53588E-001,-1.19110E-001,1.34309E+001,2.27941E-002,4.33292E-001,0,2.01722E+002,-7.17668E+000,9.98541E-001,1.69394E+002,-3.47796E+001,9.98439E-001,2.48726E-001,-1.01882E-001,-3.09824E-003,2.48753E-001,-1.01910E-001,-5.06258E-001,2.50102E-001,1.28216E+000,-2.46678E-002,0.00000E+000,1.18026E-002,9.05388E-001,0.00000E+000,-2.87038E-003,-7.16509E-002,1.00000E+000,39
1159,1347,2.82773E+001,1.07163E+000,-8.57356E-002,1.34083E+001,-4.16640E-001,-1.61925E-001,1.34157E+001,2.31702E-002,4.15207E-001,0,2.01603E+002,-8.11624E+000,9.97387E-001,1.69698E+002,-3.55867E+001,9.96926E-001,2.50033E-001,-1.01890E-001,-3.11391E-003,2.50060E-001,-1.01917E-001,-5.06917E-001,2.51480E-001,1.28384E+000,-2.45855E-002,0.00000E+000,1.17371E-002,9.05384E-001,0.00000E+000,-3.56261E-003,-7.16848E-002,1.00000E+000,39
689,1347,-1.07766E+001,4.38355E-001,1.48108E-002,5.03403E+000,-7.47263E-001,1.95266E-002,5.08923E+000,1.58312E-002,5.87509E-001,0,7.83576E+001,-1.24028E+001,9.98126E-001,3.49249E+001,-5.08007E+001,9.97287E-001,2.23779E-001,-9.54622E-002,-1.59825E-003,2.23787E-001,-9.54702E-002,-2.86837E-001,2.24589E-001,1.25080E+000,-2.67298E-003,0.00000E+000,-8.89294E-004,9.11625E-001,0.00000E+000,-1.85583E-003,-7.67063E-002,1.00000E+000,39
689,1357,-1.07686E+001,1.01724E+000,1.71950E-002,5.02389E+000,-8.12638E-001,-1.67705E-002,5.08921E+000,1.81693E-002,5.46079E-001,0,7.83058E+001,-1.33535E+001,9.97386E-001,3.51808E+001,-5.19212E+001,9.97476E-001,2.22586E-001,-9.54793E-002,-1.90997E-003,2.22597E-001,-9.54908E-002,-3.44044E-001,2.23344E-001,1.24931E+000,-2.71444E-003,0.00000E+000,-1.36671E-003,9.11612E-001,0.00000E+000,-2.80568E-003,-7.67327E-002,1.00000E+000,39
689,1337,-1.07822E+001,-1.33555E-001,4.69871E-002,5.04369E+000,-6.74780E-001,7.45194E-002,5.08917E+000,1.75907E-002,5.61421E-001,0,7.83415E+001,-1.13894E+001,9.98106E-001,3.47975E+001,-4.96839E+001,9.98205E-001,2.24972E-001,-9.54475E-002,-1.28860E-003,2.24978E-001,-9.54527E-002,-2.30416E-001,2.25836E-001,1.25229E+000,-2.63791E-003,0.00000E+000,-4.10941E-004,9.11636E-001,0.00000E+000,-9.04109E-004,-7.66839E-002,1.00000E+000,39
1169,1327,2.90792E+001,-9.69079E-002,-1.26799E-001,1.36107E+001,-2.74523E-001,-8.42260E-002,1.36138E+001,1.62824E-002,4.07607E-001,0,2.04204E+002,-6.00355E+000,9.97854E-001,1.72106E+002,-3.35513E+001,9.97509E-001,2.48154E-001,-1.02230E-001,-3.05288E-003,2.48181E-001,-1.02256E-001,-4.99164E-001,2.49458E-001,1.28146E+000,-2.35318E-002,0.00000E+000,1.11493E-002,9.05106E-001,0.00000E+000,-3.71621E-003,-7.20306E-002,1.00000E+000,39
1169,1337,2.91072E+001,4.98497E-001,-1.04195E-001,1.36071E+001,-3.37369E-001,-1.19720E-001,1.36118E+001,2.03255E-002,4.24154E-001,0,2.04263E+002,-6.96633E+000,9.98397E-001,1.72612E+002,-3.43380E+001,9.97975E-001,2.49438E-001,-1.02241E-001,-3.10062E-003,2.49465E-001,-1.02268E-001,-5.05104E-001,2.50810E-001,1.28311E+000,-2.34535E-002,0.00000E+000,1.10299E-002,9.05100E-001,0.00000E+000,-4.41915E-003,-7.20639E-002,1.00000E+000,39
1169,1347,2.91363E+001,1.08778E+000,-7.36872E-002,1.36015E+001,-4.08107E-001,-1.59777E-001,1.36085E+001,2.00691E-002,4.17900E-001,0,2.04308E+002,-8.03308E+000,9.96999E-001,1.73145E+002,-3.52526E+001,9.96911E-001,2.50721E-001,-1.02253E-001,-3.14567E-003,2.50749E-001,-1.02281E-001,-5.10560E-001,2.52163E-001,1.28476E+000,-2.33675E-002,0.00000E+000,1.09103E-002,9.05094E-001,0.00000E+000,-5.12326E-003,-7.21006E-002,1.00000E+000,39
689,1327,-1.08071E+001,-7.14089E-001,9.27586E-002,5.02844E+000,-6.19240E-001,1.12093E-001,5.06766E+000,1.87818E-002,6.42025E-001,0,7.79900E+001,-1.05941E+001,9.96420E-001,3.44090E+001,-4.86798E+001,9.96127E-001,2.26152E-001,-9.54379E-002,-9.86980E-004,2.26155E-001,-9.54409E-002,-1.75842E-001,2.27070E-001,1.25376E+000,-2.61580E-003,0.00000E+000,6.28522E-005,9.11644E-001,0.00000E+000,3.85382E-005,-7.66698E-002,1.00000E+000,39
1169,1317,2.90726E+001,-6.81259E-001,-9.41153E-002,1.36238E+001,-2.05731E-001,-4.06348E-002,1.36254E+001,2.95171E-002,3.45303E-001,0,2.04226E+002,-4.97527E+000,9.96532E-001,1.72007E+002,-3.27373E+001,9.96622E-001,2.46874E-001,-1.02222E-001,-2.99433E-003,2.46899E-001,-1.02247E-001,-4.91400E-001,2.48110E-001,1.27981E+000,-2.35807E-002,0.00000E+000,1.12682E-002,9.05109E-001,0.00000E+000,-3.01597E-003,-7.20098E-002,1.00000E+000,39
1169,1307,2.90648E+001,-1.27225E+000,-4.81433E-002,1.36306E+001,-1.51316E-001,-3.12376E-003,1.36314E+001,2.28238E-002,3.90344E-001,0,2.04178E+002,-4.13110E+000,9.96498E-001,1.71906E+002,-3.20034E+001,9.95337E-001,2.45604E-001,-1.02215E-001,-2.93188E-003,2.45629E-001,-1.02240E-001,-4.82919E-001,2.46775E-001,1.27818E+000,-2.36172E-002,0.00000E+000,1.13859E-002,9.05112E-001,0.00000E+000,-2.32290E-003,-7.19942E-002,1.00000E+000,39
1169,1297,2.90681E+001,-1.84990E+000,4.06762E-002,1.36423E+001,-8.48674E-002,5.26949E-002,1.36427E+001,1.83673E-002,4.49381E-001,0,2.04110E+002,-3.18276E+000,9.96818E-001,1.72034E+002,-3.11464E+001,9.94132E-001,2.44332E-001,-1.02210E-001,-2.86368E-003,2.44355E-001,-1.02233E-001,-4.73426E-001,2.45438E-001,1.27656E+000,-2.36385E-002,0.00000E+000,1.15037E-002,9.05114E-001,0.00000E+000,-1.62979E-003,-7.19852E-002,1.00000E+000,39
689,1317,-1.08125E+001,-1.28247E+000,1.88884E-001,5.02687E+000,-5.54909E-001,1.67727E-001,5.06019E+000,2.13526E-002,5.97301E-001,0,7.77890E+001,-9.65931E+000,9.95906E-001,3.44556E+001,-4.76562E+001,9.94408E-001,2.27327E-001,-9.54335E-002,-6.91134E-004,2.27329E-001,-9.54350E-002,-1.22688E-001,2.28301E-001,1.25524E+000,-2.60694E-003,0.00000E+000,5.35841E-004,9.11646E-001,0.00000E+000,9.79584E-004,-7.66641E-002,1.00000E+000,39
679,1347,-1.15902E+001,4.33140E-001,1.80745E-002,4.86279E+000,-7.44046E-001,2.43176E-002,4.91945E+000,2.65965E-002,5.79823E-001,0,7.57350E+001,-1.23739E+001,9.96595E-001,3.24637E+001,-5.10083E+001,9.95617E-001,2.21557E-001,-9.44185E-002,-1.61953E-003,2.21566E-001,-9.44268E-002,-2.93659E-001,2.22369E-001,1.24802E+000,-1.16565E-003,0.00000E+000,-2.01219E-003,9.12551E-001,0.00000E+000,-1.97696E-003,-7.63540E-002,1.00000E+000,39
679,1357,-1.15610E+001,1.01350E+000,1.37029E-002,4.87548E+000,-8.09047E-001,-1.05366E-002,4.94216E+000,1.32023E-002,5.80053E-001,0,7.60339E+001,-1.33066E+001,9.97664E-001,3.30289E+001,-5.20693E+001,9.97634E-001,2.20002E-001,-9.44422E-002,-2.10933E-003,2.20017E-001,-9.44564E-002,-3.84323E-001,2.20748E-001,1.24609E+000,-1.21475E-003,0.00000E+000,-2.81773E-003,9.12530E-001,0.00000E+000,-2.88490E-003,-7.63771E-002,1.00000E+000,39
1179,1297,2.99038E+001,-1.84500E+000,1.37444E-002,1.38210E+001,-8.23578E-002,4.92187E-002,1.38213E+001,3.01163E-002,5.06780E-001,0,2.06632E+002,-3.18983E+000,9.97866E-001,1.75076E+002,-3.08860E+001,9.95755E-001,2.44873E-001,-1.02406E-001,-2.94233E-003,2.44898E-001,-1.02431E-001,-4.85394E-001,2.45986E-001,1.27727E+000,-2.28687E-002,0.00000E+000,1.09086E-002,9.04997E-001,0.00000E+000,-3.21449E-003,-7.27870E-002,1.00000E+000,39
1179,1307,2.99128E+001,-1.26552E+000,-5.97834E-002,1.38190E+001,-1.46289E-001,-1.19508E-003,1.38198E+001,1.51685E-002,3.59613E-001,0,2.06819E+002,-4.10492E+000,9.98355E-001,1.75161E+002,-3.17880E+001,9.96675E-001,2.46013E-001,-1.02406E-001,-2.92640E-003,2.46038E-001,-1.02431E-001,-4.81185E-001,2.47184E-001,1.27873E+000,-2.28440E-002,0.00000E+000,1.09409E-002,9.04998E-001,0.00000E+000,-3.81547E-003,-7.27972E-002,1.00000E+000,39
1179,1317,2.99157E+001,-6.74744E-001,-1.41132E-001,1.38118E+001,-1.99993E-001,-5.53982E-002,1.38134E+001,3.24279E-002,3.31265E-001,0,2.06941E+002,-4.88824E+000,9.98394E-001,1.75139E+002,-3.24386E+001,9.97789E-001,2.47154E-001,-1.02407E-001,-2.91134E-003,2.47179E-001,-1.02431E-001,-4.77148E-001,2.48383E-001,1.28019E+000,-2.28214E-002,0.00000E+000,1.09732E-002,9.04998E-001,0.00000E+000,-4.41764E-003,-7.28064E-002,1.00000E+000,39
1179,1337,2.99583E+001,5.03736E-001,-1.23456E-001,1.37946E+001,-3.37448E-001,-1.39006E-001,1.37994E+001,1.66323E-002,4.14882E-001,0,2.06976E+002,-6.96995E+000,9.97944E-001,1.75900E+002,-3.41124E+001,9.96761E-001,2.49463E-001,-1.02407E-001,-2.84771E-003,2.49487E-001,-1.02430E-001,-4.63658E-001,2.50813E-001,1.28316E+000,-2.26880E-002,0.00000E+000,1.10388E-002,9.05001E-001,0.00000E+000,-5.63932E-003,-7.28613E-002,1.00000E+000,39
1179,1347,3.00032E+001,1.10210E+000,-7.72565E-002,1.38020E+001,-4.01959E-001,-1.72715E-001,1.38090E+001,1.65340E-002,4.21049E-001,0,2.07182E+002,-7.94520E+000,9.98078E-001,1.76697E+002,-3.49109E+001,9.97751E-001,2.50621E-001,-1.02407E-001,-2.80974E-003,2.50643E-001,-1.02430E-001,-4.55977E-001,2.52033E-001,1.28465E+000,-2.26048E-002,0.00000E+000,1.10718E-002,9.05003E-001,0.00000E+000,-6.25326E-003,-7.28956E-002,1.00000E+000,39
679,1327,-1.16123E+001,-7.21733E-001,9.96846E-002,4.86478E+000,-6.21132E-001,1.17042E-001,4.90567E+000,2.27645E-002,5.91648E-001,0,7.54875E+001,-1.05982E+001,9.95356E-001,3.20864E+001,-4.89488E+001,9.94486E-001,2.24634E-001,-9.43833E-002,-6.57975E-004,2.24635E-001,-9.43846E-002,-1.18172E-001,2.25587E-001,1.25186E+000,-1.09418E-003,0.00000E+000,-4.12763E-004,9.12581E-001,0.00000E+000,-1.74215E-004,-7.63205E-002,1.00000E+000,39
679,1337,-1.15979E+001,-1.40570E-001,4.38238E-002,4.87050E+000,-6.76034E-001,7.42406E-002,4.91775E+000,2.86223E-002,6.21409E-001,0,7.57063E+001,-1.14122E+001,9.96414E-001,3.22871E+001,-4.98698E+001,9.95548E-001,2.23101E-001,-9.43962E-002,-1.13368E-003,2.23105E-001,-9.44002E-002,-2.04581E-001,2.23982E-001,1.24995E+000,-1.12003E-003,0.00000E+000,-1.21063E-003,9.12570E-001,0.00000E+000,-1.07351E-003,-7.63326E-002,1.00000E+000,39
1179,1327,2.99277E+001,-9.54579E-002,-1.39068E-001,1.37980E+001,-2.75772E-001,-8.80072E-002,1.38010E+001,2.13559E-002,4.03385E-001,0,2.06853E+002,-6.07828E+000,9.98360E-001,1.75364E+002,-3.33997E+001,9.96241E-001,2.48306E-001,-1.02407E-001,-2.88294E-003,2.48330E-001,-1.02430E-001,-4.70941E-001,2.49595E-001,1.28167E+000,-2.27638E-002,0.00000E+000,1.10059E-002,9.04999E-001,0.00000E+000,-5.02658E-003,-7.28302E-002,1.00000E+000,39
679,1317,-1.16178E+001,-1.29054E+000,2.00573E-001,4.86313E+000,-5.57518E-001,1.78101E-001,4.89822E+000,1.84377E-002,6.30340E-001,0,7.52708E+001,-9.72665E+000,9.96263E-001,3.21435E+001,-4.78982E+001,9.95267E-001,2.26159E-001,-9.43770E-002,-1.89248E-004,2.26159E-001,-9.43771E-002,-3.38280E-002,2.27188E-001,1.25378E+000,-1.08252E-003,0.00000E+000,3.82992E-004,9.12585E-001,0.00000E+000,7.22699E-004,-7.63150E-002,1.00000E+000,39
669,1327,-1.24108E+001,-7.40044E-001,1.07847E-001,4.70808E+000,-6.32633E-001,1.27195E-001,4.75210E+000,1.51972E-002,5.71561E-001,0,7.30777E+001,-1.07884E+001,9.98484E-001,2.98723E+001,-4.93686E+001,9.98318E-001,2.22951E-001,-9.35136E-002,-2.66337E-004,2.22951E-001,-9.35138E-002,-4.82202E-002,2.23914E-001,1.24976E+000,1.45423E-003,0.00000E+000,-1.51849E-003,9.13322E-001,0.00000E+000,-4.58757E-004,-7.55801E-002,1.00000E+000,39
669,1337,-1.24008E+001,-1.51181E-001,4.41176E-002,4.70901E+000,-6.81799E-001,7.42047E-002,4.75869E+000,1.62394E-002,5.92347E-001,0,7.32489E+001,-1.14556E+001,9.97218E-001,2.99859E+001,-5.01615E+001,9.97317E-001,2.20984E-001,-9.35277E-002,-8.39547E-004,2.20986E-001,-9.35300E-002,-1.52942E-001,2.21852E-001,1.24730E+000,1.41986E-003,0.00000E+000,-2.49850E-003,9.13308E-001,0.00000E+000,-1.30763E-003,-7.55920E-002,1.00000E+000,39
669,1347,-1.23866E+001,4.24957E-001,1.04744E-002,4.71130E+000,-7.44601E-001,3.47924E-002,4.76990E+000,1.46617E-002,5.71498E-001,0,7.34029E+001,-1.23693E+001,9.96721E-001,3.02433E+001,-5.12361E+001,9.96817E-001,2.19012E-001,-9.35464E-002,-1.41709E-003,2.19019E-001,-9.35529E-002,-2.59763E-001,2.19792E-001,1.24485E+000,1.37457E-003,0.00000E+000,-3.47802E-003,9.13290E-001,0.00000E+000,-2.15607E-003,-7.56077E-002,1.00000E+000,39
669,1357,-1.23609E+001,1.01664E+000,1.79159E-002,4.71761E+000,-7.98326E-001,-5.49030E-003,4.78468E+000,1.54092E-002,5.63776E-001,0,7.36119E+001,-1.31435E+001,9.96495E-001,3.07905E+001,-5.21551E+001,9.96933E-001,2.17026E-001,-9.35778E-002,-2.00910E-003,2.17039E-001,-9.35908E-002,-3.70590E-001,2.17722E-001,1.24239E+000,1.30102E-003,0.00000E+000,-4.46266E-003,9.13261E-001,0.00000E+000,-3.00894E-003,-7.56331E-002,1.00000E+000,39
1189,1337,3.08175E+001,5.13893E-001,-1.38226E-001,1.39892E+001,-3.34859E-001,-1.55485E-001,1.39941E+001,2.17827E-002,4.23974E-001,0,2.09777E+002,-6.91892E+000,9.98115E-001,1.79327E+002,-3.38104E+001,9.97368E-001,2.48884E-001,-1.02727E-001,-2.52466E-003,2.48902E-001,-1.02745E-001,-4.11370E-001,2.50161E-001,1.28243E+000,-2.19217E-002,0.00000E+000,1.11352E-002,9.04694E-001,0.00000E+000,-6.16034E-003,-7.26380E-002,1.00000E+000,39
669,1317,-1.24102E+001,-1.30187E+000,2.15370E-001,4.71125E+000,-5.62498E-001,1.88068E-001,4.74844E+000,1.87320E-002,6.10178E-001,0,7.29350E+001,-9.82655E+000,9.98111E-001,3.00429E+001,-4.82217E+001,9.98405E-001,2.24902E-001,-9.35102E-002,2.94111E-004,2.24903E-001,-9.35105E-002,5.29229E-002,2.25963E-001,1.25220E+000,1.46437E-003,0.00000E+000,-5.43672E-004,9.13326E-001,0.00000E+000,3.85607E-004,-7.55766E-002,1.00000E+000,39
1189,1297,3.07646E+001,-1.83819E+000,2.91215E-002,1.40140E+001,-8.17197E-002,4.80326E-002,1.40143E+001,1.96219E-002,4.69937E-001,0,2.09335E+002,-3.21434E+000,9.97687E-001,1.78568E+002,-3.07311E+001,9.96037E-001,2.45203E-001,-1.02724E-001,-2.56371E-003,2.45222E-001,-1.02743E-001,-4.22156E-001,2.46293E-001,1.27771E+000,-2.20609E-002,0.00000E+000,1.11527E-002,9.04694E-001,0.00000E+000,-5.13255E-003,-7.26078E-002,1.00000E+000,39
1189,1307,3.07564E+001,-1.26221E+000,-7.23378E-002,1.39993E+001,-1.49816E-001,-1.23107E-002,1.40001E+001,1.74790E-002,4.33489E-001,0,2.09386E+002,-4.18026E+000,9.96341E-001,1.78349E+002,-3.15726E+001,9.96379E-001,2.46118E-001,-1.02724E-001,-2.56259E-003,2.46137E-001,-1.02743E-001,-4.20863E-001,2.47254E-001,1.27888E+000,-2.20490E-002,0.00000E+000,1.11484E-002,9.04694E-001,0.00000E+000,-5.38773E-003,-7.26103E-002,1.00000E+000,39
1189,1317,3.07776E+001,-6.59506E-001,-1.17707E-001,1.40009E+001,-1.99844E-001,-6.70446E-002,1.40024E+001,2.12533E-002,4.49920E-001,0,2.09622E+002,-4.88739E+000,9.98100E-001,1.78659E+002,-3.20896E+001,9.98181E-001,2.47041E-001,-1.02725E-001,-2.55272E-003,2.47060E-001,-1.02744E-001,-4.18135E-001,2.48223E-001,1.28006E+000,-2.20140E-002,0.00000E+000,1.11440E-002,9.04694E-001,0.00000E+000,-5.64523E-003,-7.26180E-002,1.00000E+000,39
1189,1327,3.07931E+001,-8.02756E-002,-1.47000E-001,1.39928E+001,-2.73531E-001,-1.21791E-001,1.39960E+001,2.81188E-002,4.43264E-001,0,2.09717E+002,-5.97709E+000,9.98334E-001,1.78899E+002,-3.30204E+001,9.97128E-001,2.47962E-001,-1.02726E-001,-2.54013E-003,2.47981E-001,-1.02745E-001,-4.14981E-001,2.49191E-001,1.28124E+000,-2.19717E-002,0.00000E+000,1.11396E-002,9.04694E-001,0.00000E+000,-5.90246E-003,-7.26272E-002,1.00000E+000,39
659,1327,-1.32034E+001,-7.22993E-001,1.10988E-001,4.55561E+000,-6.11045E-001,1.25600E-001,4.59812E+000,2.40837E-002,5.70650E-001,0,7.07538E+001,-1.04255E+001,9.97995E-001,2.77481E+001,-4.92236E+001,9.96385E-001,2.20938E-001,-9.29363E-002,-1.81900E-004,2.20938E-001,-9.29364E-002,-3.32047E-002,2.21864E-001,1.24724E+000,4.11399E-003,0.00000E+000,-3.27922E-003,9.13807E-001,0.00000E+000,-8.07711E-004,-7.50288E-002,1.00000E+000,39
659,1337,-1.31694E+001,-1.70133E-001,6.76987E-002,4.58060E+000,-6.96150E-001,9.28441E-002,4.63413E+000,3.64933E-002,6.48994E-001,0,7.12496E+001,-1.17298E+001,9.97359E-001,2.82762E+001,-5.05842E+001,9.97409E-001,2.18771E-001,-9.29480E-002,-7.56233E-004,2.18773E-001,-9.29498E-002,-1.38999E-001,2.19594E-001,1.24454E+000,4.07647E-003,0.00000E+000,-4.26699E-003,9.13793E-001,0.00000E+000,-1.61369E-003,-7.50400E-002,1.00000E+000,39
659,1347,-1.31644E+001,4.18585E-001,3.25987E-002,4.57367E+000,-7.46072E-001,5.10281E-002,4.63440E+000,2.20095E-002,6.21654E-001,0,7.12627E+001,-1.24358E+001,9.98006E-001,2.83928E+001,-5.14690E+001,9.98308E-001,2.16600E-001,-9.29645E-002,-1.33524E-003,2.16605E-001,-9.29702E-002,-2.47128E-001,2.17328E-001,1.24185E+000,4.02655E-003,0.00000E+000,-5.25376E-003,9.13775E-001,0.00000E+000,-2.41886E-003,-7.50549E-002,1.00000E+000,39
659,1357,-1.31515E+001,1.01725E+000,3.12396E-002,4.56794E+000,-7.92010E-001,5.14472E-003,4.63610E+000,1.55958E-002,5.90427E-001,0,7.12987E+001,-1.30639E+001,9.97307E-001,2.87238E+001,-5.22775E+001,9.97596E-001,2.14412E-001,-9.29922E-002,-1.92834E-003,2.14424E-001,-9.30043E-002,-3.59396E-001,2.15051E-001,1.23914E+000,3.94887E-003,0.00000E+000,-6.24528E-003,9.13746E-001,0.00000E+000,-3.22789E-003,-7.50781E-002,1.00000E+000,39
1199,1307,3.16065E+001,-1.25321E+000,-7.19046E-002,1.41825E+001,-1.48875E-001,-2.23558E-002,1.41833E+001,2.30268E-002,4.34991E-001,0,2.11981E+002,-4.16196E+000,9.96575E-001,1.81661E+002,-3.13322E+001,9.95698E-001,2.45968E-001,-1.02649E-001,-2.09744E-003,2.45981E-001,-1.02662E-001,-3.44701E-001,2.47098E-001,1.27871E+000,-2.09533E-002,0.00000E+000,1.13078E-002,9.04754E-001,0.00000E+000,-6.47543E-003,-7.25325E-002,1.00000E+000,39
1199,1317,3.16165E+001,-6.64944E-001,-1.24334E-001,1.41753E+001,-2.10448E-001,-7.48415E-002,1.41771E+001,2.04063E-002,4.35532E-001,0,2.12087E+002,-5.06953E+000,9.95415E-001,1.81786E+002,-3.20661E+001,9.93563E-001,2.46744E-001,-1.02650E-001,-2.10050E-003,2.46756E-001,-1.02663E-001,-3.44436E-001,2.47913E-001,1.27970E+000,-2.09273E-002,0.00000E+000,1.12710E-002,9.04753E-001,0.00000E+000,-6.45906E-003,-7.25320E-002,1.00000E+000,39
1199,1327,3.16362E+001,-7.13151E-002,-1.58598E-001,1.41750E+001,-2.67746E-001,-1.19932E-001,1.41780E+001,2.07758E-002,4.16943E-001,0,2.12257E+002,-5.92758E+000,9.96809E-001,1.82085E+002,-3.27658E+001,9.95453E-001,2.47519E-001,-1.02652E-001,-2.10200E-003,2.47532E-001,-1.02665E-001,-3.43918E-001,2.48728E-001,1.28070E+000,-2.08971E-002,0.00000E+000,1.12342E-002,9.04752E-001,0.00000E+000,-6.44267E-003,-7.25315E-002,1.00000E+000,39
659,1317,-1.32170E+001,-1.30207E+000,1.88565E-001,4.54704E+000,-5.57227E-001,1.70529E-001,4.58423E+000,1.77423E-002,5.94684E-001,0,7.04833E+001,-9.66213E+000,9.96530E-001,2.76183E+001,-4.82859E+001,9.94609E-001,2.23088E-001,-9.29310E-002,3.82733E-004,2.23089E-001,-9.29315E-002,6.93911E-002,2.24122E-001,1.24992E+000,4.13517E-003,0.00000E+000,-2.29667E-003,9.13814E-001,0.00000E+000,-5.99635E-006,-7.50225E-002,1.00000E+000,39
1199,1337,3.16720E+001,5.25392E-001,-1.35379E-001,1.41760E+001,-3.31817E-001,-1.64631E-001,1.41808E+001,1.59090E-002,4.37679E-001,0,2.12421E+002,-6.88781E+000,9.98103E-001,1.82706E+002,-3.35253E+001,9.97114E-001,2.48301E-001,-1.02655E-001,-2.09522E-003,2.48314E-001,-1.02667E-001,-3.42041E-001,2.49551E-001,1.28170E+000,-2.08447E-002,0.00000E+000,1.11969E-002,9.04750E-001,0.00000E+000,-6.42613E-003,-7.25307E-002,1.00000E+000,39
1199,1297,3.16116E+001,-1.82147E+000,1.61665E-002,1.41949E+001,-7.24163E-002,2.72361E-002,1.41951E+001,1.70599E-002,4.43137E-001,0,2.11937E+002,-3.03107E+000,9.96602E-001,1.81815E+002,-3.03581E+001,9.94891E-001,2.45195E-001,-1.02648E-001,-2.08877E-003,2.45208E-001,-1.02660E-001,-3.44040E-001,2.46287E-001,1.27772E+000,-2.09644E-002,0.00000E+000,1.13444E-002,9.04754E-001,0.00000E+000,-6.49172E-003,-7.25327E-002,1.00000E+000,39
649,1347,-1.39712E+001,4.25584E-001,2.52406E-002,4.40691E+000,-7.34369E-001,3.93834E-002,4.46785E+000,2.14414E-002,6.36451E-001,0,6.87435E+001,-1.22052E+001,9.96811E-001,2.60275E+001,-5.14543E+001,9.95865E-001,2.13967E-001,-9.21520E-002,-1.16401E-003,2.13972E-001,-9.21564E-002,-2.17862E-001,2.14656E-001,1.23857E+000,7.02933E-003,0.00000E+000,-7.13073E-003,9.14452E-001,0.00000E+000,-2.76965E-003,-7.42887E-002,1.00000E+000,39
649,1357,-1.39509E+001,1.01301E+000,3.67178E-002,4.40921E+000,-7.90489E-001,8.86251E-003,4.47951E+000,1.42642E-002,5.81462E-001,0,6.88630E+001,-1.30230E+001,9.97859E-001,2.65060E+001,-5.24761E+001,9.97427E-001,2.11418E-001,-9.21751E-002,-1.73700E-003,2.11428E-001,-9.21851E-002,-3.27802E-001,2.12004E-001,1.23542E+000,6.94210E-003,0.00000E+000,-8.08496E-003,9.14425E-001,0.00000E+000,-3.58538E-003,-7.43113E-002,1.00000E+000,39
649,1337,-1.39911E+001,-1.57267E-001,6.04916E-002,4.39875E+000,-6.77059E-001,8.03083E-002,4.45128E+000,2.31327E-002,6.12447E-001,0,6.84970E+001,-1.13837E+001,9.97518E-001,2.56854E+001,-5.05055E+001,9.96795E-001,2.16507E-001,-9.21391E-002,-6.04048E-004,2.16508E-001,-9.21403E-002,-1.12133E-001,2.17306E-001,1.24171E+000,7.08610E-003,0.00000E+000,-6.17732E-003,9.14469E-001,0.00000E+000,-1.95462E-003,-7.42739E-002,1.00000E+000,39
649,1327,-1.40138E+001,-7.14459E-001,1.03167E-001,4.38450E+000,-5.98695E-001,1.10342E-001,4.42656E+000,1.77568E-002,5.58780E-001,0,6.81781E+001,-1.01635E+001,9.98553E-001,2.53264E+001,-4.91944E+001,9.98308E-001,2.19026E-001,-9.21312E-002,-5.33063E-005,2.19026E-001,-9.21313E-002,-9.81571E-003,2.19943E-001,1.24484E+000,7.12725E-003,0.00000E+000,-5.22864E-003,9.14481E-001,0.00000E+000,-1.14363E-003,-7.42633E-002,1.00000E+000,39
1209,1307,3.24554E+001,-1.23753E+000,-7.75767E-002,1.43647E+001,-1.39998E-001,-3.58955E-002,1.43654E+001,1.72812E-002,4.43901E-001,0,2.14567E+002,-4.03243E+000,9.97470E-001,1.84950E+002,-3.09716E+001,9.95850E-001,2.45264E-001,-1.02177E-001,-1.55120E-003,2.45271E-001,-1.02183E-001,-2.55798E-001,2.46405E-001,1.27783E+000,-1.96427E-002,0.00000E+000,1.14382E-002,9.05153E-001,0.00000E+000,-6.98683E-003,-7.21447E-002,1.00000E+000,39
1209,1317,3.24649E+001,-6.58304E-001,-1.30964E-001,1.43587E+001,-2.09807E-001,-8.23089E-002,1.43605E+001,1.91374E-002,4.32319E-001,0,2.14674E+002,-5.07425E+000,9.97416E-001,1.85066E+002,-3.18484E+001,9.94530E-001,2.46089E-001,-1.02178E-001,-1.54897E-003,2.46096E-001,-1.02184E-001,-2.54825E-001,2.47273E-001,1.27889E+000,-1.96177E-002,0.00000E+000,1.13983E-002,9.05152E-001,0.00000E+000,-6.76210E-003,-7.21394E-002,1.00000E+000,39
1209,1327,3.24957E+001,-5.64113E-002,-1.55532E-001,1.43648E+001,-2.61117E-001,-1.35360E-001,1.43678E+001,1.92796E-002,3.77527E-001,0,2.14963E+002,-5.81555E+000,9.97758E-001,1.85551E+002,-3.24559E+001,9.96125E-001,2.46917E-001,-1.02179E-001,-1.54120E-003,2.46924E-001,-1.02186E-001,-2.52944E-001,2.48143E-001,1.27994E+000,-1.95780E-002,0.00000E+000,1.13583E-002,9.05150E-001,0.00000E+000,-6.53663E-003,-7.21309E-002,1.00000E+000,39
1209,1337,3.25310E+001,5.36977E-001,-1.25033E-001,1.43647E+001,-3.29991E-001,-1.73795E-001,1.43696E+001,1.80849E-002,4.46597E-001,0,2.15086E+002,-6.87039E+000,9.97454E-001,1.86170E+002,-3.32577E+001,9.95872E-001,2.47752E-001,-1.02181E-001,-1.52707E-003,2.47758E-001,-1.02187E-001,-2.50026E-001,2.49021E-001,1.28101E+000,-1.95215E-002,0.00000E+000,1.13179E-002,9.05148E-001,0.00000E+000,-6.30881E-003,-7.21189E-002,1.00000E+000,39
1209,1297,3.24616E+001,-1.80900E+000,6.12425E-003,1.43800E+001,-6.50278E-002,1.62020E-002,1.43802E+001,1.52550E-002,4.12956E-001,0,2.14559E+002,-2.91810E+000,9.97631E-001,1.85116E+002,-3.00591E+001,9.95400E-001,2.44439E-001,-1.02176E-001,-1.54956E-003,2.44446E-001,-1.02183E-001,-2.56137E-001,2.45539E-001,1.27678E+000,-1.96575E-002,0.00000E+000,1.14779E-002,9.05153E-001,0.00000E+000,-7.21115E-003,-7.21478E-002,1.00000E+000,39
649,1317,-1.40171E+001,-1.29718E+000,1.89642E-001,4.38489E+000,-5.49753E-001,1.56702E-001,4.42200E+000,1.52511E-002,5.82653E-001,0,6.80439E+001,-9.48200E+000,9.97598E-001,2.53784E+001,-4.83283E+001,9.97356E-001,2.21530E-001,-9.21310E-002,4.86500E-004,2.21531E-001,-9.21318E-002,8.88675E-002,2.22574E-001,1.24797E+000,7.14523E-003,0.00000E+000,-4.28257E-003,9.14487E-001,0.00000E+000,-3.34880E-004,-7.42586E-002,1.00000E+000,39
639,1347,-1.47723E+001,4.32813E-001,2.23851E-002,4.24665E+000,-7.20908E-001,3.82907E-002,4.30758E+000,2.19862E-002,6.00366E-001,0,6.62920E+001,-1.19561E+001,9.95730E-001,2.37697E+001,-5.14707E+001,9.95168E-001,2.11559E-001,-9.10747E-002,-1.03411E-003,2.11563E-001,-9.10782E-002,-1.95778E-001,2.12243E-001,1.23557E+000,1.04241E-002,0.00000E+000,-9.38429E-003,9.15357E-001,0.00000E+000,-3.20372E-003,-7.34179E-002,1.00000E+000,39
639,1357,-1.47505E+001,1.02530E+000,3.41038E-002,4.25035E+000,-7.72585E-001,6.95207E-003,4.32001E+000,1.44595E-002,5.75603E-001,0,6.64340E+001,-1.27072E+001,9.97345E-001,2.42736E+001,-5.24020E+001,9.97274E-001,2.08769E-001,-9.10942E-002,-1.58947E-003,2.08777E-001,-9.11027E-002,-3.03694E-001,2.09340E-001,1.23213E+000,1.03289E-002,0.00000E+000,-1.03024E-002,9.15332E-001,0.00000E+000,-4.12347E-003,-7.34434E-002,1.00000E+000,39
639,1317,-1.48058E+001,-1.31131E+000,2.07858E-001,4.23403E+000,-5.62513E-001,1.61719E-001,4.27429E+000,1.97522E-002,6.33359E-001,0,6.57286E+001,-9.67057E+000,9.97462E-001,2.33611E+001,-4.86669E+001,9.96534E-001,2.19813E-001,-9.10677E-002,5.48140E-004,2.19814E-001,-9.10686E-002,1.01023E-001,2.20887E-001,1.24580E+000,1.05350E-002,0.00000E+000,-6.65119E-003,9.15387E-001,0.00000E+000,-4.65744E-004,-7.33882E-002,1.00000E+000,39
639,1327,-1.48002E+001,-7.40172E-001,1.22249E-001,4.23744E+000,-6.19653E-001,1.23981E-001,4.28430E+000,1.44357E-002,5.72332E-001,0,6.58998E+001,-1.05132E+001,9.98057E-001,2.33444E+001,-4.97334E+001,9.97285E-001,2.17087E-001,-9.10627E-002,3.39635E-005,2.17087E-001,-9.10627E-002,6.31500E-003,2.18023E-001,1.24241E+000,1.05230E-002,0.00000E+000,-7.55687E-003,9.15384E-001,0.00000E+000,-1.37304E-003,-7.33914E-002,1.00000E+000,39
639,1337,-1.47915E+001,-1.51032E-001,5.60831E-002,4.23948E+000,-6.66297E-001,8.08822E-002,4.29229E+000,1.87723E-002,6.29837E-001,0,6.60581E+001,-1.11778E+001,9.96849E-001,2.34312E+001,-5.05050E+001,9.96094E-001,2.14328E-001,-9.10644E-002,-4.94087E-004,2.14329E-001,-9.10652E-002,-9.26971E-002,2.15133E-001,1.23899E+000,1.04880E-002,0.00000E+000,-8.47048E-003,9.15374E-001,0.00000E+000,-2.28828E-003,-7.34008E-002,1.00000E+000,39
1219,1317,3.33210E+001,-6.47159E-001,-1.26617E-001,1.45457E+001,-2.08980E-001,-9.25399E-002,1.45475E+001,2.30465E-002,5.08849E-001,0,2.17314E+002,-5.07430E+000,9.97404E-001,1.88484E+002,-3.15441E+001,9.94921E-001,2.45166E-001,-1.02267E-001,-8.40388E-004,2.45168E-001,-1.02269E-001,-1.38589E-001,2.46288E-001,1.27773E+000,-1.78695E-002,0.00000E+000,1.14709E-002,9.05024E-001,0.00000E+000,-6.61896E-003,-7.14633E-002,1.00000E+000,39
1219,1327,3.33484E+001,-4.59620E-002,-1.51200E-001,1.45503E+001,-2.58940E-001,-1.37629E-001,1.45532E+001,1.16857E-002,4.16175E-001,0,2.17551E+002,-5.81183E+000,9.98875E-001,1.88915E+002,-3.21802E+001,9.97955E-001,2.45984E-001,-1.02268E-001,-8.36868E-004,2.45986E-001,-1.02270E-001,-1.37684E-001,2.47147E-001,1.27877E+000,-1.78334E-002,0.00000E+000,1.14148E-002,9.05022E-001,0.00000E+000,-6.20707E-003,-7.14490E-002,1.00000E+000,39
1219,1337,3.33857E+001,5.54053E-001,-1.24144E-001,1.45514E+001,-3.21758E-001,-1.82052E-001,1.45561E+001,1.84477E-002,4.83500E-001,0,2.17713E+002,-6.76214E+000,9.97716E-001,1.89559E+002,-3.28705E+001,9.95700E-001,2.46812E-001,-1.02270E-001,-8.25377E-004,2.46814E-001,-1.02272E-001,-1.35470E-001,2.48018E-001,1.27983E+000,-1.77759E-002,0.00000E+000,1.13580E-002,9.05019E-001,0.00000E+000,-5.78966E-003,-7.14263E-002,1.00000E+000,39
1219,1297,3.33163E+001,-1.79633E+000,3.23847E-003,1.45684E+001,-5.94365E-002,8.18416E-003,1.45685E+001,1.66333E-002,3.86763E-001,0,2.17209E+002,-2.82003E+000,9.97478E-001,1.88506E+002,-2.97698E+001,9.95586E-001,2.43527E-001,-1.02265E-001,-8.36512E-004,2.43529E-001,-1.02267E-001,-1.38604E-001,2.44568E-001,1.27564E+000,-1.79132E-002,0.00000E+000,1.15830E-002,9.05027E-001,0.00000E+000,-7.44304E-003,-7.14805E-002,1.00000E+000,39
1219,1307,3.33160E+001,-1.22283E+000,-6.64016E-002,1.45563E+001,-1.34080E-001,-3.94024E-002,1.45570E+001,2.15509E-002,4.17002E-001,0,2.17243E+002,-3.93820E+000,9.97445E-001,1.88448E+002,-3.06793E+001,9.94926E-001,2.44346E-001,-1.02266E-001,-8.39616E-004,2.44348E-001,-1.02268E-001,-1.38789E-001,2.45427E-001,1.27668E+000,-1.78945E-002,0.00000E+000,1.15270E-002,9.05026E-001,0.00000E+000,-7.03150E-003,-7.14731E-002,1.00000E+000,39
629,1347,-1.55652E+001,4.23848E-001,1.62053E-002,4.09456E+000,-7.23505E-001,3.65406E-002,4.15815E+000,1.97847E-002,5.86190E-001,0,6.39706E+001,-1.19653E+001,9.95012E-001,2.16285E+001,-5.17168E+001,9.94430E-001,2.09548E-001,-9.14177E-002,-1.00115E-003,2.09551E-001,-9.14210E-002,-1.90589E-001,2.10118E-001,1.23305E+000,1.39177E-002,0.00000E+000,-1.19205E-002,9.15002E-001,0.00000E+000,-3.11361E-003,-7.32455E-002,1.00000E+000,39
629,1357,-1.55356E+001,1.01751E+000,3.15383E-002,4.10595E+000,-7.74099E-001,6.98448E-003,4.17829E+000,1.65663E-002,5.79379E-001,0,6.42264E+001,-1.27124E+001,9.95775E-001,2.22642E+001,-5.26298E+001,9.95515E-001,2.06887E-001,-9.14271E-002,-1.32021E-003,2.06893E-001,-9.14329E-002,-2.53560E-001,2.07357E-001,1.22978E+000,1.38269E-002,0.00000E+000,-1.24211E-002,9.14988E-001,0.00000E+000,-3.86167E-003,-7.32663E-002,1.00000E+000,39
629,1327,-1.55902E+001,-7.39383E-001,1.19580E-001,4.08764E+000,-6.13089E-001,1.23624E-001,4.13521E+000,1.58510E-002,5.70853E-001,0,6.36091E+001,-1.03921E+001,9.96566E-001,2.12582E+001,-4.98267E+001,9.96255E-001,2.14821E-001,-9.14152E-002,-4.02617E-004,2.14821E-001,-9.14157E-002,-7.53282E-002,2.15614E-001,1.23956E+000,1.40085E-002,0.00000E+000,-1.09239E-002,9.15016E-001,0.00000E+000,-1.62448E-003,-7.32247E-002,1.00000E+000,39
629,1337,-1.55770E+001,-1.59360E-001,5.37776E-002,4.09426E+000,-6.68547E-001,8.04241E-002,4.14927E+000,1.88590E-002,6.20376E-001,0,6.38403E+001,-1.11930E+001,9.96192E-001,2.14139E+001,-5.07445E+001,9.95665E-001,2.12189E-001,-9.14142E-002,-6.96838E-004,2.12190E-001,-9.14158E-002,-1.31506E-001,2.12866E-001,1.23631E+000,1.39754E-002,0.00000E+000,-1.14221E-002,9.15010E-001,0.00000E+000,-2.36889E-003,-7.32323E-002,1.00000E+000,39
1229,1317,3.41758E+001,-6.24276E-001,-1.53803E-001,1.47340E+001,-1.92478E-001,-1.22619E-001,1.47358E+001,2.70331E-002,4.64082E-001,0,2.20053E+002,-4.76859E+000,9.97090E-001,1.91853E+002,-3.10492E+001,9.94576E-001,2.44423E-001,-1.01619E-001,-1.29081E-004,2.44423E-001,-1.01619E-001,-2.13726E-002,2.45577E-001,1.27681E+000,-1.59719E-002,0.00000E+000,1.14567E-002,9.05503E-001,0.00000E+000,-6.70918E-003,-6.97770E-002,1.00000E+000,39
1229,1327,3.41983E+001,-3.94281E-002,-1.51279E-001,1.47331E+001,-2.62075E-001,-1.41921E-001,1.47361E+001,1.53337E-002,4.86525E-001,0,2.20106E+002,-5.87359E+000,9.97963E-001,1.92234E+002,-3.19405E+001,9.96960E-001,2.45215E-001,-1.01612E-001,-4.37720E-005,2.45215E-001,-1.01612E-001,-7.23112E-003,2.46410E-001,1.27781E+000,-1.59362E-002,0.00000E+000,1.15292E-002,9.05505E-001,0.00000E+000,-5.90592E-003,-6.97486E-002,1.00000E+000,39
1229,1337,3.42393E+001,5.66261E-001,-1.36131E-001,1.47407E+001,-3.14209E-001,-1.87114E-001,1.47453E+001,1.63112E-002,4.26169E-001,0,2.20369E+002,-6.65407E+000,9.97010E-001,1.92921E+002,-3.25778E+001,9.96106E-001,2.46007E-001,-1.01604E-001,4.74499E-005,2.46007E-001,-1.01604E-001,7.82104E-003,2.47245E-001,1.27882E+000,-1.58852E-002,0.00000E+000,1.16018E-002,9.05509E-001,0.00000E+000,-5.10128E-003,-6.97079E-002,1.00000E+000,39
629,1317,-1.56052E+001,-1.30778E+000,2.16732E-001,4.07471E+000,-5.53013E-001,1.71798E-001,4.11565E+000,1.71516E-002,6.35242E-001,0,6.32603E+001,-9.53618E+000,9.97202E-001,2.11661E+001,-4.87401E+001,9.96530E-001,2.17425E-001,-9.14201E-002,-1.19731E-004,2.17425E-001,-9.14202E-002,-2.22120E-002,2.18340E-001,1.24280E+000,1.40188E-002,0.00000E+000,-1.04294E-002,9.15017E-001,0.00000E+000,-8.85686E-004,-7.32224E-002,1.00000E+000,39
1229,1297,3.41714E+001,-1.78116E+000,-1.90160E-003,1.47565E+001,-5.16582E-002,-1.95775E-003,1.47566E+001,1.91354E-002,4.44222E-001,0,2.19860E+002,-2.72048E+000,9.96117E-001,1.91901E+002,-2.93954E+001,9.93190E-001,2.42843E-001,-1.01628E-001,-2.87612E-004,2.42843E-001,-1.01628E-001,-4.78385E-002,2.43916E-001,1.27480E+000,-1.60133E-002,0.00000E+000,1.13124E-002,9.05500E-001,0.00000E+000,-8.30731E-003,-6.98100E-002,1.00000E+000,39
1229,1307,3.41820E+001,-1.19885E+000,-7.08617E-002,1.47567E+001,-1.16414E-001,-4.35659E-002,1.47573E+001,2.92141E-002,4.58007E-001,0,2.20049E+002,-3.70353E+000,9.94931E-001,1.92017E+002,-3.01744E+001,9.93488E-001,2.43632E-001,-1.01624E-001,-2.10249E-004,2.43632E-001,-1.01624E-001,-3.48912E-002,2.44745E-001,1.27580E+000,-1.59973E-002,0.00000E+000,1.13844E-002,9.05501E-001,0.00000E+000,-7.50960E-003,-6.97973E-002,1.00000E+000,39
619,1327,-1.63859E+001,-7.40169E-001,1.23339E-001,3.93162E+000,-6.08343E-001,1.28374E-001,3.98047E+000,1.29612E-002,5.64625E-001,0,6.12041E+001,-1.03070E+001,9.96718E-001,1.91100E+001,-4.99614E+001,9.96997E-001,2.13124E-001,-9.05761E-002,-6.54533E-004,2.13125E-001,-9.05775E-002,-1.23483E-001,2.13923E-001,1.23742E+000,1.77447E-002,0.00000E+000,-1.41520E-002,9.15740E-001,0.00000E+000,-1.86072E-003,-7.32345E-002,1.00000E+000,39
619,1337,-1.63675E+001,-1.59728E-001,5.78226E-002,3.94268E+000,-6.63775E-001,8.08539E-002,3.99898E+000,1.57448E-002,6.22199E-001,0,6.15150E+001,-1.11030E+001,9.94427E-001,1.93451E+001,-5.08707E+001,9.94603E-001,2.10319E-001,-9.05747E-002,-8.34309E-004,2.10321E-001,-9.05770E-002,-1.58867E-001,2.10994E-001,1.23395E+000,1.77060E-002,0.00000E+000,-1.44499E-002,9.15736E-001,0.00000E+000,-2.50922E-003,-7.32418E-002,1.00000E+000,39
619,1347,-1.63485E+001,4.28759E-001,1.92443E-002,3.95153E+000,-7.12256E-001,4.31806E-002,4.01544E+000,1.87301E-002,6.07214E-001,0,6.17597E+001,-1.17975E+001,9.94040E-001,1.96687E+001,-5.17511E+001,9.94011E-001,2.07507E-001,-9.05748E-002,-1.02010E-003,2.07510E-001,-9.05783E-002,-1.96075E-001,2.08067E-001,1.23049E+000,1.76522E-002,0.00000E+000,-1.47476E-002,9.15732E-001,0.00000E+000,-3.15730E-003,-7.32519E-002,1.00000E+000,39
619,1357,-1.63201E+001,1.02133E+000,2.11803E-002,3.96290E+000,-7.62786E-001,5.93311E-003,4.03564E+000,1.71739E-002,5.98065E-001,0,6.20371E+001,-1.25262E+001,9.96219E-001,2.02503E+001,-5.26547E+001,9.96253E-001,2.04675E-001,-9.05788E-002,-1.22114E-003,2.04680E-001,-9.05839E-002,-2.36965E-001,2.05129E-001,1.22702E+000,1.75624E-002,0.00000E+000,-1.50465E-002,9.15724E-001,0.00000E+000,-3.80806E-003,-7.32687E-002,1.00000E+000,39
619,1317,-1.63960E+001,-1.30407E+000,2.25391E-001,3.92362E+000,-5.42333E-001,1.81952E-001,3.96510E+000,2.10122E-002,6.16274E-001,0,6.09168E+001,-9.38921E+000,9.95802E-001,1.91079E+001,-4.88198E+001,9.95231E-001,2.15906E-001,-9.05804E-002,-4.86582E-004,2.15906E-001,-9.05811E-002,-9.09635E-002,2.16836E-001,1.24086E+000,1.77559E-002,0.00000E+000,-1.38557E-002,9.15741E-001,0.00000E+000,-1.21558E-003,-7.32324E-002,1.00000E+000,39
1239,1307,3.50262E+001,-1.18870E+000,-8.09858E-002,1.49357E+001,-1.10977E-001,-5.04551E-002,1.49362E+001,2.93631E-002,4.39490E-001,0,2.22551E+002,-3.63600E+000,9.94489E-001,1.95242E+002,-2.99051E+001,9.92758E-001,2.42869E-001,-1.00744E-001,9.69577E-005,2.42869E-001,-1.00744E-001,1.61673E-002,2.44041E-001,1.27484E+000,-1.48725E-002,0.00000E+000,1.11707E-002,9.06287E-001,0.00000E+000,-7.48136E-003,-6.95688E-002,1.00000E+000,39
1239,1317,3.50374E+001,-5.95401E-001,-1.43262E-001,1.49306E+001,-1.67503E-001,-1.07542E-001,1.49319E+001,2.86393E-002,4.25786E-001,0,2.22713E+002,-4.45707E+000,9.95197E-001,1.95374E+002,-3.05397E+001,9.94613E-001,2.43743E-001,-1.00731E-001,2.84957E-004,2.43744E-001,-1.00731E-001,4.73963E-002,2.44963E-001,1.27595E+000,-1.48449E-002,0.00000E+000,1.14092E-002,9.06293E-001,0.00000E+000,-6.21638E-003,-6.95372E-002,1.00000E+000,39
1239,1327,3.50562E+001,-1.63492E-002,-1.43667E-001,1.49212E+001,-2.47832E-001,-1.47099E-001,1.49240E+001,2.20329E-002,4.93945E-001,0,2.22726E+002,-5.67063E+000,9.96132E-001,1.95692E+002,-3.14912E+001,9.95545E-001,2.44625E-001,-1.00711E-001,4.82336E-004,2.44626E-001,-1.00712E-001,8.00256E-002,2.45894E-001,1.27707E+000,-1.47973E-002,0.00000E+000,1.16503E-002,9.06303E-001,0.00000E+000,-4.93808E-003,-6.94829E-002,1.00000E+000,39
1239,1337,3.50794E+001,5.86236E-001,-1.36265E-001,1.49145E+001,-3.00327E-001,-1.86144E-001,1.49187E+001,1.83978E-002,4.13592E-001,0,2.22758E+002,-6.47386E+000,9.95418E-001,1.96090E+002,-3.21703E+001,9.93481E-001,2.45498E-001,-1.00691E-001,6.79386E-004,2.45499E-001,-1.00693E-001,1.12441E-001,2.46816E-001,1.27818E+000,-1.47468E-002,0.00000E+000,1.18895E-002,9.06314E-001,0.00000E+000,-3.66901E-003,-6.94251E-002,1.00000E+000,39
1239,1297,3.50209E+001,-1.77035E+000,-7.55521E-003,1.49398E+001,-4.59341E-002,-8.40577E-003,1.49398E+001,1.83751E-002,4.50032E-001,0,2.22421E+002,-2.66081E+000,9.96169E-001,1.95214E+002,-2.91144E+001,9.93740E-001,2.41993E-001,-1.00753E-001,-8.62498E-005,2.41993E-001,-1.00753E-001,-1.44181E-002,2.43120E-001,1.27374E+000,-1.48885E-002,0.00000E+000,1.09327E-002,9.06283E-001,0.00000E+000,-8.74337E-003,-6.95871E-002,1.00000E+000,39
609,1347,-1.71324E+001,4.25384E-001,2.23780E-002,3.80654E+000,-7.10527E-001,4.45022E-002,3.87255E+000,2.38525E-002,6.32937E-001,0,5.95319E+001,-1.17621E+001,9.93453E-001,1.77035E+001,-5.19109E+001,9.93460E-001,2.05519E-001,-8.87612E-002,-1.28084E-003,2.05524E-001,-8.87668E-002,-2.49370E-001,2.06159E-001,1.22799E+000,2.11770E-002,0.00000E+000,-1.79228E-002,9.17257E-001,0.00000E+000,-2.92823E-003,-7.20259E-002,1.00000E+000,39
609,1357,-1.71070E+001,1.02674E+000,1.70042E-002,3.81601E+000,-7.51163E-001,5.29918E-003,3.88924E+000,1.89349E-002,6.07078E-001,0,5.97828E+001,-1.23241E+001,9.95943E-001,1.82227E+001,-5.26745E+001,9.95775E-001,2.02590E-001,-8.87629E-002,-1.42723E-003,2.02597E-001,-8.87699E-002,-2.80662E-001,2.03113E-001,1.22441E+000,2.10903E-002,0.00000E+000,-1.81225E-002,9.17252E-001,0.00000E+000,-3.73108E-003,-7.20453E-002,1.00000E+000,39
609,1317,-1.71944E+001,-1.30995E+000,2.23026E-001,3.76392E+000,-5.42648E-001,1.77780E-001,3.80699E+000,2.01477E-002,6.38606E-001,0,5.84781E+001,-9.38851E+000,9.96799E-001,1.69056E+001,-4.90039E+001,9.95561E-001,2.14214E-001,-8.87681E-002,-9.05195E-004,2.14217E-001,-8.87708E-002,-1.71176E-001,2.15261E-001,1.23871E+000,2.12827E-002,0.00000E+000,-1.73261E-002,9.17262E-001,0.00000E+000,-5.29204E-004,-7.20023E-002,1.00000E+000,39
609,1327,-1.71781E+001,-7.48680E-001,1.23170E-001,3.77864E+000,-6.12338E-001,1.29292E-001,3.83011E+000,1.47195E-002,6.17160E-001,0,5.88563E+001,-1.03647E+001,9.97233E-001,1.70071E+001,-5.01767E+001,9.96840E-001,2.11329E-001,-8.87638E-002,-1.01973E-003,2.11333E-001,-8.87673E-002,-1.94691E-001,2.12232E-001,1.23514E+000,2.12739E-002,0.00000E+000,-1.75248E-002,9.17262E-001,0.00000E+000,-1.32782E-003,-7.20042E-002,1.00000E+000,39
609,1337,-1.71558E+001,-1.59388E-001,6.22370E-002,3.79359E+000,-6.57221E-001,8.58837E-002,3.85106E+000,1.89821E-002,5.99922E-001,0,5.92128E+001,-1.09909E+001,9.94478E-001,1.73166E+001,-5.09987E+001,9.94509E-001,2.08434E-001,-8.87619E-002,-1.14657E-003,2.08438E-001,-8.87663E-002,-2.21041E-001,2.09200E-001,1.23157E+000,2.12342E-002,0.00000E+000,-1.77234E-002,9.17260E-001,0.00000E+000,-2.12665E-003,-7.20131E-002,1.00000E+000,39
1249,1297,3.58767E+001,-1.74963E+000,7.86346E-004,1.51272E+001,-3.22929E-002,-6.53253E-003,1.51273E+001,2.05943E-002,4.81881E-001,0,2.24996E+002,-2.49343E+000,9.96704E-001,1.98645E+002,-2.86957E+001,9.94849E-001,2.40726E-001,-9.98037E-002,1.35476E-004,2.40726E-001,-9.98037E-002,2.27945E-002,2.41894E-001,1.27215E+000,-1.31993E-002,0.00000E+000,1.01959E-002,9.07151E-001,0.00000E+000,-9.20929E-003,-6.95592E-002,1.00000E+000,39
1249,1307,3.58729E+001,-1.17595E+000,-8.78297E-002,1.51165E+001,-1.03647E-001,-5.43222E-002,1.51169E+001,2.55561E-002,4.51172E-001,0,2.25061E+002,-3.55148E+000,9.96295E-001,1.98513E+002,-2.95873E+001,9.94507E-001,2.41824E-001,-9.97866E-002,5.40343E-004,2.41825E-001,-9.97874E-002,9.06274E-002,2.43052E-001,1.27353E+000,-1.31844E-002,0.00000E+000,1.08099E-002,9.07157E-001,0.00000E+000,-7.42083E-003,-6.95400E-002,1.00000E+000,39
1249,1317,3.58790E+001,-5.91137E-001,-1.40941E-001,1.51072E+001,-1.67969E-001,-9.84072E-002,1.51085E+001,2.53395E-002,4.17091E-001,0,2.25113E+002,-4.51507E+000,9.93203E-001,1.98576E+002,-3.03831E+001,9.92321E-001,2.42921E-001,-9.97588E-002,9.53138E-004,2.42923E-001,-9.97615E-002,1.59362E-001,2.44212E-001,1.27492E+000,-1.31517E-002,0.00000E+000,1.14258E-002,9.07172E-001,0.00000E+000,-5.62667E-003,-6.94976E-002,1.00000E+000,39
1249,1327,3.58920E+001,8.05763E-003,-1.65006E-001,1.50946E+001,-2.25023E-001,-1.51406E-001,1.50971E+001,2.46964E-002,4.59363E-001,0,2.25131E+002,-5.36164E+000,9.93574E-001,1.98776E+002,-3.09810E+001,9.93030E-001,2.44020E-001,-9.97184E-002,1.37675E-003,2.44026E-001,-9.97239E-002,2.29477E-001,2.45379E-001,1.27631E+000,-1.30975E-002,0.00000E+000,1.20462E-002,9.07196E-001,0.00000E+000,-3.81959E-003,-6.94274E-002,1.00000E+000,39
1249,1337,3.59199E+001,6.10358E-001,-1.44191E-001,1.50896E+001,-2.81785E-001,-1.87210E-001,1.50934E+001,1.93980E-002,4.20260E-001,0,2.25171E+002,-6.22343E+000,9.96757E-001,1.99259E+002,-3.16716E+001,9.96374E-001,2.45116E-001,-9.96689E-002,1.80654E-003,2.45126E-001,-9.96783E-002,3.00196E-001,2.46546E-001,1.27771E+000,-1.30278E-002,0.00000E+000,1.26676E-002,9.07227E-001,0.00000E+000,-2.00964E-003,-6.93371E-002,1.00000E+000,39
1259,1327,3.67383E+001,2.20441E-002,-1.68709E-001,1.52745E+001,-2.15662E-001,-1.51634E-001,1.52768E+001,1.92481E-002,4.21883E-001,0,2.27609E+002,-5.25005E+000,9.97243E-001,2.02050E+002,-3.06725E+001,9.96837E-001,2.43714E-001,-9.91399E-002,2.14318E-003,2.43727E-001,-9.91533E-002,3.58137E-001,2.45134E-001,1.27593E+000,-1.21389E-002,0.00000E+000,1.26731E-002,9.07686E-001,0.00000E+000,-1.92486E-003,-6.89802E-002,1.00000E+000,39
1259,1337,3.67676E+001,6.22671E-001,-1.41337E-001,1.52702E+001,-2.74880E-001,-1.82518E-001,1.52738E+001,1.84417E-002,3.98822E-001,0,2.27638E+002,-6.16411E+000,9.97989E-001,2.02557E+002,-3.13939E+001,9.98087E-001,2.44902E-001,-9.90711E-002,2.72222E-003,2.44924E-001,-9.90926E-002,4.53404E-001,2.46406E-001,1.27745E+000,-1.20615E-002,0.00000E+000,1.35208E-002,9.07729E-001,0.00000E+000,6.16040E-004,-6.88507E-002,1.00000E+000,39
599,1347,-1.79064E+001,4.38382E-001,3.09457E-002,3.67057E+000,-6.92399E-001,4.82743E-002,3.73562E+000,2.40125E-002,6.45407E-001,0,5.74303E+001,-1.14773E+001,9.96170E-001,1.59148E+001,-5.18365E+001,9.96321E-001,2.04473E-001,-8.86254E-002,-1.01402E-003,2.04477E-001,-8.86289E-002,-1.98220E-001,2.05080E-001,1.22666E+000,2.38402E-002,0.00000E+000,-1.94439E-002,9.17259E-001,0.00000E+000,-2.75879E-003,-7.06421E-002,1.00000E+000,39
599,1357,-1.78760E+001,1.02359E+000,2.52007E-002,3.68567E+000,-7.48857E-001,1.14950E-002,3.76099E+000,1.55593E-002,6.17349E-001,0,5.77665E+001,-1.22874E+001,9.96826E-001,1.65067E+001,-5.28496E+001,9.96742E-001,2.01723E-001,-8.86243E-002,-8.35835E-004,2.01725E-001,-8.86267E-002,-1.64938E-001,2.02219E-001,1.22329E+000,2.37622E-002,0.00000E+000,-1.90479E-002,9.17268E-001,0.00000E+000,-3.61999E-003,-7.06621E-002,1.00000E+000,39
1259,1287,3.67270E+001,-2.31224E+000,8.17933E-002,1.53144E+001,4.52880E-002,2.16338E-002,1.53145E+001,2.06187E-002,4.36084E-001,0,2.27430E+002,-1.32273E+000,9.95197E-001,2.02049E+002,-2.75576E+001,9.91742E-001,2.38918E-001,-9.92718E-002,-8.53721E-005,2.38918E-001,-9.92718E-002,-1.44636E-002,2.40053E-001,1.26990E+000,-1.22573E-002,0.00000E+000,9.31220E-003,9.07620E-001,0.00000E+000,-1.19986E-002,-6.91780E-002,1.00000E+000,39
1259,1297,3.67200E+001,-1.73916E+000,-3.01021E-002,1.53060E+001,-2.55100E-002,-2.82513E-002,1.53060E+001,1.90491E-002,4.54031E-001,0,2.27552E+002,-2.36923E+000,9.95978E-001,2.01844E+002,-2.83837E+001,9.92912E-001,2.40126E-001,-9.92586E-002,4.60421E-004,2.40127E-001,-9.92592E-002,7.77292E-002,2.41325E-001,1.27140E+000,-1.22540E-002,0.00000E+000,1.01498E-002,9.07622E-001,0.00000E+000,-9.48808E-003,-6.91724E-002,1.00000E+000,39
1259,1307,3.67192E+001,-1.15914E+000,-1.08021E-001,1.52969E+001,-9.22065E-002,-6.99536E-002,1.52973E+001,1.92172E-002,4.50566E-001,0,2.27612E+002,-3.37099E+000,9.96318E-001,2.01771E+002,-2.91838E+001,9.94952E-001,2.41327E-001,-9.92334E-002,1.01302E-003,2.41330E-001,-9.92365E-002,1.70428E-001,2.42595E-001,1.27290E+000,-1.22348E-002,0.00000E+000,1.09888E-002,9.07633E-001,0.00000E+000,-6.97334E-003,-6.91403E-002,1.00000E+000,39
599,1327,-1.79646E+001,-7.27466E-001,1.32874E-001,3.62957E+000,-5.87045E-001,1.31826E-001,3.67910E+000,1.66750E-002,6.07726E-001,0,5.65531E+001,-9.94782E+000,9.97196E-001,1.50328E+001,-4.99869E+001,9.96425E-001,2.09928E-001,-8.86200E-002,-1.39581E-003,2.09935E-001,-8.86265E-002,-2.67868E-001,2.10781E-001,1.23336E+000,2.39277E-002,0.00000E+000,-2.02330E-002,9.17249E-001,0.00000E+000,-1.04281E-003,-7.06197E-002,1.00000E+000,39
599,1337,-1.79400E+001,-1.49895E-001,5.98084E-002,3.64845E+000,-6.42105E-001,8.49137E-002,3.70549E+000,1.60473E-002,6.13190E-001,0,5.69833E+001,-1.07390E+001,9.96487E-001,1.53408E+001,-5.09533E+001,9.96739E-001,2.07211E-001,-8.86243E-002,-1.19968E-003,2.07216E-001,-8.86292E-002,-2.32342E-001,2.07937E-001,1.23002E+000,2.38984E-002,0.00000E+000,-1.98393E-002,9.17252E-001,0.00000E+000,-1.89890E-003,-7.06272E-002,1.00000E+000,39
1259,1317,3.67254E+001,-5.72004E-001,-1.50531E-001,1.52872E+001,-1.55190E-001,-1.04578E-001,1.52884E+001,2.01207E-002,4.45861E-001,0,2.27616E+002,-4.34040E+000,9.96977E-001,2.01845E+002,-2.99500E+001,9.95725E-001,2.42523E-001,-9.91951E-002,1.57322E-003,2.42530E-001,-9.92024E-002,2.63774E-001,2.43865E-001,1.27441E+000,-1.21982E-002,0.00000E+000,1.18297E-002,9.07653E-001,0.00000E+000,-4.45282E-003,-6.90791E-002,1.00000E+000,39
599,1317,-1.79906E+001,-1.30502E+000,2.27750E-001,3.60497E+000,-5.34614E-001,1.74305E-001,3.64856E+000,2.05063E-002,6.03713E-001,0,5.60427E+001,-9.20524E+000,9.96854E-001,1.47667E+001,-4.90656E+001,9.96778E-001,2.12636E-001,-8.86133E-002,-1.60044E-003,2.12644E-001,-8.86218E-002,-3.04383E-001,2.13624E-001,1.23671E+000,2.39349E-002,0.00000E+000,-2.06265E-002,9.17248E-001,0.00000E+000,-1.87046E-004,-7.06179E-002,1.00000E+000,39
589,1347,-1.86931E+001,4.52254E-001,3.81659E-002,3.52229E+000,-6.72907E-001,5.52230E-002,3.58642E+000,1.66114E-002,6.22608E-001,0,5.51256E+001,-1.11561E+001,9.96928E-001,1.39354E+001,-5.17655E+001,9.96886E-001,2.03536E-001,-8.81676E-002,-2.46603E-004,2.03536E-001,-8.81678E-002,-4.84372E-002,2.04141E-001,1.22543E+000,2.76322E-002,0.00000E+000,-2.08785E-002,9.17560E-001,0.00000E+000,-2.70461E-003,-6.92915E-002,1.00000E+000,39
589,1357,-1.86561E+001,1.03577E+000,3.60844E-002,3.54351E+000,-7.32063E-001,1.87886E-002,3.61839E+000,1.33936E-002,6.25169E-001,0,5.55564E+001,-1.20140E+001,9.97304E-001,1.46384E+001,-5.27985E+001,9.97786E-001,2.00704E-001,-8.81672E-002,-6.83053E-005,2.00704E-001,-8.81672E-002,-1.35479E-002,2.01197E-001,1.22197E+000,2.75502E-002,0.00000E+000,-2.05010E-002,9.17569E-001,0.00000E+000,-3.39041E-003,-6.93078E-002,1.00000E+000,39
589,1337,-1.87204E+001,-1.42978E-001,6.91851E-002,3.50540E+000,-6.30280E-001,8.82872E-002,3.56271E+000,1.16768E-002,6.16297E-001,0,5.47716E+001,-1.05491E+001,9.98279E-001,1.34613E+001,-5.09777E+001,9.98219E-001,2.06351E-001,-8.81650E-002,-4.35348E-004,2.06352E-001,-8.81657E-002,-8.46933E-002,2.07078E-001,1.22888E+000,2.76864E-002,0.00000E+000,-2.12548E-002,9.17554E-001,0.00000E+000,-2.02079E-003,-6.92808E-002,1.00000E+000,39
589,1327,-1.87371E+001,-7.03569E-001,1.39450E-001,3.49459E+000,-5.59050E-001,1.33737E-001,3.54155E+000,2.12123E-002,6.85639E-001,0,5.44680E+001,-9.52820E+000,9.98213E-001,1.32702E+001,-4.97040E+001,9.97135E-001,2.09141E-001,-8.81600E-002,-6.32072E-004,2.09143E-001,-8.81613E-002,-1.21812E-001,2.09999E-001,1.23231E+000,2.77171E-002,0.00000E+000,-2.16291E-002,9.17551E-001,0.00000E+000,-1.34079E-003,-6.92747E-002,1.00000E+000,39
1269,1327,3.75925E+001,3.82245E-002,-1.69007E-001,1.54612E+001,-2.06215E-001,-1.49995E-001,1.54634E+001,1.71386E-002,4.17441E-001,0,2.30172E+002,-5.13016E+000,9.97710E-001,2.05452E+002,-3.03201E+001,9.96889E-001,2.43555E-001,-9.82984E-002,2.82083E-003,2.43578E-001,-9.83216E-002,4.72738E-001,2.45081E-001,1.27574E+000,-1.09415E-002,0.00000E+000,1.30396E-002,9.08285E-001,0.00000E+000,-1.16428E-003,-6.63019E-002,1.00000E+000,39
1269,1337,3.76321E+001,6.28441E-001,-1.43907E-001,1.54663E+001,-2.75898E-001,-1.86466E-001,1.54698E+001,1.58575E-002,4.01827E-001,0,2.30367E+002,-6.20735E+000,9.97559E-001,2.06118E+002,-3.11921E+001,9.96455E-001,2.44883E-001,-9.82119E-002,3.53020E-003,2.44919E-001,-9.82482E-002,5.89450E-001,2.46510E-001,1.27744E+000,-1.08519E-002,0.00000E+000,1.41213E-002,9.08342E-001,0.00000E+000,1.47056E-003,-6.61634E-002,1.00000E+000,39
589,1317,-1.87697E+001,-1.28192E+000,2.43630E-001,3.46302E+000,-5.07405E-001,1.83790E-001,3.50481E+000,1.70101E-002,5.94526E-001,0,5.38294E+001,-8.77672E+000,9.95737E-001,1.29308E+001,-4.88567E+001,9.94814E-001,2.11927E-001,-8.81523E-002,-8.38789E-004,2.11929E-001,-8.81546E-002,-1.60153E-001,2.12925E-001,1.23575E+000,2.77228E-002,0.00000E+000,-2.20038E-002,9.17550E-001,0.00000E+000,-6.59862E-004,-6.92736E-002,1.00000E+000,39
1269,1317,3.75840E+001,-5.54326E-001,-1.55133E-001,1.54764E+001,-1.44151E-001,-1.15533E-001,1.54775E+001,1.74702E-002,4.03577E-001,0,2.30265E+002,-4.16610E+000,9.97395E-001,2.05315E+002,-2.95848E+001,9.96310E-001,2.42222E-001,-9.83615E-002,2.12408E-003,2.42235E-001,-9.83748E-002,3.57312E-001,2.43655E-001,1.27404E+000,-1.10027E-002,0.00000E+000,1.19620E-002,9.08246E-001,0.00000E+000,-3.78897E-003,-6.63965E-002,1.00000E+000,39
1269,1307,3.75757E+001,-1.14283E+000,-1.04687E-001,1.54840E+001,-8.27554E-002,-7.29496E-002,1.54844E+001,1.83451E-002,4.37793E-001,0,2.30195E+002,-3.24399E+000,9.96030E-001,2.05216E+002,-2.88441E+001,9.95156E-001,2.40886E-001,-9.84082E-002,1.43719E-003,2.40892E-001,-9.84143E-002,2.42689E-001,2.42231E-001,1.27235E+000,-1.10440E-002,0.00000E+000,1.08891E-002,9.08220E-001,0.00000E+000,-6.40242E-003,-6.64604E-002,1.00000E+000,39
1269,1297,3.75652E+001,-1.72898E+000,-4.42704E-002,1.54844E+001,-2.09385E-002,-3.94405E-002,1.54844E+001,1.86410E-002,4.38719E-001,0,2.30049E+002,-2.29147E+000,9.95591E-001,2.05093E+002,-2.81060E+001,9.94658E-001,2.39541E-001,-9.84436E-002,7.55554E-004,2.39543E-001,-9.84453E-002,1.28082E-001,2.40805E-001,1.27066E+000,-1.10721E-002,0.00000E+000,9.81724E-003,9.08202E-001,0.00000E+000,-9.01326E-003,-6.65039E-002,1.00000E+000,39
1269,1287,3.75786E+001,-2.30547E+000,8.33263E-002,1.54970E+001,4.51977E-002,1.78267E-002,1.54970E+001,2.34752E-002,4.04773E-001,0,2.29953E+002,-1.31845E+000,9.96191E-001,2.05413E+002,-2.73756E+001,9.94604E-001,2.38192E-001,-9.84542E-002,8.77491E-005,2.38192E-001,-9.84542E-002,1.49345E-002,2.39382E-001,1.26898E+000,-1.10701E-002,0.00000E+000,8.74937E-003,9.08203E-001,0.00000E+000,-1.16144E-002,-6.65008E-002,1.00000E+000,39
579,1347,-1.94702E+001,4.59320E-001,4.50146E-002,3.38253E+000,-6.61089E-001,5.75665E-002,3.44700E+000,1.41806E-002,6.30321E-001,0,5.29649E+001,-1.09576E+001,9.97002E-001,1.21059E+001,-5.17818E+001,9.97417E-001,2.01888E-001,-8.73845E-002,6.54135E-004,2.01889E-001,-8.73860E-002,1.29563E-001,2.02495E-001,1.22332E+000,3.16058E-002,0.00000E+000,-2.21896E-002,9.18206E-001,0.00000E+000,-3.29132E-003,-6.86295E-002,1.00000E+000,39
579,1357,-1.94253E+001,1.05568E+000,4.89975E-002,3.41151E+000,-7.07733E-001,2.53294E-002,3.48424E+000,1.44252E-002,6.48244E-001,0,5.35020E+001,-1.16336E+001,9.98110E-001,1.29517E+001,-5.26244E+001,9.98494E-001,1.98814E-001,-8.73852E-002,9.13872E-004,1.98817E-001,-8.73882E-002,1.82951E-001,1.99300E-001,1.21957E+000,3.15165E-002,0.00000E+000,-2.16622E-002,9.18219E-001,0.00000E+000,-4.10626E-003,-6.86489E-002,1.00000E+000,39
579,1337,-1.95065E+001,-1.31228E-001,8.23796E-002,3.35650E+000,-6.14016E-001,9.69457E-002,3.41358E+000,1.44251E-002,6.39221E-001,0,5.24505E+001,-1.03016E+001,9.96381E-001,1.15131E+001,-5.09273E+001,9.96993E-001,2.04940E-001,-8.73794E-002,3.82941E-004,2.04941E-001,-8.73799E-002,7.50578E-002,2.05680E-001,1.22705E+000,3.16635E-002,0.00000E+000,-2.27153E-002,9.18198E-001,0.00000E+000,-2.47916E-003,-6.86170E-002,1.00000E+000,39
579,1327,-1.95362E+001,-6.95567E-001,1.41154E-001,3.33320E+000,-5.46744E-001,1.34613E-001,3.38042E+000,1.45340E-002,6.74701E-001,0,5.19750E+001,-9.29825E+000,9.98001E-001,1.10896E+001,-4.97031E+001,9.97274E-001,2.07964E-001,-8.73712E-002,1.05182E-004,2.07964E-001,-8.73712E-002,2.04056E-002,2.08847E-001,1.23077E+000,3.16995E-002,0.00000E+000,-2.32378E-002,9.18193E-001,0.00000E+000,-1.67191E-003,-6.86091E-002,1.00000E+000,39
579,1317,-1.95572E+001,-1.26556E+000,2.40522E-001,3.31348E+000,-4.88275E-001,1.81474E-001,3.35418E+000,2.10699E-002,6.50404E-001,0,5.15296E+001,-8.44444E+000,9.95612E-001,1.09167E+001,-4.86804E+001,9.94471E-001,2.10976E-001,-8.73590E-002,-1.83585E-004,2.10976E-001,-8.73591E-002,-3.52579E-002,2.12012E-001,1.23448E+000,3.17068E-002,0.00000E+000,-2.37601E-002,9.18192E-001,0.00000E+000,-8.64926E-004,-6.86076E-002,1.00000E+000,39
1279,1317,3.84299E+001,-5.47347E-001,-1.56538E-001,1.56557E+001,-1.41452E-001,-1.10809E-001,1.56567E+001,1.47083E-002,3.93217E-001,0,2.32705E+002,-4.17554E+000,9.97010E-001,2.08592E+002,-2.93790E+001,9.95514E-001,2.41708E-001,-9.71595E-002,2.59502E-003,2.41728E-001,-9.71794E-002,4.38732E-001,2.43270E-001,1.27340E+000,-9.57958E-003,0.00000E+000,1.17881E-002,9.09182E-001,0.00000E+000,-3.04812E-003,-6.36692E-002,1.00000E+000,39
1279,1327,3.84580E+001,5.25698E-002,-1.64253E-001,1.56586E+001,-1.98633E-001,-1.44548E-001,1.56605E+001,2.55321E-002,4.33883E-001,0,2.32869E+002,-5.06135E+000,9.95380E-001,2.09043E+002,-2.99960E+001,9.95416E-001,2.43251E-001,-9.70816E-002,3.42486E-003,2.43285E-001,-9.71160E-002,5.76505E-001,2.44928E-001,1.27537E+000,-9.50394E-003,0.00000E+000,1.30950E-002,9.09232E-001,0.00000E+000,-1.71952E-004,-6.35586E-002,1.00000E+000,39
1279,1337,3.84925E+001,6.40923E-001,-1.42673E-001,1.56582E+001,-2.71734E-001,-1.84052E-001,1.56617E+001,1.99449E-002,4.16246E-001,0,2.33000E+002,-6.16217E+000,9.96782E-001,2.09621E+002,-3.08894E+001,9.96451E-001,2.44787E-001,-9.69796E-002,4.26684E-003,2.44840E-001,-9.70328E-002,7.15170E-001,2.46588E-001,1.27734E+000,-9.40003E-003,0.00000E+000,1.44059E-002,9.09301E-001,0.00000E+000,2.71295E-003,-6.34067E-002,1.00000E+000,39
1279,1307,3.84111E+001,-1.13532E+000,-1.17507E-001,1.56542E+001,-7.95051E-002,-7.51267E-002,1.56546E+001,1.61581E-002,4.43109E-001,0,2.32534E+002,-3.22286E+000,9.96891E-001,2.08319E+002,-2.86002E+001,9.94984E-001,2.40166E-001,-9.72168E-002,1.77991E-003,2.40175E-001,-9.72262E-002,3.02260E-001,2.41622E-001,1.27145E+000,-9.63121E-003,0.00000E+000,1.04916E-002,9.09148E-001,0.00000E+000,-5.90147E-003,-6.37446E-002,1.00000E+000,39
1279,1297,3.84060E+001,-1.70832E+000,-4.23682E-002,1.56566E+001,-5.04081E-003,-3.97608E-002,1.56566E+001,3.02020E-002,3.93918E-001,0,2.32395E+002,-2.07324E+000,9.95135E-001,2.08296E+002,-2.77150E+001,9.94090E-001,2.38612E-001,-9.72492E-002,9.75404E-004,2.38615E-001,-9.72520E-002,1.66396E-001,2.39970E-001,1.26949E+000,-9.65366E-003,0.00000E+000,9.19503E-003,9.09133E-001,0.00000E+000,-8.75485E-003,-6.37774E-002,1.00000E+000,39
1279,1287,3.84187E+001,-2.31064E+000,6.73667E-002,1.56724E+001,3.70314E-002,1.42181E-002,1.56724E+001,2.73780E-002,3.08213E-001,0,2.32378E+002,-1.42624E+000,9.95791E-001,2.08585E+002,-2.73763E+001,9.93509E-001,2.37051E-001,-9.72699E-002,1.77938E-004,2.37051E-001,-9.72700E-002,3.04950E-002,2.38318E-001,1.26755E+000,-9.66312E-003,0.00000E+000,7.90246E-003,9.09126E-001,0.00000E+000,-1.15995E-002,-6.37913E-002,1.00000E+000,39
569,1347,-2.02469E+001,4.78978E-001,5.54325E-002,3.24304E+000,-6.36774E-001,6.51551E-002,3.30560E+000,1.52230E-002,6.50174E-001,0,5.07889E+001,-1.05760E+001,9.96487E-001,1.03020E+001,-5.16068E+001,9.96467E-001,2.00807E-001,-8.64703E-002,1.39868E-003,2.00814E-001,-8.64771E-002,2.78950E-001,2.01457E-001,1.22189E+000,3.57554E-002,0.00000E+000,-2.39421E-002,9.18977E-001,0.00000E+000,-3.57821E-003,-6.82051E-002,1.00000E+000,39
569,1357,-2.02055E+001,1.06460E+000,4.67599E-002,3.26996E+000,-6.91813E-001,2.79248E-002,3.34245E+000,1.41484E-002,6.38881E-001,0,5.13099E+001,-1.13727E+001,9.97481E-001,1.10561E+001,-5.26038E+001,9.97417E-001,1.97535E-001,-8.64756E-002,1.82398E-003,1.97546E-001,-8.64873E-002,3.67947E-001,1.98055E-001,1.21790E+000,3.56692E-002,0.00000E+000,-2.31041E-002,9.18995E-001,0.00000E+000,-4.71977E-003,-6.82298E-002,1.00000E+000,39
569,1327,-2.03138E+001,-6.94423E-001,1.43226E-001,3.19365E+000,-5.40235E-001,1.40062E-001,3.24205E+000,2.23835E-002,6.97454E-001,0,4.98100E+001,-9.19674E+000,9.98192E-001,9.24246E+000,-4.97887E+001,9.97692E-001,2.07290E-001,-8.64448E-002,5.25495E-004,2.07291E-001,-8.64458E-002,1.02502E-001,2.08241E-001,1.22982E+000,3.58599E-002,0.00000E+000,-2.56119E-002,9.18955E-001,0.00000E+000,-1.30352E-003,-6.81751E-002,1.00000E+000,39
569,1337,-2.02828E+001,-1.09623E-001,8.79871E-002,3.21662E+000,-5.88749E-001,9.59751E-002,3.27146E+000,1.43299E-002,6.50462E-001,0,5.02907E+001,-9.87770E+000,9.96874E-001,9.70025E+000,-5.07141E+001,9.96902E-001,2.04061E-001,-8.64586E-002,9.62836E-004,2.04064E-001,-8.64618E-002,1.89886E-001,2.04855E-001,1.22586E+000,3.58123E-002,0.00000E+000,-2.47786E-002,9.18965E-001,0.00000E+000,-2.43870E-003,-6.81888E-002,1.00000E+000,39
1289,1327,3.92992E+001,5.72924E-002,-1.71813E-001,1.58339E+001,-1.98403E-001,-1.40594E-001,1.58358E+001,2.30976E-002,4.13247E-001,0,2.35253E+002,-5.09088E+000,9.94399E-001,2.12243E+002,-2.98162E+001,9.93665E-001,2.42979E-001,-9.54710E-002,4.04063E-003,2.43028E-001,-9.55192E-002,6.83902E-001,2.44874E-001,1.27504E+000,-7.55383E-003,0.00000E+000,1.28301E-002,9.10536E-001,0.00000E+000,5.67314E-004,-6.05343E-002,1.00000E+000,39
1289,1337,3.93374E+001,6.57218E-001,-1.47300E-001,1.58374E+001,-2.60375E-001,-1.76482E-001,1.58405E+001,2.16639E-002,4.26425E-001,0,2.35420E+002,-6.04215E+000,9.96487E-001,2.12881E+002,-3.05186E+001,9.95756E-001,2.44835E-001,-9.53584E-002,4.98845E-003,2.44908E-001,-9.54315E-002,8.39921E-001,2.46887E-001,1.27742E+000,-7.42819E-003,0.00000E+000,1.43202E-002,9.10615E-001,0.00000E+000,3.67823E-003,-6.03705E-002,1.00000E+000,39
569,1317,-2.03447E+001,-1.25432E+000,2.40298E-001,3.16245E+000,-4.72007E-001,1.75375E-001,3.20229E+000,2.39423E-002,6.48336E-001,0,4.92130E+001,-8.16909E+000,9.96142E-001,8.91481E+000,-4.86179E+001,9.94597E-001,2.10505E-001,-8.64206E-002,6.95056E-005,2.10505E-001,-8.64206E-002,1.34120E-002,2.11625E-001,1.23378E+000,3.58584E-002,0.00000E+000,-2.64448E-002,9.18955E-001,0.00000E+000,-1.68999E-004,-6.81755E-002,1.00000E+000,39
1289,1317,3.92732E+001,-5.42242E-001,-1.52880E-001,1.58309E+001,-1.44434E-001,-1.04539E-001,1.58319E+001,2.23053E-002,4.59570E-001,0,2.35073E+002,-4.26159E+000,9.97198E-001,2.11838E+002,-2.91758E+001,9.94472E-001,2.41125E-001,-9.55499E-002,3.11524E-003,2.41154E-001,-9.55787E-002,5.30095E-001,2.42875E-001,1.27267E+000,-7.63676E-003,0.00000E+000,1.13524E-002,9.10485E-001,0.00000E+000,-2.51786E-003,-6.06424E-002,1.00000E+000,39
1289,1287,3.92575E+001,-2.28428E+000,5.48255E-002,1.58443E+001,5.77614E-002,7.74914E-003,1.58444E+001,2.86258E-002,3.90178E-001,0,2.34742E+002,-1.14864E+000,9.95998E-001,2.11745E+002,-2.68044E+001,9.92665E-001,2.35493E-001,-9.56705E-002,3.97779E-004,2.35494E-001,-9.56709E-002,6.88209E-002,2.36870E-001,1.26559E+000,-7.74202E-003,0.00000E+000,6.93333E-003,9.10419E-001,0.00000E+000,-1.17437E-002,-6.07796E-002,1.00000E+000,39
1289,1297,3.92386E+001,-1.69309E+000,-2.95072E-002,1.58187E+001,4.78138E-003,-3.38400E-002,1.58187E+001,3.96436E-002,3.19698E-001,0,2.34560E+002,-1.94561E+000,9.93998E-001,2.11383E+002,-2.74479E+001,9.91094E-001,2.37376E-001,-9.56399E-002,1.29567E-003,2.37381E-001,-9.56450E-002,2.22917E-001,2.38868E-001,1.26794E+000,-7.71793E-003,0.00000E+000,8.39919E-003,9.10434E-001,0.00000E+000,-8.68337E-003,-6.07482E-002,1.00000E+000,39
1289,1307,3.92619E+001,-1.12697E+000,-1.12648E-001,1.58356E+001,-7.81274E-002,-7.27347E-002,1.58360E+001,1.91450E-002,4.53830E-001,0,2.35005E+002,-3.23158E+000,9.98318E-001,2.11684E+002,-2.83774E+001,9.96465E-001,2.39258E-001,-9.56088E-002,2.19940E-003,2.39273E-001,-9.56232E-002,3.76297E-001,2.40874E-001,1.27031E+000,-7.69474E-003,0.00000E+000,9.87626E-003,9.10448E-001,0.00000E+000,-5.59961E-003,-6.07179E-002,1.00000E+000,39
559,1327,-2.10799E+001,-6.84010E-001,1.49607E-001,3.06430E+000,-5.26076E-001,1.44204E-001,3.11247E+000,3.75721E-002,7.78820E-001,0,4.78028E+001,-8.99084E+000,9.98588E-001,7.59160E+000,-4.97107E+001,9.97696E-001,2.06570E-001,-8.61149E-002,1.26033E-003,2.06575E-001,-8.61203E-002,2.46715E-001,2.07524E-001,1.22880E+000,4.03229E-002,0.00000E+000,-2.76245E-002,9.19136E-001,0.00000E+000,-8.88390E-004,-6.71102E-002,1.00000E+000,39
559,1337,-2.10605E+001,-9.75218E-002,8.46816E-002,3.07604E+000,-5.71750E-001,9.19289E-002,3.13008E+000,1.16620E-002,6.55680E-001,0,4.81280E+001,-9.57962E+000,9.98870E-001,7.84524E+000,-5.06311E+001,9.98658E-001,2.03413E-001,-8.61265E-002,1.57371E-003,2.03421E-001,-8.61350E-002,3.11402E-001,2.04215E-001,1.22493E+000,4.02786E-002,0.00000E+000,-2.70144E-002,9.19143E-001,0.00000E+000,-2.34709E-003,-6.71268E-002,1.00000E+000,39
559,1347,-2.10311E+001,4.92186E-001,4.94837E-002,3.09592E+000,-6.16911E-001,5.78515E-002,3.15732E+000,1.80298E-002,6.27745E-001,0,4.85313E+001,-1.02358E+001,9.96652E-001,8.33996E+000,-5.15179E+001,9.96295E-001,2.00235E-001,-8.61364E-002,1.88402E-003,2.00248E-001,-8.61488E-002,3.76923E-001,2.00897E-001,1.22105E+000,4.02236E-002,0.00000E+000,-2.64027E-002,9.19151E-001,0.00000E+000,-3.80946E-003,-6.71476E-002,1.00000E+000,39
559,1357,-2.09850E+001,1.07820E+000,4.44666E-002,3.12835E+000,-6.70487E-001,2.80191E-002,3.19952E+000,1.61858E-002,6.20592E-001,0,4.91189E+001,-1.10339E+001,9.96424E-001,9.17837E+000,-5.25159E+001,9.96816E-001,1.97034E-001,-8.61427E-002,2.18606E-003,1.97050E-001,-8.61595E-002,4.42276E-001,1.97567E-001,1.21716E+000,4.01441E-002,0.00000E+000,-2.57889E-002,9.19164E-001,0.00000E+000,-5.27693E-003,-6.71776E-002,1.00000E+000,39
559,1317,-2.11206E+001,-1.23210E+000,2.51495E-001,3.02284E+000,-4.46652E-001,1.81603E-001,3.06106E+000,3.46610E-002,6.92756E-001,0,4.70373E+001,-7.77161E+000,9.98049E-001,7.13329E+000,-4.83865E+001,9.96971E-001,2.09715E-001,-8.60961E-002,9.28020E-004,2.09718E-001,-8.60990E-002,1.79746E-001,2.10834E-001,1.23267E+000,4.03187E-002,0.00000E+000,-2.82350E-002,9.19136E-001,0.00000E+000,5.71111E-004,-6.71117E-002,1.00000E+000,39
1299,1327,4.01445E+001,7.31790E-002,-1.68996E-001,1.60088E+001,-1.89946E-001,-1.41229E-001,1.60106E+001,2.84872E-002,4.34501E-001,0,2.37635E+002,-4.99453E+000,9.94739E-001,2.15522E+002,-2.94644E+001,9.93126E-001,2.42800E-001,-9.36308E-002,4.66594E-003,2.42865E-001,-9.36955E-002,7.94427E-001,2.44968E-001,1.27483E+000,-4.78315E-003,0.00000E+000,1.20123E-002,9.12050E-001,0.00000E+000,1.10937E-003,-5.71610E-002,1.00000E+000,39
1299,1337,4.02030E+001,6.68841E-001,-1.43620E-001,1.60311E+001,-2.57841E-001,-1.80803E-001,1.60342E+001,2.67650E-002,4.53263E-001,0,2.38094E+002,-6.02281E+000,9.94352E-001,2.16477E+002,-3.02286E+001,9.92290E-001,2.45021E-001,-9.35063E-002,5.71207E-003,2.45117E-001,-9.36027E-002,9.66402E-001,2.47387E-001,1.27769E+000,-4.62655E-003,0.00000E+000,1.36683E-002,9.12141E-001,0.00000E+000,4.40690E-003,-5.69803E-002,1.00000E+000,39
1299,1287,4.01097E+001,-2.27662E+000,6.06699E-002,1.60247E+001,5.65950E-002,3.89342E-003,1.60248E+001,2.09311E-002,4.80420E-001,0,2.37217E+002,-1.19989E+000,9.96753E-001,2.15135E+002,-2.65578E+001,9.95260E-001,2.33861E-001,-9.38310E-002,6.76286E-004,2.33862E-001,-9.38324E-002,1.18246E-001,2.35378E-001,1.26355E+000,-5.00212E-003,0.00000E+000,5.47396E-003,9.11924E-001,0.00000E+000,-1.19099E-002,-5.74136E-002,1.00000E+000,39
1299,1297,4.00900E+001,-1.71689E+000,-8.87107E-002,1.59998E+001,-2.75939E-002,-9.73659E-002,1.60001E+001,2.64327E-002,2.55520E-001,0,2.37331E+002,-2.26788E+000,9.97990E-001,2.14702E+002,-2.76273E+001,9.89320E-001,2.36110E-001,-9.38055E-002,1.65764E-003,2.36118E-001,-9.38138E-002,2.87869E-001,2.37772E-001,1.26635E+000,-4.97939E-003,0.00000E+000,7.10024E-003,9.11937E-001,0.00000E+000,-8.67156E-003,-5.73874E-002,1.00000E+000,39
1299,1307,4.01198E+001,-1.12208E+000,-1.29350E-001,1.60189E+001,-8.23493E-002,-1.09146E-001,1.60195E+001,5.19961E-002,3.03464E-001,0,2.37666E+002,-3.16991E+000,9.97054E-001,2.15146E+002,-2.82415E+001,9.91141E-001,2.38357E-001,-9.37623E-002,2.65371E-003,2.38378E-001,-9.37835E-002,4.57768E-001,2.40177E-001,1.26918E+000,-4.93355E-003,0.00000E+000,8.73735E-003,9.11963E-001,0.00000E+000,-5.41171E-003,-5.73345E-002,1.00000E+000,39
1299,1317,4.01442E+001,-5.20061E-001,-1.37415E-001,1.60279E+001,-1.31265E-001,-1.06242E-001,1.60288E+001,3.60938E-002,4.73386E-001,0,2.37772E+002,-4.09213E+000,9.95053E-001,2.15533E+002,-2.87558E+001,9.92938E-001,2.40587E-001,-9.37031E-002,3.65716E-003,2.40627E-001,-9.37431E-002,6.26719E-001,2.42576E-001,1.27200E+000,-4.86675E-003,0.00000E+000,1.03748E-002,9.12002E-001,0.00000E+000,-2.15116E-003,-5.72574E-002,1.00000E+000,39
559,1307,-2.11564E+001,-1.80212E+000,3.66629E-001,2.98456E+000,-3.90318E-001,2.21200E-001,3.01809E+000,1.76216E-002,6.70719E-001,0,4.63202E+001,-6.95825E+000,9.96308E-001,6.78370E+000,-4.73927E+001,9.95251E-001,2.12847E-001,-8.60758E-002,5.92339E-004,2.12848E-001,-8.60770E-002,1.13535E-001,2.14141E-001,1.23654E+000,4.03044E-002,0.00000E+000,-2.88454E-002,9.19139E-001,0.00000E+000,2.03042E-003,-6.71171E-002,1.00000E+000,39
549,1347,-2.17987E+001,5.09958E-001,4.98393E-002,2.96505E+000,-5.94770E-001,5.70046E-002,3.02465E+000,1.60909E-002,6.50498E-001,0,4.65074E+001,-9.86359E+000,9.96334E-001,6.65679E+000,-5.13479E+001,9.96178E-001,1.99701E-001,-8.56575E-002,2.47797E-003,1.99723E-001,-8.56790E-002,4.97490E-001,2.00393E-001,1.22026E+000,4.44463E-002,0.00000E+000,-2.85051E-002,9.19442E-001,0.00000E+000,-3.77726E-003,-6.56720E-002,1.00000E+000,39
549,1357,-2.17539E+001,1.10711E+000,4.82567E-002,2.99542E+000,-6.38003E-001,2.53237E-002,3.06271E+000,1.76389E-002,6.51016E-001,0,4.70643E+001,-1.04949E+001,9.96374E-001,7.48894E+000,-5.21809E+001,9.96524E-001,1.96627E-001,-8.56644E-002,2.76479E-003,1.96654E-001,-8.56915E-002,5.61090E-001,1.97194E-001,1.21653E+000,4.43664E-002,0.00000E+000,-2.79142E-002,9.19455E-001,0.00000E+000,-5.46172E-003,-6.57080E-002,1.00000E+000,39
549,1327,-2.18972E+001,-6.57092E-001,1.63317E-001,2.88171E+000,-4.94776E-001,1.45697E-001,2.92751E+000,2.89326E-002,7.18513E-001,0,4.49607E+001,-8.46309E+000,9.97290E-001,5.19282E+000,-4.94733E+001,9.95506E-001,2.05785E-001,-8.56325E-002,1.87793E-003,2.05797E-001,-8.56446E-002,3.69201E-001,2.06759E-001,1.22769E+000,4.45304E-002,0.00000E+000,-2.96819E-002,9.19429E-001,0.00000E+000,-4.22731E-004,-6.56340E-002,1.00000E+000,39
549,1337,-2.18358E+001,-7.46371E-002,9.08007E-002,2.93702E+000,-5.42584E-001,9.48111E-002,2.98822E+000,1.21973E-002,6.42118E-001,0,4.59652E+001,-9.12407E+000,9.98098E-001,6.06217E+000,-5.04123E+001,9.98212E-001,2.02761E-001,-8.56461E-002,2.17990E-003,2.02777E-001,-8.56626E-002,4.33033E-001,2.03589E-001,1.22399E+000,4.44967E-002,0.00000E+000,-2.90957E-002,9.19434E-001,0.00000E+000,-2.09377E-003,-6.56492E-002,1.00000E+000,39
1309,1317,4.09740E+001,-5.19713E-001,-1.63375E-001,1.61912E+001,-1.34716E-001,-1.20391E-001,1.61922E+001,2.98697E-002,4.45557E-001,0,2.40053E+002,-4.13986E+000,9.94684E-001,2.18548E+002,-2.86109E+001,9.92583E-001,2.40499E-001,-9.21852E-002,4.34786E-003,2.40556E-001,-9.22420E-002,7.48629E-001,2.42725E-001,1.27191E+000,-1.03697E-003,0.00000E+000,8.93837E-003,9.13243E-001,0.00000E+000,-2.41957E-003,-5.39853E-002,1.00000E+000,39
1309,1327,4.10007E+001,7.95559E-002,-1.90938E-001,1.61957E+001,-1.89342E-001,-1.61097E-001,1.61976E+001,3.46530E-002,4.20317E-001,0,2.40280E+002,-4.97400E+000,9.93456E-001,2.18954E+002,-2.92226E+001,9.90724E-001,2.43116E-001,-9.21147E-002,5.30085E-003,2.43200E-001,-9.21985E-002,9.05690E-001,2.45558E-001,1.27525E+000,-9.24165E-004,0.00000E+000,1.04668E-002,9.13295E-001,0.00000E+000,8.95899E-004,-5.38733E-002,1.00000E+000,39
1309,1337,4.10548E+001,6.84285E-001,-1.48370E-001,1.62146E+001,-2.47504E-001,-1.78608E-001,1.62175E+001,3.66256E-002,4.63763E-001,0,2.40589E+002,-5.91753E+000,9.95130E-001,2.19852E+002,-2.98703E+001,9.94099E-001,2.45736E-001,-9.20069E-002,6.28541E-003,2.45853E-001,-9.21238E-002,1.06578E+000,2.48412E-001,1.27861E+000,-7.45429E-004,0.00000E+000,1.20087E-002,9.13377E-001,0.00000E+000,4.24044E-003,-5.36959E-002,1.00000E+000,39
549,1317,-2.19066E+001,-1.21737E+000,2.72739E-001,2.87272E+000,-4.28182E-001,1.97989E-001,2.91120E+000,2.56757E-002,7.65034E-001,0,4.46698E+001,-7.52706E+000,9.97730E-001,5.23135E+000,-4.82793E+001,9.96640E-001,2.08797E-001,-8.56142E-002,1.56398E-003,2.08805E-001,-8.56225E-002,3.04357E-001,2.09928E-001,1.23139E+000,4.45327E-002,0.00000E+000,-3.02681E-002,9.19428E-001,0.00000E+000,1.24850E-003,-6.56330E-002,1.00000E+000,39
549,1307,-2.19334E+001,-1.78650E+000,3.59704E-001,2.84440E+000,-3.70316E-001,2.15051E-001,2.87646E+000,1.74767E-002,6.91448E-001,0,4.41682E+001,-6.61593E+000,9.96961E-001,4.93744E+000,-4.72347E+001,9.96328E-001,2.11803E-001,-8.55943E-002,1.24560E-003,2.11808E-001,-8.55995E-002,2.39968E-001,2.13102E-001,1.23510E+000,4.45240E-002,0.00000E+000,-3.08557E-002,9.19430E-001,0.00000E+000,2.92335E-003,-6.56369E-002,1.00000E+000,39
1309,1287,4.09601E+001,-2.27643E+000,5.52810E-002,1.62019E+001,5.09745E-002,-1.45167E-002,1.62020E+001,1.77588E-002,4.80757E-001,0,2.39705E+002,-1.29739E+000,9.97135E-001,2.18490E+002,-2.64489E+001,9.95414E-001,2.32568E-001,-9.22727E-002,1.57687E-003,2.32576E-001,-9.22803E-002,2.78121E-001,2.34222E-001,1.26193E+000,-1.16314E-003,0.00000E+000,4.37327E-003,9.13186E-001,0.00000E+000,-1.23219E-002,-5.41106E-002,1.00000E+000,39
1309,1297,4.09586E+001,-1.70739E+000,-4.43507E-002,1.61970E+001,-2.56119E-002,-5.92949E-002,1.61972E+001,2.47166E-002,4.44360E-001,0,2.39861E+002,-2.42701E+000,9.96880E-001,2.18390E+002,-2.73828E+001,9.94108E-001,2.35228E-001,-9.22580E-002,2.49105E-003,2.35247E-001,-9.22770E-002,4.35792E-001,2.37061E-001,1.26525E+000,-1.14510E-003,0.00000E+000,5.89347E-003,9.13194E-001,0.00000E+000,-9.02440E-003,-5.40927E-002,1.00000E+000,39
1309,1307,4.09620E+001,-1.10655E+000,-1.22107E-001,1.61956E+001,-6.87908E-002,-8.74536E-002,1.61960E+001,2.75417E-002,3.90978E-001,0,2.39974E+002,-3.11131E+000,9.96525E-001,2.18387E+002,-2.78752E+001,9.95505E-001,2.37862E-001,-9.22383E-002,3.40456E-003,2.37897E-001,-9.22734E-002,5.90849E-001,2.39882E-001,1.26857E+000,-1.12009E-003,0.00000E+000,7.40905E-003,9.13205E-001,0.00000E+000,-5.73688E-003,-5.40679E-002,1.00000E+000,39
539,1347,-2.25730E+001,5.32506E-001,5.01265E-002,2.82696E+000,-5.66490E-001,5.50014E-002,2.88368E+000,1.44050E-002,6.36622E-001,0,4.43690E+001,-9.39655E+000,9.97050E-001,4.87888E+000,-5.11241E+001,9.97180E-001,1.99234E-001,-8.49292E-002,2.68826E-003,1.99260E-001,-8.49547E-002,5.41967E-001,1.99979E-001,1.21955E+000,4.81984E-002,0.00000E+000,-3.09865E-002,9.19935E-001,0.00000E+000,-3.64523E-003,-6.40211E-002,1.00000E+000,39
539,1357,-2.25272E+001,1.13394E+000,4.61644E-002,2.85943E+000,-6.04756E-001,2.69255E-002,2.92281E+000,1.28718E-002,6.41867E-001,0,4.49490E+001,-9.95419E+000,9.98105E-001,5.72156E+000,-5.18860E+001,9.97885E-001,1.96377E-001,-8.49363E-002,2.91168E-003,1.96407E-001,-8.49665E-002,5.92943E-001,1.97001E-001,1.21608E+000,4.81301E-002,0.00000E+000,-3.05228E-002,9.19944E-001,0.00000E+000,-5.37266E-003,-6.40551E-002,1.00000E+000,39
539,1327,-2.26507E+001,-6.29392E-001,1.44817E-001,2.76472E+000,-4.59566E-001,1.27657E-001,2.80556E+000,1.68353E-002,6.34298E-001,0,4.31938E+001,-7.84714E+000,9.93779E-001,3.67684E+000,-4.91584E+001,9.94251E-001,2.04897E-001,-8.49085E-002,2.22098E-003,2.04914E-001,-8.49255E-002,4.39063E-001,2.05912E-001,1.22646E+000,4.82779E-002,0.00000E+000,-3.19113E-002,9.19924E-001,0.00000E+000,-2.00307E-004,-6.39815E-002,1.00000E+000,39
539,1337,-2.26109E+001,-4.68549E-002,8.75695E-002,2.79792E+000,-5.09345E-001,8.89223E-002,2.84530E+000,1.53425E-002,6.31194E-001,0,4.38201E+001,-8.57185E+000,9.96123E-001,4.26177E+000,-5.00972E+001,9.96504E-001,2.02077E-001,-8.49195E-002,2.45635E-003,2.02098E-001,-8.49406E-002,4.90336E-001,2.02953E-001,1.22301E+000,4.82443E-002,0.00000E+000,-3.14499E-002,9.19929E-001,0.00000E+000,-1.91909E-003,-6.39982E-002,1.00000E+000,39
1319,1297,4.17839E+001,-1.69718E+000,-6.87799E-002,1.63554E+001,-1.75539E-002,-7.23145E-002,1.63555E+001,2.20337E-002,3.68094E-001,0,2.42053E+002,-2.29640E+000,9.97380E-001,2.21341E+002,-2.71165E+001,9.95038E-001,2.34634E-001,-9.06223E-002,3.58917E-003,2.34674E-001,-9.06619E-002,6.32149E-001,2.36687E-001,1.26451E+000,3.64464E-003,0.00000E+000,4.47486E-003,9.14542E-001,0.00000E+000,-9.32612E-003,-5.07022E-002,1.00000E+000,39
1319,1307,4.18005E+001,-1.10983E+000,-1.37189E-001,1.63638E+001,-7.70236E-002,-1.02767E-001,1.63643E+001,2.65524E-002,3.51121E-001,0,2.42322E+002,-3.22894E+000,9.96853E-001,2.21552E+002,-2.78178E+001,9.96139E-001,2.37678E-001,-9.05991E-002,4.49350E-003,2.37739E-001,-9.06606E-002,7.84077E-001,2.39960E-001,1.26834E+000,3.69275E-003,0.00000E+000,5.97659E-003,9.14561E-001,0.00000E+000,-5.96421E-003,-5.06600E-002,1.00000E+000,39
539,1307,-2.27138E+001,-1.77477E+000,3.43983E-001,2.69992E+000,-3.52594E-001,1.96899E-001,2.72995E+000,1.30237E-002,6.57312E-001,0,4.19760E+001,-6.28708E+000,9.97215E-001,3.01667E+000,-4.71461E+001,9.96982E-001,2.10488E-001,-8.48776E-002,1.72283E-003,2.10498E-001,-8.48876E-002,3.34184E-001,2.11807E-001,1.23334E+000,4.82693E-002,0.00000E+000,-3.28318E-002,9.19925E-001,0.00000E+000,3.22875E-003,-6.39858E-002,1.00000E+000,39
539,1317,-2.26835E+001,-1.21071E+000,2.37749E-001,2.73261E+000,-4.13324E-001,1.65418E-001,2.76864E+000,1.55599E-002,6.60524E-001,0,4.25843E+001,-7.19578E+000,9.95599E-001,3.30516E+000,-4.82640E+001,9.95013E-001,2.07700E-001,-8.48939E-002,1.97462E-003,2.07713E-001,-8.49072E-002,3.86647E-001,2.08863E-001,1.22990E+000,4.82815E-002,0.00000E+000,-3.23718E-002,9.19924E-001,0.00000E+000,1.51536E-003,-6.39797E-002,1.00000E+000,39
1319,1287,4.17953E+001,-2.28574E+000,3.76522E-002,1.63679E+001,3.68610E-002,-2.93710E-002,1.63679E+001,2.29332E-002,4.36811E-001,0,2.42021E+002,-1.49037E+000,9.96396E-001,2.21602E+002,-2.64861E+001,9.95993E-001,2.31578E-001,-9.06248E-002,2.70310E-003,2.31601E-001,-9.06475E-002,4.80634E-001,2.33415E-001,1.26069E+000,3.63788E-003,0.00000E+000,2.97785E-003,9.14539E-001,0.00000E+000,-1.26775E-002,-5.07082E-002,1.00000E+000,39
529,1327,-2.34219E+001,-6.11047E-001,1.50136E-001,2.62872E+000,-4.35902E-001,1.27945E-001,2.66768E+000,1.52271E-002,6.50158E-001,0,4.10811E+001,-7.47998E+000,9.93303E-001,1.96534E+000,-4.89907E+001,9.93827E-001,2.04256E-001,-8.34666E-002,2.74498E-003,2.04282E-001,-8.34927E-002,5.46557E-001,2.05414E-001,1.22557E+000,5.08419E-002,0.00000E+000,-3.29597E-002,9.21140E-001,0.00000E+000,3.60788E-004,-6.26005E-002,1.00000E+000,39
529,1307,-2.34870E+001,-1.75319E+000,3.47745E-001,2.56138E+000,-3.26394E-001,1.92157E-001,2.58923E+000,1.75996E-002,6.32018E-001,0,3.98367E+001,-5.85118E+000,9.97515E-001,1.27380E+000,-4.69421E+001,9.96793E-001,2.09106E-001,-8.34772E-002,2.77778E-003,2.09132E-001,-8.35036E-002,5.43901E-001,2.10541E-001,1.23154E+000,5.08318E-002,0.00000E+000,-3.29020E-002,9.21140E-001,0.00000E+000,3.80073E-003,-6.26064E-002,1.00000E+000,39
529,1317,-2.34568E+001,-1.18863E+000,2.36860E-001,2.59536E+000,-3.85596E-001,1.65223E-001,2.62904E+000,1.50637E-002,6.12617E-001,0,4.04535E+001,-6.72674E+000,9.96933E-001,1.54474E+000,-4.80559E+001,9.96497E-001,2.06687E-001,-8.34714E-002,2.76606E-003,2.06713E-001,-8.34977E-002,5.46132E-001,2.07981E-001,1.22855E+000,5.08490E-002,0.00000E+000,-3.29308E-002,9.21140E-001,0.00000E+000,2.08169E-003,-6.25965E-002,1.00000E+000,39
