Coordinates.Image X [Pixel],Coordinates.Image Y [Pixel],coor.X [mm],coor.Y [mm],coor.Z [mm],disp.Horizontal Displacement U [mm],disp.Vertical Displacement V [mm],disp.Out-Of-Plane: W [mm],disp.Displacement Magnitude [mm],stats.Sigma [mm],stats.Epipolar Distance [Pixel],stats.Shape Index [-],SameCamera.Horizontal: u [Pixel],SameCamera.Vertical: v [Pixel],SameCamera.Correlation Value 2D [-],CrossCamera.Horizontal: q [Pixel],CrossCamera.Vertical: r [Pixel],CrossCamera.Correlation Value Persp [-],strain.Strain-global frame: Exx [ ],strain.Strain-global frame: Eyy [ ],strain.Strain-global frame: Exy [ ],strain.Maximum Principal Strain: EI [ ],strain.Minimum Principal Strain: EII [ ],strain.Shear Angle Gamma [deg],strain.Von Mises Equivalent Strain [ ],defgradient.F[0,0] [-],defgradient.F[0,1] [-],defgradient.F[0,2] [-],defgradient.F[1,0] [-],defgradient.F[1,1] [-],defgradient.F[1,2] [-],defgradient.F[2,0] [-],defgradient.F[2,1] [-],defgradient.F[2,2] [-],ext.Current Image [#]
929,1317,2.54834E+000,-1.00647E+000,4.65810E-002,2.88441E+000,-3.90106E-001,1.33302E-001,2.91372E+000,8.37491E-003,4.79274E-001,0,4.38715E+001,-6.71277E+000,9.99551E-001,-2.23562E-001,-4.13686E+001,9.98597E-001,8.09155E-002,-3.34608E-002,3.01298E-004,8.09163E-002,-3.34616E-002,1.50931E-001,8.13186E-002,1.08426E+000,-1.48344E-002,0.00000E+000,1.47407E-002,9.69758E-001,0.00000E+000,-1.31887E-002,-7.56561E-002,1.00000E+000,12
919,1307,1.83737E+000,-1.63888E+000,1.03346E-001,2.83999E+000,-3.73246E-001,1.94863E-001,2.87104E+000,1.03931E-002,4.97656E-001,0,4.30190E+001,-6.56648E+000,9.99325E-001,-1.18634E+000,-4.13434E+001,9.96734E-001,8.27647E-002,-3.31802E-002,-3.04578E-005,8.27647E-002,-3.31802E-002,-1.50511E-002,8.33049E-002,1.08627E+000,-1.33502E-002,0.00000E+000,1.26977E-002,9.70124E-001,0.00000E+000,-1.22109E-002,-7.65770E-002,1.00000E+000,12
919,1317,1.82818E+000,-1.02908E+000,2.89418E-003,2.82799E+000,-3.98446E-001,1.45323E-001,2.85962E+000,1.12785E-002,4.74189E-001,0,4.30076E+001,-6.87104E+000,9.99089E-001,-1.44676E+000,-4.17217E+001,9.96551E-001,8.13045E-002,-3.31863E-002,-2.24976E-004,8.13050E-002,-3.31867E-002,-1.12587E-001,8.17607E-002,1.08467E+000,-1.33574E-002,0.00000E+000,1.22316E-002,9.70122E-001,0.00000E+000,-1.06918E-002,-7.65703E-002,1.00000E+000,12
919,1327,1.83615E+000,-4.07453E-001,-3.56260E-002,2.81884E+000,-4.23885E-001,9.16716E-002,2.85200E+000,9.62595E-003,5.19094E-001,0,4.30472E+001,-7.16398E+000,9.99475E-001,-1.30305E+000,-4.20138E+001,9.97537E-001,7.98226E-002,-3.32005E-002,-4.38064E-004,7.98243E-002,-3.32022E-002,-2.22067E-001,8.01994E-002,1.08305E+000,-1.34001E-002,0.00000E+000,1.17600E-002,9.70110E-001,0.00000E+000,-9.15462E-003,-7.65297E-002,1.00000E+000,12
929,1307,2.55286E+000,-1.61831E+000,1.31391E-001,2.89611E+000,-3.63673E-001,1.87090E-001,2.92484E+000,8.07693E-003,5.11290E-001,0,4.38642E+001,-6.40515E+000,9.99624E-001,-7.08176E-002,-4.09859E+001,9.98875E-001,8.24148E-002,-3.34575E-002,3.85321E-004,8.24161E-002,-3.34588E-002,1.90528E-001,8.29004E-002,1.08591E+000,-1.48158E-002,0.00000E+000,1.50019E-002,9.69761E-001,0.00000E+000,-1.50239E-002,-7.56767E-002,1.00000E+000,12
929,1327,2.55027E+000,-3.85746E-001,-4.60077E-003,2.87291E+000,-4.11730E-001,8.42993E-002,2.90348E+000,7.26675E-003,4.53920E-001,0,4.38610E+001,-6.96057E+000,9.99650E-001,-2.01341E-001,-4.16825E+001,9.99028E-001,7.94058E-002,-3.34653E-002,2.09562E-004,7.94062E-002,-3.34657E-002,1.06378E-001,7.97322E-002,1.08260E+000,-1.48691E-002,0.00000E+000,1.44787E-002,9.69753E-001,0.00000E+000,-1.13476E-002,-7.56175E-002,1.00000E+000,12
939,1307,3.26147E+000,-1.59993E+000,1.23128E-001,2.95038E+000,-3.52205E-001,1.68434E-001,2.97610E+000,8.98724E-003,5.10504E-001,0,4.47191E+001,-6.19178E+000,9.99645E-001,8.62206E-001,-4.05933E+001,9.98873E-001,8.19625E-002,-3.31360E-002,7.58872E-004,8.19675E-002,-3.31410E-002,3.77743E-001,8.24662E-002,1.08543E+000,-1.64266E-002,0.00000E+000,1.73022E-002,9.69935E-001,0.00000E+000,-1.71503E-002,-7.42308E-002,1.00000E+000,12
939,1317,3.25803E+000,-9.88334E-001,4.64819E-002,2.93896E+000,-3.78821E-001,1.19387E-001,2.96568E+000,9.49112E-003,4.47676E-001,0,4.47156E+001,-6.50919E+000,9.99512E-001,7.44324E-001,-4.10107E+001,9.98168E-001,8.05854E-002,-3.31390E-002,6.86010E-004,8.05895E-002,-3.31432E-002,3.45604E-001,8.10115E-002,1.08390E+000,-1.64457E-002,0.00000E+000,1.70513E-002,9.69932E-001,0.00000E+000,-1.51136E-002,-7.42053E-002,1.00000E+000,12
939,1327,3.26138E+000,-3.63143E-001,-1.43163E-003,2.92722E+000,-3.99243E-001,6.68551E-002,2.95508E+000,6.82704E-003,4.77505E-001,0,4.47135E+001,-6.72659E+000,9.99485E-001,7.95552E-001,-4.12332E+001,9.98815E-001,7.91912E-002,-3.31433E-002,6.04758E-004,7.91944E-002,-3.31465E-002,3.08443E-001,7.95440E-002,1.08236E+000,-1.64819E-002,0.00000E+000,1.67983E-002,9.69926E-001,0.00000E+000,-1.30605E-002,-7.41571E-002,1.00000E+000,12
919,1337,1.85133E+000,2.21196E-001,-4.91384E-002,2.81197E+000,-4.43829E-001,3.99569E-002,2.84706E+000,7.51922E-003,4.91696E-001,0,4.31109E+001,-7.37007E+000,9.99341E-001,-9.90869E-001,-4.22890E+001,9.98662E-001,7.83361E-002,-3.32174E-002,-6.56931E-004,7.83400E-002,-3.32213E-002,-3.37395E-001,7.86406E-002,1.08143E+000,-1.34551E-002,0.00000E+000,1.12884E-002,9.70094E-001,0.00000E+000,-7.61744E-003,-7.64776E-002,1.00000E+000,12
929,1337,2.56045E+000,2.39132E-001,-3.39937E-002,2.86347E+000,-4.34803E-001,2.87993E-002,2.89643E+000,6.63652E-003,4.73478E-001,0,4.39016E+001,-7.21725E+000,9.99753E-001,-3.54287E-003,-4.19574E+001,9.99327E-001,7.78820E-002,-3.34712E-002,1.09931E-004,7.78821E-002,-3.34713E-002,5.65642E-002,7.81378E-002,1.08093E+000,-1.49197E-002,0.00000E+000,1.42151E-002,9.69745E-001,0.00000E+000,-9.49605E-003,-7.55613E-002,1.00000E+000,12
939,1337,3.27038E+000,2.62010E-001,-2.80110E-002,2.91746E+000,-4.21021E-001,1.87498E-002,2.94775E+000,5.89187E-003,4.87351E-001,0,4.47253E+001,-6.98403E+000,9.99681E-001,9.80363E-001,-4.15135E+001,9.99354E-001,7.77905E-002,-3.31481E-002,5.19267E-004,7.77930E-002,-3.31506E-002,2.68175E-001,7.80754E-002,1.08082E+000,-1.65268E-002,0.00000E+000,1.65452E-002,9.69919E-001,0.00000E+000,-1.10069E-002,-7.40973E-002,1.00000E+000,12
949,1317,3.97117E+000,-9.63706E-001,4.97604E-002,2.99516E+000,-3.63758E-001,1.03029E-001,3.01892E+000,1.20117E-002,4.79917E-001,0,4.55904E+001,-6.24518E+000,9.99143E-001,1.77755E+000,-4.05275E+001,9.97735E-001,8.02242E-002,-3.28313E-002,1.00747E-003,8.02332E-002,-3.28403E-002,5.10527E-001,8.06719E-002,1.08351E+000,-1.78734E-002,0.00000E+000,1.90358E-002,9.70071E-001,0.00000E+000,-1.65801E-002,-7.24097E-002,1.00000E+000,12
949,1327,3.97204E+000,-3.41158E-001,-1.10124E-003,2.98201E+000,-3.84915E-001,5.28604E-002,3.00721E+000,1.08291E-002,4.63006E-001,0,4.55607E+001,-6.47711E+000,9.99207E-001,1.78326E+000,-4.08065E+001,9.98477E-001,7.90347E-002,-3.28337E-002,9.53376E-004,7.90428E-002,-3.28419E-002,4.88245E-001,7.94182E-002,1.08219E+000,-1.79024E-002,0.00000E+000,1.88136E-002,9.70066E-001,0.00000E+000,-1.42800E-002,-7.23593E-002,1.00000E+000,12
949,1337,3.97962E+000,2.83093E-001,-2.99896E-002,2.97133E+000,-4.07649E-001,5.41011E-003,2.99917E+000,8.19579E-003,4.76143E-001,0,4.55580E+001,-6.74876E+000,9.99407E-001,1.94013E+000,-4.10925E+001,9.98806E-001,7.78348E-002,-3.28366E-002,8.94917E-004,7.78421E-002,-3.28438E-002,4.63268E-001,7.81577E-002,1.08086E+000,-1.79402E-002,0.00000E+000,1.85907E-002,9.70060E-001,0.00000E+000,-1.19728E-002,-7.22937E-002,1.00000E+000,12
949,1307,3.97691E+000,-1.57938E+000,1.25405E-001,3.00858E+000,-3.40414E-001,1.49298E-001,3.03146E+000,9.32261E-003,5.14922E-001,0,4.56338E+001,-5.97112E+000,9.99468E-001,1.92819E+000,-4.01861E+001,9.98486E-001,8.14022E-002,-3.28295E-002,1.05532E-003,8.14119E-002,-3.28393E-002,5.29262E-001,8.19171E-002,1.08483E+000,-1.78575E-002,0.00000E+000,1.92570E-002,9.70074E-001,0.00000E+000,-1.88704E-002,-7.24373E-002,1.00000E+000,12
909,1317,1.12412E+000,-1.04475E+000,6.62306E-004,2.77564E+000,-4.06304E-001,1.45399E-001,2.80899E+000,1.09847E-002,4.57549E-001,0,4.22395E+001,-7.00845E+000,9.98821E-001,-2.32513E+000,-4.20601E+001,9.96042E-001,8.17439E-002,-3.34074E-002,-7.87708E-004,8.17492E-002,-3.34128E-002,-3.91915E-001,8.22020E-002,1.08514E+000,-1.17629E-002,0.00000E+000,9.50951E-003,9.69954E-001,0.00000E+000,-7.87621E-003,-7.68307E-002,1.00000E+000,12
909,1327,1.13531E+000,-4.19770E-001,-3.76007E-002,2.77020E+000,-4.28940E-001,9.37738E-002,2.80478E+000,8.51484E-003,4.91067E-001,0,4.23273E+001,-7.24097E+000,9.99041E-001,-2.12978E+000,-4.23079E+001,9.97935E-001,8.03177E-002,-3.34203E-002,-9.94254E-004,8.03264E-002,-3.34290E-002,-5.00807E-001,8.07019E-002,1.08359E+000,-1.18024E-002,0.00000E+000,9.08087E-003,9.69943E-001,0.00000E+000,-6.82202E-003,-7.68039E-002,1.00000E+000,12
909,1337,1.15044E+000,2.12827E-001,-4.96973E-002,2.76318E+000,-4.47844E-001,4.24981E-002,2.79956E+000,9.30533E-003,5.52463E-001,0,4.23857E+001,-7.42984E+000,9.99244E-001,-1.81375E+000,-4.24825E+001,9.98598E-001,7.88835E-002,-3.34362E-002,-1.20756E-003,7.88965E-002,-3.34492E-002,-6.15896E-001,7.92000E-002,1.08203E+000,-1.18550E-002,0.00000E+000,8.65076E-003,9.69929E-001,0.00000E+000,-5.76421E-003,-7.67683E-002,1.00000E+000,12
909,1307,1.13038E+000,-1.65369E+000,1.07043E-001,2.78368E+000,-3.80447E-001,1.96173E-001,2.81640E+000,1.13395E-002,4.30202E-001,0,4.21867E+001,-6.68135E+000,9.98905E-001,-2.09561E+000,-4.17053E+001,9.94938E-001,8.31487E-002,-3.34028E-002,-5.99664E-004,8.31518E-002,-3.34058E-002,-2.94779E-001,8.36853E-002,1.08668E+000,-1.17585E-002,0.00000E+000,9.93262E-003,9.69955E-001,0.00000E+000,-8.91677E-003,-7.68337E-002,1.00000E+000,12
919,1347,1.87328E+000,8.57410E-001,-5.14173E-002,2.80863E+000,-4.60161E-001,-1.54337E-002,2.84611E+000,1.17649E-002,5.13374E-001,0,4.32382E+001,-7.51273E+000,9.99657E-001,-5.48147E-001,-4.24493E+001,9.99108E-001,7.68383E-002,-3.32362E-002,-8.80628E-004,7.68453E-002,-3.32432E-002,-4.58344E-001,7.70777E-002,1.07980E+000,-1.35181E-002,0.00000E+000,1.08147E-002,9.70075E-001,0.00000E+000,-6.07322E-003,-7.64179E-002,1.00000E+000,12
929,1347,2.57838E+000,8.71642E-001,-3.43315E-002,2.85662E+000,-4.53845E-001,-2.14676E-002,2.89253E+000,6.18891E-003,4.76781E-001,0,4.39603E+001,-7.41597E+000,9.99757E-001,3.79375E-001,-4.21876E+001,9.99363E-001,7.63479E-002,-3.34781E-002,3.70834E-006,7.63479E-002,-3.34781E-002,1.93462E-003,7.65402E-002,1.07926E+000,-1.49837E-002,0.00000E+000,1.39508E-002,9.69735E-001,0.00000E+000,-7.63889E-003,-7.54903E-002,1.00000E+000,12
939,1347,3.28776E+000,8.95130E-001,-2.39156E-002,2.91037E+000,-4.39556E-001,-2.47744E-002,2.94348E+000,9.81045E-003,4.96220E-001,0,4.47583E+001,-7.18994E+000,9.99624E-001,1.36273E+000,-4.17399E+001,9.98807E-001,7.63774E-002,-3.31540E-002,4.26949E-004,7.63791E-002,-3.31556E-002,2.23332E-001,7.66000E-002,1.07928E+000,-1.65854E-002,0.00000E+000,1.62910E-002,9.69909E-001,0.00000E+000,-8.94389E-003,-7.40191E-002,1.00000E+000,12
949,1347,3.99993E+000,9.17001E-001,-1.21092E-002,2.96512E+000,-4.27770E-001,-3.26513E-002,2.99599E+000,8.38432E-003,4.94888E-001,0,4.55863E+001,-6.98251E+000,9.99253E-001,2.39564E+000,-4.13303E+001,9.98365E-001,7.66199E-002,-3.28403E-002,8.28079E-004,7.66262E-002,-3.28465E-002,4.33416E-001,7.68858E-002,1.07952E+000,-1.79951E-002,0.00000E+000,1.83662E-002,9.70050E-001,0.00000E+000,-9.64944E-003,-7.21983E-002,1.00000E+000,12
959,1317,4.67868E+000,-9.44442E-001,3.79591E-002,3.04717E+000,-3.51563E-001,8.02299E-002,3.06843E+000,1.01937E-002,4.79073E-001,0,4.64247E+001,-6.01448E+000,9.99291E-001,2.69483E+000,-4.01121E+001,9.98642E-001,7.99348E-002,-3.25026E-002,1.11519E-003,7.99459E-002,-3.25137E-002,5.68201E-001,8.04085E-002,1.08318E+000,-1.93545E-002,0.00000E+000,2.05945E-002,9.70229E-001,0.00000E+000,-1.72620E-002,-7.05096E-002,1.00000E+000,12
959,1327,4.68043E+000,-3.22175E-001,-1.41989E-002,3.03657E+000,-3.72244E-001,3.68388E-002,3.05952E+000,1.47265E-002,4.73111E-001,0,4.64125E+001,-6.25707E+000,9.99652E-001,2.71075E+000,-4.03852E+001,9.98997E-001,7.88870E-002,-3.25020E-002,1.10292E-003,7.88979E-002,-3.25130E-002,5.67240E-001,7.93034E-002,1.08201E+000,-1.93772E-002,0.00000E+000,2.04456E-002,9.70226E-001,0.00000E+000,-1.48810E-002,-7.04636E-002,1.00000E+000,12
959,1337,4.69148E+000,3.03142E-001,-3.14024E-002,3.02699E+000,-3.96441E-001,-8.84847E-003,3.05286E+000,1.17291E-002,4.64279E-001,0,4.64210E+001,-6.53119E+000,9.99313E-001,2.94551E+000,-4.06889E+001,9.98707E-001,7.78259E-002,-3.25013E-002,1.08351E-003,7.78366E-002,-3.25119E-002,5.62623E-001,7.81873E-002,1.08083E+000,-1.94152E-002,0.00000E+000,2.02957E-002,9.70222E-001,0.00000E+000,-1.24851E-002,-7.03865E-002,1.00000E+000,12
959,1307,4.68346E+000,-1.55988E+000,1.13410E-001,3.06051E+000,-3.26362E-001,1.29841E-001,3.08060E+000,7.94339E-003,4.99963E-001,0,4.64540E+001,-5.72575E+000,9.99379E-001,2.83023E+000,-3.97758E+001,9.98789E-001,8.09741E-002,-3.25031E-002,1.12413E-003,8.09852E-002,-3.25143E-002,5.67508E-001,8.15076E-002,1.08435E+000,-1.93388E-002,0.00000E+000,2.07432E-002,9.70231E-001,0.00000E+000,-1.96387E-002,-7.05415E-002,1.00000E+000,12
959,1347,4.70809E+000,9.33422E-001,-2.69434E-002,3.01898E+000,-4.17952E-001,-5.09631E-002,3.04820E+000,7.85903E-003,4.80251E-001,0,4.64381E+001,-6.79294E+000,9.99380E-001,3.31276E+000,-4.09533E+001,9.98948E-001,7.67563E-002,-3.25004E-002,1.06042E-003,7.67666E-002,-3.25107E-002,5.56029E-001,7.70655E-002,1.07965E+000,-1.94605E-002,0.00000E+000,2.01456E-002,9.70216E-001,0.00000E+000,-1.00852E-002,-7.02945E-002,1.00000E+000,12
909,1347,1.17263E+000,8.47766E-001,-3.48650E-002,2.75816E+000,-4.64956E-001,-5.77726E-003,2.79709E+000,1.13696E-002,5.18914E-001,0,4.24618E+001,-7.59918E+000,9.99530E-001,-1.32750E+000,-4.27295E+001,9.98380E-001,7.74484E-002,-3.34548E-002,-1.42619E-003,7.74667E-002,-3.34732E-002,-7.36650E-001,7.77045E-002,1.08047E+000,-1.19195E-002,0.00000E+000,8.22131E-003,9.69911E-001,0.00000E+000,-4.70802E-003,-7.67245E-002,1.00000E+000,12
899,1327,4.37504E-001,-4.22233E-001,-2.26805E-003,2.71607E+000,-4.31349E-001,9.54324E-002,2.75176E+000,5.51832E-003,5.08907E-001,0,4.15189E+001,-7.27087E+000,9.99305E-001,-2.81998E+000,-4.25075E+001,9.99125E-001,8.06975E-002,-3.35433E-002,-1.49251E-003,8.07170E-002,-3.35628E-002,-7.48377E-001,8.10976E-002,1.08400E+000,-1.02533E-002,0.00000E+000,6.56164E-003,9.69875E-001,0.00000E+000,-4.50021E-003,-7.72344E-002,1.00000E+000,12
899,1337,4.52145E-001,2.05156E-001,-3.67799E-002,2.71243E+000,-4.51066E-001,3.89352E-002,2.74996E+000,8.96283E-003,5.17814E-001,0,4.16475E+001,-7.46136E+000,9.99677E-001,-2.56149E+000,-4.27422E+001,9.99438E-001,7.93906E-002,-3.35534E-002,-1.65638E-003,7.94149E-002,-3.35776E-002,-8.40032E-001,7.97297E-002,1.08259E+000,-1.02927E-002,0.00000E+000,6.25105E-003,9.69867E-001,0.00000E+000,-3.96209E-003,-7.72194E-002,1.00000E+000,12
899,1347,4.77456E-001,8.39585E-001,-2.15080E-002,2.71072E+000,-4.68863E-001,-9.04546E-003,2.75099E+000,7.79318E-003,5.01206E-001,0,4.17726E+001,-7.64506E+000,9.99631E-001,-2.02427E+000,-4.29911E+001,9.99224E-001,7.80765E-002,-3.35671E-002,-1.82952E-003,7.81065E-002,-3.35971E-002,-9.38579E-001,7.83602E-002,1.08116E+000,-1.03509E-002,0.00000E+000,5.93921E-003,9.69854E-001,0.00000E+000,-3.42183E-003,-7.71974E-002,1.00000E+000,12
899,1317,4.31473E-001,-1.04146E+000,5.71534E-002,2.72270E+000,-4.07285E-001,1.50407E-001,2.75710E+000,7.56484E-003,5.17160E-001,0,4.14373E+001,-7.01990E+000,9.99266E-001,-2.88775E+000,-4.21922E+001,9.98214E-001,8.19981E-002,-3.35356E-002,-1.33472E-003,8.20136E-002,-3.35510E-002,-6.61798E-001,8.24642E-002,1.08542E+000,-1.02259E-002,0.00000E+000,6.87120E-003,9.69881E-001,0.00000E+000,-5.03653E-003,-7.72448E-002,1.00000E+000,12
899,1307,4.30412E-001,-1.65374E+000,1.40926E-001,2.72864E+000,-3.80620E-001,2.03144E-001,2.76253E+000,8.44902E-003,4.51740E-001,0,4.13491E+001,-6.67788E+000,9.99175E-001,-2.82185E+000,-4.18579E+001,9.97063E-001,8.32913E-002,-3.35302E-002,-1.18313E-003,8.33033E-002,-3.35422E-002,-5.80194E-001,8.38280E-002,1.08682E+000,-1.02106E-002,0.00000E+000,7.17945E-003,9.69885E-001,0.00000E+000,-5.57058E-003,-7.72506E-002,1.00000E+000,12
889,1327,-2.64624E-001,-4.29478E-001,7.14556E-003,2.66196E+000,-4.34896E-001,9.32797E-002,2.69887E+000,4.61780E-003,5.19711E-001,0,4.07251E+001,-7.31408E+000,9.99525E-001,-3.63117E+000,-4.27290E+001,9.99435E-001,8.11364E-002,-3.30378E-002,-2.00501E-003,8.11716E-002,-3.30730E-002,-1.00576E+000,8.16339E-002,1.08449E+000,-8.89056E-003,0.00000E+000,4.17678E-003,9.70457E-001,0.00000E+000,-2.08924E-003,-7.82706E-002,1.00000E+000,12
889,1337,-2.53944E-001,1.98120E-001,-2.69929E-002,2.65565E+000,-4.52778E-001,4.23937E-002,2.69430E+000,7.94762E-003,5.16885E-001,0,4.07927E+001,-7.49211E+000,9.99668E-001,-3.43203E+000,-4.29697E+001,9.99397E-001,7.98725E-002,-3.30390E-002,-2.04403E-003,7.99095E-002,-3.30760E-002,-1.03677E+000,8.03032E-002,1.08312E+000,-8.92593E-003,0.00000E+000,4.17318E-003,9.70457E-001,0.00000E+000,-2.49139E-003,-7.82810E-002,1.00000E+000,12
889,1347,-2.28059E-001,8.30012E-001,-1.62758E-002,2.65529E+000,-4.72380E-001,-7.48903E-003,2.69699E+000,6.89205E-003,4.88470E-001,0,4.09448E+001,-7.69565E+000,9.99560E-001,-2.89482E+000,-4.32554E+001,9.99186E-001,7.86002E-002,-3.30408E-002,-2.09199E-003,7.86393E-002,-3.30800E-002,-1.07314E+000,7.89687E-002,1.08174E+000,-8.98033E-003,0.00000E+000,4.16956E-003,9.70457E-001,0.00000E+000,-2.89566E-003,-7.82969E-002,1.00000E+000,12
969,1297,5.41049E+000,-2.15004E+000,2.04481E-001,3.13287E+000,-2.86732E-001,1.50757E-001,3.14957E+000,1.21977E-002,4.73778E-001,0,4.74375E+001,-5.14377E+000,9.99560E-001,4.17410E+000,-3.90139E+001,9.98384E-001,8.14414E-002,-3.23213E-002,1.09721E-003,8.14520E-002,-3.23319E-002,5.52532E-001,8.20267E-002,1.08489E+000,-2.06597E-002,0.00000E+000,2.19941E-002,9.70252E-001,0.00000E+000,-2.21310E-002,-6.85646E-002,1.00000E+000,12
969,1307,5.39421E+000,-1.54243E+000,1.05841E-001,3.11459E+000,-3.16559E-001,1.07862E-001,3.13249E+000,1.91893E-002,4.86894E-001,0,4.73160E+001,-5.52349E+000,9.99300E-001,3.81064E+000,-3.94051E+001,9.97706E-001,8.05426E-002,-3.23199E-002,1.11811E-003,8.05536E-002,-3.23309E-002,5.67547E-001,8.10745E-002,1.08386E+000,-2.06628E-002,0.00000E+000,2.18950E-002,9.70251E-001,0.00000E+000,-1.97466E-002,-6.85573E-002,1.00000E+000,12
969,1317,5.39087E+000,-9.26831E-001,3.97248E-002,3.10163E+000,-3.41822E-001,6.31283E-002,3.12104E+000,7.87176E-003,4.61148E-001,0,4.72764E+001,-5.83139E+000,9.99691E-001,3.71727E+000,-3.97595E+001,9.99128E-001,7.96358E-002,-3.23176E-002,1.13345E-003,7.96472E-002,-3.23291E-002,5.80001E-001,8.01160E-002,1.08284E+000,-2.06784E-002,0.00000E+000,2.17956E-002,9.70250E-001,0.00000E+000,-1.73580E-002,-6.85212E-002,1.00000E+000,12
889,1317,-2.72347E-001,-1.04779E+000,6.70575E-002,2.66633E+000,-4.10538E-001,1.46594E-001,2.70173E+000,6.77023E-003,5.37661E-001,0,4.06151E+001,-7.05798E+000,9.99539E-001,-3.72406E+000,-4.23941E+001,9.99064E-001,8.23959E-002,-3.30369E-002,-1.97073E-003,8.24296E-002,-3.30705E-002,-9.77804E-001,8.29643E-002,1.08585E+000,-8.86529E-003,0.00000E+000,4.18037E-003,9.70457E-001,0.00000E+000,-1.68798E-003,-7.82632E-002,1.00000E+000,12
969,1327,5.39216E+000,-3.01995E-001,-5.84425E-003,3.08988E+000,-3.60445E-001,2.36561E-002,3.11092E+000,8.14510E-003,4.84992E-001,0,4.72329E+001,-6.06741E+000,9.99663E-001,3.73980E+000,-3.99907E+001,9.99359E-001,7.87203E-002,-3.23151E-002,1.14616E-003,7.87321E-002,-3.23269E-002,5.91348E-001,7.91505E-002,1.08181E+000,-2.06994E-002,0.00000E+000,2.16961E-002,9.70248E-001,0.00000E+000,-1.49636E-002,-6.84723E-002,1.00000E+000,12
889,1307,-2.75633E-001,-1.66045E+000,1.53106E-001,2.66934E+000,-3.85066E-001,1.98607E-001,2.70428E+000,9.23088E-003,4.89446E-001,0,4.04857E+001,-6.73877E+000,9.99322E-001,-3.68710E+000,-4.20604E+001,9.97876E-001,8.36481E-002,-3.30363E-002,-1.94206E-003,8.36804E-002,-3.30686E-002,-9.53262E-001,8.42912E-002,1.08721E+000,-8.85195E-003,0.00000E+000,4.18395E-003,9.70457E-001,0.00000E+000,-1.28852E-003,-7.82592E-002,1.00000E+000,12
969,1337,5.40052E+000,3.19651E-001,-3.30321E-002,3.07966E+000,-3.85362E-001,-2.23242E-002,3.10375E+000,9.01556E-003,4.15172E-001,0,4.72349E+001,-6.34926E+000,9.99513E-001,3.91047E+000,-4.03586E+001,9.99107E-001,7.77963E-002,-3.23120E-002,1.15463E-003,7.78084E-002,-3.23241E-002,6.00732E-001,7.81785E-002,1.08077E+000,-2.07294E-002,0.00000E+000,2.15963E-002,9.70245E-001,0.00000E+000,-1.25639E-002,-6.84025E-002,1.00000E+000,12
969,1347,5.41237E+000,9.57584E-001,-3.32841E-002,3.06814E+000,-4.00124E-001,-6.25013E-002,3.09475E+000,7.96427E-003,4.66266E-001,0,4.71910E+001,-6.50268E+000,9.99464E-001,4.19347E+000,-4.04759E+001,9.98866E-001,7.68590E-002,-3.23085E-002,1.15943E-003,7.68713E-002,-3.23208E-002,6.08426E-001,7.71949E-002,1.07973E+000,-2.07672E-002,0.00000E+000,2.14958E-002,9.70241E-001,0.00000E+000,-1.01467E-002,-6.83146E-002,1.00000E+000,12
879,1327,-9.63742E-001,-4.33485E-001,2.20810E-002,2.61034E+000,-4.35018E-001,9.59653E-002,2.64808E+000,6.60431E-003,5.22218E-001,0,3.99509E+001,-7.31559E+000,9.99598E-001,-4.37804E+000,-4.29165E+001,9.99347E-001,8.16123E-002,-3.32020E-002,-2.32722E-003,8.16595E-002,-3.32491E-002,-1.16072E+000,8.21273E-002,1.08501E+000,-7.73735E-003,0.00000E+000,2.39092E-003,9.70276E-001,0.00000E+000,-3.45488E-004,-7.78954E-002,1.00000E+000,12
879,1337,-9.53274E-001,1.91008E-001,-1.87793E-002,2.60447E+000,-4.55115E-001,4.08041E-002,2.64425E+000,6.39440E-003,5.06735E-001,0,4.00393E+001,-7.51717E+000,9.99428E-001,-4.19736E+000,-4.31987E+001,9.99201E-001,8.04253E-002,-3.32012E-002,-2.33152E-003,8.04731E-002,-3.32490E-002,-1.17500E+000,8.08766E-002,1.08373E+000,-7.76929E-003,0.00000E+000,2.48402E-003,9.70279E-001,0.00000E+000,-1.20556E-003,-7.79168E-002,1.00000E+000,12
879,1347,-9.30671E-001,8.24689E-001,-1.43172E-002,2.60233E+000,-4.73186E-001,-9.01314E-003,2.64502E+000,8.04200E-003,5.25425E-001,0,4.01630E+001,-7.69861E+000,9.99368E-001,-3.72340E+000,-4.34218E+001,9.99093E-001,7.92273E-002,-3.32001E-002,-2.34328E-003,7.92761E-002,-3.32489E-002,-1.19350E+000,7.96186E-002,1.08243E+000,-7.81749E-003,0.00000E+000,2.57781E-003,9.70282E-001,0.00000E+000,-2.07204E-003,-7.79490E-002,1.00000E+000,12
879,1307,-9.79934E-001,-1.66245E+000,1.71375E-001,2.61084E+000,-3.84943E-001,1.97404E-001,2.64644E+000,9.90543E-003,5.05299E-001,0,3.96203E+001,-6.72905E+000,9.99053E-001,-4.50572E+000,-4.22139E+001,9.98093E-001,8.39699E-002,-3.32029E-002,-2.33283E-003,8.40163E-002,-3.32493E-002,-1.14012E+000,8.46229E-002,1.08758E+000,-7.70432E-003,0.00000E+000,2.20554E-003,9.70274E-001,0.00000E+000,1.36715E-003,-7.78733E-002,1.00000E+000,12
879,1317,-9.73196E-001,-1.05185E+000,8.43730E-002,2.61269E+000,-4.10356E-001,1.50720E-001,2.64901E+000,7.12547E-003,4.66709E-001,0,3.98064E+001,-7.03166E+000,9.99529E-001,-4.49184E+000,-4.26223E+001,9.98980E-001,8.27968E-002,-3.32026E-002,-2.32699E-003,8.28435E-002,-3.32492E-002,-1.14876E+000,8.33792E-002,1.08630E+000,-7.71415E-003,0.00000E+000,2.29786E-003,9.70275E-001,0.00000E+000,5.14217E-004,-7.78799E-002,1.00000E+000,12
979,1307,6.11919E+000,-1.52051E+000,1.22478E-001,3.17922E+000,-3.04342E-001,9.59371E-002,3.19520E+000,1.13520E-002,4.70795E-001,0,4.83009E+001,-5.30484E+000,9.99834E-001,5.06653E+000,-3.90168E+001,9.99455E-001,8.01534E-002,-3.21413E-002,1.07862E-003,8.01638E-002,-3.21516E-002,5.50275E-001,8.06851E-002,1.08340E+000,-2.17738E-002,0.00000E+000,2.27236E-002,9.70251E-001,0.00000E+000,-1.88964E-002,-6.61962E-002,1.00000E+000,12
979,1317,6.10814E+000,-9.02670E-001,4.74508E-002,3.16007E+000,-3.26963E-001,4.94860E-002,3.17733E+000,5.81594E-003,4.61938E-001,0,4.81739E+001,-5.57032E+000,9.99716E-001,4.83547E+000,-3.93085E+001,9.99338E-001,7.94526E-002,-3.21379E-002,1.11746E-003,7.94638E-002,-3.21490E-002,5.73678E-001,7.99447E-002,1.08260E+000,-2.17839E-002,0.00000E+000,2.26772E-002,9.70250E-001,0.00000E+000,-1.66579E-002,-6.61678E-002,1.00000E+000,12
979,1327,6.10435E+000,-2.81344E-001,-6.53137E-003,3.14404E+000,-3.48321E-001,5.59139E-003,3.16328E+000,6.62417E-003,4.63267E-001,0,4.80830E+001,-5.83424E+000,9.99388E-001,4.76093E+000,-3.95862E+001,9.98779E-001,7.87452E-002,-3.21338E-002,1.15386E-003,7.87572E-002,-3.21458E-002,5.96162E-001,7.91988E-002,1.08180E+000,-2.17993E-002,0.00000E+000,2.26308E-002,9.70249E-001,0.00000E+000,-1.44161E-002,-6.61247E-002,1.00000E+000,12
979,1337,6.10834E+000,3.44790E-001,-3.85312E-002,3.13162E+000,-3.67913E-001,-3.48513E-002,3.15335E+000,9.22630E-003,4.45253E-001,0,4.80324E+001,-6.06505E+000,9.98997E-001,4.85334E+000,-3.98473E+001,9.98365E-001,7.80305E-002,-3.21290E-002,1.18782E-003,7.80433E-002,-3.21418E-002,6.17711E-001,7.84465E-002,1.08100E+000,-2.18199E-002,0.00000E+000,2.25842E-002,9.70248E-001,0.00000E+000,-1.21681E-002,-6.60670E-002,1.00000E+000,12
979,1347,6.12020E+000,9.81328E-001,-3.06545E-002,3.11860E+000,-3.83814E-001,-7.30014E-002,3.14297E+000,9.83137E-003,4.56538E-001,0,4.79591E+001,-6.24210E+000,9.98646E-001,5.15171E+000,-4.00223E+001,9.97674E-001,7.73056E-002,-3.21229E-002,1.21699E-003,7.73192E-002,-3.21364E-002,6.37101E-001,7.76852E-002,1.08019E+000,-2.18512E-002,0.00000E+000,2.25374E-002,9.70246E-001,0.00000E+000,-9.90546E-003,-6.59793E-002,1.00000E+000,12
979,1297,6.12275E+000,-2.12911E+000,2.00944E-001,3.18930E+000,-2.73023E-001,1.38648E-001,3.20397E+000,1.00859E-002,4.70874E-001,0,4.82986E+001,-4.89830E+000,9.99632E-001,5.19046E+000,-3.85946E+001,9.99030E-001,8.08487E-002,-3.21445E-002,1.03875E-003,8.08582E-002,-3.21540E-002,5.26662E-001,8.14209E-002,1.08420E+000,-2.17656E-002,0.00000E+000,2.27699E-002,9.70251E-001,0.00000E+000,-2.11345E-002,-6.62190E-002,1.00000E+000,12
869,1317,-1.68144E+000,-1.05440E+000,8.09910E-002,2.55283E+000,-4.08884E-001,1.41864E-001,2.58926E+000,6.41116E-003,4.83718E-001,0,3.89435E+001,-6.98013E+000,9.99483E-001,-5.41734E+000,-4.27401E+001,9.98710E-001,8.30322E-002,-3.34095E-002,-2.42447E-003,8.30826E-002,-3.34600E-002,-1.19228E+000,8.36050E-002,1.08657E+000,-6.41551E-003,0.00000E+000,8.42754E-004,9.70044E-001,0.00000E+000,2.01307E-003,-7.74505E-002,1.00000E+000,12
869,1327,-1.67099E+000,-4.36380E-001,2.18335E-002,2.55196E+000,-4.32456E-001,9.18840E-002,2.58997E+000,6.92658E-003,5.22079E-001,0,3.90938E+001,-7.26413E+000,9.99535E-001,-5.28059E+000,-4.30565E+001,9.99011E-001,8.20003E-002,-3.34089E-002,-2.41955E-003,8.20510E-002,-3.34596E-002,-1.20050E+000,8.25148E-002,1.08544E+000,-6.43498E-003,0.00000E+000,9.67812E-004,9.70047E-001,0.00000E+000,7.78532E-004,-7.74719E-002,1.00000E+000,12
869,1337,-1.65639E+000,1.85823E-001,-1.23825E-002,2.54975E+000,-4.55603E-001,4.05218E-002,2.59046E+000,7.37591E-003,5.13011E-001,0,3.92258E+001,-7.51624E+000,9.99197E-001,-5.02050E+000,-4.33865E+001,9.98933E-001,8.09624E-002,-3.34079E-002,-2.41887E-003,8.10136E-002,-3.34591E-002,-1.21105E+000,8.14213E-002,1.08432E+000,-6.46365E-003,0.00000E+000,1.09330E-003,9.70050E-001,0.00000E+000,-4.60251E-004,-7.75034E-002,1.00000E+000,12
869,1347,-1.63621E+000,8.18617E-001,-2.01114E-002,2.54792E+000,-4.71227E-001,-9.47911E-003,2.59115E+000,9.88040E-003,5.10405E-001,0,3.93541E+001,-7.66944E+000,9.99393E-001,-4.61070E+000,-4.36092E+001,9.99091E-001,7.99194E-002,-3.34068E-002,-2.42226E-003,7.99711E-002,-3.34585E-002,-1.22391E+000,8.03255E-002,1.08319E+000,-6.50110E-003,0.00000E+000,1.21910E-003,9.70054E-001,0.00000E+000,-1.70208E-003,-7.75445E-002,1.00000E+000,12
869,1307,-1.68513E+000,-1.66327E+000,1.80107E-001,2.55349E+000,-3.81716E-001,1.98253E-001,2.58946E+000,8.39204E-003,5.17396E-001,0,3.87647E+001,-6.67854E+000,9.99121E-001,-5.35515E+000,-4.23310E+001,9.98405E-001,8.40557E-002,-3.34098E-002,-2.43473E-003,8.41062E-002,-3.34603E-002,-1.18690E+000,8.46894E-002,1.08768E+000,-6.40783E-003,0.00000E+000,7.18390E-004,9.70044E-001,0.00000E+000,3.24076E-003,-7.74420E-002,1.00000E+000,12
989,1307,6.82656E+000,-1.49436E+000,1.08373E-001,3.22978E+000,-2.85156E-001,7.12235E-002,3.24313E+000,8.81367E-003,4.76833E-001,0,4.91147E+001,-4.96362E+000,9.99492E-001,5.99046E+000,-3.84886E+001,9.98930E-001,7.97616E-002,-3.21324E-002,9.47852E-004,7.97696E-002,-3.21405E-002,4.85305E-001,8.02693E-002,1.08294E+000,-2.25161E-002,0.00000E+000,2.30127E-002,9.70116E-001,0.00000E+000,-1.74297E-002,-6.40732E-002,1.00000E+000,12
989,1317,6.81254E+000,-8.73811E-001,3.37097E-002,3.20879E+000,-3.06225E-001,3.06567E-002,3.22351E+000,8.52871E-003,5.18490E-001,0,4.89403E+001,-5.21640E+000,9.99697E-001,5.71423E+000,-3.87126E+001,9.99020E-001,7.92647E-002,-3.21270E-002,1.02254E-003,7.92741E-002,-3.21364E-002,5.25900E-001,7.97458E-002,1.08236E+000,-2.25223E-002,0.00000E+000,2.30396E-002,9.70116E-001,0.00000E+000,-1.52867E-002,-6.40498E-002,1.00000E+000,12
989,1327,6.81606E+000,-2.53110E-001,-7.94820E-003,3.19800E+000,-3.30508E-001,-9.50069E-003,3.21505E+000,1.15607E-002,5.25357E-001,0,4.89173E+001,-5.52435E+000,9.99309E-001,5.77765E+000,-3.90211E+001,9.98313E-001,7.87621E-002,-3.21197E-002,1.09432E-003,7.87729E-002,-3.21305E-002,5.65392E-001,7.92172E-002,1.08179E+000,-2.25351E-002,0.00000E+000,2.30665E-002,9.70117E-001,0.00000E+000,-1.31397E-002,-6.40019E-002,1.00000E+000,12
989,1297,6.83826E+000,-2.10869E+000,1.96591E-001,3.24719E+000,-2.59310E-001,1.19778E-001,3.25973E+000,8.47802E-003,4.75542E-001,0,4.92041E+001,-4.66339E+000,9.99355E-001,6.25934E+000,-3.81773E+001,9.98652E-001,8.02529E-002,-3.21375E-002,8.72654E-004,8.02596E-002,-3.21443E-002,4.44837E-001,8.07876E-002,1.08351E+000,-2.25110E-002,0.00000E+000,2.29860E-002,9.70116E-001,0.00000E+000,-1.95692E-002,-6.40922E-002,1.00000E+000,12
989,1337,6.82041E+000,3.70444E-001,-3.06494E-002,3.18307E+000,-3.52573E-001,-5.29746E-002,3.20297E+000,8.52402E-003,4.56056E-001,0,4.88395E+001,-5.79398E+000,9.98758E-001,5.89363E+000,-3.93665E+001,9.98497E-001,7.82555E-002,-3.21111E-002,1.16380E-003,7.82677E-002,-3.21234E-002,6.04085E-001,7.86853E-002,1.08122E+000,-2.25524E-002,0.00000E+000,2.30933E-002,9.70118E-001,0.00000E+000,-1.09957E-002,-6.39373E-002,1.00000E+000,12
989,1347,6.83117E+000,1.00539E+000,-2.47044E-002,3.17104E+000,-3.67905E-001,-8.30666E-002,3.19340E+000,8.76825E-003,4.56187E-001,0,4.87548E+001,-5.98966E+000,9.99450E-001,6.16904E+000,-3.95662E+001,9.99257E-001,7.77411E-002,-3.21016E-002,1.23204E-003,7.77549E-002,-3.21154E-002,6.42547E-001,7.81460E-002,1.08064E+000,-2.25728E-002,0.00000E+000,2.31203E-002,9.70119E-001,0.00000E+000,-8.83956E-003,-6.38609E-002,1.00000E+000,12
859,1327,-2.37570E+000,-4.37619E-001,1.94022E-002,2.49548E+000,-4.29010E-001,8.47179E-002,2.53351E+000,6.74262E-003,5.21179E-001,0,3.82742E+001,-7.18226E+000,9.99267E-001,-6.14481E+000,-4.31665E+001,9.98850E-001,8.22662E-002,-3.35320E-002,-2.40278E-003,8.23160E-002,-3.35818E-002,-1.18819E+000,8.27796E-002,1.08574E+000,-5.29576E-003,0.00000E+000,-4.99014E-005,9.69878E-001,0.00000E+000,1.28667E-003,-7.68031E-002,1.00000E+000,12
859,1337,-2.35889E+000,1.84810E-001,-1.38055E-002,2.49579E+000,-4.50873E-001,3.50209E-002,2.53643E+000,7.54567E-003,5.19964E-001,0,3.84379E+001,-7.43362E+000,9.99255E-001,-5.84745E+000,-4.34927E+001,9.98843E-001,8.14116E-002,-3.35321E-002,-2.41666E-003,8.14624E-002,-3.35829E-002,-1.20392E+000,8.18795E-002,1.08481E+000,-5.31900E-003,0.00000E+000,5.75429E-005,9.69881E-001,0.00000E+000,-1.92481E-004,-7.68401E-002,1.00000E+000,12
859,1347,-2.33759E+000,8.13411E-001,-1.33910E-002,2.49462E+000,-4.70966E-001,-9.93136E-003,2.53871E+000,1.07126E-002,5.04940E-001,0,3.85604E+001,-7.66049E+000,9.99536E-001,-5.40053E+000,-4.38058E+001,9.99193E-001,8.05505E-002,-3.35323E-002,-2.43445E-003,8.06024E-002,-3.35842E-002,-1.22191E+000,8.09747E-002,1.08388E+000,-5.35052E-003,0.00000E+000,1.65439E-004,9.69884E-001,0.00000E+000,-1.67785E-003,-7.68903E-002,1.00000E+000,12
859,1307,-2.39040E+000,-1.66197E+000,1.84381E-001,2.49605E+000,-3.77981E-001,1.96721E-001,2.53216E+000,1.08806E-002,6.09236E-001,0,3.79141E+001,-6.62566E+000,9.99232E-001,-6.21164E+000,-4.23664E+001,9.98627E-001,8.39560E-002,-3.35319E-002,-2.38648E-003,8.40045E-002,-3.35803E-002,-1.16318E+000,8.45655E-002,1.08759E+000,-5.27394E-003,0.00000E+000,-2.63428E-004,9.69875E-001,0.00000E+000,4.22620E-003,-7.67684E-002,1.00000E+000,12
859,1317,-2.38450E+000,-1.05604E+000,8.38640E-002,2.49760E+000,-4.07509E-001,1.38629E-001,2.53443E+000,7.97876E-003,5.20346E-001,0,3.81320E+001,-6.93902E+000,9.99259E-001,-6.24397E+000,-4.28471E+001,9.98259E-001,8.31143E-002,-3.35319E-002,-2.39252E-003,8.31633E-002,-3.35810E-002,-1.17453E+000,8.36749E-002,1.08666E+000,-5.28028E-003,0.00000E+000,-1.56881E-004,9.69876E-001,0.00000E+000,2.75942E-003,-7.67785E-002,1.00000E+000,12
999,1337,7.52775E+000,3.91752E-001,-3.32770E-002,3.23542E+000,-3.35701E-001,-5.48556E-002,3.25325E+000,8.25793E-003,4.24373E-001,0,4.96049E+001,-5.54533E+000,9.99620E-001,6.84268E+000,-3.89517E+001,9.99085E-001,7.83448E-002,-3.21292E-002,1.02059E-003,7.83542E-002,-3.21386E-002,5.29257E-001,7.87746E-002,1.08129E+000,-2.29911E-002,0.00000E+000,2.30861E-002,9.69956E-001,0.00000E+000,-9.36364E-003,-6.16083E-002,1.00000E+000,12
999,1347,7.54263E+000,1.02836E+000,-2.13895E-002,3.22506E+000,-3.52513E-001,-8.87871E-002,3.24549E+000,6.81676E-003,4.17940E-001,0,4.95592E+001,-5.72972E+000,9.99768E-001,7.19226E+000,-3.91399E+001,9.99279E-001,7.80268E-002,-3.21187E-002,1.09651E-003,7.80377E-002,-3.21296E-002,5.70312E-001,7.84421E-002,1.08093E+000,-2.30051E-002,0.00000E+000,2.31348E-002,9.69958E-001,0.00000E+000,-7.39806E-003,-6.15320E-002,1.00000E+000,12
999,1307,7.53667E+000,-1.47082E+000,1.02876E-001,3.28265E+000,-2.68655E-001,5.53430E-002,3.29409E+000,5.99509E-003,4.72135E-001,0,4.99333E+001,-4.67688E+000,9.99549E-001,6.97848E+000,-3.80245E+001,9.99287E-001,7.92663E-002,-3.21506E-002,7.85087E-004,7.92718E-002,-3.21561E-002,4.03702E-001,7.97410E-002,1.08235E+000,-2.29700E-002,0.00000E+000,2.29415E-002,9.69953E-001,0.00000E+000,-1.52008E-002,-6.17243E-002,1.00000E+000,12
999,1317,7.52626E+000,-8.51126E-001,3.59527E-002,3.26488E+000,-2.90202E-001,2.10277E-002,3.27782E+000,1.02069E-002,5.00120E-001,0,4.97869E+001,-4.95707E+000,9.99140E-001,6.77381E+000,-3.82828E+001,9.97242E-001,7.89631E-002,-3.21449E-002,8.64997E-004,7.89699E-002,-3.21516E-002,4.46022E-001,7.94226E-002,1.08200E+000,-2.29740E-002,0.00000E+000,2.29897E-002,9.69954E-001,0.00000E+000,-1.32562E-002,-6.17020E-002,1.00000E+000,12
999,1327,7.52638E+000,-2.34757E-001,-1.36677E-002,3.25214E+000,-3.17509E-001,-2.02713E-002,3.26767E+000,1.22545E-002,5.02107E-001,0,4.97411E+001,-5.31553E+000,9.99308E-001,6.76708E+000,-3.86423E+001,9.98000E-001,7.86558E-002,-3.21377E-002,9.43551E-004,7.86638E-002,-3.21458E-002,4.87901E-001,7.91002E-002,1.08164E+000,-2.29811E-002,0.00000E+000,2.30379E-002,9.69955E-001,0.00000E+000,-1.13091E-002,-6.16631E-002,1.00000E+000,12
999,1297,7.54994E+000,-2.08869E+000,1.92864E-001,3.30126E+000,-2.46560E-001,1.03765E-001,3.31208E+000,6.68650E-003,4.90070E-001,0,5.00411E+001,-4.44141E+000,9.99288E-001,7.27431E+000,-3.77636E+001,9.97929E-001,7.95653E-002,-3.21557E-002,7.04667E-004,7.95698E-002,-3.21602E-002,3.61367E-001,8.00554E-002,1.08271E+000,-2.29670E-002,0.00000E+000,2.28934E-002,9.69953E-001,0.00000E+000,-1.71434E-002,-6.17405E-002,1.00000E+000,12
849,1337,-3.06267E+000,1.82923E-001,-8.68766E-003,2.43929E+000,-4.49467E-001,3.21868E-002,2.48057E+000,9.70407E-003,5.50539E-001,0,3.76019E+001,-7.39110E+000,9.99467E-001,-6.67472E+000,-4.36152E+001,9.99054E-001,8.17216E-002,-3.34812E-002,-2.22960E-003,8.17647E-002,-3.35243E-002,-1.10833E+000,8.22050E-002,1.08515E+000,-4.28579E-003,0.00000E+000,-4.91512E-004,9.69855E-001,0.00000E+000,-2.99560E-004,-7.58341E-002,1.00000E+000,12
849,1347,-3.04530E+000,8.07679E-001,-1.37193E-002,2.43701E+000,-4.70192E-001,-5.53788E-003,2.48196E+000,8.43704E-003,5.01433E-001,0,3.76847E+001,-7.64417E+000,9.99554E-001,-6.30013E+000,-4.39950E+001,9.99349E-001,8.10865E-002,-3.34817E-002,-2.24735E-003,8.11306E-002,-3.35258E-002,-1.12333E+000,8.15368E-002,1.08446E+000,-4.30621E-003,0.00000E+000,-3.94214E-004,9.69858E-001,0.00000E+000,-1.81666E-003,-7.58792E-002,1.00000E+000,12
849,1357,-3.01633E+000,1.44505E+000,2.61510E-002,2.43588E+000,-4.87896E-001,-4.90318E-002,2.48475E+000,7.30876E-003,4.99003E-001,0,3.77981E+001,-7.83179E+000,9.99582E-001,-5.63819E+000,-4.42582E+001,9.99380E-001,8.04422E-002,-3.34825E-002,-2.27023E-003,8.04874E-002,-3.35277E-002,-1.14116E+000,8.08601E-002,1.08377E+000,-4.33738E-003,0.00000E+000,-2.95911E-004,9.69862E-001,0.00000E+000,-3.34942E-003,-7.59479E-002,1.00000E+000,12
849,1327,-3.07488E+000,-4.36744E-001,2.67187E-002,2.44231E+000,-4.25255E-001,7.84957E-002,2.48030E+000,9.34533E-003,5.48793E-001,0,3.74999E+001,-7.10430E+000,9.99530E-001,-6.89622E+000,-4.32501E+001,9.99198E-001,8.23537E-002,-3.34808E-002,-2.21402E-003,8.23960E-002,-3.35231E-002,-1.09460E+000,8.28712E-002,1.08584E+000,-4.26990E-003,0.00000E+000,-5.88759E-004,9.69853E-001,0.00000E+000,1.21675E-003,-7.57990E-002,1.00000E+000,12
1009,1337,8.23977E+000,4.20832E-001,-3.92476E-002,3.29366E+000,-3.13411E-001,-5.24248E-002,3.30896E+000,1.05663E-002,4.64020E-001,0,5.04422E+001,-5.20586E+000,9.99650E-001,7.86205E+000,-3.83734E+001,9.99383E-001,7.83301E-002,-3.21286E-002,8.07468E-004,7.83360E-002,-3.21345E-002,4.18810E-001,7.87559E-002,1.08125E+000,-2.32078E-002,0.00000E+000,2.27584E-002,9.69847E-001,0.00000E+000,-7.75345E-003,-5.96670E-002,1.00000E+000,12
1009,1347,8.25127E+000,1.04452E+000,-2.63100E-002,3.27770E+000,-3.42753E-001,-9.44157E-002,3.29693E+000,6.99335E-003,4.20174E-001,0,5.03441E+001,-5.57690E+000,9.99873E-001,8.15788E+000,-3.87810E+001,9.99582E-001,7.81568E-002,-3.21197E-002,8.71281E-004,7.81637E-002,-3.21265E-002,4.52649E-001,7.85752E-002,1.08106E+000,-2.32162E-002,0.00000E+000,2.27978E-002,9.69849E-001,0.00000E+000,-6.10465E-003,-5.95974E-002,1.00000E+000,12
1009,1297,8.25776E+000,-2.06912E+000,1.84894E-001,3.35257E+000,-2.32239E-001,9.03562E-002,3.36182E+000,8.18163E-003,4.41358E-001,0,5.08267E+001,-4.18523E+000,9.98905E-001,8.22533E+000,-3.73797E+001,9.97900E-001,7.89910E-002,-3.21496E-002,5.44020E-004,7.89936E-002,-3.21522E-002,2.80447E-001,7.94476E-002,1.08204E+000,-2.31954E-002,0.00000E+000,2.26020E-002,9.69845E-001,0.00000E+000,-1.42953E-002,-5.97709E-002,1.00000E+000,12
1009,1307,8.24667E+000,-1.44998E+000,1.01009E-001,3.33612E+000,-2.52527E-001,4.80860E-002,3.34601E+000,7.89359E-003,4.31857E-001,0,5.07303E+001,-4.42224E+000,9.99343E-001,7.97604E+000,-3.76275E+001,9.99200E-001,7.88303E-002,-3.21454E-002,6.10451E-004,7.88336E-002,-3.21488E-002,3.15158E-001,7.92791E-002,1.08184E+000,-2.31970E-002,0.00000E+000,2.26410E-002,9.69845E-001,0.00000E+000,-1.26648E-002,-5.97573E-002,1.00000E+000,12
1009,1317,8.24039E+000,-8.30639E-001,3.21808E-002,3.32214E+000,-2.74531E-001,1.06405E-002,3.33348E+000,8.29128E-003,4.40556E-001,0,5.06536E+001,-4.69848E+000,9.99513E-001,7.83145E+000,-3.78948E+001,9.99146E-001,7.86666E-002,-3.21407E-002,6.76628E-004,7.86707E-002,-3.21448E-002,3.49851E-001,7.91076E-002,1.08165E+000,-2.31994E-002,0.00000E+000,2.26800E-002,9.69846E-001,0.00000E+000,-1.10311E-002,-5.97377E-002,1.00000E+000,12
849,1317,-3.08865E+000,-1.05098E+000,9.23171E-002,2.44072E+000,-3.98524E-001,1.40129E-001,2.47701E+000,1.04319E-002,5.96064E-001,0,3.72759E+001,-6.82550E+000,9.99332E-001,-7.06884E+000,-4.28433E+001,9.98594E-001,8.29811E-002,-3.34805E-002,-2.19996E-003,8.30226E-002,-3.35221E-002,-1.08180E+000,8.35336E-002,1.08652E+000,-4.25715E-003,0.00000E+000,-6.85698E-004,9.69851E-001,0.00000E+000,2.72824E-003,-7.57709E-002,1.00000E+000,12
1009,1327,8.23948E+000,-2.07383E-001,-4.94143E-003,3.30660E+000,-2.96902E-001,-2.53420E-002,3.32000E+000,8.59802E-003,4.63821E-001,0,5.05446E+001,-4.99218E+000,9.99669E-001,7.83416E+000,-3.81628E+001,9.99356E-001,7.84996E-002,-3.21345E-002,7.42039E-004,7.85046E-002,-3.21395E-002,3.84268E-001,7.89331E-002,1.08145E+000,-2.32038E-002,0.00000E+000,2.27192E-002,9.69847E-001,0.00000E+000,-9.39164E-003,-5.97006E-002,1.00000E+000,12
849,1307,-3.09745E+000,-1.66415E+000,1.82107E-001,2.43626E+000,-3.75475E-001,1.87645E-001,2.47216E+000,1.24604E-002,6.01553E-001,0,3.70507E+001,-6.56252E+000,9.99193E-001,-7.10683E+000,-4.24916E+001,9.98312E-001,8.36034E-002,-3.34804E-002,-2.18963E-003,8.36443E-002,-3.35213E-002,-1.07101E+000,8.41917E-002,1.08721E+000,-4.25246E-003,0.00000E+000,-7.82254E-004,9.69850E-001,0.00000E+000,4.23377E-003,-7.57606E-002,1.00000E+000,12
839,1337,-3.76664E+000,1.76278E-001,1.19376E-002,2.38194E+000,-4.51079E-001,4.33444E-002,2.42466E+000,1.96428E-002,5.56273E-001,0,3.67077E+001,-7.44478E+000,9.99470E-001,-7.46395E+000,-4.38575E+001,9.98879E-001,8.18402E-002,-3.34991E-002,-1.96943E-003,8.18738E-002,-3.35328E-002,-9.77949E-001,8.23190E-002,1.08528E+000,-3.49858E-003,0.00000E+000,-6.57523E-004,9.69740E-001,0.00000E+000,-7.12211E-004,-7.45015E-002,1.00000E+000,12
839,1347,-3.75053E+000,8.01140E-001,-1.11136E-002,2.38049E+000,-4.70448E-001,-2.89648E-003,2.42654E+000,7.47688E-003,5.05219E-001,0,3.68300E+001,-7.65128E+000,9.99554E-001,-7.15059E+000,-4.41993E+001,9.99195E-001,8.13149E-002,-3.34999E-002,-1.99066E-003,8.13494E-002,-3.35344E-002,-9.92995E-001,8.17661E-002,1.08471E+000,-3.51377E-003,0.00000E+000,-5.68805E-004,9.69742E-001,0.00000E+000,-2.30692E-003,-7.45441E-002,1.00000E+000,12
839,1357,-3.72050E+000,1.44062E+000,2.45989E-002,2.38155E+000,-4.85067E-001,-4.62305E-002,2.43089E+000,5.89904E-003,4.92530E-001,0,3.69753E+001,-7.78804E+000,9.99659E-001,-6.47928E+000,-4.44275E+001,9.99423E-001,8.07813E-002,-3.35012E-002,-2.01665E-003,8.08168E-002,-3.35368E-002,-1.01063E+000,8.12054E-002,1.08414E+000,-3.53873E-003,0.00000E+000,-4.79167E-004,9.69746E-001,0.00000E+000,-3.91816E-003,-7.46143E-002,1.00000E+000,12
1019,1337,8.95633E+000,4.46285E-001,-2.89887E-002,3.34987E+000,-2.98225E-001,-6.03632E-002,3.36366E+000,8.70425E-003,5.12968E-001,0,5.12835E+001,-4.96434E+000,9.99571E-001,8.98727E+000,-3.78816E+001,9.99480E-001,7.82717E-002,-3.21482E-002,5.64030E-004,7.82746E-002,-3.21511E-002,2.92660E-001,7.86892E-002,1.08118E+000,-2.34018E-002,0.00000E+000,2.23639E-002,9.69765E-001,0.00000E+000,-6.18743E-003,-5.84484E-002,1.00000E+000,12
1019,1347,8.96100E+000,1.06951E+000,-2.86807E-002,3.33268E+000,-3.25194E-001,-8.97989E-002,3.34971E+000,7.90028E-003,4.56971E-001,0,5.11250E+001,-5.31133E+000,9.99690E-001,9.15029E+000,-3.82742E+001,9.99591E-001,7.82020E-002,-3.21412E-002,6.24239E-004,7.82055E-002,-3.21448E-002,3.24122E-001,7.86171E-002,1.08109E+000,-2.34045E-002,0.00000E+000,2.24071E-002,9.69767E-001,0.00000E+000,-4.81820E-003,-5.84024E-002,1.00000E+000,12
839,1327,-3.78705E+000,-4.38144E-001,2.69201E-002,2.38111E+000,-4.19262E-001,9.13176E-002,2.41946E+000,1.72055E-002,5.76319E-001,0,3.65416E+001,-7.04436E+000,9.99627E-001,-7.86070E+000,-4.33556E+001,9.99000E-001,8.23639E-002,-3.34983E-002,-1.94744E-003,8.23966E-002,-3.35310E-002,-9.62682E-001,8.28709E-002,1.08585E+000,-3.48165E-003,0.00000E+000,-7.46440E-004,9.69737E-001,0.00000E+000,8.86083E-004,-7.44539E-002,1.00000E+000,12
1019,1327,8.95025E+000,-1.86594E-001,-1.55992E-002,3.36206E+000,-2.82369E-001,-3.29176E-002,3.37406E+000,8.30165E-003,4.50636E-001,0,5.13755E+001,-4.74073E+000,9.99589E-001,8.82888E+000,-3.77307E+001,9.99316E-001,7.83396E-002,-3.21544E-002,5.03567E-004,7.83419E-002,-3.21567E-002,2.61113E-001,7.87594E-002,1.08126E+000,-2.33995E-002,0.00000E+000,2.23207E-002,9.69764E-001,0.00000E+000,-7.55580E-003,-5.84868E-002,1.00000E+000,12
1019,1317,8.95269E+000,-8.11299E-001,3.68289E-002,3.37556E+000,-2.62456E-001,2.26861E-003,3.38575E+000,9.54151E-003,4.31546E-001,0,5.14545E+001,-4.50142E+000,9.99659E-001,8.88084E+000,-3.75177E+001,9.98998E-001,7.84054E-002,-3.21593E-002,4.42830E-004,7.84071E-002,-3.21611E-002,2.29474E-001,7.88277E-002,1.08134E+000,-2.33981E-002,0.00000E+000,2.22777E-002,9.69763E-001,0.00000E+000,-8.91987E-003,-5.85101E-002,1.00000E+000,12
839,1317,-3.79556E+000,-1.05310E+000,9.27832E-002,2.38057E+000,-3.94875E-001,1.32923E-001,2.41675E+000,9.03722E-003,5.47316E-001,0,3.63977E+001,-6.74316E+000,9.99341E-001,-7.95142E+000,-4.29960E+001,9.97993E-001,8.28818E-002,-3.34979E-002,-1.93015E-003,8.29138E-002,-3.35299E-002,-9.49900E-001,8.34175E-002,1.08642E+000,-3.47467E-003,0.00000E+000,-8.34858E-004,9.69736E-001,0.00000E+000,2.47540E-003,-7.44343E-002,1.00000E+000,12
1019,1297,8.96436E+000,-2.04814E+000,1.70195E-001,3.40357E+000,-2.16185E-001,7.62895E-002,3.41129E+000,9.32113E-003,4.62087E-001,0,5.16091E+001,-3.92767E+000,9.99572E-001,9.14786E+000,-3.69252E+001,9.98789E-001,7.85309E-002,-3.21679E-002,3.21286E-004,7.85319E-002,-3.21688E-002,1.66290E-001,7.89583E-002,1.08150E+000,-2.33961E-002,0.00000E+000,2.21919E-002,9.69762E-001,0.00000E+000,-1.16386E-002,-5.85446E-002,1.00000E+000,12
1019,1307,8.95342E+000,-1.42929E+000,9.03807E-002,3.38647E+000,-2.39058E-001,3.49991E-002,3.39508E+000,1.25674E-002,4.90891E-001,0,5.15010E+001,-4.20080E+000,9.99616E-001,8.90903E+000,-3.71652E+001,9.98799E-001,7.84690E-002,-3.21640E-002,3.82262E-004,7.84703E-002,-3.21653E-002,1.97967E-001,7.88938E-002,1.08142E+000,-2.33968E-002,0.00000E+000,2.22348E-002,9.69763E-001,0.00000E+000,-1.02776E-002,-5.85316E-002,1.00000E+000,12
839,1307,-3.80008E+000,-1.66329E+000,1.82207E-001,2.37988E+000,-3.69024E-001,1.77750E-001,2.41487E+000,7.88079E-003,5.05855E-001,0,3.62391E+001,-6.41362E+000,9.99231E-001,-7.92290E+000,-4.26186E+001,9.97728E-001,8.33953E-002,-3.34977E-002,-1.91455E-003,8.34266E-002,-3.35290E-002,-9.38091E-001,8.39602E-002,1.08698E+000,-3.47124E-003,0.00000E+000,-9.22980E-004,9.69735E-001,0.00000E+000,4.05940E-003,-7.44247E-002,1.00000E+000,12
829,1337,-4.47284E+000,1.74358E-001,4.06127E-003,2.32516E+000,-4.45127E-001,4.17923E-002,2.36776E+000,1.37882E-002,5.37070E-001,0,3.58607E+001,-7.34875E+000,9.99129E-001,-8.35047E+000,-4.39778E+001,9.98517E-001,8.16710E-002,-3.34805E-002,-1.68878E-003,8.16957E-002,-3.35053E-002,-8.40044E-001,8.21345E-002,1.08510E+000,-2.89681E-003,0.00000E+000,-6.11883E-004,9.69670E-001,0.00000E+000,-1.22889E-003,-7.32913E-002,1.00000E+000,12
829,1347,-4.45234E+000,7.99993E-001,-3.78087E-003,2.32569E+000,-4.66861E-001,-1.77358E-003,2.37208E+000,6.41963E-003,5.19755E-001,0,3.60037E+001,-7.59133E+000,9.99210E-001,-7.93169E+000,-4.43252E+001,9.98981E-001,8.12160E-002,-3.34843E-002,-1.75661E-003,8.12429E-002,-3.35112E-002,-8.77197E-001,8.16567E-002,1.08461E+000,-2.91176E-003,0.00000E+000,-6.09467E-004,9.69670E-001,0.00000E+000,-2.91566E-003,-7.33428E-002,1.00000E+000,12
829,1357,-4.42455E+000,1.43655E+000,2.36291E-002,2.32616E+000,-4.83287E-001,-4.63838E-002,2.37629E+000,6.29654E-003,5.12981E-001,0,3.61445E+001,-7.75383E+000,9.99533E-001,-7.31318E+000,-4.45793E+001,9.99451E-001,8.07555E-002,-3.34895E-002,-1.82741E-003,8.07847E-002,-3.35187E-002,-9.16166E-001,8.11737E-002,1.08412E+000,-2.93217E-003,0.00000E+000,-6.07037E-004,9.69671E-001,0.00000E+000,-4.61173E-003,-7.34130E-002,1.00000E+000,12
1029,1337,9.65803E+000,4.61904E-001,-3.90797E-002,3.39666E+000,-2.87092E-001,-6.33478E-002,3.40936E+000,8.15600E-003,4.78566E-001,0,5.19675E+001,-4.78613E+000,9.99401E-001,9.84495E+000,-3.75409E+001,9.98931E-001,7.82848E-002,-3.20498E-002,3.59487E-004,7.82859E-002,-3.20509E-002,1.86676E-001,7.87131E-002,1.08118E+000,-2.34665E-002,0.00000E+000,2.19303E-002,9.69824E-001,0.00000E+000,-4.52739E-003,-5.76578E-002,1.00000E+000,12
1029,1347,9.66447E+000,1.09483E+000,-3.87292E-002,3.38016E+000,-3.06163E-001,-9.65578E-002,3.39537E+000,7.58298E-003,4.98699E-001,0,5.18303E+001,-5.02523E+000,9.99545E-001,1.00347E+001,-3.77435E+001,9.99015E-001,7.83025E-002,-3.20422E-002,4.25813E-004,7.83042E-002,-3.20439E-002,2.21096E-001,7.87332E-002,1.08120E+000,-2.34660E-002,0.00000E+000,2.19915E-002,9.69826E-001,0.00000E+000,-3.33209E-003,-5.76159E-002,1.00000E+000,12
1029,1327,9.65867E+000,-1.66765E-001,-1.17260E-002,3.41304E+000,-2.67879E-001,-3.35144E-002,3.42370E+000,8.45681E-003,4.35824E-001,0,5.21111E+001,-4.53537E+000,9.99490E-001,9.81990E+000,-3.73464E+001,9.99051E-001,7.82656E-002,-3.20558E-002,2.93381E-004,7.82664E-002,-3.20566E-002,1.52367E-001,7.86918E-002,1.08117E+000,-2.34669E-002,0.00000E+000,2.18693E-002,9.69822E-001,0.00000E+000,-5.71891E-003,-5.76866E-002,1.00000E+000,12
829,1327,-4.49038E+000,-4.40749E-001,2.96277E-002,2.32322E+000,-4.16737E-001,8.13939E-002,2.36171E+000,1.22450E-002,5.42670E-001,0,3.57044E+001,-6.97922E+000,9.99561E-001,-8.67834E+000,-4.35145E+001,9.99137E-001,8.21211E-002,-3.34775E-002,-1.62279E-003,8.21438E-002,-3.35002E-002,-8.04117E-001,8.26078E-002,1.08559E+000,-2.88512E-003,0.00000E+000,-6.14289E-004,9.69670E-001,0.00000E+000,4.50959E-004,-7.32511E-002,1.00000E+000,12
829,1307,-4.49732E+000,-1.66947E+000,1.96587E-001,2.32857E+000,-3.70321E-001,1.82636E-001,2.36490E+000,9.65215E-003,4.59861E-001,0,3.54598E+001,-6.43111E+000,9.99327E-001,-8.61890E+000,-4.28591E+001,9.97690E-001,8.30077E-002,-3.34749E-002,-1.49800E-003,8.30269E-002,-3.34941E-002,-7.36680E-001,8.35417E-002,1.08656E+000,-2.87580E-003,0.00000E+000,-6.19076E-004,9.69670E-001,0.00000E+000,3.79353E-003,-7.32190E-002,1.00000E+000,12
829,1317,-4.49776E+000,-1.05723E+000,9.47508E-002,2.32508E+000,-3.93730E-001,1.28985E-001,2.36170E+000,1.03666E-002,5.03244E-001,0,3.55804E+001,-6.69866E+000,9.99380E-001,-8.75379E+000,-4.31800E+001,9.98727E-001,8.25666E-002,-3.34756E-002,-1.55924E-003,8.25875E-002,-3.34966E-002,-7.69688E-001,8.30769E-002,1.08607E+000,-2.87817E-003,0.00000E+000,-6.16686E-004,9.69670E-001,0.00000E+000,2.12501E-003,-7.32271E-002,1.00000E+000,12
1029,1317,9.66129E+000,-7.92775E-001,3.20557E-002,3.42704E+000,-2.50720E-001,-5.77325E-003,3.43620E+000,9.54659E-003,4.61422E-001,0,5.22247E+001,-4.31577E+000,9.99671E-001,9.85768E+000,-3.71141E+001,9.98945E-001,7.82452E-002,-3.20610E-002,2.27626E-004,7.82457E-002,-3.20615E-002,1.18234E-001,7.86694E-002,1.08115E+000,-2.34672E-002,0.00000E+000,2.18086E-002,9.69821E-001,0.00000E+000,-6.90403E-003,-5.77074E-002,1.00000E+000,12
1029,1307,9.66809E+000,-1.41080E+000,9.99253E-002,3.44264E+000,-2.27443E-001,3.49271E-002,3.45032E+000,9.30524E-003,5.07189E-001,0,5.23124E+001,-4.03680E+000,9.99688E-001,1.00085E+001,-3.68005E+001,9.97808E-001,7.82234E-002,-3.20657E-002,1.61971E-004,7.82236E-002,-3.20659E-002,8.41444E-002,7.86456E-002,1.08113E+000,-2.34674E-002,0.00000E+000,2.17481E-002,9.69821E-001,0.00000E+000,-8.08707E-003,-5.77236E-002,1.00000E+000,12
1029,1297,9.67754E+000,-2.02694E+000,1.76687E-001,3.45871E+000,-2.01851E-001,7.49105E-002,3.46541E+000,8.47669E-003,4.91583E-001,0,5.24076E+001,-3.71778E+000,9.99601E-001,1.02184E+001,-3.65072E+001,9.98134E-001,7.82002E-002,-3.20699E-002,9.61921E-005,7.82003E-002,-3.20699E-002,4.99809E-002,7.86205E-002,1.08112E+000,-2.34675E-002,0.00000E+000,2.16874E-002,9.69820E-001,0.00000E+000,-9.27208E-003,-5.77358E-002,1.00000E+000,12
819,1317,-5.19762E+000,-1.06479E+000,1.07005E-001,2.27076E+000,-3.96803E-001,1.31692E-001,2.30893E+000,1.00724E-002,4.85072E-001,0,3.47601E+001,-6.74355E+000,9.99316E-001,-9.49173E+000,-4.34259E+001,9.98121E-001,8.19803E-002,-3.33286E-002,-1.23748E-003,8.19936E-002,-3.33419E-002,-6.14795E-001,8.24686E-002,1.08543E+000,-2.46402E-003,0.00000E+000,-3.13335E-004,9.69708E-001,0.00000E+000,1.50621E-003,-7.17325E-002,1.00000E+000,12
819,1327,-5.19318E+000,-4.51027E-001,3.42146E-002,2.26827E+000,-4.20461E-001,8.73577E-002,2.30856E+000,1.05528E-002,4.92899E-001,0,3.48641E+001,-7.02987E+000,9.99505E-001,-9.48042E+000,-4.38038E+001,9.98264E-001,8.16009E-002,-3.33308E-002,-1.33321E-003,8.16164E-002,-3.33463E-002,-6.64510E-001,8.20699E-002,1.08502E+000,-2.46849E-003,0.00000E+000,-3.86548E-004,9.69707E-001,0.00000E+000,-4.76152E-005,-7.17494E-002,1.00000E+000,12
819,1337,-5.17693E+000,1.71684E-001,2.16264E-003,2.26972E+000,-4.41510E-001,4.46763E-002,2.31270E+000,8.05912E-003,5.17850E-001,0,3.50197E+001,-7.27824E+000,9.99242E-001,-9.18602E+000,-4.41226E+001,9.98853E-001,8.12165E-002,-3.33353E-002,-1.43189E-003,8.12344E-002,-3.33532E-002,-7.16042E-001,8.16663E-002,1.08461E+000,-2.47797E-003,0.00000E+000,-4.60238E-004,9.69705E-001,0.00000E+000,-1.61158E-003,-7.17851E-002,1.00000E+000,12
819,1307,-5.20317E+000,-1.67422E+000,1.90619E-001,2.26911E+000,-3.72183E-001,1.71693E-001,2.30583E+000,9.96222E-003,5.16936E-001,0,3.46041E+001,-6.43330E+000,9.99383E-001,-9.49260E+000,-4.29844E+001,9.98156E-001,8.23556E-002,-3.33272E-002,-1.14303E-003,8.23669E-002,-3.33385E-002,-5.66052E-001,8.28635E-002,1.08585E+000,-2.46148E-003,0.00000E+000,-2.40413E-004,9.69708E-001,0.00000E+000,3.05386E-003,-7.17230E-002,1.00000E+000,12
819,1347,-5.15440E+000,8.00585E-001,-2.33363E-003,2.27206E+000,-4.60314E-001,2.58105E-003,2.31822E+000,7.23837E-003,5.20970E-001,0,3.51842E+001,-7.48441E+000,9.99523E-001,-8.72595E+000,-4.44184E+001,9.99414E-001,8.08280E-002,-3.33413E-002,-1.53259E-003,8.08486E-002,-3.33619E-002,-7.68942E-001,8.12588E-002,1.08419E+000,-2.49088E-003,0.00000E+000,-5.34209E-004,9.69703E-001,0.00000E+000,-3.18150E-003,-7.18336E-002,1.00000E+000,12
819,1357,-5.12759E+000,1.43005E+000,3.10663E-002,2.27122E+000,-4.83798E-001,-3.88424E-002,2.32251E+000,8.53114E-003,5.17004E-001,0,3.52960E+001,-7.76843E+000,9.99429E-001,-8.10707E+000,-4.47954E+001,9.99293E-001,8.04349E-002,-3.33495E-002,-1.63606E-003,8.04585E-002,-3.33730E-002,-8.23605E-001,8.08470E-002,1.08377E+000,-2.50854E-003,0.00000E+000,-6.08545E-004,9.69700E-001,0.00000E+000,-4.75916E-003,-7.19001E-002,1.00000E+000,12
1039,1337,1.03676E+001,4.82951E-001,-4.80701E-002,3.44922E+000,-2.72890E-001,-7.20821E-002,3.46075E+000,7.62855E-003,4.91393E-001,0,5.27567E+001,-4.55169E+000,9.99593E-001,1.08310E+001,-3.70941E+001,9.98559E-001,7.83188E-002,-3.18648E-002,5.40289E-005,7.83188E-002,-3.18648E-002,2.80952E-002,7.87705E-002,1.08121E+000,-2.35077E-002,0.00000E+000,2.12872E-002,9.69983E-001,0.00000E+000,-2.92445E-003,-5.70722E-002,1.00000E+000,12
1039,1347,1.03723E+001,1.10822E+000,-4.40507E-002,3.43128E+000,-2.97534E-001,-9.98486E-002,3.44561E+000,7.45261E-003,4.22270E-001,0,5.25812E+001,-4.87600E+000,9.99764E-001,1.09988E+001,-3.74663E+001,9.99215E-001,7.84295E-002,-3.18600E-002,9.89576E-005,7.84296E-002,-3.18601E-002,5.14087E-002,7.88881E-002,1.08133E+000,-2.35036E-002,0.00000E+000,2.13102E-002,9.69984E-001,0.00000E+000,-1.86988E-003,-5.70357E-002,1.00000E+000,12
1039,1317,1.03689E+001,-7.69449E-001,2.85199E-002,3.47882E+000,-2.32170E-001,-5.29539E-003,3.48656E+000,7.21161E-003,4.38489E-001,0,5.29662E+001,-4.03251E+000,9.99592E-001,1.08270E+001,-3.66655E+001,9.99018E-001,7.80943E-002,-3.18720E-002,-3.44479E-005,7.80943E-002,-3.18720E-002,-1.79484E-002,7.85325E-002,1.08098E+000,-2.35128E-002,0.00000E+000,2.12412E-002,9.69982E-001,0.00000E+000,-5.03049E-003,-5.71178E-002,1.00000E+000,12
1039,1327,1.03678E+001,-1.47485E-001,-1.54274E-002,3.46551E+000,-2.53741E-001,-3.62623E-002,3.47498E+000,7.33155E-003,4.16188E-001,0,5.28768E+001,-4.31984E+000,9.99612E-001,1.08109E+001,-3.69566E+001,9.98707E-001,7.82067E-002,-3.18687E-002,9.48609E-006,7.82067E-002,-3.18687E-002,4.93764E-003,7.86516E-002,1.08109E+000,-2.35106E-002,0.00000E+000,2.12641E-002,9.69982E-001,0.00000E+000,-3.98153E-003,-5.70981E-002,1.00000E+000,12
1039,1307,1.03763E+001,-1.39219E+000,8.55807E-002,3.49555E+000,-2.12818E-001,2.64805E-002,3.50213E+000,7.58299E-003,4.66408E-001,0,5.31040E+001,-3.79056E+000,9.99580E-001,1.09659E+001,-3.64124E+001,9.98843E-001,7.79809E-002,-3.18750E-002,-7.81400E-005,7.79809E-002,-3.18751E-002,-4.07542E-002,7.84125E-002,1.08086E+000,-2.35145E-002,0.00000E+000,2.12183E-002,9.69982E-001,0.00000E+000,-6.07843E-003,-5.71329E-002,1.00000E+000,12
1039,1297,1.03870E+001,-2.01069E+000,1.66442E-001,3.51232E+000,-1.90088E-001,6.80934E-002,3.51811E+000,7.60122E-003,4.48869E-001,0,5.32036E+001,-3.51238E+000,9.99329E-001,1.12022E+001,-3.61669E+001,9.98758E-001,7.78663E-002,-3.18776E-002,-1.21596E-004,7.78664E-002,-3.18778E-002,-6.34835E-002,7.82915E-002,1.08074E+000,-2.35156E-002,0.00000E+000,2.11954E-002,9.69982E-001,0.00000E+000,-7.12644E-003,-5.71429E-002,1.00000E+000,12
1049,1337,1.10824E+001,5.01748E-001,-4.97023E-002,3.50601E+000,-2.58910E-001,-7.64379E-002,3.51639E+000,1.03404E-002,4.51013E-001,0,5.35928E+001,-4.34296E+000,9.99816E-001,1.19179E+001,-3.67243E+001,9.99225E-001,7.82941E-002,-3.18252E-002,-3.21130E-004,7.82951E-002,-3.18262E-002,-1.67084E-001,7.87502E-002,1.08119E+000,-2.34764E-002,0.00000E+000,2.04586E-002,9.69989E-001,0.00000E+000,-1.59253E-003,-5.61781E-002,1.00000E+000,12
1049,1347,1.10921E+001,1.13233E+000,-3.37271E-002,3.49053E+000,-2.82172E-001,-1.01780E-001,3.50339E+000,9.22787E-003,4.62814E-001,0,5.34446E+001,-4.65698E+000,9.99724E-001,1.21834E+001,-3.69983E+001,9.98784E-001,7.85212E-002,-3.18231E-002,-2.96268E-004,7.85220E-002,-3.18239E-002,-1.53834E-001,7.89902E-002,1.08143E+000,-2.34670E-002,0.00000E+000,2.04518E-002,9.69988E-001,0.00000E+000,-8.19737E-004,-5.61487E-002,1.00000E+000,12
1049,1307,1.10905E+001,-1.37060E+000,9.26154E-002,3.55005E+000,-1.96828E-001,2.29636E-002,3.55558E+000,1.03737E-002,4.08879E-001,0,5.38981E+001,-3.53714E+000,9.99589E-001,1.20603E+001,-3.60312E+001,9.98889E-001,7.76147E-002,-3.18296E-002,-3.88662E-004,7.76161E-002,-3.18309E-002,-2.03467E-001,7.80331E-002,1.08045E+000,-2.34899E-002,0.00000E+000,2.04789E-002,9.69989E-001,0.00000E+000,-3.89141E-003,-5.62206E-002,1.00000E+000,12
1049,1317,1.10815E+001,-7.47126E-001,3.80197E-002,3.53139E+000,-2.16299E-001,-7.63046E-003,3.53801E+000,9.55757E-003,4.11045E-001,0,5.37275E+001,-3.79198E+000,9.99386E-001,1.19018E+001,-3.62623E+001,9.97879E-001,7.78414E-002,-3.18282E-002,-3.66558E-004,7.78426E-002,-3.18295E-002,-1.91501E-001,7.82722E-002,1.08070E+000,-2.34862E-002,0.00000E+000,2.04722E-002,9.69989E-001,0.00000E+000,-3.12660E-003,-5.62091E-002,1.00000E+000,12
1049,1327,1.10778E+001,-1.28574E-001,-1.77941E-002,3.51850E+000,-2.40932E-001,-3.69080E-002,3.52693E+000,6.02559E-003,4.13359E-001,0,5.36419E+001,-4.12195E+000,9.99673E-001,1.18209E+001,-3.65669E+001,9.98349E-001,7.80676E-002,-3.18270E-002,-3.44565E-004,7.80687E-002,-3.18280E-002,-1.79644E-001,7.85109E-002,1.08094E+000,-2.34828E-002,0.00000E+000,2.04654E-002,9.69989E-001,0.00000E+000,-2.36130E-003,-5.61983E-002,1.00000E+000,12
809,1347,-5.86247E+000,7.89313E-001,-4.61276E-003,2.21232E+000,-4.64088E-001,4.70511E-003,2.26048E+000,6.56416E-003,5.16412E-001,0,3.42796E+001,-7.55017E+000,9.99711E-001,-9.61979E+000,-4.46900E+001,9.99484E-001,8.04081E-002,-3.31909E-002,-1.30826E-003,8.04231E-002,-3.32059E-002,-6.59731E-001,8.08290E-002,1.08373E+000,-2.23871E-003,0.00000E+000,-3.12242E-004,9.69753E-001,0.00000E+000,-3.39745E-003,-7.04442E-002,1.00000E+000,12
809,1357,-5.83594E+000,1.42207E+000,3.30740E-002,2.21072E+000,-4.85139E-001,-3.59435E-002,2.26361E+000,7.76370E-003,5.15064E-001,0,3.43754E+001,-7.79020E+000,9.99636E-001,-8.99176E+000,-4.50262E+001,9.99099E-001,8.01159E-002,-3.32035E-002,-1.45918E-003,8.01347E-002,-3.32223E-002,-7.37616E-001,8.05236E-002,1.08342E+000,-2.25202E-003,0.00000E+000,-4.91555E-004,9.69745E-001,0.00000E+000,-4.87640E-003,-7.05077E-002,1.00000E+000,12
809,1327,-5.89844E+000,-4.61136E-001,2.62128E-002,2.21042E+000,-4.26588E-001,8.10091E-002,2.25267E+000,7.93594E-003,5.47787E-001,0,3.40172E+001,-7.10266E+000,9.99617E-001,-1.03477E+001,-4.40118E+001,9.98136E-001,8.09795E-002,-3.31752E-002,-1.01460E-003,8.09885E-002,-3.31843E-002,-5.09187E-001,8.14272E-002,1.08435E+000,-2.22257E-003,0.00000E+000,4.26144E-005,9.69762E-001,0.00000E+000,-4.70621E-004,-7.03671E-002,1.00000E+000,12
809,1337,-5.88030E+000,1.61993E-001,3.57554E-003,2.21347E+000,-4.45846E-001,4.53911E-002,2.25838E+000,5.43757E-003,5.22091E-001,0,3.41739E+001,-7.33649E+000,9.99662E-001,-9.99957E+000,-4.43711E+001,9.99489E-001,8.06954E-002,-3.31822E-002,-1.16074E-003,8.07072E-002,-3.31940E-002,-5.83927E-001,8.11295E-002,1.08404E+000,-2.22972E-003,0.00000E+000,-1.34522E-004,9.69758E-001,0.00000E+000,-1.93163E-003,-7.04013E-002,1.00000E+000,12
809,1307,-5.90945E+000,-1.67794E+000,1.92346E-001,2.21021E+000,-3.70986E-001,1.75358E-001,2.24798E+000,1.20760E-002,5.68124E-001,0,3.37093E+001,-6.43342E+000,9.98244E-001,-1.03497E+001,-4.31130E+001,9.96972E-001,8.15380E-002,-3.31697E-002,-7.28205E-004,8.15426E-002,-3.31743E-002,-3.63714E-001,8.20131E-002,1.08496E+000,-2.21741E-003,0.00000E+000,3.94936E-004,9.69765E-001,0.00000E+000,2.43530E-003,-7.03425E-002,1.00000E+000,12
809,1317,-5.90269E+000,-1.07022E+000,1.02404E-001,2.21329E+000,-3.98260E-001,1.29963E-001,2.25258E+000,1.13122E-002,5.53471E-001,0,3.39041E+001,-6.76163E+000,9.99482E-001,-1.03466E+001,-4.35606E+001,9.98196E-001,8.12602E-002,-3.31717E-002,-8.70855E-004,8.12668E-002,-3.31784E-002,-4.36001E-001,8.17215E-002,1.08465E+000,-2.21918E-003,0.00000E+000,2.18980E-004,9.69764E-001,0.00000E+000,9.84027E-004,-7.03509E-002,1.00000E+000,12
1049,1297,1.10958E+001,-1.99412E+000,1.62696E-001,3.56390E+000,-1.78305E-001,6.40348E-002,3.56893E+000,8.81175E-003,4.08791E-001,0,5.39573E+001,-3.31752E+000,9.99281E-001,1.21917E+001,-3.58343E+001,9.97897E-001,7.73875E-002,-3.18308E-002,-4.10569E-004,7.73891E-002,-3.18323E-002,-2.15380E-001,7.77937E-002,1.08021E+000,-2.34931E-002,0.00000E+000,2.04857E-002,9.69989E-001,0.00000E+000,-4.65554E-003,-5.62307E-002,1.00000E+000,12
799,1337,-6.58500E+000,1.54212E-001,1.49244E-005,2.15639E+000,-4.47048E-001,4.57673E-002,2.20272E+000,5.48917E-003,5.33659E-001,0,3.33144E+001,-7.35765E+000,9.99736E-001,-1.08415E+001,-4.45761E+001,9.99539E-001,7.99583E-002,-3.30201E-002,-8.62027E-004,7.99649E-002,-3.30267E-002,-4.37134E-001,8.03672E-002,1.08324E+000,-2.03614E-003,0.00000E+000,2.86438E-004,9.69825E-001,0.00000E+000,-2.15637E-003,-6.90637E-002,1.00000E+000,12
799,1347,-6.56623E+000,7.80548E-001,-5.75707E-003,2.15670E+000,-4.66157E-001,9.29816E-003,2.20653E+000,7.00373E-003,5.30265E-001,0,3.34294E+001,-7.58971E+000,9.99490E-001,-1.04399E+001,-4.49158E+001,9.99303E-001,7.97427E-002,-3.30310E-002,-1.04961E-003,7.97524E-002,-3.30408E-002,-5.33201E-001,8.01420E-002,1.08301E+000,-2.04269E-003,0.00000E+000,1.21212E-005,9.69817E-001,0.00000E+000,-3.40249E-003,-6.90993E-002,1.00000E+000,12
799,1357,-6.53699E+000,1.41643E+000,3.21323E-002,2.15787E+000,-4.83767E-001,-3.20556E-002,2.21166E+000,6.96012E-003,5.17492E-001,0,3.35683E+001,-7.77265E+000,9.99495E-001,-9.76665E+000,-4.52115E+001,9.99010E-001,7.95235E-002,-3.30473E-002,-1.24041E-003,7.95372E-002,-3.30610E-002,-6.31237E-001,7.99134E-002,1.08278E+000,-2.05265E-003,0.00000E+000,-2.64532E-004,9.69805E-001,0.00000E+000,-4.65922E-003,-6.91533E-002,1.00000E+000,12
799,1327,-6.59919E+000,-4.70472E-001,3.25434E-002,2.15674E+000,-4.28784E-001,8.90334E-002,2.20075E+000,1.27700E-002,5.41293E-001,0,3.31873E+001,-7.16511E+000,9.99714E-001,-1.11054E+001,-4.42688E+001,9.98307E-001,8.01718E-002,-3.30114E-002,-6.75556E-004,8.01758E-002,-3.30154E-002,-3.41965E-001,8.05907E-002,1.08347E+000,-2.03097E-003,0.00000E+000,5.60138E-004,9.69831E-001,0.00000E+000,-9.13053E-004,-6.90357E-002,1.00000E+000,12
1059,1327,1.17887E+001,-1.11517E-001,-1.76034E-002,3.57116E+000,-2.30375E-001,-3.85620E-002,3.57879E+000,9.34961E-003,4.23610E-001,0,5.44049E+001,-3.96523E+000,9.99710E-001,1.28543E+001,-3.62050E+001,9.98634E-001,7.80019E-002,-3.18824E-002,-5.69777E-004,7.80049E-002,-3.18853E-002,-2.97082E-001,7.84366E-002,1.08088E+000,-2.31419E-002,0.00000E+000,1.96461E-002,9.69905E-001,0.00000E+000,-9.30003E-004,-5.53538E-002,1.00000E+000,12
1059,1337,1.17950E+001,5.21422E-001,-4.12978E-002,3.55974E+000,-2.46148E-001,-7.15011E-002,3.56895E+000,7.43530E-003,4.46009E-001,0,5.43477E+001,-4.16058E+000,9.99798E-001,1.29909E+001,-3.63459E+001,9.99338E-001,7.83044E-002,-3.18815E-002,-5.53734E-004,7.83072E-002,-3.18843E-002,-2.87927E-001,7.87558E-002,1.08120E+000,-2.31331E-002,0.00000E+000,1.96409E-002,9.69905E-001,0.00000E+000,-5.16769E-004,-5.53426E-002,1.00000E+000,12
1059,1347,1.18069E+001,1.15206E+000,-2.82841E-002,3.54619E+000,-2.68747E-001,-1.00831E-001,3.55779E+000,1.07561E-002,4.36833E-001,0,5.42436E+001,-4.46117E+000,9.99759E-001,1.32851E+001,-3.66213E+001,9.98809E-001,7.86077E-002,-3.18804E-002,-5.35875E-004,7.86103E-002,-3.18830E-002,-2.77879E-001,7.90761E-002,1.08153E+000,-2.31204E-002,0.00000E+000,1.96358E-002,9.69905E-001,0.00000E+000,-1.01956E-004,-5.53266E-002,1.00000E+000,12
1059,1297,1.18028E+001,-1.97689E+000,1.52409E-001,3.61539E+000,-1.64183E-001,6.20145E-002,3.61965E+000,8.40944E-003,3.77828E-001,0,5.47013E+001,-3.10326E+000,9.99406E-001,1.31470E+001,-3.54733E+001,9.97881E-001,7.70967E-002,-3.18843E-002,-6.12562E-004,7.71001E-002,-3.18877E-002,-3.22035E-001,7.74830E-002,1.07990E+000,-2.31570E-002,0.00000E+000,1.96614E-002,9.69905E-001,0.00000E+000,-2.16424E-003,-5.53728E-002,1.00000E+000,12
1059,1307,1.17980E+001,-1.35529E+000,8.42503E-002,3.60192E+000,-1.83946E-001,2.28283E-002,3.60669E+000,1.02792E-002,3.58422E-001,0,5.46424E+001,-3.35068E+000,9.99578E-001,1.30257E+001,-3.57122E+001,9.98728E-001,7.73977E-002,-3.18837E-002,-5.98654E-004,7.74010E-002,-3.18870E-002,-3.13859E-001,7.77998E-002,1.08022E+000,-2.31527E-002,0.00000E+000,1.96563E-002,9.69905E-001,0.00000E+000,-1.75419E-003,-5.53674E-002,1.00000E+000,12
1059,1317,1.17897E+001,-7.34671E-001,2.14441E-002,3.58441E+000,-2.07095E-001,-1.36342E-002,3.59042E+000,1.06040E-002,3.94914E-001,0,5.45133E+001,-3.65257E+000,9.99553E-001,1.28618E+001,-3.59504E+001,9.97792E-001,7.76995E-002,-3.18831E-002,-5.84561E-004,7.77026E-002,-3.18862E-002,-3.05629E-001,7.81178E-002,1.08055E+000,-2.31481E-002,0.00000E+000,1.96512E-002,9.69905E-001,0.00000E+000,-1.34270E-003,-5.53615E-002,1.00000E+000,12
799,1307,-6.60805E+000,-1.68571E+000,2.01799E-001,2.15739E+000,-3.73115E-001,1.80614E-001,2.19686E+000,1.54637E-002,5.58138E-001,0,3.29031E+001,-6.48356E+000,9.98733E-001,-1.10654E+001,-4.33503E+001,9.98339E-001,8.05906E-002,-3.30049E-002,-3.08682E-004,8.05915E-002,-3.30057E-002,-1.55693E-001,8.10299E-002,1.08393E+000,-2.02757E-003,0.00000E+000,1.10338E-003,9.69835E-001,0.00000E+000,1.55469E-003,-6.90172E-002,1.00000E+000,12
799,1317,-6.60739E+000,-1.07897E+000,9.33994E-002,2.15708E+000,-3.99551E-001,1.30242E-001,2.19763E+000,1.36799E-002,5.61455E-001,0,3.30606E+001,-6.79156E+000,9.99336E-001,-1.12030E+001,-4.37672E+001,9.97854E-001,8.03824E-002,-3.30060E-002,-4.91136E-004,8.03846E-002,-3.30082E-002,-2.48168E-001,8.08115E-002,1.08370E+000,-2.02794E-003,0.00000E+000,8.32298E-004,9.69834E-001,0.00000E+000,3.23263E-004,-6.90192E-002,1.00000E+000,12
789,1327,-7.29915E+000,-4.76321E-001,3.25537E-002,2.10411E+000,-4.27837E-001,9.42804E-002,2.14924E+000,1.02550E-002,5.52661E-001,0,3.23807E+001,-7.16858E+000,9.99667E-001,-1.18616E+001,-4.44496E+001,9.98697E-001,7.93724E-002,-3.28395E-002,-4.40445E-004,7.93741E-002,-3.28413E-002,-2.24888E-001,7.97668E-002,1.08261E+000,-1.92521E-003,0.00000E+000,9.41435E-004,9.69916E-001,0.00000E+000,-1.20278E-003,-6.78079E-002,1.00000E+000,12
789,1337,-7.28497E+000,1.50190E-001,3.25488E-003,2.10323E+000,-4.44534E-001,5.09100E-002,2.15029E+000,6.35303E-003,5.28892E-001,0,3.24984E+001,-7.32804E+000,9.99617E-001,-1.15884E+001,-4.47457E+001,9.99412E-001,7.92284E-002,-3.28502E-002,-6.57463E-004,7.92323E-002,-3.28540E-002,-3.36087E-001,7.96161E-002,1.08245E+000,-1.92881E-003,0.00000E+000,5.90677E-004,9.69908E-001,0.00000E+000,-2.22053E-003,-6.78317E-002,1.00000E+000,12
789,1347,-7.26428E+000,7.76890E-001,-1.23392E-003,2.10515E+000,-4.64310E-001,1.35075E-002,2.15579E+000,7.35330E-003,5.42475E-001,0,3.26405E+001,-7.56268E+000,9.99416E-001,-1.11529E+001,-4.50756E+001,9.99042E-001,7.90828E-002,-3.28632E-002,-8.75696E-004,7.90896E-002,-3.28700E-002,-4.48159E-001,7.94643E-002,1.08230E+000,-1.93329E-003,0.00000E+000,2.38661E-004,9.69897E-001,0.00000E+000,-3.24193E-003,-6.78614E-002,1.00000E+000,12
789,1357,-7.23812E+000,1.41015E+000,3.03886E-002,2.10476E+000,-4.83343E-001,-2.75794E-002,2.15972E+000,6.71481E-003,5.44881E-001,0,3.27548E+001,-7.77577E+000,9.99367E-001,-1.05409E+001,-4.53924E+001,9.98880E-001,7.89351E-002,-3.28813E-002,-1.09611E-003,7.89459E-002,-3.28920E-002,-5.61587E-001,7.93108E-002,1.08214E+000,-1.93963E-003,0.00000E+000,-1.15417E-004,9.69883E-001,0.00000E+000,-4.26931E-003,-6.79033E-002,1.00000E+000,12
1069,1327,1.25012E+001,-9.52906E-002,-2.08440E-002,3.62599E+000,-2.20830E-001,-3.89571E-002,3.63292E+000,1.03854E-002,4.41859E-001,0,5.51958E+001,-3.81842E+000,9.99659E-001,1.39088E+001,-3.58445E+001,9.98105E-001,7.79559E-002,-3.18480E-002,-7.87996E-004,7.79615E-002,-3.18536E-002,-4.11149E-001,7.83947E-002,1.08084E+000,-2.28094E-002,0.00000E+000,1.88768E-002,9.69924E-001,0.00000E+000,1.23338E-005,-5.48082E-002,1.00000E+000,12
1069,1337,1.25028E+001,5.35723E-001,-4.46037E-002,3.61071E+000,-2.36693E-001,-6.83016E-002,3.61911E+000,6.77009E-003,4.10338E-001,0,5.50682E+001,-4.01959E+000,9.99670E-001,1.39722E+001,-3.60408E+001,9.98799E-001,7.82759E-002,-3.18473E-002,-7.73586E-004,7.82813E-002,-3.18528E-002,-4.02461E-001,7.87324E-002,1.08118E+000,-2.28004E-002,0.00000E+000,1.88868E-002,9.69924E-001,0.00000E+000,7.67741E-005,-5.48065E-002,1.00000E+000,12
1069,1347,1.25129E+001,1.16654E+000,-4.24481E-002,3.59698E+000,-2.59025E-001,-1.00727E-001,3.60770E+000,6.88104E-003,4.20376E-001,0,5.49742E+001,-4.30616E+000,9.99729E-001,1.42158E+001,-3.62783E+001,9.99029E-001,7.85980E-002,-3.18465E-002,-7.57426E-004,7.86032E-002,-3.18517E-002,-3.92908E-001,7.90725E-002,1.08153E+000,-2.27878E-002,0.00000E+000,1.88969E-002,9.69925E-001,0.00000E+000,1.41667E-004,-5.48042E-002,1.00000E+000,12
789,1307,-7.30552E+000,-1.69211E+000,1.96275E-001,2.10744E+000,-3.73351E-001,1.81949E-001,2.14797E+000,1.18281E-002,5.39081E-001,0,3.21525E+001,-6.47570E+000,9.99184E-001,-1.17966E+001,-4.35392E+001,9.96850E-001,7.96546E-002,-3.28317E-002,-1.23371E-005,7.96546E-002,-3.28317E-002,-6.28402E-003,8.00631E-002,1.08291E+000,-1.92288E-003,0.00000E+000,1.63706E-003,9.69921E-001,0.00000E+000,8.15611E-004,-6.77925E-002,1.00000E+000,12
789,1317,-7.30318E+000,-1.08734E+000,1.10471E-001,2.10602E+000,-4.02783E-001,1.39757E-001,2.14874E+000,1.32527E-002,5.35324E-001,0,3.22664E+001,-6.85686E+000,9.99201E-001,-1.18528E+001,-4.40398E+001,9.96004E-001,7.95142E-002,-3.28349E-002,-2.26047E-004,7.95146E-002,-3.28354E-002,-1.15279E-001,7.99153E-002,1.08276E+000,-1.92378E-003,0.00000E+000,1.28960E-003,9.69919E-001,0.00000E+000,-1.92553E-004,-6.77985E-002,1.00000E+000,12
1069,1297,1.25040E+001,-1.96175E+000,1.29846E-001,3.66224E+000,-1.52358E-001,5.52740E-002,3.66583E+000,1.05272E-002,3.89897E-001,0,5.53929E+001,-2.91614E+000,9.99137E-001,1.39903E+001,-3.50981E+001,9.97281E-001,7.69956E-002,-3.18496E-002,-8.27054E-004,7.70018E-002,-3.18558E-002,-4.35326E-001,7.73832E-002,1.07980E+000,-2.28272E-002,0.00000E+000,1.88468E-002,9.69924E-001,0.00000E+000,-1.80856E-004,-5.48115E-002,1.00000E+000,12
1069,1307,1.25009E+001,-1.34160E+000,6.26867E-002,3.65169E+000,-1.72901E-001,2.20354E-002,3.65585E+000,8.22019E-003,3.64931E-001,0,5.53583E+001,-3.18877E+000,9.99595E-001,1.38987E+001,-3.53619E+001,9.98343E-001,7.73141E-002,-3.18491E-002,-8.14968E-004,7.73202E-002,-3.18552E-002,-4.27715E-001,7.77184E-002,1.08014E+000,-2.28232E-002,0.00000E+000,1.88568E-002,9.69924E-001,0.00000E+000,-1.16796E-004,-5.48108E-002,1.00000E+000,12
1069,1317,1.25018E+001,-7.15350E-001,2.02336E-002,3.63970E+000,-1.93623E-001,-8.67200E-003,3.64486E+000,9.45002E-003,4.34448E-001,0,5.52895E+001,-3.46914E+000,9.99687E-001,1.39142E+001,-3.55375E+001,9.98097E-001,7.76350E-002,-3.18485E-002,-8.01508E-004,7.76409E-002,-3.18544E-002,-4.19422E-001,7.80564E-002,1.08049E+000,-2.28163E-002,0.00000E+000,1.88668E-002,9.69924E-001,0.00000E+000,-5.22431E-005,-5.48095E-002,1.00000E+000,12
779,1327,-7.99328E+000,-4.77096E-001,4.37576E-002,2.05588E+000,-4.24437E-001,1.05856E-001,2.10191E+000,1.52990E-002,6.00730E-001,0,3.16209E+001,-7.13719E+000,9.99593E-001,-1.24948E+001,-4.45575E+001,9.98346E-001,7.85218E-002,-3.25508E-002,-3.70158E-004,7.85231E-002,-3.25520E-002,-1.90940E-001,7.89044E-002,1.08169E+000,-1.95780E-003,0.00000E+000,1.11316E-003,9.70113E-001,0.00000E+000,-1.29344E-003,-6.65353E-002,1.00000E+000,12
779,1337,-7.98098E+000,1.40399E-001,5.73361E-003,2.05359E+000,-4.48823E-001,5.54182E-002,2.10280E+000,6.15638E-003,5.44599E-001,0,3.17399E+001,-7.39777E+000,9.99484E-001,-1.22736E+001,-4.49918E+001,9.99267E-001,7.84909E-002,-3.25627E-002,-6.18173E-004,7.84944E-002,-3.25661E-002,-3.18920E-001,7.88726E-002,1.08165E+000,-1.95853E-003,0.00000E+000,6.87221E-004,9.70103E-001,0.00000E+000,-2.14092E-003,-6.65546E-002,1.00000E+000,12
779,1347,-7.96319E+000,7.69132E-001,1.47526E-004,2.05225E+000,-4.65623E-001,1.39802E-002,2.10445E+000,7.74816E-003,5.33869E-001,0,3.18419E+001,-7.58196E+000,9.99291E-001,-1.18832E+001,-4.53024E+001,9.98829E-001,7.84590E-002,-3.25780E-002,-8.67277E-004,7.84658E-002,-3.25848E-002,-4.47484E-001,7.88404E-002,1.08162E+000,-1.95947E-003,0.00000E+000,2.59637E-004,9.70091E-001,0.00000E+000,-2.99167E-003,-6.65798E-002,1.00000E+000,12
779,1357,-7.93888E+000,1.40343E+000,2.98988E-002,2.05095E+000,-4.83187E-001,-2.52099E-002,2.10725E+000,6.05099E-003,5.44322E-001,0,3.19356E+001,-7.77484E+000,9.99368E-001,-1.13020E+001,-4.55970E+001,9.99103E-001,7.84261E-002,-3.25982E-002,-1.11837E-003,7.84373E-002,-3.26094E-002,-5.77077E-001,7.88077E-002,1.08159E+000,-1.96074E-003,0.00000E+000,-1.71050E-004,9.70074E-001,0.00000E+000,-3.84860E-003,-6.66136E-002,1.00000E+000,12
779,1317,-7.99860E+000,-1.08818E+000,1.16434E-001,2.05632E+000,-3.97789E-001,1.45252E-001,2.09947E+000,1.70283E-002,5.19512E-001,0,3.15028E+001,-6.78584E+000,9.99602E-001,-1.25185E+001,-4.41674E+001,9.98011E-001,7.85519E-002,-3.25455E-002,-1.23079E-004,7.85520E-002,-3.25457E-002,-6.34749E-002,7.89355E-002,1.08172E+000,-1.95752E-003,0.00000E+000,1.53787E-003,9.70117E-001,0.00000E+000,-4.48402E-004,-6.65277E-002,1.00000E+000,12
1079,1337,1.32145E+001,5.52913E-001,-5.45407E-002,3.66445E+000,-2.25919E-001,-7.45653E-002,3.67217E+000,7.61473E-003,4.17672E-001,0,5.58634E+001,-3.84172E+000,9.99642E-001,1.50063E+001,-3.56546E+001,9.99414E-001,7.83614E-002,-3.18971E-002,-9.55756E-004,7.83697E-002,-3.19054E-002,-4.96608E-001,7.88192E-002,1.08128E+000,-2.24035E-002,0.00000E+000,1.81487E-002,9.69875E-001,0.00000E+000,5.94071E-004,-5.45241E-002,1.00000E+000,12
1079,1347,1.32260E+001,1.18526E+000,-4.79549E-002,3.65175E+000,-2.46908E-001,-1.02956E-001,3.66154E+000,5.12715E-003,4.53331E-001,0,5.57701E+001,-4.13131E+000,9.99802E-001,1.52764E+001,-3.58637E+001,9.99642E-001,7.87045E-002,-3.18972E-002,-9.46798E-004,7.87126E-002,-3.19053E-002,-4.90428E-001,7.91814E-002,1.08166E+000,-2.23900E-002,0.00000E+000,1.81571E-002,9.69875E-001,0.00000E+000,4.02959E-004,-5.45310E-002,1.00000E+000,12
1079,1297,1.32172E+001,-1.94140E+000,1.36708E-001,3.71694E+000,-1.37923E-001,6.20053E-002,3.72002E+000,1.02912E-002,4.23709E-001,0,5.61494E+001,-2.72411E+000,9.99336E-001,1.50808E+001,-3.46923E+001,9.97981E-001,7.69976E-002,-3.18969E-002,-9.79552E-004,7.70065E-002,-3.19057E-002,-5.15344E-001,7.73824E-002,1.07981E+000,-2.24317E-002,0.00000E+000,1.81152E-002,9.69874E-001,0.00000E+000,1.35270E-003,-5.45095E-002,1.00000E+000,12
1079,1307,1.32099E+001,-1.32568E+000,5.58168E-002,3.70349E+000,-1.62919E-001,2.10377E-002,3.70714E+000,9.29736E-003,4.00175E-001,0,5.61029E+001,-3.03971E+000,9.99625E-001,1.48973E+001,-3.49937E+001,9.98375E-001,7.73371E-002,-3.18970E-002,-9.75237E-004,7.73458E-002,-3.19057E-002,-5.11480E-001,7.77395E-002,1.08018E+000,-2.24282E-002,0.00000E+000,1.81236E-002,9.69874E-001,0.00000E+000,1.16403E-003,-5.45114E-002,1.00000E+000,12
1079,1327,1.32126E+001,-7.87766E-002,-2.83119E-002,3.67907E+000,-2.10495E-001,-4.48381E-002,3.68536E+000,9.50705E-003,4.36334E-001,0,5.59787E+001,-3.64619E+000,9.99710E-001,1.49440E+001,-3.54824E+001,9.99184E-001,7.80205E-002,-3.18971E-002,-9.62749E-004,7.80289E-002,-3.19055E-002,-5.01793E-001,7.84595E-002,1.08092E+000,-2.24129E-002,0.00000E+000,1.81403E-002,9.69875E-001,0.00000E+000,7.83890E-004,-5.45193E-002,1.00000E+000,12
1079,1317,1.32098E+001,-6.97992E-001,9.88995E-003,3.69059E+000,-1.82562E-001,-1.24156E-002,3.69512E+000,8.56137E-003,4.36354E-001,0,5.60310E+001,-3.27726E+000,9.99628E-001,1.48909E+001,-3.51545E+001,9.98877E-001,7.76790E-002,-3.18970E-002,-9.69190E-004,7.76876E-002,-3.19056E-002,-5.06723E-001,7.80996E-002,1.08055E+000,-2.24210E-002,0.00000E+000,1.81319E-002,9.69875E-001,0.00000E+000,9.73875E-004,-5.45151E-002,1.00000E+000,12
779,1307,-8.00456E+000,-1.70305E+000,1.98472E-001,2.05385E+000,-3.79906E-001,1.82657E-001,2.09666E+000,1.11696E-002,5.43540E-001,0,3.13478E+001,-6.56730E+000,9.99450E-001,-1.25293E+001,-4.38031E+001,9.97793E-001,7.85809E-002,-3.25419E-002,1.22241E-004,7.85810E-002,-3.25421E-002,6.30282E-002,7.89664E-002,1.08175E+000,-1.95735E-003,0.00000E+000,1.95966E-003,9.70119E-001,0.00000E+000,3.90812E-004,-6.65231E-002,1.00000E+000,12
1089,1337,1.39245E+001,5.71103E-001,-6.40375E-002,3.71601E+000,-2.14776E-001,-8.01564E-002,3.72308E+000,6.74523E-003,4.69398E-001,0,5.66218E+001,-3.67168E+000,9.99583E-001,1.60177E+001,-3.52321E+001,9.99271E-001,7.87086E-002,-3.19765E-002,-1.05659E-003,7.87187E-002,-3.19866E-002,-5.46874E-001,7.91777E-002,1.08167E+000,-2.18471E-002,0.00000E+000,1.74250E-002,9.69803E-001,0.00000E+000,1.02052E-003,-5.43632E-002,1.00000E+000,12
1089,1347,1.39359E+001,1.20336E+000,-5.91385E-002,3.70321E+000,-2.35021E-001,-1.09795E-001,3.71229E+000,5.93268E-003,4.50496E-001,0,5.65321E+001,-3.93531E+000,9.99703E-001,1.62824E+001,-3.54643E+001,9.99192E-001,7.91483E-002,-3.19777E-002,-1.05512E-003,7.91583E-002,-3.19877E-002,-5.43949E-001,7.96422E-002,1.08215E+000,-2.18297E-002,0.00000E+000,1.74216E-002,9.69803E-001,0.00000E+000,6.79568E-004,-5.43757E-002,1.00000E+000,12
769,1347,-8.66107E+000,7.61663E-001,9.91380E-004,2.00071E+000,-4.66784E-001,1.79423E-002,2.05451E+000,6.42733E-003,5.38928E-001,0,3.10531E+001,-7.60282E+000,9.99313E-001,-1.25949E+001,-4.55167E+001,9.98938E-001,7.76541E-002,-3.23161E-002,-8.00821E-004,7.76599E-002,-3.23219E-002,-4.17208E-001,7.80226E-002,1.08075E+000,-1.83197E-003,0.00000E+000,2.53612E-004,9.70262E-001,0.00000E+000,-2.69104E-003,-6.52871E-002,1.00000E+000,12
769,1357,-8.63630E+000,1.39691E+000,2.88607E-002,2.00043E+000,-4.83007E-001,-2.13586E-002,2.05803E+000,6.15227E-003,5.51813E-001,0,3.11620E+001,-7.77452E+000,9.99477E-001,-1.20090E+001,-4.57931E+001,9.99259E-001,7.76046E-002,-3.23347E-002,-1.03882E-003,7.76144E-002,-3.23445E-002,-5.41325E-001,7.79724E-002,1.08070E+000,-1.83391E-003,0.00000E+000,-1.54260E-004,9.70247E-001,0.00000E+000,-3.51540E-003,-6.53188E-002,1.00000E+000,12
769,1327,-8.69090E+000,-4.84387E-001,4.88244E-002,2.00143E+000,-4.26749E-001,9.90394E-002,2.04882E+000,1.19044E-002,5.73375E-001,0,3.08208E+001,-7.15547E+000,9.99448E-001,-1.31935E+001,-4.47908E+001,9.97601E-001,7.77497E-002,-3.22927E-002,-3.29926E-004,7.77507E-002,-3.22937E-002,-1.71781E-001,7.81213E-002,1.08085E+000,-1.82961E-003,0.00000E+000,1.06196E-003,9.70282E-001,0.00000E+000,-1.05726E-003,-6.52483E-002,1.00000E+000,12
769,1337,-8.67933E+000,1.31085E-001,6.19761E-003,2.00097E+000,-4.52407E-001,5.66624E-002,2.05226E+000,6.25164E-003,5.41025E-001,0,3.09439E+001,-7.44570E+000,9.99402E-001,-1.29951E+001,-4.52364E+001,9.98995E-001,7.77024E-002,-3.23021E-002,-5.64856E-004,7.77053E-002,-3.23050E-002,-2.94195E-001,7.80722E-002,1.08080E+000,-1.83054E-003,0.00000E+000,6.58452E-004,9.70274E-001,0.00000E+000,-1.87280E-003,-6.52636E-002,1.00000E+000,12
1089,1327,1.39207E+001,-5.88379E-002,-4.45620E-002,3.73051E+000,-1.94019E-001,-5.06568E-002,3.73589E+000,8.42085E-003,4.23783E-001,0,5.67342E+001,-3.39840E+000,9.99583E-001,1.59154E+001,-3.50521E+001,9.98745E-001,7.82689E-002,-3.19755E-002,-1.05614E-003,7.82790E-002,-3.19856E-002,-5.48827E-001,7.87136E-002,1.08120E+000,-2.18603E-002,0.00000E+000,1.74285E-002,9.69803E-001,0.00000E+000,1.36122E-003,-5.43537E-002,1.00000E+000,12
1089,1317,1.39216E+001,-6.84630E-001,-2.48310E-004,3.74435E+000,-1.74088E-001,-1.83367E-002,3.74844E+000,8.17523E-003,4.72437E-001,0,5.68234E+001,-3.16528E+000,9.99657E-001,1.59311E+001,-3.48164E+001,9.99169E-001,7.78313E-002,-3.19746E-002,-1.05397E-003,7.78414E-002,-3.19847E-002,-5.49887E-001,7.82523E-002,1.08072E+000,-2.18697E-002,0.00000E+000,1.74319E-002,9.69803E-001,0.00000E+000,1.69996E-003,-5.43470E-002,1.00000E+000,12
1089,1297,1.39303E+001,-1.92095E+000,1.39139E-001,3.77130E+000,-1.24075E-001,6.51224E-002,3.77391E+000,7.65385E-003,4.60876E-001,0,5.69129E+001,-2.52296E+000,9.99684E-001,1.61659E+001,-3.42740E+001,9.99049E-001,7.69574E-002,-3.19732E-002,-1.04715E-003,7.69675E-002,-3.19833E-002,-5.50718E-001,7.73326E-002,1.07978E+000,-2.18830E-002,0.00000E+000,1.74388E-002,9.69803E-001,0.00000E+000,2.37567E-003,-5.43375E-002,1.00000E+000,12
1089,1307,1.39230E+001,-1.30729E+000,5.35109E-002,3.75742E+000,-1.51669E-001,1.80807E-002,3.76052E+000,7.78234E-003,4.78148E-001,0,5.68842E+001,-2.88437E+000,9.99739E-001,1.59727E+001,-3.45753E+001,9.99146E-001,7.73936E-002,-3.19738E-002,-1.05140E-003,7.74037E-002,-3.19839E-002,-5.50741E-001,7.77915E-002,1.08025E+000,-2.18782E-002,0.00000E+000,1.74354E-002,9.69803E-001,0.00000E+000,2.03851E-003,-5.43409E-002,1.00000E+000,12
769,1317,-8.69833E+000,-1.09497E+000,1.13995E-001,2.00202E+000,-4.01510E-001,1.43407E-001,2.04692E+000,1.34929E-002,5.21348E-001,0,3.06925E+001,-6.79771E+000,9.99701E-001,-1.32687E+001,-4.43608E+001,9.98739E-001,7.77960E-002,-3.22861E-002,-9.67179E-005,7.77961E-002,-3.22862E-002,-5.03399E-002,7.81698E-002,1.08090E+000,-1.82898E-003,0.00000E+000,1.46277E-003,9.70287E-001,0.00000E+000,-2.47169E-004,-6.52381E-002,1.00000E+000,12
1099,1327,1.46295E+001,-4.26985E-002,-5.28064E-002,3.78204E+000,-1.83180E-001,-4.88188E-002,3.78678E+000,9.24991E-003,4.62364E-001,0,5.74634E+001,-3.25259E+000,9.99103E-001,1.69151E+001,-3.46726E+001,9.97698E-001,7.85179E-002,-3.20510E-002,-1.17951E-003,7.85305E-002,-3.20636E-002,-6.11121E-001,7.89695E-002,1.08148E+000,-2.13774E-002,0.00000E+000,1.67376E-002,9.69758E-001,0.00000E+000,1.60326E-003,-5.46591E-002,1.00000E+000,12
1099,1337,1.46380E+001,5.90331E-001,-6.69098E-002,3.77041E+000,-2.01288E-001,-7.98846E-002,3.77662E+000,8.58810E-003,4.71841E-001,0,5.73989E+001,-3.47662E+000,9.99124E-001,1.70989E+001,-3.48324E+001,9.98673E-001,7.90871E-002,-3.20515E-002,-1.17105E-003,7.90994E-002,-3.20639E-002,-6.03628E-001,7.95703E-002,1.08209E+000,-2.13586E-002,0.00000E+000,1.67479E-002,9.69758E-001,0.00000E+000,1.19286E-003,-5.46717E-002,1.00000E+000,12
1099,1347,1.46521E+001,1.22551E+000,-5.47956E-002,3.75810E+000,-2.20442E-001,-1.10676E-001,3.76619E+000,7.46427E-003,4.71956E-001,0,5.73201E+001,-3.72513E+000,9.99326E-001,1.74171E+001,-3.50241E+001,9.98906E-001,7.96573E-002,-3.20522E-002,-1.15994E-003,7.96694E-002,-3.20642E-002,-5.94845E-001,8.01730E-002,1.08271E+000,-2.13340E-002,0.00000E+000,1.67583E-002,9.69759E-001,0.00000E+000,7.81306E-004,-5.46881E-002,1.00000E+000,12
759,1347,-9.35664E+000,7.56935E-001,-1.57790E-003,1.95117E+000,-4.65478E-001,1.91007E-002,2.00602E+000,5.74765E-003,5.32442E-001,0,3.03022E+001,-7.56792E+000,9.99356E-001,-1.32748E+001,-4.56870E+001,9.98948E-001,7.68498E-002,-3.20980E-002,-7.05663E-004,7.68543E-002,-3.21025E-002,-3.71088E-001,7.72005E-002,1.07988E+000,-1.58563E-003,0.00000E+000,1.96702E-004,9.70413E-001,0.00000E+000,-2.36686E-003,-6.43210E-002,1.00000E+000,12
759,1357,-9.33432E+000,1.38956E+000,2.42658E-002,1.94896E+000,-4.83742E-001,-2.06751E-002,2.00820E+000,6.14031E-003,5.53369E-001,0,3.03825E+001,-7.77588E+000,9.99448E-001,-1.27303E+001,-4.59973E+001,9.99080E-001,7.67026E-002,-3.21113E-002,-8.81596E-004,7.67097E-002,-3.21184E-002,-4.64163E-001,7.70470E-002,1.07973E+000,-1.59153E-003,0.00000E+000,-8.86483E-005,9.70403E-001,0.00000E+000,-3.17909E-003,-6.43517E-002,1.00000E+000,12
1099,1297,1.46396E+001,-1.90754E+000,1.26020E-001,3.82306E+000,-1.15765E-001,6.00059E-002,3.82528E+000,7.20287E-003,5.02847E-001,0,5.76694E+001,-2.39960E+000,9.99458E-001,1.71646E+001,-3.39300E+001,9.98476E-001,7.68198E-002,-3.20499E-002,-1.19244E-003,7.68329E-002,-3.20629E-002,-6.27456E-001,7.71823E-002,1.07964E+000,-2.14065E-002,0.00000E+000,1.67068E-002,9.69757E-001,0.00000E+000,2.82511E-003,-5.46397E-002,1.00000E+000,12
1099,1307,1.46355E+001,-1.28849E+000,5.22300E-002,3.81236E+000,-1.38598E-001,2.49115E-002,3.81496E+000,8.23857E-003,4.78199E-001,0,5.76435E+001,-2.68654E+000,9.99615E-001,1.70441E+001,-3.41918E+001,9.98940E-001,7.73852E-002,-3.20502E-002,-1.18971E-003,7.73981E-002,-3.20631E-002,-6.22784E-001,7.77765E-002,1.08025E+000,-2.14002E-002,0.00000E+000,1.67170E-002,9.69758E-001,0.00000E+000,2.41871E-003,-5.46439E-002,1.00000E+000,12
1099,1317,1.46314E+001,-6.66689E-001,-9.14220E-003,3.79779E+000,-1.60879E-001,-1.38729E-002,3.80122E+000,9.71154E-003,4.81660E-001,0,5.75704E+001,-2.97215E+000,9.99446E-001,1.69465E+001,-3.44239E+001,9.98564E-001,7.79511E-002,-3.20506E-002,-1.18532E-003,7.79639E-002,-3.20633E-002,-6.17295E-001,7.83721E-002,1.08086E+000,-2.13904E-002,0.00000E+000,1.67273E-002,9.69758E-001,0.00000E+000,2.01145E-003,-5.46505E-002,1.00000E+000,12
759,1327,-9.38953E+000,-4.93762E-001,4.73778E-002,1.94776E+000,-4.30187E-001,9.70691E-002,1.99706E+000,7.58903E-003,5.29923E-001,0,3.00178E+001,-7.18373E+000,9.99406E-001,-1.39203E+001,-4.50504E+001,9.99345E-001,7.71396E-002,-3.20816E-002,-3.58904E-004,7.71408E-002,-3.20828E-002,-1.88273E-001,7.75037E-002,1.08019E+000,-1.57853E-003,0.00000E+000,7.62715E-004,9.70426E-001,0.00000E+000,-7.55750E-004,-6.42842E-002,1.00000E+000,12
759,1337,-9.37482E+000,1.30288E-001,1.08621E-002,1.95025E+000,-4.47531E-001,5.93065E-002,2.00182E+000,6.16938E-003,5.48360E-001,0,3.01694E+001,-7.37638E+000,9.99233E-001,-1.36559E+001,-4.53532E+001,9.98975E-001,7.69953E-002,-3.20884E-002,-5.31742E-004,7.69979E-002,-3.20910E-002,-2.79287E-001,7.73526E-002,1.08004E+000,-1.58148E-003,0.00000E+000,4.80120E-004,9.70421E-001,0.00000E+000,-1.56014E-003,-6.42995E-002,1.00000E+000,12
759,1317,-9.39521E+000,-1.10444E+000,1.19426E-001,1.94911E+000,-4.05432E-001,1.43509E-001,1.99600E+000,1.09817E-002,5.55617E-001,0,2.98958E+001,-6.88584E+000,9.99528E-001,-1.39514E+001,-4.45959E+001,9.98997E-001,7.72822E-002,-3.20774E-002,-1.87885E-004,7.72825E-002,-3.20777E-002,-9.84365E-002,7.76533E-002,1.08035E+000,-1.57684E-003,0.00000E+000,1.04328E-003,9.70429E-001,0.00000E+000,4.28604E-005,-6.42754E-002,1.00000E+000,12
749,1317,-1.00866E+001,-1.10793E+000,1.32830E-001,1.90001E+000,-4.05658E-001,1.45326E-001,1.94826E+000,8.22972E-003,5.77488E-001,0,2.91504E+001,-6.89253E+000,9.99479E-001,-1.45240E+001,-4.47614E+001,9.98816E-001,7.68254E-002,-3.19652E-002,-2.75124E-004,7.68261E-002,-3.19659E-002,-1.44896E-001,7.71860E-002,1.07985E+000,-1.14995E-003,0.00000E+000,4.76909E-004,9.70485E-001,0.00000E+000,3.01037E-004,-6.34067E-002,1.00000E+000,12
749,1327,-1.00817E+001,-4.95604E-001,5.35195E-002,1.89956E+000,-4.28002E-001,9.97380E-002,1.94973E+000,5.89301E-003,5.57561E-001,0,2.92827E+001,-7.14825E+000,9.99378E-001,-1.45225E+001,-4.51742E+001,9.99116E-001,7.65855E-002,-3.19673E-002,-3.90762E-004,7.65869E-002,-3.19687E-002,-2.06246E-001,7.69344E-002,1.07959E+000,-1.15217E-003,0.00000E+000,2.98548E-004,9.70484E-001,0.00000E+000,-4.14377E-004,-6.34128E-002,1.00000E+000,12
749,1337,-1.00701E+001,1.26953E-001,1.40577E-002,1.89924E+000,-4.45803E-001,6.00796E-002,1.95178E+000,5.71779E-003,5.76592E-001,0,2.93957E+001,-7.35415E+000,9.99371E-001,-1.43136E+001,-4.54956E+001,9.99237E-001,7.63435E-002,-3.19717E-002,-5.08332E-004,7.63459E-002,-3.19741E-002,-2.68886E-001,7.66807E-002,1.07933E+000,-1.15699E-003,0.00000E+000,1.19072E-004,9.70480E-001,0.00000E+000,-1.13426E-003,-6.34261E-002,1.00000E+000,12
749,1347,-1.00542E+001,7.50643E-001,-4.38348E-003,1.89875E+000,-4.65500E-001,1.75566E-002,1.95505E+000,5.73437E-003,5.30450E-001,0,2.95136E+001,-7.55911E+000,9.99527E-001,-1.39824E+001,-4.58790E+001,9.99342E-001,7.61003E-002,-3.19777E-002,-6.27092E-004,7.61039E-002,-3.19813E-002,-3.32428E-001,7.64261E-002,1.07907E+000,-1.16363E-003,0.00000E+000,-6.09162E-005,9.70476E-001,0.00000E+000,-1.85621E-003,-6.34445E-002,1.00000E+000,12
1109,1297,1.53487E+001,-1.89408E+000,1.15604E-001,3.87597E+000,-1.05233E-001,6.44661E-002,3.87793E+000,7.56108E-003,4.90314E-001,0,5.84063E+001,-2.25433E+000,9.99266E-001,1.81710E+001,-3.36183E+001,9.97669E-001,7.68443E-002,-3.22135E-002,-1.28699E-003,7.68595E-002,-3.22286E-002,-6.76020E-001,7.71923E-002,1.07969E+000,-2.06310E-002,0.00000E+000,1.58018E-002,9.69632E-001,0.00000E+000,3.25096E-003,-5.49851E-002,1.00000E+000,12
1109,1307,1.53434E+001,-1.27390E+000,4.08148E-002,3.86411E+000,-1.26847E-001,2.85749E-002,3.86630E+000,8.11986E-003,4.47228E-001,0,5.83664E+001,-2.51598E+000,9.99491E-001,1.80312E+001,-3.38679E+001,9.98693E-001,7.74726E-002,-3.22122E-002,-1.25686E-003,7.74870E-002,-3.22266E-002,-6.56429E-001,7.78516E-002,1.08037E+000,-2.06240E-002,0.00000E+000,1.58716E-002,9.69633E-001,0.00000E+000,2.70073E-003,-5.49908E-002,1.00000E+000,12
1109,1317,1.53401E+001,-6.51681E-001,-1.85132E-002,3.85036E+000,-1.49052E-001,-7.43273E-003,3.85325E+000,8.36489E-003,4.48134E-001,0,5.82962E+001,-2.80217E+000,9.99390E-001,1.79483E+001,-3.40974E+001,9.98556E-001,7.81020E-002,-3.22108E-002,-1.22488E-003,7.81156E-002,-3.22244E-002,-6.36089E-001,7.85131E-002,1.08104E+000,-2.06131E-002,0.00000E+000,1.59415E-002,9.69634E-001,0.00000E+000,2.14891E-003,-5.49996E-002,1.00000E+000,12
749,1357,-1.00300E+001,1.38259E+000,2.57186E-002,1.89892E+000,-4.83639E-001,-1.64557E-002,1.95961E+000,7.01376E-003,5.40005E-001,0,2.96131E+001,-7.77815E+000,9.99537E-001,-1.33959E+001,-4.62161E+001,9.99292E-001,7.58546E-002,-3.19864E-002,-7.48148E-004,7.58598E-002,-3.19916E-002,-3.97464E-001,7.61691E-002,1.07881E+000,-1.17336E-003,0.00000E+000,-2.42219E-004,9.70469E-001,0.00000E+000,-2.58342E-003,-6.34713E-002,1.00000E+000,12
1109,1327,1.53408E+001,-2.73540E-002,-5.80403E-002,3.83586E+000,-1.72118E-001,-4.33948E-002,3.83996E+000,7.48391E-003,4.44566E-001,0,5.82123E+001,-3.09839E+000,9.99053E-001,1.79642E+001,-3.43400E+001,9.98303E-001,7.87326E-002,-3.22090E-002,-1.19055E-003,7.87454E-002,-3.22218E-002,-6.14765E-001,7.91771E-002,1.08172E+000,-2.05973E-002,0.00000E+000,1.60117E-002,9.69636E-001,0.00000E+000,1.59537E-003,-5.50125E-002,1.00000E+000,12
1109,1337,1.53482E+001,6.06272E-001,-7.20669E-002,3.82270E+000,-1.90248E-001,-7.56416E-002,3.82817E+000,8.24230E-003,4.70475E-001,0,5.81297E+001,-3.32514E+000,9.99384E-001,1.81302E+001,-3.44811E+001,9.98950E-001,7.93656E-002,-3.22069E-002,-1.15359E-003,7.93775E-002,-3.22188E-002,-5.92316E-001,7.98448E-002,1.08241E+000,-2.05759E-002,0.00000E+000,1.60823E-002,9.69638E-001,0.00000E+000,1.03902E-003,-5.50298E-002,1.00000E+000,12
1109,1347,1.53665E+001,1.24379E+000,-4.66326E-002,3.81091E+000,-2.09608E-001,-1.07025E-001,3.81817E+000,8.93337E-003,4.77253E-001,0,5.80599E+001,-3.57530E+000,9.99367E-001,1.85341E+001,-3.46608E+001,9.98484E-001,8.00008E-002,-3.22042E-002,-1.11208E-003,8.00118E-002,-3.22152E-002,-5.67792E-001,8.05159E-002,1.08310E+000,-2.05449E-002,0.00000E+000,1.61532E-002,9.69641E-001,0.00000E+000,4.79920E-004,-5.50551E-002,1.00000E+000,12
739,1337,-1.07643E+001,1.18513E-001,1.46751E-002,1.84910E+000,-4.48481E-001,5.90251E-002,1.90362E+000,6.65417E-003,5.77286E-001,0,2.86414E+001,-7.39219E+000,9.99345E-001,-1.49574E+001,-4.57247E+001,9.99031E-001,7.56452E-002,-3.17601E-002,-5.75978E-004,7.56483E-002,-3.17632E-002,-3.07246E-001,7.59714E-002,1.07858E+000,-8.04490E-004,0.00000E+000,-3.41141E-004,9.70644E-001,0.00000E+000,-9.20018E-004,-6.27382E-002,1.00000E+000,12
739,1347,-1.07507E+001,7.43835E-001,-1.24532E-003,1.84672E+000,-4.66226E-001,2.06054E-002,1.90478E+000,5.07780E-003,5.47018E-001,0,2.87166E+001,-7.58156E+000,9.99692E-001,-1.46539E+001,-4.60828E+001,9.99462E-001,7.52869E-002,-3.17657E-002,-6.91962E-004,7.52914E-002,-3.17702E-002,-3.70325E-001,7.55965E-002,1.07820E+000,-8.14016E-004,0.00000E+000,-5.10681E-004,9.70640E-001,0.00000E+000,-1.69089E-003,-6.27573E-002,1.00000E+000,12
739,1357,-1.07274E+001,1.37621E+000,2.67305E-002,1.84659E+000,-4.83290E-001,-1.35738E-002,1.90883E+000,5.38024E-003,5.44928E-001,0,2.88111E+001,-7.77952E+000,9.99573E-001,-1.40844E+001,-4.64164E+001,9.99449E-001,7.49254E-002,-3.17738E-002,-8.10797E-004,7.49316E-002,-3.17800E-002,-4.35351E-001,7.52187E-002,1.07781E+000,-8.27997E-004,0.00000E+000,-6.81374E-004,9.70633E-001,0.00000E+000,-2.46701E-003,-6.27852E-002,1.00000E+000,12
739,1327,-1.07759E+001,-5.01276E-001,5.64528E-002,1.84918E+000,-4.27889E-001,1.00816E-001,1.90072E+000,6.87954E-003,5.32806E-001,0,2.85184E+001,-7.13892E+000,9.99640E-001,-1.51615E+001,-4.53766E+001,9.99277E-001,7.60020E-002,-3.17560E-002,-4.61442E-004,7.60039E-002,-3.17580E-002,-2.45347E-001,7.63451E-002,1.07896E+000,-7.97471E-004,0.00000E+000,-1.72011E-004,9.70647E-001,0.00000E+000,-1.51002E-004,-6.27242E-002,1.00000E+000,12
1119,1297,1.60549E+001,-1.88054E+000,1.03701E-001,3.92555E+000,-9.48129E-002,6.77200E-002,3.92727E+000,7.76593E-003,4.46314E-001,0,5.90961E+001,-2.08896E+000,9.99592E-001,1.91330E+001,-3.33183E+001,9.98932E-001,7.70163E-002,-3.20912E-002,-1.40374E-003,7.70344E-002,-3.21092E-002,-7.36987E-001,7.73889E-002,1.07989E+000,-1.98470E-002,0.00000E+000,1.48717E-002,9.69787E-001,0.00000E+000,3.22742E-003,-5.53834E-002,1.00000E+000,12
1119,1307,1.60518E+001,-1.26073E+000,3.16999E-002,3.91448E+000,-1.17928E-001,2.89721E-002,3.91636E+000,6.31502E-003,4.44019E-001,0,5.90796E+001,-2.38670E+000,9.99609E-001,1.90326E+001,-3.35574E+001,9.99400E-001,7.76399E-002,-3.20877E-002,-1.33696E-003,7.76562E-002,-3.21040E-002,-6.97971E-001,7.80434E-002,1.08056E+000,-1.98387E-002,0.00000E+000,1.50169E-002,9.69789E-001,0.00000E+000,2.58948E-003,-5.53914E-002,1.00000E+000,12
1119,1317,1.60519E+001,-6.37925E-001,-2.41074E-002,3.90330E+000,-1.39786E-001,-6.65179E-003,3.90581E+000,6.39114E-003,4.30992E-001,0,5.90472E+001,-2.66857E+000,9.99453E-001,1.90090E+001,-3.37901E+001,9.99327E-001,7.82638E-002,-3.20838E-002,-1.26859E-003,7.82784E-002,-3.20984E-002,-6.58573E-001,7.86994E-002,1.08123E+000,-1.98270E-002,0.00000E+000,1.51622E-002,9.69792E-001,0.00000E+000,1.95043E-003,-5.54025E-002,1.00000E+000,12
1119,1327,1.60541E+001,-1.13006E-002,-5.93561E-002,3.88940E+000,-1.60995E-001,-4.14032E-002,3.89295E+000,6.21176E-003,4.15895E-001,0,5.89674E+001,-2.93704E+000,9.99322E-001,1.90547E+001,-3.40104E+001,9.99167E-001,7.88889E-002,-3.20789E-002,-1.19777E-003,7.89018E-002,-3.20919E-002,-6.18347E-001,7.93581E-002,1.08191E+000,-1.98104E-002,0.00000E+000,1.53081E-002,9.69795E-001,0.00000E+000,1.30917E-003,-5.54182E-002,1.00000E+000,12
1119,1337,1.60625E+001,6.20011E-001,-7.21218E-002,3.87641E+000,-1.82369E-001,-7.49588E-002,3.88142E+000,6.37695E-003,4.62709E-001,0,5.88940E+001,-3.21663E+000,9.99661E-001,1.92360E+001,-3.41779E+001,9.98958E-001,7.95169E-002,-3.20732E-002,-1.12416E-003,7.95282E-002,-3.20845E-002,-5.77119E-001,8.00210E-002,1.08259E+000,-1.97885E-002,0.00000E+000,1.54548E-002,9.69800E-001,0.00000E+000,6.64103E-004,-5.54390E-002,1.00000E+000,12
1119,1347,1.60789E+001,1.25729E+000,-4.73641E-002,3.86332E+000,-2.01294E-001,-1.04108E-001,3.86996E+000,9.32030E-003,4.53788E-001,0,5.87969E+001,-3.46471E+000,9.99634E-001,1.96082E+001,-3.43663E+001,9.98865E-001,8.01457E-002,-3.20660E-002,-1.04663E-003,8.01555E-002,-3.20758E-002,-5.34350E-001,8.06863E-002,1.08327E+000,-1.97584E-002,0.00000E+000,1.56020E-002,9.69807E-001,0.00000E+000,1.71140E-005,-5.54677E-002,1.00000E+000,12
739,1317,-1.07796E+001,-1.11185E+000,1.34467E-001,1.85062E+000,-4.04539E-001,1.43604E-001,1.89976E+000,8.42488E-003,5.66924E-001,0,2.84103E+001,-6.86388E+000,9.99596E-001,-1.51453E+001,-4.49250E+001,9.99025E-001,7.63553E-002,-3.17542E-002,-3.49564E-004,7.63565E-002,-3.17553E-002,-1.85259E-001,7.67158E-002,1.07935E+000,-7.94422E-004,0.00000E+000,-4.11390E-006,9.70648E-001,0.00000E+000,6.12405E-004,-6.27181E-002,1.00000E+000,12
1129,1297,1.67631E+001,-1.86354E+000,9.70330E-002,3.97561E+000,-8.14983E-002,7.14022E-002,3.97709E+000,9.13768E-003,4.26590E-001,0,5.97884E+001,-1.89421E+000,9.99737E-001,2.01410E+001,-3.29636E+001,9.98747E-001,7.70787E-002,-3.20316E-002,-1.50974E-003,7.70996E-002,-3.20525E-002,-7.92590E-001,7.74638E-002,1.07997E+000,-1.90649E-002,0.00000E+000,1.40024E-002,9.69873E-001,0.00000E+000,2.52212E-003,-5.56426E-002,1.00000E+000,12
1129,1307,1.67600E+001,-1.24800E+000,2.41820E-002,3.96426E+000,-1.09017E-001,3.10951E-002,3.96588E+000,1.29392E-002,4.13455E-001,0,5.97762E+001,-2.25407E+000,9.99674E-001,2.00381E+001,-3.32706E+001,9.97507E-001,7.77618E-002,-3.20264E-002,-1.41198E-003,7.77799E-002,-3.20446E-002,-7.36716E-001,7.81805E-002,1.08070E+000,-1.90554E-002,0.00000E+000,1.42056E-002,9.69876E-001,0.00000E+000,1.89604E-003,-5.56507E-002,1.00000E+000,12
1129,1317,1.67635E+001,-6.25702E-001,-2.96104E-002,3.95602E+000,-1.31807E-001,-4.08938E-003,3.95822E+000,7.68067E-003,4.04197E-001,0,5.97874E+001,-2.55425E+000,9.99686E-001,2.00707E+001,-3.35117E+001,9.97835E-001,7.84454E-002,-3.20204E-002,-1.31229E-003,7.84610E-002,-3.20360E-002,-6.80524E-001,7.88995E-002,1.08144E+000,-1.90421E-002,0.00000E+000,1.44093E-002,9.69879E-001,0.00000E+000,1.26861E-003,-5.56620E-002,1.00000E+000,12
729,1347,-1.14400E+001,7.34876E-001,3.96054E-003,1.80033E+000,-4.70521E-001,1.95946E-002,1.86091E+000,4.67379E-003,5.49063E-001,0,2.80186E+001,-7.63610E+000,9.99817E-001,-1.52055E+001,-4.63305E+001,9.99624E-001,7.44421E-002,-3.15114E-002,-5.91036E-004,7.44454E-002,-3.15147E-002,-3.19597E-001,7.47366E-002,1.07728E+000,-1.38976E-004,0.00000E+000,-9.25938E-004,9.70826E-001,0.00000E+000,-1.62146E-003,-6.17569E-002,1.00000E+000,12
729,1357,-1.14202E+001,1.37078E+000,2.66382E-002,1.79802E+000,-4.83113E-001,-1.37798E-002,1.86185E+000,5.30315E-003,5.61646E-001,0,2.80755E+001,-7.77032E+000,9.99656E-001,-1.47011E+001,-4.65932E+001,9.99548E-001,7.38974E-002,-3.15173E-002,-6.88174E-004,7.39019E-002,-3.15218E-002,-3.74020E-001,7.41673E-002,1.07670E+000,-1.58831E-004,0.00000E+000,-1.04070E-003,9.70822E-001,0.00000E+000,-2.55618E-003,-6.17887E-002,1.00000E+000,12
1129,1327,1.67682E+001,3.76387E-003,-6.12481E-002,3.94499E+000,-1.49532E-001,-3.30185E-002,3.94796E+000,8.26559E-003,4.00064E-001,0,5.97284E+001,-2.79650E+000,9.99619E-001,2.01597E+001,-3.36884E+001,9.98895E-001,7.91295E-002,-3.20133E-002,-1.21044E-003,7.91427E-002,-3.20264E-002,-6.23901E-001,7.96207E-002,1.08218E+000,-1.90244E-002,0.00000E+000,1.46134E-002,9.69884E-001,0.00000E+000,6.39843E-004,-5.56770E-002,1.00000E+000,12
729,1337,-1.14583E+001,1.12580E-001,1.75671E-002,1.79904E+000,-4.48463E-001,6.19509E-002,1.85513E+000,5.84679E-003,5.58256E-001,0,2.78749E+001,-7.38640E+000,9.99571E-001,-1.55876E+001,-4.59302E+001,9.99275E-001,7.49833E-002,-3.15069E-002,-4.96433E-004,7.49856E-002,-3.15092E-002,-2.67092E-001,7.53033E-002,1.07787E+000,-1.23691E-004,0.00000E+000,-8.11665E-004,9.70829E-001,0.00000E+000,-6.90749E-004,-6.17325E-002,1.00000E+000,12
729,1327,-1.14689E+001,-5.05039E-001,6.14414E-002,1.79919E+000,-4.27651E-001,1.01239E-001,1.85209E+000,6.73457E-003,5.49607E-001,0,2.77608E+001,-7.12568E+000,9.99466E-001,-1.57701E+001,-4.55333E+001,9.99046E-001,7.55198E-002,-3.15040E-002,-4.05030E-004,7.55213E-002,-3.15056E-002,-2.16831E-001,7.58659E-002,1.07844E+000,-1.14011E-004,0.00000E+000,-6.98148E-004,9.70831E-001,0.00000E+000,2.33815E-004,-6.17170E-002,1.00000E+000,12
1129,1337,1.67837E+001,6.38792E-001,-5.91604E-002,3.93310E+000,-1.72132E-001,-7.52549E-002,3.93758E+000,8.13967E-003,4.81807E-001,0,5.97026E+001,-3.07405E+000,9.99579E-001,2.04761E+001,-3.38113E+001,9.99182E-001,7.98212E-002,-3.20030E-002,-1.10145E-003,7.98321E-002,-3.20138E-002,-5.64280E-001,8.03519E-002,1.08293E+000,-1.89937E-002,0.00000E+000,1.48201E-002,9.69893E-001,0.00000E+000,3.04229E-006,-5.57032E-002,1.00000E+000,12
729,1317,-1.14754E+001,-1.11701E+000,1.31762E-001,1.79912E+000,-4.04168E-001,1.43923E-001,1.84956E+000,8.27497E-003,5.62300E-001,0,2.76309E+001,-6.84763E+000,9.99483E-001,-1.58186E+001,-4.50960E+001,9.98548E-001,7.60536E-002,-3.15023E-002,-3.15667E-004,7.60545E-002,-3.15032E-002,-1.68156E-001,7.64267E-002,1.07902E+000,-1.08176E-004,0.00000E+000,-5.84952E-004,9.70832E-001,0.00000E+000,1.15575E-003,-6.17076E-002,1.00000E+000,12
1129,1347,1.67949E+001,1.27648E+000,-4.69055E-002,3.91753E+000,-1.89353E-001,-1.05305E-001,3.92351E+000,9.80325E-003,4.81783E-001,0,5.95730E+001,-3.29590E+000,9.99500E-001,2.07444E+001,-3.39606E+001,9.98858E-001,8.05093E-002,-3.19929E-002,-9.93190E-004,8.05181E-002,-3.20016E-002,-5.05765E-001,8.10807E-002,1.08367E+000,-1.89637E-002,0.00000E+000,1.50260E-002,9.69901E-001,0.00000E+000,-6.31205E-004,-5.57288E-002,1.00000E+000,12
719,1347,-1.21350E+001,7.32998E-001,3.35217E-003,1.74928E+000,-4.66261E-001,2.04813E-002,1.81047E+000,7.46421E-003,5.55160E-001,0,2.72396E+001,-7.56843E+000,9.99583E-001,-1.58541E+001,-4.64555E+001,9.99343E-001,7.38424E-002,-3.13525E-002,-5.56496E-004,7.38453E-002,-3.13554E-002,-3.03092E-001,7.41246E-002,1.07664E+000,5.84067E-004,0.00000E+000,-1.52010E-003,9.70911E-001,0.00000E+000,-1.45523E-003,-6.06071E-002,1.00000E+000,12
719,1357,-1.21150E+001,1.36358E+000,2.48467E-002,1.74754E+000,-4.84464E-001,-1.32393E-002,1.81349E+000,6.05326E-003,5.79097E-001,0,2.73075E+001,-7.78531E+000,9.99608E-001,-1.53486E+001,-4.67935E+001,9.99471E-001,7.31210E-002,-3.13561E-002,-6.23894E-004,7.31248E-002,-3.13598E-002,-3.42130E-001,7.33711E-002,1.07586E+000,5.58224E-004,0.00000E+000,-1.56310E-003,9.70910E-001,0.00000E+000,-2.56194E-003,-6.06441E-002,1.00000E+000,12
719,1337,-1.21515E+001,1.10292E-001,1.89868E-002,1.74886E+000,-4.45824E-001,6.06085E-002,1.80581E+000,7.50516E-003,5.70709E-001,0,2.71170E+001,-7.33662E+000,9.99250E-001,-1.62041E+001,-4.60608E+001,9.98959E-001,7.45574E-002,-3.13499E-002,-4.92643E-004,7.45597E-002,-3.13522E-002,-2.66512E-001,7.48732E-002,1.07741E+000,6.03138E-004,0.00000E+000,-1.47736E-003,9.70912E-001,0.00000E+000,-3.55549E-004,-6.05798E-002,1.00000E+000,12
719,1327,-1.21616E+001,-5.07140E-001,6.47000E-002,1.74909E+000,-4.25366E-001,1.00081E-001,1.80285E+000,5.76934E-003,5.72824E-001,0,2.70044E+001,-7.08606E+000,9.99173E-001,-1.63745E+001,-4.56577E+001,9.98861E-001,7.52666E-002,-3.13482E-002,-4.32276E-004,7.52684E-002,-3.13499E-002,-2.32304E-001,7.56173E-002,1.07817E+000,6.15446E-004,0.00000E+000,-1.43488E-003,9.70913E-001,0.00000E+000,7.37764E-004,-6.05622E-002,1.00000E+000,12
719,1317,-1.21681E+001,-1.11935E+000,1.40221E-001,1.74787E+000,-4.02665E-001,1.42191E-001,1.79928E+000,8.18144E-003,5.55583E-001,0,2.68592E+001,-6.81145E+000,9.99136E-001,-1.64091E+001,-4.52481E+001,9.98325E-001,7.59723E-002,-3.13474E-002,-3.74806E-004,7.59736E-002,-3.13487E-002,-2.00098E-001,7.63593E-002,1.07893E+000,6.21822E-004,0.00000E+000,-1.39250E-003,9.70913E-001,0.00000E+000,1.82830E-003,-6.05531E-002,1.00000E+000,12
1139,1297,1.74811E+001,-1.85255E+000,9.71950E-002,4.03355E+000,-7.38716E-002,7.60746E-002,4.03495E+000,6.90703E-003,3.73732E-001,0,6.05955E+001,-1.79179E+000,9.99863E-001,2.13156E+001,-3.27322E+001,9.98706E-001,7.71287E-002,-3.20675E-002,-1.56666E-003,7.71512E-002,-3.20900E-002,-8.21810E-001,7.75138E-002,1.08003E+000,-1.82584E-002,0.00000E+000,1.32262E-002,9.69872E-001,0.00000E+000,1.43337E-003,-5.60495E-002,1.00000E+000,12
1139,1307,1.74766E+001,-1.23775E+000,1.77959E-002,4.02190E+000,-1.02176E-001,3.39590E-002,4.02334E+000,7.92130E-003,3.67352E-001,0,6.05876E+001,-2.15598E+000,9.99801E-001,2.11797E+001,-3.30318E+001,9.98740E-001,7.78980E-002,-3.20624E-002,-1.46138E-003,7.79174E-002,-3.20819E-002,-7.61286E-001,7.83210E-002,1.08086E+000,-1.82491E-002,0.00000E+000,1.34402E-002,9.69875E-001,0.00000E+000,8.68860E-004,-5.60558E-002,1.00000E+000,12
1139,1337,1.74969E+001,6.57806E-001,-6.17505E-002,3.98512E+000,-1.59046E-001,-7.58364E-002,3.98901E+000,9.13288E-003,4.98113E-001,0,6.04414E+001,-2.89136E+000,9.99461E-001,2.15688E+001,-3.34093E+001,9.98318E-001,8.02196E-002,-3.20369E-002,-1.12277E-003,8.02308E-002,-3.20481E-002,-5.72984E-001,8.07698E-002,1.08337E+000,-1.81767E-002,0.00000E+000,1.40876E-002,9.69893E-001,0.00000E+000,-8.39328E-004,-5.61050E-002,1.00000E+000,12
1139,1347,1.75175E+001,1.29377E+000,-3.26532E-002,3.97457E+000,-1.81145E-001,-1.05523E-001,3.98009E+000,9.53512E-003,4.87174E-001,0,6.03864E+001,-3.17709E+000,9.99317E-001,2.20087E+001,-3.36255E+001,9.98005E-001,8.09974E-002,-3.20248E-002,-1.00225E-003,8.10063E-002,-3.20337E-002,-5.08028E-001,8.15945E-002,1.08422E+000,-1.81374E-002,0.00000E+000,1.43051E-002,9.69903E-001,0.00000E+000,-1.41317E-003,-5.61318E-002,1.00000E+000,12
1139,1327,1.74837E+001,1.89490E-002,-6.76817E-002,3.99926E+000,-1.41811E-001,-3.82872E-002,4.00196E+000,8.91812E-003,4.45850E-001,0,6.05202E+001,-2.67532E+000,9.99584E-001,2.12832E+001,-3.33238E+001,9.98101E-001,7.94423E-002,-3.20478E-002,-1.24097E-003,7.94561E-002,-3.20616E-002,-6.37640E-001,7.99477E-002,1.08253E+000,-1.82113E-002,0.00000E+000,1.38705E-002,9.69884E-001,0.00000E+000,-2.66612E-004,-5.60815E-002,1.00000E+000,12
1139,1317,1.74734E+001,-6.14316E-001,-4.48633E-002,4.00794E+000,-1.24145E-001,-5.63870E-003,4.00987E+000,9.38973E-003,4.00364E-001,0,6.05307E+001,-2.44317E+000,9.99742E-001,2.10923E+001,-3.32141E+001,9.98373E-001,7.86683E-002,-3.20563E-002,-1.35383E-003,7.86848E-002,-3.20729E-002,-7.00418E-001,7.91313E-002,1.08169E+000,-1.82353E-002,0.00000E+000,1.36547E-002,9.69878E-001,0.00000E+000,3.02901E-004,-5.60652E-002,1.00000E+000,12
709,1347,-1.28319E+001,7.31470E-001,5.17276E-003,1.69602E+000,-4.61564E-001,2.41571E-002,1.75787E+000,7.04415E-003,5.62159E-001,0,2.64173E+001,-7.50112E+000,9.99451E-001,-1.65202E+001,-4.65805E+001,9.99323E-001,7.32732E-002,-3.08334E-002,-6.32397E-004,7.32771E-002,-3.08372E-002,-3.48027E-001,7.35826E-002,1.07603E+000,1.34554E-003,0.00000E+000,-2.35900E-003,9.71368E-001,0.00000E+000,-1.38092E-003,-5.98213E-002,1.00000E+000,12
709,1357,-1.28110E+001,1.36083E+000,2.38781E-002,1.69590E+000,-4.79439E-001,-9.31492E-003,1.76239E+000,6.04764E-003,5.54042E-001,0,2.65091E+001,-7.71116E+000,9.99604E-001,-1.60074E+001,-4.69490E+001,9.99585E-001,7.24336E-002,-3.08373E-002,-7.09426E-004,7.24385E-002,-3.08422E-002,-3.93572E-001,7.27041E-002,1.07512E+000,1.31654E-003,0.00000E+000,-2.41793E-003,9.71366E-001,0.00000E+000,-2.51199E-003,-5.98577E-002,1.00000E+000,12
709,1337,-1.28432E+001,1.06485E-001,2.49071E-002,1.69912E+000,-4.44735E-001,6.03795E-002,1.75740E+000,6.53108E-003,5.64899E-001,0,2.63619E+001,-7.31180E+000,9.99406E-001,-1.67818E+001,-4.62336E+001,9.98981E-001,7.41061E-002,-3.08308E-002,-5.59977E-004,7.41091E-002,-3.08338E-002,-3.05737E-001,7.44564E-002,1.07692E+000,1.36550E-003,0.00000E+000,-2.30040E-003,9.71369E-001,0.00000E+000,-2.56211E-004,-5.97962E-002,1.00000E+000,12
709,1317,-1.28575E+001,-1.12016E+000,1.51212E-001,1.69867E+000,-4.00585E-001,1.38480E-001,1.75075E+000,9.10377E-003,5.69630E-001,0,2.61234E+001,-6.76813E+000,9.99446E-001,-1.69380E+001,-4.53715E+001,9.98780E-001,7.57548E-002,-3.08285E-002,-4.25607E-004,7.57565E-002,-3.08302E-002,-2.28788E-001,7.61923E-002,1.07870E+000,1.38486E-003,0.00000E+000,-2.18400E-003,9.71370E-001,0.00000E+000,1.97785E-003,-5.97719E-002,1.00000E+000,12
709,1327,-1.28492E+001,-5.07401E-001,8.24442E-002,1.70128E+000,-4.22342E-001,1.00380E-001,1.75579E+000,8.85847E-003,5.86280E-001,0,2.62773E+001,-7.04581E+000,9.99509E-001,-1.68573E+001,-4.57892E+001,9.99072E-001,7.49321E-002,-3.08294E-002,-4.91965E-004,7.49344E-002,-3.08317E-002,-2.66512E-001,7.53251E-002,1.07781E+000,1.37683E-003,0.00000E+000,-2.24215E-003,9.71370E-001,0.00000E+000,8.61785E-004,-5.97820E-002,1.00000E+000,12
1149,1297,1.81911E+001,-1.84135E+000,8.17186E-002,4.08497E+000,-6.74117E-002,7.30569E-002,4.08618E+000,1.42026E-002,3.91517E-001,0,6.13340E+001,-1.68697E+000,9.99641E-001,2.23430E+001,-3.24301E+001,9.97051E-001,7.72332E-002,-3.21031E-002,-1.61794E-003,7.72572E-002,-3.21270E-002,-8.47604E-001,7.76211E-002,1.08016E+000,-1.74920E-002,0.00000E+000,1.25097E-002,9.69877E-001,0.00000E+000,1.10362E-004,-5.65764E-002,1.00000E+000,12
1149,1307,1.81935E+001,-1.21830E+000,1.53625E-002,4.07884E+000,-8.74684E-002,3.89729E-002,4.07996E+000,9.16521E-003,3.99391E-001,0,6.13751E+001,-1.96388E+000,9.99698E-001,2.23360E+001,-3.26200E+001,9.98313E-001,7.80833E-002,-3.20986E-002,-1.52503E-003,7.81044E-002,-3.21197E-002,-7.92832E-001,7.85135E-002,1.08107E+000,-1.74799E-002,0.00000E+000,1.26887E-002,9.69879E-001,0.00000E+000,-3.08232E-004,-5.65819E-002,1.00000E+000,12
1149,1317,1.81939E+001,-5.95305E-001,-3.85788E-002,4.06625E+000,-1.11602E-001,-5.49083E-004,4.06778E+000,7.84351E-003,4.16886E-001,0,6.13392E+001,-2.27349E+000,9.99680E-001,2.23194E+001,-3.28335E+001,9.98423E-001,7.89366E-002,-3.20929E-002,-1.42884E-003,7.89550E-002,-3.21113E-002,-7.37179E-001,7.94118E-002,1.08200E+000,-1.74615E-002,0.00000E+000,1.28686E-002,9.69883E-001,0.00000E+000,-7.28937E-004,-5.65903E-002,1.00000E+000,12
1149,1327,1.81983E+001,3.43008E-002,-7.54371E-002,4.05329E+000,-1.30036E-001,-4.07579E-002,4.05558E+000,7.86005E-003,3.92257E-001,0,6.12954E+001,-2.49959E+000,9.99594E-001,2.23950E+001,-3.30037E+001,9.98219E-001,7.97890E-002,-3.20862E-002,-1.32987E-003,7.98049E-002,-3.21020E-002,-6.80953E-001,8.03115E-002,1.08292E+000,-1.74370E-002,0.00000E+000,1.30485E-002,9.69888E-001,0.00000E+000,-1.14973E-003,-5.66014E-002,1.00000E+000,12
1149,1337,1.82111E+001,6.69104E-001,-7.33884E-002,4.04014E+000,-1.52672E-001,-7.54850E-002,4.04372E+000,1.23822E-002,4.87243E-001,0,6.12246E+001,-2.79424E+000,9.99631E-001,2.26648E+001,-3.31204E+001,9.98520E-001,8.06509E-002,-3.20773E-002,-1.22446E-003,8.06642E-002,-3.20906E-002,-6.22252E-001,8.12236E-002,1.08385E+000,-1.74007E-002,0.00000E+000,1.32307E-002,9.69895E-001,0.00000E+000,-1.57568E-003,-5.66180E-002,1.00000E+000,12
1149,1347,1.82385E+001,1.31022E+000,-2.75187E-002,4.03242E+000,-1.72762E-001,-1.03502E-001,4.03744E+000,1.24350E-002,4.88325E-001,0,6.12033E+001,-3.04911E+000,9.99572E-001,2.32373E+001,-3.32857E+001,9.98311E-001,8.15144E-002,-3.20661E-002,-1.11293E-003,8.15253E-002,-3.20770E-002,-5.61348E-001,8.21399E-002,1.08479E+000,-1.73515E-002,0.00000E+000,1.34134E-002,9.69904E-001,0.00000E+000,-2.00302E-003,-5.66404E-002,1.00000E+000,12
699,1347,-1.35184E+001,7.28742E-001,1.40496E-002,1.65125E+000,-4.60527E-001,2.71496E-002,1.71448E+000,6.74658E-003,5.96121E-001,0,2.57285E+001,-7.48381E+000,9.99656E-001,-1.70046E+001,-4.67247E+001,9.99529E-001,7.26375E-002,-3.03086E-002,-5.92643E-004,7.26410E-002,-3.03120E-002,-3.29827E-001,7.29715E-002,1.07534E+000,2.33678E-003,0.00000E+000,-3.17976E-003,9.71823E-001,0.00000E+000,-1.34439E-003,-5.89127E-002,1.00000E+000,12
699,1357,-1.34992E+001,1.35407E+000,2.98951E-002,1.65001E+000,-4.81950E-001,-7.44583E-003,1.71898E+000,6.36381E-003,5.69224E-001,0,2.58067E+001,-7.73725E+000,9.99642E-001,-1.65234E+001,-4.71603E+001,9.99486E-001,7.16924E-002,-3.03091E-002,-6.14129E-004,7.16961E-002,-3.03128E-002,-3.44949E-001,7.19804E-002,1.07433E+000,2.30497E-003,0.00000E+000,-3.13576E-003,9.71824E-001,0.00000E+000,-2.37794E-003,-5.89452E-002,1.00000E+000,12
699,1337,-1.35357E+001,1.01248E-001,3.06735E-002,1.64847E+000,-4.45047E-001,6.12843E-002,1.70858E+000,5.87791E-003,5.64754E-001,0,2.55888E+001,-7.31192E+000,9.99562E-001,-1.73675E+001,-4.64254E+001,9.99259E-001,7.35776E-002,-3.03083E-002,-5.75520E-004,7.35808E-002,-3.03115E-002,-3.17401E-001,7.39601E-002,1.07635E+000,2.35934E-003,0.00000E+000,-3.22362E-003,9.71822E-001,0.00000E+000,-3.14240E-004,-5.88897E-002,1.00000E+000,12
699,1317,-1.35497E+001,-1.12009E+000,1.61370E-001,1.64594E+000,-3.98676E-001,1.31728E-001,1.69865E+000,9.66097E-003,6.04946E-001,0,2.53403E+001,-6.71966E+000,9.99558E-001,-1.75062E+001,-4.54694E+001,9.98797E-001,7.54323E-002,-3.03081E-002,-5.53990E-004,7.54352E-002,-3.03110E-002,-3.00170E-001,7.59184E-002,1.07835E+000,2.37744E-003,0.00000E+000,-3.31041E-003,9.71821E-001,0.00000E+000,1.72443E-003,-5.88713E-002,1.00000E+000,12
699,1327,-1.35436E+001,-5.07278E-001,8.67311E-002,1.64804E+000,-4.20385E-001,9.68813E-002,1.70356E+000,7.89723E-003,6.69920E-001,0,2.54766E+001,-7.00453E+000,9.99526E-001,-1.74757E+001,-4.58520E+001,9.98190E-001,7.45042E-002,-3.03082E-002,-5.63538E-004,7.45073E-002,-3.03112E-002,-3.08047E-001,7.49373E-002,1.07735E+000,2.37103E-003,0.00000E+000,-3.26694E-003,9.71822E-001,0.00000E+000,7.03254E-004,-5.88778E-002,1.00000E+000,12
1159,1307,1.89033E+001,-1.20834E+000,-2.58339E-003,4.12952E+000,-8.15947E-002,3.33553E-002,4.13046E+000,8.86839E-003,3.88854E-001,0,6.21125E+001,-1.86259E+000,9.99173E-001,2.33603E+001,-3.23441E+001,9.98062E-001,7.83912E-002,-3.22564E-002,-1.52686E-003,7.84123E-002,-3.22775E-002,-7.90440E-001,7.88194E-002,1.08142E+000,-1.67323E-002,0.00000E+000,1.20734E-002,9.69761E-001,0.00000E+000,-1.46150E-003,-5.70584E-002,1.00000E+000,12
1159,1317,1.89073E+001,-5.80213E-001,-5.42466E-002,4.12043E+000,-1.01440E-001,-3.98535E-003,4.12168E+000,8.48723E-003,4.36018E-001,0,6.21199E+001,-2.11707E+000,9.99352E-001,2.34040E+001,-3.24659E+001,9.99019E-001,7.92988E-002,-3.22538E-002,-1.47281E-003,7.93182E-002,-3.22732E-002,-7.56291E-001,7.97754E-002,1.08240E+000,-1.67125E-002,0.00000E+000,1.21670E-002,9.69763E-001,0.00000E+000,-1.82415E-003,-5.70657E-002,1.00000E+000,12
1159,1327,1.89176E+001,4.85833E-002,-7.60130E-002,4.11074E+000,-1.23398E-001,-3.84570E-002,4.11277E+000,6.11833E-003,4.07410E-001,0,6.21041E+001,-2.39120E+000,9.99686E-001,2.35938E+001,-3.26810E+001,9.99167E-001,8.02075E-002,-3.22503E-002,-1.41408E-003,8.02253E-002,-3.22681E-002,-7.20304E-001,8.07350E-002,1.08339E+000,-1.66827E-002,0.00000E+000,1.22608E-002,9.69766E-001,0.00000E+000,-2.18772E-003,-5.70767E-002,1.00000E+000,12
1159,1297,1.89017E+001,-1.82959E+000,6.32372E-002,4.13723E+000,-5.98085E-002,6.99234E-002,4.13825E+000,1.03742E-002,4.36839E-001,0,6.20843E+001,-1.58134E+000,9.99359E-001,2.33781E+001,-3.20991E+001,9.96145E-001,7.74887E-002,-3.22586E-002,-1.57803E-003,7.75114E-002,-3.22813E-002,-8.23616E-001,7.78711E-002,1.08044E+000,-1.67464E-002,0.00000E+000,1.19804E-002,9.69760E-001,0.00000E+000,-1.10124E-003,-5.70532E-002,1.00000E+000,12
1159,1337,1.89394E+001,6.83435E-001,-6.06431E-002,4.10306E+000,-1.46475E-001,-7.37547E-002,4.10634E+000,8.76629E-003,4.43459E-001,0,6.21167E+001,-2.69064E+000,9.99829E-001,2.40259E+001,-3.28533E+001,9.99573E-001,8.11228E-002,-3.22458E-002,-1.34849E-003,8.11389E-002,-3.22618E-002,-6.81392E-001,8.17040E-002,1.08438E+000,-1.66387E-002,0.00000E+000,1.23555E-002,9.69770E-001,0.00000E+000,-2.55440E-003,-5.70930E-002,1.00000E+000,12
1159,1347,1.89610E+001,1.32359E+000,-3.11162E-002,4.09199E+000,-1.64679E-001,-1.07305E-001,4.09671E+000,9.76234E-003,4.56566E-001,0,6.20676E+001,-2.93305E+000,9.99622E-001,2.44769E+001,-3.29904E+001,9.99100E-001,8.20370E-002,-3.22409E-002,-1.28089E-003,8.20514E-002,-3.22552E-002,-6.42094E-001,8.26740E-002,1.08537E+000,-1.65901E-002,0.00000E+000,1.24501E-002,9.69775E-001,0.00000E+000,-2.92103E-003,-5.71109E-002,1.00000E+000,12
689,1347,-1.42073E+001,7.23270E-001,1.61952E-002,1.60328E+000,-4.62348E-001,2.09110E-002,1.66874E+000,7.01159E-003,6.18279E-001,0,2.50160E+001,-7.48802E+000,9.99761E-001,-1.75396E+001,-4.69027E+001,9.99105E-001,7.19690E-002,-3.00279E-002,-5.96111E-004,7.19725E-002,-3.00314E-002,-3.34844E-001,7.23002E-002,1.07462E+000,3.33436E-003,0.00000E+000,-4.08535E-003,9.72055E-001,0.00000E+000,-1.40970E-003,-5.82476E-002,1.00000E+000,12
689,1357,-1.41904E+001,1.34785E+000,2.33290E-002,1.60206E+000,-4.82027E-001,-1.06364E-002,1.67304E+000,6.76768E-003,5.76097E-001,0,2.50854E+001,-7.72172E+000,9.99629E-001,-1.71159E+001,-4.73403E+001,9.99509E-001,7.09074E-002,-3.00287E-002,-6.25767E-004,7.09113E-002,-3.00326E-002,-3.55195E-001,7.11872E-002,1.07348E+000,3.30260E-003,0.00000E+000,-4.06371E-003,9.72055E-001,0.00000E+000,-2.36168E-003,-5.82742E-002,1.00000E+000,12
689,1337,-1.42237E+001,1.02758E-001,3.65638E-002,1.60224E+000,-4.38467E-001,6.40960E-002,1.66239E+000,7.57967E-003,5.93870E-001,0,2.48762E+001,-7.22252E+000,9.99621E-001,-1.78779E+001,-4.64987E+001,9.99502E-001,7.30303E-002,-3.00272E-002,-5.68745E-004,7.30334E-002,-3.00304E-002,-3.16187E-001,7.34164E-002,1.07576E+000,3.36124E-003,0.00000E+000,-4.10702E-003,9.72054E-001,0.00000E+000,-4.56291E-004,-5.82251E-002,1.00000E+000,12
1169,1327,1.96312E+001,6.20726E-002,-8.47571E-002,4.16269E+000,-1.15542E-001,-4.21843E-002,4.16451E+000,5.96387E-003,4.51553E-001,0,6.28517E+001,-2.29091E+000,9.99804E-001,2.46950E+001,-3.23392E+001,9.99370E-001,8.05314E-002,-3.23992E-002,-1.36499E-003,8.05479E-002,-3.24157E-002,-6.92396E-001,8.10574E-002,1.08375E+000,-1.58089E-002,0.00000E+000,1.16346E-002,9.69639E-001,0.00000E+000,-3.34767E-003,-5.72405E-002,1.00000E+000,12
1169,1337,1.96562E+001,6.99483E-001,-6.47264E-002,4.15613E+000,-1.36383E-001,-8.02518E-002,4.15914E+000,7.91644E-003,4.44765E-001,0,6.28906E+001,-2.54439E+000,9.99836E-001,2.51826E+001,-3.25014E+001,9.99456E-001,8.14542E-002,-3.23987E-002,-1.33268E-003,8.14697E-002,-3.24143E-002,-6.70543E-001,8.20343E-002,1.08476E+000,-1.57613E-002,0.00000E+000,1.16587E-002,9.69640E-001,0.00000E+000,-3.65198E-003,-5.72549E-002,1.00000E+000,12
1169,1347,1.96829E+001,1.33823E+000,-2.78187E-002,4.14805E+000,-1.57652E-001,-1.13909E-001,4.15261E+000,7.23765E-003,4.33966E-001,0,6.28877E+001,-2.81775E+000,9.99679E-001,2.57230E+001,-3.26867E+001,9.99304E-001,8.23777E-002,-3.23981E-002,-1.29826E-003,8.23924E-002,-3.24128E-002,-6.47979E-001,8.30143E-002,1.08576E+000,-1.57091E-002,0.00000E+000,1.16828E-002,9.69641E-001,0.00000E+000,-3.95688E-003,-5.72708E-002,1.00000E+000,12
689,1327,-1.42402E+001,-5.13864E-001,7.47718E-002,1.59537E+000,-4.19014E-001,9.41058E-002,1.65216E+000,8.36223E-003,6.38075E-001,0,2.46827E+001,-6.97331E+000,9.99402E-001,-1.81687E+001,-4.60412E+001,9.98814E-001,7.40784E-002,-3.00268E-002,-5.46169E-004,7.40813E-002,-3.00297E-002,-3.00581E-001,7.45223E-002,1.07689E+000,3.37820E-003,0.00000E+000,-4.12847E-003,9.72054E-001,0.00000E+000,4.87188E-004,-5.82110E-002,1.00000E+000,12
1169,1317,1.96196E+001,-5.70980E-001,-6.09657E-002,4.17083E+000,-9.54514E-002,-7.48520E-003,4.17193E+000,1.02082E-002,3.71259E-001,0,6.28431E+001,-2.02872E+000,9.99597E-001,2.44896E+001,-3.22507E+001,9.99306E-001,7.96119E-002,-3.23996E-002,-1.38911E-003,7.96292E-002,-3.24168E-002,-7.10408E-001,8.00860E-002,1.08276E+000,-1.58386E-002,0.00000E+000,1.16106E-002,9.69638E-001,0.00000E+000,-3.04484E-003,-5.72314E-002,1.00000E+000,12
1169,1307,1.96149E+001,-1.19729E+000,-1.38500E-002,4.18071E+000,-7.63550E-002,3.11695E-002,4.18153E+000,9.06528E-003,4.27485E-001,0,6.28429E+001,-1.78399E+000,9.99574E-001,2.44277E+001,-3.20412E+001,9.98900E-001,7.87013E-002,-3.23999E-002,-1.40969E-003,7.87192E-002,-3.24178E-002,-7.26834E-001,7.91262E-002,1.08177E+000,-1.58608E-002,0.00000E+000,1.15868E-002,9.69638E-001,0.00000E+000,-2.74524E-003,-5.72247E-002,1.00000E+000,12
1169,1297,1.96168E+001,-1.81722E+000,5.87640E-002,4.19104E+000,-5.21905E-002,7.07827E-002,4.19197E+000,8.90879E-003,4.67849E-001,0,6.28398E+001,-1.48983E+000,9.99584E-001,2.45108E+001,-3.17953E+001,9.97256E-001,7.77901E-002,-3.24001E-002,-1.42607E-003,7.78085E-002,-3.24186E-002,-7.41349E-001,7.81681E-002,1.08078E+000,-1.58738E-002,0.00000E+000,1.15631E-002,9.69637E-001,0.00000E+000,-2.44578E-003,-5.72208E-002,1.00000E+000,12
689,1317,-1.42466E+001,-1.12452E+000,1.53099E-001,1.59279E+000,-3.96953E-001,1.31942E-001,1.64680E+000,9.19992E-003,6.04274E-001,0,2.45311E+001,-6.68241E+000,9.99445E-001,-1.81927E+001,-4.56161E+001,9.98255E-001,7.51218E-002,-3.00268E-002,-5.28331E-004,7.51244E-002,-3.00294E-002,-2.87880E-001,7.56263E-002,1.07801E+000,3.38503E-003,0.00000E+000,-4.14985E-003,9.72054E-001,0.00000E+000,1.42818E-003,-5.82052E-002,1.00000E+000,12
679,1347,-1.49021E+001,7.16770E-001,1.22978E-002,1.55087E+000,-4.60417E-001,1.85410E-002,1.61787E+000,1.23742E-002,6.22068E-001,0,2.42215E+001,-7.48466E+000,9.99293E-001,-1.81775E+001,-4.70934E+001,9.98776E-001,7.12746E-002,-2.97673E-002,-6.36377E-004,7.12787E-002,-2.97713E-002,-3.60838E-001,7.16000E-002,1.07387E+000,4.37353E-003,0.00000E+000,-5.10690E-003,9.72265E-001,0.00000E+000,-1.38554E-003,-5.75713E-002,1.00000E+000,12
679,1357,-1.48791E+001,1.34296E+000,1.77976E-002,1.55740E+000,-4.79588E-001,-6.44188E-003,1.62958E+000,5.07302E-003,6.05339E-001,0,2.43928E+001,-7.69959E+000,9.99655E-001,-1.76624E+001,-4.74907E+001,9.99534E-001,7.00636E-002,-2.97702E-002,-7.17974E-004,7.00688E-002,-2.97754E-002,-4.12025E-001,7.03314E-002,1.07257E+000,4.34051E-003,0.00000E+000,-5.19131E-003,9.72263E-001,0.00000E+000,-2.26562E-003,-5.75937E-002,1.00000E+000,12
1179,1297,2.03254E+001,-1.81026E+000,3.33081E-002,4.24249E+000,-4.76220E-002,6.87824E-002,4.24332E+000,1.52762E-002,4.79629E-001,0,6.35735E+001,-1.42667E+000,9.99732E-001,2.55116E+001,-3.15412E+001,9.97597E-001,7.80976E-002,-3.24962E-002,-1.28847E-003,7.81126E-002,-3.25113E-002,-6.67404E-001,7.84773E-002,1.08113E+000,-1.50761E-002,0.00000E+000,1.11802E-002,9.69559E-001,0.00000E+000,-3.67803E-003,-5.73958E-002,1.00000E+000,12
1179,1307,2.03295E+001,-1.19027E+000,-2.84037E-002,4.23569E+000,-7.10380E-002,3.01846E-002,4.23639E+000,6.49120E-003,3.49888E-001,0,6.36247E+001,-1.70326E+000,9.99792E-001,2.55409E+001,-3.18513E+001,9.98811E-001,7.89746E-002,-3.24959E-002,-1.26908E-003,7.89890E-002,-3.25103E-002,-6.52194E-001,7.93996E-002,1.08208E+000,-1.50599E-002,0.00000E+000,1.12039E-002,9.69559E-001,0.00000E+000,-3.90197E-003,-5.73996E-002,1.00000E+000,12
1179,1317,2.03326E+001,-5.62561E-001,-9.42214E-002,4.22878E+000,-8.78094E-002,-8.48750E-003,4.22970E+000,1.51522E-002,3.57634E-001,0,6.36723E+001,-1.92111E+000,9.99818E-001,2.55465E+001,-3.19649E+001,9.98941E-001,7.98524E-002,-3.24955E-002,-1.25034E-003,7.98663E-002,-3.25094E-002,-6.37552E-001,8.03251E-002,1.08303E+000,-1.50452E-002,0.00000E+000,1.12276E-002,9.69559E-001,0.00000E+000,-4.12632E-003,-5.74031E-002,1.00000E+000,12
1179,1337,2.03748E+001,7.10445E-001,-7.22484E-002,4.21110E+000,-1.30738E-001,-8.77983E-002,4.21404E+000,6.91497E-003,4.22260E-001,0,6.36982E+001,-2.45747E+000,9.99782E-001,2.63648E+001,-3.22326E+001,9.98853E-001,8.16334E-002,-3.24940E-002,-1.18621E-003,8.16457E-002,-3.25063E-002,-5.95433E-001,8.22085E-002,1.08496E+000,-1.49582E-002,0.00000E+000,1.12759E-002,9.69562E-001,0.00000E+000,-4.58231E-003,-5.74236E-002,1.00000E+000,12
1179,1347,2.04080E+001,1.35404E+000,-2.83492E-002,4.20683E+000,-1.50018E-001,-1.23808E-001,4.21133E+000,6.66785E-003,4.30739E-001,0,6.37602E+001,-2.68639E+000,9.99789E-001,2.70150E+001,-3.23463E+001,9.99278E-001,8.25276E-002,-3.24931E-002,-1.14921E-003,8.25391E-002,-3.25046E-002,-5.72385E-001,8.31572E-002,1.08594E+000,-1.49039E-002,0.00000E+000,1.13002E-002,9.69563E-001,0.00000E+000,-4.81162E-003,-5.74364E-002,1.00000E+000,12
679,1327,-1.49318E+001,-5.18033E-001,7.95445E-002,1.54525E+000,-4.17432E-001,9.69020E-002,1.60357E+000,9.70739E-003,6.03099E-001,0,2.39109E+001,-6.94062E+000,9.99290E-001,-1.87344E+001,-4.62302E+001,9.98507E-001,7.36707E-002,-2.97635E-002,-4.82706E-004,7.36730E-002,-2.97657E-002,-2.67380E-001,7.41240E-002,1.07644E+000,4.42162E-003,0.00000E+000,-4.93942E-003,9.72268E-001,0.00000E+000,3.60621E-004,-5.75387E-002,1.00000E+000,12
679,1337,-1.49182E+001,9.84722E-002,3.05360E-002,1.55013E+000,-4.36992E-001,6.09528E-002,1.61171E+000,1.02094E-002,6.04039E-001,0,2.40900E+001,-7.18663E+000,9.99471E-001,-1.85182E+001,-4.66458E+001,9.99266E-001,7.24772E-002,-2.97647E-002,-5.56253E-004,7.24802E-002,-2.97677E-002,-3.11709E-001,7.28645E-002,1.07516E+000,4.40422E-003,0.00000E+000,-5.02292E-003,9.72267E-001,0.00000E+000,-5.09971E-004,-5.75505E-002,1.00000E+000,12
1179,1327,2.03487E+001,7.00801E-002,-9.34745E-002,4.21902E+000,-1.10234E-001,-4.24141E-002,4.22068E+000,1.09536E-002,4.08736E-001,0,6.36518E+001,-2.23273E+000,9.99715E-001,2.58609E+001,-3.21255E+001,9.98204E-001,8.07403E-002,-3.24948E-002,-1.22100E-003,8.07535E-002,-3.25080E-002,-6.17719E-001,8.12630E-002,1.08399E+000,-1.50076E-002,0.00000E+000,1.12517E-002,9.69560E-001,0.00000E+000,-4.35353E-003,-5.74120E-002,1.00000E+000,12
679,1317,-1.49386E+001,-1.12741E+000,1.59761E-001,1.54235E+000,-3.94379E-001,1.37289E-001,1.59788E+000,8.36600E-003,6.31197E-001,0,2.37475E+001,-6.66867E+000,9.99567E-001,-1.87590E+001,-4.57567E+001,9.98193E-001,7.48579E-002,-2.97632E-002,-4.13811E-004,7.48595E-002,-2.97649E-002,-2.26619E-001,7.53809E-002,1.07772E+000,4.42951E-003,0.00000E+000,-4.85621E-003,9.72269E-001,0.00000E+000,1.22822E-003,-5.75333E-002,1.00000E+000,12
669,1327,-1.56191E+001,-5.25738E-001,8.26259E-002,1.49975E+000,-4.18327E-001,1.01974E-001,1.56033E+000,8.25229E-003,5.72251E-001,0,2.32045E+001,-6.96243E+000,9.99722E-001,-1.92355E+001,-4.64673E+001,9.98998E-001,7.32001E-002,-2.95273E-002,-3.58537E-004,7.32014E-002,-2.95285E-002,-1.99969E-001,7.36555E-002,1.07593E+000,5.85436E-003,0.00000E+000,-5.98434E-003,9.72440E-001,0.00000E+000,2.28673E-004,-5.66062E-002,1.00000E+000,12
669,1337,-1.56080E+001,9.46005E-002,3.35553E-002,1.50184E+000,-4.36018E-001,6.36424E-002,1.56514E+000,6.02169E-003,6.00237E-001,0,2.33455E+001,-7.15829E+000,9.99615E-001,-1.90554E+001,-4.68126E+001,9.99497E-001,7.18245E-002,-2.95291E-002,-4.72328E-004,7.18267E-002,-2.95313E-002,-2.67002E-001,7.22037E-002,1.07445E+000,5.83354E-003,0.00000E+000,-6.14745E-003,9.72438E-001,0.00000E+000,-6.21542E-004,-5.66182E-002,1.00000E+000,12
669,1347,-1.55923E+001,7.12556E-001,4.78052E-003,1.50556E+000,-4.57002E-001,2.90985E-002,1.57366E+000,5.33452E-003,5.94258E-001,0,2.35012E+001,-7.42217E+000,9.99636E-001,-1.87498E+001,-4.72563E+001,9.99356E-001,7.04462E-002,-2.95318E-002,-5.89222E-004,7.04496E-002,-2.95353E-002,-3.37658E-001,7.07553E-002,1.07297E+000,5.80612E-003,0.00000E+000,-6.31056E-003,9.72435E-001,0.00000E+000,-1.47175E-003,-5.66340E-002,1.00000E+000,12
669,1357,-1.55681E+001,1.34223E+000,2.13008E-002,1.51036E+000,-4.72731E-001,-2.10538E-003,1.58261E+000,5.19157E-003,5.86501E-001,0,2.36605E+001,-7.60879E+000,9.99631E-001,-1.81841E+001,-4.76214E+001,9.99495E-001,6.90562E-002,-2.95370E-002,-7.14799E-004,6.90614E-002,-2.95422E-002,-4.15364E-001,6.93012E-002,1.07149E+000,5.76163E-003,0.00000E+000,-6.47472E-003,9.72430E-001,0.00000E+000,-2.32745E-003,-5.66595E-002,1.00000E+000,12
1189,1337,2.10969E+001,7.23135E-001,-7.91819E-002,4.26861E+000,-1.25616E-001,-9.64409E-002,4.27155E+000,9.70301E-003,4.23097E-001,0,6.45472E+001,-2.35779E+000,9.99783E-001,2.76069E+001,-3.19264E+001,9.98932E-001,8.16282E-002,-3.26382E-002,-1.05489E-003,8.16379E-002,-3.26479E-002,-5.28888E-001,8.21813E-002,1.08497E+000,-1.42383E-002,0.00000E+000,1.09164E-002,9.69420E-001,0.00000E+000,-5.10132E-003,-5.73224E-002,1.00000E+000,12
669,1317,-1.56251E+001,-1.13249E+000,1.66778E-001,1.49640E+000,-3.93123E-001,1.39476E-001,1.55346E+000,1.08310E-002,5.96500E-001,0,2.30423E+001,-6.65970E+000,9.99740E-001,-1.92356E+001,-4.59618E+001,9.98594E-001,7.45643E-002,-2.95276E-002,-2.52216E-004,7.45649E-002,-2.95282E-002,-1.38827E-001,7.51006E-002,1.07740E+000,5.86054E-003,0.00000E+000,-5.82227E-003,9.72441E-001,0.00000E+000,1.07347E-003,-5.66027E-002,1.00000E+000,12
1189,1297,2.10495E+001,-1.79858E+000,4.93369E-002,4.29885E+000,-4.21072E-002,6.82480E-002,4.29959E+000,1.17423E-002,4.49406E-001,0,6.43675E+001,-1.36071E+000,9.99682E-001,2.68254E+001,-3.13216E+001,9.96802E-001,7.84036E-002,-3.26311E-002,-1.03713E-003,7.84133E-002,-3.26408E-002,-5.35114E-001,7.87790E-002,1.08147E+000,-1.43417E-002,0.00000E+000,1.10743E-002,9.69425E-001,0.00000E+000,-4.91836E-003,-5.73169E-002,1.00000E+000,12
1189,1307,2.10447E+001,-1.17821E+000,-3.72976E-002,4.28755E+000,-6.58173E-002,2.27295E-002,4.28811E+000,7.52133E-003,4.00337E-001,0,6.43823E+001,-1.62112E+000,9.99564E-001,2.66754E+001,-3.15318E+001,9.98620E-001,7.92045E-002,-3.26321E-002,-1.04921E-003,7.92143E-002,-3.26419E-002,-5.37464E-001,7.96216E-002,1.08234E+000,-1.43328E-002,0.00000E+000,1.10352E-002,9.69424E-001,0.00000E+000,-4.96374E-003,-5.73174E-002,1.00000E+000,12
1189,1317,2.10615E+001,-5.40465E-001,-6.69191E-002,4.28486E+000,-8.08032E-002,-1.62562E-002,4.28565E+000,7.83999E-003,4.34545E-001,0,6.44891E+001,-1.78196E+000,9.99770E-001,2.69531E+001,-3.15518E+001,9.99547E-001,8.00127E-002,-3.26338E-002,-1.05359E-003,8.00225E-002,-3.26437E-002,-5.35826E-001,8.04735E-002,1.08322E+000,-1.43068E-002,0.00000E+000,1.09956E-002,9.69423E-001,0.00000E+000,-5.00958E-003,-5.73188E-002,1.00000E+000,12
1189,1327,2.10755E+001,8.69464E-002,-8.09431E-002,4.27515E+000,-1.06309E-001,-5.57338E-002,4.27683E+000,1.09586E-002,4.35117E-001,0,6.44945E+001,-2.12090E+000,9.99772E-001,2.72085E+001,-3.17856E+001,9.99304E-001,8.08196E-002,-3.26359E-002,-1.05552E-003,8.08294E-002,-3.26457E-002,-5.32984E-001,8.13257E-002,1.08409E+000,-1.42754E-002,0.00000E+000,1.09561E-002,9.69422E-001,0.00000E+000,-5.05538E-003,-5.73204E-002,1.00000E+000,12
659,1327,-1.63068E+001,-5.20120E-001,8.53991E-002,1.45223E+000,-4.08172E-001,1.00011E-001,1.51181E+000,1.29859E-002,5.45264E-001,0,2.24823E+001,-6.77698E+000,9.99595E-001,-1.97356E+001,-4.64973E+001,9.97961E-001,7.25701E-002,-2.93515E-002,-3.36526E-004,7.25712E-002,-2.93526E-002,-1.89177E-001,7.30115E-002,1.07524E+000,7.32515E-003,0.00000E+000,-7.25977E-003,9.72563E-001,0.00000E+000,5.35329E-007,-5.58807E-002,1.00000E+000,12
659,1337,-1.62843E+001,8.82401E-002,4.38892E-002,1.46569E+000,-4.37776E-001,6.90346E-002,1.53123E+000,1.54120E-002,6.82257E-001,0,2.27822E+001,-7.23098E+000,9.99449E-001,-1.93646E+001,-4.69890E+001,9.99212E-001,7.11304E-002,-2.93531E-002,-4.61525E-004,7.11325E-002,-2.93552E-002,-2.63155E-001,7.14932E-002,1.07370E+000,7.30352E-003,0.00000E+000,-7.45005E-003,9.72560E-001,0.00000E+000,-7.89862E-004,-5.58917E-002,1.00000E+000,12
659,1347,-1.62714E+001,7.11480E-001,1.96193E-002,1.46665E+000,-4.53177E-001,3.80488E-002,1.53554E+000,7.26352E-003,6.09157E-001,0,2.28829E+001,-7.38455E+000,9.99802E-001,-1.90853E+001,-4.73972E+001,9.99669E-001,6.96886E-002,-2.93558E-002,-5.89825E-004,6.96921E-002,-2.93593E-002,-3.41189E-001,6.99795E-002,1.07215E+000,7.27476E-003,0.00000E+000,-7.64023E-003,9.72557E-001,0.00000E+000,-1.57987E-003,-5.59064E-002,1.00000E+000,12
659,1357,-1.62521E+001,1.34224E+000,2.85395E-002,1.46726E+000,-4.67018E-001,2.44462E-003,1.53979E+000,4.84636E-003,5.91137E-001,0,2.29883E+001,-7.52790E+000,9.99714E-001,-1.86145E+001,-4.77369E+001,9.99700E-001,6.82354E-002,-2.93610E-002,-7.26304E-004,6.82408E-002,-2.93664E-002,-4.26358E-001,6.84613E-002,1.07060E+000,7.23002E-003,0.00000E+000,-7.83155E-003,9.72551E-001,0.00000E+000,-2.37457E-003,-5.59293E-002,1.00000E+000,12
1199,1307,2.17648E+001,-1.16409E+000,-3.54752E-002,4.34077E+000,-5.97583E-002,1.40736E-002,4.34120E+000,1.03938E-002,4.37448E-001,0,6.51617E+001,-1.52464E+000,9.99579E-001,2.79072E+001,-3.12096E+001,9.98313E-001,7.93237E-002,-3.26492E-002,-8.07435E-004,7.93295E-002,-3.26551E-002,-4.13130E-001,7.97413E-002,1.08248E+000,-1.35279E-002,0.00000E+000,1.08237E-002,9.69408E-001,0.00000E+000,-5.68512E-003,-5.72743E-002,1.00000E+000,12
1199,1317,2.17761E+001,-5.36121E-001,-7.78652E-002,4.33488E+000,-8.16256E-002,-2.83728E-002,4.33574E+000,8.79100E-003,4.17852E-001,0,6.52394E+001,-1.78454E+000,9.99326E-001,2.80776E+001,-3.13796E+001,9.98113E-001,8.00816E-002,-3.26524E-002,-8.34258E-004,8.00877E-002,-3.26585E-002,-4.23971E-001,8.05405E-002,1.08330E+000,-1.35063E-002,0.00000E+000,1.07370E-002,9.69405E-001,0.00000E+000,-5.57372E-003,-5.72714E-002,1.00000E+000,12
1199,1327,2.17918E+001,9.67862E-002,-1.03502E-001,4.33057E+000,-9.96445E-002,-6.48368E-002,4.33220E+000,9.43638E-003,4.02665E-001,0,6.53137E+001,-2.00991E+000,9.99523E-001,2.83419E+001,-3.15084E+001,9.98554E-001,8.08396E-002,-3.26558E-002,-8.59559E-004,8.08461E-002,-3.26624E-002,-4.33897E-001,8.13412E-002,1.08413E+000,-1.34812E-002,0.00000E+000,1.06502E-002,9.69403E-001,0.00000E+000,-5.46221E-003,-5.72680E-002,1.00000E+000,12
659,1317,-1.63197E+001,-1.13527E+000,1.50956E-001,1.44435E+000,-3.90431E-001,1.32921E-001,1.50208E+000,1.10636E-002,6.07947E-001,0,2.22656E+001,-6.58688E+000,9.99032E-001,-1.98962E+001,-4.60614E+001,9.95986E-001,7.39985E-002,-2.93512E-002,-2.16595E-004,7.39990E-002,-2.93517E-002,-1.20077E-001,7.45240E-002,1.07678E+000,7.33739E-003,0.00000E+000,-7.07063E-003,9.72565E-001,0.00000E+000,7.86227E-004,-5.58744E-002,1.00000E+000,12
1199,1337,2.18223E+001,7.37851E-001,-7.08130E-002,4.32631E+000,-1.19358E-001,-1.00064E-001,4.32911E+000,8.53874E-003,4.27809E-001,0,6.53758E+001,-2.26348E+000,9.99718E-001,2.89283E+001,-3.16206E+001,9.98319E-001,8.16056E-002,-3.26612E-002,-8.76856E-004,8.16123E-002,-3.26679E-002,-4.39640E-001,8.21515E-002,1.08496E+000,-1.34378E-002,0.00000E+000,1.05624E-002,9.69398E-001,0.00000E+000,-5.34940E-003,-5.72621E-002,1.00000E+000,12
1199,1297,2.17676E+001,-1.78288E+000,4.15852E-002,4.35086E+000,-3.38291E-002,5.26548E-002,4.35131E+000,7.85658E-003,4.52880E-001,0,6.51548E+001,-1.19870E+000,9.99536E-001,2.80121E+001,-3.09730E+001,9.97955E-001,7.85692E-002,-3.26473E-002,-7.75136E-004,7.85746E-002,-3.26527E-002,-3.99303E-001,7.89472E-002,1.08167E+000,-1.35372E-002,0.00000E+000,1.09100E-002,9.69409E-001,0.00000E+000,-5.79591E-003,-5.72756E-002,1.00000E+000,12
649,1347,-1.69628E+001,7.14458E-001,1.92129E-002,1.41537E+000,-4.45495E-001,3.33557E-002,1.48420E+000,7.98607E-003,6.43668E-001,0,2.21080E+001,-7.25739E+000,9.99644E-001,-1.96456E+001,-4.74347E+001,9.98993E-001,6.88608E-002,-2.91412E-002,-5.39469E-004,6.88638E-002,-2.91441E-002,-3.15382E-001,6.91339E-002,1.07125E+000,8.88498E-003,0.00000E+000,-9.00349E-003,9.72707E-001,0.00000E+000,-1.67669E-003,-5.50293E-002,1.00000E+000,12
649,1357,-1.69402E+001,1.34191E+000,3.38228E-002,1.41996E+000,-4.61586E-001,5.96755E-003,1.49311E+000,5.58923E-003,5.85268E-001,0,2.22530E+001,-7.44182E+000,9.99705E-001,-1.91062E+001,-4.78591E+001,9.99417E-001,6.72931E-002,-2.91457E-002,-6.74406E-004,6.72978E-002,-2.91505E-002,-4.00649E-001,6.74980E-002,1.06958E+000,8.83833E-003,0.00000E+000,-9.19775E-003,9.72701E-001,0.00000E+000,-2.39726E-003,-5.50493E-002,1.00000E+000,12
649,1337,-1.69819E+001,9.21551E-002,4.11566E-002,1.40800E+000,-4.27636E-001,6.09734E-002,1.47277E+000,8.70624E-003,6.39311E-001,0,2.19165E+001,-7.04715E+000,9.99698E-001,-2.00255E+001,-4.70447E+001,9.99144E-001,7.04223E-002,-2.91389E-002,-4.12398E-004,7.04240E-002,-2.91406E-002,-2.37323E-001,7.07721E-002,1.07293E+000,8.91535E-003,0.00000E+000,-8.80962E-003,9.72710E-001,0.00000E+000,-9.57519E-004,-5.50162E-002,1.00000E+000,12
649,1327,-1.69980E+001,-5.16394E-001,8.54312E-002,1.40033E+000,-4.00630E-001,9.26061E-002,1.45946E+000,7.29097E-003,6.12030E-001,0,2.17061E+001,-6.66239E+000,9.99778E-001,-2.02937E+001,-4.65044E+001,9.99519E-001,7.19721E-002,-2.91378E-002,-2.89867E-004,7.19730E-002,-2.91387E-002,-1.64257E-001,7.24060E-002,1.07459E+000,8.93738E-003,0.00000E+000,-8.61681E-003,9.72713E-001,0.00000E+000,-2.42316E-004,-5.50067E-002,1.00000E+000,12
1209,1307,2.24864E+001,-1.14998E+000,-3.73607E-002,4.39574E+000,-5.24451E-002,4.32053E-003,4.39606E+000,8.05216E-003,4.54027E-001,0,6.59706E+001,-1.41064E+000,9.99601E-001,2.91615E+001,-3.08897E+001,9.98451E-001,7.92459E-002,-3.24866E-002,-5.10454E-004,7.92482E-002,-3.24890E-002,-2.61751E-001,7.96754E-002,1.08241E+000,-1.26040E-002,0.00000E+000,1.05907E-002,9.69548E-001,0.00000E+000,-5.95328E-003,-5.69189E-002,1.00000E+000,12
1209,1317,2.24956E+001,-5.25493E-001,-8.31387E-002,4.38940E+000,-7.69959E-002,-3.44831E-002,4.39021E+000,9.29511E-003,4.24905E-001,0,6.60301E+001,-1.71566E+000,9.99599E-001,2.92920E+001,-3.11098E+001,9.97808E-001,8.00379E-002,-3.24888E-002,-5.27080E-004,8.00404E-002,-3.24912E-002,-2.68368E-001,8.05112E-002,1.08327E+000,-1.25836E-002,0.00000E+000,1.05153E-002,9.69546E-001,0.00000E+000,-5.66388E-003,-5.69121E-002,1.00000E+000,12
1209,1327,2.25182E+001,1.10978E-001,-9.44778E-002,4.38733E+000,-9.37282E-002,-7.43050E-002,4.38896E+000,8.68809E-003,3.94405E-001,0,6.61487E+001,-1.91498E+000,9.99676E-001,2.96860E+001,-3.12200E+001,9.98631E-001,8.08324E-002,-3.24917E-002,-5.38335E-004,8.08350E-002,-3.24943E-002,-2.72169E-001,8.13511E-002,1.08413E+000,-1.25513E-002,0.00000E+000,1.04397E-002,9.69543E-001,0.00000E+000,-5.37327E-003,-5.69011E-002,1.00000E+000,12
1209,1337,2.25502E+001,7.51782E-001,-5.94859E-002,4.38403E+000,-1.15185E-001,-1.08247E-001,4.38688E+000,9.05996E-003,4.35609E-001,0,6.62213E+001,-2.18998E+000,9.99706E-001,3.02964E+001,-3.13319E+001,9.97853E-001,8.16350E-002,-3.24957E-002,-5.43568E-004,8.16376E-002,-3.24983E-002,-2.72873E-001,8.22010E-002,1.08500E+000,-1.25052E-002,0.00000E+000,1.03631E-002,9.69539E-001,0.00000E+000,-5.07939E-003,-5.68855E-002,1.00000E+000,12
1209,1297,2.24867E+001,-1.77016E+000,3.56385E-002,4.40512E+000,-2.61879E-002,4.57163E-002,4.40544E+000,7.76646E-003,4.24175E-001,0,6.59419E+001,-1.07087E+000,9.99536E-001,2.92199E+001,-3.06905E+001,9.97977E-001,7.84550E-002,-3.24851E-002,-4.90088E-004,7.84571E-002,-3.24873E-002,-2.53103E-001,7.88424E-002,1.08156E+000,-1.26161E-002,0.00000E+000,1.06659E-002,9.69549E-001,0.00000E+000,-6.24199E-003,-5.69230E-002,1.00000E+000,12
649,1317,-1.70067E+001,-1.12979E+000,1.62523E-001,1.39533E+000,-3.82357E-001,1.29583E-001,1.45256E+000,6.12577E-003,6.01342E-001,0,2.15234E+001,-6.43674E+000,9.99639E-001,-2.03558E+001,-4.61001E+001,9.99350E-001,7.35134E-002,-2.91385E-002,-1.73501E-004,7.35137E-002,-2.91388E-002,-9.68400E-002,7.40382E-002,1.07625E+000,8.94703E-003,0.00000E+000,-8.42469E-003,9.72714E-001,0.00000E+000,4.70327E-004,-5.50026E-002,1.00000E+000,12
639,1347,-1.76516E+001,7.17579E-001,1.59356E-002,1.36730E+000,-4.36141E-001,3.18413E-002,1.43553E+000,8.19577E-003,6.12680E-001,0,2.13732E+001,-7.08860E+000,9.99441E-001,-2.01704E+001,-4.74961E+001,9.98990E-001,6.80663E-002,-2.88112E-002,-5.12218E-004,6.80690E-002,-2.88139E-002,-3.02927E-001,6.83354E-002,1.07039E+000,1.06093E-002,0.00000E+000,-1.05202E-002,9.72955E-001,0.00000E+000,-1.76463E-003,-5.39475E-002,1.00000E+000,12
639,1357,-1.76270E+001,1.34613E+000,3.20493E-002,1.37386E+000,-4.51757E-001,4.89754E-003,1.44623E+000,5.25502E-003,5.93113E-001,0,2.15470E+001,-7.27591E+000,9.99640E-001,-1.95947E+001,-4.78893E+001,9.99506E-001,6.64113E-002,-2.88156E-002,-6.51843E-004,6.64157E-002,-2.88200E-002,-3.92174E-001,6.66087E-002,1.06862E+000,1.05600E-002,0.00000E+000,-1.07252E-002,9.72949E-001,0.00000E+000,-2.48690E-003,-5.39677E-002,1.00000E+000,12
639,1317,-1.76912E+001,-1.12927E+000,1.83079E-001,1.34870E+000,-3.80473E-001,1.36940E-001,1.40802E+000,8.96265E-003,6.87740E-001,0,2.07899E+001,-6.43215E+000,9.99597E-001,-2.07486E+001,-4.61878E+001,9.98652E-001,7.29633E-002,-2.88107E-002,-1.39011E-004,7.29635E-002,-2.88109E-002,-7.82590E-002,7.34992E-002,1.07564E+000,1.06667E-002,0.00000E+000,-9.91108E-003,9.72962E-001,0.00000E+000,3.81299E-004,-5.39241E-002,1.00000E+000,12
639,1327,-1.76823E+001,-5.22173E-001,1.00045E-001,1.35530E+000,-4.01655E-001,1.01777E-001,1.41722E+000,6.55157E-003,5.99623E-001,0,2.09930E+001,-6.68984E+000,9.99710E-001,-2.07024E+001,-4.67276E+001,9.98967E-001,7.13453E-002,-2.88091E-002,-2.56616E-004,7.13459E-002,-2.88097E-002,-1.46802E-001,7.17847E-002,1.07390E+000,1.06605E-002,0.00000E+000,-1.01128E-002,9.72961E-001,0.00000E+000,-3.29210E-004,-5.39266E-002,1.00000E+000,12
639,1337,-1.76706E+001,9.64794E-002,3.81160E-002,1.36038E+000,-4.18785E-001,6.29151E-002,1.42477E+000,6.57259E-003,6.49987E-001,0,2.11800E+001,-6.88469E+000,9.99682E-001,-2.05500E+001,-4.70657E+001,9.99221E-001,6.97084E-002,-2.88091E-002,-3.80853E-004,6.97099E-002,-2.88106E-002,-2.21492E-001,7.00584E-002,1.07214E+000,1.06423E-002,0.00000E+000,-1.03164E-002,9.72959E-001,0.00000E+000,-1.04649E-003,-5.39340E-002,1.00000E+000,12
1219,1317,2.32226E+001,-5.09690E-001,-7.44442E-002,4.44732E+000,-7.15112E-002,-4.03672E-002,4.44808E+000,1.08564E-002,4.98682E-001,0,6.68670E+001,-1.63194E+000,9.99655E-001,3.06491E+001,-3.07562E+001,9.97827E-001,7.98896E-002,-3.24776E-002,-1.86998E-004,7.98899E-002,-3.24779E-002,-9.53497E-002,8.03538E-002,1.08312E+000,-1.15956E-002,0.00000E+000,1.02786E-002,9.69526E-001,0.00000E+000,-5.41049E-003,-5.63117E-002,1.00000E+000,12
1219,1327,2.32423E+001,1.24911E-001,-8.99739E-002,4.44419E+000,-8.80671E-002,-7.64030E-002,4.44572E+000,5.88071E-003,4.08348E-001,0,6.69567E+001,-1.82508E+000,9.99812E-001,3.09886E+001,-3.09151E+001,9.98993E-001,8.06535E-002,-3.24796E-002,-1.92615E-004,8.06538E-002,-3.24800E-002,-9.75485E-002,8.11612E-002,1.08394E+000,-1.15668E-002,0.00000E+000,1.02100E-002,9.69524E-001,0.00000E+000,-4.96939E-003,-5.62964E-002,1.00000E+000,12
1219,1337,2.32763E+001,7.67527E-001,-5.33554E-002,4.44198E+000,-1.08284E-001,-1.11263E-001,4.44469E+000,7.57313E-003,4.53054E-001,0,6.70488E+001,-2.08207E+000,9.99687E-001,3.16300E+001,-3.09991E+001,9.98719E-001,8.14276E-002,-3.24826E-002,-1.90756E-004,8.14279E-002,-3.24830E-002,-9.59479E-002,8.19807E-002,1.08478E+000,-1.15212E-002,0.00000E+000,1.01405E-002,9.69520E-001,0.00000E+000,-4.52186E-003,-5.62720E-002,1.00000E+000,12
1219,1297,2.32100E+001,-1.75716E+000,3.44102E-002,4.46210E+000,-2.02749E-002,3.93559E-002,4.46231E+000,8.64957E-003,4.01378E-001,0,6.67661E+001,-9.52542E-001,9.99496E-001,3.05061E+001,-3.04105E+001,9.97954E-001,7.83599E-002,-3.24747E-002,-1.65354E-004,7.83602E-002,-3.24749E-002,-8.54794E-002,7.87417E-002,1.08147E+000,-1.16302E-002,0.00000E+000,1.04156E-002,9.69529E-001,0.00000E+000,-6.29228E-003,-5.63302E-002,1.00000E+000,12
1219,1307,2.32148E+001,-1.13527E+000,-2.59038E-002,4.45514E+000,-4.65156E-002,1.09541E-003,4.45538E+000,1.06104E-002,4.47775E-001,0,6.68180E+001,-1.30605E+000,9.99581E-001,3.05448E+001,-3.06001E+001,9.97520E-001,7.91241E-002,-3.24760E-002,-1.77276E-004,7.91244E-002,-3.24763E-002,-9.10139E-002,7.95463E-002,1.08229E+000,-1.16154E-002,0.00000E+000,1.03472E-002,9.69528E-001,0.00000E+000,-5.85199E-003,-5.63223E-002,1.00000E+000,12
629,1347,-1.83376E+001,7.15373E-001,1.11142E-002,1.32217E+000,-4.31980E-001,3.14495E-002,1.39130E+000,7.33506E-003,6.01883E-001,0,2.06816E+001,-7.01046E+000,9.99322E-001,-2.06529E+001,-4.76258E+001,9.99055E-001,6.74083E-002,-2.90633E-002,-5.32851E-004,6.74112E-002,-2.90662E-002,-3.16454E-001,6.76238E-002,1.06966E+000,1.23480E-002,0.00000E+000,-1.21431E-002,9.72652E-001,0.00000E+000,-1.74925E-003,-5.31957E-002,1.00000E+000,12
629,1357,-1.83110E+001,1.34368E+000,2.90118E-002,1.33052E+000,-4.47928E-001,4.45802E-003,1.40390E+000,6.18440E-003,5.87143E-001,0,2.08832E+001,-7.20484E+000,9.99423E-001,-2.00407E+001,-4.80255E+001,9.99239E-001,6.58436E-002,-2.90638E-002,-5.61218E-004,6.58469E-002,-2.90671E-002,-3.38793E-001,6.59973E-002,1.06799E+000,1.23013E-002,0.00000E+000,-1.21357E-002,9.72652E-001,0.00000E+000,-2.47801E-003,-5.32160E-002,1.00000E+000,12
629,1327,-1.83695E+001,-5.20029E-001,9.73114E-002,1.30837E+000,-3.93735E-001,1.01355E-001,1.37008E+000,6.26796E-003,5.87843E-001,0,2.02737E+001,-6.55464E+000,9.99593E-001,-2.11976E+001,-4.67920E+001,9.98952E-001,7.05087E-002,-2.90631E-002,-4.98006E-004,7.05112E-002,-2.90656E-002,-2.86554E-001,7.08725E-002,1.07298E+000,1.23948E-002,0.00000E+000,-1.21578E-002,9.72651E-001,0.00000E+000,-3.00922E-004,-5.31752E-002,1.00000E+000,12
629,1337,-1.83543E+001,9.55956E-002,3.88609E-002,1.31695E+000,-4.13591E-001,6.55073E-002,1.38192E+000,6.58745E-003,6.36677E-001,0,2.05072E+001,-6.80094E+000,9.99467E-001,-2.09824E+001,-4.71863E+001,9.99282E-001,6.89611E-002,-2.90631E-002,-5.12483E-004,6.89637E-002,-2.90658E-002,-2.99539E-001,6.92467E-002,1.07132E+000,1.23777E-002,0.00000E+000,-1.21504E-002,9.72651E-001,0.00000E+000,-1.02461E-003,-5.31827E-002,1.00000E+000,12
1229,1317,2.39482E+001,-4.93097E-001,-7.36558E-002,4.50633E+000,-6.12991E-002,-4.24720E-002,4.50695E+000,9.66360E-003,4.56881E-001,0,6.77036E+001,-1.46206E+000,9.99615E-001,3.19748E+001,-3.04310E+001,9.98994E-001,7.97687E-002,-3.23301E-002,1.70466E-004,7.97689E-002,-3.23303E-002,8.71282E-002,8.02444E-002,1.08299E+000,-1.06329E-002,0.00000E+000,1.00860E-002,9.69631E-001,0.00000E+000,-4.92268E-003,-5.55789E-002,1.00000E+000,12
1229,1327,2.39653E+001,1.37705E-001,-9.02979E-002,4.50014E+000,-8.49414E-002,-8.09400E-002,4.50167E+000,7.34189E-003,4.89797E-001,0,6.77607E+001,-1.77550E+000,9.99670E-001,3.22715E+001,-3.05838E+001,9.98663E-001,8.04940E-002,-3.23306E-002,1.81550E-004,8.04943E-002,-3.23309E-002,9.21962E-002,8.10116E-002,1.08378E+000,-1.06050E-002,0.00000E+000,1.00409E-002,9.69630E-001,0.00000E+000,-4.27572E-003,-5.55559E-002,1.00000E+000,12
1229,1337,2.39978E+001,7.79382E-001,-6.72549E-002,4.49921E+000,-1.01089E-001,-1.18238E-001,4.50190E+000,7.32794E-003,4.38284E-001,0,6.78823E+001,-1.97338E+000,9.99621E-001,3.28671E+001,-3.06989E+001,9.98496E-001,8.12200E-002,-3.23312E-002,1.98102E-004,8.12204E-002,-3.23316E-002,9.99579E-002,8.17810E-002,1.08456E+000,-1.05651E-002,0.00000E+000,9.99570E-003,9.69627E-001,0.00000E+000,-3.62711E-003,-5.55230E-002,1.00000E+000,12
629,1317,-1.83809E+001,-1.12738E+000,1.83148E-001,1.29900E+000,-3.72620E-001,1.38214E-001,1.35844E+000,7.15873E-003,6.43168E-001,0,2.00236E+001,-6.29354E+000,9.99658E-001,-2.12742E+001,-4.62770E+001,9.98887E-001,7.20404E-002,-2.90634E-002,-4.89035E-004,7.20428E-002,-2.90658E-002,-2.77129E-001,7.24891E-002,1.07463E+000,1.24002E-002,0.00000E+000,-1.21650E-002,9.72651E-001,0.00000E+000,4.16706E-004,-5.31729E-002,1.00000E+000,12
1229,1297,2.39331E+001,-1.74327E+000,3.24388E-002,4.51826E+000,-1.37705E-002,3.23827E-002,4.51840E+000,8.73102E-003,4.42517E-001,0,6.75791E+001,-8.50673E-001,9.99470E-001,3.17893E+001,-3.00833E+001,9.97374E-001,7.83239E-002,-3.23294E-002,1.59011E-004,7.83241E-002,-3.23296E-002,8.23349E-002,7.87204E-002,1.08144E+000,-1.06652E-002,0.00000E+000,1.01757E-002,9.69633E-001,0.00000E+000,-6.20881E-003,-5.56056E-002,1.00000E+000,12
1229,1307,2.39421E+001,-1.11808E+000,-2.64150E-002,4.51685E+000,-3.56476E-002,8.80795E-004,4.51699E+000,1.21236E-002,4.59736E-001,0,6.76866E+001,-1.14699E+000,9.99386E-001,3.18963E+001,-3.02373E+001,9.97928E-001,7.90454E-002,-3.23297E-002,1.63056E-004,7.90456E-002,-3.23299E-002,8.38824E-002,7.94808E-002,1.08221E+000,-1.06527E-002,0.00000E+000,1.01309E-002,9.69632E-001,0.00000E+000,-5.56700E-003,-5.55953E-002,1.00000E+000,12
619,1327,-1.90569E+001,-5.20081E-001,9.52753E-002,1.26062E+000,-3.88255E-001,1.00310E-001,1.32286E+000,4.90006E-003,5.75347E-001,0,1.95429E+001,-6.45508E+000,9.99572E-001,-2.16900E+001,-4.68923E+001,9.99357E-001,6.98699E-002,-2.88778E-002,-6.55435E-004,6.98743E-002,-2.88821E-002,-3.80277E-001,7.02232E-002,1.07228E+000,1.41807E-002,0.00000E+000,-1.40968E-002,9.72782E-001,0.00000E+000,-1.61137E-004,-5.27115E-002,1.00000E+000,12
619,1337,-1.90400E+001,9.71070E-002,4.29812E-002,1.27016E+000,-4.06940E-001,6.60125E-002,1.33539E+000,5.71882E-003,6.24938E-001,0,1.97861E+001,-6.68791E+000,9.99190E-001,-2.14308E+001,-4.72770E+001,9.99176E-001,6.83036E-002,-2.88780E-002,-6.13006E-004,6.83074E-002,-2.88818E-002,-3.61394E-001,6.85781E-002,1.07060E+000,1.41617E-002,0.00000E+000,-1.39782E-002,9.72783E-001,0.00000E+000,-9.19571E-004,-5.27201E-002,1.00000E+000,12
619,1347,-1.90214E+001,7.17708E-001,1.09496E-002,1.27863E+000,-4.23307E-001,3.48858E-002,1.34733E+000,6.61242E-003,6.09966E-001,0,2.00025E+001,-6.88183E+000,9.99259E-001,-2.10839E+001,-4.76863E+001,9.99140E-001,6.67342E-002,-2.88778E-002,-5.74011E-004,6.67377E-002,-2.88813E-002,-3.43961E-001,6.69385E-002,1.06892E+000,1.41353E-002,0.00000E+000,-1.38597E-002,9.72785E-001,0.00000E+000,-1.67794E-003,-5.27320E-002,1.00000E+000,12
619,1357,-1.89950E+001,1.34486E+000,2.05827E-002,1.28797E+000,-4.39261E-001,5.33549E-003,1.36083E+000,5.95411E-003,5.89893E-001,0,2.02265E+001,-7.06926E+000,9.99569E-001,-2.04966E+001,-4.80901E+001,9.99429E-001,6.51531E-002,-2.88768E-002,-5.42965E-004,6.51562E-002,-2.88799E-002,-3.30834E-001,6.52960E-002,1.06723E+000,1.40913E-002,0.00000E+000,-1.37405E-002,9.72788E-001,0.00000E+000,-2.44042E-003,-5.27519E-002,1.00000E+000,12
619,1317,-1.90660E+001,-1.12429E+000,1.85103E-001,1.25362E+000,-3.62550E-001,1.41664E-001,1.31266E+000,8.18721E-003,6.15394E-001,0,1.93171E+001,-6.14944E+000,9.99549E-001,-2.17188E+001,-4.63429E+001,9.98947E-001,7.14235E-002,-2.88769E-002,-7.03769E-004,7.14284E-002,-2.88819E-002,-4.01996E-001,7.18628E-002,1.07394E+000,1.41863E-002,0.00000E+000,-1.42146E-002,9.72781E-001,0.00000E+000,5.92633E-004,-5.27089E-002,1.00000E+000,12
1239,1307,2.46582E+001,-1.10886E+000,-4.02728E-002,4.56762E+000,-3.11419E-002,-9.74209E-003,4.56774E+000,1.23613E-002,4.44679E-001,0,6.84355E+001,-1.06689E+000,9.99273E-001,3.30558E+001,-2.99845E+001,9.98381E-001,7.88099E-002,-3.20484E-002,3.27159E-004,7.88109E-002,-3.20494E-002,1.69086E-001,7.92673E-002,1.08197E+000,-9.87279E-003,0.00000E+000,9.75304E-003,9.69872E-001,0.00000E+000,-5.54685E-003,-5.48951E-002,1.00000E+000,12
1239,1317,2.46712E+001,-4.77223E-001,-7.99434E-002,4.56435E+000,-4.93252E-002,-4.42229E-002,4.56483E+000,1.11479E-002,4.21553E-001,0,6.85228E+001,-1.29113E+000,9.99379E-001,3.32544E+001,-3.00989E+001,9.98854E-001,7.95615E-002,-3.20456E-002,3.80624E-004,7.95628E-002,-3.20469E-002,1.95398E-001,8.00625E-002,1.08278E+000,-9.85251E-003,0.00000E+000,9.77874E-003,9.69872E-001,0.00000E+000,-4.54412E-003,-5.48700E-002,1.00000E+000,12
1239,1327,2.46921E+001,1.54565E-001,-7.91955E-002,4.55707E+000,-7.69173E-002,-8.26273E-002,4.55847E+000,9.18394E-003,5.08766E-001,0,6.85631E+001,-1.65859E+000,9.99501E-001,3.36330E+001,-3.02456E+001,9.98685E-001,8.03201E-002,-3.20413E-002,4.41294E-004,8.03218E-002,-3.20431E-002,2.25022E-001,8.08670E-002,1.08359E+000,-9.81758E-003,0.00000E+000,9.80473E-003,9.69873E-001,0.00000E+000,-3.52983E-003,-5.48267E-002,1.00000E+000,12
1239,1337,2.47185E+001,7.94635E-001,-6.62646E-002,4.55355E+000,-9.19279E-002,-1.16143E-001,4.55596E+000,7.69380E-003,4.24386E-001,0,6.86331E+001,-1.84597E+000,9.99434E-001,3.41169E+001,-3.03791E+001,9.97961E-001,8.10717E-002,-3.20368E-002,5.02567E-004,8.10740E-002,-3.20391E-002,2.54571E-001,8.16656E-002,1.08441E+000,-9.78047E-003,0.00000E+000,9.83055E-003,9.69875E-001,0.00000E+000,-2.52271E-003,-5.47807E-002,1.00000E+000,12
1239,1297,2.46540E+001,-1.73194E+000,2.79863E-002,4.57292E+000,-7.52582E-003,2.71357E-002,4.57301E+000,7.84958E-003,4.57961E-001,0,6.83623E+001,-7.70307E-001,9.99472E-001,3.30387E+001,-2.98038E+001,9.98211E-001,7.80588E-002,-3.20503E-002,2.77738E-004,7.80595E-002,-3.20510E-002,1.44521E-001,7.84744E-002,1.08116E+000,-9.88451E-003,0.00000E+000,9.72741E-003,9.69871E-001,0.00000E+000,-6.54665E-003,-5.49096E-002,1.00000E+000,12
609,1347,-1.97037E+001,7.19501E-001,1.15925E-002,1.23519E+000,-4.16410E-001,3.37167E-002,1.30393E+000,8.41619E-003,6.30463E-001,0,1.93368E+001,-6.77013E+000,9.99268E-001,-2.14865E+001,-4.77507E+001,9.98928E-001,6.61074E-002,-2.83404E-002,-7.46130E-004,6.61133E-002,-2.83463E-002,-4.52594E-001,6.63367E-002,1.06823E+000,1.57638E-002,0.00000E+000,-1.57037E-002,9.73236E-001,0.00000E+000,-1.44317E-003,-5.18543E-002,1.00000E+000,12
609,1357,-1.96787E+001,1.34863E+000,1.46831E-002,1.24426E+000,-4.29276E-001,2.97815E-003,1.31624E+000,6.65765E-003,6.07227E-001,0,1.95586E+001,-6.90639E+000,9.99543E-001,-2.09368E+001,-4.81134E+001,9.99274E-001,6.45304E-002,-2.83393E-002,-6.91060E-004,6.45355E-002,-2.83444E-002,-4.26317E-001,6.46943E-002,1.06655E+000,1.57227E-002,0.00000E+000,-1.55395E-002,9.73240E-001,0.00000E+000,-2.28120E-003,-5.18748E-002,1.00000E+000,12
609,1317,-1.97532E+001,-1.12414E+000,1.81992E-001,1.20508E+000,-3.56833E-001,1.36747E-001,1.26421E+000,1.01108E-002,6.19119E-001,0,1.85839E+001,-6.05620E+000,9.99521E-001,-2.22077E+001,-4.64280E+001,9.98281E-001,7.07915E-002,-2.83383E-002,-9.44006E-004,7.08005E-002,-2.83473E-002,-5.45558E-001,7.12674E-002,1.07324E+000,1.58141E-002,0.00000E+000,-1.61936E-002,9.73231E-001,0.00000E+000,1.05656E-003,-5.18292E-002,1.00000E+000,12
609,1327,-1.97421E+001,-5.19463E-001,9.34012E-002,1.21458E+000,-3.83121E-001,9.95238E-002,1.27745E+000,6.69670E-003,6.33026E-001,0,1.88371E+001,-6.38158E+000,9.99538E-001,-2.21455E+001,-4.69475E+001,9.98801E-001,6.92370E-002,-2.83399E-002,-8.72446E-004,6.92448E-002,-2.83477E-002,-5.12234E-001,6.96228E-002,1.07157E+000,1.58098E-002,0.00000E+000,-1.60307E-002,9.73231E-001,0.00000E+000,2.25185E-004,-5.18314E-002,1.00000E+000,12
609,1337,-1.97239E+001,9.88718E-002,4.22632E-002,1.22555E+000,-3.98961E-001,6.59099E-002,1.29054E+000,7.36906E-003,6.11591E-001,0,1.90995E+001,-6.55952E+000,9.99269E-001,-2.18607E+001,-4.73541E+001,9.98807E-001,6.76770E-002,-2.83405E-002,-8.07517E-004,6.76838E-002,-2.83472E-002,-4.81818E-001,6.79805E-002,1.06990E+000,1.57909E-002,0.00000E+000,-1.58676E-002,9.73233E-001,0.00000E+000,-6.07304E-004,-5.18408E-002,1.00000E+000,12
1249,1297,2.53784E+001,-1.71566E+000,3.30133E-002,4.62896E+000,1.68118E-003,2.56945E-002,4.62903E+000,9.78327E-003,4.91520E-001,0,6.91471E+001,-6.43779E-001,9.99448E-001,3.43590E+001,-2.94584E+001,9.98234E-001,7.75550E-002,-3.16088E-002,4.41056E-004,7.75568E-002,-3.16106E-002,2.31488E-001,7.79972E-002,1.08063E+000,-8.80931E-003,0.00000E+000,9.10324E-003,9.70271E-001,0.00000E+000,-6.85843E-003,-5.42606E-002,1.00000E+000,12
1249,1307,2.53775E+001,-1.09676E+000,-4.80365E-002,4.62117E+000,-2.44514E-002,-1.45290E-002,4.62125E+000,1.27558E-002,4.52174E-001,0,6.92002E+001,-9.67668E-001,9.99355E-001,3.42803E+001,-2.96885E+001,9.97949E-001,7.84085E-002,-3.16031E-002,5.97179E-004,7.84118E-002,-3.16063E-002,3.11008E-001,7.89013E-002,1.08154E+000,-8.79946E-003,0.00000E+000,9.32173E-003,9.70274E-001,0.00000E+000,-5.54328E-003,-5.42464E-002,1.00000E+000,12
1249,1317,2.53878E+001,-4.69879E-001,-9.18265E-002,4.61605E+000,-4.67110E-002,-4.92930E-002,4.61655E+000,1.07444E-002,4.08550E-001,0,6.92642E+001,-1.24919E+000,9.99097E-001,3.44291E+001,-2.98768E+001,9.97983E-001,7.92628E-002,-3.15935E-002,7.59337E-004,7.92680E-002,-3.15987E-002,3.92437E-001,7.98092E-002,1.08246E+000,-8.77768E-003,0.00000E+000,9.54108E-003,9.70279E-001,0.00000E+000,-4.22297E-003,-5.42151E-002,1.00000E+000,12
1249,1327,2.54089E+001,1.68946E-001,-9.87033E-002,4.61150E+000,-6.41344E-002,-8.51036E-002,4.61273E+000,9.28771E-003,4.48524E-001,0,6.93326E+001,-1.47280E+000,9.99276E-001,3.47980E+001,-2.99192E+001,9.98532E-001,8.01213E-002,-3.15792E-002,9.29219E-004,8.01290E-002,-3.15869E-002,4.76591E-001,8.07248E-002,1.08339E+000,-8.74160E-003,0.00000E+000,9.76220E-003,9.70288E-001,0.00000E+000,-2.89199E-003,-5.41632E-002,1.00000E+000,12
1249,1337,2.54367E+001,8.10932E-001,-7.50128E-002,4.60647E+000,-8.12111E-002,-1.18032E-001,4.60869E+000,7.09924E-003,4.24564E-001,0,6.93775E+001,-1.68813E+000,9.99642E-001,3.53178E+001,-3.00148E+001,9.99107E-001,8.09791E-002,-3.15615E-002,1.10405E-003,8.09899E-002,-3.15723E-002,5.62013E-001,8.16426E-002,1.08432E+000,-8.69518E-003,0.00000E+000,9.98381E-003,9.70299E-001,0.00000E+000,-1.55805E-003,-5.40965E-002,1.00000E+000,12
1259,1327,2.61284E+001,1.79730E-001,-1.05433E-001,4.66465E+000,-5.79767E-002,-8.83571E-002,4.66584E+000,7.94278E-003,4.11891E-001,0,7.00856E+001,-1.38230E+000,9.99666E-001,3.60289E+001,-2.96650E+001,9.98976E-001,7.99943E-002,-3.14121E-002,1.41521E-003,8.00123E-002,-3.14301E-002,7.27681E-001,8.06228E-002,1.08326E+000,-7.87499E-003,0.00000E+000,9.87577E-003,9.70408E-001,0.00000E+000,-1.79153E-003,-5.33688E-002,1.00000E+000,12
1259,1337,2.61582E+001,8.20414E-001,-8.14236E-002,4.66084E+000,-7.71374E-002,-1.22605E-001,4.66309E+000,7.24465E-003,4.04363E-001,0,7.01552E+001,-1.63059E+000,9.99790E-001,3.65761E+001,-2.97714E+001,9.99389E-001,8.08573E-002,-3.13860E-002,1.65971E-003,8.08819E-002,-3.14105E-002,8.46968E-001,8.15512E-002,1.08419E+000,-7.82725E-003,0.00000E+000,1.02153E-002,9.70425E-001,0.00000E+000,-1.06339E-004,-5.32828E-002,1.00000E+000,12
599,1347,-2.03817E+001,7.27522E-001,2.01705E-002,1.19523E+000,-4.03259E-001,3.74991E-002,1.26198E+000,7.91852E-003,6.41932E-001,0,1.87097E+001,-6.57485E+000,9.99553E-001,-2.17932E+001,-4.77409E+001,9.99425E-001,6.58043E-002,-2.85008E-002,-5.50710E-004,6.58076E-002,-2.85041E-002,-3.34572E-001,6.60034E-002,1.06788E+000,1.71767E-002,0.00000E+000,-1.66239E-002,9.73011E-001,0.00000E+000,-1.19285E-003,-5.07890E-002,1.00000E+000,12
599,1357,-2.03553E+001,1.35192E+000,2.12392E-002,1.20631E+000,-4.20525E-001,7.53357E-003,1.27753E+000,5.54987E-003,6.30958E-001,0,1.89617E+001,-6.78379E+000,9.99632E-001,-2.12282E+001,-4.81673E+001,9.99454E-001,6.43200E-002,-2.84978E-002,-3.34733E-004,6.43212E-002,-2.84990E-002,-2.06625E-001,6.44600E-002,1.06630E+000,1.71397E-002,0.00000E+000,-1.61504E-002,9.73022E-001,0.00000E+000,-2.05638E-003,-5.08092E-002,1.00000E+000,12
1259,1287,2.60990E+001,-2.32495E+000,1.14532E-001,4.68632E+000,3.25750E-002,5.43730E-002,4.68675E+000,1.07412E-002,4.13083E-001,0,6.98224E+001,-2.06978E-001,9.99431E-001,3.56829E+001,-2.90542E+001,9.95600E-001,7.65422E-002,-3.14606E-002,4.99532E-004,7.65445E-002,-3.14629E-002,2.64995E-001,7.69473E-002,1.07955E+000,-7.94786E-003,0.00000E+000,8.53225E-003,9.70381E-001,0.00000E+000,-8.46044E-003,-5.35001E-002,1.00000E+000,12
1259,1297,2.60950E+001,-1.70686E+000,1.29830E-002,4.68098E+000,6.78979E-003,1.48338E-002,4.68101E+000,8.95017E-003,4.42141E-001,0,6.99134E+001,-5.37192E-001,9.99355E-001,3.55268E+001,-2.92181E+001,9.97172E-001,7.74071E-002,-3.14562E-002,7.20170E-004,7.74119E-002,-3.14610E-002,3.79010E-001,7.78626E-002,1.08048E+000,-7.94585E-003,0.00000E+000,8.86673E-003,9.70382E-001,0.00000E+000,-6.80017E-003,-5.34965E-002,1.00000E+000,12
1259,1307,2.60982E+001,-1.08299E+000,-5.70380E-002,4.67592E+000,-1.60599E-002,-1.89706E-002,4.67598E+000,8.97887E-003,4.47508E-001,0,6.99797E+001,-8.34784E-001,9.99391E-001,3.55271E+001,-2.93703E+001,9.98055E-001,7.82704E-002,-3.14471E-002,9.45798E-004,7.82786E-002,-3.14553E-002,4.93857E-001,7.87798E-002,1.08140E+000,-7.93405E-003,0.00000E+000,9.20198E-003,9.70386E-001,0.00000E+000,-5.13605E-003,-5.34753E-002,1.00000E+000,12
599,1327,-2.04248E+001,-5.08125E-001,1.00126E-001,1.16935E+000,-3.67704E-001,9.90774E-002,1.22980E+000,6.78237E-003,6.31991E-001,0,1.81394E+001,-6.12957E+000,9.99600E-001,-2.25288E+001,-4.68856E+001,9.98987E-001,6.87488E-002,-2.84977E-002,-9.95345E-004,6.87590E-002,-2.85079E-002,-5.86356E-001,6.90925E-002,1.07103E+000,1.72185E-002,0.00000E+000,-1.75662E-002,9.72999E-001,0.00000E+000,5.25616E-004,-5.07662E-002,1.00000E+000,12
599,1337,-2.04068E+001,1.05304E-001,4.20142E-002,1.18164E+000,-3.86905E-001,6.71195E-002,1.24518E+000,5.88219E-003,6.13120E-001,0,1.84186E+001,-6.36672E+000,9.99559E-001,-2.22689E+001,-4.73533E+001,9.99339E-001,6.72822E-002,-2.85012E-002,-7.70498E-004,6.72884E-002,-2.85074E-002,-4.60857E-001,6.75493E-002,1.06946E+000,1.72045E-002,0.00000E+000,-1.70964E-002,9.73003E-001,0.00000E+000,-3.31257E-004,-5.07739E-002,1.00000E+000,12
1259,1317,2.61090E+001,-4.54384E-001,-9.34386E-002,4.67081E+000,-3.75700E-002,-4.74860E-002,4.67120E+000,8.51405E-003,4.36388E-001,0,7.00185E+001,-1.12576E+000,9.99624E-001,3.56924E+001,-2.95297E+001,9.98591E-001,7.91326E-002,-3.14330E-002,1.17695E-003,7.91451E-002,-3.14455E-002,6.09810E-001,7.96995E-002,1.08233E+000,-7.91149E-003,0.00000E+000,9.53823E-003,9.70395E-001,0.00000E+000,-3.46698E-003,-5.34346E-002,1.00000E+000,12
599,1317,-2.04406E+001,-1.11863E+000,1.85235E-001,1.15498E+000,-3.48216E-001,1.31790E-001,1.21350E+000,8.89616E-003,6.21400E-001,0,1.78243E+001,-5.89221E+000,9.99554E-001,-2.26732E+001,-4.64452E+001,9.99028E-001,7.02105E-002,-2.84912E-002,-1.22472E-003,7.02257E-002,-2.85064E-002,-7.10797E-001,7.06388E-002,1.07260E+000,1.72220E-002,0.00000E+000,-1.80355E-002,9.72998E-001,0.00000E+000,1.38147E-003,-5.07643E-002,1.00000E+000,12
589,1347,-2.10655E+001,7.35020E-001,2.09981E-002,1.14987E+000,-3.90140E-001,3.80551E-002,1.21485E+000,5.65376E-003,6.43169E-001,0,1.80063E+001,-6.36416E+000,9.99681E-001,-2.22060E+001,-4.77284E+001,9.99444E-001,6.55396E-002,-2.84336E-002,-1.49397E-004,6.55398E-002,-2.84339E-002,-9.10875E-002,6.57308E-002,1.06757E+000,1.89733E-002,0.00000E+000,-1.74869E-002,9.73017E-001,0.00000E+000,-1.11617E-003,-4.98812E-002,1.00000E+000,12
589,1357,-2.10364E+001,1.35969E+000,2.55491E-002,1.16324E+000,-4.08143E-001,8.25332E-003,1.23279E+000,4.64089E-003,6.45527E-001,0,1.82933E+001,-6.58070E+000,9.99647E-001,-2.15882E+001,-4.81532E+001,9.99619E-001,6.40662E-002,-2.84309E-002,7.03014E-005,6.40662E-002,-2.84309E-002,4.35470E-002,6.42011E-002,1.06600E+000,1.89357E-002,0.00000E+000,-1.70103E-002,9.73028E-001,0.00000E+000,-1.94468E-003,-4.99011E-002,1.00000E+000,12
589,1337,-2.10881E+001,1.11161E-001,4.65312E-002,1.13764E+000,-3.76141E-001,6.56332E-002,1.20001E+000,4.81642E-003,5.98059E-001,0,1.77427E+001,-6.18546E+000,9.99717E-001,-2.26349E+001,-4.73798E+001,9.99610E-001,6.70041E-002,-2.84327E-002,-3.74105E-004,6.70056E-002,-2.84342E-002,-2.24590E-001,6.72607E-002,1.06913E+000,1.89982E-002,0.00000E+000,-1.79616E-002,9.73009E-001,0.00000E+000,-2.90851E-004,-4.98681E-002,1.00000E+000,12
589,1327,-2.11027E+001,-4.94694E-001,1.10108E-001,1.12899E+000,-3.50175E-001,1.04395E-001,1.18665E+000,9.58891E-003,6.64106E-001,0,1.75014E+001,-5.86937E+000,9.99718E-001,-2.28238E+001,-4.67817E+001,9.98999E-001,6.84562E-002,-2.84287E-002,-6.02232E-004,6.84600E-002,-2.84324E-002,-3.56129E-001,6.87865E-002,1.07069E+000,1.90124E-002,0.00000E+000,-1.84334E-002,9.73005E-001,0.00000E+000,5.29180E-004,-4.98606E-002,1.00000E+000,12
1269,1327,2.68528E+001,1.92994E-001,-1.05962E-001,4.72157E+000,-5.14450E-002,-8.69492E-002,4.72265E+000,6.95531E-003,4.17923E-001,0,7.08739E+001,-1.28934E+000,9.99758E-001,3.73460E+001,-2.93642E+001,9.98984E-001,7.98567E-002,-3.11145E-002,1.83142E-003,7.98869E-002,-3.11447E-002,9.45243E-001,8.05303E-002,1.08311E+000,-6.99684E-003,0.00000E+000,9.86549E-003,9.70607E-001,0.00000E+000,-1.08262E-003,-5.15858E-002,1.00000E+000,12
1269,1337,2.68855E+001,8.30344E-001,-7.90020E-002,4.71963E+000,-7.39954E-002,-1.21560E-001,4.72177E+000,7.47645E-003,4.01052E-001,0,7.09744E+001,-1.59513E+000,9.99669E-001,3.79409E+001,-2.95318E+001,9.98477E-001,8.07342E-002,-3.10816E-002,2.12744E-003,8.07747E-002,-3.11221E-002,1.08960E+000,8.14801E-002,1.08407E+000,-6.94664E-003,0.00000E+000,1.03024E-002,9.70630E-001,0.00000E+000,6.88341E-004,-5.14925E-002,1.00000E+000,12
589,1317,-2.11212E+001,-1.10810E+000,1.93900E-001,1.11149E+000,-3.33587E-001,1.34060E-001,1.16819E+000,7.63656E-003,6.03340E-001,0,1.71467E+001,-5.65197E+000,9.99363E-001,-2.30150E+001,-4.64063E+001,9.98221E-001,6.99059E-002,-2.84213E-002,-8.35714E-004,6.99130E-002,-2.84284E-002,-4.86928E-001,7.03182E-002,1.07224E+000,1.90151E-002,0.00000E+000,-1.89053E-002,9.73004E-001,0.00000E+000,1.34960E-003,-4.98592E-002,1.00000E+000,12
1269,1317,2.68353E+001,-4.40528E-001,-9.30287E-002,4.72771E+000,-3.03534E-002,-5.34288E-002,4.72811E+000,7.27388E-003,4.08565E-001,0,7.08343E+001,-1.00533E+000,9.99694E-001,3.70438E+001,-2.92399E+001,9.98821E-001,7.89792E-002,-3.11382E-002,1.54378E-003,7.90008E-002,-3.11599E-002,8.03042E-001,7.95857E-002,1.08216E+000,-7.03109E-003,0.00000E+000,9.43071E-003,9.70592E-001,0.00000E+000,-2.84511E-003,-5.16494E-002,1.00000E+000,12
1269,1307,2.68234E+001,-1.06977E+000,-5.29439E-002,4.73175E+000,-9.69492E-003,-2.12060E-002,4.73180E+000,7.76832E-003,4.44451E-001,0,7.07641E+001,-7.39929E-001,9.99480E-001,3.68658E+001,-2.90874E+001,9.98434E-001,7.81020E-002,-3.11555E-002,1.26242E-003,7.81166E-002,-3.11701E-002,6.61911E-001,7.86458E-002,1.08122E+000,-7.05422E-003,0.00000E+000,8.99808E-003,9.70581E-001,0.00000E+000,-4.59890E-003,-5.16924E-002,1.00000E+000,12
1269,1297,2.68154E+001,-1.69657E+000,7.49306E-003,4.73462E+000,1.14738E-002,1.23230E-002,4.73465E+000,8.92025E-003,4.30999E-001,0,7.06678E+001,-4.58260E-001,9.99464E-001,3.67779E+001,-2.89663E+001,9.97901E-001,7.72220E-002,-3.11685E-002,9.84747E-004,7.72310E-002,-3.11774E-002,5.20485E-001,7.77071E-002,1.08028E+000,-7.06995E-003,0.00000E+000,8.56607E-003,9.70574E-001,0.00000E+000,-6.35017E-003,-5.17217E-002,1.00000E+000,12
1269,1287,2.68224E+001,-2.31504E+000,1.15398E-001,4.74080E+000,3.56287E-002,4.98985E-002,4.74120E+000,1.35871E-002,4.04718E-001,0,7.05957E+001,-1.45065E-001,9.99617E-001,3.69897E+001,-2.88218E+001,9.96235E-001,7.63422E-002,-3.11717E-002,7.16121E-004,7.63470E-002,-3.11765E-002,3.81609E-001,7.67733E-002,1.07934E+000,-7.06879E-003,0.00000E+000,8.13611E-003,9.70574E-001,0.00000E+000,-8.09316E-003,-5.17195E-002,1.00000E+000,12
579,1347,-2.17451E+001,7.41612E-001,2.53655E-002,1.10758E+000,-3.78798E-001,3.79174E-002,1.17117E+000,4.83931E-003,6.40047E-001,0,1.73522E+001,-6.17413E+000,9.99688E-001,-2.25406E+001,-4.77394E+001,9.99549E-001,6.49461E-002,-2.83352E-002,2.46294E-004,6.49468E-002,-2.83359E-002,1.51279E-001,6.51223E-002,1.06690E+000,2.07151E-002,0.00000E+000,-1.83055E-002,9.73066E-001,0.00000E+000,-1.30688E-003,-4.92212E-002,1.00000E+000,12
579,1357,-2.17124E+001,1.36962E+000,3.40813E-002,1.12445E+000,-3.93800E-001,1.04132E-002,1.19146E+000,5.14996E-003,6.39741E-001,0,1.76868E+001,-6.34394E+000,9.99744E-001,-2.18523E+001,-4.81249E+001,9.99741E-001,6.33944E-002,-2.83328E-002,4.80741E-004,6.33969E-002,-2.83353E-002,3.00276E-001,6.35157E-002,1.06525E+000,2.06751E-002,0.00000E+000,-1.77972E-002,9.73078E-001,0.00000E+000,-2.24413E-003,-4.92438E-002,1.00000E+000,12
579,1337,-2.17706E+001,1.19632E-001,5.66919E-002,1.09238E+000,-3.63156E-001,7.12580E-002,1.15336E+000,4.92906E-003,6.21355E-001,0,1.70270E+001,-5.99543E+000,9.99577E-001,-2.29962E+001,-4.73596E+001,9.99509E-001,6.64873E-002,-2.83335E-002,6.43596E-006,6.64873E-002,-2.83335E-002,3.88894E-003,6.67286E-002,1.06855E+000,2.07409E-002,0.00000E+000,-1.88114E-002,9.73058E-001,0.00000E+000,-3.73794E-004,-4.92065E-002,1.00000E+000,12
579,1327,-2.17909E+001,-4.88026E-001,1.06917E-001,1.07847E+000,-3.39204E-001,1.00377E-001,1.13501E+000,6.98840E-003,6.94624E-001,0,1.67299E+001,-5.68394E+000,9.99651E-001,-2.33135E+001,-4.67558E+001,9.98927E-001,6.80147E-002,-2.83290E-002,-2.36149E-004,6.80153E-002,-2.83296E-002,-1.40437E-001,6.83305E-002,1.07018E+000,2.07572E-002,0.00000E+000,-1.93140E-002,9.73053E-001,0.00000E+000,5.53002E-004,-4.91973E-002,1.00000E+000,12
579,1317,-2.18051E+001,-1.09638E+000,1.91845E-001,1.06552E+000,-3.19098E-001,1.32797E-001,1.12018E+000,9.75951E-003,6.89049E-001,0,1.64390E+001,-5.42194E+000,9.99322E-001,-2.34337E+001,-4.62755E+001,9.97988E-001,6.95365E-002,-2.83207E-002,-4.84285E-004,6.95389E-002,-2.83231E-002,-2.83541E-001,6.99362E-002,1.07181E+000,2.07605E-002,0.00000E+000,-1.98159E-002,9.73052E-001,0.00000E+000,1.47860E-003,-4.91954E-002,1.00000E+000,12
1279,1317,2.75551E+001,-4.32026E-001,-9.72445E-002,4.78097E+000,-2.61309E-002,-5.15151E-002,4.78132E+000,6.85139E-003,4.05717E-001,0,7.15654E+001,-9.68570E-001,9.99559E-001,3.82899E+001,-2.90117E+001,9.98206E-001,7.86831E-002,-3.06843E-002,1.84929E-003,7.87144E-002,-3.07155E-002,9.68441E-001,7.93444E-002,1.08185E+000,-6.16745E-003,0.00000E+000,9.22775E-003,9.70946E-001,0.00000E+000,-2.32499E-003,-4.98300E-002,1.00000E+000,12
1279,1327,2.75807E+001,2.06544E-001,-1.01775E-001,4.78122E+000,-4.46585E-002,-8.20711E-002,4.78213E+000,9.77247E-003,4.39005E-001,0,7.16865E+001,-1.21060E+000,9.99542E-001,3.87282E+001,-2.90616E+001,9.98827E-001,7.96197E-002,-3.06546E-002,2.19269E-003,7.96633E-002,-3.06982E-002,1.13867E+000,8.03584E-002,1.08286E+000,-6.12842E-003,0.00000E+000,9.76130E-003,9.70966E-001,0.00000E+000,-3.74531E-004,-4.97549E-002,1.00000E+000,12
1279,1337,2.76126E+001,8.45074E-001,-7.50648E-002,4.77835E+000,-6.75830E-002,-1.16443E-001,4.78025E+000,7.54112E-003,4.35385E-001,0,7.17730E+001,-1.50837E+000,9.99658E-001,3.93080E+001,-2.92025E+001,9.99047E-001,8.05549E-002,-3.06154E-002,2.54372E-003,8.06130E-002,-3.06736E-002,1.31009E+000,8.13768E-002,1.08388E+000,-6.07481E-003,0.00000E+000,1.02969E-002,9.70994E-001,0.00000E+000,1.58339E-003,-4.96517E-002,1.00000E+000,12
1279,1307,2.75387E+001,-1.06061E+000,-6.44768E-002,4.78182E+000,-4.80026E-003,-2.20961E-002,4.78187E+000,8.29338E-003,4.56590E-001,0,7.14591E+001,-6.80299E-001,9.99531E-001,3.80325E+001,-2.88279E+001,9.97505E-001,7.77497E-002,-3.07059E-002,1.51416E-003,7.77708E-002,-3.07270E-002,7.99703E-001,7.83393E-002,1.08085E+000,-6.19408E-003,0.00000E+000,8.69879E-003,9.70932E-001,0.00000E+000,-4.25871E-003,-4.98813E-002,1.00000E+000,12
1279,1297,2.75364E+001,-1.68424E+000,1.36019E-002,4.78699E+000,1.90452E-002,1.62092E-002,4.78705E+000,1.35114E-002,3.69286E-001,0,7.13734E+001,-3.48000E-001,9.99531E-001,3.80578E+001,-2.87331E+001,9.98186E-001,7.68121E-002,-3.07177E-002,1.18610E-003,7.68252E-002,-3.07308E-002,6.31897E-001,7.73356E-002,1.07984E+000,-6.20565E-003,0.00000E+000,8.17025E-003,9.70926E-001,0.00000E+000,-6.19085E-003,-4.99036E-002,1.00000E+000,12
1279,1287,2.75372E+001,-2.31376E+000,9.53774E-002,4.79088E+000,3.39130E-002,4.22289E-002,4.79119E+000,1.24332E-002,3.11714E-001,0,7.13206E+001,-1.28895E-001,9.99601E-001,3.81356E+001,-2.87226E+001,9.97491E-001,7.58730E-002,-3.07251E-002,8.62189E-004,7.58800E-002,-3.07321E-002,4.63381E-001,7.63351E-002,1.07884E+000,-6.21051E-003,0.00000E+000,7.64353E-003,9.70923E-001,0.00000E+000,-8.11635E-003,-4.99129E-002,1.00000E+000,12
569,1347,-2.24236E+001,7.53700E-001,3.21513E-002,1.06637E+000,-3.62052E-001,4.18739E-002,1.12693E+000,5.21298E-003,6.67985E-001,0,1.67024E+001,-5.91945E+000,9.99628E-001,-2.28438E+001,-4.76558E+001,9.99387E-001,6.46024E-002,-2.81791E-002,5.91873E-004,6.46062E-002,-2.81829E-002,3.65482E-001,6.47811E-002,1.06650E+000,2.25127E-002,0.00000E+000,-1.92790E-002,9.73168E-001,0.00000E+000,-1.32441E-003,-4.85692E-002,1.00000E+000,12
569,1357,-2.23928E+001,1.37695E+000,3.24080E-002,1.08269E+000,-3.79458E-001,1.35729E-002,1.14734E+000,5.35375E-003,6.41118E-001,0,1.70311E+001,-6.12733E+000,9.99656E-001,-2.22108E+001,-4.81112E+001,9.99459E-001,6.30123E-002,-2.81782E-002,8.65176E-004,6.30205E-002,-2.81865E-002,5.43532E-001,6.31372E-002,1.06481E+000,2.24754E-002,0.00000E+000,-1.86920E-002,9.73181E-001,0.00000E+000,-2.46323E-003,-4.85943E-002,1.00000E+000,12
569,1327,-2.24715E+001,-4.85148E-001,1.01302E-001,1.03595E+000,-3.30960E-001,9.81378E-002,1.09196E+000,1.00608E-002,6.88381E-001,0,1.60790E+001,-5.53480E+000,9.99798E-001,-2.36897E+001,-4.68003E+001,9.99259E-001,6.77552E-002,-2.81711E-002,3.45755E-005,6.77552E-002,-2.81711E-002,2.06516E-002,6.80749E-002,1.06987E+000,2.25579E-002,0.00000E+000,-2.04476E-002,9.73152E-001,0.00000E+000,9.42390E-004,-4.85388E-002,1.00000E+000,12
569,1337,-2.24491E+001,1.32222E-001,6.08476E-002,1.05035E+000,-3.46903E-001,6.88356E-002,1.10829E+000,4.77062E-003,6.64218E-001,0,1.63812E+001,-5.73773E+000,9.99661E-001,-2.33093E+001,-4.72532E+001,9.99511E-001,6.61840E-002,-2.81758E-002,3.13527E-004,6.61851E-002,-2.81768E-002,1.90373E-001,6.64280E-002,1.06819E+000,2.25373E-002,0.00000E+000,-1.98645E-002,9.73159E-001,0.00000E+000,-1.88689E-004,-4.85527E-002,1.00000E+000,12
1289,1327,2.82970E+001,2.14355E-001,-1.10350E-001,4.83180E+000,-4.13410E-002,-7.91302E-002,4.83262E+000,9.17346E-003,4.33373E-001,0,7.23738E+001,-1.17732E+000,9.99376E-001,3.99162E+001,-2.88349E+001,9.98197E-001,7.93161E-002,-3.00211E-002,2.51366E-003,7.93739E-002,-3.00789E-002,1.31630E+000,8.01455E-002,1.08254E+000,-5.15756E-003,0.00000E+000,9.50129E-003,9.71488E-001,0.00000E+000,1.10128E-004,-4.76929E-002,1.00000E+000,12
1289,1337,2.83307E+001,8.56280E-001,-8.32417E-002,4.83060E+000,-6.13137E-002,-1.12424E-001,4.83230E+000,8.76807E-003,4.48663E-001,0,7.24801E+001,-1.43738E+000,9.99588E-001,4.05210E+001,-2.89128E+001,9.98643E-001,8.03436E-002,-2.99784E-002,2.90040E-003,8.04198E-002,-3.00546E-002,1.50494E+000,8.12703E-002,1.08366E+000,-5.09862E-003,0.00000E+000,1.00992E-002,9.71520E-001,0.00000E+000,2.22278E-003,-4.75816E-002,1.00000E+000,12
569,1317,-2.24887E+001,-1.08715E+000,1.91919E-001,1.01852E+000,-3.04834E-001,1.26995E-001,1.07071E+000,1.10318E-002,6.91785E-001,0,1.57255E+001,-5.19329E+000,9.99400E-001,-2.38359E+001,-4.62287E+001,9.98265E-001,6.93187E-002,-2.81595E-002,-2.53412E-004,6.93194E-002,-2.81601E-002,-1.48949E-001,6.97245E-002,1.07154E+000,2.25575E-002,0.00000E+000,-2.10294E-002,9.73152E-001,0.00000E+000,2.07104E-003,-4.85391E-002,1.00000E+000,12
1289,1317,2.82745E+001,-4.20911E-001,-9.74390E-002,4.83217E+000,-2.31030E-002,-4.90981E-002,4.83247E+000,1.15863E-002,4.67456E-001,0,7.22622E+001,-9.32508E-001,9.99601E-001,3.95365E+001,-2.87197E+001,9.97155E-001,7.82923E-002,-3.00509E-002,2.13907E-003,7.83345E-002,-3.00931E-002,1.13063E+000,7.90322E-002,1.08143E+000,-5.19646E-003,0.00000E+000,8.90892E-003,9.71467E-001,0.00000E+000,-1.98305E-003,-4.77664E-002,1.00000E+000,12
1289,1287,2.82545E+001,-2.29724E+000,8.81273E-002,4.84127E+000,4.48021E-002,4.10510E-002,4.84165E+000,1.27413E-002,3.89837E-001,0,7.20154E+001,8.97335E-003,9.99626E-001,3.93421E+001,-2.83281E+001,9.97328E-001,7.51998E-002,-3.00958E-002,1.04979E-003,7.52102E-002,-3.01062E-002,5.71158E-001,7.57071E-002,1.07812E+000,-5.24581E-003,0.00000E+000,7.13945E-003,9.71441E-001,0.00000E+000,-8.23567E-003,-4.78596E-002,1.00000E+000,12
1289,1297,2.82593E+001,-1.67500E+000,1.99870E-002,4.83946E+000,2.28641E-002,1.56542E-002,4.83954E+000,1.34401E-002,3.16616E-001,0,7.20982E+001,-2.90785E-001,9.99652E-001,3.93706E+001,-2.85441E+001,9.98057E-001,7.62310E-002,-3.00843E-002,1.40881E-003,7.62497E-002,-3.01030E-002,7.59062E-001,7.68102E-002,1.07922E+000,-5.23452E-003,0.00000E+000,7.72627E-003,9.71447E-001,0.00000E+000,-6.16210E-003,-4.78383E-002,1.00000E+000,12
1289,1307,2.82620E+001,-1.05071E+000,-6.46507E-002,4.83570E+000,-1.86787E-003,-2.47376E-002,4.83577E+000,1.04496E-002,4.67546E-001,0,7.22155E+001,-6.34409E-001,9.99772E-001,3.93413E+001,-2.85811E+001,9.97888E-001,7.72644E-002,-3.00729E-002,1.77022E-003,7.72936E-002,-3.01021E-002,9.44585E-001,7.79208E-002,1.08033E+000,-5.22365E-003,0.00000E+000,8.31755E-003,9.71453E-001,0.00000E+000,-4.07273E-003,-4.78178E-002,1.00000E+000,12
559,1327,-2.31451E+001,-4.73781E-001,9.90016E-002,9.99040E-001,-3.15848E-001,9.35992E-002,1.05195E+000,1.88576E-002,8.14787E-001,0,1.55187E+001,-5.32854E+000,9.99819E-001,-2.39449E+001,-4.66547E+001,9.99042E-001,6.74651E-002,-2.81661E-002,3.69678E-004,6.74665E-002,-2.81675E-002,2.21482E-001,6.77719E-002,1.06951E+000,2.44210E-002,0.00000E+000,-2.15021E-002,9.73084E-001,0.00000E+000,1.15122E-003,-4.74416E-002,1.00000E+000,12
559,1337,-2.31275E+001,1.41818E-001,5.61476E-002,1.00903E+000,-3.32411E-001,6.33948E-002,1.06427E+000,4.86611E-003,6.80303E-001,0,1.57542E+001,-5.49336E+000,9.99862E-001,-2.36433E+001,-4.71872E+001,9.99584E-001,6.59358E-002,-2.81710E-002,6.05438E-004,6.59397E-002,-2.81748E-002,3.68594E-001,6.61717E-002,1.06788E+000,2.44018E-002,0.00000E+000,-2.10031E-002,9.73089E-001,0.00000E+000,-7.46155E-005,-4.74560E-002,1.00000E+000,12
559,1347,-2.31047E+001,7.61671E-001,2.91564E-002,1.02237E+000,-3.47426E-001,3.75242E-002,1.08044E+000,6.59765E-003,6.51023E-001,0,1.60301E+001,-5.68383E+000,9.99638E-001,-2.32135E+001,-4.76370E+001,9.99222E-001,6.43980E-002,-2.81745E-002,8.39815E-004,6.44056E-002,-2.81821E-002,5.19728E-001,6.45728E-002,1.06624E+000,2.43780E-002,0.00000E+000,-2.05026E-002,9.73097E-001,0.00000E+000,-1.30399E-003,-4.74738E-002,1.00000E+000,12
559,1357,-2.30734E+001,1.38484E+000,3.07996E-002,1.03996E+000,-3.63845E-001,1.43521E-002,1.10187E+000,5.42346E-003,6.25787E-001,0,1.63651E+001,-5.89372E+000,9.99615E-001,-2.25674E+001,-4.80977E+001,9.99533E-001,6.28494E-002,-2.81750E-002,1.07043E-003,6.28620E-002,-2.81876E-002,6.73661E-001,6.29735E-002,1.06460E+000,2.43438E-002,0.00000E+000,-2.00000E-002,9.73107E-001,0.00000E+000,-2.53866E-003,-4.74995E-002,1.00000E+000,12
559,1317,-2.31664E+001,-1.07533E+000,1.97260E-001,9.77042E-001,-2.89885E-001,1.27368E-001,1.02707E+000,1.80774E-002,7.16904E-001,0,1.50820E+001,-4.94776E+000,9.99674E-001,-2.41289E+001,-4.61416E+001,9.98853E-001,6.89884E-002,-2.81554E-002,1.24688E-004,6.89885E-002,-2.81556E-002,7.35416E-002,6.93757E-002,1.07115E+000,2.44194E-002,0.00000E+000,-2.20006E-002,9.73084E-001,0.00000E+000,2.37572E-003,-4.74428E-002,1.00000E+000,12
1299,1327,2.90203E+001,2.26793E-001,-1.08795E-001,4.88471E+000,-3.63319E-002,-8.10280E-002,4.88552E+000,1.22457E-002,4.43644E-001,0,7.31113E+001,-1.10440E+000,9.99314E-001,4.12295E+001,-2.85502E+001,9.98480E-001,7.90716E-002,-2.92886E-002,2.82648E-003,7.91453E-002,-2.93623E-002,1.49315E+000,8.00186E-002,1.08228E+000,-3.99048E-003,0.00000E+000,9.05008E-003,9.72098E-001,0.00000E+000,6.22689E-004,-4.53051E-002,1.00000E+000,12
1299,1337,2.90600E+001,8.69294E-001,-7.34029E-002,4.88805E+000,-5.73877E-002,-1.10586E-001,4.88964E+000,1.09439E-002,4.79553E-001,0,7.32695E+001,-1.38908E+000,9.99364E-001,4.19368E+001,-2.86252E+001,9.98290E-001,8.01993E-002,-2.92408E-002,3.25033E-003,8.02957E-002,-2.93373E-002,1.69966E+000,8.12603E-002,1.08351E+000,-3.92308E-003,0.00000E+000,9.71004E-003,9.72134E-001,0.00000E+000,2.93438E-003,-4.51783E-002,1.00000E+000,12
1299,1287,2.89793E+001,-2.28606E+000,9.08894E-002,4.89431E+000,4.71543E-002,3.41129E-002,4.89466E+000,1.03454E-002,5.02736E-001,0,7.27734E+001,2.57228E-002,9.99616E-001,4.06818E+001,-2.80198E+001,9.97471E-001,7.45592E-002,-2.93659E-002,1.23193E-003,7.45738E-002,-2.93805E-002,6.79058E-001,7.51305E-002,1.07744E+000,-4.08471E-003,0.00000E+000,6.44923E-003,9.72048E-001,0.00000E+000,-8.48741E-003,-4.54823E-002,1.00000E+000,12
1299,1297,2.89830E+001,-1.66658E+000,1.71812E-002,4.89277E+000,2.27124E-002,8.52608E-003,4.89283E+000,1.08549E-002,4.99194E-001,0,7.28634E+001,-3.42628E-001,9.99661E-001,4.06845E+001,-2.82306E+001,9.98120E-001,7.56910E-002,-2.93557E-002,1.62225E-003,7.57161E-002,-2.93808E-002,8.84543E-001,7.63462E-002,1.07864E+000,-4.07493E-003,0.00000E+000,7.09576E-003,9.72053E-001,0.00000E+000,-6.22278E-003,-4.54639E-002,1.00000E+000,12
1299,1307,2.89956E+001,-1.03541E+000,-3.85518E-002,4.89476E+000,4.32522E-003,-1.83481E-002,4.89480E+000,1.85947E-002,5.10008E-001,0,7.30054E+001,-5.79157E-001,9.99692E-001,4.08504E+001,-2.82904E+001,9.98423E-001,7.68241E-002,-2.93390E-002,2.01979E-003,7.68625E-002,-2.93774E-002,1.08955E+000,7.75702E-002,1.07986E+000,-4.05521E-003,0.00000E+000,7.74687E-003,9.72063E-001,0.00000E+000,-3.94211E-003,-4.54268E-002,1.00000E+000,12
1299,1317,2.90050E+001,-4.06312E-001,-8.50800E-002,4.88877E+000,-1.75154E-002,-5.39074E-002,4.88910E+000,1.60511E-002,4.83897E-001,0,7.30635E+001,-8.49855E-001,9.99395E-001,4.09793E+001,-2.84225E+001,9.98034E-001,7.79511E-002,-2.93162E-002,2.42154E-003,7.80057E-002,-2.93708E-002,1.29256E+000,7.87946E-002,1.08107E+000,-4.02647E-003,0.00000E+000,8.39838E-003,9.72079E-001,0.00000E+000,-1.66006E-003,-4.53728E-002,1.00000E+000,12
559,1307,-2.31841E+001,-1.67960E+000,3.04802E-001,9.56851E-001,-2.67794E-001,1.59373E-001,1.00632E+000,8.05594E-003,6.82727E-001,0,1.46784E+001,-4.66240E+000,9.99338E-001,-2.42312E+001,-4.56564E+001,9.98589E-001,7.05069E-002,-2.81434E-002,-1.22073E-004,7.05070E-002,-2.81436E-002,-7.08995E-002,7.09834E-002,1.07278E+000,2.44135E-002,0.00000E+000,-2.24989E-002,9.73086E-001,0.00000E+000,3.59964E-003,-4.74472E-002,1.00000E+000,12
549,1347,-2.37807E+001,7.72827E-001,2.73915E-002,9.83063E-001,-3.31901E-001,3.45567E-002,1.03815E+000,5.59249E-003,6.71848E-001,0,1.54267E+001,-5.42093E+000,9.99597E-001,-2.34970E+001,-4.75528E+001,9.99308E-001,6.42033E-002,-2.81209E-002,1.10613E-003,6.42166E-002,-2.81342E-002,6.86326E-001,6.43803E-002,1.06599E+000,2.61440E-002,0.00000E+000,-2.16054E-002,9.73070E-001,0.00000E+000,-1.20332E-003,-4.62622E-002,1.00000E+000,12
549,1357,-2.37493E+001,1.39899E+000,3.38230E-002,1.00005E+000,-3.46131E-001,1.08900E-002,1.05831E+000,5.69652E-003,6.55777E-001,0,1.57525E+001,-5.59628E+000,9.99586E-001,-2.28325E+001,-4.79754E+001,9.99517E-001,6.26997E-002,-2.81216E-002,1.33335E-003,6.27192E-002,-2.81412E-002,8.40920E-001,6.28293E-002,1.06440E+000,2.61092E-002,0.00000E+000,-2.11096E-002,9.73081E-001,0.00000E+000,-2.48722E-003,-4.62902E-002,1.00000E+000,12
549,1327,-2.38337E+001,-4.58049E-001,1.14436E-001,9.45244E-001,-2.95733E-001,9.68157E-002,9.95147E-001,1.42323E-002,7.80292E-001,0,1.46717E+001,-5.00898E+000,9.99499E-001,-2.43665E+001,-4.65627E+001,9.97785E-001,6.71811E-002,-2.81101E-002,6.39376E-004,6.71854E-002,-2.81144E-002,3.84415E-001,6.74826E-002,1.06917E+000,2.61808E-002,0.00000E+000,-2.25916E-002,9.73059E-001,0.00000E+000,1.35007E-003,-4.62326E-002,1.00000E+000,12
549,1337,-2.38059E+001,1.54295E-001,6.06361E-002,9.66992E-001,-3.13652E-001,6.46465E-002,1.01864E+000,4.98286E-003,6.57680E-001,0,1.50967E+001,-5.20472E+000,9.99748E-001,-2.39435E+001,-4.71163E+001,9.99558E-001,6.57002E-002,-2.81165E-002,8.73433E-004,6.57084E-002,-2.81246E-002,5.33361E-001,6.59349E-002,1.06759E+000,2.61660E-002,0.00000E+000,-2.21005E-002,9.73064E-001,0.00000E+000,7.84942E-005,-4.62445E-002,1.00000E+000,12
1309,1317,2.97211E+001,-4.01417E-001,-1.04789E-001,4.93826E+000,-1.64198E-002,-6.18050E-002,4.93867E+000,1.18810E-002,4.49035E-001,0,7.37778E+001,-8.19352E-001,9.99357E-001,4.21559E+001,-2.82334E+001,9.98392E-001,7.78090E-002,-2.86437E-002,2.72419E-003,7.78787E-002,-2.87134E-002,1.46495E+000,7.87688E-002,1.08092E+000,-2.64335E-003,0.00000E+000,7.73814E-003,9.72631E-001,0.00000E+000,-1.42865E-003,-4.28391E-002,1.00000E+000,12
1309,1327,2.97446E+001,2.35603E-001,-1.15491E-001,4.93959E+000,-3.32949E-002,-8.56495E-002,4.94045E+000,1.39029E-002,4.28909E-001,0,7.38898E+001,-1.05715E+000,9.99227E-001,4.25501E+001,-2.83161E+001,9.98115E-001,7.90198E-002,-2.86144E-002,3.12272E-003,7.91104E-002,-2.87049E-002,1.66042E+000,8.00963E-002,1.08223E+000,-2.59888E-003,0.00000E+000,8.37256E-003,9.72653E-001,0.00000E+000,9.61325E-004,-4.27581E-002,1.00000E+000,12
1309,1337,2.97822E+001,8.79320E-001,-8.31333E-002,4.94206E+000,-5.24688E-002,-1.13371E-001,4.94364E+000,1.23528E-002,4.49230E-001,0,7.40279E+001,-1.31249E+000,9.99528E-001,4.32201E+001,-2.83720E+001,9.98922E-001,8.02348E-002,-2.85700E-002,3.53642E-003,8.03496E-002,-2.86848E-002,1.85964E+000,8.14376E-002,1.08356E+000,-2.52840E-003,0.00000E+000,9.01317E-003,9.72687E-001,0.00000E+000,3.37463E-003,-4.26297E-002,1.00000E+000,12
549,1317,-2.38480E+001,-1.06333E+000,2.05346E-001,9.31352E-001,-2.74135E-001,1.30596E-001,9.79603E-001,1.19558E-002,7.54841E-001,0,1.43640E+001,-4.71151E+000,9.99608E-001,-2.44677E+001,-4.60519E+001,9.98609E-001,6.86563E-002,-2.80997E-002,3.99387E-004,6.86579E-002,-2.81014E-002,2.36499E-001,6.90335E-002,1.07075E+000,2.61821E-002,0.00000E+000,-2.30822E-002,9.73059E-001,0.00000E+000,2.62034E-003,-4.62316E-002,1.00000E+000,12
549,1307,-2.38643E+001,-1.66827E+000,2.97230E-001,9.13501E-001,-2.52086E-001,1.52577E-001,9.59850E-001,8.76084E-003,6.95196E-001,0,1.40233E+001,-4.39276E+000,9.99356E-001,-2.45951E+001,-4.55546E+001,9.98544E-001,7.01300E-002,-2.80879E-002,1.56898E-004,7.01303E-002,-2.80882E-002,9.15265E-002,7.05915E-002,1.07233E+000,2.61785E-002,0.00000E+000,-2.35737E-002,9.73060E-001,0.00000E+000,3.89285E-003,-4.62344E-002,1.00000E+000,12
1309,1287,2.97047E+001,-2.28072E+000,9.30003E-002,4.94662E+000,4.66884E-002,2.32026E-002,4.94690E+000,9.59014E-003,4.63930E-001,0,7.35368E+001,2.90442E-002,9.99636E-001,4.20341E+001,-2.78767E+001,9.97210E-001,7.41519E-002,-2.86822E-002,1.57219E-003,7.41760E-002,-2.87063E-002,8.75702E-001,7.48047E-002,1.07701E+000,-2.69301E-003,0.00000E+000,5.84536E-003,9.72607E-001,0.00000E+000,-8.55910E-003,-4.29296E-002,1.00000E+000,12
1309,1297,2.97061E+001,-1.66147E+000,5.28143E-003,4.94447E+000,2.03108E-002,-9.66275E-003,4.94452E+000,1.19900E-002,4.84869E-001,0,7.36509E+001,-3.29059E-001,9.99575E-001,4.19823E+001,-2.80477E+001,9.97695E-001,7.53767E-002,-2.86751E-002,1.95142E-003,7.54133E-002,-2.87116E-002,1.07404E+000,7.61252E-002,1.07831E+000,-2.68593E-003,0.00000E+000,6.47543E-003,9.72611E-001,0.00000E+000,-6.18550E-003,-4.29167E-002,1.00000E+000,12
1309,1307,2.97065E+001,-1.03263E+000,-7.12504E-002,4.94002E+000,5.13361E-003,-3.65971E-002,4.94016E+000,1.15573E-002,3.94531E-001,0,7.37003E+001,-5.09265E-001,9.99595E-001,4.19316E+001,-2.81489E+001,9.98941E-001,7.65906E-002,-2.86661E-002,2.33072E-003,7.66422E-002,-2.87177E-002,1.26788E+000,7.74402E-002,1.07961E+000,-2.67610E-003,0.00000E+000,7.10366E-003,9.72615E-001,0.00000E+000,-3.81886E-003,-4.28988E-002,1.00000E+000,12
539,1347,-2.44594E+001,7.86459E-001,3.01290E-002,9.40521E-001,-3.12537E-001,3.50038E-002,9.91708E-001,5.15372E-003,6.62252E-001,0,1.47622E+001,-5.11350E+000,9.99626E-001,-2.38026E+001,-4.74562E+001,9.99490E-001,6.40812E-002,-2.80924E-002,1.27038E-003,6.40987E-002,-2.81099E-002,7.89477E-001,6.42599E-002,1.06582E+000,2.77133E-002,0.00000E+000,-2.27244E-002,9.73018E-001,0.00000E+000,-1.14364E-003,-4.50083E-002,1.00000E+000,12
539,1357,-2.44279E+001,1.41314E+000,3.07897E-002,9.58776E-001,-3.25562E-001,1.15509E-002,1.01261E+000,4.94150E-003,6.50123E-001,0,1.51070E+001,-5.26623E+000,9.99732E-001,-2.31517E+001,-4.78582E+001,9.99550E-001,6.26792E-002,-2.80945E-002,1.50016E-003,6.27040E-002,-2.81192E-002,9.46544E-001,6.28150E-002,1.06433E+000,2.76834E-002,0.00000E+000,-2.22293E-002,9.73027E-001,0.00000E+000,-2.42445E-003,-4.50340E-002,1.00000E+000,12
539,1327,-2.45092E+001,-4.46433E-001,1.08375E-001,9.06224E-001,-2.76607E-001,9.12154E-002,9.51879E-001,6.33776E-003,6.58475E-001,0,1.40788E+001,-4.66303E+000,9.99289E-001,-2.46507E+001,-4.65298E+001,9.98836E-001,6.68624E-002,-2.80804E-002,8.01400E-004,6.68692E-002,-2.80872E-002,4.83580E-001,6.71537E-002,1.06879E+000,2.77482E-002,0.00000E+000,-2.37107E-002,9.73006E-001,0.00000E+000,1.40775E-003,-4.49782E-002,1.00000E+000,12
539,1337,-2.44849E+001,1.68790E-001,6.03534E-002,9.23947E-001,-2.93700E-001,6.17062E-002,9.71466E-001,5.47664E-003,6.45702E-001,0,1.44331E+001,-4.87887E+000,9.99542E-001,-2.42639E+001,-4.69992E+001,9.99360E-001,6.54770E-002,-2.80872E-002,1.03652E-003,6.54885E-002,-2.80987E-002,6.34629E-001,6.57078E-002,1.06731E+000,2.77334E-002,0.00000E+000,-2.32187E-002,9.73011E-001,0.00000E+000,1.35082E-004,-4.49909E-002,1.00000E+000,12
1319,1297,3.04179E+001,-1.65556E+000,-1.22494E-002,4.98939E+000,2.40666E-002,-1.57839E-002,4.98947E+000,9.96410E-003,3.66214E-001,0,7.42867E+001,-2.39070E-001,9.99554E-001,4.31017E+001,-2.78938E+001,9.98316E-001,7.50524E-002,-2.79192E-002,2.33363E-003,7.51053E-002,-2.79721E-002,1.29760E+000,7.59157E-002,1.07797E+000,-1.04995E-003,0.00000E+000,5.74295E-003,9.73228E-001,0.00000E+000,-6.45224E-003,-3.98135E-002,1.00000E+000,12
1319,1307,3.04261E+001,-1.02907E+000,-7.29548E-002,4.98944E+000,3.74597E-003,-3.85329E-002,4.98959E+000,1.09641E-002,3.45805E-001,0,7.43860E+001,-5.27953E-001,9.99565E-001,4.31924E+001,-2.80281E+001,9.98996E-001,7.63855E-002,-2.79072E-002,2.72084E-003,7.64565E-002,-2.79781E-002,1.49340E+000,7.73672E-002,1.07939E+000,-1.03198E-003,0.00000E+000,6.37806E-003,9.73236E-001,0.00000E+000,-3.81563E-003,-3.97803E-002,1.00000E+000,12
539,1307,-2.45434E+001,-1.65817E+000,2.91732E-001,8.70401E-001,-2.35993E-001,1.44648E-001,9.13353E-001,5.95726E-003,6.59296E-001,0,1.33737E+001,-4.12223E+000,9.99512E-001,-2.49316E+001,-4.55003E+001,9.98975E-001,6.96107E-002,-2.80567E-002,3.18210E-004,6.96117E-002,-2.80577E-002,1.86672E-001,7.00465E-002,1.07174E+000,2.77449E-002,0.00000E+000,-2.46907E-002,9.73007E-001,0.00000E+000,3.94300E-003,-4.49810E-002,1.00000E+000,12
539,1317,-2.45277E+001,-1.05616E+000,1.91476E-001,8.88434E-001,-2.58775E-001,1.19145E-001,9.32993E-001,6.20266E-003,6.87038E-001,0,1.37260E+001,-4.44879E+000,9.99399E-001,-2.48406E+001,-4.60427E+001,9.98867E-001,6.82398E-002,-2.80696E-002,5.61101E-004,6.82431E-002,-2.80729E-002,3.33791E-001,6.85995E-002,1.07026E+000,2.77500E-002,0.00000E+000,-2.42011E-002,9.73005E-001,0.00000E+000,2.67662E-003,-4.49767E-002,1.00000E+000,12
1319,1287,3.04220E+001,-2.27948E+000,7.81480E-002,4.99456E+000,4.31141E-002,1.11248E-002,4.99475E+000,1.07698E-002,4.26526E-001,0,7.42434E+001,5.04931E-003,9.99538E-001,4.32405E+001,-2.77619E+001,9.98334E-001,7.37153E-002,-2.79227E-002,1.95494E-003,7.37528E-002,-2.79603E-002,1.10150E+000,7.44680E-002,1.07655E+000,-1.05242E-003,0.00000E+000,5.11018E-003,9.73226E-001,0.00000E+000,-9.07916E-003,-3.98181E-002,1.00000E+000,12
529,1327,-2.51863E+001,-4.33875E-001,1.09390E-001,8.64279E-001,-2.58729E-001,8.71988E-002,9.06379E-001,5.82712E-003,6.69611E-001,0,1.34350E+001,-4.38589E+000,9.99186E-001,-2.49342E+001,-4.64317E+001,9.98650E-001,6.65698E-002,-2.79701E-002,9.44114E-004,6.65792E-002,-2.79795E-002,5.72103E-001,6.68610E-002,1.06845E+000,2.88326E-002,0.00000E+000,-2.44420E-002,9.73059E-001,0.00000E+000,1.72846E-003,-4.41154E-002,1.00000E+000,12
529,1307,-2.52206E+001,-1.64589E+000,2.96494E-001,8.27754E-001,-2.19097E-001,1.40906E-001,8.67776E-001,7.54308E-003,6.40790E-001,0,1.27192E+001,-3.84911E+000,9.99594E-001,-2.52042E+001,-4.54253E+001,9.99230E-001,6.89529E-002,-2.79506E-002,5.60236E-004,6.89561E-002,-2.79538E-002,3.31234E-001,6.93664E-002,1.07100E+000,2.88286E-002,0.00000E+000,-2.52241E-002,9.73060E-001,0.00000E+000,4.06374E-003,-4.41191E-002,1.00000E+000,12
529,1317,-2.52060E+001,-1.04362E+000,1.88590E-001,8.46149E-001,-2.40592E-001,1.16953E-001,8.87429E-001,6.09855E-003,6.57241E-001,0,1.30730E+001,-4.14553E+000,9.99638E-001,-2.51539E+001,-4.59553E+001,9.99072E-001,6.77642E-002,-2.79618E-002,7.54338E-004,6.77702E-002,-2.79677E-002,4.51463E-001,6.81137E-002,1.06973E+000,2.88358E-002,0.00000E+000,-2.48334E-002,9.73058E-001,0.00000E+000,2.89738E-003,-4.41125E-002,1.00000E+000,12
