Coordinates.Image X [Pixel],Coordinates.Image Y [Pixel],coor.X [mm],coor.Y [mm],coor.Z [mm],disp.Horizontal Displacement U [mm],disp.Vertical Displacement V [mm],disp.Out-Of-Plane: W [mm],disp.Displacement Magnitude [mm],stats.Sigma [mm],stats.Epipolar Distance [Pixel],stats.Shape Index [-],SameCamera.Horizontal: u [Pixel],SameCamera.Vertical: v [Pixel],SameCamera.Correlation Value 2D [-],CrossCamera.Horizontal: q [Pixel],CrossCamera.Vertical: r [Pixel],CrossCamera.Correlation Value Persp [-],strain.Strain-global frame: Exx [ ],strain.Strain-global frame: Eyy [ ],strain.Strain-global frame: Exy [ ],strain.Maximum Principal Strain: EI [ ],strain.Minimum Principal Strain: EII [ ],strain.Shear Angle Gamma [deg],strain.Von Mises Equivalent Strain [ ],defgradient.F[0,0] [-],defgradient.F[0,1] [-],defgradient.F[0,2] [-],defgradient.F[1,0] [-],defgradient.F[1,1] [-],defgradient.F[1,2] [-],defgradient.F[2,0] [-],defgradient.F[2,1] [-],defgradient.F[2,2] [-],ext.Current Image [#]
929,1317,7.81477E+000,-1.15849E+000,7.31213E-002,8.15084E+000,-5.42129E-001,1.59842E-001,8.17041E+000,1.65549E-002,4.60466E-001,0,1.24156E+002,-9.81103E+000,9.97922E-001,8.12720E+001,-4.30994E+001,9.96239E-001,2.19085E-001,-9.20330E-002,-5.47284E-004,2.19086E-001,-9.20339E-002,-1.00788E-001,2.20017E-001,1.24487E+000,-2.24795E-002,0.00000E+000,1.68351E-002,9.16284E-001,0.00000E+000,-1.64290E-002,-9.76613E-002,1.00000E+000,34
919,1307,7.00498E+000,-1.75190E+000,1.42269E-001,8.00760E+000,-4.86266E-001,2.33787E-001,8.02575E+000,1.94758E-002,4.92600E-001,0,1.21805E+002,-9.05364E+000,9.95396E-001,7.87831E+001,-4.25138E+001,9.93632E-001,2.23072E-001,-9.17542E-002,-1.25182E-003,2.23077E-001,-9.17592E-002,-2.27816E-001,2.24243E-001,1.24987E+000,-1.98933E-002,0.00000E+000,1.34766E-002,9.16656E-001,0.00000E+000,-1.50721E-002,-9.83962E-002,1.00000E+000,34
919,1317,6.98718E+000,-1.18120E+000,2.76909E-002,7.98699E+000,-5.50565E-001,1.70119E-001,8.00775E+000,2.46996E-002,4.61244E-001,0,1.21731E+002,-9.95530E+000,9.92554E-001,7.83597E+001,-4.34596E+001,9.91163E-001,2.20641E-001,-9.17611E-002,-1.45043E-003,2.20648E-001,-9.17678E-002,-2.66006E-001,2.21686E-001,1.24681E+000,-1.99067E-002,0.00000E+000,1.29989E-002,9.16654E-001,0.00000E+000,-1.33433E-002,-9.83887E-002,1.00000E+000,34
919,1327,6.99109E+000,-6.00652E-001,-2.18913E-002,7.97377E+000,-6.17083E-001,1.05406E-001,7.99831E+000,1.81097E-002,4.78035E-001,0,1.21756E+002,-1.08719E+001,9.96514E-001,7.84064E+001,-4.43652E+001,9.94989E-001,2.18179E-001,-9.17758E-002,-1.67744E-003,2.18188E-001,-9.17849E-002,-3.10065E-001,2.19102E-001,1.24371E+000,-1.99873E-002,0.00000E+000,1.25165E-002,9.16641E-001,0.00000E+000,-1.15976E-002,-9.83432E-002,1.00000E+000,34
929,1307,7.82752E+000,-1.72842E+000,1.72579E-001,8.17077E+000,-4.73780E-001,2.28279E-001,8.18768E+000,1.65358E-002,5.09670E-001,0,1.24204E+002,-8.86828E+000,9.98083E-001,8.15856E+001,-4.21021E+001,9.96984E-001,2.21572E-001,-9.20347E-002,-5.42761E-004,2.21573E-001,-9.20357E-002,-9.91616E-002,2.22629E-001,1.24801E+000,-2.24446E-002,0.00000E+000,1.69696E-002,9.16286E-001,0.00000E+000,-1.85901E-002,-9.76853E-002,1.00000E+000,34
929,1327,7.80891E+000,-5.72900E-001,4.22356E-003,8.13155E+000,-5.98884E-001,9.31236E-002,8.15410E+000,1.52367E-002,4.39435E-001,0,1.24098E+002,-1.05923E+001,9.98118E-001,8.11292E+001,-4.39045E+001,9.97074E-001,2.16581E-001,-9.20306E-002,-5.63918E-004,2.16582E-001,-9.20317E-002,-1.04694E-001,2.17395E-001,1.24172E+000,-2.25447E-002,0.00000E+000,1.67003E-002,9.16282E-001,0.00000E+000,-1.42632E-002,-9.76166E-002,1.00000E+000,34
939,1307,8.64161E+000,-1.71078E+000,1.53777E-001,8.33053E+000,-4.63048E-001,1.99084E-001,8.34576E+000,1.82023E-002,4.99218E-001,0,1.26640E+002,-8.65360E+000,9.98176E-001,8.41621E+001,-4.16915E+001,9.97160E-001,2.19821E-001,-9.13139E-002,-5.82420E-005,2.19821E-001,-9.13139E-002,-1.07253E-002,2.20867E-001,1.24581E+000,-2.55786E-002,0.00000E+000,2.03826E-002,9.16753E-001,0.00000E+000,-2.09873E-002,-9.61688E-002,1.00000E+000,34
939,1317,8.62748E+000,-1.13817E+000,6.09846E-002,8.30842E+000,-5.28654E-001,1.33890E-001,8.32630E+000,1.74350E-002,4.34696E-001,0,1.26547E+002,-9.56511E+000,9.97774E-001,8.38419E+001,-4.26674E+001,9.95926E-001,2.17566E-001,-9.13080E-002,-6.99539E-006,2.17566E-001,-9.13080E-002,-1.29764E-003,2.18499E-001,1.24295E+000,-2.56139E-002,0.00000E+000,2.03402E-002,9.16752E-001,0.00000E+000,-1.86489E-002,-9.61399E-002,1.00000E+000,34
939,1327,8.62519E+000,-5.45156E-001,-1.29763E-004,8.29103E+000,-5.81255E-001,6.81570E-002,8.31166E+000,1.52516E-002,4.67106E-001,0,1.26513E+002,-1.02797E+001,9.97247E-001,8.37705E+001,-4.33453E+001,9.96128E-001,2.15284E-001,-9.13002E-002,3.21319E-005,2.15284E-001,-9.13002E-002,6.00493E-003,2.16110E-001,1.24007E+000,-2.56808E-002,0.00000E+000,2.02975E-002,9.16751E-001,0.00000E+000,-1.62940E-002,-9.60853E-002,1.00000E+000,34
919,1337,7.00214E+000,-4.93940E-003,-4.27927E-002,7.96278E+000,-6.69964E-001,4.63026E-002,7.99105E+000,1.75779E-002,4.43980E-001,0,1.21783E+002,-1.15937E+001,9.95888E-001,7.86253E+001,-4.51242E+001,9.95501E-001,2.15710E-001,-9.17932E-002,-1.91384E-003,2.15722E-001,-9.18051E-002,-3.56580E-001,2.16517E-001,1.24063E+000,-2.00910E-002,0.00000E+000,1.20346E-002,9.16625E-001,0.00000E+000,-9.85331E-003,-9.82846E-002,1.00000E+000,34
929,1337,7.81594E+000,1.37040E-002,-3.25683E-002,8.11896E+000,-6.60231E-001,3.02247E-002,8.14582E+000,1.56447E-002,4.31709E-001,0,1.24123E+002,-1.14373E+001,9.98284E-001,8.12508E+001,-4.47559E+001,9.97647E-001,2.14055E-001,-9.20277E-002,-5.92663E-004,2.14056E-001,-9.20288E-002,-1.10940E-001,2.14756E-001,1.23855E+000,-2.26397E-002,0.00000E+000,1.65649E-002,9.16278E-001,0.00000E+000,-1.20870E-002,-9.75512E-002,1.00000E+000,34
939,1337,8.62958E+000,4.19358E-002,-3.63043E-002,8.27667E+000,-6.41095E-001,1.04565E-002,8.30147E+000,1.40451E-002,4.62366E-001,0,1.26494E+002,-1.11238E+001,9.98025E-001,8.38517E+001,-4.41875E+001,9.97673E-001,2.12993E-001,-9.12914E-002,6.44617E-005,2.12993E-001,-9.12914E-002,1.21379E-002,2.13716E-001,1.23720E+000,-2.57637E-002,0.00000E+000,2.02548E-002,9.16750E-001,0.00000E+000,-1.39399E-002,-9.60174E-002,1.00000E+000,34
949,1317,9.44635E+000,-1.10876E+000,5.34488E-002,8.47034E+000,-5.08807E-001,1.06718E-001,8.48628E+000,2.72242E-002,4.52028E-001,0,1.29002E+002,-9.21160E+000,9.93848E-001,8.65229E+001,-4.20822E+001,9.91159E-001,2.16001E-001,-9.04811E-002,4.36396E-004,2.16002E-001,-9.04817E-002,8.15824E-002,2.16947E-001,1.24098E+000,-2.84284E-002,0.00000E+000,2.33824E-002,9.17253E-001,0.00000E+000,-2.03306E-002,-9.39021E-002,1.00000E+000,34
949,1327,9.43782E+000,-5.17286E-001,-1.28141E-002,8.44779E+000,-5.61043E-001,4.11475E-002,8.46650E+000,2.34239E-002,4.65073E-001,0,1.28892E+002,-9.93226E+000,9.95388E-001,8.63443E+001,-4.27815E+001,9.93413E-001,2.14143E-001,-9.04685E-002,5.33116E-004,2.14144E-001,-9.04695E-002,1.00276E-001,2.15000E-001,1.23862E+000,-2.84796E-002,0.00000E+000,2.34041E-002,9.17253E-001,0.00000E+000,-1.76098E-002,-9.38432E-002,1.00000E+000,34
949,1337,9.44328E+000,6.87977E-002,-3.64843E-002,8.43499E+000,-6.21944E-001,-1.08456E-003,8.45789E+000,1.74100E-002,4.59474E-001,0,1.28844E+002,-1.08230E+001,9.96937E-001,8.64657E+001,-4.36650E+001,9.96016E-001,2.12269E-001,-9.04541E-002,6.23640E-004,2.12270E-001,-9.04554E-002,1.18034E-001,2.13041E-001,1.23625E+000,-2.85462E-002,0.00000E+000,2.34258E-002,9.17254E-001,0.00000E+000,-1.48824E-002,-9.37665E-002,1.00000E+000,34
949,1307,9.46442E+000,-1.68921E+000,1.48375E-001,8.49609E+000,-4.50252E-001,1.72268E-001,8.50976E+000,2.25736E-002,4.94694E-001,0,1.29149E+002,-8.41148E+000,9.95956E-001,8.69068E+001,-4.12449E+001,9.94584E-001,2.17843E-001,-9.04908E-002,3.30787E-004,2.17843E-001,-9.04912E-002,6.14680E-002,2.18880E-001,1.24334E+000,-2.84003E-002,0.00000E+000,2.33608E-002,9.17253E-001,0.00000E+000,-2.30422E-002,-9.39345E-002,1.00000E+000,34
909,1317,6.17987E+000,-1.19740E+000,2.26175E-002,7.83139E+000,-5.58953E-001,1.67354E-001,7.85310E+000,2.26920E-002,4.32161E-001,0,1.19459E+002,-1.00742E+001,9.90240E-001,7.58488E+001,-4.38181E+001,9.89357E-001,2.22183E-001,-9.24929E-002,-2.44491E-003,2.22202E-001,-9.25119E-002,-4.45131E-001,2.23236E-001,1.24873E+000,-1.71745E-002,0.00000E+000,8.83690E-003,9.16049E-001,0.00000E+000,-9.95597E-003,-9.86100E-002,1.00000E+000,34
909,1327,6.19074E+000,-6.09156E-001,-2.68920E-002,7.82563E+000,-6.18326E-001,1.04482E-001,7.85072E+000,1.88567E-002,4.53850E-001,0,1.19587E+002,-1.08712E+001,9.93171E-001,7.60051E+001,-4.46032E+001,9.93849E-001,2.19796E-001,-9.25050E-002,-2.64907E-003,2.19818E-001,-9.25274E-002,-4.85961E-001,2.20733E-001,1.24574E+000,-1.72497E-002,0.00000E+000,8.44089E-003,9.16039E-001,0.00000E+000,-8.80407E-003,-9.85810E-002,1.00000E+000,34
909,1337,6.19833E+000,-1.00232E-002,-4.45376E-002,7.81107E+000,-6.70694E-001,4.76578E-002,7.83995E+000,2.06870E-002,5.09423E-001,0,1.19551E+002,-1.15875E+001,9.95888E-001,7.61782E+001,-4.52738E+001,9.95884E-001,2.17396E-001,-9.25198E-002,-2.86383E-003,2.17423E-001,-9.25463E-002,-5.29391E-001,2.18222E-001,1.24275E+000,-1.73499E-002,0.00000E+000,8.04386E-003,9.16026E-001,0.00000E+000,-7.64921E-003,-9.85424E-002,1.00000E+000,34
909,1307,6.19051E+000,-1.76735E+000,1.40833E-001,7.84382E+000,-4.94101E-001,2.29964E-001,7.86273E+000,2.16956E-002,4.24460E-001,0,1.19412E+002,-9.15240E+000,9.92343E-001,7.61707E+001,-4.28871E+001,9.88267E-001,2.24537E-001,-9.24882E-002,-2.26899E-003,2.24554E-001,-9.25044E-002,-4.10044E-001,2.25711E-001,1.25169E+000,-1.71662E-002,0.00000E+000,9.22871E-003,9.16051E-001,0.00000E+000,-1.10956E-002,-9.86132E-002,1.00000E+000,34
919,1347,7.02347E+000,6.00020E-001,-5.45640E-002,7.95882E+000,-7.17551E-001,-1.85804E-002,7.99112E+000,2.63907E-002,4.78973E-001,0,1.21932E+002,-1.22312E+001,9.97693E-001,7.90228E+001,-4.57267E+001,9.97116E-001,2.13221E-001,-9.18125E-002,-2.15762E-003,2.13236E-001,-9.18277E-002,-4.05249E-001,2.13919E-001,1.23752E+000,-2.02100E-002,0.00000E+000,1.15506E-002,9.16607E-001,0.00000E+000,-8.10191E-003,-9.82174E-002,1.00000E+000,34
929,1347,7.83361E+000,6.10819E-001,-4.24162E-002,8.11185E+000,-7.14668E-001,-2.95523E-002,8.14332E+000,1.49677E-002,4.35813E-001,0,1.24210E+002,-1.21888E+001,9.98115E-001,8.15931E+001,-4.54982E+001,9.97700E-001,2.11512E-001,-9.20243E-002,-6.31790E-004,2.11514E-001,-9.20256E-002,-1.19256E-001,2.12107E-001,1.23538E+000,-2.27598E-002,0.00000E+000,1.64292E-002,9.16272E-001,0.00000E+000,-9.90601E-003,-9.74687E-002,1.00000E+000,34
939,1347,8.64810E+000,6.39036E-001,-3.73829E-002,8.27071E+000,-6.95650E-001,-3.82416E-002,8.30000E+000,1.90332E-002,4.76494E-001,0,1.26561E+002,-1.19043E+001,9.97932E-001,8.42230E+001,-4.49425E+001,9.97053E-001,2.10683E-001,-9.12809E-002,8.65548E-005,2.10683E-001,-9.12809E-002,1.64232E-002,2.11308E-001,1.23431E+000,-2.58720E-002,0.00000E+000,2.02119E-002,9.16749E-001,0.00000E+000,-1.15771E-002,-9.59289E-002,1.00000E+000,34
949,1347,9.46278E+000,6.62014E-001,-3.66221E-002,8.42797E+000,-6.82757E-001,-5.71642E-002,8.45577E+000,1.71385E-002,4.79315E-001,0,1.28921E+002,-1.16729E+001,9.96778E-001,8.68518E+001,-4.44775E+001,9.94960E-001,2.10374E-001,-9.04360E-002,7.02463E-004,2.10375E-001,-9.04377E-002,1.33798E-001,2.11064E-001,1.23387E+000,-2.86430E-002,0.00000E+000,2.34476E-002,9.17255E-001,0.00000E+000,-1.21392E-002,-9.36550E-002,1.00000E+000,34
959,1317,1.02571E+001,-1.08516E+000,4.36766E-002,8.62559E+000,-4.92278E-001,8.59473E-002,8.64005E+000,2.50550E-002,4.44719E-001,0,1.31333E+002,-8.93017E+000,9.94695E-001,8.90784E+001,-4.15958E+001,9.93243E-001,2.14575E-001,-8.95672E-002,4.58347E-004,2.14575E-001,-8.95679E-002,8.63456E-002,2.15549E-001,1.23915E+000,-3.14522E-002,0.00000E+000,2.57138E-002,9.17825E-001,0.00000E+000,-2.10299E-002,-9.14237E-002,1.00000E+000,34
959,1327,1.02559E+001,-4.93968E-001,-1.95123E-002,8.61200E+000,-5.44037E-001,3.15254E-002,8.62922E+000,3.34518E-002,4.19925E-001,0,1.31322E+002,-9.64806E+000,9.97722E-001,8.90189E+001,-4.23220E+001,9.96404E-001,2.13057E-001,-8.95476E-002,6.39975E-004,2.13059E-001,-8.95489E-002,1.21173E-001,2.13959E-001,1.23721E+000,-3.14894E-002,0.00000E+000,2.58785E-002,9.17828E-001,0.00000E+000,-1.82269E-002,-9.13700E-002,1.00000E+000,34
959,1337,1.02612E+001,8.95336E-002,-4.07855E-002,8.59670E+000,-6.10049E-001,-1.82316E-002,8.61834E+000,2.47716E-002,4.41875E-001,0,1.31263E+002,-1.06018E+001,9.96247E-001,8.91412E+001,-4.32352E+001,9.95542E-001,2.11522E-001,-8.95222E-002,8.12485E-004,2.11524E-001,-8.95244E-002,1.54633E-001,2.12354E-001,1.23526E+000,-3.15515E-002,0.00000E+000,2.60439E-002,9.17833E-001,0.00000E+000,-1.54095E-002,-9.12803E-002,1.00000E+000,34
959,1307,1.02694E+001,-1.66273E+000,1.36378E-001,8.64647E+000,-4.29212E-001,1.52809E-001,8.65847E+000,1.90760E-002,4.86610E-001,0,1.31399E+002,-8.07572E+000,9.95716E-001,8.93685E+001,-4.07121E+001,9.94551E-001,2.16080E-001,-8.95841E-002,2.72252E-004,2.16080E-001,-8.95844E-002,5.10328E-002,2.17129E-001,1.24109E+000,-3.14264E-002,0.00000E+000,2.55494E-002,9.17823E-001,0.00000E+000,-2.38294E-002,-9.14610E-002,1.00000E+000,34
959,1347,1.02743E+001,6.78211E-001,-4.63210E-002,8.58523E+000,-6.73163E-001,-7.03406E-002,8.61187E+000,1.84217E-002,4.45909E-001,0,1.31264E+002,-1.15049E+001,9.95986E-001,8.94161E+001,-4.41129E+001,9.95709E-001,2.09975E-001,-8.94941E-002,9.79960E-004,2.09979E-001,-8.94973E-002,1.87488E-001,2.10739E-001,1.23331E+000,-3.16256E-002,0.00000E+000,2.62096E-002,9.17840E-001,0.00000E+000,-1.25891E-002,-9.11733E-002,1.00000E+000,34
909,1347,6.21871E+000,5.90352E-001,-4.05098E-002,7.80425E+000,-7.22370E-001,-1.14221E-002,7.83762E+000,2.27510E-002,4.97557E-001,0,1.19633E+002,-1.23034E+001,9.97601E-001,7.65947E+001,-4.60072E+001,9.96148E-001,2.14995E-001,-9.25371E-002,-3.08756E-003,2.15026E-001,-9.25681E-002,-5.75160E-001,2.15718E-001,1.23976E+000,-1.74728E-002,0.00000E+000,7.64776E-003,9.16010E-001,0.00000E+000,-6.49705E-003,-9.84950E-002,1.00000E+000,34
899,1327,5.38176E+000,-6.08003E-001,1.03452E-002,7.66033E+000,-6.17119E-001,1.08046E-001,7.68590E+000,1.39663E-002,4.74969E-001,0,1.17126E+002,-1.08351E+001,9.95629E-001,7.35648E+001,-4.47620E+001,9.95587E-001,2.20925E-001,-9.31183E-002,-3.44588E-003,2.20963E-001,-9.31561E-002,-6.28584E-001,2.21867E-001,1.24717E+000,-1.47086E-002,0.00000E+000,4.83597E-003,9.15538E-001,0.00000E+000,-5.86489E-003,-9.89402E-002,1.00000E+000,34
899,1337,5.39863E+000,-1.30235E-002,-3.29030E-002,7.65892E+000,-6.69245E-001,4.28121E-002,7.68822E+000,2.11031E-002,4.98717E-001,0,1.17323E+002,-1.15413E+001,9.98027E-001,7.38285E+001,-4.54581E+001,9.97639E-001,2.18799E-001,-9.31283E-002,-3.61893E-003,2.18841E-001,-9.31703E-002,-6.64618E-001,2.19644E-001,1.24452E+000,-1.47818E-002,0.00000E+000,4.54429E-003,9.15530E-001,0.00000E+000,-5.32342E-003,-9.89253E-002,1.00000E+000,34
899,1347,5.43185E+000,5.81957E-001,-3.10267E-002,7.66511E+000,-7.26491E-001,-1.85641E-002,7.69949E+000,1.76730E-002,4.88537E-001,0,1.17613E+002,-1.23349E+001,9.97941E-001,7.44400E+001,-4.62695E+001,9.97312E-001,2.16663E-001,-9.31420E-002,-3.80636E-003,2.16709E-001,-9.31888E-002,-7.03813E-001,2.17416E-001,1.24186E+000,-1.48899E-002,0.00000E+000,4.25186E-003,9.15518E-001,0.00000E+000,-4.78055E-003,-9.89032E-002,1.00000E+000,34
899,1317,5.38014E+000,-1.19043E+000,8.55452E-002,7.67136E+000,-5.56248E-001,1.78798E-001,7.69358E+000,1.81087E-002,4.73050E-001,0,1.17047E+002,-1.00183E+001,9.94542E-001,7.36058E+001,-4.39282E+001,9.92632E-001,2.23041E-001,-9.31105E-002,-3.28219E-003,2.23075E-001,-9.31446E-002,-5.94740E-001,2.24084E-001,1.24981E+000,-1.46578E-002,0.00000E+000,5.12693E-003,9.15543E-001,0.00000E+000,-6.40501E-003,-9.89506E-002,1.00000E+000,34
899,1307,5.38000E+000,-1.76244E+000,1.77824E-001,7.67822E+000,-4.89323E-001,2.40042E-001,7.69754E+000,1.78740E-002,4.22257E-001,0,1.16928E+002,-9.05238E+000,9.94701E-001,7.37077E+001,-4.29939E+001,9.91242E-001,2.25146E-001,-9.31051E-002,-3.12798E-003,2.25177E-001,-9.31359E-002,-5.63068E-001,2.26294E-001,1.25245E+000,-1.46296E-002,0.00000E+000,5.41692E-003,9.15546E-001,0.00000E+000,-6.94334E-003,-9.89564E-002,1.00000E+000,34
889,1327,4.57503E+000,-6.14350E-001,2.40449E-002,7.50162E+000,-6.19769E-001,1.10179E-001,7.52798E+000,1.22722E-002,4.94739E-001,0,1.14775E+002,-1.08637E+001,9.96866E-001,7.11151E+001,-4.49863E+001,9.96913E-001,2.22089E-001,-9.24359E-002,-4.31354E-003,2.22148E-001,-9.24950E-002,-7.85583E-001,2.23182E-001,1.24864E+000,-1.27672E-002,0.00000E+000,1.51202E-003,9.16247E-001,0.00000E+000,-2.56264E-003,-9.96879E-002,1.00000E+000,34
889,1337,4.58585E+000,-1.90689E-002,-2.18153E-002,7.49544E+000,-6.69967E-001,4.75713E-002,7.52547E+000,1.91044E-002,5.05619E-001,0,1.14889E+002,-1.15483E+001,9.97832E-001,7.12805E+001,-4.56815E+001,9.97643E-001,2.20037E-001,-9.24343E-002,-4.32032E-003,2.20097E-001,-9.24940E-002,-7.91985E-001,2.21028E-001,1.24608E+000,-1.28329E-002,0.00000E+000,1.62955E-003,9.16250E-001,0.00000E+000,-3.24227E-003,-9.97053E-002,1.00000E+000,34
889,1347,4.61915E+000,5.72579E-001,-2.80846E-002,7.50249E+000,-7.29812E-001,-1.92978E-002,7.53793E+000,1.54312E-002,4.84430E-001,0,1.15212E+002,-1.23659E+001,9.97506E-001,7.18773E+001,-4.65340E+001,9.97223E-001,2.17973E-001,-9.24320E-002,-4.34119E-003,2.18034E-001,-9.24927E-002,-8.01105E-001,2.18867E-001,1.24351E+000,-1.29341E-002,0.00000E+000,1.74754E-003,9.16255E-001,0.00000E+000,-3.92452E-003,-9.97322E-002,1.00000E+000,34
969,1297,1.11126E+001,-2.21119E+000,2.39929E-001,8.83499E+000,-3.47884E-001,1.86205E-001,8.84380E+000,2.38959E-002,4.87060E-001,0,1.34013E+002,-6.87573E+000,9.97958E-001,9.25707E+001,-3.93177E+001,9.96177E-001,2.15523E-001,-8.90367E-002,-8.92913E-006,2.15523E-001,-8.90367E-002,-1.67981E-003,2.16605E-001,1.24041E+000,-3.39864E-002,0.00000E+000,2.71303E-002,9.18068E-001,0.00000E+000,-2.68717E-002,-8.87749E-002,1.00000E+000,34
969,1307,1.10728E+001,-1.65367E+000,9.38122E-002,8.79322E+000,-4.27793E-001,9.58333E-002,8.80414E+000,4.58413E-002,4.61271E-001,0,1.33733E+002,-7.93512E+000,9.96829E-001,9.17505E+001,-4.03927E+001,9.94579E-001,2.14360E-001,-8.90220E-002,2.11270E-004,2.14361E-001,-8.90221E-002,3.98997E-002,2.15384E-001,1.23889E+000,-3.39911E-002,0.00000E+000,2.73378E-002,9.18069E-001,0.00000E+000,-2.39968E-002,-8.87659E-002,1.00000E+000,34
969,1317,1.10700E+001,-1.07208E+000,3.99668E-002,8.78077E+000,-4.87069E-001,6.33703E-002,8.79450E+000,1.51571E-002,4.07250E-001,0,1.33668E+002,-8.81017E+000,9.98589E-001,9.16832E+001,-4.13001E+001,9.97869E-001,2.13188E-001,-8.90014E-002,4.24471E-004,2.13189E-001,-8.90020E-002,8.04805E-002,2.14154E-001,1.23736E+000,-3.40140E-002,0.00000E+000,2.75455E-002,9.18072E-001,0.00000E+000,-2.11199E-002,-8.87228E-002,1.00000E+000,34
889,1317,4.56614E+000,-1.19525E+000,9.32452E-002,7.50482E+000,-5.57995E-001,1.72781E-001,7.52752E+000,1.66669E-002,5.15610E-001,0,1.14605E+002,-1.00243E+001,9.96835E-001,7.10315E+001,-4.41036E+001,9.96190E-001,2.24134E-001,-9.24371E-002,-4.31427E-003,2.24192E-001,-9.24959E-002,-7.80641E-001,2.25332E-001,1.25119E+000,-1.27203E-002,0.00000E+000,1.39465E-003,9.16245E-001,0.00000E+000,-1.88399E-003,-9.96754E-002,1.00000E+000,34
969,1327,1.10626E+001,-4.81075E-001,-2.30192E-002,8.76035E+000,-5.39526E-001,6.48111E-003,8.77695E+000,2.07101E-002,4.21826E-001,0,1.33564E+002,-9.55423E+000,9.97987E-001,9.15285E+001,-4.20089E+001,9.96428E-001,2.12004E-001,-8.89782E-002,6.34646E-004,2.12005E-001,-8.89795E-002,1.20812E-001,2.12914E-001,1.23584E+000,-3.40449E-002,0.00000E+000,2.77536E-002,9.18076E-001,0.00000E+000,-1.82374E-002,-8.86644E-002,1.00000E+000,34
889,1307,4.56055E+000,-1.76862E+000,1.90263E-001,7.50553E+000,-4.93232E-001,2.35765E-001,7.52541E+000,1.99838E-002,4.65180E-001,0,1.14387E+002,-9.09309E+000,9.95679E-001,7.10597E+001,-4.31989E+001,9.93276E-001,2.26166E-001,-9.24379E-002,-4.32374E-003,2.26225E-001,-9.24966E-002,-7.77365E-001,2.27474E-001,1.25374E+000,-1.26958E-002,0.00000E+000,1.27771E-003,9.16244E-001,0.00000E+000,-1.20779E-003,-9.96689E-002,1.00000E+000,34
969,1337,1.10660E+001,1.02661E-001,-5.43526E-002,8.74518E+000,-6.02351E-001,-4.36446E-002,8.76601E+000,2.07710E-002,3.92872E-001,0,1.33511E+002,-1.04604E+001,9.97154E-001,9.16010E+001,-4.29203E+001,9.96721E-001,2.10808E-001,-8.89507E-002,8.39632E-004,2.10810E-001,-8.89530E-002,1.60485E-001,2.11664E-001,1.23431E+000,-3.40890E-002,0.00000E+000,2.79619E-002,9.18082E-001,0.00000E+000,-1.53507E-002,-8.85813E-002,1.00000E+000,34
969,1347,1.10734E+001,7.12894E-001,-6.11036E-002,8.72920E+000,-6.44814E-001,-9.03208E-002,8.75344E+000,1.75125E-002,4.20193E-001,0,1.33419E+002,-1.10428E+001,9.96882E-001,9.17852E+001,-4.34491E+001,9.96220E-001,2.09594E-001,-8.89194E-002,1.04114E-003,2.09598E-001,-8.89230E-002,1.99830E-001,2.10398E-001,1.23277E+000,-3.41444E-002,0.00000E+000,2.81717E-002,9.18090E-001,0.00000E+000,-1.24448E-002,-8.84767E-002,1.00000E+000,34
879,1327,3.77399E+000,-6.14798E-001,4.33455E-002,7.34807E+000,-6.16331E-001,1.17230E-001,7.37481E+000,1.76328E-002,5.10414E-001,0,1.12479E+002,-1.08122E+001,9.96900E-001,6.87726E+001,-4.51332E+001,9.96918E-001,2.22967E-001,-9.26964E-002,-4.83975E-003,2.23041E-001,-9.27706E-002,-8.78185E-001,2.24089E-001,1.24975E+000,-1.09955E-002,0.00000E+000,-9.56934E-004,9.15940E-001,0.00000E+000,-3.63773E-004,-9.88640E-002,1.00000E+000,34
879,1337,3.78346E+000,-2.59440E-002,-1.18126E-002,7.34121E+000,-6.72067E-001,4.77708E-002,7.37206E+000,1.74496E-002,4.87479E-001,0,1.12608E+002,-1.15550E+001,9.95677E-001,6.88968E+001,-4.59267E+001,9.95668E-001,2.21154E-001,-9.26907E-002,-4.76932E-003,2.21227E-001,-9.27631E-002,-8.70423E-001,2.22185E-001,1.24749E+000,-1.10515E-002,0.00000E+000,-6.53031E-004,9.15947E-001,0.00000E+000,-1.66331E-003,-9.88961E-002,1.00000E+000,34
879,1347,3.81155E+000,5.71919E-001,-2.07984E-002,7.34455E+000,-7.25956E-001,-1.54943E-002,7.38036E+000,2.00698E-002,5.02477E-001,0,1.12860E+002,-1.22838E+001,9.95891E-001,6.94094E+001,-4.66619E+001,9.95666E-001,2.19326E-001,-9.26825E-002,-4.70971E-003,2.19397E-001,-9.27535E-002,-8.64607E-001,2.20268E-001,1.24521E+000,-1.11360E-002,0.00000E+000,-3.47246E-004,9.15959E-001,0.00000E+000,-2.97089E-003,-9.89446E-002,1.00000E+000,34
879,1307,3.74370E+000,-1.76695E+000,2.12879E-001,7.33447E+000,-4.89442E-001,2.38908E-001,7.35466E+000,2.29459E-002,4.78330E-001,0,1.11839E+002,-9.01975E+000,9.94644E-001,6.84812E+001,-4.33190E+001,9.92292E-001,2.26565E-001,-9.27031E-002,-5.00156E-003,2.26644E-001,-9.27815E-002,-8.97285E-001,2.27881E-001,1.25427E+000,-1.09381E-002,0.00000E+000,-1.56283E-003,9.15932E-001,0.00000E+000,2.22712E-003,-9.88310E-002,1.00000E+000,34
879,1317,3.75810E+000,-1.19328E+000,1.17907E-001,7.34399E+000,-5.51782E-001,1.84254E-001,7.36699E+000,1.68898E-002,4.35652E-001,0,1.12183E+002,-9.90162E+000,9.97243E-001,6.85934E+001,-4.42711E+001,9.96226E-001,2.24775E-001,-9.27008E-002,-4.91635E-003,2.24851E-001,-9.27769E-002,-8.86985E-001,2.25992E-001,1.25202E+000,-1.09550E-002,0.00000E+000,-1.26092E-003,9.15935E-001,0.00000E+000,9.36116E-004,-9.88407E-002,1.00000E+000,34
979,1307,1.19220E+001,-1.63147E+000,1.31169E-001,8.98201E+000,-4.15299E-001,1.04628E-001,8.99222E+000,2.51861E-002,4.10131E-001,0,1.36453E+002,-7.75662E+000,9.98536E-001,9.50016E+001,-4.00477E+001,9.98435E-001,2.12850E-001,-8.84261E-002,1.74751E-004,2.12851E-001,-8.84262E-002,3.32336E-002,2.13863E-001,1.23694E+000,-3.58986E-002,0.00000E+000,2.85903E-002,9.18337E-001,0.00000E+000,-2.29627E-002,-8.57616E-002,1.00000E+000,34
979,1317,1.18925E+001,-1.04511E+000,3.98185E-002,8.94438E+000,-4.69405E-001,4.18537E-002,8.95679E+000,1.50301E-002,4.18556E-001,0,1.36119E+002,-8.50945E+000,9.97786E-001,9.44491E+001,-4.07717E+001,9.97091E-001,2.12127E-001,-8.84029E-002,4.33223E-004,2.12127E-001,-8.84035E-002,8.25934E-002,2.13105E-001,1.23598E+000,-3.59108E-002,0.00000E+000,2.88841E-002,9.18341E-001,0.00000E+000,-2.02379E-002,-8.57271E-002,1.00000E+000,34
979,1327,1.18754E+001,-4.57887E-001,-2.55896E-002,8.91506E+000,-5.24863E-001,-1.34668E-002,8.93051E+000,1.62722E-002,4.11203E-001,0,1.35878E+002,-9.29851E+000,9.96006E-001,9.41389E+001,-4.15442E+001,9.94467E-001,2.11395E-001,-8.83760E-002,6.89298E-004,2.11396E-001,-8.83775E-002,1.31746E-001,2.12340E-001,1.23502E+000,-3.59291E-002,0.00000E+000,2.91782E-002,9.18347E-001,0.00000E+000,-1.75106E-002,-8.56752E-002,1.00000E+000,34
979,1337,1.18727E+001,1.36310E-001,-6.11588E-002,8.89603E+000,-5.76393E-001,-5.74790E-002,8.91487E+000,2.20290E-002,4.06779E-001,0,1.35744E+002,-1.00494E+001,9.93853E-001,9.41099E+001,-4.22713E+001,9.93018E-001,2.10653E-001,-8.83453E-002,9.43210E-004,2.10656E-001,-8.83483E-002,1.80741E-001,2.11566E-001,1.23405E+000,-3.59536E-002,0.00000E+000,2.94729E-002,9.18354E-001,0.00000E+000,-1.47771E-002,-8.56056E-002,1.00000E+000,34
979,1347,1.18789E+001,7.43006E-001,-5.89089E-002,8.87726E+000,-6.22136E-001,-1.01256E-001,8.89961E+000,2.26577E-002,4.17668E-001,0,1.35599E+002,-1.07022E+001,9.91573E-001,9.42894E+001,-4.28813E+001,9.90678E-001,2.09899E-001,-8.83071E-002,1.19316E-003,2.09904E-001,-8.83119E-002,2.29243E-001,2.10781E-001,1.23309E+000,-3.59908E-002,0.00000E+000,2.97693E-002,9.18366E-001,0.00000E+000,-1.20289E-002,-8.55000E-002,1.00000E+000,34
979,1297,1.19239E+001,-2.19334E+000,2.20475E-001,8.99041E+000,-3.37247E-001,1.58179E-001,8.99812E+000,2.05809E-002,4.85017E-001,0,1.36366E+002,-6.65845E+000,9.97990E-001,9.51238E+001,-3.89011E+001,9.97432E-001,2.13566E-001,-8.84477E-002,-8.48988E-005,2.13566E-001,-8.84478E-002,-1.61064E-002,2.14613E-001,1.23790E+000,-3.58889E-002,0.00000E+000,2.82964E-002,9.18334E-001,0.00000E+000,-2.56878E-002,-8.57892E-002,1.00000E+000,34
869,1317,2.93661E+000,-1.18920E+000,1.13637E-001,7.17089E+000,-5.43685E-001,1.74510E-001,7.19359E+000,1.29334E-002,4.59689E-001,0,1.09644E+002,-9.73398E+000,9.97804E-001,6.58908E+001,-4.42941E+001,9.96168E-001,2.25003E-001,-9.31461E-002,-4.97952E-003,2.25081E-001,-9.32240E-002,-8.96472E-001,2.26184E-001,1.25233E+000,-8.92094E-003,0.00000E+000,-3.03449E-003,9.15456E-001,0.00000E+000,2.99468E-003,-9.80739E-002,1.00000E+000,34
869,1327,2.95502E+000,-6.10537E-001,4.46588E-002,7.17796E+000,-6.06613E-001,1.14709E-001,7.20446E+000,1.83014E-002,5.26159E-001,0,1.09960E+002,-1.06460E+001,9.96337E-001,6.61207E+001,-4.51711E+001,9.95441E-001,2.23578E-001,-9.31423E-002,-4.89918E-003,2.23654E-001,-9.32180E-002,-8.85997E-001,2.24683E-001,1.25054E+000,-8.95177E-003,0.00000E+000,-2.69877E-003,9.15461E-001,0.00000E+000,1.26309E-003,-9.81037E-002,1.00000E+000,34
869,1337,2.97222E+000,-2.83227E-002,-2.63138E-003,7.17836E+000,-6.69749E-001,5.02729E-002,7.20971E+000,1.94020E-002,5.01097E-001,0,1.10183E+002,-1.15052E+001,9.94636E-001,6.63807E+001,-4.60862E+001,9.94438E-001,2.22144E-001,-9.31368E-002,-4.82447E-003,2.22218E-001,-9.32106E-002,-8.76474E-001,2.23177E-001,1.24874E+000,-8.99733E-003,0.00000E+000,-2.36217E-003,9.15470E-001,0.00000E+000,-4.73033E-004,-9.81477E-002,1.00000E+000,34
869,1347,2.99592E+000,5.73539E-001,-1.81386E-002,7.18005E+000,-7.16305E-001,-7.50631E-003,7.21570E+000,2.36549E-002,4.86558E-001,0,1.10390E+002,-1.21382E+001,9.96114E-001,6.68136E+001,-4.67627E+001,9.95760E-001,2.20702E-001,-9.31299E-002,-4.75523E-003,2.20774E-001,-9.32019E-002,-8.67888E-001,2.21664E-001,1.24694E+000,-9.05692E-003,0.00000E+000,-2.02501E-003,9.15481E-001,0.00000E+000,-2.21208E-003,-9.82053E-002,1.00000E+000,34
869,1307,2.93003E+000,-1.76158E+000,2.23409E-001,7.16865E+000,-4.80019E-001,2.41555E-001,7.18876E+000,1.89677E-002,4.96449E-001,0,1.09369E+002,-8.86596E+000,9.95602E-001,6.59328E+001,-4.33535E+001,9.93763E-001,2.26417E-001,-9.31479E-002,-5.06681E-003,2.26498E-001,-9.32283E-002,-9.08139E-001,2.27674E-001,1.25411E+000,-8.90895E-003,0.00000E+000,-3.36870E-003,9.15453E-001,0.00000E+000,4.71847E-003,-9.80623E-002,1.00000E+000,34
989,1307,1.27165E+001,-1.59216E+000,1.07328E-001,9.11974E+000,-3.82959E-001,7.01792E-002,9.12804E+000,1.92454E-002,4.67090E-001,0,1.38551E+002,-7.23014E+000,9.97073E-001,9.72961E+001,-3.92602E+001,9.96625E-001,2.11610E-001,-8.81905E-002,1.11854E-004,2.11610E-001,-8.81905E-002,2.13768E-002,2.12586E-001,1.23534E+000,-3.67341E-002,0.00000E+000,2.89474E-002,9.18332E-001,0.00000E+000,-2.12226E-002,-8.30868E-002,1.00000E+000,34
989,1317,1.26862E+001,-1.00285E+000,3.07133E-002,9.08240E+000,-4.35268E-001,2.76603E-002,9.09287E+000,2.06125E-002,5.23007E-001,0,1.38150E+002,-7.99660E+000,9.97390E-001,9.67585E+001,-3.99444E+001,9.96535E-001,2.11259E-001,-8.81636E-002,4.30401E-004,2.11259E-001,-8.81642E-002,8.23588E-002,2.12220E-001,1.23484E+000,-3.67395E-002,0.00000E+000,2.93434E-002,9.18336E-001,0.00000E+000,-1.84749E-002,-8.30570E-002,1.00000E+000,34
989,1327,1.26865E+001,-4.20745E-001,-2.29571E-002,9.06840E+000,-4.98143E-001,-2.45096E-002,9.08210E+000,2.38718E-002,5.02667E-001,0,1.38131E+002,-8.89007E+000,9.96152E-001,9.67392E+001,-4.08242E+001,9.94314E-001,2.10899E-001,-8.81290E-002,7.46820E-004,2.10901E-001,-8.81309E-002,1.43094E-001,2.11847E-001,1.23435E+000,-3.67504E-002,0.00000E+000,2.97398E-002,9.18345E-001,0.00000E+000,-1.57247E-002,-8.29961E-002,1.00000E+000,34
989,1297,1.27411E+001,-2.16913E+000,2.15748E-001,9.15001E+000,-3.19757E-001,1.38935E-001,9.15665E+000,1.79096E-002,4.54303E-001,0,1.38743E+002,-6.36125E+000,9.96788E-001,9.78039E+001,-3.84312E+001,9.95814E-001,2.11953E-001,-8.82159E-002,-2.06819E-004,2.11954E-001,-8.82160E-002,-3.94773E-002,2.12943E-001,1.23583E+000,-3.67297E-002,0.00000E+000,2.85520E-002,9.18328E-001,0.00000E+000,-2.39662E-002,-8.31111E-002,1.00000E+000,34
989,1337,1.26827E+001,1.67735E-001,-4.92763E-002,9.04534E+000,-5.55283E-001,-7.16015E-002,9.06265E+000,1.96040E-002,4.16515E-001,0,1.37947E+002,-9.71298E+000,9.93171E-001,9.67084E+001,-4.16994E+001,9.93165E-001,2.10533E-001,-8.80893E-002,1.06076E-003,2.10537E-001,-8.80931E-002,2.03523E-001,2.11469E-001,1.23386E+000,-3.67651E-002,0.00000E+000,3.01353E-002,9.18357E-001,0.00000E+000,-1.29800E-002,-8.29140E-002,1.00000E+000,34
989,1347,1.26882E+001,7.72765E-001,-5.26647E-002,9.02811E+000,-6.00529E-001,-1.11027E-001,9.04875E+000,2.12359E-002,4.33186E-001,0,1.37813E+002,-1.03862E+001,9.96394E-001,9.68666E+001,-4.23185E+001,9.96543E-001,2.10157E-001,-8.80457E-002,1.37487E-003,2.10163E-001,-8.80520E-002,2.64157E-001,2.11081E-001,1.23336E+000,-3.67825E-002,0.00000E+000,3.05329E-002,9.18371E-001,0.00000E+000,-1.02211E-002,-8.28170E-002,1.00000E+000,34
859,1327,2.14022E+000,-6.05718E-001,3.66083E-002,7.01140E+000,-5.97109E-001,1.01924E-001,7.03752E+000,1.68067E-002,5.19772E-001,0,1.07525E+002,-1.04403E+001,9.95179E-001,6.35185E+001,-4.51909E+001,9.94576E-001,2.23822E-001,-9.32729E-002,-4.71735E-003,2.23892E-001,-9.33431E-002,-8.52125E-001,2.24920E-001,1.25085E+000,-7.24355E-003,0.00000E+000,-3.66874E-003,9.15245E-001,0.00000E+000,2.04494E-003,-9.70727E-002,1.00000E+000,34
859,1337,2.16353E+000,-1.92763E-002,-6.75065E-003,7.01821E+000,-6.54960E-001,4.20757E-002,7.04883E+000,1.90886E-002,5.10927E-001,0,1.07827E+002,-1.12474E+001,9.94765E-001,6.38825E+001,-4.60422E+001,9.94503E-001,2.22790E-001,-9.32711E-002,-4.69724E-003,2.22860E-001,-9.33409E-002,-8.51268E-001,2.23837E-001,1.24956E+000,-7.27586E-003,0.00000E+000,-3.42751E-003,9.15252E-001,0.00000E+000,6.58130E-005,-9.71221E-002,1.00000E+000,34
859,1347,2.18636E+000,5.70961E-001,-1.99152E-002,7.01857E+000,-7.13415E-001,-1.64556E-002,7.05476E+000,2.45365E-002,4.82814E-001,0,1.08019E+002,-1.20549E+001,9.96966E-001,6.43065E+001,-4.69119E+001,9.96788E-001,2.21750E-001,-9.32687E-002,-4.68171E-003,2.21820E-001,-9.33383E-002,-8.51261E-001,2.22746E-001,1.24826E+000,-7.31977E-003,0.00000E+000,-3.18548E-003,9.15260E-001,0.00000E+000,-1.91989E-003,-9.71893E-002,1.00000E+000,34
859,1307,2.11376E+000,-1.75666E+000,2.20260E-001,7.00020E+000,-4.72666E-001,2.32600E-001,7.01999E+000,2.19943E-002,5.77138E-001,0,1.06896E+002,-8.72109E+000,9.96697E-001,6.33195E+001,-4.33355E+001,9.96059E-001,2.25861E-001,-9.32747E-002,-4.77093E-003,2.25932E-001,-9.33460E-002,-8.56291E-001,2.27065E-001,1.25343E+000,-7.21344E-003,0.00000E+000,-4.14878E-003,9.15240E-001,0.00000E+000,5.98327E-003,-9.70267E-002,1.00000E+000,34
859,1317,2.12947E+000,-1.19167E+000,1.13480E-001,7.01157E+000,-5.43138E-001,1.68245E-001,7.03458E+000,1.73322E-002,5.25723E-001,0,1.07302E+002,-9.70005E+000,9.96096E-001,6.34226E+001,-4.44047E+001,9.94105E-001,2.24845E-001,-9.32742E-002,-4.74168E-003,2.24916E-001,-9.33448E-002,-8.53761E-001,2.25996E-001,1.25214E+000,-7.22210E-003,0.00000E+000,-3.90913E-003,9.15241E-001,0.00000E+000,4.01714E-003,-9.70399E-002,1.00000E+000,34
999,1337,1.34855E+001,1.93778E-001,-5.76217E-002,9.19317E+000,-5.33675E-001,-7.92003E-002,9.20899E+000,1.57042E-002,3.86461E-001,0,1.40109E+002,-9.39477E+000,9.98484E-001,9.91633E+001,-4.11873E+001,9.97711E-001,2.10259E-001,-8.79523E-002,9.02630E-004,2.10261E-001,-8.79550E-002,1.73422E-001,2.11195E-001,1.23348E+000,-3.70701E-002,0.00000E+000,2.98759E-002,9.18266E-001,0.00000E+000,-1.05982E-002,-7.99862E-002,1.00000E+000,34
999,1347,1.34989E+001,8.01122E-001,-4.65818E-002,9.18138E+000,-5.79754E-001,-1.13979E-001,9.20037E+000,1.45699E-002,4.03459E-001,0,1.40038E+002,-1.00698E+001,9.98565E-001,9.94687E+001,-4.17997E+001,9.98117E-001,2.10229E-001,-8.79095E-002,1.20537E-003,2.10234E-001,-8.79144E-002,2.31641E-001,2.11170E-001,1.23342E+000,-3.70723E-002,0.00000E+000,3.02489E-002,9.18281E-001,0.00000E+000,-7.96679E-003,-7.98846E-002,1.00000E+000,34
999,1307,1.35231E+001,-1.56133E+000,1.01787E-001,9.26910E+000,-3.59164E-001,5.42541E-002,9.27621E+000,1.27840E-002,4.50869E-001,0,1.40759E+002,-6.83954E+000,9.97830E-001,9.98167E+001,-3.86781E+001,9.97761E-001,2.10306E-001,-8.80442E-002,-1.20853E-006,2.10306E-001,-8.80442E-002,-2.32088E-004,2.11232E-001,1.23366E+000,-3.70666E-002,0.00000E+000,2.87666E-002,9.18245E-001,0.00000E+000,-1.84244E-002,-8.01408E-002,1.00000E+000,34
999,1317,1.35017E+001,-9.76236E-001,2.06989E-002,9.24031E+000,-4.15312E-001,5.77386E-003,9.24964E+000,1.95040E-002,4.91068E-001,0,1.40511E+002,-7.65866E+000,9.96473E-001,9.94094E+001,-3.94229E+001,9.93445E-001,2.10297E-001,-8.80188E-002,3.00557E-004,2.10298E-001,-8.80191E-002,5.77262E-002,2.11226E-001,1.23360E+000,-3.70673E-002,0.00000E+000,2.91364E-002,9.18249E-001,0.00000E+000,-1.58154E-002,-8.01110E-002,1.00000E+000,34
999,1327,1.34967E+001,-4.00901E-001,-3.13567E-002,9.22242E+000,-4.83654E-001,-3.79604E-002,9.23517E+000,2.26465E-002,4.76500E-001,0,1.40408E+002,-8.66623E+000,9.97059E-001,9.93088E+001,-4.04069E+001,9.94965E-001,2.10281E-001,-8.79881E-002,6.02071E-004,2.10283E-001,-8.79893E-002,1.15654E-001,2.11213E-001,1.23354E+000,-3.70684E-002,0.00000E+000,2.95065E-002,9.18256E-001,0.00000E+000,-1.32048E-002,-8.00592E-002,1.00000E+000,34
999,1297,1.35503E+001,-2.14763E+000,2.13909E-001,9.30162E+000,-3.05499E-001,1.24809E-001,9.30747E+000,1.39484E-002,4.48926E-001,0,1.40978E+002,-6.12418E+000,9.96200E-001,1.00370E+002,-3.79975E+001,9.93930E-001,2.10308E-001,-8.80675E-002,-3.03016E-004,2.10309E-001,-8.80679E-002,-5.81867E-002,2.11232E-001,1.23371E+000,-3.70661E-002,0.00000E+000,2.83971E-002,9.18241E-001,0.00000E+000,-2.10313E-002,-8.01623E-002,1.00000E+000,34
849,1337,1.35289E+000,-1.78017E-002,-5.08025E-003,6.85484E+000,-6.50192E-001,3.57942E-002,6.88570E+000,2.29402E-002,5.48650E-001,0,1.05415E+002,-1.11338E+001,9.96595E-001,6.13707E+001,-4.61143E+001,9.95867E-001,2.23056E-001,-9.30222E-002,-4.24614E-003,2.23113E-001,-9.30792E-002,-7.69516E-001,2.24131E-001,1.24990E+000,-5.80911E-003,0.00000E+000,-3.64897E-003,9.15369E-001,0.00000E+000,-3.40312E-005,-9.59280E-002,1.00000E+000,34
849,1347,1.37058E+000,5.67933E-001,-1.75889E-002,6.85289E+000,-7.09938E-001,-9.40747E-003,6.88957E+000,2.01150E-002,4.72486E-001,0,1.05529E+002,-1.19837E+001,9.97161E-001,6.17178E+001,-4.70816E+001,9.96901E-001,2.22499E-001,-9.30202E-002,-4.22338E-003,2.22555E-001,-9.30768E-002,-7.66750E-001,2.23545E-001,1.24920E+000,-5.82974E-003,0.00000E+000,-3.43101E-003,9.15376E-001,0.00000E+000,-1.84952E-003,-9.59819E-002,1.00000E+000,34
849,1357,1.40396E+000,1.16984E+000,1.76308E-002,6.85617E+000,-7.63100E-001,-5.75520E-002,6.89875E+000,1.72583E-002,4.79971E-001,0,1.05719E+002,-1.27374E+001,9.97353E-001,6.24157E+001,-4.78634E+001,9.97495E-001,2.21933E-001,-9.30173E-002,-4.20479E-003,2.21989E-001,-9.30734E-002,-7.64753E-001,2.22952E-001,1.24850E+000,-5.86128E-003,0.00000E+000,-3.21114E-003,9.15386E-001,0.00000E+000,-3.68096E-003,-9.60643E-002,1.00000E+000,34
849,1327,1.33880E+000,-5.97308E-001,4.05616E-002,6.85599E+000,-5.85819E-001,9.23386E-002,6.88159E+000,2.26360E-002,5.30198E-001,0,1.05243E+002,-1.02155E+001,9.97004E-001,6.11551E+001,-4.51714E+001,9.96685E-001,2.23609E-001,-9.30237E-002,-4.27079E-003,2.23667E-001,-9.30813E-002,-7.72626E-001,2.24712E-001,1.25059E+000,-5.79310E-003,0.00000E+000,-3.86696E-003,9.15364E-001,0.00000E+000,1.78172E-003,-9.58862E-002,1.00000E+000,34
1009,1337,1.43005E+001,2.35544E-001,-7.35053E-002,9.35438E+000,-4.98698E-001,-8.66825E-002,9.36807E+000,2.24936E-002,4.20099E-001,0,1.42466E+002,-8.85168E+000,9.98226E-001,1.01800E+002,-4.03820E+001,9.98426E-001,2.09984E-001,-8.77655E-002,5.59533E-004,2.09985E-001,-8.77665E-002,1.07670E-001,2.10925E-001,1.23313E+000,-3.69851E-002,0.00000E+000,2.90186E-002,9.18271E-001,0.00000E+000,-8.47774E-003,-7.73632E-002,1.00000E+000,34
1009,1347,1.43040E+001,8.15321E-001,-5.23411E-002,9.33039E+000,-5.71957E-001,-1.20447E-001,9.34868E+000,1.53346E-002,3.98830E-001,0,1.42215E+002,-9.95734E+000,9.99184E-001,1.01964E+002,-4.14621E+001,9.98910E-001,2.10222E-001,-8.77330E-002,7.88802E-004,2.10224E-001,-8.77351E-002,1.51683E-001,2.11179E-001,1.23341E+000,-3.69733E-002,0.00000E+000,2.92699E-002,9.18281E-001,0.00000E+000,-6.21666E-003,-7.72681E-002,1.00000E+000,34
1009,1297,1.43537E+001,-2.12733E+000,2.06907E-001,9.44847E+000,-2.90448E-001,1.12370E-001,9.45360E+000,1.82723E-002,3.74603E-001,0,1.43134E+002,-5.86009E+000,9.94205E-001,1.02840E+002,-3.76069E+001,9.92697E-001,2.08988E-001,-8.78472E-002,-3.42988E-004,2.08988E-001,-8.78476E-002,-6.62041E-002,2.09870E-001,1.23201E+000,-3.70026E-002,0.00000E+000,2.80194E-002,9.18255E-001,0.00000E+000,-1.74671E-002,-7.75052E-002,1.00000E+000,34
1009,1307,1.43326E+001,-1.53588E+000,1.00810E-001,9.42208E+000,-3.38432E-001,4.78876E-002,9.42827E+000,1.80727E-002,3.96723E-001,0,1.42984E+002,-6.52377E+000,9.96518E-001,1.02395E+002,-3.82078E+001,9.96903E-001,2.09244E-001,-8.78303E-002,-1.18438E-004,2.09244E-001,-8.78303E-002,-2.28427E-002,2.10141E-001,1.23229E+000,-3.70003E-002,0.00000E+000,2.82686E-002,9.18257E-001,0.00000E+000,-1.52252E-002,-7.74865E-002,1.00000E+000,34
1009,1317,1.43171E+001,-9.52188E-001,1.71759E-002,9.39882E+000,-3.96079E-001,-4.36445E-003,9.40716E+000,1.81574E-002,4.25070E-001,0,1.42836E+002,-7.35807E+000,9.97215E-001,1.02075E+002,-3.89722E+001,9.97047E-001,2.09496E-001,-8.78116E-002,1.06702E-004,2.09496E-001,-8.78116E-002,2.05632E-002,2.10407E-001,1.23257E+000,-3.69970E-002,0.00000E+000,2.85182E-002,9.18260E-001,0.00000E+000,-1.29797E-002,-7.74598E-002,1.00000E+000,34
849,1317,1.31540E+000,-1.17746E+000,1.15515E-001,6.84476E+000,-5.24997E-001,1.63328E-001,6.86681E+000,2.20378E-002,5.92113E-001,0,1.04830E+002,-9.41137E+000,9.96557E-001,6.08606E+001,-4.42631E+001,9.95036E-001,2.24158E-001,-9.30249E-002,-4.29667E-003,2.24216E-001,-9.30831E-002,-7.75959E-001,2.25289E-001,1.25128E+000,-5.78027E-003,0.00000E+000,-4.08435E-003,9.15360E-001,0.00000E+000,3.59253E-003,-9.58527E-002,1.00000E+000,34
1009,1327,1.43089E+001,-3.64179E-001,-3.52364E-002,9.37606E+000,-4.53697E-001,-5.56371E-002,9.38720E+000,1.77182E-002,4.27092E-001,0,1.42682E+002,-8.18139E+000,9.98152E-001,1.01927E+002,-3.97496E+001,9.98175E-001,2.09743E-001,-8.77881E-002,3.33442E-004,2.09743E-001,-8.77884E-002,6.42111E-002,2.10669E-001,1.23285E+000,-3.69907E-002,0.00000E+000,2.87685E-002,9.18266E-001,0.00000E+000,-1.07280E-002,-7.74090E-002,1.00000E+000,34
849,1307,1.29337E+000,-1.75397E+000,2.15512E-001,6.82709E+000,-4.65294E-001,2.21049E-001,6.84649E+000,2.37717E-002,6.02668E-001,0,1.04355E+002,-8.57919E+000,9.96677E-001,6.06445E+001,-4.33769E+001,9.95971E-001,2.24701E-001,-9.30254E-002,-4.32566E-003,2.24760E-001,-9.30843E-002,-7.79856E-001,2.25861E-001,1.25198E+000,-5.77561E-003,0.00000E+000,-4.30115E-003,9.15359E-001,0.00000E+000,5.39831E-003,-9.58405E-002,1.00000E+000,34
839,1337,5.37246E-001,-2.81540E-002,2.05770E-002,6.68582E+000,-6.55511E-001,5.19838E-002,6.71808E+000,4.18501E-002,5.22471E-001,0,1.02840E+002,-1.12243E+001,9.97351E-001,5.88400E+001,-4.64541E+001,9.96122E-001,2.22998E-001,-9.31588E-002,-3.54049E-003,2.23038E-001,-9.31984E-002,-6.41521E-001,2.24039E-001,1.24982E+000,-4.48754E-003,0.00000E+000,-3.23521E-003,9.15111E-001,0.00000E+000,-7.85152E-004,-9.44407E-002,1.00000E+000,34
839,1347,5.57278E-001,5.61849E-001,-1.44216E-002,6.68830E+000,-7.09740E-001,-6.20447E-003,6.72585E+000,1.72118E-002,4.70606E-001,0,1.03065E+002,-1.19667E+001,9.97435E-001,5.91743E+001,-4.72959E+001,9.96883E-001,2.22703E-001,-9.31562E-002,-3.49770E-003,2.22742E-001,-9.31949E-002,-6.34368E-001,2.23728E-001,1.24946E+000,-4.49731E-003,0.00000E+000,-2.98760E-003,9.15118E-001,0.00000E+000,-2.65284E-003,-9.44906E-002,1.00000E+000,34
839,1357,5.92906E-001,1.16991E+000,1.50829E-002,6.69496E+000,-7.55771E-001,-5.57466E-002,6.73771E+000,1.44622E-002,4.77555E-001,0,1.03310E+002,-1.26081E+001,9.97915E-001,5.98977E+001,-4.79720E+001,9.97746E-001,2.22401E-001,-9.31519E-002,-3.45714E-003,2.22439E-001,-9.31898E-002,-6.27620E-001,2.23411E-001,1.24909E+000,-4.51340E-003,0.00000E+000,-2.73785E-003,9.15128E-001,0.00000E+000,-4.53672E-003,-9.45727E-002,1.00000E+000,34
1019,1337,1.51229E+001,2.64512E-001,-6.34303E-002,9.51649E+000,-4.79998E-001,-9.48048E-002,9.52906E+000,2.02732E-002,4.94170E-001,0,1.44832E+002,-8.58481E+000,9.97739E-001,1.04603E+002,-3.98109E+001,9.97863E-001,2.09742E-001,-8.76628E-002,2.26550E-004,2.09742E-001,-8.76630E-002,4.36455E-002,2.10681E-001,1.23282E+000,-3.68685E-002,0.00000E+000,2.81781E-002,9.18265E-001,0.00000E+000,-6.52652E-003,-7.56238E-002,1.00000E+000,34
1019,1347,1.51177E+001,8.45339E-001,-5.35837E-002,9.48937E+000,-5.49361E-001,-1.14702E-001,9.50595E+000,1.75426E-002,4.30893E-001,0,1.44489E+002,-9.63137E+000,9.98434E-001,1.04608E+002,-4.08704E+001,9.98361E-001,2.10142E-001,-8.76397E-002,4.18552E-004,2.10143E-001,-8.76403E-002,8.05327E-002,2.11104E-001,1.23331E+000,-3.68522E-002,0.00000E+000,2.83770E-002,9.18271E-001,0.00000E+000,-4.56795E-003,-7.55583E-002,1.00000E+000,34
839,1327,5.03894E-001,-5.94556E-001,4.41781E-002,6.67206E+000,-5.75673E-001,1.08576E-001,6.69773E+000,3.68430E-002,5.51952E-001,0,1.02440E+002,-1.00792E+001,9.98119E-001,5.82788E+001,-4.52376E+001,9.97120E-001,2.23290E-001,-9.31616E-002,-3.58303E-003,2.23331E-001,-9.32022E-002,-6.48621E-001,2.24346E-001,1.25019E+000,-4.47664E-003,0.00000E+000,-3.48330E-003,9.15104E-001,0.00000E+000,1.08618E-003,-9.43851E-002,1.00000E+000,34
1019,1327,1.51205E+001,-3.39516E-001,-4.50214E-002,9.53234E+000,-4.35291E-001,-6.23397E-002,9.54248E+000,1.90145E-002,4.52375E-001,0,1.44962E+002,-7.90719E+000,9.97548E-001,1.04526E+002,-3.92291E+001,9.97325E-001,2.09337E-001,-8.76839E-002,3.53935E-005,2.09337E-001,-8.76839E-002,6.82745E-003,2.10254E-001,1.23233E+000,-3.68822E-002,0.00000E+000,2.79794E-002,9.18259E-001,0.00000E+000,-8.48464E-003,-7.56787E-002,1.00000E+000,34
1019,1317,1.51292E+001,-9.32254E-001,1.38361E-002,9.55212E+000,-3.83410E-001,-2.07242E-002,9.55983E+000,1.88879E-002,4.37221E-001,0,1.45103E+002,-7.16021E+000,9.97846E-001,1.04694E+002,-3.85473E+001,9.97575E-001,2.08930E-001,-8.77010E-002,-1.53408E-004,2.08930E-001,-8.77010E-002,-2.96315E-002,2.09825E-001,1.23185E+000,-3.68904E-002,0.00000E+000,2.77810E-002,9.18256E-001,0.00000E+000,-1.04382E-002,-7.57119E-002,1.00000E+000,34
839,1317,4.98504E-001,-1.17098E+000,1.14477E-001,6.67464E+000,-5.12755E-001,1.54616E-001,6.69609E+000,1.84513E-002,5.27855E-001,0,1.02318E+002,-9.17019E+000,9.96841E-001,5.82533E+001,-4.43005E+001,9.94223E-001,2.23578E-001,-9.31629E-002,-3.62795E-003,2.23620E-001,-9.32044E-002,-6.56152E-001,2.24649E-001,1.25056E+000,-4.47218E-003,0.00000E+000,-3.73043E-003,9.15101E-001,0.00000E+000,2.95025E-003,-9.43624E-002,1.00000E+000,34
1019,1297,1.51551E+001,-2.10027E+000,1.79754E-001,9.59431E+000,-2.68323E-001,8.58483E-002,9.59845E+000,1.81524E-002,3.91997E-001,0,1.45324E+002,-5.49484E+000,9.97966E-001,1.05250E+002,-3.70234E+001,9.97404E-001,2.08105E-001,-8.77316E-002,-5.28654E-004,2.08106E-001,-8.77326E-002,-1.02386E-001,2.08957E-001,1.23088E+000,-3.69026E-002,0.00000E+000,2.73856E-002,9.18251E-001,0.00000E+000,-1.43331E-002,-7.57610E-002,1.00000E+000,34
1019,1307,1.51357E+001,-1.51551E+000,8.13310E-002,9.56876E+000,-3.25278E-001,2.59494E-002,9.57432E+000,2.23345E-002,4.46229E-001,0,1.45174E+002,-6.29788E+000,9.98182E-001,1.04845E+002,-3.77258E+001,9.97902E-001,2.08520E-001,-8.77174E-002,-3.41291E-004,2.08520E-001,-8.77178E-002,-6.60095E-002,2.09393E-001,1.23136E+000,-3.68980E-002,0.00000E+000,2.75836E-002,9.18253E-001,0.00000E+000,-1.23829E-002,-7.57424E-002,1.00000E+000,34
839,1307,4.89645E-001,-1.74341E+000,2.18906E-001,6.66960E+000,-4.49146E-001,2.14449E-001,6.68815E+000,1.64306E-002,5.07171E-001,0,1.02029E+002,-8.27426E+000,9.95586E-001,5.82523E+001,-4.33726E+001,9.93492E-001,2.23861E-001,-9.31635E-002,-3.67366E-003,2.23904E-001,-9.32060E-002,-6.63820E-001,2.24948E-001,1.25092E+000,-4.47001E-003,0.00000E+000,-3.97688E-003,9.15099E-001,0.00000E+000,4.80926E-003,-9.43513E-002,1.00000E+000,34
829,1337,-2.74913E-001,-2.32771E-002,1.22437E-002,6.52309E+000,-6.42763E-001,4.99747E-002,6.55488E+000,2.99126E-002,5.21249E-001,0,1.00416E+002,-1.10164E+001,9.95484E-001,5.62946E+001,-4.64721E+001,9.94295E-001,2.22350E-001,-9.31286E-002,-2.81375E-003,2.22375E-001,-9.31537E-002,-5.10965E-001,2.23348E-001,1.24901E+000,-3.52576E-003,0.00000E+000,-2.51493E-003,9.15009E-001,0.00000E+000,-1.62281E-003,-9.29525E-002,1.00000E+000,34
829,1347,-2.52632E-001,5.64517E-001,-4.30192E-003,6.52540E+000,-7.02337E-001,-2.29463E-003,6.56308E+000,1.61501E-002,4.92268E-001,0,1.00617E+002,-1.18420E+001,9.95292E-001,5.67060E+001,-4.73786E+001,9.95037E-001,2.22264E-001,-9.31318E-002,-2.86517E-003,2.22290E-001,-9.31578E-002,-5.20438E-001,2.23258E-001,1.24891E+000,-3.52885E-003,0.00000E+000,-2.43400E-003,9.15011E-001,0.00000E+000,-3.68030E-003,-9.30152E-002,1.00000E+000,34
829,1357,-2.22293E-001,1.16880E+000,1.71918E-002,6.52842E+000,-7.51035E-001,-5.28211E-002,6.57169E+000,1.62281E-002,5.12131E-001,0,1.00811E+002,-1.25259E+001,9.97023E-001,5.73312E+001,-4.80918E+001,9.97206E-001,2.22173E-001,-9.31360E-002,-2.91744E-003,2.22200E-001,-9.31630E-002,-5.30077E-001,2.23163E-001,1.24881E+000,-3.53307E-003,0.00000E+000,-2.35271E-003,9.15015E-001,0.00000E+000,-5.74691E-003,-9.31008E-002,1.00000E+000,34
1029,1337,1.59154E+001,2.80862E-001,-7.21056E-002,9.65401E+000,-4.68134E-001,-9.63738E-002,9.66583E+000,1.67600E-002,4.58532E-001,0,1.46810E+002,-8.41256E+000,9.96833E-001,1.06909E+002,-3.94528E+001,9.96441E-001,2.09638E-001,-8.73137E-002,3.44087E-005,2.09638E-001,-8.73137E-002,6.63903E-003,2.10611E-001,1.23270E+000,-3.64642E-002,0.00000E+000,2.73950E-002,9.18496E-001,0.00000E+000,-4.56739E-003,-7.40290E-002,1.00000E+000,34
1029,1347,1.59137E+001,8.81326E-001,-6.49970E-002,9.62936E+000,-5.19667E-001,-1.22826E-001,9.64415E+000,1.64681E-002,4.70360E-001,0,1.46521E+002,-9.19262E+000,9.97655E-001,1.06965E+002,-4.01624E+001,9.96968E-001,2.10166E-001,-8.72903E-002,2.30296E-004,2.10166E-001,-8.72904E-002,4.43593E-002,2.11168E-001,1.23335E+000,-3.64415E-002,0.00000E+000,2.76024E-002,9.18503E-001,0.00000E+000,-2.70208E-003,-7.39638E-002,1.00000E+000,34
1029,1327,1.59265E+001,-3.15191E-001,-4.15325E-002,9.68092E+000,-4.16305E-001,-6.33209E-002,9.69007E+000,1.82684E-002,4.27461E-001,0,1.47097E+002,-7.64200E+000,9.97141E-001,1.07067E+002,-3.87687E+001,9.96403E-001,2.09108E-001,-8.73332E-002,-1.58473E-004,2.09108E-001,-8.73332E-002,-3.06295E-002,2.10051E-001,1.23205E+000,-3.64798E-002,0.00000E+000,2.71881E-002,9.18491E-001,0.00000E+000,-6.42826E-003,-7.40738E-002,1.00000E+000,34
829,1327,-3.02372E-001,-5.95644E-001,4.08976E-002,6.51123E+000,-5.71632E-001,9.26638E-002,6.53693E+000,3.16685E-002,5.44346E-001,0,1.00090E+002,-9.97655E+000,9.96546E-001,5.58339E+001,-4.53594E+001,9.96200E-001,2.22432E-001,-9.31261E-002,-2.76289E-003,2.22456E-001,-9.31503E-002,-5.01605E-001,2.23433E-001,1.24911E+000,-3.52335E-003,0.00000E+000,-2.59558E-003,9.15007E-001,0.00000E+000,4.27581E-004,-9.29035E-002,1.00000E+000,34
829,1307,-3.02487E-001,-1.75119E+000,2.41818E-001,6.52341E+000,-4.52041E-001,2.27868E-001,6.54302E+000,1.99768E-002,4.48231E-001,0,9.98124E+001,-8.31602E+000,9.96636E-001,5.60857E+001,-4.36732E+001,9.93791E-001,2.22582E-001,-9.31241E-002,-2.66284E-003,2.22605E-001,-9.31466E-002,-4.83218E-001,2.23590E-001,1.24932E+000,-3.52143E-003,0.00000E+000,-2.75629E-003,9.15005E-001,0.00000E+000,4.51324E-003,-9.28646E-002,1.00000E+000,34
829,1317,-3.09406E-001,-1.17243E+000,1.17599E-001,6.51343E+000,-5.08929E-001,1.51833E-001,6.53504E+000,2.36958E-002,4.89092E-001,0,9.99221E+001,-9.07525E+000,9.95820E-001,5.57980E+001,-4.44555E+001,9.95121E-001,2.22509E-001,-9.31246E-002,-2.71261E-003,2.22533E-001,-9.31480E-002,-4.92361E-001,2.23514E-001,1.24921E+000,-3.52192E-003,0.00000E+000,-2.67603E-003,9.15006E-001,0.00000E+000,2.47283E-003,-9.28744E-002,1.00000E+000,34
1029,1317,1.59361E+001,-9.14222E-001,7.97962E-003,9.70186E+000,-3.72168E-001,-2.98493E-002,9.70904E+000,1.92331E-002,4.35199E-001,0,1.47289E+002,-6.97892E+000,9.98105E-001,1.07232E+002,-3.81543E+001,9.96950E-001,2.08576E-001,-8.73501E-002,-3.48938E-004,2.08577E-001,-8.73505E-002,-6.75595E-002,2.09492E-001,1.23141E+000,-3.64910E-002,0.00000E+000,2.69822E-002,9.18487E-001,0.00000E+000,-8.27997E-003,-7.41062E-002,1.00000E+000,34
1029,1307,1.59506E+001,-1.49630E+000,9.37976E-002,9.72518E+000,-3.12939E-001,2.87995E-002,9.73026E+000,1.63252E-002,4.91670E-001,0,1.47411E+002,-6.15828E+000,9.98195E-001,1.07539E+002,-3.73308E+001,9.96284E-001,2.08042E-001,-8.73655E-002,-5.38293E-004,2.08043E-001,-8.73665E-002,-1.04404E-001,2.08930E-001,1.23076E+000,-3.64998E-002,0.00000E+000,2.67766E-002,9.18484E-001,0.00000E+000,-1.01290E-002,-7.41313E-002,1.00000E+000,34
1029,1297,1.59675E+001,-2.07446E+000,1.88728E-001,9.74865E+000,-2.49367E-001,8.69510E-002,9.75223E+000,1.61742E-002,4.50003E-001,0,1.47533E+002,-5.24767E+000,9.97575E-001,1.07899E+002,-3.65141E+001,9.96462E-001,2.07502E-001,-8.73798E-002,-7.27306E-004,2.07504E-001,-8.73816E-002,-1.41315E-001,2.08363E-001,1.23012E+000,-3.65064E-002,0.00000E+000,2.65706E-002,9.18482E-001,0.00000E+000,-1.19815E-002,-7.41502E-002,1.00000E+000,34
819,1317,-1.11283E+000,-1.18351E+000,1.29198E-001,6.35556E+000,-5.15523E-001,1.53884E-001,6.37829E+000,2.28691E-002,4.63606E-001,0,9.75602E+001,-9.15590E+000,9.94822E-001,5.34353E+001,-4.47703E+001,9.93472E-001,2.20986E-001,-9.28206E-002,-2.06364E-003,2.20999E-001,-9.28342E-002,-3.76765E-001,2.21939E-001,1.24731E+000,-3.33133E-003,0.00000E+000,-1.53670E-003,9.15117E-001,0.00000E+000,1.66445E-003,-9.08913E-002,1.00000E+000,34
819,1327,-1.10933E+000,-6.07290E-001,4.76419E-002,6.35211E+000,-5.76724E-001,1.00785E-001,6.37904E+000,2.24012E-002,4.75719E-001,0,9.76901E+001,-1.00294E+001,9.96099E-001,5.34053E+001,-4.56965E+001,9.95380E-001,2.21031E-001,-9.28237E-002,-2.19149E-003,2.21046E-001,-9.28390E-002,-4.00041E-001,2.21988E-001,1.24736E+000,-3.33074E-003,0.00000E+000,-1.61744E-003,9.15117E-001,0.00000E+000,-2.34831E-004,-9.09118E-002,1.00000E+000,34
819,1337,-1.08891E+000,-2.11764E-002,6.52622E-003,6.35774E+000,-6.34371E-001,4.90398E-002,6.38950E+000,1.94282E-002,5.08331E-001,0,9.79447E+001,-1.08513E+001,9.95421E-001,5.37315E+001,-4.65451E+001,9.94938E-001,2.21073E-001,-9.28298E-002,-2.31982E-003,2.21090E-001,-9.28470E-002,-4.23398E-001,2.22033E-001,1.24742E+000,-3.32949E-003,0.00000E+000,-1.69861E-003,9.15115E-001,0.00000E+000,-2.14429E-003,-9.09552E-002,1.00000E+000,34
819,1307,-1.11780E+000,-1.75833E+000,2.19457E-001,6.35447E+000,-4.56297E-001,2.00532E-001,6.37399E+000,2.15024E-002,4.83338E-001,0,9.73789E+001,-8.29493E+000,9.96081E-001,5.34629E+001,-4.38245E+001,9.94506E-001,2.20937E-001,-9.28188E-002,-1.93618E-003,2.20949E-001,-9.28307E-002,-3.53552E-001,2.21886E-001,1.24725E+000,-3.33167E-003,0.00000E+000,-1.45625E-003,9.15118E-001,0.00000E+000,3.55704E-003,-9.08798E-002,1.00000E+000,34
819,1347,-1.05948E+000,5.75760E-001,-3.82285E-004,6.36698E+000,-6.85139E-001,4.53240E-003,6.40374E+000,1.84864E-002,5.15282E-001,0,9.82228E+001,-1.15716E+001,9.97094E-001,5.42781E+001,-4.73146E+001,9.97264E-001,2.21111E-001,-9.28381E-002,-2.44847E-003,2.21130E-001,-9.28572E-002,-4.46809E-001,2.22074E-001,1.24747E+000,-3.32778E-003,0.00000E+000,-1.78002E-003,9.15112E-001,0.00000E+000,-4.05950E-003,-9.10144E-002,1.00000E+000,34
819,1357,-1.03284E+000,1.16047E+000,2.70520E-002,6.36597E+000,-7.53385E-001,-4.28567E-002,6.41054E+000,2.28599E-002,5.22815E-001,0,9.83500E+001,-1.25622E+001,9.96190E-001,5.48588E+001,-4.83514E+001,9.96224E-001,2.21146E-001,-9.28493E-002,-2.57754E-003,2.21167E-001,-9.28705E-002,-4.70290E-001,2.22111E-001,1.24753E+000,-3.32544E-003,0.00000E+000,-1.86175E-003,9.15109E-001,0.00000E+000,-5.98207E-003,-9.10954E-002,1.00000E+000,34
1039,1337,1.67252E+001,3.06412E-001,-7.56702E-002,9.80689E+000,-4.49429E-001,-9.96822E-002,9.81769E+000,1.51251E-002,4.70451E-001,0,1.49017E+002,-8.13669E+000,9.97739E-001,1.09501E+002,-3.89376E+001,9.96364E-001,2.09703E-001,-8.68339E-002,-4.51877E-004,2.09704E-001,-8.68346E-002,-8.73099E-002,2.10733E-001,1.23278E+000,-3.63185E-002,0.00000E+000,2.62542E-002,9.18891E-001,0.00000E+000,-2.50976E-003,-7.29126E-002,1.00000E+000,34
1039,1347,1.67204E+001,8.88973E-001,-7.28449E-002,9.77944E+000,-5.16786E-001,-1.28643E-001,9.79393E+000,1.48977E-002,4.16179E-001,0,1.48704E+002,-9.15350E+000,9.98714E-001,1.09498E+002,-3.99467E+001,9.97949E-001,2.10330E-001,-8.68216E-002,-3.36493E-004,2.10330E-001,-8.68219E-002,-6.48814E-002,2.11394E-001,1.23355E+000,-3.62917E-002,0.00000E+000,2.63167E-002,9.18893E-001,0.00000E+000,-7.74503E-004,-7.28527E-002,1.00000E+000,34
1039,1317,1.67403E+001,-8.79441E-001,7.39120E-003,9.85020E+000,-3.42162E-001,-2.64241E-002,9.85618E+000,1.64645E-002,4.02058E-001,0,1.49397E+002,-6.53587E+000,9.97626E-001,1.09744E+002,-3.75290E+001,9.96128E-001,2.08439E-001,-8.68536E-002,-6.75174E-004,2.08440E-001,-8.68551E-002,-1.31004E-001,2.09403E-001,1.23123E+000,-3.63520E-002,0.00000E+000,2.61292E-002,9.18889E-001,0.00000E+000,-5.97831E-003,-7.29874E-002,1.00000E+000,34
1039,1327,1.67343E+001,-2.91221E-001,-3.83851E-002,9.83203E+000,-3.97476E-001,-5.92199E-002,9.84024E+000,1.43083E-002,3.92472E-001,0,1.49248E+002,-7.37728E+000,9.97901E-001,1.09639E+002,-3.83180E+001,9.96777E-001,2.09070E-001,-8.68443E-002,-5.64728E-004,2.09071E-001,-8.68454E-002,-1.09344E-001,2.10067E-001,1.23200E+000,-3.63376E-002,0.00000E+000,2.61915E-002,9.18890E-001,0.00000E+000,-4.25039E-003,-7.29551E-002,1.00000E+000,34
1039,1307,1.67556E+001,-1.47263E+000,7.19153E-002,9.87487E+000,-2.93253E-001,1.28151E-002,9.87923E+000,1.70708E-002,4.22361E-001,0,1.49617E+002,-5.81871E+000,9.97208E-001,1.10026E+002,-3.68519E+001,9.96139E-001,2.07804E-001,-8.68620E-002,-7.84365E-004,2.07806E-001,-8.68641E-002,-1.52513E-001,2.08736E-001,1.23045E+000,-3.63631E-002,0.00000E+000,2.60670E-002,9.18888E-001,0.00000E+000,-7.70508E-003,-7.30122E-002,1.00000E+000,34
1039,1297,1.67751E+001,-2.05685E+000,1.70223E-001,9.90044E+000,-2.36249E-001,7.18745E-002,9.90351E+000,1.74579E-002,4.14232E-001,0,1.49767E+002,-5.02183E+000,9.95744E-001,1.10431E+002,-3.61214E+001,9.95711E-001,2.07166E-001,-8.68694E-002,-8.92216E-004,2.07169E-001,-8.68721E-002,-1.73855E-001,2.08066E-001,1.22968E+000,-3.63703E-002,0.00000E+000,2.60048E-002,9.18887E-001,0.00000E+000,-9.43256E-003,-7.30285E-002,1.00000E+000,34
1049,1337,1.75439E+001,3.31150E-001,-8.09109E-002,9.96744E+000,-4.29508E-001,-1.07647E-001,9.97727E+000,2.08170E-002,4.38366E-001,0,1.51352E+002,-7.84966E+000,9.98862E-001,1.12232E+002,-3.84522E+001,9.97866E-001,2.09682E-001,-8.67553E-002,-1.16896E-003,2.09687E-001,-8.67599E-002,-2.25933E-001,2.10724E-001,1.23276E+000,-3.60835E-002,0.00000E+000,2.46608E-002,9.18910E-001,0.00000E+000,-1.17239E-003,-7.14559E-002,1.00000E+000,34
1049,1347,1.75494E+001,9.18993E-001,-6.55774E-002,9.94788E+000,-4.95513E-001,-1.33631E-001,9.96111E+000,1.65874E-002,4.44638E-001,0,1.51143E+002,-8.84862E+000,9.98570E-001,1.12409E+002,-3.93742E+001,9.97162E-001,2.10413E-001,-8.67558E-002,-1.14929E-003,2.10418E-001,-8.67603E-002,-2.21586E-001,2.11494E-001,1.23367E+000,-3.60491E-002,0.00000E+000,2.45648E-002,9.18907E-001,0.00000E+000,1.65037E-004,-7.14050E-002,1.00000E+000,34
1049,1307,1.75704E+001,-1.44460E+000,8.33819E-002,1.00300E+001,-2.70832E-001,1.37301E-002,1.00336E+001,2.05360E-002,3.69901E-001,0,1.51829E+002,-5.49363E+000,9.97731E-001,1.12727E+002,-3.63673E+001,9.97018E-001,2.07489E-001,-8.67542E-002,-1.20713E-003,2.07494E-001,-8.67591E-002,-2.35050E-001,2.08420E-001,1.23006E+000,-3.61331E-002,0.00000E+000,2.49467E-002,9.18916E-001,0.00000E+000,-5.15610E-003,-7.15291E-002,1.00000E+000,34
1049,1317,1.75525E+001,-8.55158E-001,1.30497E-002,1.00023E+001,-3.24332E-001,-3.26004E-002,1.00076E+001,1.77495E-002,4.17427E-001,0,1.51594E+002,-6.29370E+000,9.96838E-001,1.12394E+002,-3.70550E+001,9.95317E-001,2.08221E-001,-8.67545E-002,-1.19556E-003,2.08226E-001,-8.67593E-002,-2.32220E-001,2.09188E-001,1.23096E+000,-3.61197E-002,0.00000E+000,2.48516E-002,9.18914E-001,0.00000E+000,-3.83045E-003,-7.15093E-002,1.00000E+000,34
1049,1327,1.75449E+001,-2.73663E-001,-4.10551E-002,9.98565E+000,-3.86021E-001,-6.01689E-002,9.99329E+000,1.15426E-002,3.90914E-001,0,1.51456E+002,-7.21610E+000,9.98098E-001,1.12249E+002,-3.79371E+001,9.96326E-001,2.08952E-001,-8.67548E-002,-1.18441E-003,2.08957E-001,-8.67596E-002,-2.29486E-001,2.09956E-001,1.23186E+000,-3.61071E-002,0.00000E+000,2.47564E-002,9.18913E-001,0.00000E+000,-2.50390E-003,-7.14907E-002,1.00000E+000,34
809,1347,-1.88194E+000,5.61199E-001,-6.48985E-003,6.19285E+000,-6.92202E-001,2.82802E-003,6.23142E+000,1.50005E-002,5.03345E-001,0,9.56200E+001,-1.16599E+001,9.98338E-001,5.15875E+001,-4.76465E+001,9.98323E-001,2.19821E-001,-9.24807E-002,-2.06197E-003,2.19835E-001,-9.24944E-002,-3.78273E-001,2.20753E-001,1.24586E+000,-3.60888E-003,0.00000E+000,-8.44476E-004,9.15289E-001,0.00000E+000,-4.27525E-003,-8.91779E-002,1.00000E+000,34
809,1357,-1.85419E+000,1.15306E+000,3.25227E-002,6.19246E+000,-7.54149E-001,-3.64947E-002,6.23832E+000,1.79857E-002,5.08005E-001,0,9.57273E+001,-1.25601E+001,9.97613E-001,5.22160E+001,-4.86014E+001,9.96874E-001,2.20020E-001,-9.25019E-002,-2.29491E-003,2.20037E-001,-9.25188E-002,-4.20704E-001,2.20963E-001,1.24612E+000,-3.59771E-003,0.00000E+000,-1.14216E-003,9.15276E-001,0.00000E+000,-6.03305E-003,-8.92535E-002,1.00000E+000,34
809,1327,-1.92088E+000,-6.22481E-001,3.67808E-002,6.18798E+000,-5.87933E-001,9.15771E-002,6.21652E+000,1.41715E-002,5.28874E-001,0,9.52674E+001,-1.01597E+001,9.97994E-001,5.08690E+001,-4.59903E+001,9.97007E-001,2.19417E-001,-9.24544E-002,-1.59725E-003,2.19425E-001,-9.24626E-002,-2.93431E-001,2.20327E-001,1.24535E+000,-3.62242E-003,0.00000E+000,-2.54418E-004,9.15304E-001,0.00000E+000,-7.91042E-004,-8.90864E-002,1.00000E+000,34
809,1337,-1.89989E+000,-3.46548E-002,1.22912E-002,6.19388E+000,-6.42493E-001,5.41067E-002,6.22734E+000,1.31593E-002,5.14108E-001,0,9.54775E+001,-1.09639E+001,9.97903E-001,5.12442E+001,-4.68740E+001,9.98007E-001,2.19620E-001,-9.24662E-002,-1.82955E-003,2.19631E-001,-9.24769E-002,-3.35871E-001,2.20541E-001,1.24560E+000,-3.61642E-003,0.00000E+000,-5.49044E-004,9.15297E-001,0.00000E+000,-2.53077E-003,-8.91270E-002,1.00000E+000,34
809,1307,-1.93068E+000,-1.75889E+000,2.25891E-001,6.18898E+000,-4.51942E-001,2.08903E-001,6.20897E+000,2.61614E-002,5.72149E-001,0,9.48757E+001,-8.26126E+000,9.90959E-001,5.09503E+001,-4.39083E+001,9.90287E-001,2.19002E-001,-9.24447E-002,-1.13167E-003,2.19006E-001,-9.24488E-002,-2.08187E-001,2.19890E-001,1.24484E+000,-3.62674E-003,0.00000E+000,3.32425E-004,9.15309E-001,0.00000E+000,2.67418E-003,-8.90572E-002,1.00000E+000,34
809,1317,-1.92242E+000,-1.18916E+000,1.17425E-001,6.19356E+000,-5.17200E-001,1.44984E-001,6.21681E+000,2.29678E-002,5.42439E-001,0,9.51677E+001,-9.15326E+000,9.96791E-001,5.09292E+001,-4.49002E+001,9.95744E-001,2.19211E-001,-9.24483E-002,-1.36451E-003,2.19217E-001,-9.24543E-002,-2.50847E-001,2.20110E-001,1.24509E+000,-3.62526E-003,0.00000E+000,3.92699E-005,9.15308E-001,0.00000E+000,9.43145E-004,-8.90672E-002,1.00000E+000,34
1049,1297,1.75799E+001,-2.04141E+000,1.66074E-001,1.00481E+001,-2.25597E-001,6.74130E-002,1.00508E+001,1.72880E-002,3.56047E-001,0,1.51894E+002,-4.84884E+000,9.96323E-001,1.12949E+002,-3.58045E+001,9.95020E-001,2.06756E-001,-8.67538E-002,-1.21814E-003,2.06761E-001,-8.67589E-002,-2.37787E-001,2.07650E-001,1.22916E+000,-3.61449E-002,0.00000E+000,2.50417E-002,9.18917E-001,0.00000E+000,-6.48072E-003,-7.15465E-002,1.00000E+000,34
799,1337,-2.71220E+000,-4.40196E-002,5.06468E-003,6.02920E+000,-6.45279E-001,5.08171E-002,6.06384E+000,1.41154E-002,5.00340E-001,0,9.30202E+001,-1.09740E+001,9.97970E-001,4.87123E+001,-4.71212E+001,9.98043E-001,2.17716E-001,-9.20753E-002,-1.29256E-003,2.17721E-001,-9.20807E-002,-2.39053E-001,2.18582E-001,1.24323E+000,-4.01339E-003,0.00000E+000,7.68014E-004,9.15498E-001,0.00000E+000,-2.91001E-003,-8.71877E-002,1.00000E+000,34
799,1347,-2.69205E+000,5.48181E-001,-6.03873E-003,6.03089E+000,-6.98524E-001,9.01650E-003,6.07121E+000,1.63445E-002,5.06853E-001,0,9.31746E+001,-1.17488E+001,9.97396E-001,4.91081E+001,-4.79597E+001,9.97020E-001,2.17990E-001,-9.20958E-002,-1.62009E-003,2.17999E-001,-9.21043E-002,-2.99340E-001,2.18870E-001,1.24358E+000,-4.00347E-003,0.00000E+000,2.68540E-004,9.15484E-001,0.00000E+000,-4.36892E-003,-8.72293E-002,1.00000E+000,34
799,1357,-2.65875E+000,1.14904E+000,3.02911E-002,6.03610E+000,-7.51156E-001,-3.38968E-002,6.08275E+000,1.69048E-002,5.04527E-001,0,9.33761E+001,-1.24966E+001,9.96672E-001,4.98201E+001,-4.87747E+001,9.96017E-001,2.18264E-001,-9.21261E-002,-1.94808E-003,2.18276E-001,-9.21383E-002,-3.59583E-001,2.19157E-001,1.24393E+000,-3.98840E-003,0.00000E+000,-2.34509E-004,9.15462E-001,0.00000E+000,-5.83828E-003,-8.72924E-002,1.00000E+000,34
799,1327,-2.72413E+000,-6.37367E-001,5.08802E-002,6.03180E+000,-5.95679E-001,1.07370E-001,6.06210E+000,2.22523E-002,5.07418E-001,0,9.28812E+001,-1.03041E+001,9.98360E-001,4.85251E+001,-4.63696E+001,9.97147E-001,2.17439E-001,-9.20587E-002,-9.64812E-004,2.17442E-001,-9.20617E-002,-1.78608E-001,2.18292E-001,1.24289E+000,-4.02121E-003,0.00000E+000,1.26664E-003,9.15509E-001,0.00000E+000,-1.45356E-003,-8.71550E-002,1.00000E+000,34
1059,1327,1.83563E+001,-2.59097E-001,-3.83340E-002,1.01387E+001,-3.77954E-001,-5.92927E-002,1.01460E+001,1.72725E-002,4.12241E-001,0,1.53645E+002,-7.12451E+000,9.98546E-001,1.14884E+002,-3.76032E+001,9.97154E-001,2.09082E-001,-8.71156E-002,-1.53576E-003,2.09090E-001,-8.71236E-002,-2.97064E-001,2.10056E-001,1.23205E+000,-3.51058E-002,0.00000E+000,2.32505E-002,9.18531E-001,0.00000E+000,-9.97283E-004,-7.01239E-002,1.00000E+000,34
1059,1337,1.83600E+001,3.51075E-001,-6.94390E-002,1.01248E+001,-4.16496E-001,-9.96423E-002,1.01338E+001,1.38536E-002,4.24315E-001,0,1.53576E+002,-7.68251E+000,9.99085E-001,1.14955E+002,-3.80698E+001,9.98571E-001,2.09844E-001,-8.71227E-002,-1.58009E-003,2.09852E-001,-8.71311E-002,-3.04845E-001,2.10856E-001,1.23299E+000,-3.50804E-002,0.00000E+000,2.30738E-002,9.18526E-001,0.00000E+000,-1.35085E-004,-7.01006E-002,1.00000E+000,34
1059,1347,1.83685E+001,9.42033E-001,-5.53882E-002,1.01078E+001,-4.78774E-001,-1.27935E-001,1.01199E+001,1.92770E-002,4.09795E-001,0,1.53413E+002,-8.62533E+000,9.98812E-001,1.15175E+002,-3.89493E+001,9.97517E-001,2.10606E-001,-8.71313E-002,-1.62019E-003,2.10615E-001,-8.71401E-002,-3.11772E-001,2.11657E-001,1.23394E+000,-3.50439E-002,0.00000E+000,2.28966E-002,9.18519E-001,0.00000E+000,7.29760E-004,-7.00672E-002,1.00000E+000,34
1059,1297,1.83848E+001,-2.01980E+000,1.51573E-001,1.01973E+001,-2.07093E-001,6.11778E-002,1.01996E+001,1.67643E-002,3.05845E-001,0,1.54048E+002,-4.56330E+000,9.96935E-001,1.15455E+002,-3.53660E+001,9.94541E-001,2.06797E-001,-8.70990E-002,-1.39060E-003,2.06804E-001,-8.71055E-002,-2.71093E-001,2.07658E-001,1.22923E+000,-3.51491E-002,0.00000E+000,2.37785E-002,9.18539E-001,0.00000E+000,-3.57438E-003,-7.01635E-002,1.00000E+000,34
1059,1307,1.83763E+001,-1.42851E+000,7.36336E-002,1.01802E+001,-2.57161E-001,1.22116E-002,1.01835E+001,1.77410E-002,3.17461E-001,0,1.53984E+002,-5.30616E+000,9.98172E-001,1.15257E+002,-3.60237E+001,9.97436E-001,2.07558E-001,-8.71042E-002,-1.43958E-003,2.07565E-001,-8.71113E-002,-2.79911E-001,2.08455E-001,1.23017E+000,-3.51367E-002,0.00000E+000,2.36031E-002,9.18536E-001,0.00000E+000,-2.71808E-003,-7.01521E-002,1.00000E+000,34
1059,1317,1.83562E+001,-8.43368E-001,1.14490E-003,1.01509E+001,-3.15792E-001,-3.39333E-002,1.01559E+001,1.93907E-002,4.03719E-001,0,1.53727E+002,-6.19065E+000,9.97571E-001,1.14886E+002,-3.67524E+001,9.95502E-001,2.08320E-001,-8.71097E-002,-1.48841E-003,2.08327E-001,-8.71172E-002,-2.88653E-001,2.09255E-001,1.23111E+000,-3.51233E-002,0.00000E+000,2.34270E-002,9.18534E-001,0.00000E+000,-1.85883E-003,-7.01399E-002,1.00000E+000,34
799,1307,-2.73061E+000,-1.76723E+000,2.35689E-001,6.03483E+000,-4.54636E-001,2.14504E-001,6.05573E+000,3.40968E-002,5.59967E-001,0,9.25535E+001,-8.30683E+000,9.93509E-001,4.86502E+001,-4.41680E+001,9.93627E-001,2.16883E-001,-9.20452E-002,-3.09344E-004,2.16884E-001,-9.20455E-002,-5.73728E-002,2.17708E-001,1.24219E+000,-4.02635E-003,0.00000E+000,2.25772E-003,9.15517E-001,0.00000E+000,1.44126E-003,-8.71334E-002,1.00000E+000,34
799,1317,-2.72933E+000,-1.20057E+000,1.23367E-001,6.03514E+000,-5.21151E-001,1.60209E-001,6.05972E+000,2.80801E-002,5.56825E-001,0,9.27505E+001,-9.24686E+000,9.96073E-001,4.85105E+001,-4.51889E+001,9.94852E-001,2.17162E-001,-9.20481E-002,-6.37407E-004,2.17163E-001,-9.20494E-002,-1.18109E-001,2.18001E-001,1.24254E+000,-4.02580E-003,0.00000E+000,1.76289E-003,9.15516E-001,0.00000E+000,-4.07421E-006,-8.71357E-002,1.00000E+000,34
789,1327,-3.52668E+000,-6.42765E-001,5.22152E-002,5.87658E+000,-5.94282E-001,1.13942E-001,5.90766E+000,2.11947E-002,5.21711E-001,0,9.05339E+001,-1.02913E+001,9.97683E-001,4.61693E+001,-4.65573E+001,9.96782E-001,2.15517E-001,-9.16457E-002,-5.97849E-004,2.15518E-001,-9.16468E-002,-1.11518E-001,2.16319E-001,1.24050E+000,-4.62740E-003,0.00000E+000,2.43961E-003,9.15747E-001,0.00000E+000,-2.01673E-003,-8.53982E-002,1.00000E+000,34
789,1337,-3.51252E+000,-4.42694E-002,1.09445E-002,5.87568E+000,-6.38993E-001,5.85996E-002,5.91061E+000,1.71794E-002,4.93801E-001,0,9.06919E+001,-1.08770E+001,9.96849E-001,4.64032E+001,-4.72514E+001,9.96861E-001,2.15917E-001,-9.16678E-002,-1.00727E-003,2.15920E-001,-9.16711E-002,-1.87629E-001,2.16738E-001,1.24100E+000,-4.61572E-003,0.00000E+000,1.76309E-003,9.15731E-001,0.00000E+000,-3.20655E-003,-8.54259E-002,1.00000E+000,34
789,1347,-3.48843E+000,5.47215E-001,-1.55422E-003,5.88101E+000,-6.93985E-001,1.31872E-002,5.92183E+000,1.84074E-002,5.25440E-001,0,9.09133E+001,-1.16693E+001,9.96051E-001,4.68573E+001,-4.80868E+001,9.95358E-001,2.16316E-001,-9.16945E-002,-1.41687E-003,2.16323E-001,-9.17010E-002,-2.63557E-001,2.17156E-001,1.24150E+000,-4.60120E-003,0.00000E+000,1.08450E-003,9.15712E-001,0.00000E+000,-4.40001E-003,-8.54605E-002,1.00000E+000,34
789,1357,-3.46412E+000,1.14230E+000,2.68035E-002,5.87876E+000,-7.51196E-001,-3.11645E-002,5.92664E+000,1.66089E-002,5.28237E-001,0,9.10069E+001,-1.24862E+001,9.95558E-001,4.74134E+001,-4.89737E+001,9.94825E-001,2.16715E-001,-9.17310E-002,-1.82613E-003,2.16726E-001,-9.17418E-002,-3.39199E-001,2.17574E-001,1.24200E+000,-4.58065E-003,0.00000E+000,4.02658E-004,9.15684E-001,0.00000E+000,-5.59918E-003,-8.55093E-002,1.00000E+000,34
1069,1327,1.91683E+001,-2.44530E-001,-4.83283E-002,1.02931E+001,-3.70069E-001,-6.64414E-002,1.03000E+001,1.83703E-002,4.43370E-001,0,1.55882E+002,-7.01064E+000,9.98285E-001,1.17512E+002,-3.72365E+001,9.96395E-001,2.09330E-001,-8.71763E-002,-1.87013E-003,2.09342E-001,-8.71881E-002,-3.61358E-001,2.10313E-001,1.23238E+000,-3.43092E-002,0.00000E+000,2.19579E-002,9.18450E-001,0.00000E+000,1.54017E-004,-6.92374E-002,1.00000E+000,34
1069,1337,1.91637E+001,3.60512E-001,-7.36108E-002,1.02716E+001,-4.11904E-001,-9.73088E-002,1.02803E+001,1.18374E-002,3.91675E-001,0,1.55666E+002,-7.63147E+000,9.98682E-001,1.17463E+002,-3.78267E+001,9.97760E-001,2.10036E-001,-8.71868E-002,-1.95129E-003,2.10049E-001,-8.71996E-002,-3.76130E-001,2.11055E-001,1.23325E+000,-3.42866E-002,0.00000E+000,2.17455E-002,9.18444E-001,0.00000E+000,5.71203E-004,-6.92266E-002,1.00000E+000,34
1069,1347,1.91693E+001,9.56811E-001,-7.19966E-002,1.02533E+001,-4.68759E-001,-1.30275E-001,1.02649E+001,1.23821E-002,4.15525E-001,0,1.55503E+002,-8.48730E+000,9.98898E-001,1.17615E+002,-3.85752E+001,9.98037E-001,2.10746E-001,-8.71994E-002,-2.02936E-003,2.10760E-001,-8.72132E-002,-3.90228E-001,2.11801E-001,1.23413E+000,-3.42549E-002,0.00000E+000,2.15317E-002,9.18436E-001,0.00000E+000,9.91051E-004,-6.92115E-002,1.00000E+000,34
789,1307,-3.52511E+000,-1.77838E+000,2.31099E-001,5.88785E+000,-4.59615E-001,2.16773E-001,5.90974E+000,2.17743E-002,5.36904E-001,0,9.03520E+001,-8.36041E+000,9.96112E-001,4.64047E+001,-4.44457E+001,9.93201E-001,2.14716E-001,-9.16270E-002,2.21471E-004,2.14717E-001,-9.16272E-002,4.14220E-002,2.15484E-001,1.23950E+000,-4.63495E-003,0.00000E+000,3.78321E-003,9.15757E-001,0.00000E+000,3.46298E-004,-8.53802E-002,1.00000E+000,34
789,1317,-3.52933E+000,-1.21561E+000,1.41039E-001,5.87987E+000,-5.31049E-001,1.70325E-001,5.90626E+000,2.28125E-002,5.41659E-001,0,9.03934E+001,-9.40904E+000,9.96331E-001,4.62314E+001,-4.55726E+001,9.92758E-001,2.15117E-001,-9.16351E-002,-1.88172E-004,2.15117E-001,-9.16352E-002,-3.51471E-002,2.15902E-001,1.24000E+000,-4.63202E-003,0.00000E+000,3.11199E-003,9.15753E-001,0.00000E+000,-8.34190E-004,-8.53872E-002,1.00000E+000,34
1069,1297,1.91762E+001,-2.00132E+000,1.30151E-001,1.03345E+001,-1.91923E-001,5.55781E-002,1.03364E+001,2.22854E-002,3.53163E-001,0,1.56019E+002,-4.35834E+000,9.94913E-001,1.17746E+002,-3.49144E+001,9.91266E-001,2.07207E-001,-8.71501E-002,-1.61764E-003,2.07216E-001,-8.71590E-002,-3.14856E-001,2.08085E-001,1.22976E+000,-3.43539E-002,0.00000E+000,2.25951E-002,9.18461E-001,0.00000E+000,-1.09737E-003,-6.92588E-002,1.00000E+000,34
1069,1307,1.91730E+001,-1.41348E+000,4.70932E-002,1.03238E+001,-2.44788E-001,6.44196E-003,1.03267E+001,1.52882E-002,3.19097E-001,0,1.56056E+002,-5.12519E+000,9.97925E-001,1.17622E+002,-3.56348E+001,9.96301E-001,2.07912E-001,-8.71577E-002,-1.70329E-003,2.07922E-001,-8.71675E-002,-3.30725E-001,2.08824E-001,1.23063E+000,-3.43438E-002,0.00000E+000,2.23837E-002,9.18458E-001,0.00000E+000,-6.82279E-004,-6.92540E-002,1.00000E+000,34
1069,1317,1.91725E+001,-8.21311E-001,-3.54289E-003,1.03104E+001,-2.99584E-001,-3.24485E-002,1.03148E+001,1.61698E-002,4.28136E-001,0,1.56005E+002,-5.96630E+000,9.98576E-001,1.17591E+002,-3.62858E+001,9.96381E-001,2.08621E-001,-8.71670E-002,-1.78674E-003,2.08632E-001,-8.71778E-002,-3.46085E-001,2.09569E-001,1.23151E+000,-3.43266E-002,0.00000E+000,2.21708E-002,9.18454E-001,0.00000E+000,-2.64204E-004,-6.92458E-002,1.00000E+000,34
779,1327,-4.32157E+000,-6.39636E-001,7.16204E-002,5.72759E+000,-5.86977E-001,1.33719E-001,5.75914E+000,2.96271E-002,5.58141E-001,0,8.82345E+001,-1.01980E+001,9.97389E-001,4.39820E+001,-4.66405E+001,9.96064E-001,2.13527E-001,-9.09318E-002,-5.24547E-004,2.13528E-001,-9.09327E-002,-9.87134E-002,2.14309E-001,1.23803E+000,-5.55550E-003,0.00000E+000,3.28276E-003,9.16281E-001,0.00000E+000,-2.26096E-003,-8.38769E-002,1.00000E+000,34
779,1337,-4.30649E+000,-6.01834E-002,1.36244E-002,5.72808E+000,-6.49405E-001,6.33090E-002,5.76513E+000,1.66887E-002,4.99742E-001,0,8.84666E+001,-1.10241E+001,9.96002E-001,4.41868E+001,-4.76093E+001,9.96001E-001,2.14144E-001,-9.09607E-002,-1.05712E-003,2.14148E-001,-9.09644E-002,-1.98514E-001,2.14954E-001,1.23879E+000,-5.53812E-003,0.00000E+000,2.35058E-003,9.16260E-001,0.00000E+000,-3.18982E-003,-8.38979E-002,1.00000E+000,34
779,1347,-4.28974E+000,5.37208E-001,-1.20910E-003,5.72570E+000,-6.97547E-001,1.26236E-002,5.76805E+000,2.05376E-002,5.08715E-001,0,8.85824E+001,-1.17028E+001,9.94503E-001,4.45249E+001,-4.83628E+001,9.93821E-001,2.14761E-001,-9.09969E-002,-1.58928E-003,2.14769E-001,-9.10052E-002,-2.97804E-001,2.15600E-001,1.23956E+000,-5.51533E-003,0.00000E+000,1.41539E-003,9.16233E-001,0.00000E+000,-4.12168E-003,-8.39255E-002,1.00000E+000,34
779,1357,-4.26886E+000,1.13673E+000,2.60082E-002,5.72096E+000,-7.49893E-001,-2.91005E-002,5.76997E+000,1.62375E-002,5.32247E-001,0,8.86282E+001,-1.24542E+001,9.95500E-001,4.50285E+001,-4.91708E+001,9.95258E-001,2.15380E-001,-9.10436E-002,-2.12188E-003,2.15395E-001,-9.10583E-002,-3.96727E-001,2.16250E-001,1.24034E+000,-5.48486E-003,0.00000E+000,4.74234E-004,9.16195E-001,0.00000E+000,-5.05948E-003,-8.39624E-002,1.00000E+000,34
779,1317,-4.31367E+000,-1.20546E+000,1.55211E-001,5.74124E+000,-5.15072E-001,1.84028E-001,5.76724E+000,2.79312E-002,5.11774E-001,0,8.82716E+001,-9.16645E+000,9.98123E-001,4.41963E+001,-4.55658E+001,9.96711E-001,2.12910E-001,-9.09173E-002,1.13307E-005,2.12910E-001,-9.09173E-002,2.13675E-003,2.13664E-001,1.23726E+000,-5.56239E-003,0.00000E+000,4.21340E-003,9.16290E-001,0.00000E+000,-1.33363E-003,-8.38686E-002,1.00000E+000,34
1079,1337,1.99746E+001,3.77550E-001,-8.83347E-002,1.04245E+001,-4.01282E-001,-1.08359E-001,1.04328E+001,1.94569E-002,4.05779E-001,0,1.57892E+002,-7.46511E+000,9.97515E-001,1.20071E+002,-3.74183E+001,9.97657E-001,2.10532E-001,-8.74722E-002,-2.27183E-003,2.10550E-001,-8.74895E-002,-4.36759E-001,2.11549E-001,1.23389E+000,-3.34434E-002,0.00000E+000,2.04766E-002,9.18185E-001,0.00000E+000,1.05319E-003,-6.87924E-002,1.00000E+000,34
1079,1347,1.99854E+001,9.74187E-001,-7.91970E-002,1.04112E+001,-4.57980E-001,-1.34198E-001,1.04221E+001,1.10680E-002,4.34129E-001,0,1.57776E+002,-8.33940E+000,9.99034E-001,1.20314E+002,-3.81736E+001,9.98866E-001,2.11179E-001,-8.74916E-002,-2.40728E-003,2.11198E-001,-8.75110E-002,-4.61763E-001,2.12229E-001,1.23469E+000,-3.34142E-002,0.00000E+000,2.01872E-002,9.18174E-001,0.00000E+000,1.04140E-003,-6.87928E-002,1.00000E+000,34
1079,1297,1.99909E+001,-1.97697E+000,1.36135E-001,1.04907E+001,-1.73487E-001,6.14318E-002,1.04923E+001,2.12462E-002,4.24189E-001,0,1.58219E+002,-4.13652E+000,9.96385E-001,1.20448E+002,-3.44155E+001,9.94304E-001,2.07958E-001,-8.74165E-002,-1.71127E-003,2.07968E-001,-8.74264E-002,-3.31932E-001,2.08845E-001,1.23071E+000,-3.35040E-002,0.00000E+000,2.16267E-002,9.18207E-001,0.00000E+000,1.10006E-003,-6.87915E-002,1.00000E+000,34
1079,1307,1.99807E+001,-1.39951E+000,4.09430E-002,1.04743E+001,-2.36748E-001,6.16380E-003,1.04770E+001,1.75031E-002,3.78237E-001,0,1.58203E+002,-5.03447E+000,9.98077E-001,1.20194E+002,-3.52760E+001,9.96669E-001,2.08600E-001,-8.74275E-002,-1.85381E-003,2.08611E-001,-8.74391E-002,-3.58784E-001,2.09518E-001,1.23151E+000,-3.34965E-002,0.00000E+000,2.13405E-002,9.18204E-001,0.00000E+000,1.08839E-003,-6.87916E-002,1.00000E+000,34
1079,1327,1.99775E+001,-2.28783E-001,-5.98897E-002,1.04440E+001,-3.60502E-001,-7.64159E-002,1.04505E+001,2.10295E-002,4.17034E-001,0,1.58072E+002,-6.84672E+000,9.97984E-001,1.20101E+002,-3.68775E+001,9.97345E-001,2.09889E-001,-8.74564E-002,-2.13360E-003,2.09905E-001,-8.74717E-002,-4.11096E-001,2.10873E-001,1.23310E+000,-3.34635E-002,0.00000E+000,2.07643E-002,9.18192E-001,0.00000E+000,1.06491E-003,-6.87921E-002,1.00000E+000,34
1079,1317,1.99753E+001,-8.04131E-001,-1.68325E-002,1.04561E+001,-2.88701E-001,-3.91381E-002,1.04602E+001,1.71476E-002,3.97041E-001,0,1.58105E+002,-5.76952E+000,9.97793E-001,1.20078E+002,-3.59058E+001,9.97108E-001,2.09245E-001,-8.74416E-002,-1.99416E-003,2.09258E-001,-8.74550E-002,-3.85086E-001,2.10196E-001,1.23230E+000,-3.34810E-002,0.00000E+000,2.10522E-002,9.18198E-001,0.00000E+000,1.07665E-003,-6.87918E-002,1.00000E+000,34
779,1307,-4.32705E+000,-1.79421E+000,2.46895E-001,5.73135E+000,-4.71066E-001,2.31081E-001,5.75532E+000,2.00107E-002,5.49438E-001,0,8.79627E+001,-8.54849E+000,9.97545E-001,4.40980E+001,-4.48221E+001,9.95282E-001,2.12295E-001,-9.09061E-002,5.44786E-004,2.12296E-001,-9.09071E-002,1.02948E-001,2.13024E-001,1.23650E+000,-5.56658E-003,0.00000E+000,5.13793E-003,9.16295E-001,0.00000E+000,-4.12398E-004,-8.38635E-002,1.00000E+000,34
1089,1337,2.07826E+001,3.98633E-001,-9.85741E-002,1.05741E+001,-3.87246E-001,-1.14693E-001,1.05818E+001,1.70072E-002,4.80474E-001,0,1.60046E+002,-7.27651E+000,9.97089E-001,1.22647E+002,-3.69275E+001,9.96657E-001,2.11556E-001,-8.78843E-002,-2.37695E-003,2.11575E-001,-8.79032E-002,-4.54773E-001,2.12580E-001,1.23519E+000,-3.22024E-002,0.00000E+000,1.93109E-002,9.17780E-001,0.00000E+000,1.37874E-003,-6.79661E-002,1.00000E+000,34
1089,1347,2.07918E+001,9.93912E-001,-9.06659E-002,1.05591E+001,-4.44472E-001,-1.41322E-001,1.05694E+001,1.19940E-002,4.34175E-001,0,1.59907E+002,-8.13575E+000,9.98636E-001,1.22860E+002,-3.77368E+001,9.97684E-001,2.12281E-001,-8.79086E-002,-2.55267E-003,2.12303E-001,-8.79303E-002,-4.87170E-001,2.13343E-001,1.23609E+000,-3.21695E-002,0.00000E+000,1.89604E-002,9.17767E-001,0.00000E+000,1.08078E-003,-6.79770E-002,1.00000E+000,34
769,1347,-5.09014E+000,5.26720E-001,2.89812E-003,5.57164E+000,-7.01727E-001,1.98490E-002,5.61569E+000,1.68912E-002,5.03466E-001,0,8.62438E+001,-1.17586E+001,9.95208E-001,4.22209E+001,-4.86486E+001,9.95045E-001,2.12662E-001,-9.03161E-002,-1.62505E-003,2.12671E-001,-9.03248E-002,-3.07298E-001,2.13473E-001,1.23696E+000,-6.27201E-003,0.00000E+000,1.87852E-003,9.16764E-001,0.00000E+000,-3.67440E-003,-8.27071E-002,1.00000E+000,34
769,1357,-5.06604E+000,1.13075E+000,2.68987E-002,5.57069E+000,-7.49159E-001,-2.33206E-002,5.62089E+000,1.60838E-002,5.40764E-001,0,8.63507E+001,-1.24360E+001,9.96637E-001,4.27695E+001,-4.93747E+001,9.96386E-001,2.13160E-001,-9.03617E-002,-2.15234E-003,2.13176E-001,-9.03770E-002,-4.06268E-001,2.13996E-001,1.23758E+000,-6.24807E-003,0.00000E+000,9.44692E-004,9.16728E-001,0.00000E+000,-4.53145E-003,-8.27400E-002,1.00000E+000,34
769,1327,-5.11737E+000,-6.49491E-001,7.73821E-002,5.57496E+000,-5.91853E-001,1.27597E-001,5.60774E+000,2.13093E-002,5.73659E-001,0,8.59593E+001,-1.02663E+001,9.96980E-001,4.17515E+001,-4.69053E+001,9.95377E-001,2.11669E-001,-9.02559E-002,-5.71398E-004,2.11670E-001,-9.02570E-002,-1.08433E-001,2.12433E-001,1.23572E+000,-6.30124E-003,0.00000E+000,3.73173E-003,9.16807E-001,0.00000E+000,-1.97355E-003,-8.26669E-002,1.00000E+000,34
769,1337,-5.10838E+000,-7.56384E-002,1.90704E-002,5.57192E+000,-6.59131E-001,6.95352E-002,5.61120E+000,1.50621E-002,4.97151E-001,0,8.61007E+001,-1.11652E+001,9.96282E-001,4.18609E+001,-4.79715E+001,9.96018E-001,2.12166E-001,-9.02808E-002,-1.09882E-003,2.12170E-001,-9.02848E-002,-2.08157E-001,2.12953E-001,1.23634E+000,-6.28972E-003,0.00000E+000,2.80623E-003,9.16790E-001,0.00000E+000,-2.82296E-003,-8.26827E-002,1.00000E+000,34
1089,1327,2.07838E+001,-1.99585E-001,-7.85170E-002,1.05936E+001,-3.34767E-001,-8.46118E-002,1.05992E+001,1.85628E-002,4.15192E-001,0,1.60230E+002,-6.47305E+000,9.97092E-001,1.22638E+002,-3.62826E+001,9.95950E-001,2.10831E-001,-8.78635E-002,-2.19808E-003,2.10847E-001,-8.78797E-002,-4.21607E-001,2.11818E-001,1.23429E+000,-3.22273E-002,0.00000E+000,1.96614E-002,9.17790E-001,0.00000E+000,1.67665E-003,-6.79578E-002,1.00000E+000,34
1089,1317,2.07897E+001,-7.94670E-001,-2.67567E-002,1.06125E+001,-2.84127E-001,-4.48450E-002,1.06164E+001,1.71235E-002,4.36960E-001,0,1.60360E+002,-5.73573E+000,9.98098E-001,1.22755E+002,-3.56161E+001,9.97491E-001,2.10108E-001,-8.78459E-002,-2.01730E-003,2.10122E-001,-8.78596E-002,-3.87898E-001,2.11059E-001,1.23340E+000,-3.22450E-002,0.00000E+000,2.00100E-002,9.17797E-001,0.00000E+000,1.97297E-003,-6.79520E-002,1.00000E+000,34
1089,1297,2.08051E+001,-1.95449E+000,1.37108E-001,1.06460E+001,-1.57615E-001,6.30913E-002,1.06474E+001,1.52196E-002,4.43164E-001,0,1.60421E+002,-3.90743E+000,9.98240E-001,1.23139E+002,-3.39612E+001,9.97802E-001,2.08665E-001,-8.78152E-002,-1.65240E-003,2.08674E-001,-8.78244E-002,-3.19319E-001,2.09543E-001,1.23162E+000,-3.22699E-002,0.00000E+000,2.07056E-002,9.17807E-001,0.00000E+000,2.56428E-003,-6.79437E-002,1.00000E+000,34
1089,1307,2.07948E+001,-1.38005E+000,3.68726E-002,1.06292E+001,-2.24431E-001,1.44234E-003,1.06316E+001,1.47237E-002,4.27792E-001,0,1.60425E+002,-4.86026E+000,9.98591E-001,1.22876E+002,-3.48409E+001,9.98382E-001,2.09386E-001,-8.78290E-002,-1.83591E-003,2.09397E-001,-8.78404E-002,-3.53901E-001,2.10300E-001,1.23251E+000,-3.22609E-002,0.00000E+000,2.03584E-002,9.17803E-001,0.00000E+000,2.26917E-003,-6.79467E-002,1.00000E+000,34
769,1317,-5.12471E+000,-1.21663E+000,1.52863E-001,5.57565E+000,-5.23171E-001,1.82275E-001,5.60310E+000,2.47597E-002,5.27016E-001,0,8.57879E+001,-9.23907E+000,9.98043E-001,4.17118E+001,-4.58338E+001,9.97634E-001,2.11174E-001,-9.02372E-002,-4.56874E-005,2.11174E-001,-9.02373E-002,-8.68479E-003,2.11916E-001,1.23511E+000,-6.30894E-003,0.00000E+000,4.65157E-003,9.16819E-001,0.00000E+000,-1.12934E-003,-8.26563E-002,1.00000E+000,34
1099,1327,2.15880E+001,-1.81755E-001,-8.30394E-002,1.07406E+001,-3.22236E-001,-7.90519E-002,1.07457E+001,2.08458E-002,4.43955E-001,0,1.62295E+002,-6.31995E+000,9.94109E-001,1.25170E+002,-3.58801E+001,9.91375E-001,2.11970E-001,-8.82019E-002,-2.34139E-003,2.11988E-001,-8.82202E-002,-4.46881E-001,2.12979E-001,1.23573E+000,-3.12838E-002,0.00000E+000,1.86344E-002,9.17506E-001,0.00000E+000,2.13856E-003,-6.80379E-002,1.00000E+000,34
1099,1337,2.15968E+001,4.21411E-001,-9.54425E-002,1.07292E+001,-3.70208E-001,-1.08417E-001,1.07362E+001,2.03965E-002,4.60483E-001,0,1.62226E+002,-7.04588E+000,9.95085E-001,1.25344E+002,-3.64865E+001,9.94260E-001,2.12851E-001,-8.82236E-002,-2.51691E-003,2.12872E-001,-8.82446E-002,-4.78935E-001,2.13905E-001,1.23682E+000,-3.12505E-002,0.00000E+000,1.82889E-002,9.17496E-001,0.00000E+000,1.71225E-003,-6.80509E-002,1.00000E+000,34
1099,1347,2.16081E+001,1.02230E+000,-8.53397E-002,1.07141E+001,-4.23650E-001,-1.41220E-001,1.07234E+001,1.59374E-002,4.51738E-001,0,1.62107E+002,-7.84710E+000,9.96840E-001,1.25593E+002,-3.71932E+001,9.96222E-001,2.13732E-001,-8.82490E-002,-2.68875E-003,2.13756E-001,-8.82730E-002,-5.10090E-001,2.14833E-001,1.23791E+000,-3.12069E-002,0.00000E+000,1.79426E-002,9.17482E-001,0.00000E+000,1.28497E-003,-6.80680E-002,1.00000E+000,34
759,1347,-5.88207E+000,5.24489E-001,6.15311E-003,5.42574E+000,-6.97924E-001,2.68317E-002,5.47051E+000,1.50685E-002,4.98340E-001,0,8.40261E+001,-1.16854E+001,9.95310E-001,4.00525E+001,-4.88045E+001,9.95013E-001,2.10605E-001,-8.97379E-002,-1.57228E-003,2.10613E-001,-8.97461E-002,-2.99929E-001,2.11378E-001,1.23441E+000,-6.82179E-003,0.00000E+000,2.35853E-003,9.17217E-001,0.00000E+000,-3.24260E-003,-8.16965E-002,1.00000E+000,34
759,1357,-5.86332E+000,1.12140E+000,2.51054E-002,5.41996E+000,-7.51894E-001,-1.98354E-002,5.47190E+000,1.63531E-002,5.32436E-001,0,8.40712E+001,-1.24560E+001,9.96077E-001,4.05072E+001,-4.96333E+001,9.95176E-001,2.10865E-001,-8.97711E-002,-1.95939E-003,2.10878E-001,-8.97838E-002,-3.73403E-001,2.11652E-001,1.23474E+000,-6.80950E-003,0.00000E+000,1.68840E-003,9.17192E-001,0.00000E+000,-4.03239E-003,-8.17263E-002,1.00000E+000,34
1099,1297,2.16108E+001,-1.94411E+000,1.15061E-001,1.07943E+001,-1.52338E-001,4.90466E-002,1.07955E+001,1.47332E-002,4.87713E-001,0,1.62582E+002,-3.82738E+000,9.97151E-001,1.25666E+002,-3.36342E+001,9.95738E-001,2.09339E-001,-8.81545E-002,-1.79932E-003,2.09350E-001,-8.81654E-002,-3.46523E-001,2.10217E-001,1.23248E+000,-3.13352E-002,0.00000E+000,1.96638E-002,9.17522E-001,0.00000E+000,3.40882E-003,-6.80177E-002,1.00000E+000,34
1099,1307,2.16059E+001,-1.35952E+000,3.06574E-002,1.07828E+001,-2.09626E-001,3.33896E-003,1.07849E+001,1.68026E-002,4.50140E-001,0,1.62601E+002,-4.65164E+000,9.97839E-001,1.25514E+002,-3.43986E+001,9.97174E-001,2.10216E-001,-8.81681E-002,-1.98212E-003,2.10229E-001,-8.81813E-002,-3.80585E-001,2.11136E-001,1.23356E+000,-3.13242E-002,0.00000E+000,1.93213E-002,9.17519E-001,0.00000E+000,2.98618E-003,-6.80221E-002,1.00000E+000,34
1099,1317,2.15952E+001,-7.74095E-001,-4.62002E-002,1.07616E+001,-2.68285E-001,-5.09309E-002,1.07651E+001,2.17300E-002,4.53139E-001,0,1.62502E+002,-5.49814E+000,9.96298E-001,1.25283E+002,-3.51464E+001,9.94613E-001,2.11093E-001,-8.81840E-002,-2.16268E-003,2.11108E-001,-8.81996E-002,-4.14010E-001,2.12057E-001,1.23465E+000,-3.13067E-002,0.00000E+000,1.89782E-002,9.17513E-001,0.00000E+000,2.56279E-003,-6.80289E-002,1.00000E+000,34
759,1327,-5.91918E+000,-6.63421E-001,7.34318E-002,5.41810E+000,-5.99846E-001,1.23123E-001,5.45260E+000,1.79174E-002,5.30319E-001,0,8.36132E+001,-1.03465E+001,9.96799E-001,3.94097E+001,-4.72424E+001,9.97192E-001,2.10084E-001,-8.96947E-002,-7.99572E-004,2.10086E-001,-8.96969E-002,-1.52818E-001,2.10832E-001,1.23376E+000,-6.83658E-003,0.00000E+000,3.68960E-003,9.17247E-001,0.00000E+000,-1.67386E-003,-8.16607E-002,1.00000E+000,34
759,1337,-5.90092E+000,-6.83437E-002,2.80319E-002,5.42416E+000,-6.46163E-001,7.64762E-002,5.46304E+000,1.47841E-002,5.13273E-001,0,8.38513E+001,-1.09708E+001,9.95629E-001,3.96977E+001,-4.79805E+001,9.95759E-001,2.10344E-001,-8.97134E-002,-1.18600E-003,2.10349E-001,-8.97181E-002,-2.26460E-001,2.11105E-001,1.23409E+000,-6.83045E-003,0.00000E+000,3.02480E-003,9.17235E-001,0.00000E+000,-2.45737E-003,-8.16756E-002,1.00000E+000,34
759,1317,-5.92204E+000,-1.23735E+000,1.48955E-001,5.42228E+000,-5.38341E-001,1.73038E-001,5.45169E+000,2.32102E-002,5.65207E-001,0,8.35129E+001,-9.47088E+000,9.97120E-001,3.94375E+001,-4.62327E+001,9.97193E-001,2.09824E-001,-8.96822E-002,-4.14620E-004,2.09825E-001,-8.96827E-002,-7.93168E-002,2.10560E-001,1.23344E+000,-6.84012E-003,0.00000E+000,4.35011E-003,9.17254E-001,0.00000E+000,-8.95412E-004,-8.16522E-002,1.00000E+000,34
749,1317,-6.70761E+000,-1.23981E+000,1.69846E-001,5.27905E+000,-5.37531E-001,1.82342E-001,5.30948E+000,1.71149E-002,5.67559E-001,0,8.13272E+001,-9.45590E+000,9.97424E-001,3.74151E+001,-4.64192E+001,9.96223E-001,2.08443E-001,-8.92084E-002,-6.52633E-004,2.08445E-001,-8.92099E-002,-1.25626E-001,2.09164E-001,1.23174E+000,-6.76427E-003,0.00000E+000,3.86680E-003,9.17640E-001,0.00000E+000,-9.73625E-004,-8.09608E-002,1.00000E+000,34
749,1327,-6.70440E+000,-6.62829E-001,7.57816E-002,5.27684E+000,-5.95228E-001,1.22000E-001,5.31170E+000,1.42398E-002,5.28777E-001,0,8.14891E+001,-1.02380E+001,9.96207E-001,3.73468E+001,-4.73464E+001,9.96341E-001,2.08490E-001,-8.92159E-002,-9.30847E-004,2.08493E-001,-8.92189E-002,-1.79146E-001,2.09214E-001,1.23180E+000,-6.76377E-003,0.00000E+000,3.39013E-003,9.17636E-001,0.00000E+000,-1.52156E-003,-8.09654E-002,1.00000E+000,34
749,1337,-6.69523E+000,-7.14344E-002,2.97345E-002,5.27413E+000,-6.44190E-001,7.57563E-002,5.31387E+000,1.42625E-002,5.64906E-001,0,8.15907E+001,-1.09400E+001,9.96171E-001,3.74928E+001,-4.81165E+001,9.96284E-001,2.08536E-001,-8.92290E-002,-1.21031E-003,2.08541E-001,-8.92339E-002,-2.32882E-001,2.09262E-001,1.23186E+000,-6.76269E-003,0.00000E+000,2.91092E-003,9.17627E-001,0.00000E+000,-2.07241E-003,-8.09756E-002,1.00000E+000,34
749,1347,-6.68044E+000,5.18511E-001,4.15140E-003,5.27252E+000,-6.97632E-001,2.60915E-002,5.31854E+000,1.58764E-002,5.09005E-001,0,8.17167E+001,-1.16662E+001,9.96460E-001,3.77767E+001,-4.89997E+001,9.96384E-001,2.08582E-001,-8.92459E-002,-1.49024E-003,2.08589E-001,-8.92533E-002,-2.86681E-001,2.09311E-001,1.23192E+000,-6.76121E-003,0.00000E+000,2.43065E-003,9.17615E-001,0.00000E+000,-2.62447E-003,-8.09896E-002,1.00000E+000,34
1109,1297,2.24232E+001,-1.92681E+000,1.09603E-001,1.09504E+001,-1.37966E-001,5.84649E-002,1.09514E+001,1.55042E-002,5.00760E-001,0,1.64762E+002,-3.66185E+000,9.95957E-001,1.28327E+002,-3.32501E+001,9.93737E-001,2.10216E-001,-8.87590E-002,-1.83628E-003,2.10227E-001,-8.87703E-002,-3.51889E-001,2.11072E-001,1.23361E+000,-2.97464E-002,0.00000E+000,1.83363E-002,9.16993E-001,0.00000E+000,4.22565E-003,-6.79867E-002,1.00000E+000,34
1109,1307,2.24147E+001,-1.34121E+000,2.20855E-002,1.09354E+001,-1.94158E-001,9.84564E-003,1.09372E+001,1.76284E-002,4.30129E-001,0,1.64741E+002,-4.45122E+000,9.96646E-001,1.28117E+002,-3.40072E+001,9.96000E-001,2.11159E-001,-8.87694E-002,-1.97698E-003,2.11172E-001,-8.87824E-002,-3.77644E-001,2.12062E-001,1.23477E+000,-2.97345E-002,0.00000E+000,1.80852E-002,9.16990E-001,0.00000E+000,3.57666E-003,-6.79933E-002,1.00000E+000,34
1109,1317,2.24056E+001,-7.54319E-001,-4.80694E-002,1.09159E+001,-2.51690E-001,-3.69889E-002,1.09189E+001,2.02570E-002,4.28346E-001,0,1.64639E+002,-5.29170E+000,9.95155E-001,1.27922E+002,-3.47473E+001,9.94110E-001,2.12104E-001,-8.87815E-002,-2.11538E-003,2.12119E-001,-8.87964E-002,-4.02792E-001,2.13053E-001,1.23594E+000,-2.97159E-002,0.00000E+000,1.78333E-002,9.16986E-001,0.00000E+000,2.92600E-003,-6.80037E-002,1.00000E+000,34
749,1357,-6.65622E+000,1.11432E+000,2.83267E-002,5.27271E+000,-7.51913E-001,-1.38477E-002,5.32607E+000,1.90695E-002,5.31485E-001,0,8.18329E+001,-1.24568E+001,9.96566E-001,3.83305E+001,-4.98639E+001,9.95882E-001,2.08628E-001,-8.92693E-002,-1.77165E-003,2.08638E-001,-8.92799E-002,-3.40733E-001,2.09360E-001,1.23198E+000,-6.75903E-003,0.00000E+000,1.94739E-003,9.17597E-001,0.00000E+000,-3.17998E-003,-8.10100E-002,1.00000E+000,34
1109,1327,2.23991E+001,-1.65026E-001,-9.10837E-002,1.08942E+001,-3.09790E-001,-7.64381E-002,1.08989E+001,1.82082E-002,4.10499E-001,0,1.64468E+002,-6.14683E+000,9.93748E-001,1.27809E+002,-3.55174E+001,9.92407E-001,2.13050E-001,-8.87959E-002,-2.25077E-003,2.13066E-001,-8.88127E-002,-4.27206E-001,2.14047E-001,1.23710E+000,-2.96888E-002,0.00000E+000,1.75808E-002,9.16980E-001,0.00000E+000,2.27359E-003,-6.80189E-002,1.00000E+000,34
1109,1337,2.24013E+001,4.38855E-001,-1.07275E-001,1.08758E+001,-3.57665E-001,-1.10850E-001,1.08822E+001,1.93952E-002,4.50588E-001,0,1.64314E+002,-6.86827E+000,9.96299E-001,1.27873E+002,-3.60916E+001,9.95878E-001,2.13998E-001,-8.88128E-002,-2.38310E-003,2.14017E-001,-8.88316E-002,-4.50876E-001,2.15044E-001,1.23828E+000,-2.96521E-002,0.00000E+000,1.73272E-002,9.16972E-001,0.00000E+000,1.61814E-003,-6.80393E-002,1.00000E+000,34
1109,1347,2.24203E+001,1.03954E+000,-7.60402E-002,1.08647E+001,-4.13858E-001,-1.36432E-001,1.08735E+001,1.81502E-002,4.70279E-001,0,1.64223E+002,-7.73878E+000,9.96946E-001,1.28271E+002,-3.68318E+001,9.95700E-001,2.14949E-001,-8.88343E-002,-2.50944E-003,2.14970E-001,-8.88550E-002,-4.73257E-001,2.16043E-001,1.23946E+000,-2.95989E-002,0.00000E+000,1.70724E-002,9.16961E-001,0.00000E+000,9.59950E-004,-6.80691E-002,1.00000E+000,34
739,1337,-7.48585E+000,-8.59550E-002,3.01490E-002,5.12754E+000,-6.52949E-001,7.44990E-002,5.16949E+000,1.63628E-002,5.58746E-001,0,7.93849E+001,-1.10560E+001,9.95933E-001,3.53449E+001,-4.84543E+001,9.95707E-001,2.06651E-001,-8.84115E-002,-1.36526E-003,2.06657E-001,-8.84178E-002,-2.65100E-001,2.07373E-001,1.22954E+000,-6.81215E-003,0.00000E+000,2.65182E-003,9.18360E-001,0.00000E+000,-1.80041E-003,-8.07125E-002,1.00000E+000,34
739,1347,-7.47802E+000,5.08075E-001,5.74711E-003,5.11942E+000,-7.01985E-001,2.75978E-002,5.16740E+000,1.25145E-002,5.26422E-001,0,7.93999E+001,-1.17282E+001,9.97992E-001,3.55267E+001,-4.92684E+001,9.97831E-001,2.06450E-001,-8.84291E-002,-1.66813E-003,2.06460E-001,-8.84385E-002,-3.24108E-001,2.07165E-001,1.22929E+000,-6.81818E-003,0.00000E+000,2.14091E-003,9.18347E-001,0.00000E+000,-2.42670E-003,-8.07279E-002,1.00000E+000,34
739,1357,-7.45357E+000,1.10809E+000,2.95834E-002,5.12043E+000,-7.51410E-001,-1.07210E-002,5.17528E+000,1.40340E-002,5.19970E-001,0,7.95223E+001,-1.24340E+001,9.97225E-001,3.60865E+001,-5.00833E+001,9.97058E-001,2.06248E-001,-8.84535E-002,-1.97389E-003,2.06261E-001,-8.84668E-002,-3.83740E-001,2.06955E-001,1.22905E+000,-6.82703E-003,0.00000E+000,1.62708E-003,9.18328E-001,0.00000E+000,-3.05658E-003,-8.07506E-002,1.00000E+000,34
739,1327,-7.49749E+000,-6.70002E-001,8.29923E-002,5.12764E+000,-5.96616E-001,1.27356E-001,5.16381E+000,1.52048E-002,5.02120E-001,0,7.92216E+001,-1.02475E+001,9.97879E-001,3.51794E+001,-4.75944E+001,9.97850E-001,2.06851E-001,-8.83978E-002,-1.06358E-003,2.06855E-001,-8.84016E-002,-2.06394E-001,2.07581E-001,1.22978E+000,-6.80770E-003,0.00000E+000,3.16182E-003,9.18369E-001,0.00000E+000,-1.17524E-003,-8.07011E-002,1.00000E+000,34
1119,1297,2.32308E+001,-1.91116E+000,9.83694E-002,1.11015E+001,-1.25437E-001,6.23887E-002,1.11023E+001,1.65738E-002,4.36760E-001,0,1.66884E+002,-3.47116E+000,9.97690E-001,1.30911E+002,-3.29184E+001,9.96953E-001,2.11386E-001,-8.86946E-002,-2.06322E-003,2.11401E-001,-8.87088E-002,-3.93914E-001,2.12309E-001,1.23509E+000,-2.84063E-002,0.00000E+000,1.69046E-002,9.17102E-001,0.00000E+000,4.11253E-003,-6.83313E-002,1.00000E+000,34
1119,1307,2.32242E+001,-1.32680E+000,1.99669E-002,1.10869E+001,-1.83993E-001,1.72391E-002,1.10884E+001,1.54313E-002,4.15362E-001,0,1.66855E+002,-4.32771E+000,9.97477E-001,1.30743E+002,-3.36879E+001,9.97450E-001,2.12238E-001,-8.87006E-002,-2.13735E-003,2.12253E-001,-8.87158E-002,-4.06903E-001,2.13203E-001,1.23614E+000,-2.83933E-002,0.00000E+000,1.67855E-002,9.17101E-001,0.00000E+000,3.36526E-003,-6.83406E-002,1.00000E+000,34
1119,1317,2.32214E+001,-7.38144E-001,-4.97805E-002,1.10728E+001,-2.40005E-001,-3.23250E-002,1.10755E+001,1.63834E-002,4.02622E-001,0,1.66846E+002,-5.14156E+000,9.96413E-001,1.30648E+002,-3.44045E+001,9.96529E-001,2.13090E-001,-8.87075E-002,-2.20960E-003,2.13106E-001,-8.87237E-002,-4.19460E-001,2.14098E-001,1.23719E+000,-2.83752E-002,0.00000E+000,1.66662E-002,9.17099E-001,0.00000E+000,2.61687E-003,-6.83535E-002,1.00000E+000,34
1119,1327,2.32164E+001,-1.46676E-001,-9.03741E-002,1.10517E+001,-2.96371E-001,-7.24212E-002,1.10559E+001,1.51462E-002,3.79235E-001,0,1.66686E+002,-5.97035E+000,9.96164E-001,1.30561E+002,-3.51470E+001,9.96376E-001,2.13943E-001,-8.87156E-002,-2.27906E-003,2.13960E-001,-8.87328E-002,-4.31412E-001,2.14995E-001,1.23824E+000,-2.83494E-002,0.00000E+000,1.65465E-002,9.17096E-001,0.00000E+000,1.86619E-003,-6.83719E-002,1.00000E+000,34
1119,1337,2.32185E+001,4.49121E-001,-1.06520E-001,1.10324E+001,-3.53259E-001,-1.09357E-001,1.10386E+001,1.39164E-002,4.37771E-001,0,1.66532E+002,-6.82927E+000,9.97726E-001,1.30621E+002,-3.58360E+001,9.97482E-001,2.14799E-001,-8.87252E-002,-2.34565E-003,2.14817E-001,-8.87434E-002,-4.42750E-001,2.15895E-001,1.23930E+000,-2.83151E-002,0.00000E+000,1.64262E-002,9.17092E-001,0.00000E+000,1.11138E-003,-6.83963E-002,1.00000E+000,34
1119,1347,2.32324E+001,1.04860E+000,-8.20412E-002,1.10168E+001,-4.09987E-001,-1.38785E-001,1.10253E+001,2.02021E-002,4.18163E-001,0,1.66389E+002,-7.68735E+000,9.97742E-001,1.30927E+002,-3.65984E+001,9.96601E-001,2.15655E-001,-8.87370E-002,-2.40737E-003,2.15674E-001,-8.87561E-002,-4.53102E-001,2.16797E-001,1.24036E+000,-2.82680E-002,0.00000E+000,1.63056E-002,9.17087E-001,0.00000E+000,3.54818E-004,-6.84298E-002,1.00000E+000,34
739,1317,-7.49453E+000,-1.24326E+000,1.70828E-001,5.13567E+000,-5.35945E-001,1.79965E-001,5.16669E+000,1.85011E-002,5.45931E-001,0,7.91734E+001,-9.40104E+000,9.97675E-001,3.53282E+001,-4.65911E+001,9.97042E-001,2.07049E-001,-8.83901E-002,-7.64816E-004,2.07051E-001,-8.83921E-002,-1.48323E-001,2.07787E-001,1.23002E+000,-6.80577E-003,0.00000E+000,3.66860E-003,9.18373E-001,0.00000E+000,-5.54022E-004,-8.06962E-002,1.00000E+000,34
1129,1297,2.40353E+001,-1.88674E+000,9.38750E-002,1.12478E+001,-1.04698E-001,6.82442E-002,1.12485E+001,1.66205E-002,3.86950E-001,0,1.68920E+002,-3.16727E+000,9.98522E-001,1.33463E+002,-3.24583E+001,9.97752E-001,2.12332E-001,-8.88376E-002,-2.37944E-003,2.12351E-001,-8.88564E-002,-4.52638E-001,2.13290E-001,1.23628E+000,-2.72319E-002,0.00000E+000,1.54481E-002,9.17026E-001,0.00000E+000,3.74928E-003,-6.87487E-002,1.00000E+000,34
1129,1307,2.40288E+001,-1.31426E+000,5.27706E-003,1.12331E+001,-1.75281E-001,1.21902E-002,1.12344E+001,2.31780E-002,3.55422E-001,0,1.68938E+002,-4.18338E+000,9.98218E-001,1.33281E+002,-3.33939E+001,9.95142E-001,2.13218E-001,-8.88386E-002,-2.37935E-003,2.13237E-001,-8.88573E-002,-4.51291E-001,2.14221E-001,1.23737E+000,-2.72179E-002,0.00000E+000,1.54754E-002,9.17026E-001,0.00000E+000,2.86020E-003,-6.87601E-002,1.00000E+000,34
1129,1317,2.40322E+001,-7.27590E-001,-5.49085E-002,1.12246E+001,-2.33696E-001,-2.93874E-002,1.12271E+001,1.36689E-002,3.55586E-001,0,1.68982E+002,-5.05950E+000,9.98221E-001,1.33294E+002,-3.41529E+001,9.96136E-001,2.14105E-001,-8.88396E-002,-2.37706E-003,2.14124E-001,-8.88583E-002,-4.49535E-001,2.15153E-001,1.23847E+000,-2.71982E-002,0.00000E+000,1.55028E-002,9.17026E-001,0.00000E+000,1.96946E-003,-6.87761E-002,1.00000E+000,34
729,1347,-8.25616E+000,4.91929E-001,1.60591E-002,4.98419E+000,-7.13469E-001,3.16931E-002,5.03509E+000,1.13324E-002,5.32308E-001,0,7.73490E+001,-1.18961E+001,9.98801E-001,3.36016E+001,-4.96471E+001,9.98501E-001,2.04232E-001,-8.77544E-002,-1.48892E-003,2.04239E-001,-8.77620E-002,-2.92158E-001,2.04911E-001,1.22657E+000,-6.13456E-003,0.00000E+000,1.98272E-003,9.18912E-001,0.00000E+000,-2.50154E-003,-7.99926E-002,1.00000E+000,34
729,1357,-8.24092E+000,1.09947E+000,2.94079E-002,4.97734E+000,-7.54424E-001,-1.10101E-002,5.03420E+000,1.33302E-002,5.30655E-001,0,7.73613E+001,-1.24583E+001,9.97759E-001,3.39972E+001,-5.03240E+001,9.97878E-001,2.03707E-001,-8.77724E-002,-1.73506E-003,2.03717E-001,-8.77827E-002,-3.41042E-001,2.04365E-001,1.22593E+000,-6.15624E-003,0.00000E+000,1.61137E-003,9.18900E-001,0.00000E+000,-3.42207E-003,-8.00238E-002,1.00000E+000,34
1129,1327,2.40337E+001,-1.32160E-001,-9.23675E-002,1.12105E+001,-2.85456E-001,-6.41379E-002,1.12144E+001,1.66608E-002,3.59724E-001,0,1.68905E+002,-5.85303E+000,9.97798E-001,1.33314E+002,-3.48245E+001,9.97299E-001,2.14991E-001,-8.88409E-002,-2.37226E-003,2.15010E-001,-8.88594E-002,-4.47317E-001,2.16085E-001,1.23956E+000,-2.71721E-002,0.00000E+000,1.55303E-002,9.17027E-001,0.00000E+000,1.07712E-003,-6.87974E-002,1.00000E+000,34
729,1337,-8.27657E+000,-9.20981E-002,3.84911E-002,4.98077E+000,-6.53142E-001,8.28749E-002,5.02409E+000,1.48170E-002,5.23897E-001,0,7.71413E+001,-1.10448E+001,9.97173E-001,3.32231E+001,-4.86948E+001,9.96508E-001,2.04753E-001,-8.77401E-002,-1.24570E-003,2.04759E-001,-8.77454E-002,-2.44011E-001,2.05455E-001,1.22721E+000,-6.11787E-003,0.00000E+000,2.35275E-003,9.18922E-001,0.00000E+000,-1.58426E-003,-7.99686E-002,1.00000E+000,34
729,1327,-8.28586E+000,-6.75293E-001,8.70345E-002,4.98221E+000,-5.97906E-001,1.26832E-001,5.01956E+000,1.50247E-002,5.05757E-001,0,7.70264E+001,-1.02371E+001,9.97112E-001,3.30823E+001,-4.77908E+001,9.96645E-001,2.05271E-001,-8.77303E-002,-1.00632E-003,2.05274E-001,-8.77337E-002,-1.96781E-001,2.05995E-001,1.22784E+000,-6.10730E-003,0.00000E+000,2.72068E-003,9.18928E-001,0.00000E+000,-6.72179E-004,-7.99534E-002,1.00000E+000,34
1129,1337,2.40463E+001,4.63212E-001,-9.85867E-002,1.11957E+001,-3.47712E-001,-1.14681E-001,1.12017E+001,1.92688E-002,4.37771E-001,0,1.68866E+002,-6.75561E+000,9.97094E-001,1.33551E+002,-3.55295E+001,9.97088E-001,2.15886E-001,-8.88427E-002,-2.35989E-003,2.15905E-001,-8.88609E-002,-4.43676E-001,2.17027E-001,1.24067E+000,-2.71265E-002,0.00000E+000,1.55580E-002,9.17028E-001,0.00000E+000,1.74211E-004,-6.88345E-002,1.00000E+000,34
729,1317,-8.28735E+000,-1.25240E+000,1.62588E-001,4.98717E+000,-5.39558E-001,1.74749E-001,5.01932E+000,1.64582E-002,5.48387E-001,0,7.69485E+001,-9.42628E+000,9.97210E-001,3.31312E+001,-4.68200E+001,9.96568E-001,2.05786E-001,-8.77235E-002,-7.69180E-004,2.05788E-001,-8.77255E-002,-1.50150E-001,2.06532E-001,1.22848E+000,-6.10094E-003,0.00000E+000,3.08781E-003,9.18932E-001,0.00000E+000,2.37909E-004,-7.99443E-002,1.00000E+000,34
1129,1347,2.40531E+001,1.07001E+000,-8.01380E-002,1.11757E+001,-3.95824E-001,-1.38537E-001,1.11835E+001,2.23062E-002,4.77381E-001,0,1.68637E+002,-7.52086E+000,9.96656E-001,1.33735E+002,-3.61349E+001,9.95632E-001,2.16776E-001,-8.88444E-002,-2.34798E-003,2.16794E-001,-8.88624E-002,-4.40150E-001,2.17965E-001,1.24178E+000,-2.70819E-002,0.00000E+000,1.55857E-002,9.17029E-001,0.00000E+000,-7.25109E-004,-6.88708E-002,1.00000E+000,34
719,1347,-9.04948E+000,4.93326E-001,1.65321E-002,4.83483E+000,-7.05933E-001,3.36612E-002,4.88621E+000,1.65317E-002,5.50276E-001,0,7.50787E+001,-1.17726E+001,9.97637E-001,3.14279E+001,-4.97306E+001,9.97649E-001,2.02506E-001,-8.73526E-002,-1.34993E-003,2.02513E-001,-8.73589E-002,-2.66829E-001,2.03147E-001,1.22446E+000,-5.20032E-003,0.00000E+000,1.53726E-003,9.19183E-001,0.00000E+000,-2.31509E-003,-7.86194E-002,1.00000E+000,34
719,1357,-9.03797E+000,1.08886E+000,3.08111E-002,4.82459E+000,-7.59183E-001,-7.27483E-003,4.88396E+000,1.49290E-002,5.28736E-001,0,7.50366E+001,-1.25096E+001,9.97625E-001,3.17683E+001,-5.06067E+001,9.97769E-001,2.01683E-001,-8.73635E-002,-1.51335E-003,2.01691E-001,-8.73715E-002,-2.99969E-001,2.02290E-001,1.22346E+000,-5.23376E-003,0.00000E+000,1.34976E-003,9.19176E-001,0.00000E+000,-3.53630E-003,-7.86601E-002,1.00000E+000,34
719,1337,-9.06686E+000,-9.44051E-002,3.49682E-002,4.83348E+000,-6.50521E-001,7.65899E-002,4.87766E+000,1.86862E-002,5.50833E-001,0,7.49296E+001,-1.09790E+001,9.95564E-001,3.10837E+001,-4.88198E+001,9.94788E-001,2.03323E-001,-8.73442E-002,-1.19096E-003,2.03328E-001,-8.73491E-002,-2.34754E-001,2.03998E-001,1.22546E+000,-5.17564E-003,0.00000E+000,1.72374E-003,9.19187E-001,0.00000E+000,-1.10060E-003,-7.85894E-002,1.00000E+000,34
719,1327,-9.07274E+000,-6.76868E-001,8.78243E-002,4.83792E+000,-5.95095E-001,1.23205E-001,4.87594E+000,1.38462E-002,5.46727E-001,0,7.48537E+001,-1.01807E+001,9.95330E-001,3.10061E+001,-4.79046E+001,9.94867E-001,2.04133E-001,-8.73385E-002,-1.03631E-003,2.04137E-001,-8.73422E-002,-2.03708E-001,2.04844E-001,1.22645E+000,-5.15972E-003,0.00000E+000,1.90929E-003,9.19190E-001,0.00000E+000,1.07910E-004,-7.85700E-002,1.00000E+000,34
719,1317,-9.07674E+000,-1.25579E+000,1.73092E-001,4.83923E+000,-5.39108E-001,1.75063E-001,4.87231E+000,1.79853E-002,5.41531E-001,0,7.47083E+001,-9.39876E+000,9.95267E-001,3.10416E+001,-4.70047E+001,9.94404E-001,2.04940E-001,-8.73350E-002,-8.85052E-004,2.04943E-001,-8.73377E-002,-1.73498E-001,2.05686E-001,1.22744E+000,-5.15149E-003,0.00000E+000,2.09452E-003,9.19192E-001,0.00000E+000,1.31428E-003,-7.85600E-002,1.00000E+000,34
1139,1297,2.48651E+001,-1.87813E+000,9.73455E-002,1.14175E+001,-9.94483E-002,7.62251E-002,1.14182E+001,1.08310E-002,3.38775E-001,0,1.71295E+002,-3.12734E+000,9.99108E-001,1.36423E+002,-3.22574E+001,9.98512E-001,2.13079E-001,-8.91058E-002,-2.62784E-003,2.13101E-001,-8.91287E-002,-4.98202E-001,2.14049E-001,1.23723E+000,-2.60261E-002,0.00000E+000,1.41387E-002,9.16848E-001,0.00000E+000,2.73699E-003,-6.94568E-002,1.00000E+000,34
1139,1307,2.48543E+001,-1.30695E+000,-4.56313E-003,1.13996E+001,-1.71380E-001,1.16000E-002,1.14009E+001,1.54962E-002,3.02936E-001,0,1.71304E+002,-4.13663E+000,9.98493E-001,1.36155E+002,-3.31854E+001,9.97514E-001,2.14094E-001,-8.91042E-002,-2.58686E-003,2.14116E-001,-8.91263E-002,-4.88796E-001,2.15114E-001,1.23848E+000,-2.60122E-002,0.00000E+000,1.42404E-002,9.16849E-001,0.00000E+000,1.85418E-003,-6.94666E-002,1.00000E+000,34
1139,1337,2.48629E+001,4.88779E-001,-9.62564E-002,1.13511E+001,-3.28074E-001,-1.10342E-001,1.13564E+001,1.92594E-002,4.94558E-001,0,1.71040E+002,-6.52072E+000,9.96118E-001,1.36302E+002,-3.50057E+001,9.95454E-001,2.17150E-001,-8.90966E-002,-2.43694E-003,2.17169E-001,-8.91159E-002,-4.55890E-001,2.18330E-001,1.24227E+000,-2.59031E-002,0.00000E+000,1.45481E-002,9.16858E-001,0.00000E+000,-8.14607E-004,-6.95435E-002,1.00000E+000,34
1139,1347,2.48832E+001,1.08693E+000,-7.03758E-002,1.13403E+001,-3.87988E-001,-1.43245E-001,1.13478E+001,1.96542E-002,5.10092E-001,0,1.70983E+002,-7.42938E+000,9.95932E-001,1.36705E+002,-3.57706E+001,9.94656E-001,2.18172E-001,-8.90930E-002,-2.37786E-003,2.18190E-001,-8.91114E-002,-4.43365E-001,2.19407E-001,1.24354E+000,-2.58437E-002,0.00000E+000,1.46514E-002,9.16863E-001,0.00000E+000,-1.71027E-003,-6.95853E-002,1.00000E+000,34
1139,1327,2.48572E+001,-1.17639E-001,-9.73748E-002,1.13728E+001,-2.78398E-001,-6.79804E-002,1.13764E+001,1.84729E-002,4.27680E-001,0,1.71218E+002,-5.77352E+000,9.97045E-001,1.36163E+002,-3.44512E+001,9.95436E-001,2.16128E-001,-8.90998E-002,-2.49325E-003,2.16148E-001,-8.91201E-002,-4.67978E-001,2.17254E-001,1.24100E+000,-2.59552E-002,0.00000E+000,1.44450E-002,9.16854E-001,0.00000E+000,7.95719E-005,-6.95067E-002,1.00000E+000,34
1139,1317,2.48448E+001,-7.17810E-001,-6.67095E-002,1.13793E+001,-2.27638E-001,-2.74849E-002,1.13816E+001,1.59713E-002,3.74813E-001,0,1.71163E+002,-5.00819E+000,9.98820E-001,1.35964E+002,-3.38658E+001,9.97054E-001,2.15109E-001,-8.91023E-002,-2.54320E-003,2.15130E-001,-8.91236E-002,-4.78947E-001,2.16182E-001,1.23973E+000,-2.59915E-002,0.00000E+000,1.43424E-002,9.16851E-001,0.00000E+000,9.69355E-004,-6.94812E-002,1.00000E+000,34
709,1347,-9.84919E+000,4.94285E-001,1.54466E-002,4.67873E+000,-6.98749E-001,3.44309E-002,4.73074E+000,1.63572E-002,5.43557E-001,0,7.27046E+001,-1.16392E+001,9.96874E-001,2.91578E+001,-4.98309E+001,9.96908E-001,2.00880E-001,-8.60320E-002,-1.52858E-003,2.00888E-001,-8.60402E-002,-3.05243E-001,2.01576E-001,1.22248E+000,-4.37601E-003,0.00000E+000,5.86077E-004,9.20328E-001,0.00000E+000,-2.18502E-003,-7.76305E-002,1.00000E+000,34
709,1357,-9.83217E+000,1.09155E+000,3.03080E-002,4.67478E+000,-7.48715E-001,-2.88497E-003,4.73436E+000,1.57789E-002,5.20509E-001,0,7.27479E+001,-1.23468E+001,9.97519E-001,2.95866E+001,-5.06836E+001,9.97695E-001,1.99916E-001,-8.60496E-002,-1.79727E-003,1.99927E-001,-8.60609E-002,-3.60079E-001,2.00571E-001,1.22130E+000,-4.41374E-003,0.00000E+000,2.16848E-004,9.20316E-001,0.00000E+000,-3.57606E-003,-7.76753E-002,1.00000E+000,34
709,1337,-9.85126E+000,-1.02965E-001,4.18122E-002,4.69107E+000,-6.54184E-001,7.72847E-002,4.73709E+000,1.50577E-002,5.44068E-001,0,7.27703E+001,-1.10178E+001,9.96492E-001,2.90659E+001,-4.90797E+001,9.96235E-001,2.01837E-001,-8.60195E-002,-1.26596E-003,2.01843E-001,-8.60251E-002,-2.51973E-001,2.02574E-001,1.22364E+000,-4.35007E-003,0.00000E+000,9.53593E-004,9.20336E-001,0.00000E+000,-8.00446E-004,-7.75998E-002,1.00000E+000,34
709,1317,-9.85984E+000,-1.25709E+000,1.93622E-001,4.69637E+000,-5.37513E-001,1.80890E-001,4.73049E+000,1.90142E-002,5.48408E-001,0,7.25260E+001,-9.36856E+000,9.96885E-001,2.90810E+001,-4.71708E+001,9.96707E-001,2.03731E-001,-8.60059E-002,-7.54634E-004,2.03733E-001,-8.60078E-002,-1.49228E-001,2.04554E-001,1.22596E+000,-4.32495E-003,0.00000E+000,1.68443E-003,9.20344E-001,0.00000E+000,1.95292E-003,-7.75700E-002,1.00000E+000,34
709,1327,-9.85258E+000,-6.80232E-001,1.05883E-001,4.69788E+000,-5.95173E-001,1.23818E-001,4.73705E+000,2.08450E-002,5.72080E-001,0,7.27292E+001,-1.01837E+001,9.96883E-001,2.90878E+001,-4.80899E+001,9.96542E-001,2.02786E-001,-8.60118E-002,-1.00922E-003,2.02790E-001,-8.60153E-002,-2.00220E-001,2.03566E-001,1.22480E+000,-4.33536E-003,0.00000E+000,1.31926E-003,9.20341E-001,0.00000E+000,5.77174E-004,-7.75823E-002,1.00000E+000,34
1149,1297,2.56791E+001,-1.87056E+000,8.23421E-002,1.15729E+001,-9.66245E-002,7.36804E-002,1.15736E+001,2.60662E-002,3.94725E-001,0,1.73498E+002,-3.11383E+000,9.97781E-001,1.39114E+002,-3.19833E+001,9.95107E-001,2.13687E-001,-8.92850E-002,-2.83136E-003,2.13713E-001,-8.93115E-002,-5.35383E-001,2.14671E-001,1.23800E+000,-2.48509E-002,0.00000E+000,1.29659E-002,9.16760E-001,0.00000E+000,1.34670E-003,-7.03329E-002,1.00000E+000,34
1149,1307,2.56850E+001,-1.27996E+000,7.65362E-004,1.15704E+001,-1.49127E-001,2.43758E-002,1.15714E+001,1.67751E-002,3.67988E-001,0,1.73667E+002,-3.87960E+000,9.98262E-001,1.39138E+002,-3.26449E+001,9.96880E-001,2.14842E-001,-8.92838E-002,-2.79418E-003,2.14867E-001,-8.93095E-002,-5.26350E-001,2.15884E-001,1.23943E+000,-2.48322E-002,0.00000E+000,1.30511E-002,9.16761E-001,0.00000E+000,5.41773E-004,-7.03434E-002,1.00000E+000,34
1149,1317,2.56786E+001,-6.93260E-001,-6.06522E-002,1.15510E+001,-2.09557E-001,-2.26225E-002,1.15529E+001,1.56205E-002,3.94991E-001,0,1.73570E+002,-4.77295E+000,9.98086E-001,1.38997E+002,-3.33853E+001,9.96454E-001,2.16000E-001,-8.92823E-002,-2.75306E-003,2.16025E-001,-8.93071E-002,-5.16643E-001,2.17102E-001,1.24086E+000,-2.48037E-002,0.00000E+000,1.31366E-002,9.16763E-001,0.00000E+000,-2.66908E-004,-7.03595E-002,1.00000E+000,34
1149,1327,2.56745E+001,-9.54022E-002,-1.09505E-001,1.15295E+001,-2.59739E-001,-7.48255E-002,1.15327E+001,1.68487E-002,3.81400E-001,0,1.73452E+002,-5.50355E+000,9.97564E-001,1.38912E+002,-3.40004E+001,9.95700E-001,2.17156E-001,-8.92805E-002,-2.70828E-003,2.17180E-001,-8.93044E-002,-5.06327E-001,2.18318E-001,1.24230E+000,-2.47656E-002,0.00000E+000,1.32222E-002,9.16765E-001,0.00000E+000,-1.07545E-003,-7.03809E-002,1.00000E+000,34
1149,1337,2.56860E+001,4.97917E-001,-1.07813E-001,1.15151E+001,-3.23859E-001,-1.09910E-001,1.15202E+001,2.52264E-002,4.86056E-001,0,1.73363E+002,-6.47621E+000,9.97131E-001,1.39140E+002,-3.47381E+001,9.96609E-001,2.18323E-001,-8.92781E-002,-2.65599E-003,2.18346E-001,-8.93011E-002,-4.94673E-001,2.19548E-001,1.24375E+000,-2.47092E-002,0.00000E+000,1.33087E-002,9.16768E-001,0.00000E+000,-1.89335E-003,-7.04127E-002,1.00000E+000,34
1149,1347,2.57142E+001,1.09782E+000,-7.09524E-002,1.15081E+001,-3.85159E-001,-1.46936E-001,1.15154E+001,2.33853E-002,4.80050E-001,0,1.73375E+002,-7.37696E+000,9.97517E-001,1.39678E+002,-3.55084E+001,9.96538E-001,2.19490E-001,-8.92753E-002,-2.59588E-003,2.19512E-001,-8.92971E-002,-4.81656E-001,2.20780E-001,1.24521E+000,-2.46327E-002,0.00000E+000,1.33954E-002,9.16773E-001,0.00000E+000,-2.71330E-003,-7.04558E-002,1.00000E+000,34
699,1347,-1.06240E+001,4.87906E-001,2.39250E-002,4.54562E+000,-7.01363E-001,3.70250E-002,4.59956E+000,1.70986E-002,5.55515E-001,0,7.06796E+001,-1.16550E+001,9.97667E-001,2.72977E+001,-5.00524E+001,9.97745E-001,1.99112E-001,-8.48585E-002,-1.33067E-003,1.99118E-001,-8.48647E-002,-2.68477E-001,1.99839E-001,1.22032E+000,-2.79203E-003,0.00000E+000,-2.46752E-004,9.21298E-001,0.00000E+000,-1.94196E-003,-7.60600E-002,1.00000E+000,34
699,1357,-1.06102E+001,1.07675E+000,3.56506E-002,4.53905E+000,-7.59265E-001,-1.69034E-003,4.60211E+000,1.68919E-002,5.68005E-001,0,7.06883E+001,-1.25008E+001,9.97458E-001,2.76702E+001,-5.10125E+001,9.97517E-001,1.98119E-001,-8.48725E-002,-1.56054E-003,1.98128E-001,-8.48811E-002,-3.15942E-001,1.98804E-001,1.21911E+000,-2.82982E-003,0.00000E+000,-5.63545E-004,9.21288E-001,0.00000E+000,-3.09611E-003,-7.60961E-002,1.00000E+000,34
699,1337,-1.06393E+001,-1.13400E-001,4.64117E-002,4.54487E+000,-6.59695E-001,7.70225E-002,4.59315E+000,1.25127E-002,5.26261E-001,0,7.05527E+001,-1.10750E+001,9.97697E-001,2.69920E+001,-4.93699E+001,9.97783E-001,2.00099E-001,-8.48483E-002,-1.10586E-003,2.00103E-001,-8.48526E-002,-2.22357E-001,2.00872E-001,1.22152E+000,-2.76524E-003,0.00000E+000,6.92721E-005,9.21305E-001,0.00000E+000,-7.90620E-004,-7.60343E-002,1.00000E+000,34
699,1317,-1.06496E+001,-1.25859E+000,2.08129E-001,4.54606E+000,-5.37184E-001,1.78487E-001,4.58117E+000,1.75920E-002,5.97232E-001,0,7.02499E+001,-9.34900E+000,9.97979E-001,2.70088E+001,-4.73075E+001,9.97550E-001,2.02049E-001,-8.48393E-002,-6.73385E-004,2.02051E-001,-8.48409E-002,-1.34484E-001,2.02913E-001,1.22391E+000,-2.74380E-003,0.00000E+000,6.95489E-004,9.21310E-001,0.00000E+000,1.49082E-003,-7.60138E-002,1.00000E+000,34
699,1327,-1.06443E+001,-6.82837E-001,1.08328E-001,4.54729E+000,-5.95944E-001,1.18478E-001,4.58771E+000,1.39174E-002,6.69067E-001,0,7.04578E+001,-1.01753E+001,9.97794E-001,2.69523E+001,-4.81962E+001,9.96757E-001,2.01073E-001,-8.48427E-002,-8.88766E-004,2.01076E-001,-8.48455E-002,-1.78101E-001,2.01891E-001,1.22271E+000,-2.75137E-003,0.00000E+000,3.81733E-004,9.21308E-001,0.00000E+000,3.47743E-004,-7.60211E-002,1.00000E+000,34
1159,1307,2.64933E+001,-1.27362E+000,-2.59044E-002,1.17195E+001,-1.46874E-001,1.00342E-002,1.17204E+001,2.05310E-002,3.75243E-001,0,1.75823E+002,-3.83937E+000,9.95034E-001,1.41730E+002,-3.23879E+001,9.93039E-001,2.15676E-001,-8.97574E-002,-2.86357E-003,2.15703E-001,-8.97843E-002,-5.37110E-001,2.16710E-001,1.24048E+000,-2.37646E-002,0.00000E+000,1.22008E-002,9.16392E-001,0.00000E+000,-7.95960E-004,-7.11449E-002,1.00000E+000,34
1159,1317,2.64979E+001,-6.75260E-001,-7.92885E-002,1.17109E+001,-1.96487E-001,-2.90272E-002,1.17126E+001,2.14400E-002,4.20559E-001,0,1.75852E+002,-4.58596E+000,9.95641E-001,1.41772E+002,-3.29520E+001,9.95270E-001,2.16928E-001,-8.97623E-002,-2.90731E-003,2.16955E-001,-8.97899E-002,-5.43078E-001,2.18026E-001,1.24204E+000,-2.37334E-002,0.00000E+000,1.21287E-002,9.16390E-001,0.00000E+000,-1.63721E-003,-7.11617E-002,1.00000E+000,34
1159,1327,2.65085E+001,-8.23656E-002,-1.02113E-001,1.17016E+001,-2.54347E-001,-6.45566E-002,1.17046E+001,1.45582E-002,4.07992E-001,0,1.75848E+002,-5.45572E+000,9.97827E-001,1.41951E+002,-3.36972E+001,9.97168E-001,2.18179E-001,-8.97686E-002,-2.94496E-003,2.18207E-001,-8.97968E-002,-5.47863E-001,2.19343E-001,1.24359E+000,-2.36864E-002,0.00000E+000,1.20565E-002,9.16388E-001,0.00000E+000,-2.48012E-003,-7.11872E-002,1.00000E+000,34
1159,1297,2.64935E+001,-1.85838E+000,5.37919E-002,1.17290E+001,-8.85913E-002,6.04781E-002,1.17295E+001,1.94093E-002,4.14167E-001,0,1.75751E+002,-2.98336E+000,9.96274E-001,1.41798E+002,-3.16268E+001,9.92461E-001,2.14430E-001,-8.97533E-002,-2.81669E-003,2.14457E-001,-8.97794E-002,-5.30489E-001,2.15401E-001,1.23894E+000,-2.37868E-002,0.00000E+000,1.22724E-002,9.16393E-001,0.00000E+000,3.99942E-005,-7.11328E-002,1.00000E+000,34
1159,1337,2.65311E+001,5.09734E-001,-9.45217E-002,1.16947E+001,-3.20176E-001,-1.07633E-001,1.16996E+001,1.90254E-002,4.38229E-001,0,1.75898E+002,-6.42940E+000,9.98938E-001,1.42359E+002,-3.45013E+001,9.98866E-001,2.19437E-001,-8.97769E-002,-2.97426E-003,2.19466E-001,-8.98055E-002,-5.51048E-001,2.20669E-001,1.24516E+000,-2.36168E-002,0.00000E+000,1.19837E-002,9.16385E-001,0.00000E+000,-3.32956E-003,-7.12248E-002,1.00000E+000,34
1159,1347,2.65477E+001,1.11138E+000,-7.29792E-002,1.16787E+001,-3.76892E-001,-1.49168E-001,1.16857E+001,2.08652E-002,4.17400E-001,0,1.75798E+002,-7.26529E+000,9.97868E-001,1.42693E+002,-3.52179E+001,9.97404E-001,2.20693E-001,-8.97857E-002,-3.00084E-003,2.20722E-001,-8.98147E-002,-5.53707E-001,2.21993E-001,1.24673E+000,-2.35400E-002,0.00000E+000,1.19109E-002,9.16381E-001,0.00000E+000,-4.17866E-003,-7.12664E-002,1.00000E+000,34
689,1347,-1.14066E+001,4.75573E-001,2.93679E-002,4.40401E+000,-7.10045E-001,3.40838E-002,4.46101E+000,1.43684E-002,5.88200E-001,0,6.85373E+001,-1.17666E+001,9.98432E-001,2.53164E+001,-5.03498E+001,9.97666E-001,1.97213E-001,-8.38722E-002,-1.30267E-003,1.97219E-001,-8.38782E-002,-2.65526E-001,1.97951E-001,1.21801E+000,-1.44931E-003,0.00000E+000,-1.20441E-003,9.22145E-001,0.00000E+000,-1.91324E-003,-7.51901E-002,1.00000E+000,34
689,1357,-1.13963E+001,1.06255E+000,2.90736E-002,4.39613E+000,-7.67321E-001,-4.89187E-003,4.46260E+000,1.58886E-002,5.52169E-001,0,6.85277E+001,-1.25855E+001,9.97928E-001,2.56030E+001,-5.13387E+001,9.98022E-001,1.96009E-001,-8.38860E-002,-1.56460E-003,1.96018E-001,-8.38948E-002,-3.20266E-001,1.96694E-001,1.21654E+000,-1.49003E-003,0.00000E+000,-1.59311E-003,9.22135E-001,0.00000E+000,-2.88441E-003,-7.52171E-002,1.00000E+000,34
689,1337,-1.14144E+001,-1.05154E-001,5.33909E-002,4.41152E+000,-6.46379E-001,8.09232E-002,4.45935E+000,1.56443E-002,5.45180E-001,0,6.85136E+001,-1.08665E+001,9.98353E-001,2.51319E+001,-4.93579E+001,9.98570E-001,1.98417E-001,-8.38604E-002,-1.04294E-003,1.98421E-001,-8.38643E-002,-2.11689E-001,1.99210E-001,1.21947E+000,-1.41485E-003,0.00000E+000,-8.14969E-004,9.22155E-001,0.00000E+000,-9.40208E-004,-7.51672E-002,1.00000E+000,34
1169,1327,2.73268E+001,-7.22699E-002,-1.10897E-001,1.18583E+001,-2.49885E-001,-6.83243E-002,1.18612E+001,1.35974E-002,4.20932E-001,0,1.78067E+002,-5.40909E+000,9.98503E-001,1.44729E+002,-3.34131E+001,9.98170E-001,2.18868E-001,-9.01150E-002,-2.89874E-003,2.18895E-001,-9.01422E-002,-5.37461E-001,2.20027E-001,1.24448E+000,-2.24746E-002,0.00000E+000,1.13374E-002,9.16098E-001,0.00000E+000,-4.00036E-003,-7.14503E-002,1.00000E+000,34
1169,1337,2.73529E+001,5.29852E-001,-9.47985E-002,1.18528E+001,-3.06014E-001,-1.10324E-001,1.18573E+001,1.72387E-002,4.38588E-001,0,1.78128E+002,-6.24656E+000,9.98825E-001,1.45201E+002,-3.40845E+001,9.98481E-001,2.20109E-001,-9.01274E-002,-2.95767E-003,2.20137E-001,-9.01556E-002,-5.46168E-001,2.21335E-001,1.24603E+000,-2.24011E-002,0.00000E+000,1.12039E-002,9.16092E-001,0.00000E+000,-4.77984E-003,-7.14873E-002,1.00000E+000,34
1169,1347,2.73820E+001,1.12806E+000,-5.86856E-002,1.18472E+001,-3.67821E-001,-1.44776E-001,1.18538E+001,1.77561E-002,4.16547E-001,0,1.78152E+002,-7.17287E+000,9.97585E-001,1.45748E+002,-3.48846E+001,9.97493E-001,2.21350E-001,-9.01407E-002,-3.01399E-003,2.21379E-001,-9.01699E-002,-5.54325E-001,2.22644E-001,1.24758E+000,-2.23203E-002,0.00000E+000,1.10701E-002,9.16085E-001,0.00000E+000,-5.56062E-003,-7.15279E-002,1.00000E+000,34
689,1327,-1.14371E+001,-6.91318E-001,1.01320E-001,4.39845E+000,-5.96469E-001,1.20654E-001,4.44034E+000,1.68472E-002,6.20646E-001,0,6.81905E+001,-1.01642E+001,9.97034E-001,2.47810E+001,-4.84456E+001,9.96782E-001,1.99607E-001,-8.38529E-002,-7.90816E-004,1.99609E-001,-8.38551E-002,-1.59846E-001,2.00457E-001,1.22092E+000,-1.39314E-003,0.00000E+000,-4.29265E-004,9.22160E-001,0.00000E+000,2.34835E-005,-7.51528E-002,1.00000E+000,34
1169,1317,2.73199E+001,-6.65604E-001,-7.57366E-002,1.18711E+001,-1.90076E-001,-2.22562E-002,1.18726E+001,2.61524E-002,3.45394E-001,0,1.78076E+002,-4.52559E+000,9.97241E-001,1.44625E+002,-3.27469E+001,9.97041E-001,2.17629E-001,-9.01061E-002,-2.82939E-003,2.17655E-001,-9.01321E-002,-5.26732E-001,2.18723E-001,1.24293E+000,-2.25206E-002,0.00000E+000,1.14705E-002,9.16102E-001,0.00000E+000,-3.22391E-003,-7.14273E-002,1.00000E+000,34
1169,1307,2.73129E+001,-1.26186E+000,-2.81763E-002,1.18786E+001,-1.40921E-001,1.68432E-002,1.18795E+001,2.07195E-002,3.92539E-001,0,1.78034E+002,-3.77527E+000,9.97244E-001,1.44536E+002,-3.20932E+001,9.95876E-001,2.16400E-001,-9.00987E-002,-2.75637E-003,2.16425E-001,-9.01234E-002,-5.15211E-001,2.17430E-001,1.24140E+000,-2.25548E-002,0.00000E+000,1.16021E-002,9.16105E-001,0.00000E+000,-2.45541E-003,-7.14100E-002,1.00000E+000,34
1169,1297,2.73160E+001,-1.84653E+000,6.16255E-002,1.18902E+001,-8.14972E-002,7.36441E-002,1.18907E+001,1.64271E-002,4.56550E-001,0,1.77964E+002,-2.94767E+000,9.97589E-001,1.44664E+002,-3.13411E+001,9.94883E-001,2.15169E-001,-9.00930E-002,-2.67777E-003,2.15193E-001,-9.01165E-002,-5.02550E-001,2.16137E-001,1.23987E+000,-2.25749E-002,0.00000E+000,1.17338E-002,9.16107E-001,0.00000E+000,-1.68689E-003,-7.14000E-002,1.00000E+000,34
689,1317,-1.14415E+001,-1.26698E+000,1.95499E-001,4.39786E+000,-5.39422E-001,1.74342E-001,4.43425E+000,1.92970E-002,5.82281E-001,0,6.80130E+001,-9.34517E+000,9.96906E-001,2.48365E+001,-4.75249E+001,9.94882E-001,2.00792E-001,-8.38496E-002,-5.44448E-004,2.00793E-001,-8.38507E-002,-1.09592E-001,2.01700E-001,1.22237E+000,-1.38442E-003,0.00000E+000,-4.42467E-005,9.22163E-001,0.00000E+000,9.85464E-004,-7.51470E-002,1.00000E+000,34
679,1347,-1.21975E+001,4.69446E-001,2.35701E-002,4.25552E+000,-7.07740E-001,2.98133E-002,4.31407E+000,2.35469E-002,5.96116E-001,0,6.62870E+001,-1.17426E+001,9.97015E-001,2.31842E+001,-5.05410E+001,9.96652E-001,1.95237E-001,-8.30002E-002,-1.32745E-003,1.95243E-001,-8.30065E-002,-2.73347E-001,1.95971E-001,1.21560E+000,1.27025E-005,0.00000E+000,-2.34960E-003,9.22900E-001,0.00000E+000,-1.97590E-003,-7.44920E-002,1.00000E+000,34
679,1357,-1.21688E+001,1.05744E+000,2.39933E-002,4.26767E+000,-7.65109E-001,-2.46243E-004,4.33571E+000,1.18096E-002,5.81557E-001,0,6.65631E+001,-1.25569E+001,9.98018E-001,2.37569E+001,-5.15043E+001,9.98113E-001,1.93706E-001,-8.30198E-002,-1.74721E-003,1.93717E-001,-8.30308E-002,-3.61738E-001,1.94374E-001,1.21375E+000,-3.43989E-005,0.00000E+000,-3.02750E-003,9.22882E-001,0.00000E+000,-2.97884E-003,-7.45174E-002,1.00000E+000,34
1179,1297,2.81272E+001,-1.84111E+000,3.21885E-002,1.20443E+001,-7.84737E-002,6.76629E-002,1.20448E+001,2.68597E-002,4.90493E-001,0,1.80154E+002,-2.92628E+000,9.98467E-001,1.47307E+002,-3.10815E+001,9.96094E-001,2.15639E-001,-9.02601E-002,-2.72837E-003,2.15663E-001,-9.02844E-002,-5.10977E-001,2.16613E-001,1.24047E+000,-2.17353E-002,0.00000E+000,1.11316E-002,9.15999E-001,0.00000E+000,-3.49102E-003,-7.19534E-002,1.00000E+000,34
1179,1307,2.81352E+001,-1.25423E+000,-4.01452E-002,1.20414E+001,-1.35001E-001,1.84431E-002,1.20421E+001,1.31016E-002,3.32017E-001,0,1.80318E+002,-3.71605E+000,9.98764E-001,1.47379E+002,-3.18805E+001,9.97253E-001,2.16777E-001,-9.02608E-002,-2.72182E-003,2.16801E-001,-9.02850E-002,-5.07862E-001,2.17807E-001,1.24189E+000,-2.17113E-002,0.00000E+000,1.11427E-002,9.15999E-001,0.00000E+000,-4.02884E-003,-7.19625E-002,1.00000E+000,34
1179,1317,2.81373E+001,-6.57398E-001,-1.24636E-001,1.20335E+001,-1.82647E-001,-3.89019E-002,1.20349E+001,2.85737E-002,3.31318E-001,0,1.80439E+002,-4.40446E+000,9.98676E-001,1.47340E+002,-3.24203E+001,9.98199E-001,2.17915E-001,-9.02615E-002,-2.71616E-003,2.17939E-001,-9.02855E-002,-5.04934E-001,2.19004E-001,1.24331E+000,-2.16895E-002,0.00000E+000,1.11539E-002,9.15999E-001,0.00000E+000,-4.56772E-003,-7.19708E-002,1.00000E+000,34
1179,1337,2.81804E+001,5.37226E-001,-1.03735E-001,1.20167E+001,-3.03957E-001,-1.19285E-001,1.20211E+001,1.45598E-002,4.04853E-001,0,1.80471E+002,-6.22417E+000,9.98491E-001,1.48123E+002,-3.38630E+001,9.97248E-001,2.20218E-001,-9.02643E-002,-2.67153E-003,2.20241E-001,-9.02873E-002,-4.92950E-001,2.21428E-001,1.24618E+000,-2.15604E-002,0.00000E+000,1.11765E-002,9.16000E-001,0.00000E+000,-5.66109E-003,-7.20199E-002,1.00000E+000,34
1179,1347,2.82223E+001,1.14276E+000,-6.22342E-002,1.20212E+001,-3.61301E-001,-1.57693E-001,1.20276E+001,1.44551E-002,4.17721E-001,0,1.80657E+002,-7.07380E+000,9.98554E-001,1.48875E+002,-3.45407E+001,9.98119E-001,2.21373E-001,-9.02659E-002,-2.64308E-003,2.21395E-001,-9.02883E-002,-4.85893E-001,2.22646E-001,1.24763E+000,-2.14797E-002,0.00000E+000,1.11879E-002,9.16001E-001,0.00000E+000,-6.21057E-003,-7.20506E-002,1.00000E+000,34
679,1327,-1.22208E+001,-6.97991E-001,1.12632E-001,4.25625E+000,-5.97389E-001,1.29990E-001,4.29994E+000,1.99240E-002,5.83420E-001,0,6.60007E+001,-1.01724E+001,9.96340E-001,2.28041E+001,-4.86997E+001,9.95666E-001,1.98265E-001,-8.29715E-002,-5.04776E-004,1.98266E-001,-8.29724E-002,-1.02837E-001,1.99142E-001,1.21929E+000,8.12721E-005,0.00000E+000,-1.00369E-003,9.22925E-001,0.00000E+000,1.53387E-005,-7.44549E-002,1.00000E+000,34
679,1337,-1.22063E+001,-1.12101E-001,5.24753E-002,4.26202E+000,-6.47565E-001,8.28921E-002,4.31173E+000,2.36766E-002,5.86017E-001,0,6.62318E+001,-1.08866E+001,9.97109E-001,2.29953E+001,-4.95541E+001,9.96950E-001,1.96756E-001,-8.29818E-002,-9.11244E-004,1.96759E-001,-8.29848E-002,-1.86638E-001,1.97560E-001,1.21745E+000,5.64759E-005,0.00000E+000,-1.67506E-003,9.22916E-001,0.00000E+000,-9.77934E-004,-7.44683E-002,1.00000E+000,34
1179,1327,2.81499E+001,-6.91543E-002,-1.20506E-001,1.20203E+001,-2.49468E-001,-6.94453E-002,1.20231E+001,1.91472E-002,3.99574E-001,0,1.80353E+002,-5.45166E+000,9.98763E-001,1.47584E+002,-3.32523E+001,9.96516E-001,2.19064E-001,-9.02628E-002,-2.69724E-003,2.19087E-001,-9.02863E-002,-4.99552E-001,2.20213E-001,1.24474E+000,-2.16337E-002,0.00000E+000,1.11651E-002,9.16000E-001,0.00000E+000,-5.11269E-003,-7.19920E-002,1.00000E+000,34
679,1317,-1.22263E+001,-1.27374E+000,2.08674E-001,4.25466E+000,-5.40711E-001,1.86201E-001,4.29292E+000,1.64011E-002,6.22302E-001,0,6.58016E+001,-9.40134E+000,9.97286E-001,2.28484E+001,-4.77437E+001,9.95825E-001,1.99766E-001,-8.29669E-002,-1.05029E-004,1.99766E-001,-8.29669E-002,-2.12841E-002,2.00719E-001,1.22112E+000,9.24704E-005,0.00000E+000,-3.34160E-004,9.22929E-001,0.00000E+000,1.00590E-003,-7.44488E-002,1.00000E+000,34
669,1327,-1.29981E+001,-7.15262E-001,1.12495E-001,4.12077E+000,-6.07851E-001,1.31844E-001,4.16745E+000,1.35060E-002,5.69399E-001,0,6.39372E+001,-1.03339E+001,9.98877E-001,2.08974E+001,-4.90800E+001,9.98484E-001,1.96803E-001,-8.22488E-002,-1.70866E-004,1.96803E-001,-8.22489E-002,-3.50827E-002,1.97685E-001,1.21750E+000,2.46930E-003,0.00000E+000,-2.16666E-003,9.23536E-001,0.00000E+000,-2.24147E-004,-7.36645E-002,1.00000E+000,34
669,1337,-1.29887E+001,-1.20779E-001,5.57792E-002,4.12115E+000,-6.51397E-001,8.58664E-002,4.17320E+000,1.43141E-002,5.88833E-001,0,6.40783E+001,-1.09255E+001,9.97839E-001,2.10231E+001,-4.98039E+001,9.97802E-001,1.94891E-001,-8.22601E-002,-6.59254E-004,1.94892E-001,-8.22617E-002,-1.36287E-001,1.95679E-001,1.21518E+000,2.43672E-003,0.00000E+000,-2.99297E-003,9.23524E-001,0.00000E+000,-1.16608E-003,-7.36778E-002,1.00000E+000,34
669,1347,-1.29740E+001,4.62133E-001,1.92330E-002,4.12389E+000,-7.07425E-001,4.35510E-002,4.18436E+000,1.28127E-002,5.67668E-001,0,6.42466E+001,-1.17243E+001,9.97531E-001,2.12815E+001,-5.07699E+001,9.97402E-001,1.92974E-001,-8.22753E-002,-1.15187E-003,1.92979E-001,-8.22801E-002,-2.39768E-001,1.93675E-001,1.21285E+000,2.39378E-003,0.00000E+000,-3.81890E-003,9.23509E-001,0.00000E+000,-2.10759E-003,-7.36951E-002,1.00000E+000,34
669,1357,-1.29490E+001,1.06072E+000,2.83731E-002,4.12951E+000,-7.54248E-001,4.96690E-003,4.19783E+000,1.35500E-002,5.59366E-001,0,6.44398E+001,-1.23917E+001,9.97346E-001,2.18257E+001,-5.15888E+001,9.97457E-001,1.91042E-001,-8.23013E-002,-1.65823E-003,1.91053E-001,-8.23113E-002,-3.47566E-001,1.91661E-001,1.21052E+000,2.32406E-003,0.00000E+000,-4.64925E-003,9.23484E-001,0.00000E+000,-3.05414E-003,-7.37234E-002,1.00000E+000,34
1189,1337,2.90134E+001,5.47695E-001,-1.19130E-001,1.21851E+001,-3.01057E-001,-1.36389E-001,1.21896E+001,1.80960E-002,4.13257E-001,0,1.82910E+002,-6.16222E+000,9.98820E-001,1.51129E+002,-3.35577E+001,9.97915E-001,2.19787E-001,-9.05747E-002,-2.35322E-003,2.19805E-001,-9.05925E-002,-4.34394E-001,2.20933E-001,1.24566E+000,-2.07318E-002,0.00000E+000,1.12012E-002,9.15713E-001,0.00000E+000,-6.21741E-003,-7.20063E-002,1.00000E+000,34
669,1317,-1.29993E+001,-1.28489E+000,2.18415E-001,4.12220E+000,-5.45525E-001,1.91113E-001,4.16253E+000,1.65201E-002,6.07007E-001,0,6.37750E+001,-9.49250E+000,9.98602E-001,2.10362E+001,-4.80491E+001,9.98589E-001,1.98700E-001,-8.22467E-002,3.05446E-004,1.98700E-001,-8.22471E-002,6.22921E-002,1.99679E-001,1.21981E+000,2.47892E-003,0.00000E+000,-1.34483E-003,9.23539E-001,0.00000E+000,7.12689E-004,-7.36607E-002,1.00000E+000,34
1189,1297,2.89600E+001,-1.83490E+000,3.42767E-002,1.22094E+001,-7.84246E-002,5.31878E-002,1.22097E+001,1.85947E-002,4.62839E-001,0,1.82524E+002,-2.93210E+000,9.98181E-001,1.50336E+002,-3.09053E+001,9.95826E-001,2.15976E-001,-9.05692E-002,-2.37438E-003,2.15994E-001,-9.05876E-002,-4.43755E-001,2.16928E-001,1.24091E+000,-2.08716E-002,0.00000E+000,1.12746E-002,9.15716E-001,0.00000E+000,-5.46195E-003,-7.19840E-002,1.00000E+000,34
1189,1307,2.89547E+001,-1.24952E+000,-5.33672E-002,1.21975E+001,-1.37126E-001,6.65987E-003,1.21983E+001,1.53391E-002,4.33479E-001,0,1.82554E+002,-3.77843E+000,9.97039E-001,1.50178E+002,-3.16303E+001,9.97053E-001,2.16924E-001,-9.05700E-002,-2.37804E-003,2.16942E-001,-9.05884E-002,-4.43068E-001,2.17923E-001,1.24209E+000,-2.08596E-002,0.00000E+000,1.12563E-002,9.15715E-001,0.00000E+000,-5.64951E-003,-7.19859E-002,1.00000E+000,34
1189,1317,2.89730E+001,-6.41304E-001,-1.05436E-001,1.21963E+001,-1.81642E-001,-5.47729E-002,1.21978E+001,1.83272E-002,4.34883E-001,0,1.82776E+002,-4.36984E+000,9.98457E-001,1.50436E+002,-3.20589E+001,9.98614E-001,2.17879E-001,-9.05714E-002,-2.37265E-003,2.17898E-001,-9.05896E-002,-4.40692E-001,2.18926E-001,1.24328E+000,-2.08244E-002,0.00000E+000,1.12379E-002,9.15715E-001,0.00000E+000,-5.83879E-003,-7.19915E-002,1.00000E+000,34
1189,1327,2.89887E+001,-5.43130E-002,-1.28667E-001,1.21884E+001,-2.47569E-001,-1.03457E-001,1.21914E+001,2.11540E-002,4.04813E-001,0,1.82848E+002,-5.33372E+000,9.98840E-001,1.50691E+002,-3.28977E+001,9.98560E-001,2.18833E-001,-9.05729E-002,-2.36443E-003,2.18851E-001,-9.05910E-002,-4.37812E-001,2.19929E-001,1.24447E+000,-2.07820E-002,0.00000E+000,1.12196E-002,9.15714E-001,0.00000E+000,-6.02786E-003,-7.19983E-002,1.00000E+000,34
659,1327,-1.37720E+001,-6.99617E-001,1.20542E-001,3.98698E+000,-5.87669E-001,1.35155E-001,4.03232E+000,2.15637E-002,5.54707E-001,0,6.18833E+001,-9.99914E+000,9.98496E-001,1.90769E+001,-4.89716E+001,9.96781E-001,1.95004E-001,-8.17213E-002,-1.12483E-004,1.95004E-001,-8.17213E-002,-2.32894E-002,1.95854E-001,1.21531E+000,4.96217E-003,0.00000E+000,-3.91516E-003,9.23979E-001,0.00000E+000,-7.05937E-004,-7.30990E-002,1.00000E+000,34
659,1337,-1.37392E+001,-1.38740E-001,8.00056E-002,4.01088E+000,-6.64756E-001,1.05151E-001,4.06695E+000,3.16042E-002,6.15056E-001,0,6.23527E+001,-1.11726E+001,9.97967E-001,1.95979E+001,-5.02257E+001,9.97875E-001,1.92909E-001,-8.17305E-002,-5.98800E-004,1.92911E-001,-8.17318E-002,-1.24922E-001,1.93658E-001,1.21277E+000,4.92681E-003,0.00000E+000,-4.74928E-003,9.23967E-001,0.00000E+000,-1.51657E-003,-7.31103E-002,1.00000E+000,34
659,1347,-1.37316E+001,4.57648E-001,4.18995E-002,4.00650E+000,-7.07009E-001,6.03290E-002,4.06885E+000,1.88992E-002,6.11963E-001,0,6.24125E+001,-1.17623E+001,9.98549E-001,1.97474E+001,-5.09754E+001,9.98580E-001,1.90811E-001,-8.17437E-002,-1.08968E-003,1.90816E-001,-8.17481E-002,-2.29065E-001,1.91466E-001,1.21023E+000,4.87975E-003,0.00000E+000,-5.58261E-003,9.23952E-001,0.00000E+000,-2.32643E-003,-7.31253E-002,1.00000E+000,34
659,1357,-1.37188E+001,1.06058E+000,3.76227E-002,4.00063E+000,-7.48676E-001,1.15279E-002,4.07009E+000,1.35954E-002,5.79509E-001,0,6.24549E+001,-1.23140E+001,9.97973E-001,2.00706E+001,-5.17142E+001,9.98014E-001,1.88697E-001,-8.17666E-002,-1.59387E-003,1.88706E-001,-8.17760E-002,-3.37633E-001,1.89264E-001,1.20768E+000,4.80655E-003,0.00000E+000,-6.42004E-003,9.23928E-001,0.00000E+000,-3.14027E-003,-7.31487E-002,1.00000E+000,34
1199,1307,2.97808E+001,-1.23942E+000,-5.02092E-002,1.23568E+001,-1.35080E-001,-6.60366E-004,1.23576E+001,2.02070E-002,4.27519E-001,0,1.84807E+002,-3.74150E+000,9.97384E-001,1.53108E+002,-3.13846E+001,9.96530E-001,2.16883E-001,-9.04920E-002,-1.91387E-003,2.16895E-001,-9.05039E-002,-3.56734E-001,2.17882E-001,1.24206E+000,-1.97376E-002,0.00000E+000,1.13568E-002,9.15770E-001,0.00000E+000,-6.58686E-003,-7.17788E-002,1.00000E+000,34
1199,1317,2.97910E+001,-6.44192E-001,-1.00950E-001,1.23498E+001,-1.89696E-001,-5.14577E-002,1.23514E+001,1.76238E-002,4.21407E-001,0,1.84908E+002,-4.53411E+000,9.96283E-001,1.53241E+002,-3.20212E+001,9.95324E-001,2.17701E-001,-9.04937E-002,-1.91782E-003,2.17713E-001,-9.05056E-002,-3.56519E-001,2.18741E-001,1.24308E+000,-1.97110E-002,0.00000E+000,1.13118E-002,9.15769E-001,0.00000E+000,-6.49660E-003,-7.17764E-002,1.00000E+000,34
1199,1327,2.98086E+001,-4.52738E-002,-1.44183E-001,1.23474E+001,-2.41705E-001,-1.05518E-001,1.23502E+001,1.79863E-002,4.14224E-001,0,1.85085E+002,-5.28817E+000,9.97561E-001,1.53498E+002,-3.26176E+001,9.96605E-001,2.18518E-001,-9.04955E-002,-1.92013E-003,2.18530E-001,-9.05074E-002,-3.56003E-001,2.19601E-001,1.24410E+000,-1.96801E-002,0.00000E+000,1.12668E-002,9.15768E-001,0.00000E+000,-6.40628E-003,-7.17737E-002,1.00000E+000,34
659,1317,-1.37858E+001,-1.28572E+000,1.96850E-001,3.97831E+000,-5.40874E-001,1.78815E-001,4.01889E+000,1.63187E-002,5.80247E-001,0,6.16167E+001,-9.34613E+000,9.97162E-001,1.89406E+001,-4.81368E+001,9.94651E-001,1.97082E-001,-8.17175E-002,3.64835E-004,1.97083E-001,-8.17180E-002,7.49765E-002,1.98038E-001,1.21783E+000,4.98214E-003,0.00000E+000,-3.08550E-003,9.23986E-001,0.00000E+000,1.00352E-004,-7.30927E-002,1.00000E+000,34
1199,1337,2.98435E+001,5.58851E-001,-1.19043E-001,1.23475E+001,-2.98358E-001,-1.48294E-001,1.23520E+001,1.40703E-002,4.35907E-001,0,1.85229E+002,-6.13059E+000,9.98532E-001,1.54113E+002,-3.32696E+001,9.97590E-001,2.19344E-001,-9.04982E-002,-1.91367E-003,2.19355E-001,-9.05100E-002,-3.53856E-001,2.20469E-001,1.24512E+000,-1.96265E-002,0.00000E+000,1.12214E-002,9.15766E-001,0.00000E+000,-6.31503E-003,-7.17689E-002,1.00000E+000,34
1199,1297,2.97853E+001,-1.81669E+000,3.37546E-002,1.23685E+001,-6.76392E-002,4.48242E-002,1.23688E+001,1.53638E-002,4.44222E-001,0,1.84776E+002,-2.75288E+000,9.97121E-001,1.53248E+002,-3.05337E+001,9.95661E-001,2.16068E-001,-9.04910E-002,-1.90397E-003,2.16080E-001,-9.05028E-002,-3.55834E-001,2.17027E-001,1.24105E+000,-1.97490E-002,0.00000E+000,1.14015E-002,9.15771E-001,0.00000E+000,-6.67669E-003,-7.17798E-002,1.00000E+000,34
649,1347,-1.45181E+001,4.62855E-001,3.70592E-002,3.86009E+000,-6.97098E-001,5.12020E-002,3.92286E+000,1.86591E-002,6.20791E-001,0,6.01965E+001,-1.15650E+001,9.97717E-001,1.77044E+001,-5.09940E+001,9.96523E-001,1.88460E-001,-8.09994E-002,-9.55659E-004,1.88464E-001,-8.10028E-002,-2.03200E-001,1.89082E-001,1.20737E+000,7.66454E-003,0.00000E+000,-7.44929E-003,9.24577E-001,0.00000E+000,-2.60628E-003,-7.23957E-002,1.00000E+000,34
649,1357,-1.44978E+001,1.05709E+000,4.29375E-002,3.86232E+000,-7.46409E-001,1.50822E-002,3.93381E+000,1.27430E-002,5.67503E-001,0,6.03307E+001,-1.22623E+001,9.98279E-001,1.81694E+001,-5.18999E+001,9.97805E-001,1.86027E-001,-8.10187E-002,-1.44809E-003,1.86034E-001,-8.10266E-002,-3.10681E-001,1.86549E-001,1.20444E+000,7.58328E-003,0.00000E+000,-8.26600E-003,9.24555E-001,0.00000E+000,-3.41564E-003,-7.24182E-002,1.00000E+000,34
649,1337,-1.45385E+001,-1.25844E-001,7.10161E-002,3.85133E+000,-6.45636E-001,9.08329E-002,3.90613E+000,1.98426E-002,5.93782E-001,0,5.99452E+001,-1.08327E+001,9.98127E-001,1.73478E+001,-5.01321E+001,9.97404E-001,1.90885E-001,-8.09889E-002,-4.75630E-004,1.90885E-001,-8.09898E-002,-1.00236E-001,1.91614E-001,1.21030E+000,7.71742E-003,0.00000E+000,-6.63336E-003,9.24592E-001,0.00000E+000,-1.79770E-003,-7.23811E-002,1.00000E+000,34
649,1327,-1.45610E+001,-6.93001E-001,1.11797E-001,3.83729E+000,-5.77236E-001,1.18971E-001,3.88229E+000,1.55637E-002,5.43641E-001,0,5.96371E+001,-9.76823E+000,9.98933E-001,1.69842E+001,-4.89668E+001,9.98542E-001,1.93290E-001,-8.09828E-002,-4.11129E-006,1.93290E-001,-8.09828E-002,-8.58852E-004,1.94134E-001,1.21321E+000,7.75575E-003,0.00000E+000,-5.82153E-003,9.24603E-001,0.00000E+000,-9.93183E-004,-7.23705E-002,1.00000E+000,34
1209,1307,3.06041E+001,-1.22474E+000,-5.95956E-002,1.25134E+001,-1.27205E-001,-1.79144E-002,1.25141E+001,1.49366E-002,4.37763E-001,0,1.87056E+002,-3.61594E+000,9.98234E-001,1.55982E+002,-3.10332E+001,9.96504E-001,2.16370E-001,-9.00423E-002,-1.43497E-003,2.16377E-001,-9.00490E-002,-2.68316E-001,2.17389E-001,1.24145E+000,-1.85769E-002,0.00000E+000,1.14276E-002,9.16171E-001,0.00000E+000,-6.92104E-003,-7.16436E-002,1.00000E+000,34
1209,1317,3.06145E+001,-6.37299E-001,-1.09232E-001,1.25083E+001,-1.88802E-001,-6.05764E-002,1.25098E+001,1.68724E-002,4.08339E-001,0,1.87158E+002,-4.52261E+000,9.98037E-001,1.56118E+002,-3.18032E+001,9.95497E-001,2.17212E-001,-9.00432E-002,-1.43184E-003,2.17218E-001,-9.00499E-002,-2.66996E-001,2.18273E-001,1.24249E+000,-1.85521E-002,0.00000E+000,1.13859E-002,9.16170E-001,0.00000E+000,-6.65245E-003,-7.16373E-002,1.00000E+000,34
1209,1327,3.06447E+001,-3.00017E-002,-1.34816E-001,1.25138E+001,-2.34708E-001,-1.14644E-001,1.25165E+001,1.68255E-002,3.73984E-001,0,1.87443E+002,-5.17976E+000,9.98261E-001,1.56595E+002,-3.23183E+001,9.96903E-001,2.18055E-001,-9.00445E-002,-1.42302E-003,2.18061E-001,-9.00511E-002,-2.64624E-001,2.19160E-001,1.24354E+000,-1.85129E-002,0.00000E+000,1.13442E-002,9.16169E-001,0.00000E+000,-6.38297E-003,-7.16272E-002,1.00000E+000,34
1209,1337,3.06769E+001,5.70526E-001,-1.08432E-001,1.25107E+001,-2.96442E-001,-1.57193E-001,1.25152E+001,1.68209E-002,4.49567E-001,0,1.87541E+002,-6.11045E+000,9.97879E-001,1.57166E+002,-3.30012E+001,9.96161E-001,2.18905E-001,-9.00462E-002,-1.40768E-003,2.18912E-001,-9.00526E-002,-2.61051E-001,2.20055E-001,1.24459E+000,-1.84569E-002,0.00000E+000,1.13020E-002,9.16166E-001,0.00000E+000,-6.11069E-003,-7.16128E-002,1.00000E+000,34
1209,1297,3.06112E+001,-1.80361E+000,2.62225E-002,1.25297E+001,-5.96305E-002,3.63002E-002,1.25299E+001,1.37301E-002,4.20099E-001,0,1.87057E+002,-2.63490E+000,9.98019E-001,1.56166E+002,-3.02296E+001,9.96087E-001,2.15530E-001,-9.00416E-002,-1.43416E-003,2.15537E-001,-9.00484E-002,-2.68902E-001,2.16506E-001,1.24041E+000,-1.85915E-002,0.00000E+000,1.14691E-002,9.16172E-001,0.00000E+000,-7.18912E-003,-7.16474E-002,1.00000E+000,34
649,1317,-1.45649E+001,-1.28051E+000,1.99738E-001,3.83707E+000,-5.33082E-001,1.66798E-001,3.87751E+000,1.34107E-002,5.85920E-001,0,5.94907E+001,-9.17657E+000,9.98190E-001,1.70300E+001,-4.81668E+001,9.97783E-001,1.95681E-001,-8.09832E-002,4.57110E-004,1.95682E-001,-8.09839E-002,9.46648E-002,1.96648E-001,1.21611E+000,7.77252E-003,0.00000E+000,-5.01200E-003,9.24607E-001,0.00000E+000,-1.90943E-004,-7.23659E-002,1.00000E+000,34
639,1347,-1.52991E+001,4.70005E-001,3.50155E-002,3.71980E+000,-6.83715E-001,5.09212E-002,3.78245E+000,1.91327E-002,5.98408E-001,0,5.80473E+001,-1.13286E+001,9.96873E-001,1.57585E+001,-5.10039E+001,9.95982E-001,1.86319E-001,-8.00686E-002,-8.43777E-004,1.86322E-001,-8.00713E-002,-1.81481E-001,1.86934E-001,1.20477E+000,1.07875E-002,0.00000E+000,-9.62912E-003,9.25356E-001,0.00000E+000,-2.89879E-003,-7.14729E-002,1.00000E+000,34
639,1357,-1.52763E+001,1.06845E+000,4.36981E-002,3.72461E+000,-7.29429E-001,1.65463E-002,3.79540E+000,1.27258E-002,5.67981E-001,0,5.82150E+001,-1.19747E+001,9.98035E-001,1.62735E+001,-5.18414E+001,9.97662E-001,1.83665E-001,-8.00850E-002,-1.31955E-003,1.83672E-001,-8.00916E-002,-2.86642E-001,1.84172E-001,1.20158E+000,1.06991E-002,0.00000E+000,-1.04107E-002,9.25334E-001,0.00000E+000,-3.81817E-003,-7.14984E-002,1.00000E+000,34
639,1317,-1.53339E+001,-1.29241E+000,2.20372E-001,3.70597E+000,-5.43610E-001,1.74233E-001,3.74968E+000,1.73915E-002,6.26142E-001,0,5.74698E+001,-9.33270E+000,9.98055E-001,1.53268E+001,-4.84789E+001,9.97022E-001,1.94168E-001,-8.00638E-002,5.04903E-004,1.94169E-001,-8.00648E-002,1.05490E-001,1.95161E-001,1.21425E+000,1.08905E-002,0.00000E+000,-7.30295E-003,9.25381E-001,0.00000E+000,-1.62457E-004,-7.14432E-002,1.00000E+000,34
639,1327,-1.53277E+001,-7.14662E-001,1.32837E-001,3.70994E+000,-5.94143E-001,1.34570E-001,3.75962E+000,1.27856E-002,5.92031E-001,0,5.76530E+001,-1.00792E+001,9.98479E-001,1.53142E+001,-4.94278E+001,9.97724E-001,1.91576E-001,-8.00592E-002,6.76401E-005,1.91576E-001,-8.00592E-002,1.42673E-002,1.92435E-001,1.21111E+000,1.08794E-002,0.00000E+000,-8.07372E-003,9.25379E-001,0.00000E+000,-1.06913E-003,-7.14464E-002,1.00000E+000,34
639,1337,-1.53185E+001,-1.21006E-001,6.39595E-002,3.71252E+000,-6.36270E-001,8.87586E-002,3.76770E+000,1.60099E-002,6.24339E-001,0,5.78263E+001,-1.06521E+001,9.97687E-001,1.54030E+001,-5.01382E+001,9.96967E-001,1.88952E-001,-8.00602E-002,-3.82371E-004,1.88952E-001,-8.00608E-002,-8.14394E-002,1.89684E-001,1.20794E+000,1.08469E-002,0.00000E+000,-8.85130E-003,9.25371E-001,0.00000E+000,-1.98382E-003,-7.14558E-002,1.00000E+000,34
1219,1317,3.14467E+001,-6.25956E-001,-1.06686E-001,1.26714E+001,-1.87777E-001,-7.26086E-002,1.26730E+001,2.05380E-002,4.79347E-001,0,1.89479E+002,-4.50925E+000,9.98054E-001,1.59151E+002,-3.14968E+001,9.95427E-001,2.16476E-001,-9.00021E-002,-8.04380E-004,2.16479E-001,-9.00042E-002,-1.50376E-001,2.17500E-001,1.24160E+000,-1.70012E-002,0.00000E+000,1.14082E-002,9.16139E-001,0.00000E+000,-6.50922E-003,-7.06028E-002,1.00000E+000,34
1219,1327,3.14732E+001,-1.90440E-002,-1.32518E-001,1.26751E+001,-2.32022E-001,-1.18947E-001,1.26778E+001,1.04504E-002,4.02392E-001,0,1.89708E+002,-5.15483E+000,9.99176E-001,1.59567E+002,-3.20376E+001,9.98096E-001,2.17290E-001,-9.00013E-002,-7.77008E-004,2.17292E-001,-9.00033E-002,-1.44875E-001,2.18356E-001,1.24260E+000,-1.69662E-002,0.00000E+000,1.13843E-002,9.16138E-001,0.00000E+000,-5.90692E-003,-7.05820E-002,1.00000E+000,34
1219,1337,3.15097E+001,5.87675E-001,-1.06593E-001,1.26754E+001,-2.88136E-001,-1.64501E-001,1.26798E+001,1.61153E-002,4.80105E-001,0,1.89867E+002,-5.99622E+000,9.98236E-001,1.60204E+002,-3.26201E+001,9.96498E-001,2.18113E-001,-9.00002E-002,-7.41370E-004,2.18115E-001,-9.00019E-002,-1.37862E-001,2.19222E-001,1.24362E+000,-1.69108E-002,0.00000E+000,1.13600E-002,9.16137E-001,0.00000E+000,-5.29651E-003,-7.05488E-002,1.00000E+000,34
1219,1297,3.14412E+001,-1.79163E+000,2.01760E-002,1.26932E+001,-5.47433E-002,2.51217E-002,1.26933E+001,1.48433E-002,3.81354E-001,0,1.89381E+002,-2.53084E+000,9.98169E-001,1.59153E+002,-2.99531E+001,9.95986E-001,2.14846E-001,-9.00033E-002,-8.48270E-004,2.14848E-001,-9.00056E-002,-1.59429E-001,2.15787E-001,1.23958E+000,-1.70433E-002,0.00000E+000,1.14562E-002,9.16140E-001,0.00000E+000,-7.71420E-003,-7.06281E-002,1.00000E+000,34
1219,1307,3.14415E+001,-1.20914E+000,-4.69883E-002,1.26818E+001,-1.20387E-001,-1.99891E-002,1.26824E+001,1.94293E-002,4.04831E-001,0,1.89410E+002,-3.50434E+000,9.98116E-001,1.59109E+002,-3.07351E+001,9.95205E-001,2.15661E-001,-9.00028E-002,-8.27513E-004,2.15663E-001,-9.00050E-002,-1.55114E-001,2.16643E-001,1.24059E+000,-1.70252E-002,0.00000E+000,1.14322E-002,9.16139E-001,0.00000E+000,-7.11245E-003,-7.06172E-002,1.00000E+000,34
629,1347,-1.60721E+001,4.62444E-001,2.90696E-002,3.58761E+000,-6.84909E-001,4.94048E-002,3.65274E+000,1.72928E-002,5.76929E-001,0,5.60289E+001,-1.13153E+001,9.96300E-001,1.39266E+001,-5.12300E+001,9.95527E-001,1.84536E-001,-8.04398E-002,-8.32538E-004,1.84539E-001,-8.04424E-002,-1.80017E-001,1.85044E-001,1.20259E+000,1.40483E-002,0.00000E+000,-1.21121E-002,9.24968E-001,0.00000E+000,-2.94626E-003,-7.12520E-002,1.00000E+000,34
629,1357,-1.60425E+001,1.06154E+000,4.18837E-002,3.59902E+000,-7.30069E-001,1.73299E-002,3.67236E+000,1.45625E-002,5.71828E-001,0,5.62923E+001,-1.19706E+001,9.96727E-001,1.45581E+001,-5.20548E+001,9.96411E-001,1.81983E-001,-8.04472E-002,-1.09346E-003,1.81987E-001,-8.04518E-002,-2.38728E-001,1.82394E-001,1.19953E+000,1.39632E-002,0.00000E+000,-1.25087E-002,9.24957E-001,0.00000E+000,-3.74116E-003,-7.12741E-002,1.00000E+000,34
629,1327,-1.60991E+001,-7.13435E-001,1.29867E-001,3.57881E+000,-5.87142E-001,1.33911E-001,3.62912E+000,1.37600E-002,5.64425E-001,0,5.56478E+001,-9.93971E+000,9.97418E-001,1.35169E+001,-4.95244E+001,9.96990E-001,1.89597E-001,-8.04380E-002,-3.48338E-004,1.89597E-001,-8.04385E-002,-7.39100E-002,1.90321E-001,1.20868E+000,1.41335E-002,0.00000E+000,-1.13228E-002,9.24979E-001,0.00000E+000,-1.36415E-003,-7.12299E-002,1.00000E+000,34
629,1337,-1.60857E+001,-1.27809E-001,6.31025E-002,3.58557E+000,-6.36996E-001,8.97489E-002,3.64282E+000,1.62723E-002,6.00972E-001,0,5.58826E+001,-1.06419E+001,9.97174E-001,1.36733E+001,-5.03620E+001,9.96549E-001,1.87071E-001,-8.04371E-002,-5.85598E-004,1.87072E-001,-8.04384E-002,-1.25425E-001,1.87683E-001,1.20564E+000,1.41024E-002,0.00000E+000,-1.17174E-002,9.24975E-001,0.00000E+000,-2.15500E-003,-7.12380E-002,1.00000E+000,34
1229,1317,3.22792E+001,-6.02941E-001,-1.23559E-001,1.28374E+001,-1.71143E-001,-9.23751E-002,1.28388E+001,2.22558E-002,4.61126E-001,0,1.91869E+002,-4.23269E+000,9.97843E-001,1.62169E+002,-3.10112E+001,9.96269E-001,2.16023E-001,-8.95097E-002,-1.13991E-004,2.16023E-001,-8.95097E-002,-2.13764E-002,2.17077E-001,1.24105E+000,-1.54982E-002,0.00000E+000,1.15494E-002,9.16537E-001,0.00000E+000,-5.82072E-003,-6.98147E-002,1.00000E+000,34
1229,1327,3.22991E+001,-1.19197E-002,-1.34083E-001,1.28340E+001,-2.34566E-001,-1.24725E-001,1.28367E+001,1.37886E-002,4.69555E-001,0,1.91942E+002,-5.19899E+000,9.98424E-001,1.62500E+002,-3.17892E+001,9.97168E-001,2.16742E-001,-8.95057E-002,-5.57260E-005,2.16742E-001,-8.95057E-002,-1.04258E-002,2.17834E-001,1.24194E+000,-1.54666E-002,0.00000E+000,1.15831E-002,9.16538E-001,0.00000E+000,-5.14501E-003,-6.97907E-002,1.00000E+000,34
1229,1337,3.23391E+001,6.00522E-001,-1.15515E-001,1.28405E+001,-2.79948E-001,-1.66498E-001,1.28446E+001,1.46270E-002,4.25608E-001,0,1.92177E+002,-5.88225E+000,9.97713E-001,1.63179E+002,-3.23251E+001,9.96438E-001,2.17462E-001,-8.95004E-002,7.93461E-006,2.17462E-001,-8.95004E-002,1.48103E-003,2.18592E-001,1.24283E+000,-1.54214E-002,0.00000E+000,1.16168E-002,9.16539E-001,0.00000E+000,-4.46814E-003,-6.97564E-002,1.00000E+000,34
629,1317,-1.61126E+001,-1.28872E+000,2.26806E-001,3.56730E+000,-5.33963E-001,1.81872E-001,3.61162E+000,1.51765E-002,6.02044E-001,0,5.53241E+001,-9.17997E+000,9.97785E-001,1.34450E+001,-4.85550E+001,9.97129E-001,1.92096E-001,-8.04422E-002,-1.21630E-004,1.92096E-001,-8.04423E-002,-2.55703E-002,1.92940E-001,1.21171E+000,1.41431E-002,0.00000E+000,-1.09312E-002,9.24981E-001,0.00000E+000,-5.79316E-004,-7.12274E-002,1.00000E+000,34
1229,1297,3.22728E+001,-1.77508E+000,1.79456E-002,1.28579E+001,-4.55843E-002,1.78894E-002,1.28580E+001,1.73096E-002,4.49958E-001,0,1.91699E+002,-2.41812E+000,9.96899E-001,1.62175E+002,-2.95599E+001,9.93949E-001,2.14589E-001,-8.95152E-002,-2.19623E-004,2.14589E-001,-8.95154E-002,-4.13788E-002,2.15569E-001,1.23928E+000,-1.55348E-002,0.00000E+000,1.14823E-002,9.16535E-001,0.00000E+000,-7.16509E-003,-6.98425E-002,1.00000E+000,34
1229,1307,3.22834E+001,-1.18428E+000,-4.14978E-002,1.28582E+001,-1.01848E-001,-1.42020E-002,1.28586E+001,2.60017E-002,4.48113E-001,0,1.91844E+002,-3.27452E+000,9.96078E-001,1.62302E+002,-3.02393E+001,9.94527E-001,2.15305E-001,-8.95129E-002,-1.68520E-004,2.15305E-001,-8.95130E-002,-3.16763E-002,2.16322E-001,1.24016E+000,-1.55206E-002,0.00000E+000,1.15158E-002,9.16536E-001,0.00000E+000,-6.49404E-003,-6.98318E-002,1.00000E+000,34
619,1327,-1.68740E+001,-7.14031E-001,1.30236E-001,3.44347E+000,-5.82204E-001,1.35271E-001,3.49496E+000,1.12004E-002,5.63562E-001,0,5.35689E+001,-9.84942E+000,9.97603E-001,1.16791E+001,-4.96435E+001,9.97577E-001,1.88035E-001,-7.97544E-002,-6.29494E-004,1.88037E-001,-7.97559E-002,-1.34684E-001,1.88756E-001,1.20675E+000,1.75430E-002,0.00000E+000,-1.44589E-002,9.25567E-001,0.00000E+000,-1.60319E-003,-7.12164E-002,1.00000E+000,34
619,1337,-1.68557E+001,-1.27404E-001,6.69603E-002,3.45445E+000,-6.31451E-001,8.99916E-002,3.51285E+000,1.37694E-002,6.05651E-001,0,5.38710E+001,-1.05435E+001,9.95893E-001,1.19209E+001,-5.04718E+001,9.95583E-001,1.85373E-001,-7.97534E-002,-7.54894E-004,1.85375E-001,-7.97555E-002,-1.63136E-001,1.85976E-001,1.20355E+000,1.75071E-002,0.00000E+000,-1.46591E-002,9.25565E-001,0.00000E+000,-2.24254E-003,-7.12235E-002,1.00000E+000,34
619,1347,-1.68367E+001,4.66193E-001,2.78712E-002,3.46332E+000,-6.74822E-001,5.18075E-002,3.52883E+000,1.64983E-002,5.85636E-001,0,5.41167E+001,-1.11523E+001,9.95611E-001,1.22450E+001,-5.12767E+001,9.94995E-001,1.82705E-001,-7.97535E-002,-8.86021E-004,1.82708E-001,-7.97565E-002,-1.93419E-001,1.83198E-001,1.20034E+000,1.74572E-002,0.00000E+000,-1.48593E-002,9.25562E-001,0.00000E+000,-2.88152E-003,-7.12335E-002,1.00000E+000,34
619,1357,-1.68083E+001,1.06500E+000,3.24520E-002,3.47469E+000,-7.19120E-001,1.72048E-002,3.54837E+000,1.50462E-002,5.79937E-001,0,5.43866E+001,-1.17893E+001,9.97224E-001,1.28367E+001,-5.20902E+001,9.96916E-001,1.80018E-001,-7.97563E-002,-1.03147E-003,1.80022E-001,-7.97604E-002,-2.27496E-001,1.80411E-001,1.19713E+000,1.73739E-002,0.00000E+000,-1.50603E-002,9.25556E-001,0.00000E+000,-3.52322E-003,-7.12501E-002,1.00000E+000,34
619,1317,-1.68845E+001,-1.28499E+000,2.29685E-001,3.43512E+000,-5.23254E-001,1.86246E-001,3.47973E+000,1.88841E-002,6.06033E-001,0,5.32857E+001,-9.03395E+000,9.96584E-001,1.16633E+001,-4.86080E+001,9.96233E-001,1.90675E-001,-7.97575E-002,-5.15107E-004,1.90676E-001,-7.97585E-002,-1.09134E-001,1.91523E-001,1.20994E+000,1.75534E-002,0.00000E+000,-1.42596E-002,9.25568E-001,0.00000E+000,-9.67204E-004,-7.12143E-002,1.00000E+000,34
1239,1307,3.31015E+001,-1.17735E+000,-7.13008E-002,1.30109E+001,-9.96293E-002,-4.07700E-002,1.30114E+001,2.61909E-002,4.33461E-001,0,1.94071E+002,-3.21204E+000,9.95852E-001,1.65083E+002,-2.99778E+001,9.94040E-001,2.14604E-001,-8.87288E-002,1.34051E-004,2.14604E-001,-8.87289E-002,2.53206E-002,2.15673E-001,1.23931E+000,-1.43811E-002,0.00000E+000,1.12585E-002,9.17229E-001,0.00000E+000,-6.57403E-003,-6.93719E-002,1.00000E+000,34
1239,1317,3.31108E+001,-5.78160E-001,-1.34360E-001,1.30039E+001,-1.50261E-001,-9.86391E-002,1.30051E+001,2.54787E-002,4.38851E-001,0,1.94207E+002,-3.94064E+000,9.96551E-001,1.65185E+002,-3.05136E+001,9.95371E-001,2.15401E-001,-8.87183E-002,2.89124E-004,2.15401E-001,-8.87186E-002,5.44705E-002,2.16513E-001,1.24029E+000,-1.43566E-002,0.00000E+000,1.14496E-002,9.17233E-001,0.00000E+000,-5.45954E-003,-6.93441E-002,1.00000E+000,34
1239,1327,3.31337E+001,1.15701E-002,-1.21317E-001,1.29987E+001,-2.19912E-001,-1.24748E-001,1.30011E+001,1.94149E-002,4.94407E-001,0,1.94222E+002,-5.00536E+000,9.97116E-001,1.65588E+002,-3.13383E+001,9.96291E-001,2.16205E-001,-8.87027E-002,4.52651E-004,2.16205E-001,-8.87033E-002,8.50585E-002,2.17363E-001,1.24128E+000,-1.43143E-002,0.00000E+000,1.16426E-002,9.17242E-001,0.00000E+000,-4.33330E-003,-6.92961E-002,1.00000E+000,34
1239,1337,3.31576E+001,6.20288E-001,-1.12735E-001,1.29927E+001,-2.66275E-001,-1.62613E-001,1.29964E+001,1.63870E-002,4.09944E-001,0,1.94262E+002,-5.70613E+000,9.96537E-001,1.66003E+002,-3.19308E+001,9.94252E-001,2.17000E-001,-8.86862E-002,6.16032E-004,2.17002E-001,-8.86875E-002,1.15464E-001,2.18204E-001,1.24227E+000,-1.42694E-002,0.00000E+000,1.18343E-002,9.17250E-001,0.00000E+000,-3.21520E-003,-6.92451E-002,1.00000E+000,34
1239,1297,3.30981E+001,-1.76399E+000,1.27908E-002,1.30170E+001,-3.95731E-002,1.19402E-002,1.30171E+001,1.62167E-002,4.56108E-001,0,1.93928E+002,-2.35144E+000,9.96885E-001,1.65099E+002,-2.92776E+001,9.95002E-001,2.13806E-001,-8.87363E-002,-1.66434E-005,2.13806E-001,-8.87363E-002,-3.15194E-003,2.14833E-001,1.23833E+000,-1.43953E-002,0.00000E+000,1.10679E-002,9.17226E-001,0.00000E+000,-7.68590E-003,-6.93881E-002,1.00000E+000,34
609,1347,-1.76021E+001,4.63951E-001,3.03719E-002,3.33687E+000,-6.71960E-001,5.24961E-002,3.40426E+000,2.07732E-002,6.13892E-001,0,5.21741E+001,-1.11015E+001,9.95126E-001,1.05651E+001,-5.14140E+001,9.94784E-001,1.80950E-001,-7.81709E-002,-1.13767E-003,1.80955E-001,-7.81759E-002,-2.51550E-001,1.81512E-001,1.19819E+000,2.07132E-002,0.00000E+000,-1.79029E-002,9.26907E-001,0.00000E+000,-2.63167E-003,-7.02085E-002,1.00000E+000,34
609,1357,-1.75757E+001,1.07033E+000,2.77929E-002,3.34730E+000,-7.07574E-001,1.60879E-002,3.42131E+000,1.64840E-002,6.06668E-001,0,5.24322E+001,-1.15989E+001,9.96944E-001,1.11090E+001,-5.20987E+001,9.96631E-001,1.78195E-001,-7.81720E-002,-1.23462E-003,1.78201E-001,-7.81779E-002,-2.75920E-001,1.78646E-001,1.19489E+000,2.06335E-002,0.00000E+000,-1.80136E-002,9.26905E-001,0.00000E+000,-3.44179E-003,-7.02281E-002,1.00000E+000,34
609,1317,-1.76624E+001,-1.28979E+000,2.21626E-001,3.29597E+000,-5.22487E-001,1.76381E-001,3.34178E+000,1.84402E-002,6.15139E-001,0,5.11772E+001,-8.99953E+000,9.97266E-001,9.76258E+000,-4.87675E+001,9.96281E-001,1.89131E-001,-7.81753E-002,-9.06205E-004,1.89134E-001,-7.81784E-002,-1.94238E-001,1.90078E-001,1.20802E+000,2.08105E-002,0.00000E+000,-1.75723E-002,9.26910E-001,0.00000E+000,-2.11299E-004,-7.01845E-002,1.00000E+000,34
609,1327,-1.76464E+001,-7.20840E-001,1.26847E-001,3.31031E+000,-5.84498E-001,1.32970E-001,3.36414E+000,1.30021E-002,6.14600E-001,0,5.15331E+001,-9.87505E+000,9.97814E-001,9.87392E+000,-4.98240E+001,9.97346E-001,1.86416E-001,-7.81725E-002,-9.73345E-004,1.86420E-001,-7.81761E-002,-2.10771E-001,1.87226E-001,1.20475E+000,2.08024E-002,0.00000E+000,-1.76824E-002,9.26910E-001,0.00000E+000,-1.01695E-003,-7.01865E-002,1.00000E+000,34
609,1337,-1.76246E+001,-1.26806E-001,6.88750E-002,3.32488E+000,-6.24638E-001,9.25217E-002,3.38432E+000,1.67741E-002,5.96685E-001,0,5.18746E+001,-1.04312E+001,9.95734E-001,1.01872E+001,-5.05812E+001,9.95468E-001,1.83692E-001,-7.81713E-002,-1.05208E-003,1.83696E-001,-7.81755E-002,-2.30190E-001,1.84373E-001,1.20147E+000,2.07659E-002,0.00000E+000,-1.77925E-002,9.26909E-001,0.00000E+000,-1.82290E-003,-7.01955E-002,1.00000E+000,34
1249,1297,3.39276E+001,-1.74528E+000,1.79479E-002,1.31782E+001,-2.79372E-002,1.06291E-002,1.31783E+001,1.87284E-002,4.78143E-001,0,1.96158E+002,-2.19900E+000,9.97168E-001,1.68105E+002,-2.88906E+001,9.95580E-001,2.12604E-001,-8.78630E-002,1.97306E-004,2.12604E-001,-8.78631E-002,3.76241E-002,2.13668E-001,1.23687E+000,-1.27129E-002,0.00000E+000,1.02782E-002,9.18000E-001,0.00000E+000,-8.26716E-003,-6.88081E-002,1.00000E+000,34
1249,1307,3.39234E+001,-1.16525E+000,-7.96400E-002,1.31670E+001,-9.29456E-002,-4.61325E-002,1.31674E+001,2.29567E-002,4.37982E-001,0,1.96251E+002,-3.12665E+000,9.97219E-001,1.67955E+002,-2.96728E+001,9.95041E-001,2.13634E-001,-8.78476E-002,5.64493E-004,2.13635E-001,-8.78487E-002,1.07280E-001,2.14755E-001,1.23813E+000,-1.26993E-002,0.00000E+000,1.08370E-002,9.18006E-001,0.00000E+000,-6.60691E-003,-6.87902E-002,1.00000E+000,34
1249,1317,3.39311E+001,-5.72595E-001,-1.25744E-001,1.31593E+001,-1.49428E-001,-8.32105E-002,1.31604E+001,2.26643E-002,4.18086E-001,0,1.96293E+002,-3.98289E+000,9.94876E-001,1.68051E+002,-3.03584E+001,9.93437E-001,2.14663E-001,-8.78226E-002,9.39164E-004,2.14666E-001,-8.78255E-002,1.77891E-001,2.15845E-001,1.23939E+000,-1.26694E-002,0.00000E+000,1.13975E-002,9.18019E-001,0.00000E+000,-4.94132E-003,-6.87508E-002,1.00000E+000,34
1249,1327,3.39467E+001,3.48653E-002,-1.38871E-001,1.31493E+001,-1.98215E-001,-1.25271E-001,1.31514E+001,2.17410E-002,4.50364E-001,0,1.96302E+002,-4.71269E+000,9.95168E-001,1.68308E+002,-3.08606E+001,9.94316E-001,2.15695E-001,-8.77862E-002,1.32400E-003,2.15701E-001,-8.77920E-002,2.49958E-001,2.16941E-001,1.24067E+000,-1.26197E-002,0.00000E+000,1.19621E-002,9.18041E-001,0.00000E+000,-3.26367E-003,-6.86855E-002,1.00000E+000,34
1249,1337,3.39748E+001,6.43399E-001,-1.21908E-001,1.31446E+001,-2.48744E-001,-1.64927E-001,1.31480E+001,1.71144E-002,4.10285E-001,0,1.96366E+002,-5.46106E+000,9.97590E-001,1.68796E+002,-3.14503E+001,9.96824E-001,2.16725E-001,-8.77414E-002,1.71470E-003,2.16734E-001,-8.77511E-002,3.22667E-001,2.18038E-001,1.24194E+000,-1.25559E-002,0.00000E+000,1.25276E-002,9.18069E-001,0.00000E+000,-1.58331E-003,-6.86015E-002,1.00000E+000,34
1259,1327,3.47690E+001,4.71019E-002,-1.51976E-001,1.33052E+001,-1.90605E-001,-1.34901E-001,1.33073E+001,1.71032E-002,4.04865E-001,0,1.98495E+002,-4.59937E+000,9.97931E-001,1.71184E+002,-3.05646E+001,9.97204E-001,2.15457E-001,-8.72849E-002,2.06078E-003,2.15471E-001,-8.72989E-002,3.89991E-001,2.16759E-001,1.24038E+000,-1.17118E-002,0.00000E+000,1.25516E-002,9.18464E-001,0.00000E+000,-1.35102E-003,-6.81895E-002,1.00000E+000,34
1259,1337,3.48000E+001,6.54522E-001,-1.26660E-001,1.33026E+001,-2.43029E-001,-1.67842E-001,1.33059E+001,1.60047E-002,3.81902E-001,0,1.98562E+002,-5.39588E+000,9.98561E-001,1.71723E+002,-3.11797E+001,9.98339E-001,2.16565E-001,-8.72215E-002,2.59663E-003,2.16588E-001,-8.72437E-002,4.89690E-001,2.17947E-001,1.24176E+000,-1.16414E-002,0.00000E+000,1.33418E-002,9.18504E-001,0.00000E+000,1.00662E-003,-6.80691E-002,1.00000E+000,34
599,1347,-1.83578E+001,4.76041E-001,3.90420E-002,3.21915E+000,-6.54740E-001,5.63706E-002,3.28554E+000,2.06870E-002,6.13660E-001,0,5.03523E+001,-1.08270E+001,9.97082E-001,9.05889E+000,-5.13577E+001,9.97181E-001,1.80019E-001,-7.81134E-002,-8.70841E-004,1.80022E-001,-7.81163E-002,-1.93291E-001,1.80545E-001,1.19702E+000,2.31974E-002,0.00000E+000,-1.93552E-002,9.26836E-001,0.00000E+000,-2.37983E-003,-6.87340E-002,1.00000E+000,34
599,1357,-1.83277E+001,1.06851E+000,3.51885E-002,3.23396E+000,-7.03940E-001,2.14829E-002,3.30976E+000,1.38192E-002,6.10761E-001,0,5.06782E+001,-1.15387E+001,9.97535E-001,9.65443E+000,-5.22525E+001,9.97347E-001,1.77435E-001,-7.81119E-002,-6.53673E-004,1.77437E-001,-7.81136E-002,-1.46558E-001,1.77859E-001,1.19394E+000,2.31257E-002,0.00000E+000,-1.88873E-002,9.26847E-001,0.00000E+000,-3.20757E-003,-6.87532E-002,1.00000E+000,34
1259,1287,3.47552E+001,-2.31496E+000,1.02635E-001,1.33426E+001,4.25699E-002,4.24757E-002,1.33427E+001,1.88020E-002,4.25204E-001,0,1.98272E+002,-1.14654E+000,9.96143E-001,1.71146E+002,-2.78720E+001,9.92669E-001,2.10991E-001,-8.74062E-002,7.15607E-008,2.10991E-001,-8.74062E-002,1.37405E-005,2.12022E-001,1.23491E+000,-1.18194E-002,0.00000E+000,9.41892E-003,9.18402E-001,0.00000E+000,-1.06973E-002,-6.83733E-002,1.00000E+000,34
1259,1297,3.47470E+001,-1.73539E+000,-1.37246E-002,1.33329E+001,-2.17360E-002,-1.18738E-002,1.33330E+001,1.72555E-002,4.39186E-001,0,1.98389E+002,-2.07268E+000,9.96571E-001,1.70914E+002,-2.85937E+001,9.93868E-001,2.12114E-001,-8.73941E-002,5.04545E-004,2.12115E-001,-8.73950E-002,9.65187E-002,2.13207E-001,1.23627E+000,-1.18165E-002,0.00000E+000,1.01996E-002,9.18404E-001,0.00000E+000,-8.36825E-003,-6.83682E-002,1.00000E+000,34
1259,1307,3.47464E+001,-1.14815E+000,-9.38327E-002,1.33240E+001,-8.12125E-002,-5.57652E-002,1.33244E+001,1.71523E-002,4.31652E-001,0,1.98458E+002,-2.94775E+000,9.97200E-001,1.70841E+002,-2.92826E+001,9.95575E-001,2.13233E-001,-8.73710E-002,1.01544E-003,2.13236E-001,-8.73744E-002,1.93542E-001,2.14391E-001,1.23764E+000,-1.17990E-002,0.00000E+000,1.09816E-002,9.18414E-001,0.00000E+000,-6.03513E-003,-6.83384E-002,1.00000E+000,34
599,1327,-1.84146E+001,-7.00989E-001,1.39767E-001,3.17957E+000,-5.60568E-001,1.38718E-001,3.23159E+000,1.49139E-002,6.24181E-001,0,4.95025E+001,-9.49859E+000,9.97743E-001,8.19189E+000,-4.96502E+001,9.96959E-001,1.85145E-001,-7.81070E-002,-1.32873E-003,1.85152E-001,-7.81137E-002,-2.89184E-001,1.85903E-001,1.20317E+000,2.32778E-002,0.00000E+000,-2.02875E-002,9.26824E-001,0.00000E+000,-7.30713E-004,-6.87124E-002,1.00000E+000,34
599,1337,-1.83907E+001,-1.17959E-001,6.95460E-002,3.19774E+000,-6.10168E-001,9.46513E-002,3.25681E+000,1.38806E-002,6.08104E-001,0,4.99126E+001,-1.01976E+001,9.97289E-001,8.49860E+000,-5.05510E+001,9.97484E-001,1.82592E-001,-7.81121E-002,-1.09497E-003,1.82597E-001,-7.81167E-002,-2.40639E-001,1.83230E-001,1.20011E+000,2.32509E-002,0.00000E+000,-1.98224E-002,9.26828E-001,0.00000E+000,-1.55340E-003,-6.87196E-002,1.00000E+000,34
1259,1317,3.47538E+001,-5.54050E-001,-1.35831E-001,1.33157E+001,-1.37236E-001,-8.98784E-002,1.33167E+001,1.79715E-002,4.49245E-001,0,1.98477E+002,-3.81322E+000,9.97642E-001,1.70938E+002,-2.99343E+001,9.96263E-001,2.14347E-001,-8.73357E-002,1.53350E-003,2.14355E-001,-8.73435E-002,2.91233E-001,2.15575E-001,1.23900E+000,-1.17657E-002,0.00000E+000,1.17654E-002,9.18433E-001,0.00000E+000,-3.69658E-003,-6.82815E-002,1.00000E+000,34
599,1317,-1.84386E+001,-1.28335E+000,2.34133E-001,3.15694E+000,-5.12942E-001,1.80688E-001,3.20344E+000,1.83307E-002,6.10596E-001,0,4.90257E+001,-8.82751E+000,9.97503E-001,7.95384E+000,-4.88048E+001,9.97334E-001,1.87690E-001,-7.80989E-002,-1.57050E-003,1.87699E-001,-7.81081E-002,-3.38535E-001,1.88577E-001,1.20624E+000,2.32844E-002,0.00000E+000,-2.07524E-002,9.26823E-001,0.00000E+000,9.16045E-005,-6.87106E-002,1.00000E+000,34
589,1347,-1.91245E+001,4.89149E-001,4.38991E-002,3.09090E+000,-6.36012E-001,6.09562E-002,3.15625E+000,1.45208E-002,6.28545E-001,0,4.83622E+001,-1.05342E+001,9.97519E-001,7.38161E+000,-5.12718E+001,9.97540E-001,1.79201E-001,-7.77513E-002,-1.51985E-004,1.79202E-001,-7.77514E-002,-3.38900E-002,1.79723E-001,1.19597E+000,2.66996E-002,0.00000E+000,-2.07442E-002,9.27069E-001,0.00000E+000,-2.28761E-003,-6.75919E-002,1.00000E+000,34
589,1357,-1.90889E+001,1.08051E+000,4.31904E-002,3.11073E+000,-6.87328E-001,2.58946E-002,3.18586E+000,1.17767E-002,6.30686E-001,0,4.87667E+001,-1.12703E+001,9.97859E-001,8.06992E+000,-5.21893E+001,9.98121E-001,1.76562E-001,-7.77507E-002,6.64379E-005,1.76562E-001,-7.77507E-002,1.49682E-002,1.76980E-001,1.19282E+000,2.66248E-002,0.00000E+000,-2.02888E-002,9.27080E-001,0.00000E+000,-2.98442E-003,-6.76085E-002,1.00000E+000,34
589,1337,-1.91524E+001,-1.10613E-001,7.96400E-002,3.07336E+000,-5.97916E-001,9.87421E-002,3.13254E+000,1.04465E-002,6.11128E-001,0,4.79857E+001,-1.00050E+001,9.98567E-001,6.90969E+000,-5.05680E+001,9.98572E-001,1.81825E-001,-7.77483E-002,-3.80022E-004,1.81826E-001,-7.77488E-002,-8.38823E-002,1.82460E-001,1.19911E+000,2.67490E-002,0.00000E+000,-2.11983E-002,9.27062E-001,0.00000E+000,-1.59287E-003,-6.75810E-002,1.00000E+000,34
589,1327,-1.91685E+001,-6.78440E-001,1.52550E-001,3.06319E+000,-5.33921E-001,1.46837E-001,3.11284E+000,1.90787E-002,6.65763E-001,0,4.76869E+001,-9.09762E+000,9.98542E-001,6.73446E+000,-4.94170E+001,9.97521E-001,1.84426E-001,-7.77423E-002,-6.15230E-004,1.84428E-001,-7.77437E-002,-1.34455E-001,1.85183E-001,1.20223E+000,2.67771E-002,0.00000E+000,-2.16499E-002,9.27058E-001,0.00000E+000,-9.02062E-004,-6.75748E-002,1.00000E+000,34
1269,1327,3.56005E+001,6.44112E-002,-1.45202E-001,1.34692E+001,-1.80028E-001,-1.26190E-001,1.34710E+001,1.48466E-002,4.11569E-001,0,2.00721E+002,-4.47904E+000,9.98293E-001,1.74228E+002,-3.02067E+001,9.97383E-001,2.15301E-001,-8.65198E-002,2.70187E-003,2.15325E-001,-8.65440E-002,5.12852E-001,2.16701E-001,1.24020E+000,-1.06151E-002,0.00000E+000,1.28967E-002,9.19022E-001,0.00000E+000,-5.46046E-004,-6.58659E-002,1.00000E+000,34
1269,1337,3.56391E+001,6.62320E-001,-1.21764E-001,1.34732E+001,-2.42020E-001,-1.64322E-001,1.34764E+001,1.43274E-002,3.84748E-001,0,2.00911E+002,-5.42025E+000,9.98113E-001,1.74882E+002,-3.09652E+001,9.96743E-001,2.16535E-001,-8.64389E-002,3.36743E-003,2.16573E-001,-8.64763E-002,6.36713E-001,2.18032E-001,1.24174E+000,-1.05339E-002,0.00000E+000,1.39152E-002,9.19076E-001,0.00000E+000,1.99953E-003,-6.57317E-002,1.00000E+000,34
589,1317,-1.91987E+001,-1.26301E+000,2.49179E-001,3.03406E+000,-4.88495E-001,1.89340E-001,3.07896E+000,1.51989E-002,5.88805E-001,0,4.71087E+001,-8.43638E+000,9.96451E-001,6.40949E+000,-4.86404E+001,9.95755E-001,1.87023E-001,-7.77330E-002,-8.59857E-004,1.87026E-001,-7.77358E-002,-1.86079E-001,1.87911E-001,1.20536E+000,2.67823E-002,0.00000E+000,-2.21020E-002,9.27057E-001,0.00000E+000,-2.10362E-004,-6.75736E-002,1.00000E+000,34
1269,1317,3.55899E+001,-5.35146E-001,-1.30017E-001,1.34823E+001,-1.24971E-001,-9.04173E-002,1.34832E+001,1.53605E-002,4.11980E-001,0,2.00778E+002,-3.64107E+000,9.97955E-001,1.74056E+002,-2.95722E+001,9.96939E-001,2.14062E-001,-8.65789E-002,2.04820E-003,2.14075E-001,-8.65929E-002,3.90319E-001,2.15373E-001,1.23866E+000,-1.06706E-002,0.00000E+000,1.18821E-002,9.18986E-001,0.00000E+000,-3.08174E-003,-6.59574E-002,1.00000E+000,34
1269,1307,3.55799E+001,-1.13046E+000,-7.99248E-002,1.34883E+001,-7.03897E-002,-4.81870E-002,1.34886E+001,1.62270E-002,4.20789E-001,0,2.00687E+002,-2.81932E+000,9.96957E-001,1.73929E+002,-2.89456E+001,9.95874E-001,2.12819E-001,-8.66225E-002,1.40381E-003,2.12826E-001,-8.66291E-002,2.68601E-001,2.14048E-001,1.23713E+000,-1.07080E-002,0.00000E+000,1.08719E-002,9.18961E-001,0.00000E+000,-5.60653E-003,-6.60193E-002,1.00000E+000,34
1269,1297,3.55711E+001,-1.72444E+000,-1.89008E-002,1.34903E+001,-1.64000E-002,-1.40709E-002,1.34903E+001,1.67941E-002,4.15441E-001,0,2.00565E+002,-1.99455E+000,9.96685E-001,1.73832E+002,-2.83294E+001,9.95398E-001,2.11569E-001,-8.66556E-002,7.64395E-004,2.11571E-001,-8.66576E-002,1.46856E-001,2.12721E-001,1.23560E+000,-1.07335E-002,0.00000E+000,9.86271E-003,9.18944E-001,0.00000E+000,-8.12877E-003,-6.60613E-002,1.00000E+000,34
1269,1287,3.55821E+001,-2.30815E+000,9.79940E-002,1.35005E+001,4.25213E-002,3.24944E-002,1.35006E+001,2.14051E-002,4.11583E-001,0,2.00488E+002,-1.13360E+000,9.97129E-001,1.74107E+002,-2.76695E+001,9.95149E-001,2.10316E-001,-8.66655E-002,1.37978E-004,2.10316E-001,-8.66656E-002,2.66197E-002,2.11397E-001,1.23408E+000,-1.07316E-002,0.00000E+000,8.85730E-003,9.18945E-001,0.00000E+000,-1.06416E-002,-6.60583E-002,1.00000E+000,34
579,1347,-1.98838E+001,4.96793E-001,5.16756E-002,2.96891E+000,-6.23617E-001,6.42275E-002,3.03438E+000,1.26408E-002,6.43074E-001,0,4.64721E+001,-1.03345E+001,9.97525E-001,5.82932E+000,-5.12756E+001,9.97889E-001,1.77681E-001,-7.71314E-002,6.61905E-004,1.77683E-001,-7.71331E-002,1.48831E-001,1.78197E-001,1.19407E+000,3.02989E-002,0.00000E+000,-2.20216E-002,9.27569E-001,0.00000E+000,-2.77360E-003,-6.68667E-002,1.00000E+000,34
579,1357,-1.98406E+001,1.09904E+000,5.35375E-002,2.99621E+000,-6.64370E-001,2.98694E-002,3.06913E+000,1.25073E-002,6.40834E-001,0,4.69884E+001,-1.09012E+001,9.98608E-001,6.64565E+000,-5.20348E+001,9.98788E-001,1.74816E-001,-7.71318E-002,9.50506E-004,1.74819E-001,-7.71354E-002,2.16152E-001,1.75221E-001,1.19066E+000,3.02173E-002,0.00000E+000,-2.14378E-002,9.27583E-001,0.00000E+000,-3.55228E-003,-6.68853E-002,1.00000E+000,34
579,1337,-1.99185E+001,-9.99264E-002,8.72077E-002,2.94446E+000,-5.82715E-001,1.01774E-001,3.00329E+000,1.25422E-002,6.20651E-001,0,4.59881E+001,-9.75710E+000,9.97119E-001,5.25355E+000,-5.05259E+001,9.97671E-001,1.80527E-001,-7.71259E-002,3.62740E-004,1.80528E-001,-7.71265E-002,8.06642E-002,1.81164E-001,1.19747E+000,3.03516E-002,0.00000E+000,-2.26032E-002,9.27560E-001,0.00000E+000,-1.99767E-003,-6.68546E-002,1.00000E+000,34
579,1327,-1.99470E+001,-6.71835E-001,1.44858E-001,2.92235E+000,-5.23013E-001,1.38317E-001,2.97200E+000,1.29393E-002,6.64191E-001,0,4.55358E+001,-8.87603E+000,9.98419E-001,4.84296E+000,-4.94101E+001,9.97707E-001,1.83347E-001,-7.71171E-002,5.76948E-005,1.83347E-001,-7.71171E-002,1.26915E-002,1.84116E-001,1.20085E+000,3.03845E-002,0.00000E+000,-2.31813E-002,9.27555E-001,0.00000E+000,-1.22646E-003,-6.68471E-002,1.00000E+000,34
579,1317,-1.99665E+001,-1.24766E+000,2.45328E-001,2.90418E+000,-4.70378E-001,1.86280E-001,2.94792E+000,1.89054E-002,6.45237E-001,0,4.51134E+001,-8.12089E+000,9.96487E-001,4.69585E+000,-4.84753E+001,9.95372E-001,1.86156E-001,-7.71038E-002,-2.57649E-004,1.86156E-001,-7.71040E-002,-5.60747E-002,1.87068E-001,1.20423E+000,3.03912E-002,0.00000E+000,-2.37592E-002,9.27554E-001,0.00000E+000,-4.55589E-004,-6.68456E-002,1.00000E+000,34
1279,1317,3.64123E+001,-5.28163E-001,-1.34049E-001,1.36381E+001,-1.22268E-001,-8.83192E-002,1.36389E+001,1.28579E-002,3.82055E-001,0,2.02911E+002,-3.63145E+000,9.97625E-001,1.76951E+002,-2.93723E+001,9.96382E-001,2.13605E-001,-8.54522E-002,2.50244E-003,2.13626E-001,-8.54731E-002,4.79391E-001,2.15043E-001,1.23811E+000,-9.36701E-003,0.00000E+000,1.17285E-002,9.19866E-001,0.00000E+000,-2.29394E-003,-6.32536E-002,1.00000E+000,34
1279,1327,3.64401E+001,7.80851E-002,-1.42298E-001,1.36407E+001,-1.73118E-001,-1.22594E-001,1.36423E+001,2.20592E-002,4.19226E-001,0,2.03075E+002,-4.40786E+000,9.96511E-001,1.77401E+002,-2.98957E+001,9.96371E-001,2.15020E-001,-8.53795E-002,3.27765E-003,2.15056E-001,-8.54152E-002,6.25053E-001,2.16567E-001,1.23986E+000,-9.29933E-003,0.00000E+000,1.29575E-002,9.19913E-001,0.00000E+000,4.25915E-004,-6.31488E-002,1.00000E+000,34
1279,1337,3.64733E+001,6.74883E-001,-1.23753E-001,1.36391E+001,-2.37774E-001,-1.65131E-001,1.36422E+001,1.76724E-002,4.08466E-001,0,2.03204E+002,-5.36681E+000,9.97478E-001,1.77962E+002,-3.06518E+001,9.96981E-001,2.16429E-001,-8.52843E-002,4.06420E-003,2.16484E-001,-8.53390E-002,7.71611E-001,2.18093E-001,1.24163E+000,-9.20634E-003,0.00000E+000,1.41903E-002,9.19978E-001,0.00000E+000,3.15412E-003,-6.30048E-002,1.00000E+000,34
1279,1307,3.63943E+001,-1.12243E+000,-9.14082E-002,1.36374E+001,-6.66168E-002,-4.90275E-002,1.36376E+001,1.44817E-002,4.23016E-001,0,2.02736E+002,-2.78812E+000,9.97549E-001,1.76691E+002,-2.86997E+001,9.95666E-001,2.12191E-001,-8.55056E-002,1.74097E-003,2.12202E-001,-8.55158E-002,3.35057E-001,2.13529E-001,1.23636E+000,-9.41319E-003,0.00000E+000,1.05092E-002,9.19833E-001,0.00000E+000,-4.99217E-003,-6.33251E-002,1.00000E+000,34
1279,1297,3.63937E+001,-1.70591E+000,-1.26336E-002,1.36442E+001,-2.63197E-003,-1.00263E-002,1.36442E+001,2.67145E-002,3.68964E-001,0,2.02653E+002,-1.81397E+000,9.96195E-001,1.76743E+002,-2.79832E+001,9.95278E-001,2.10767E-001,-8.55359E-002,9.89376E-004,2.10770E-001,-8.55392E-002,1.91312E-001,2.12012E-001,1.23462E+000,-9.43324E-003,0.00000E+000,9.28997E-003,9.19819E-001,0.00000E+000,-7.69034E-003,-6.33561E-002,1.00000E+000,34
1279,1287,3.64009E+001,-2.31169E+000,8.79142E-002,1.36545E+001,3.59820E-002,3.47656E-002,1.36546E+001,2.43422E-002,3.04787E-001,0,2.02599E+002,-1.22064E+000,9.96726E-001,1.76939E+002,-2.76643E+001,9.94692E-001,2.09337E-001,-8.55552E-002,2.44363E-004,2.09337E-001,-8.55554E-002,4.74782E-002,2.10497E-001,1.23288E+000,-9.44166E-003,0.00000E+000,8.07449E-003,9.19813E-001,0.00000E+000,-1.03802E-002,-6.33691E-002,1.00000E+000,34
569,1347,-2.06426E+001,5.14628E-001,5.89153E-002,2.84736E+000,-6.01125E-001,6.86378E-002,2.91093E+000,1.34148E-002,6.46193E-001,0,4.45811E+001,-9.96807E+000,9.97140E-001,4.29236E+000,-5.11277E+001,9.97243E-001,1.76702E-001,-7.63931E-002,1.34441E-003,1.76709E-001,-7.64003E-002,3.04337E-001,1.77247E-001,1.19280E+000,3.40631E-002,0.00000E+000,-2.36913E-002,9.28188E-001,0.00000E+000,-2.93679E-003,-6.64298E-002,1.00000E+000,34
569,1357,-2.06027E+001,1.10738E+000,5.30181E-002,2.87282E+000,-6.49031E-001,3.41830E-002,2.94542E+000,1.25349E-002,6.38895E-001,0,4.50712E+001,-1.06596E+001,9.97999E-001,5.03482E+000,-5.20207E+001,9.97908E-001,1.73656E-001,-7.63979E-002,1.77784E-003,1.73668E-001,-7.64105E-002,4.07337E-001,1.74085E-001,1.18918E+000,3.39844E-002,0.00000E+000,-2.28364E-002,9.28206E-001,0.00000E+000,-3.97083E-003,-6.64523E-002,1.00000E+000,34
569,1327,-2.07076E+001,-6.69470E-001,1.43116E-001,2.79984E+000,-5.15282E-001,1.39952E-001,2.85030E+000,1.98102E-002,6.84039E-001,0,4.36426E+001,-8.74749E+000,9.98655E-001,3.24774E+000,-4.94681E+001,9.98109E-001,1.82738E-001,-7.63684E-002,4.56625E-004,1.82738E-001,-7.63692E-002,1.00973E-001,1.83557E-001,1.20002E+000,3.41584E-002,0.00000E+000,-2.53945E-002,9.28165E-001,0.00000E+000,-8.76568E-004,-6.64026E-002,1.00000E+000,34
569,1337,-2.06771E+001,-7.89733E-002,9.36184E-002,2.82238E+000,-5.58099E-001,1.01606E-001,2.87882E+000,1.22782E-002,6.39618E-001,0,4.41004E+001,-9.35145E+000,9.97597E-001,3.71739E+000,-5.03182E+001,9.97711E-001,1.79731E-001,-7.63818E-002,9.01168E-004,1.79734E-001,-7.63850E-002,2.01600E-001,1.80407E-001,1.19642E+000,3.41150E-002,0.00000E+000,-2.45445E-002,9.28175E-001,0.00000E+000,-1.90471E-003,-6.64150E-002,1.00000E+000,34
1289,1327,3.72559E+001,8.33009E-002,-1.54971E-001,1.37907E+001,-1.72395E-001,-1.23751E-001,1.37923E+001,2.00855E-002,3.99871E-001,0,2.05138E+002,-4.41522E+000,9.95604E-001,1.80187E+002,-2.96984E+001,9.94962E-001,2.14713E-001,-8.38799E-002,3.83287E-003,2.14762E-001,-8.39291E-002,7.35312E-001,2.16463E-001,1.23950E+000,-7.58481E-003,0.00000E+000,1.27039E-002,9.21137E-001,0.00000E+000,1.20571E-003,-6.02504E-002,1.00000E+000,34
1289,1337,3.72952E+001,6.91289E-001,-1.22495E-001,1.37951E+001,-2.26304E-001,-1.51677E-001,1.37978E+001,1.87718E-002,4.17123E-001,0,2.05287E+002,-5.25304E+000,9.97217E-001,1.80856E+002,-3.02951E+001,9.96637E-001,2.16388E-001,-8.37754E-002,4.71153E-003,2.16462E-001,-8.38494E-002,8.99051E-001,2.18285E-001,1.24160E+000,-7.47414E-003,0.00000E+000,1.40959E-002,9.21210E-001,0.00000E+000,4.10532E-003,-6.00973E-002,1.00000E+000,34
569,1317,-2.07354E+001,-1.23598E+000,2.43701E-001,2.77178E+000,-4.53663E-001,1.78778E-001,2.81435E+000,2.13880E-002,6.42201E-001,0,4.30873E+001,-7.83721E+000,9.97125E-001,2.97703E+000,-4.84011E+001,9.95324E-001,1.85731E-001,-7.63441E-002,-5.34867E-006,1.85731E-001,-7.63441E-002,-1.16935E-003,1.86708E-001,1.20362E+000,3.41571E-002,0.00000E+000,-2.62438E-002,9.28165E-001,0.00000E+000,1.50819E-004,-6.64029E-002,1.00000E+000,34
1289,1317,3.72317E+001,-5.21470E-001,-1.34845E-001,1.37894E+001,-1.23662E-001,-8.65046E-002,1.37902E+001,1.99975E-002,4.53398E-001,0,2.04976E+002,-3.68248E+000,9.97690E-001,1.79807E+002,-2.91341E+001,9.95296E-001,2.13040E-001,-8.39532E-002,2.97487E-003,2.13070E-001,-8.39830E-002,5.73835E-001,2.14655E-001,1.23742E+000,-7.65783E-003,0.00000E+000,1.13235E-002,9.21089E-001,0.00000E+000,-1.66978E-003,-6.03514E-002,1.00000E+000,34
1289,1287,3.72158E+001,-2.28825E+000,6.92505E-002,1.38026E+001,5.37900E-002,2.21742E-002,1.38027E+001,2.53577E-002,3.98345E-001,0,2.04670E+002,-9.76563E-001,9.96875E-001,1.79707E+002,-2.71212E+001,9.94063E-001,2.07962E-001,-8.40656E-002,4.54991E-004,2.07963E-001,-8.40664E-002,8.92687E-002,2.09230E-001,1.23120E+000,-7.75041E-003,0.00000E+000,7.19582E-003,9.21027E-001,0.00000E+000,-1.02682E-002,-6.04794E-002,1.00000E+000,34
1289,1297,3.72075E+001,-1.69683E+000,-2.59300E-002,1.37876E+001,1.03173E-003,-3.02628E-002,1.37876E+001,2.98966E-002,3.20682E-001,0,2.04689E+002,-1.73450E+000,9.96795E-001,1.79499E+002,-2.77443E+001,9.94222E-001,2.09659E-001,-8.40371E-002,1.28759E-003,2.09664E-001,-8.40427E-002,2.51183E-001,2.11034E-001,1.23326E+000,-7.72925E-003,0.00000E+000,8.56503E-003,9.21041E-001,0.00000E+000,-7.41603E-003,-6.04501E-002,1.00000E+000,34
1289,1307,3.72207E+001,-1.11480E+000,-9.51159E-002,1.37944E+001,-6.59514E-002,-5.52029E-002,1.37947E+001,1.70083E-002,4.37248E-001,0,2.04917E+002,-2.78736E+000,9.98676E-001,1.79655E+002,-2.84697E+001,9.96951E-001,2.11356E-001,-8.40080E-002,2.12569E-003,2.11371E-001,-8.40233E-002,4.12321E-001,2.12846E-001,1.23534E+000,-7.70888E-003,0.00000E+000,9.94471E-003,9.21055E-001,0.00000E+000,-4.54202E-003,-6.04219E-002,1.00000E+000,34
559,1327,-2.14589E+001,-6.58624E-001,1.46304E-001,2.68522E+000,-5.00690E-001,1.40901E-001,2.73513E+000,3.31466E-002,7.68273E-001,0,4.18698E+001,-8.53095E+000,9.98996E-001,1.81478E+000,-4.93732E+001,9.98016E-001,1.82071E-001,-7.61454E-002,1.14285E-003,1.82076E-001,-7.61504E-002,2.53580E-001,1.82886E-001,1.19910E+000,3.82175E-002,0.00000E+000,-2.72797E-002,9.28259E-001,0.00000E+000,-6.11155E-004,-6.53927E-002,1.00000E+000,34
559,1337,-2.14359E+001,-6.56797E-002,9.42474E-002,2.70060E+000,-5.39908E-001,1.01495E-001,2.75591E+000,1.03207E-002,6.67168E-001,0,4.22171E+001,-9.05727E+000,9.99092E-001,2.16369E+000,-5.02117E+001,9.98898E-001,1.79134E-001,-7.61572E-002,1.47343E-003,1.79142E-001,-7.61657E-002,3.30672E-001,1.79810E-001,1.19558E+000,3.81771E-002,0.00000E+000,-2.66404E-002,9.28266E-001,0.00000E+000,-1.86629E-003,-6.54071E-002,1.00000E+000,34
559,1347,-2.14070E+001,5.28825E-001,5.84592E-002,2.72003E+000,-5.80272E-001,6.68269E-002,2.78204E+000,1.59291E-002,6.20848E-001,0,4.26143E+001,-9.62587E+000,9.97394E-001,2.65143E+000,-5.10342E+001,9.96953E-001,1.76178E-001,-7.61672E-002,1.80121E-003,1.76191E-001,-7.61800E-002,4.08943E-001,1.76727E-001,1.19206E+000,3.81269E-002,0.00000E+000,-2.59995E-002,9.28275E-001,0.00000E+000,-3.12462E-003,-6.54251E-002,1.00000E+000,34
559,1357,-2.13639E+001,1.12127E+000,5.19142E-002,2.74948E+000,-6.27408E-001,3.54667E-002,2.82038E+000,1.40488E-002,6.26063E-001,0,4.31586E+001,-1.03240E+001,9.97372E-001,3.44200E+000,-5.19257E+001,9.97398E-001,1.73201E-001,-7.61733E-002,2.12138E-003,1.73219E-001,-7.61913E-002,4.87358E-001,1.73636E-001,1.18853E+000,3.80545E-002,0.00000E+000,-2.53563E-002,9.28288E-001,0.00000E+000,-4.38746E-003,-6.54509E-002,1.00000E+000,34
559,1317,-2.14946E+001,-1.21465E+000,2.55364E-001,2.64887E+000,-4.29205E-001,1.85472E-001,2.68982E+000,3.17074E-002,6.66954E-001,0,4.11679E+001,-7.44679E+000,9.98473E-001,1.45420E+000,-4.81921E+001,9.97359E-001,1.84998E-001,-7.61258E-002,7.94549E-004,1.85001E-001,-7.61282E-002,1.74338E-001,1.85964E-001,1.20261E+000,3.82138E-002,0.00000E+000,-2.79192E-002,9.28259E-001,0.00000E+000,6.44454E-004,-6.53940E-002,1.00000E+000,34
1299,1327,3.80826E+001,1.00379E-001,-1.46196E-001,1.39470E+001,-1.62746E-001,-1.18429E-001,1.39485E+001,2.55703E-002,4.30544E-001,0,2.07249E+002,-4.31487E+000,9.95563E-001,1.83170E+002,-2.93380E+001,9.94638E-001,2.14540E-001,-8.21776E-002,4.38957E-003,2.14605E-001,-8.22425E-002,8.47373E-001,2.16547E-001,1.23930E+000,-5.16820E-003,0.00000E+000,1.19487E-002,9.22553E-001,0.00000E+000,1.74925E-003,-5.71170E-002,1.00000E+000,34
1299,1337,3.81353E+001,7.03019E-001,-1.21323E-001,1.39633E+001,-2.23662E-001,-1.58507E-001,1.39660E+001,2.39080E-002,4.49260E-001,0,2.07628E+002,-5.22488E+000,9.95339E-001,1.84037E+002,-2.99974E+001,9.94015E-001,2.16538E-001,-8.20620E-002,5.35652E-003,2.16634E-001,-8.21581E-002,1.02738E+000,2.18730E-001,1.24180E+000,-5.03072E-003,0.00000E+000,1.34913E-002,9.22637E-001,0.00000E+000,4.79034E-003,-5.69499E-002,1.00000E+000,34
1299,1287,3.80451E+001,-2.27918E+000,7.95367E-002,1.39601E+001,5.40422E-002,2.27602E-002,1.39602E+001,1.85149E-002,4.60340E-001,0,2.06818E+002,-9.98204E-001,9.97481E-001,1.82732E+002,-2.68778E+001,9.95904E-001,2.06508E-001,-8.23649E-002,7.00737E-004,2.06510E-001,-8.23666E-002,1.38985E-001,2.07914E-001,1.22943E+000,-5.36021E-003,0.00000E+000,5.85856E-003,9.22434E-001,0.00000E+000,-1.02566E-002,-5.73504E-002,1.00000E+000,34
1299,1297,3.80473E+001,-1.69431E+000,5.23100E-003,1.39570E+001,-5.02248E-003,-3.42416E-003,1.39570E+001,1.95939E-002,4.53771E-001,0,2.06904E+002,-1.94060E+000,9.98262E-001,1.82711E+002,-2.76101E+001,9.96337E-001,2.08528E-001,-8.23407E-002,1.60815E-003,2.08537E-001,-8.23496E-002,3.16763E-001,2.10067E-001,1.23188E+000,-5.34033E-003,0.00000E+000,7.37333E-003,9.22447E-001,0.00000E+000,-7.27043E-003,-5.73263E-002,1.00000E+000,34
1299,1307,3.80701E+001,-1.09522E+000,-5.39618E-002,1.39693E+001,-5.54850E-002,-3.37580E-002,1.39695E+001,3.84499E-002,4.75486E-001,0,2.07220E+002,-2.71521E+000,9.97654E-001,1.83029E+002,-2.81367E+001,9.95924E-001,2.10546E-001,-8.23002E-002,2.52911E-003,2.10568E-001,-8.23220E-002,4.94775E-001,2.12231E-001,1.23436E+000,-5.30015E-003,0.00000E+000,8.89821E-003,9.22471E-001,0.00000E+000,-4.26435E-003,-5.72774E-002,1.00000E+000,34
1299,1317,3.80763E+001,-5.00739E-001,-1.18820E-001,1.39601E+001,-1.11943E-001,-8.76472E-002,1.39608E+001,3.33336E-002,4.67352E-001,0,2.07319E+002,-3.53185E+000,9.95878E-001,1.83080E+002,-2.87402E+001,9.93921E-001,2.12550E-001,-8.22449E-002,3.45686E-003,2.12591E-001,-8.22854E-002,6.71745E-001,2.14391E-001,1.23683E+000,-5.24156E-003,0.00000E+000,1.04234E-002,9.22507E-001,0.00000E+000,-1.25756E-003,-5.72062E-002,1.00000E+000,34
559,1307,-2.15265E+001,-1.79022E+000,3.72748E-001,2.61448E+000,-3.78411E-001,2.27319E-001,2.65149E+000,1.58811E-002,6.64135E-001,0,4.05077E+001,-6.73728E+000,9.97000E-001,1.16991E+000,-4.72768E+001,9.95971E-001,1.87915E-001,-7.61046E-002,4.43051E-004,1.87915E-001,-7.61053E-002,9.61477E-002,1.89043E-001,1.20613E+000,3.82008E-002,0.00000E+000,-2.85587E-002,9.28262E-001,0.00000E+000,1.89985E-003,-6.53987E-002,1.00000E+000,34
549,1347,-2.21573E+001,5.45976E-001,5.71135E-002,2.60644E+000,-5.58753E-001,6.42787E-002,2.66643E+000,1.42722E-002,6.62482E-001,0,4.08617E+001,-9.27145E+000,9.97122E-001,1.22901E+000,-5.08583E+001,9.96805E-001,1.75707E-001,-7.57922E-002,2.33792E-003,1.75729E-001,-7.58139E-002,5.32556E-001,1.76279E-001,1.19137E+000,4.19619E-002,0.00000E+000,-2.79986E-002,9.28489E-001,0.00000E+000,-3.16665E-003,-6.41132E-002,1.00000E+000,34
549,1357,-2.21148E+001,1.14794E+000,5.53454E-002,2.63458E+000,-5.97175E-001,3.24125E-002,2.70161E+000,1.54279E-002,6.48467E-001,0,4.13841E+001,-9.81771E+000,9.97235E-001,2.02865E+000,-5.16261E+001,9.97149E-001,1.72852E-001,-7.57989E-002,2.64127E-003,1.72880E-001,-7.58270E-002,6.08525E-001,1.73314E-001,1.18799E+000,4.18893E-002,0.00000E+000,-2.73848E-002,9.28502E-001,0.00000E+000,-4.57078E-003,-6.41433E-002,1.00000E+000,34
549,1327,-2.22447E+001,-6.30776E-001,1.71663E-001,2.53423E+000,-4.68461E-001,1.54043E-001,2.58177E+000,2.58865E-002,7.31002E-001,0,3.94883E+001,-8.03027E+000,9.97734E-001,-6.47690E-002,-4.91307E+001,9.96085E-001,1.81359E-001,-7.57667E-002,1.70688E-003,1.81370E-001,-7.57781E-002,3.80325E-001,1.82185E-001,1.19812E+000,4.20384E-002,0.00000E+000,-2.92207E-002,9.28475E-001,0.00000E+000,-3.70781E-004,-6.40815E-002,1.00000E+000,34
549,1337,-2.21927E+001,-4.43294E-002,9.62213E-002,2.58010E+000,-5.12276E-001,1.00232E-001,2.63237E+000,1.09194E-002,6.62598E-001,0,4.03516E+001,-8.62335E+000,9.98515E-001,6.52766E-001,-5.00007E+001,9.98482E-001,1.78549E-001,-7.57807E-002,2.02410E-003,1.78565E-001,-7.57968E-002,4.55954E-001,1.79243E-001,1.19476E+000,4.20078E-002,0.00000E+000,-2.86119E-002,9.28480E-001,0.00000E+000,-1.76348E-003,-6.40942E-002,1.00000E+000,34
1309,1317,3.88863E+001,-4.99873E-001,-1.40779E-001,1.41035E+001,-1.14876E-001,-9.77946E-002,1.41043E+001,2.64131E-002,4.41220E-001,0,2.09318E+002,-3.57769E+000,9.95729E-001,1.85775E+002,-2.85968E+001,9.94146E-001,2.12544E-001,-8.08771E-002,4.08812E-003,2.12601E-001,-8.09341E-002,7.98071E-001,2.14610E-001,1.23684E+000,-1.96655E-003,0.00000E+000,9.16560E-003,9.23635E-001,0.00000E+000,-1.03519E-003,-5.42042E-002,1.00000E+000,34
1309,1327,3.89132E+001,1.06512E-001,-1.63684E-001,1.41082E+001,-1.62387E-001,-1.33843E-001,1.41098E+001,3.07578E-002,4.12883E-001,0,2.09527E+002,-4.30157E+000,9.94776E-001,1.86191E+002,-2.91138E+001,9.92753E-001,2.14871E-001,-8.08118E-002,4.95641E-003,2.14954E-001,-8.08949E-002,9.60064E-001,2.17135E-001,1.23973E+000,-1.86846E-003,0.00000E+000,1.05685E-002,9.23682E-001,0.00000E+000,1.93859E-003,-5.41033E-002,1.00000E+000,34
1309,1337,3.89617E+001,7.16466E-001,-1.32490E-001,1.41215E+001,-2.15323E-001,-1.62729E-001,1.41241E+001,3.17714E-002,4.50654E-001,0,2.09810E+002,-5.12703E+000,9.96314E-001,1.86998E+002,-2.96626E+001,9.95398E-001,2.17203E-001,-8.07125E-002,5.85337E-003,2.17318E-001,-8.08275E-002,1.12515E+000,2.19681E-001,1.24265E+000,-1.71294E-003,0.00000E+000,1.19838E-002,9.23758E-001,0.00000E+000,4.93861E-003,-5.39434E-002,1.00000E+000,34
549,1317,-2.22592E+001,-1.19873E+000,2.77646E-001,2.52017E+000,-4.09537E-001,2.02895E-001,2.56128E+000,2.28333E-002,7.50609E-001,0,3.91292E+001,-7.19411E+000,9.98184E-001,-1.15045E-001,-4.80602E+001,9.97144E-001,1.84158E-001,-7.57478E-002,1.37846E-003,1.84165E-001,-7.57551E-002,3.03867E-001,1.85128E-001,1.20147E+000,4.20406E-002,0.00000E+000,-2.98295E-002,9.28474E-001,0.00000E+000,1.02191E-003,-6.40806E-002,1.00000E+000,34
549,1307,-2.22857E+001,-1.77468E+000,3.65077E-001,2.49215E+000,-3.58499E-001,2.20425E-001,2.52743E+000,1.60977E-002,6.84565E-001,0,3.86327E+001,-6.39670E+000,9.97473E-001,-4.04561E-001,-4.71164E+001,9.96702E-001,1.86953E-001,-7.57271E-002,1.04577E-003,1.86957E-001,-7.57313E-002,2.28097E-001,1.88077E-001,1.20484E+000,4.20328E-002,0.00000E+000,-3.04396E-002,9.28476E-001,0.00000E+000,2.41756E-003,-6.40838E-002,1.00000E+000,34
1309,1287,3.88702E+001,-2.27829E+000,7.09671E-002,1.41121E+001,4.91140E-002,1.16945E-003,1.41122E+001,1.61551E-002,4.68254E-001,0,2.08980E+002,-1.07857E+000,9.97781E-001,1.85678E+002,-2.67496E+001,9.95796E-001,2.05502E-001,-8.09602E-002,1.56323E-003,2.05510E-001,-8.09687E-002,3.12652E-001,2.07044E-001,1.22820E+000,-2.07597E-003,0.00000E+000,4.97571E-003,9.23582E-001,0.00000E+000,-9.91650E-003,-5.43167E-002,1.00000E+000,34
1309,1297,3.88720E+001,-1.69917E+000,-1.68109E-002,1.41104E+001,-1.73902E-002,-3.17551E-002,1.41104E+001,2.21009E-002,4.60852E-001,0,2.09123E+002,-2.08371E+000,9.97341E-001,1.85637E+002,-2.75411E+001,9.95132E-001,2.07862E-001,-8.09457E-002,2.39624E-003,2.07882E-001,-8.09655E-002,4.75339E-001,2.09568E-001,1.23108E+000,-2.06042E-003,0.00000E+000,6.37094E-003,9.23589E-001,0.00000E+000,-6.95905E-003,-5.43007E-002,1.00000E+000,34
1309,1307,3.88735E+001,-1.09426E+000,-9.96593E-002,1.41070E+001,-5.65039E-002,-6.50060E-002,1.41072E+001,2.46494E-002,3.79797E-001,0,2.09227E+002,-2.67073E+000,9.97200E-001,1.85598E+002,-2.79777E+001,9.96406E-001,2.10200E-001,-8.09266E-002,3.22868E-003,2.10236E-001,-8.09624E-002,6.35322E-001,2.12079E-001,1.23394E+000,-2.03878E-003,0.00000E+000,7.76193E-003,9.23600E-001,0.00000E+000,-4.01056E-003,-5.42785E-002,1.00000E+000,34
539,1347,-2.29140E+001,5.67499E-001,5.68592E-002,2.48596E+000,-5.31497E-001,6.17340E-002,2.54289E+000,1.27420E-002,6.41066E-001,0,3.89972E+001,-8.81764E+000,9.97634E-001,-2.79924E-001,-5.06505E+001,9.97705E-001,1.75278E-001,-7.52101E-002,2.53747E-003,1.75304E-001,-7.52358E-002,5.80333E-001,1.75889E-001,1.19074E+000,4.53654E-002,0.00000E+000,-3.03113E-002,9.28876E-001,0.00000E+000,-3.09188E-003,-6.27163E-002,1.00000E+000,34
539,1357,-2.28703E+001,1.17281E+000,4.94470E-002,2.51632E+000,-5.65891E-001,3.02082E-002,2.57935E+000,1.15855E-002,6.48152E-001,0,3.95531E+001,-9.30589E+000,9.98393E-001,5.21835E-001,-5.13461E+001,9.98247E-001,1.72626E-001,-7.52177E-002,2.79033E-003,1.72658E-001,-7.52491E-002,6.44950E-001,1.73131E-001,1.18759E+000,4.53033E-002,0.00000E+000,-2.97993E-002,9.28886E-001,0.00000E+000,-4.54543E-003,-6.27450E-002,1.00000E+000,34
539,1327,-2.29875E+001,-6.06055E-001,1.50603E-001,2.42787E+000,-4.36229E-001,1.33443E-001,2.47036E+000,1.43240E-002,6.34156E-001,0,3.78916E+001,-7.45004E+000,9.95525E-001,-1.42480E+000,-4.88610E+001,9.95715E-001,1.80536E-001,-7.51872E-002,2.01293E-003,1.80552E-001,-7.52031E-002,4.50968E-001,1.81389E-001,1.19701E+000,4.54376E-002,0.00000E+000,-3.13321E-002,9.28864E-001,0.00000E+000,-1.93486E-004,-6.26829E-002,1.00000E+000,34
539,1337,-2.29502E+001,-1.85332E-002,9.27011E-002,2.45866E+000,-4.81023E-001,9.40539E-002,2.50704E+000,1.33215E-002,6.38579E-001,0,3.84809E+001,-8.09719E+000,9.97130E-001,-8.77323E-001,-4.97196E+001,9.97176E-001,1.77918E-001,-7.51995E-002,2.27674E-003,1.77938E-001,-7.52200E-002,5.15308E-001,1.78645E-001,1.19388E+000,4.54071E-002,0.00000E+000,-3.08228E-002,9.28869E-001,0.00000E+000,-1.63955E-003,-6.26970E-002,1.00000E+000,34
1319,1297,3.96737E+001,-1.69095E+000,-4.79688E-002,1.42452E+001,-1.13173E-002,-5.15034E-002,1.42453E+001,1.93968E-002,3.54939E-001,0,2.11029E+002,-1.95082E+000,9.97824E-001,1.88200E+002,-2.73080E+001,9.96063E-001,2.07301E-001,-7.94537E-002,3.39912E-003,2.07342E-001,-7.94940E-002,6.79042E-001,2.09213E-001,1.23040E+000,2.11134E-003,0.00000E+000,5.13280E-003,9.24820E-001,0.00000E+000,-7.44918E-003,-5.09617E-002,1.00000E+000,34
1319,1307,3.96895E+001,-1.09680E+000,-1.14313E-001,1.42528E+001,-6.39922E-002,-7.98909E-002,1.42532E+001,2.34602E-002,3.27587E-001,0,2.11275E+002,-2.76842E+000,9.97371E-001,1.88401E+002,-2.79176E+001,9.96976E-001,2.10014E-001,-7.94310E-002,4.22057E-003,2.10076E-001,-7.94925E-002,8.35227E-001,2.12136E-001,1.23372E+000,2.15319E-003,0.00000E+000,6.49847E-003,9.24837E-001,0.00000E+000,-4.31009E-003,-5.09222E-002,1.00000E+000,34
539,1307,-2.30467E+001,-1.76304E+000,3.47989E-001,2.36711E+000,-3.40857E-001,2.00905E-001,2.39994E+000,1.13115E-002,6.54689E-001,0,3.67449E+001,-6.07048E+000,9.97938E-001,-2.03109E+000,-4.70216E+001,9.97530E-001,1.85731E-001,-7.51525E-002,1.45993E-003,1.85740E-001,-7.51606E-002,3.20619E-001,1.86862E-001,1.20324E+000,4.54299E-002,0.00000E+000,-3.23480E-002,9.28865E-001,0.00000E+000,2.69106E-003,-6.26865E-002,1.00000E+000,34
539,1317,-2.30183E+001,-1.19264E+000,2.41417E-001,2.39780E+000,-3.95256E-001,1.69087E-001,2.43603E+000,1.32081E-002,6.55593E-001,0,3.73207E+001,-6.87604E+000,9.96758E-001,-1.77297E+000,-4.80441E+001,9.96353E-001,1.83140E-001,-7.51709E-002,1.73896E-003,1.83152E-001,-7.51826E-002,3.85693E-001,1.84128E-001,1.20013E+000,4.54410E-002,0.00000E+000,-3.18404E-002,9.28864E-001,0.00000E+000,1.24979E-003,-6.26814E-002,1.00000E+000,34
1319,1287,3.96822E+001,-2.28627E+000,4.98783E-002,1.42548E+001,3.63265E-002,-1.71450E-002,1.42549E+001,2.02386E-002,4.14293E-001,0,2.10999E+002,-1.23592E+000,9.97359E-001,1.88410E+002,-2.67657E+001,9.96515E-001,2.04579E-001,-7.94577E-002,2.59423E-003,2.04603E-001,-7.94814E-002,5.23249E-001,2.06292E-001,1.22708E+000,2.10560E-003,0.00000E+000,3.77144E-003,9.24818E-001,0.00000E+000,-1.05784E-002,-5.09671E-002,1.00000E+000,34
529,1327,-2.37415E+001,-5.88443E-001,1.53629E-001,2.30912E+000,-4.13298E-001,1.31438E-001,2.34949E+000,1.28802E-002,6.46479E-001,0,3.60519E+001,-7.08956E+000,9.95239E-001,-2.87848E+000,-4.86992E+001,9.95379E-001,1.79914E-001,-7.39862E-002,2.43226E-003,1.79937E-001,-7.40095E-002,5.48805E-001,1.80878E-001,1.19617E+000,4.77433E-002,0.00000E+000,-3.24480E-002,9.29865E-001,0.00000E+000,7.50267E-004,-6.12505E-002,1.00000E+000,34
529,1307,-2.38019E+001,-1.74159E+000,3.52299E-001,2.24650E+000,-3.14792E-001,1.96711E-001,2.27696E+000,1.53848E-002,6.24802E-001,0,3.48819E+001,-5.63764E+000,9.98110E-001,-3.49697E+000,-4.68208E+001,9.97501E-001,1.84414E-001,-7.39850E-002,2.32959E-003,1.84435E-001,-7.40060E-002,5.16492E-001,1.85630E-001,1.20157E+000,4.77342E-002,0.00000E+000,-3.26526E-002,9.29865E-001,0.00000E+000,4.03381E-003,-6.12560E-002,1.00000E+000,34
529,1317,-2.37738E+001,-1.17065E+000,2.40157E-001,2.27836E+000,-3.67619E-001,1.68519E-001,2.31397E+000,1.28008E-002,6.24940E-001,0,3.54667E+001,-6.41856E+000,9.97814E-001,-3.26112E+000,-4.78257E+001,9.97359E-001,1.82169E-001,-7.39857E-002,2.38525E-003,1.82192E-001,-7.40079E-002,5.33462E-001,1.83257E-001,1.19887E+000,4.77498E-002,0.00000E+000,-3.25504E-002,9.29865E-001,0.00000E+000,2.39300E-003,-6.12466E-002,1.00000E+000,34
