Coordinates.Image X [Pixel],Coordinates.Image Y [Pixel],coor.X [mm],coor.Y [mm],coor.Z [mm],disp.Horizontal Displacement U [mm],disp.Vertical Displacement V [mm],disp.Out-Of-Plane: W [mm],disp.Displacement Magnitude [mm],stats.Sigma [mm],stats.Epipolar Distance [Pixel],stats.Shape Index [-],SameCamera.Horizontal: u [Pixel],SameCamera.Vertical: v [Pixel],SameCamera.Correlation Value 2D [-],CrossCamera.Horizontal: q [Pixel],CrossCamera.Vertical: r [Pixel],CrossCamera.Correlation Value Persp [-],strain.Strain-global frame: Exx [ ],strain.Strain-global frame: Eyy [ ],strain.Strain-global frame: Exy [ ],strain.Maximum Principal Strain: EI [ ],strain.Minimum Principal Strain: EII [ ],strain.Shear Angle Gamma [deg],strain.Von Mises Equivalent Strain [ ],defgradient.F[0,0] [-],defgradient.F[0,1] [-],defgradient.F[0,2] [-],defgradient.F[1,0] [-],defgradient.F[1,1] [-],defgradient.F[1,2] [-],defgradient.F[2,0] [-],defgradient.F[2,1] [-],defgradient.F[2,2] [-],ext.Current Image [#]
929,1317,8.74981E-001,-8.14403E-001,-8.18545E-003,1.21105E+000,-1.98044E-001,7.85352E-002,1.22965E+000,6.27133E-003,5.05117E-001,0,1.83743E+001,-3.40386E+000,9.99783E-001,-2.61510E+001,-3.84930E+001,9.99075E-001,3.38545E-002,-1.42049E-002,4.12099E-004,3.38580E-002,-1.42084E-002,4.91252E-001,3.40034E-002,1.03444E+000,-9.20519E-003,0.00000E+000,1.00936E-002,9.87223E-001,0.00000E+000,-9.98740E-003,-5.28066E-002,1.00000E+000,5
919,1307,1.91532E-001,-1.45891E+000,2.63100E-002,1.19415E+000,-1.93278E-001,1.17827E-001,1.21542E+000,8.57868E-003,5.18073E-001,0,1.80008E+001,-3.40650E+000,9.99756E-001,-2.67338E+001,-3.86037E+001,9.97032E-001,3.47727E-002,-1.40347E-002,2.40051E-004,3.47738E-002,-1.40358E-002,2.81791E-001,3.49885E-002,1.03539E+000,-8.30722E-003,0.00000E+000,8.86331E-003,9.87447E-001,0.00000E+000,-9.25708E-003,-5.36761E-002,1.00000E+000,5
919,1317,1.87696E-001,-8.34759E-001,-5.59099E-002,1.18751E+000,-2.04122E-001,8.65186E-002,1.20802E+000,8.63323E-003,4.79563E-001,0,1.80049E+001,-3.51128E+000,9.99739E-001,-2.68690E+001,-3.88090E+001,9.97098E-001,3.39404E-002,-1.40379E-002,1.07048E-004,3.39407E-002,-1.40381E-002,1.27836E-001,3.41091E-002,1.03452E+000,-8.31107E-003,0.00000E+000,8.55393E-003,9.87446E-001,0.00000E+000,-8.17707E-003,-5.36713E-002,1.00000E+000,5
919,1327,1.99534E-001,-1.99237E-001,-7.98301E-002,1.18222E+000,-2.15669E-001,4.74675E-002,1.20267E+000,7.74730E-003,5.39642E-001,0,1.80529E+001,-3.61997E+000,9.99810E-001,-2.66283E+001,-3.89138E+001,9.97913E-001,3.30945E-002,-1.40468E-002,-3.72049E-005,3.30945E-002,-1.40469E-002,-4.52190E-002,3.32202E-002,1.03364E+000,-8.33448E-003,0.00000E+000,8.24010E-003,9.87438E-001,0.00000E+000,-7.08157E-003,-5.36423E-002,1.00000E+000,5
929,1307,8.74628E-001,-1.44116E+000,5.70107E-002,1.21788E+000,-1.86524E-001,1.12710E-001,1.23723E+000,5.79543E-003,5.34686E-001,0,1.83633E+001,-3.29285E+000,9.99858E-001,-2.61193E+001,-3.82973E+001,9.99254E-001,3.47154E-002,-1.42022E-002,4.86625E-004,3.47203E-002,-1.42070E-002,5.69895E-001,3.49106E-002,1.03534E+000,-9.19503E-003,0.00000E+000,1.02901E-002,9.87225E-001,0.00000E+000,-1.12638E-002,-5.28209E-002,1.00000E+000,5
929,1327,8.81801E-001,-1.82022E-001,-4.65389E-002,1.20443E+000,-2.08006E-001,4.23612E-002,1.22300E+000,4.92123E-003,4.89903E-001,0,1.83934E+001,-3.49554E+000,9.99871E-001,-2.60214E+001,-3.86526E+001,9.99456E-001,3.29876E-002,-1.42089E-002,3.32967E-004,3.29899E-002,-1.42112E-002,4.04190E-001,3.30951E-002,1.03353E+000,-9.22430E-003,0.00000E+000,9.89629E-003,9.87219E-001,0.00000E+000,-8.70564E-003,-5.27796E-002,1.00000E+000,5
939,1307,1.55163E+000,-1.42664E+000,5.29841E-002,1.24054E+000,-1.78907E-001,9.82909E-002,1.25723E+000,6.74465E-003,5.37055E-001,0,1.87411E+001,-3.14638E+000,9.99853E-001,-2.56745E+001,-3.79749E+001,9.99207E-001,3.46846E-002,-1.39964E-002,7.40774E-004,3.46959E-002,-1.40077E-002,8.71595E-001,3.49096E-002,1.03532E+000,-1.00955E-002,0.00000E+000,1.17152E-002,9.87361E-001,0.00000E+000,-1.27431E-002,-5.17922E-002,1.00000E+000,5
939,1317,1.55243E+000,-8.00214E-001,-6.72319E-003,1.23337E+000,-1.90701E-001,6.61817E-002,1.24978E+000,7.13848E-003,4.58324E-001,0,1.87407E+001,-3.25348E+000,9.99804E-001,-2.56868E+001,-3.82103E+001,9.98736E-001,3.38667E-002,-1.39997E-002,6.60220E-004,3.38758E-002,-1.40088E-002,7.90080E-001,3.40442E-002,1.03446E+000,-1.01063E-002,0.00000E+000,1.15037E-002,9.87359E-001,0.00000E+000,-1.13659E-002,-5.17750E-002,1.00000E+000,5
939,1327,1.56065E+000,-1.63436E-001,-3.64744E-002,1.22649E+000,-1.99535E-001,3.18123E-002,1.24302E+000,4.38459E-003,4.96249E-001,0,1.87499E+001,-3.32660E+000,9.99862E-001,-2.55168E+001,-3.82924E+001,9.99322E-001,3.30387E-002,-1.40046E-002,5.74277E-004,3.30458E-002,-1.40116E-002,6.99294E-001,3.31727E-002,1.03359E+000,-1.01268E-002,0.00000E+000,1.12903E-002,9.87353E-001,0.00000E+000,-9.97596E-003,-5.17422E-002,1.00000E+000,5
919,1337,2.18081E-001,4.41069E-001,-7.98725E-002,1.17872E+000,-2.23956E-001,9.22275E-003,1.19984E+000,5.44848E-003,5.11965E-001,0,1.81237E+001,-3.66708E+000,9.99791E-001,-2.62284E+001,-3.90424E+001,9.98965E-001,3.22459E-002,-1.40578E-002,-1.84852E-004,3.22467E-002,-1.40585E-002,-2.28729E-001,3.23347E-002,1.03275E+000,-8.36460E-003,0.00000E+000,7.92604E-003,9.87427E-001,0.00000E+000,-5.98521E-003,-5.36049E-002,1.00000E+000,5
929,1337,8.96049E-001,4.57013E-001,-6.12441E-002,1.19907E+000,-2.16921E-001,1.54893E-003,1.21854E+000,4.85443E-003,4.95084E-001,0,1.84456E+001,-3.55000E+000,9.99900E-001,-2.57228E+001,-3.87519E+001,9.99542E-001,3.21125E-002,-1.42142E-002,2.49074E-004,3.21138E-002,-1.42155E-002,3.08037E-001,3.21841E-002,1.03262E+000,-9.25223E-003,0.00000E+000,9.69766E-003,9.87213E-001,0.00000E+000,-7.41534E-003,-5.27402E-002,1.00000E+000,5
939,1337,1.57326E+000,4.74439E-001,-5.36234E-002,1.22035E+000,-2.08592E-001,-6.86268E-003,1.23807E+000,4.02851E-003,5.03415E-001,0,1.87841E+001,-3.39822E+000,9.99896E-001,-2.52504E+001,-3.84021E+001,9.99583E-001,3.22075E-002,-1.40103E-002,4.85786E-004,3.22126E-002,-1.40154E-002,6.02137E-001,3.23030E-002,1.03272E+000,-1.01524E-002,0.00000E+000,1.10767E-002,9.87347E-001,0.00000E+000,-8.58490E-003,-5.17013E-002,1.00000E+000,5
949,1317,2.23217E+000,-7.81555E-001,-5.54964E-004,1.25615E+000,-1.81607E-001,5.27140E-002,1.27030E+000,7.41587E-003,4.93300E-001,0,1.91170E+001,-3.08578E+000,9.99796E-001,-2.51731E+001,-3.78277E+001,9.98863E-001,3.38584E-002,-1.38742E-002,8.56238E-004,3.38737E-002,-1.38896E-002,1.02734E+000,3.40560E-002,1.03445E+000,-1.09171E-002,0.00000E+000,1.27014E-002,9.87408E-001,0.00000E+000,-1.23738E-002,-5.05551E-002,1.00000E+000,5
949,1327,2.23861E+000,-1.47025E-001,-3.44527E-002,1.24858E+000,-1.90782E-001,1.95089E-002,1.26322E+000,6.52151E-003,4.85487E-001,0,1.91127E+001,-3.16520E+000,9.99791E-001,-2.50407E+001,-3.79570E+001,9.99317E-001,3.31238E-002,-1.38783E-002,7.83250E-004,3.31368E-002,-1.38913E-002,9.54433E-001,3.32807E-002,1.03368E+000,-1.09342E-002,0.00000E+000,1.25044E-002,9.87403E-001,0.00000E+000,-1.08398E-002,-5.05214E-002,1.00000E+000,5
949,1337,2.25079E+000,4.90969E-001,-5.02763E-002,1.24251E+000,-1.99772E-001,-1.48766E-002,1.25855E+000,6.08137E-003,5.15731E-001,0,1.91345E+001,-3.25320E+000,9.99795E-001,-2.47793E+001,-3.80547E+001,9.99109E-001,3.23836E-002,-1.38832E-002,7.07437E-004,3.23944E-002,-1.38940E-002,8.75803E-001,3.25034E-002,1.03290E+000,-1.09566E-002,0.00000E+000,1.23066E-002,9.87398E-001,0.00000E+000,-9.30014E-003,-5.04773E-002,1.00000E+000,5
949,1307,2.23206E+000,-1.41021E+000,5.86965E-002,1.26373E+000,-1.71244E-001,8.25890E-002,1.27795E+000,6.18418E-003,5.37523E-001,0,1.91308E+001,-2.99126E+000,9.99833E-001,-2.51510E+001,-3.76443E+001,9.99139E-001,3.45863E-002,-1.38714E-002,9.25130E-004,3.46040E-002,-1.38891E-002,1.09333E+000,3.48276E-002,1.03523E+000,-1.09078E-002,0.00000E+000,1.28975E-002,9.87410E-001,0.00000E+000,-1.38998E-002,-5.05735E-002,1.00000E+000,5
909,1317,-4.84915E-001,-8.48700E-001,-6.07341E-002,1.16661E+000,-2.10257E-001,8.40023E-002,1.18837E+000,8.05782E-003,4.39185E-001,0,1.77081E+001,-3.60781E+000,9.99738E-001,-2.72592E+001,-3.91238E+001,9.96969E-001,3.40941E-002,-1.40672E-002,-2.19501E-004,3.40951E-002,-1.40682E-002,-2.61125E-001,3.42682E-002,1.03467E+000,-7.34951E-003,0.00000E+000,6.88907E-003,9.87441E-001,0.00000E+000,-6.18364E-003,-5.39052E-002,1.00000E+000,5
909,1327,-4.71905E-001,-2.10853E-001,-8.41978E-002,1.16298E+000,-2.20024E-001,4.71766E-002,1.18455E+000,6.25193E-003,4.99438E-001,0,1.77730E+001,-3.67795E+000,9.99754E-001,-2.69980E+001,-3.91950E+001,9.98279E-001,3.32882E-002,-1.40754E-002,-3.59301E-004,3.32909E-002,-1.40781E-002,-4.34613E-001,3.34227E-002,1.03384E+000,-7.37093E-003,0.00000E+000,6.59750E-003,9.87434E-001,0.00000E+000,-5.39920E-003,-5.38851E-002,1.00000E+000,5
909,1337,-4.53529E-001,4.32522E-001,-8.09670E-002,1.15920E+000,-2.28149E-001,1.12284E-002,1.18150E+000,6.41260E-003,5.52304E-001,0,1.78310E+001,-3.72145E+000,9.99795E-001,-2.65917E+001,-3.92447E+001,9.98969E-001,3.24775E-002,-1.40857E-002,-5.03110E-004,3.24830E-002,-1.40912E-002,-6.18977E-001,3.25777E-002,1.03299E+000,-7.39943E-003,0.00000E+000,6.30467E-003,9.87424E-001,0.00000E+000,-4.61135E-003,-5.38584E-002,1.00000E+000,5
909,1307,-4.81634E-001,-1.47189E+000,2.95314E-002,1.17167E+000,-1.98647E-001,1.18662E-001,1.19430E+000,8.29670E-003,4.35380E-001,0,1.76690E+001,-3.48789E+000,9.99694E-001,-2.71134E+001,-3.89404E+001,9.96535E-001,3.48865E-002,-1.40647E-002,-9.08226E-005,3.48866E-002,-1.40649E-002,-1.06304E-001,3.51041E-002,1.03550E+000,-7.34710E-003,0.00000E+000,7.17616E-003,9.87442E-001,0.00000E+000,-6.95603E-003,-5.39074E-002,1.00000E+000,5
919,1347,2.40124E-001,1.08727E+000,-6.77180E-002,1.17547E+000,-2.30298E-001,-3.17343E-002,1.19824E+000,8.31772E-003,5.24187E-001,0,1.82058E+001,-3.67446E+000,9.99891E-001,-2.57460E+001,-3.90898E+001,9.99420E-001,3.13911E-002,-1.40700E-002,-3.35398E-004,3.13936E-002,-1.40724E-002,-4.22680E-001,3.14496E-002,1.03187E+000,-8.39916E-003,0.00000E+000,7.61037E-003,9.87415E-001,0.00000E+000,-4.88327E-003,-5.35620E-002,1.00000E+000,5
929,1347,9.16528E-001,1.10189E+000,-4.83395E-002,1.19477E+000,-2.23597E-001,-3.54756E-002,1.21603E+000,4.73806E-003,4.84465E-001,0,1.84997E+001,-3.57209E+000,9.99899E-001,-2.52648E+001,-3.88318E+001,9.99517E-001,3.12317E-002,-1.42205E-002,1.61269E-004,3.12322E-002,-1.42211E-002,2.03287E-001,3.12737E-002,1.03170E+000,-9.28754E-003,0.00000E+000,9.49827E-003,9.87205E-001,0.00000E+000,-6.12009E-003,-5.26904E-002,1.00000E+000,5
939,1347,1.59180E+000,1.11890E+000,-4.10470E-002,1.21441E+000,-2.15782E-001,-4.19057E-002,1.23414E+000,7.84866E-003,5.06468E-001,0,1.88075E+001,-3.43638E+000,9.99860E-001,-2.48251E+001,-3.84797E+001,9.98938E-001,3.13692E-002,-1.40173E-002,3.93021E-004,3.13726E-002,-1.40207E-002,4.96099E-001,3.14315E-002,1.03184E+000,-1.01859E-002,0.00000E+000,1.08620E-002,9.87339E-001,0.00000E+000,-7.18631E-003,-5.16480E-002,1.00000E+000,5
949,1347,2.27181E+000,1.13688E+000,-2.77350E-002,1.23700E+000,-2.07893E-001,-4.82770E-002,1.25528E+000,6.62453E-003,5.33807E-001,0,1.91597E+001,-3.30311E+000,9.99631E-001,-2.42954E+001,-3.81228E+001,9.98754E-001,3.16344E-002,-1.38896E-002,6.26108E-004,3.16430E-002,-1.38983E-002,7.87810E-001,3.17209E-002,1.03211E+000,-1.09892E-002,0.00000E+000,1.21071E-002,9.87389E-001,0.00000E+000,-7.74782E-003,-5.04130E-002,1.00000E+000,5
959,1317,2.90890E+000,-7.66520E-001,-3.67118E-003,1.27739E+000,-1.73640E-001,3.85996E-002,1.28971E+000,6.10467E-003,5.12775E-001,0,1.94725E+001,-2.94610E+000,9.99821E-001,-2.47231E+001,-3.74893E+001,9.99367E-001,3.39023E-002,-1.37525E-002,9.35506E-004,3.39207E-002,-1.37708E-002,1.12419E+000,3.41200E-002,1.03450E+000,-1.17284E-002,0.00000E+000,1.36467E-002,9.87457E-001,0.00000E+000,-1.29721E-002,-4.93462E-002,1.00000E+000,5
959,1327,2.91364E+000,-1.31517E-001,-4.49571E-002,1.26978E+000,-1.81586E-001,6.08050E-003,1.28272E+000,1.02857E-002,5.24509E-001,0,1.94662E+001,-3.01506E+000,9.99898E-001,-2.46340E+001,-3.75841E+001,9.99336E-001,3.32208E-002,-1.37551E-002,8.83786E-004,3.32375E-002,-1.37717E-002,1.07743E+000,3.33996E-002,1.03377E+000,-1.17425E-002,0.00000E+000,1.34867E-002,9.87454E-001,0.00000E+000,-1.13617E-002,-4.93150E-002,1.00000E+000,5
959,1337,2.92846E+000,5.08534E-001,-4.87150E-002,1.26397E+000,-1.91048E-001,-2.61611E-002,1.27859E+000,8.60815E-003,5.28257E-001,0,1.94851E+001,-3.08860E+000,9.99760E-001,-2.43063E+001,-3.76876E+001,9.99040E-001,3.25313E-002,-1.37587E-002,8.27101E-004,3.25460E-002,-1.37735E-002,1.02332E+000,3.26738E-002,1.03304E+000,-1.17661E-002,0.00000E+000,1.33256E-002,9.87448E-001,0.00000E+000,-9.73918E-003,-4.92625E-002,1.00000E+000,5
959,1307,2.90849E+000,-1.39530E+000,5.65111E-002,1.28555E+000,-1.61779E-001,7.29418E-002,1.29774E+000,4.95908E-003,5.11133E-001,0,1.94791E+001,-2.82895E+000,9.99819E-001,-2.47030E+001,-3.73346E+001,9.99400E-001,3.45791E-002,-1.37504E-002,9.84989E-004,3.45992E-002,-1.37704E-002,1.16708E+000,3.48384E-002,1.03522E+000,-1.17188E-002,0.00000E+000,1.38063E-002,9.87459E-001,0.00000E+000,-1.45787E-002,-4.93678E-002,1.00000E+000,5
959,1347,2.94821E+000,1.15103E+000,-3.38862E-002,1.25910E+000,-2.00349E-001,-5.79058E-002,1.27626E+000,5.51413E-003,5.23358E-001,0,1.95160E+001,-3.16611E+000,9.99721E-001,-2.38613E+001,-3.78014E+001,9.99412E-001,3.18371E-002,-1.37630E-002,7.67985E-004,3.18500E-002,-1.37759E-002,9.64597E-001,3.19466E-002,1.03231E+000,-1.17944E-002,0.00000E+000,1.31640E-002,9.87442E-001,0.00000E+000,-8.11312E-003,-4.91997E-002,1.00000E+000,5
909,1347,-4.29781E-001,1.07874E+000,-5.23326E-002,1.15576E+000,-2.33978E-001,-2.32448E-002,1.17943E+000,8.11525E-003,5.21374E-001,0,1.78875E+001,-3.74064E+000,9.99875E-001,-2.60431E+001,-3.93512E+001,9.98815E-001,3.16662E-002,-1.40980E-002,-6.49992E-004,3.16754E-002,-1.41072E-002,-8.13557E-001,3.17384E-002,1.03215E+000,-7.43438E-003,0.00000E+000,6.01205E-003,9.87411E-001,0.00000E+000,-3.82405E-003,-5.38257E-002,1.00000E+000,5
899,1327,-1.13611E+000,-2.12994E-001,-4.95983E-002,1.14245E+000,-2.22110E-001,4.81022E-002,1.16483E+000,3.74203E-003,5.14333E-001,0,1.74664E+001,-3.70378E+000,9.99710E-001,-2.71611E+001,-3.93862E+001,9.99522E-001,3.34646E-002,-1.40973E-002,-6.62721E-004,3.34739E-002,-1.41066E-002,-7.98143E-001,3.36114E-002,1.03402E+000,-6.41394E-003,0.00000E+000,5.00037E-003,9.87445E-001,0.00000E+000,-3.75154E-003,-5.43342E-002,1.00000E+000,5
899,1337,-1.12037E+000,4.25901E-001,-6.48867E-002,1.13992E+000,-2.30320E-001,1.08284E-002,1.16301E+000,6.09821E-003,5.29120E-001,0,1.75479E+001,-3.75327E+000,9.99881E-001,-2.68371E+001,-3.94862E+001,9.99679E-001,3.27133E-002,-1.41035E-002,-7.66892E-004,3.27258E-002,-1.41160E-002,-9.38211E-001,3.28285E-002,1.03324E+000,-6.43568E-003,0.00000E+000,4.79635E-003,9.87439E-001,0.00000E+000,-3.30709E-003,-5.43218E-002,1.00000E+000,5
899,1347,-1.09599E+000,1.07182E+000,-3.79138E-002,1.13728E+000,-2.36632E-001,-2.54513E-002,1.16192E+000,5.15577E-003,5.03219E-001,0,1.76221E+001,-3.77281E+000,9.99908E-001,-2.62806E+001,-3.95931E+001,9.99493E-001,3.19571E-002,-1.41120E-002,-8.76568E-004,3.19738E-002,-1.41287E-002,-1.08965E+000,3.20457E-002,1.03246E+000,-6.46773E-003,0.00000E+000,4.59122E-003,9.87431E-001,0.00000E+000,-2.86023E-003,-5.43035E-002,1.00000E+000,5
899,1317,-1.14516E+000,-8.46158E-001,-7.05088E-003,1.14606E+000,-2.11979E-001,8.62022E-002,1.16869E+000,4.89950E-003,5.04461E-001,0,1.73972E+001,-3.63139E+000,9.99750E-001,-2.73175E+001,-3.92556E+001,9.99100E-001,3.42120E-002,-1.40927E-002,-5.62157E-004,3.42186E-002,-1.40993E-002,-6.66671E-001,3.43946E-002,1.03479E+000,-6.39880E-003,0.00000E+000,5.20352E-003,9.87449E-001,0.00000E+000,-4.19409E-003,-5.43429E-002,1.00000E+000,5
899,1307,-1.14810E+000,-1.47342E+000,6.05004E-002,1.15012E+000,-2.00303E-001,1.22719E-001,1.17387E+000,5.71458E-003,4.67925E-001,0,1.73384E+001,-3.51045E+000,9.99723E-001,-2.73204E+001,-3.91010E+001,9.98384E-001,3.49549E-002,-1.40897E-002,-4.65295E-004,3.49593E-002,-1.40941E-002,-5.43511E-001,3.51772E-002,1.03556E+000,-6.39033E-003,0.00000E+000,5.40562E-003,9.87451E-001,0.00000E+000,-4.63435E-003,-5.43477E-002,1.00000E+000,5
889,1327,-1.80535E+000,-2.19041E-001,-3.85613E-002,1.12124E+000,-2.24460E-001,4.75728E-002,1.14447E+000,3.21801E-003,5.42773E-001,0,1.71547E+001,-3.74461E+000,9.99749E-001,-2.74524E+001,-3.95806E+001,9.99719E-001,3.37082E-002,-1.38118E-002,-9.81399E-004,3.37285E-002,-1.38321E-002,-1.18262E+000,3.39097E-002,1.03427E+000,-5.54534E-003,0.00000E+000,3.45226E-003,9.87778E-001,0.00000E+000,-2.00399E-003,-5.51737E-002,1.00000E+000,5
889,1337,-1.79301E+000,4.18919E-001,-5.86509E-002,1.11658E+000,-2.31979E-001,1.07357E-002,1.14047E+000,5.16850E-003,5.35226E-001,0,1.72012E+001,-3.78279E+000,9.99863E-001,-2.71910E+001,-3.96980E+001,9.99722E-001,3.29525E-002,-1.38126E-002,-1.00562E-003,3.29741E-002,-1.38342E-002,-1.23131E+000,3.31160E-002,1.03349E+000,-5.56561E-003,0.00000E+000,3.43877E-003,9.87778E-001,0.00000E+000,-2.20585E-003,-5.51790E-002,1.00000E+000,5
889,1347,-1.76862E+000,1.06356E+000,-3.28464E-002,1.11473E+000,-2.38836E-001,-2.40597E-002,1.14028E+000,4.43720E-003,5.09760E-001,0,1.72823E+001,-3.81633E+000,9.99847E-001,-2.66351E+001,-3.98236E+001,9.99584E-001,3.21909E-002,-1.38137E-002,-1.03521E-003,3.22142E-002,-1.38370E-002,-1.28841E+000,3.23207E-002,1.03270E+000,-5.59672E-003,0.00000E+000,3.42518E-003,9.87778E-001,0.00000E+000,-2.40909E-003,-5.51870E-002,1.00000E+000,5
969,1297,3.59539E+000,-2.00414E+000,1.40520E-001,1.31777E+000,-1.40833E-001,8.67958E-002,1.32811E+000,9.03370E-003,4.53417E-001,0,1.99027E+001,-2.51118E+000,9.99848E-001,-2.40056E+001,-3.68632E+001,9.98789E-001,3.51861E-002,-1.37051E-002,1.02804E-003,3.52077E-002,-1.37267E-002,1.20406E+000,3.54912E-002,1.03587E+000,-1.24226E-002,0.00000E+000,1.46230E-002,9.87430E-001,0.00000E+000,-1.64001E-002,-4.80433E-002,1.00000E+000,5
969,1307,3.58708E+000,-1.37932E+000,5.52522E-002,1.30746E+000,-1.53446E-001,5.72734E-002,1.31768E+000,1.36133E-002,5.05380E-001,0,1.98493E+001,-2.66298E+000,9.99774E-001,-2.42160E+001,-3.69996E+001,9.98291E-001,3.45700E-002,-1.37059E-002,9.97428E-004,3.45906E-002,-1.37265E-002,1.18311E+000,3.48352E-002,1.03520E+000,-1.24245E-002,0.00000E+000,1.44941E-002,9.87430E-001,0.00000E+000,-1.47698E-002,-4.80386E-002,1.00000E+000,5
969,1317,3.58918E+000,-7.50305E-001,2.24197E-003,1.29993E+000,-1.65296E-001,2.56454E-002,1.31065E+000,5.67666E-003,4.91178E-001,0,1.98437E+001,-2.78808E+000,9.99896E-001,-2.41947E+001,-3.71723E+001,9.99376E-001,3.39492E-002,-1.37074E-002,9.62888E-004,3.39687E-002,-1.37268E-002,1.15702E+000,3.41763E-002,1.03454E+000,-1.24345E-002,0.00000E+000,1.43648E-002,9.87428E-001,0.00000E+000,-1.31349E-002,-4.80139E-002,1.00000E+000,5
889,1317,-1.81449E+000,-8.51213E-001,6.46431E-003,1.12419E+000,-2.13964E-001,8.60004E-002,1.14759E+000,4.44156E-003,5.55819E-001,0,1.70747E+001,-3.67706E+000,9.99816E-001,-2.76050E+001,-3.94267E+001,9.99538E-001,3.44611E-002,-1.38112E-002,-9.60011E-004,3.44802E-002,-1.38303E-002,-1.13886E+000,3.47043E-002,1.03505E+000,-5.53082E-003,0.00000E+000,3.46572E-003,9.87779E-001,0.00000E+000,-1.80273E-003,-5.51700E-002,1.00000E+000,5
969,1327,3.59491E+000,-1.13364E-001,-3.30794E-002,1.29262E+000,-1.71814E-001,-3.57908E-003,1.30399E+000,6.04404E-003,5.10905E-001,0,1.98307E+001,-2.84811E+000,9.99903E-001,-2.40778E+001,-3.72445E+001,9.99456E-001,3.33236E-002,-1.37091E-002,9.26468E-004,3.33418E-002,-1.37274E-002,1.12805E+000,3.35146E-002,1.03387E+000,-1.24482E-002,0.00000E+000,1.42352E-002,9.87425E-001,0.00000E+000,-1.14953E-002,-4.79803E-002,1.00000E+000,5
889,1307,-1.81822E+000,-1.47875E+000,7.49344E-002,1.12675E+000,-2.03360E-001,1.20436E-001,1.15127E+000,5.89841E-003,5.16418E-001,0,1.70008E+001,-3.56406E+000,9.99734E-001,-2.76179E+001,-3.92778E+001,9.99042E-001,3.52093E-002,-1.38109E-002,-9.41995E-004,3.52274E-002,-1.38290E-002,-1.10048E+000,3.54975E-002,1.03582E+000,-5.52310E-003,0.00000E+000,3.47910E-003,9.87779E-001,0.00000E+000,-1.60259E-003,-5.51680E-002,1.00000E+000,5
969,1337,3.60753E+000,5.22864E-001,-4.37840E-002,1.28667E+000,-1.82148E-001,-3.30761E-002,1.29992E+000,6.26029E-003,4.69208E-001,0,1.98396E+001,-2.94629E+000,9.99819E-001,-2.38007E+001,-3.74134E+001,9.99444E-001,3.26930E-002,-1.37113E-002,8.87074E-004,3.27100E-002,-1.37283E-002,1.09474E+000,3.28503E-002,1.03320E+000,-1.24678E-002,0.00000E+000,1.41051E-002,9.87421E-001,0.00000E+000,-9.85072E-003,-4.79322E-002,1.00000E+000,5
969,1347,3.62377E+000,1.16855E+000,-3.70886E-002,1.27954E+000,-1.89158E-001,-6.63058E-002,1.29514E+000,5.41643E-003,4.81688E-001,0,1.98412E+001,-2.96799E+000,9.99786E-001,-2.34291E+001,-3.74503E+001,9.99383E-001,3.20543E-002,-1.37139E-002,8.44889E-004,3.20699E-002,-1.37295E-002,1.05721E+000,3.21802E-002,1.03253E+000,-1.24925E-002,0.00000E+000,1.39740E-002,9.87416E-001,0.00000E+000,-8.19313E-003,-4.78715E-002,1.00000E+000,5
879,1327,-2.47381E+000,-2.23967E-001,-2.46453E-002,1.10027E+000,-2.25500E-001,4.92390E-002,1.12422E+000,3.85333E-003,5.48859E-001,0,1.68388E+001,-3.76340E+000,9.99848E-001,-2.77201E+001,-3.97751E+001,9.99772E-001,3.40166E-002,-1.39265E-002,-1.16636E-003,3.40450E-002,-1.39548E-002,-1.39280E+000,3.42288E-002,1.03459E+000,-4.77708E-003,0.00000E+000,2.27790E-003,9.87652E-001,0.00000E+000,-6.03668E-004,-5.48698E-002,1.00000E+000,5
879,1337,-2.46136E+000,4.12638E-001,-4.88674E-002,1.09638E+000,-2.33485E-001,1.07160E-002,1.12102E+000,3.54047E-003,5.31557E-001,0,1.69020E+001,-3.80529E+000,9.99840E-001,-2.74660E+001,-3.99112E+001,9.99714E-001,3.32836E-002,-1.39265E-002,-1.17694E-003,3.33129E-002,-1.39558E-002,-1.42720E+000,3.34585E-002,1.03383E+000,-4.79597E-003,0.00000E+000,2.30636E-003,9.87653E-001,0.00000E+000,-1.12130E-003,-5.48827E-002,1.00000E+000,5
879,1347,-2.43911E+000,1.05859E+000,-2.68542E-002,1.09389E+000,-2.39282E-001,-2.15501E-002,1.11996E+000,4.76753E-003,5.51260E-001,0,1.69643E+001,-3.82884E+000,9.99823E-001,-2.69501E+001,-3.99878E+001,9.99605E-001,3.25433E-002,-1.39265E-002,-1.19218E-003,3.25738E-002,-1.39570E-002,-1.46863E+000,3.26848E-002,1.03307E+000,-4.82441E-003,0.00000E+000,2.33507E-003,9.87654E-001,0.00000E+000,-1.64352E-003,-5.49022E-002,1.00000E+000,5
879,1307,-2.48792E+000,-1.48060E+000,9.60937E-002,1.10285E+000,-2.03085E-001,1.22123E-001,1.12803E+000,5.76492E-003,5.26486E-001,0,1.66406E+001,-3.55906E+000,9.99681E-001,-2.78878E+001,-3.94344E+001,9.99305E-001,3.54720E-002,-1.39264E-002,-1.15401E-003,3.54989E-002,-1.39534E-002,-1.33753E+000,3.57685E-002,1.03610E+000,-4.75741E-003,0.00000E+000,2.22131E-003,9.87652E-001,0.00000E+000,4.25700E-004,-5.48564E-002,1.00000E+000,5
879,1317,-2.48318E+000,-8.56073E-001,2.27891E-002,1.10271E+000,-2.14579E-001,8.91358E-002,1.12692E+000,4.28928E-003,5.09081E-001,0,1.67469E+001,-3.67666E+000,9.99851E-001,-2.78708E+001,-3.96498E+001,9.99543E-001,3.47480E-002,-1.39264E-002,-1.15828E-003,3.47755E-002,-1.39540E-002,-1.36241E+000,3.50008E-002,1.03535E+000,-4.76332E-003,0.00000E+000,2.24947E-003,9.87652E-001,0.00000E+000,-8.66485E-005,-5.48604E-002,1.00000E+000,5
979,1307,4.27529E+000,-1.36067E+000,7.40723E-002,1.33533E+000,-1.44503E-001,4.75316E-002,1.34396E+000,9.45470E-003,5.10272E-001,0,2.02893E+001,-2.50604E+000,9.99944E-001,-2.35332E+001,-3.66600E+001,9.99467E-001,3.45411E-002,-1.36595E-002,9.45422E-004,3.45597E-002,-1.36780E-002,1.12324E+000,3.48090E-002,1.03516E+000,-1.30758E-002,0.00000E+000,1.49661E-002,9.87398E-001,0.00000E+000,-1.42135E-002,-4.65476E-002,1.00000E+000,5
979,1317,4.27316E+000,-7.30969E-001,1.27238E-002,1.32509E+000,-1.55262E-001,1.47590E-002,1.33423E+000,4.05736E-003,4.95499E-001,0,2.02470E+001,-2.60550E+000,9.99890E-001,-2.35954E+001,-3.68036E+001,9.99592E-001,3.40271E-002,-1.36601E-002,9.26755E-004,3.40451E-002,-1.36781E-002,1.11293E+000,3.42634E-002,1.03461E+000,-1.30828E-002,0.00000E+000,1.48709E-002,9.87397E-001,0.00000E+000,-1.26692E-002,-4.65281E-002,1.00000E+000,5
979,1327,4.27678E+000,-9.67196E-002,-2.73668E-002,1.31646E+000,-1.63696E-001,-1.52440E-002,1.32669E+000,4.11289E-003,4.90977E-001,0,2.02181E+001,-2.68815E+000,9.99813E-001,-2.35224E+001,-3.69181E+001,9.99415E-001,3.35093E-002,-1.36609E-002,9.06274E-004,3.35268E-002,-1.36783E-002,1.10027E+000,3.37155E-002,1.03405E+000,-1.30935E-002,0.00000E+000,1.47756E-002,9.87395E-001,0.00000E+000,-1.11217E-002,-4.64983E-002,1.00000E+000,5
979,1337,4.28527E+000,5.40903E-001,-4.54080E-002,1.30855E+000,-1.71800E-001,-4.17282E-002,1.32044E+000,6.06943E-003,4.76527E-001,0,2.01870E+001,-2.76531E+000,9.99692E-001,-2.33263E+001,-3.70348E+001,9.99047E-001,3.29872E-002,-1.36618E-002,8.83919E-004,3.30040E-002,-1.36786E-002,1.08514E+000,3.31646E-002,1.03350E+000,-1.31078E-002,0.00000E+000,1.46799E-002,9.87393E-001,0.00000E+000,-9.56912E-003,-4.64582E-002,1.00000E+000,5
979,1347,4.30126E+000,1.18589E+000,-3.21964E-002,1.29965E+000,-1.79254E-001,-7.45432E-002,1.31407E+000,6.51802E-003,4.73778E-001,0,2.01607E+001,-2.80854E+000,9.99539E-001,-2.29464E+001,-3.71030E+001,9.98705E-001,3.24585E-002,-1.36631E-002,8.57792E-004,3.24745E-002,-1.36791E-002,1.06512E+000,3.26085E-002,1.03294E+000,-1.31297E-002,0.00000E+000,1.45835E-002,9.87389E-001,0.00000E+000,-8.00473E-003,-4.63971E-002,1.00000E+000,5
979,1297,4.27541E+000,-1.98641E+000,1.40721E-001,1.34197E+000,-1.30321E-001,7.84254E-002,1.35056E+000,8.15137E-003,4.83290E-001,0,2.02816E+001,-2.33591E+000,9.99875E-001,-2.34897E+001,-3.64882E+001,9.99040E-001,3.50524E-002,-1.36589E-002,9.63366E-004,3.50714E-002,-1.36780E-002,1.13255E+000,3.53532E-002,1.03571E+000,-1.30702E-002,0.00000E+000,1.50612E-002,9.87399E-001,0.00000E+000,-1.57573E-002,-4.65633E-002,1.00000E+000,5
869,1317,-3.15661E+000,-8.60411E-001,2.29529E-002,1.07767E+000,-2.14899E-001,8.38254E-002,1.10208E+000,4.23491E-003,5.09964E-001,0,1.63912E+001,-3.65635E+000,9.99835E-001,-2.82439E+001,-3.98072E+001,9.99272E-001,3.49549E-002,-1.40363E-002,-1.23204E-003,3.49859E-002,-1.40673E-002,-1.43967E+000,3.52088E-002,1.03557E+000,-3.95681E-003,0.00000E+000,1.26732E-003,9.87529E-001,0.00000E+000,1.19198E-003,-5.45530E-002,1.00000E+000,5
869,1327,-3.14693E+000,-2.29081E-001,-2.37891E-002,1.07601E+000,-2.25158E-001,4.62614E-002,1.10029E+000,4.26667E-003,5.41298E-001,0,1.64865E+001,-3.74890E+000,9.99851E-001,-2.80865E+001,-3.99519E+001,9.99542E-001,3.42810E-002,-1.40364E-002,-1.24087E-003,3.43129E-002,-1.40683E-002,-1.47015E+000,3.44977E-002,1.03487E+000,-3.96902E-003,0.00000E+000,1.30660E-003,9.87529E-001,0.00000E+000,4.00144E-004,-5.45669E-002,1.00000E+000,5
869,1337,-3.13200E+000,4.06938E-001,-4.26308E-002,1.07414E+000,-2.34488E-001,1.02735E-002,1.09948E+000,4.31367E-003,5.45054E-001,0,1.65721E+001,-3.81940E+000,9.99752E-001,-2.77805E+001,-4.00995E+001,9.99573E-001,3.36032E-002,-1.40365E-002,-1.25250E-003,3.36361E-002,-1.40694E-002,-1.50498E+000,3.37855E-002,1.03417E+000,-3.98695E-003,0.00000E+000,1.34605E-003,9.87530E-001,0.00000E+000,-3.95145E-004,-5.45872E-002,1.00000E+000,5
869,1347,-3.11216E+000,1.05045E+000,-3.37279E-002,1.07197E+000,-2.39390E-001,-2.30956E-002,1.09862E+000,5.96718E-003,5.35510E-001,0,1.66425E+001,-3.83273E+000,9.99815E-001,-2.73312E+001,-4.02015E+001,9.99607E-001,3.29220E-002,-1.40367E-002,-1.26680E-003,3.29562E-002,-1.40708E-002,-1.54416E+000,3.30732E-002,1.03346E+000,-4.01033E-003,0.00000E+000,1.38563E-003,9.87532E-001,0.00000E+000,-1.19308E-003,-5.46137E-002,1.00000E+000,5
869,1307,-3.16001E+000,-1.48359E+000,1.06807E-001,1.07861E+000,-2.02030E-001,1.24954E-001,1.10446E+000,5.14566E-003,5.36550E-001,0,1.62711E+001,-3.54897E+000,9.99728E-001,-2.82149E+001,-3.95870E+001,9.99263E-001,3.56232E-002,-1.40363E-002,-1.22676E-003,3.56534E-002,-1.40666E-002,-1.41425E+000,3.59168E-002,1.03626E+000,-3.95191E-003,0.00000E+000,1.22831E-003,9.87528E-001,0.00000E+000,1.97850E-003,-5.45474E-002,1.00000E+000,5
989,1307,4.95373E+000,-1.34190E+000,7.01426E-002,1.35696E+000,-1.32703E-001,3.29935E-002,1.36383E+000,7.07985E-003,5.08721E-001,0,2.06502E+001,-2.29380E+000,9.99784E-001,-2.30467E+001,-3.62745E+001,9.99048E-001,3.44610E-002,-1.36718E-002,8.41627E-004,3.44757E-002,-1.36865E-002,1.00144E+000,3.47188E-002,1.03506E+000,-1.35509E-002,0.00000E+000,1.51495E-002,9.87319E-001,0.00000E+000,-1.31803E-002,-4.51543E-002,1.00000E+000,5
989,1317,4.94968E+000,-7.10108E-001,7.58728E-003,1.34593E+000,-1.42522E-001,4.53430E-003,1.35346E+000,6.12358E-003,5.42003E-001,0,2.05817E+001,-2.38560E+000,9.99888E-001,-2.31414E+001,-3.63577E+001,9.99365E-001,3.40588E-002,-1.36715E-002,8.41283E-004,3.40737E-002,-1.36864E-002,1.00946E+000,3.42926E-002,1.03462E+000,-1.35556E-002,0.00000E+000,1.50923E-002,9.87319E-001,0.00000E+000,-1.17031E-002,-4.51383E-002,1.00000E+000,5
989,1327,4.95736E+000,-7.53878E-002,-2.20495E-002,1.33930E+000,-1.52786E-001,-2.36020E-002,1.34819E+000,7.30534E-003,5.59521E-001,0,2.05778E+001,-2.49932E+000,9.99817E-001,-2.29842E+001,-3.64744E+001,9.99156E-001,3.36532E-002,-1.36712E-002,8.38526E-004,3.36681E-002,-1.36861E-002,1.01478E+000,3.38638E-002,1.03419E+000,-1.35653E-002,0.00000E+000,1.50350E-002,9.87318E-001,0.00000E+000,-1.02219E-002,-4.51051E-002,1.00000E+000,5
989,1297,4.95829E+000,-1.97061E+000,1.37907E-001,1.36723E+000,-1.21229E-001,6.10942E-002,1.37395E+000,6.58904E-003,4.94288E-001,0,2.07075E+001,-2.17528E+000,9.99773E-001,-2.29327E+001,-3.61456E+001,9.98796E-001,3.48601E-002,-1.36720E-002,8.41516E-004,3.48747E-002,-1.36866E-002,9.93075E-001,3.51426E-002,1.03549E+000,-1.35470E-002,0.00000E+000,1.52065E-002,9.87320E-001,0.00000E+000,-1.46547E-002,-4.51674E-002,1.00000E+000,5
989,1337,4.96672E+000,5.60323E-001,-3.37179E-002,1.32938E+000,-1.62695E-001,-5.60431E-002,1.34047E+000,4.96573E-003,4.80426E-001,0,2.05373E+001,-2.59184E+000,9.99685E-001,-2.27624E+001,-3.66654E+001,9.99335E-001,3.32456E-002,-1.36708E-002,8.34076E-004,3.32605E-002,-1.36856E-002,1.01817E+000,3.34338E-002,1.03375E+000,-1.35785E-002,0.00000E+000,1.49777E-002,9.87316E-001,0.00000E+000,-8.74173E-003,-4.50602E-002,1.00000E+000,5
989,1347,4.98134E+000,1.20347E+000,-2.71406E-002,1.32121E+000,-1.69823E-001,-8.55029E-002,1.33482E+000,5.67852E-003,4.54628E-001,0,2.05116E+001,-2.64083E+000,9.99852E-001,-2.24198E+001,-3.67576E+001,9.99546E-001,3.28332E-002,-1.36704E-002,8.28390E-004,3.28479E-002,-1.36851E-002,1.02021E+000,3.29998E-002,1.03331E+000,-1.35941E-002,0.00000E+000,1.49200E-002,9.87314E-001,0.00000E+000,-7.25259E-003,-4.50072E-002,1.00000E+000,5
859,1327,-3.81816E+000,-2.32080E-001,-2.25517E-002,1.05302E+000,-2.23471E-001,4.27639E-002,1.07732E+000,4.20693E-003,5.51829E-001,0,1.61544E+001,-3.71196E+000,9.99778E-001,-2.84186E+001,-4.00876E+001,9.99436E-001,3.44924E-002,-1.41294E-002,-1.25809E-003,3.45249E-002,-1.41619E-002,-1.48121E+000,3.47100E-002,1.03509E+000,-3.20044E-003,0.00000E+000,5.16812E-004,9.87414E-001,0.00000E+000,8.52831E-004,-5.41050E-002,1.00000E+000,5
859,1337,-3.80296E+000,4.02538E-001,-4.27238E-002,1.05172E+000,-2.33146E-001,6.10258E-003,1.07727E+000,4.75012E-003,5.34179E-001,0,1.62504E+001,-3.78693E+000,9.99742E-001,-2.81106E+001,-4.02664E+001,9.99462E-001,3.38995E-002,-1.41295E-002,-1.26913E-003,3.39330E-002,-1.41631E-002,-1.51259E+000,3.40870E-002,1.03448E+000,-3.21587E-003,0.00000E+000,5.60523E-004,9.87415E-001,0.00000E+000,-6.65557E-005,-5.41281E-002,1.00000E+000,5
859,1347,-3.78189E+000,1.04356E+000,-3.09654E-002,1.05033E+000,-2.40818E-001,-2.75058E-002,1.07793E+000,6.61413E-003,5.14719E-001,0,1.63334E+001,-3.83713E+000,9.99845E-001,-2.76341E+001,-4.04196E+001,9.99644E-001,3.33023E-002,-1.41298E-002,-1.28286E-003,3.33370E-002,-1.41644E-002,-1.54813E+000,3.34621E-002,1.03386E+000,-3.23677E-003,0.00000E+000,6.04461E-004,9.87416E-001,0.00000E+000,-9.90716E-004,-5.41594E-002,1.00000E+000,5
859,1307,-3.83117E+000,-1.48347E+000,1.09311E-001,1.05527E+000,-1.99479E-001,1.21651E-001,1.08083E+000,7.55614E-003,6.26571E-001,0,1.59343E+001,-3.51340E+000,9.99713E-001,-2.85431E+001,-3.96342E+001,9.99134E-001,3.56654E-002,-1.41292E-002,-1.24396E-003,3.56965E-002,-1.41603E-002,-1.43016E+000,3.59496E-002,1.03631E+000,-3.18582E-003,0.00000E+000,4.30073E-004,9.87412E-001,0.00000E+000,2.67725E-003,-5.40831E-002,1.00000E+000,5
859,1317,-3.82729E+000,-8.62377E-001,2.61873E-002,1.05481E+000,-2.13842E-001,8.09526E-002,1.07931E+000,5.26260E-003,5.60658E-001,0,1.60599E+001,-3.63148E+000,9.99725E-001,-2.85634E+001,-3.99095E+001,9.99129E-001,3.50810E-002,-1.41293E-002,-1.24956E-003,3.51127E-002,-1.41610E-002,-1.45362E+000,3.53309E-002,1.03570E+000,-3.19012E-003,0.00000E+000,4.73330E-004,9.87413E-001,0.00000E+000,1.76740E-003,-5.40896E-002,1.00000E+000,5
999,1337,5.64392E+000,5.75456E-001,-3.77476E-002,1.35159E+000,-1.51997E-001,-5.93262E-002,1.36140E+000,5.79486E-003,4.47813E-001,0,2.08710E+001,-2.43112E+000,9.99867E-001,-2.22944E+001,-3.63466E+001,9.99416E-001,3.34196E-002,-1.36847E-002,7.24827E-004,3.34307E-002,-1.36959E-002,8.81372E-001,3.36121E-002,1.03392E+000,-1.39145E-002,0.00000E+000,1.50198E-002,9.87235E-001,0.00000E+000,-7.62682E-003,-4.35595E-002,1.00000E+000,5
999,1347,5.66206E+000,1.22155E+000,-2.03661E-002,1.34450E+000,-1.59325E-001,-8.77637E-002,1.35675E+000,4.96385E-003,4.19313E-001,0,2.08585E+001,-2.46160E+000,9.99906E-001,-2.18760E+001,-3.64165E+001,9.99498E-001,3.31180E-002,-1.36839E-002,7.24388E-004,3.31292E-002,-1.36951E-002,8.86525E-001,3.32945E-002,1.03360E+000,-1.39270E-002,0.00000E+000,1.49789E-002,9.87233E-001,0.00000E+000,-6.33251E-003,-4.35089E-002,1.00000E+000,5
999,1307,5.63387E+000,-1.32512E+000,6.61546E-002,1.37986E+000,-1.22948E-001,1.86212E-002,1.38545E+000,4.34492E-003,4.95218E-001,0,2.10307E+001,-2.10667E+000,9.99823E-001,-2.25305E+001,-3.59253E+001,9.99485E-001,3.43037E-002,-1.36863E-002,7.17200E-004,3.43144E-002,-1.36970E-002,8.56019E-001,3.45462E-002,1.03487E+000,-1.38955E-002,0.00000E+000,1.51410E-002,9.87237E-001,0.00000E+000,-1.14649E-002,-4.36361E-002,1.00000E+000,5
999,1317,5.63070E+000,-6.93179E-001,1.00347E-002,1.36933E+000,-1.32255E-001,-4.89040E-003,1.37571E+000,7.75945E-003,5.24792E-001,0,2.09531E+001,-2.21227E+000,9.99714E-001,-2.25982E+001,-3.60202E+001,9.97764E-001,3.40110E-002,-1.36859E-002,7.21043E-004,3.40219E-002,-1.36968E-002,8.65887E-001,3.42365E-002,1.03455E+000,-1.38991E-002,0.00000E+000,1.51007E-002,9.87237E-001,0.00000E+000,-1.01871E-002,-4.36215E-002,1.00000E+000,5
999,1327,5.63604E+000,-6.09701E-002,-2.43666E-002,1.36181E+000,-1.43722E-001,-3.09703E-002,1.36972E+000,8.55096E-003,5.30865E-001,0,2.09298E+001,-2.35201E+000,9.99795E-001,-2.24886E+001,-3.61699E+001,9.98691E-001,3.37161E-002,-1.36854E-002,7.23576E-004,3.37272E-002,-1.36964E-002,8.74339E-001,3.39249E-002,1.03423E+000,-1.39055E-002,0.00000E+000,1.50602E-002,9.87236E-001,0.00000E+000,-8.90682E-003,-4.35958E-002,1.00000E+000,5
999,1297,5.63956E+000,-1.95454E+000,1.37453E-001,1.39088E+000,-1.12408E-001,4.83532E-002,1.39625E+000,4.86884E-003,4.97034E-001,0,2.10933E+001,-2.01165E+000,9.99670E-001,-2.23918E+001,-3.58085E+001,9.98714E-001,3.45943E-002,-1.36866E-002,7.12858E-004,3.46048E-002,-1.36971E-002,8.45715E-001,3.48543E-002,1.03518E+000,-1.38929E-002,0.00000E+000,1.51814E-002,9.87238E-001,0.00000E+000,-1.27410E-002,-4.36467E-002,1.00000E+000,5
849,1337,-4.47373E+000,3.99654E-001,-3.48426E-002,1.02823E+000,-2.32736E-001,6.03189E-003,1.05426E+000,6.31990E-003,5.56702E-001,0,1.58986E+001,-3.76584E+000,9.99827E-001,-2.84146E+001,-4.04108E+001,9.99512E-001,3.40926E-002,-1.41554E-002,-1.23676E-003,3.41243E-002,-1.41871E-002,-1.46740E+000,3.42854E-002,1.03468E+000,-2.56724E-003,0.00000E+000,7.19522E-006,9.87357E-001,0.00000E+000,-7.71581E-005,-5.35267E-002,1.00000E+000,5
849,1347,-4.45559E+000,1.03756E+000,-3.09971E-002,1.02672E+000,-2.40314E-001,-2.28156E-002,1.05472E+000,5.12414E-003,5.06271E-001,0,1.59647E+001,-3.82722E+000,9.99878E-001,-2.80010E+001,-4.06123E+001,9.99697E-001,3.35843E-002,-1.41558E-002,-1.25125E-003,3.36171E-002,-1.41886E-002,-1.50033E+000,3.37529E-002,1.03415E+000,-2.58289E-003,0.00000E+000,4.26175E-005,9.87358E-001,0.00000E+000,-9.84861E-004,-5.35537E-002,1.00000E+000,5
849,1357,-4.42618E+000,1.68643E+000,1.88773E-002,1.02603E+000,-2.46511E-001,-5.63054E-002,1.05673E+000,4.64265E-003,5.05121E-001,0,1.60557E+001,-3.85345E+000,9.99862E-001,-2.73008E+001,-4.07245E+001,9.99696E-001,3.30688E-002,-1.41564E-002,-1.26983E-003,3.31030E-002,-1.41905E-002,-1.53913E+000,3.32150E-002,1.03362E+000,-2.60673E-003,0.00000E+000,7.84654E-005,9.87360E-001,0.00000E+000,-1.90347E-003,-5.35949E-002,1.00000E+000,5
849,1327,-4.48702E+000,-2.34662E-001,-1.56552E-002,1.03017E+000,-2.23173E-001,3.61218E-002,1.05468E+000,6.38864E-003,5.54668E-001,0,1.58337E+001,-3.67766E+000,9.99840E-001,-2.86965E+001,-4.02329E+001,9.99496E-001,3.45992E-002,-1.41551E-002,-1.22397E-003,3.46299E-002,-1.41858E-002,-1.43719E+000,3.48179E-002,1.03520E+000,-2.55505E-003,0.00000E+000,-2.81827E-005,9.87356E-001,0.00000E+000,8.29408E-004,-5.35056E-002,1.00000E+000,5
1009,1337,6.32329E+000,5.95545E-001,-4.48144E-002,1.37718E+000,-1.38697E-001,-5.79916E-002,1.38536E+000,7.30894E-003,4.77601E-001,0,2.12391E+001,-2.21878E+000,9.99880E-001,-2.17950E+001,-3.59132E+001,9.99588E-001,3.35207E-002,-1.37278E-002,5.96726E-004,3.35283E-002,-1.37353E-002,7.23464E-001,3.37102E-002,1.03401E+000,-1.41423E-002,0.00000E+000,1.49217E-002,9.87139E-001,0.00000E+000,-6.38720E-003,-4.23004E-002,1.00000E+000,5
1009,1347,6.34052E+000,1.23560E+000,-2.45633E-002,1.36695E+000,-1.51673E-001,-9.26690E-002,1.37845E+000,5.31077E-003,4.24341E-001,0,2.12026E+001,-2.34023E+000,9.99944E-001,-2.13875E+001,-3.60935E+001,9.99691E-001,3.33118E-002,-1.37266E-002,6.01042E-004,3.33195E-002,-1.37343E-002,7.31948E-001,3.34903E-002,1.03379E+000,-1.41518E-002,0.00000E+000,1.48979E-002,9.87138E-001,0.00000E+000,-5.33725E-003,-4.22559E-002,1.00000E+000,5
1009,1297,6.31844E+000,-1.93961E+000,1.35390E-001,1.41325E+000,-1.02723E-001,4.08529E-002,1.41757E+000,6.06479E-003,4.71717E-001,0,2.14413E+001,-1.84803E+000,9.99526E-001,-2.18874E+001,-3.55000E+001,9.98537E-001,3.43372E-002,-1.37303E-002,5.68299E-004,3.43439E-002,-1.37370E-002,6.77279E-001,3.45722E-002,1.03489E+000,-1.41283E-002,0.00000E+000,1.50157E-002,9.87141E-001,0.00000E+000,-1.05448E-002,-4.23667E-002,1.00000E+000,5
1009,1307,6.31402E+000,-1.30984E+000,6.75643E-002,1.40348E+000,-1.12391E-001,1.46415E-002,1.40805E+000,5.73741E-003,4.53460E-001,0,2.13858E+001,-1.94084E+000,9.99763E-001,-2.19992E+001,-3.56252E+001,9.99395E-001,3.41354E-002,-1.37298E-002,5.76198E-004,3.41424E-002,-1.37367E-002,6.89589E-001,3.43588E-002,1.03467E+000,-1.41302E-002,0.00000E+000,1.49922E-002,9.87141E-001,0.00000E+000,-9.50913E-003,-4.23580E-002,1.00000E+000,5
1009,1317,6.31344E+000,-6.77797E-001,1.35378E-002,1.39519E+000,-1.21689E-001,-8.00251E-003,1.40051E+000,6.03782E-003,4.83817E-001,0,2.13398E+001,-2.05386E+000,9.99864E-001,-2.20229E+001,-3.57207E+001,9.99314E-001,3.39322E-002,-1.37293E-002,5.83716E-004,3.39393E-002,-1.37364E-002,7.01569E-001,3.41440E-002,1.03445E+000,-1.41328E-002,0.00000E+000,1.49688E-002,9.87140E-001,0.00000E+000,-8.47117E-003,-4.23456E-002,1.00000E+000,5
849,1317,-4.49776E+000,-8.61323E-001,3.39559E-002,1.03161E+000,-2.08864E-001,8.17682E-002,1.05571E+000,6.69562E-003,6.14508E-001,0,1.57099E+001,-3.57142E+000,9.99808E-001,-2.88640E+001,-3.99735E+001,9.99285E-001,3.51028E-002,-1.41548E-002,-1.21237E-003,3.51326E-002,-1.41846E-002,-1.40908E+000,3.53490E-002,1.03573E+000,-2.54524E-003,0.00000E+000,-6.34307E-005,9.87356E-001,0.00000E+000,1.73264E-003,-5.34886E-002,1.00000E+000,5
1009,1327,6.31745E+000,-4.25949E-002,-1.82669E-002,1.38457E+000,-1.32113E-001,-3.86675E-002,1.39139E+000,6.54659E-003,5.11252E-001,0,2.12851E+001,-2.16727E+000,9.99871E-001,-2.19290E+001,-3.58178E+001,9.99506E-001,3.37269E-002,-1.37285E-002,5.90132E-004,3.37343E-002,-1.37358E-002,7.12355E-001,3.39275E-002,1.03423E+000,-1.41378E-002,0.00000E+000,1.49452E-002,9.87140E-001,0.00000E+000,-7.42870E-003,-4.23219E-002,1.00000E+000,5
849,1307,-4.50370E+000,-1.48689E+000,1.11818E-001,1.03001E+000,-1.98220E-001,1.17356E-001,1.05545E+000,8.00790E-003,6.03701E-001,0,1.55708E+001,-3.47588E+000,9.99743E-001,-2.88882E+001,-3.97928E+001,9.99117E-001,3.56028E-002,-1.41547E-002,-1.20378E-003,3.56319E-002,-1.41838E-002,-1.38507E+000,3.58778E-002,1.03625E+000,-2.54157E-003,0.00000E+000,-9.84938E-005,9.87356E-001,0.00000E+000,2.63114E-003,-5.34823E-002,1.00000E+000,5
839,1337,-5.14437E+000,3.94303E-001,-1.94423E-002,1.00420E+000,-2.33054E-001,1.19645E-002,1.03096E+000,1.32396E-002,5.48761E-001,0,1.55194E+001,-3.78474E+000,9.99837E-001,-2.86943E+001,-4.06251E+001,9.99327E-001,3.42059E-002,-1.41272E-002,-1.17245E-003,3.42344E-002,-1.41556E-002,-1.38877E+000,3.44047E-002,1.03480E+000,-2.08586E-003,0.00000E+000,-3.12577E-004,9.87346E-001,0.00000E+000,-3.01055E-004,-5.27888E-002,1.00000E+000,5
839,1347,-5.12763E+000,1.03174E+000,-2.66675E-002,1.00339E+000,-2.39844E-001,-1.84504E-002,1.03182E+000,4.71639E-003,5.04017E-001,0,1.56007E+001,-3.82779E+000,9.99845E-001,-2.83279E+001,-4.08085E+001,9.99627E-001,3.37286E-002,-1.41280E-002,-1.19406E-003,3.37584E-002,-1.41578E-002,-1.42839E+000,3.39043E-002,1.03430E+000,-2.09910E-003,0.00000E+000,-2.95054E-004,9.87347E-001,0.00000E+000,-1.19684E-003,-5.28128E-002,1.00000E+000,5
839,1357,-5.09835E+000,1.68074E+000,1.77343E-002,1.00370E+000,-2.44940E-001,-5.30952E-002,1.03452E+000,3.97909E-003,4.92801E-001,0,1.57099E+001,-3.83099E+000,9.99864E-001,-2.76403E+001,-4.09135E+001,9.99679E-001,3.32444E-002,-1.41294E-002,-1.21999E-003,3.32758E-002,-1.41608E-002,-1.47420E+000,3.33985E-002,1.03380E+000,-2.12081E-003,0.00000E+000,-2.77318E-004,9.87348E-001,0.00000E+000,-2.10356E-003,-5.28523E-002,1.00000E+000,5
1019,1337,7.00630E+000,6.15546E-001,-3.28002E-002,1.39984E+000,-1.28963E-001,-6.41747E-002,1.40724E+000,5.77682E-003,5.16618E-001,0,2.15884E+001,-2.05585E+000,9.99863E-001,-2.11965E+001,-3.55183E+001,9.99674E-001,3.35206E-002,-1.37486E-002,4.58919E-004,3.35251E-002,-1.37531E-002,5.56192E-001,3.37047E-002,1.03400E+000,-1.43002E-002,0.00000E+000,1.47449E-002,9.87082E-001,0.00000E+000,-5.17297E-003,-4.13662E-002,1.00000E+000,5
1019,1347,7.01840E+000,1.25459E+000,-2.84186E-002,1.39008E+000,-1.40113E-001,-8.95368E-002,1.39999E+000,5.25139E-003,4.71153E-001,0,2.15277E+001,-2.16452E+000,9.99894E-001,-2.09031E+001,-3.56745E+001,9.99753E-001,3.33732E-002,-1.37471E-002,4.71021E-004,3.33779E-002,-1.37518E-002,5.72660E-001,3.35498E-002,1.03384E+000,-1.43055E-002,0.00000E+000,1.47395E-002,9.87082E-001,0.00000E+000,-4.28462E-003,-4.13362E-002,1.00000E+000,5
839,1327,-5.16274E+000,-2.38432E-001,-2.10328E-002,1.00542E+000,-2.19549E-001,4.33646E-002,1.03003E+000,1.20737E-002,5.75594E-001,0,1.54395E+001,-3.64295E+000,9.99883E-001,-2.91061E+001,-4.03621E+001,9.99332E-001,3.46835E-002,-1.41263E-002,-1.15010E-003,3.47106E-002,-1.41534E-002,-1.34906E+000,3.49069E-002,1.03529E+000,-2.07112E-003,0.00000E+000,-3.30144E-004,9.87346E-001,0.00000E+000,5.97034E-004,-5.27620E-002,1.00000E+000,5
1019,1327,6.99614E+000,-2.68285E-002,-2.54183E-002,1.40796E+000,-1.22604E-001,-4.27367E-002,1.41393E+000,6.00584E-003,4.89339E-001,0,2.16388E+001,-1.99250E+000,9.99851E-001,-2.14357E+001,-3.54787E+001,9.99505E-001,3.36671E-002,-1.37500E-002,4.46388E-004,3.36713E-002,-1.37542E-002,5.39323E-001,3.38588E-002,1.03416E+000,-1.42958E-002,0.00000E+000,1.47504E-002,9.87082E-001,0.00000E+000,-6.06039E-003,-4.13912E-002,1.00000E+000,5
1019,1317,6.99421E+000,-6.62094E-001,1.66864E-002,1.41709E+000,-1.13251E-001,-1.78739E-002,1.42172E+000,7.60040E-003,4.67917E-001,0,2.16899E+001,-1.90230E+000,9.99885E-001,-2.14755E+001,-3.54034E+001,9.99100E-001,3.38122E-002,-1.37510E-002,4.33070E-004,3.38162E-002,-1.37549E-002,5.21629E-001,3.40116E-002,1.03431E+000,-1.42931E-002,0.00000E+000,1.47558E-002,9.87082E-001,0.00000E+000,-6.94430E-003,-4.14064E-002,1.00000E+000,5
839,1317,-5.17047E+000,-8.66992E-001,3.67227E-002,1.00566E+000,-2.08766E-001,7.68622E-002,1.02997E+000,5.76633E-003,5.49703E-001,0,1.53367E+001,-3.54497E+000,9.99806E-001,-2.92076E+001,-4.01901E+001,9.98979E-001,3.51565E-002,-1.41259E-002,-1.13205E-003,3.51825E-002,-1.41519E-002,-1.31520E+000,3.54059E-002,1.03578E+000,-2.06500E-003,0.00000E+000,-3.47581E-004,9.87346E-001,0.00000E+000,1.48840E-003,-5.27509E-002,1.00000E+000,5
1019,1297,6.99511E+000,-1.92451E+000,1.26413E-001,1.43432E+000,-9.25588E-002,3.25074E-002,1.43768E+000,7.36879E-003,4.59805E-001,0,2.17723E+001,-1.67383E+000,9.99847E-001,-2.14280E+001,-3.51679E+001,9.98894E-001,3.40990E-002,-1.37526E-002,4.05830E-004,3.41024E-002,-1.37561E-002,4.85879E-001,3.43141E-002,1.03462E+000,-1.42892E-002,0.00000E+000,1.47666E-002,9.87082E-001,0.00000E+000,-8.70541E-003,-4.14288E-002,1.00000E+000,5
1019,1307,6.99138E+000,-1.29263E+000,6.04152E-002,1.42443E+000,-1.02395E-001,5.03355E-003,1.42811E+000,9.90864E-003,5.18065E-001,0,2.17199E+001,-1.77965E+000,9.99881E-001,-2.15256E+001,-3.52243E+001,9.98900E-001,3.39559E-002,-1.37519E-002,4.19698E-004,3.39596E-002,-1.37556E-002,5.03994E-001,3.41630E-002,1.03447E+000,-1.42907E-002,0.00000E+000,1.47612E-002,9.87082E-001,0.00000E+000,-7.82403E-003,-4.14203E-002,1.00000E+000,5
839,1307,-5.17400E+000,-1.48997E+000,1.15932E-001,1.00596E+000,-1.95708E-001,1.11475E-001,1.03086E+000,4.91832E-003,5.25202E-001,0,1.52298E+001,-3.40895E+000,9.99758E-001,-2.91907E+001,-3.99771E+001,9.98969E-001,3.56265E-002,-1.41257E-002,-1.11554E-003,3.56515E-002,-1.41507E-002,-1.28382E+000,3.59032E-002,1.03627E+000,-2.06196E-003,0.00000E+000,-3.64947E-004,9.87345E-001,0.00000E+000,2.37619E-003,-5.27454E-002,1.00000E+000,5
829,1337,-5.81761E+000,3.88786E-001,-2.96079E-002,9.80400E-001,-2.30700E-001,8.12315E-003,1.00721E+000,8.14276E-003,5.40004E-001,0,1.51735E+001,-3.74845E+000,9.99767E-001,-2.90724E+001,-4.07869E+001,9.99368E-001,3.42063E-002,-1.41151E-002,-1.07197E-003,3.42300E-002,-1.41388E-002,-1.27023E+000,3.44021E-002,1.03480E+000,-1.66275E-003,0.00000E+000,-5.00073E-004,9.87325E-001,0.00000E+000,-6.32478E-004,-5.21578E-002,1.00000E+000,5
829,1347,-5.79667E+000,1.02849E+000,-2.09533E-002,9.81354E-001,-2.38365E-001,-1.89460E-002,1.01007E+000,3.75977E-003,5.16744E-001,0,1.52709E+001,-3.79992E+000,9.99746E-001,-2.86007E+001,-4.09607E+001,9.99598E-001,3.37380E-002,-1.41175E-002,-1.11786E-003,3.37641E-002,-1.41436E-002,-1.33740E+000,3.39119E-002,1.03431E+000,-1.67752E-003,0.00000E+000,-5.26353E-004,9.87325E-001,0.00000E+000,-1.59409E-003,-5.21871E-002,1.00000E+000,5
829,1357,-5.76891E+000,1.67554E+000,1.73595E-002,9.81800E-001,-2.44293E-001,-5.26534E-002,1.01311E+000,4.12640E-003,5.10942E-001,0,1.53792E+001,-3.81865E+000,9.99820E-001,-2.79495E+001,-4.10815E+001,9.99717E-001,3.32655E-002,-1.41207E-002,-1.16665E-003,3.32942E-002,-1.41494E-002,-1.40949E+000,3.34189E-002,1.03383E+000,-1.69766E-003,0.00000E+000,-5.52808E-004,9.87323E-001,0.00000E+000,-2.56211E-003,-5.22272E-002,1.00000E+000,5
1029,1337,7.68001E+000,6.27570E-001,-4.64197E-002,1.41864E+000,-1.21425E-001,-7.06879E-002,1.42559E+000,5.50913E-003,4.91232E-001,0,2.18818E+001,-1.92604E+000,9.99810E-001,-2.07915E+001,-3.52236E+001,9.99372E-001,3.35430E-002,-1.37014E-002,3.24878E-004,3.35453E-002,-1.37036E-002,3.93972E-001,3.37319E-002,1.03402E+000,-1.43861E-002,0.00000E+000,1.45089E-002,9.87104E-001,0.00000E+000,-3.91047E-003,-4.07022E-002,1.00000E+000,5
1029,1347,7.69328E+000,1.27154E+000,-3.77095E-002,1.40896E+000,-1.29453E-001,-9.55381E-002,1.41812E+000,4.86274E-003,5.06586E-001,0,2.18197E+001,-2.00221E+000,9.99856E-001,-2.04727E+001,-3.52810E+001,9.99474E-001,3.34626E-002,-1.36986E-002,3.51207E-004,3.34652E-002,-1.37012E-002,4.26648E-001,3.36477E-002,1.03393E+000,-1.43891E-002,0.00000E+000,1.45314E-002,9.87105E-001,0.00000E+000,-3.07689E-003,-4.06729E-002,1.00000E+000,5
1029,1327,7.67472E+000,-1.24389E-002,-2.54168E-002,1.42908E+000,-1.13553E-001,-4.72052E-002,1.43437E+000,5.94803E-003,4.59989E-001,0,2.19587E+001,-1.85136E+000,9.99812E-001,-2.09261E+001,-3.51805E+001,9.99408E-001,3.36225E-002,-1.37035E-002,2.98183E-004,3.36244E-002,-1.37054E-002,3.60979E-001,3.38152E-002,1.03410E+000,-1.43840E-002,0.00000E+000,1.44866E-002,9.87104E-001,0.00000E+000,-4.74075E-003,-4.07224E-002,1.00000E+000,5
829,1327,-5.83279E+000,-2.42658E-001,-1.18365E-002,9.80808E-001,-2.18646E-001,3.99297E-002,1.00568E+000,7.64522E-003,5.62289E-001,0,1.50802E+001,-3.63135E+000,9.99873E-001,-2.93887E+001,-4.05463E+001,9.99570E-001,3.46711E-002,-1.41132E-002,-1.02786E-003,3.46927E-002,-1.41348E-002,-1.20647E+000,3.48904E-002,1.03528E+000,-1.65120E-003,0.00000E+000,-4.73919E-004,9.87326E-001,0.00000E+000,3.24526E-004,-5.21348E-002,1.00000E+000,5
829,1307,-5.84198E+000,-1.49505E+000,1.28179E-001,9.83911E-001,-1.95902E-001,1.14228E-001,1.00971E+000,6.77079E-003,4.84404E-001,0,1.48929E+001,-3.41020E+000,9.99655E-001,-2.94340E+001,-4.01906E+001,9.98759E-001,3.55913E-002,-1.41116E-002,-9.46850E-004,3.56093E-002,-1.41296E-002,-1.09097E+000,3.58613E-002,1.03623E+000,-1.64193E-003,0.00000E+000,-4.21957E-004,9.87326E-001,0.00000E+000,2.22588E-003,-5.21163E-002,1.00000E+000,5
829,1317,-5.84007E+000,-8.70727E-001,4.34033E-002,9.82767E-001,-2.07225E-001,7.76375E-002,1.00737E+000,6.52832E-003,5.36633E-001,0,1.49916E+001,-3.52372E+000,9.99766E-001,-2.94896E+001,-4.03593E+001,9.99421E-001,3.51327E-002,-1.41120E-002,-9.86177E-004,3.51525E-002,-1.41318E-002,-1.14679E+000,3.53768E-002,1.03576E+000,-1.64430E-003,0.00000E+000,-4.47882E-004,9.87326E-001,0.00000E+000,1.27725E-003,-5.21211E-002,1.00000E+000,5
1029,1317,7.67247E+000,-6.47572E-001,1.18082E-002,1.43823E+000,-1.05518E-001,-2.60207E-002,1.44233E+000,7.37561E-003,4.89143E-001,0,2.20229E+001,-1.77004E+000,9.99869E-001,-2.09802E+001,-3.50689E+001,9.99198E-001,3.37008E-002,-1.37053E-002,2.71359E-004,3.37024E-002,-1.37069E-002,3.27955E-001,3.38974E-002,1.03419E+000,-1.43825E-002,0.00000E+000,1.44644E-002,9.87103E-001,0.00000E+000,-5.56616E-003,-4.07369E-002,1.00000E+000,5
1029,1307,7.67323E+000,-1.27887E+000,6.62851E-002,1.44778E+000,-9.55125E-002,1.28700E-003,1.45093E+000,7.87147E-003,5.08557E-001,0,2.20705E+001,-1.66398E+000,9.99875E-001,-2.09523E+001,-3.49412E+001,9.97938E-001,3.37783E-002,-1.37069E-002,2.44414E-004,3.37795E-002,-1.37081E-002,2.94901E-001,3.39787E-002,1.03427E+000,-1.43814E-002,0.00000E+000,1.44422E-002,9.87103E-001,0.00000E+000,-6.38989E-003,-4.07482E-002,1.00000E+000,5
1029,1297,7.67700E+000,-1.90819E+000,1.29316E-001,1.45818E+000,-8.30957E-002,2.75392E-002,1.46080E+000,6.94108E-003,4.80530E-001,0,2.21333E+001,-1.52339E+000,9.99892E-001,-2.08596E+001,-3.48252E+001,9.98129E-001,3.38552E-002,-1.37082E-002,2.17282E-004,3.38562E-002,-1.37092E-002,2.61735E-001,3.40596E-002,1.03436E+000,-1.43805E-002,0.00000E+000,1.44200E-002,9.87103E-001,0.00000E+000,-7.21478E-003,-4.07567E-002,1.00000E+000,5
819,1317,-6.50869E+000,-8.77187E-001,5.03892E-002,9.59698E-001,-2.09196E-001,7.50755E-002,9.85099E-001,6.83625E-003,4.96708E-001,0,1.46548E+001,-3.53225E+000,9.99732E-001,-2.97521E+001,-4.05845E+001,9.98983E-001,3.49326E-002,-1.40595E-002,-8.33351E-004,3.49467E-002,-1.40737E-002,-9.74221E-001,3.51665E-002,1.03555E+000,-1.27599E-003,0.00000E+000,-4.79594E-004,9.87336E-001,0.00000E+000,9.67973E-004,-5.12933E-002,1.00000E+000,5
819,1327,-6.50288E+000,-2.50718E-001,-9.65307E-003,9.58563E-001,-2.20151E-001,4.34900E-002,9.84480E-001,7.81071E-003,5.22327E-001,0,1.47366E+001,-3.65066E+000,9.99812E-001,-2.96858E+001,-4.07879E+001,9.98820E-001,3.44935E-002,-1.40608E-002,-8.93034E-004,3.45099E-002,-1.40772E-002,-1.05334E+000,3.47045E-002,1.03510E+000,-1.28096E-003,0.00000E+000,-5.45690E-004,9.87335E-001,0.00000E+000,4.96811E-005,-5.13033E-002,1.00000E+000,5
819,1337,-6.48741E+000,3.84907E-001,-2.98730E-002,9.59243E-001,-2.28287E-001,1.26407E-002,9.86115E-001,4.80003E-003,5.43447E-001,0,1.48419E+001,-3.71562E+000,9.99769E-001,-2.93694E+001,-4.09387E+001,9.99523E-001,3.40500E-002,-1.40635E-002,-9.55843E-004,3.40690E-002,-1.40825E-002,-1.13766E+000,3.42391E-002,1.03464E+000,-1.29144E-003,0.00000E+000,-6.12300E-004,9.87333E-001,0.00000E+000,-8.75750E-004,-5.13244E-002,1.00000E+000,5
819,1307,-6.51392E+000,-1.49888E+000,1.25062E-001,9.58360E-001,-1.96847E-001,1.06136E-001,9.84108E-001,7.14358E-003,5.29092E-001,0,1.45354E+001,-3.40157E+000,9.99742E-001,-2.97723E+001,-4.03102E+001,9.98858E-001,3.53686E-002,-1.40588E-002,-7.74966E-004,3.53808E-002,-1.40709E-002,-8.98039E-001,3.56268E-002,1.03600E+000,-1.27318E-003,0.00000E+000,-4.13792E-004,9.87336E-001,0.00000E+000,1.88217E-003,-5.12876E-002,1.00000E+000,5
819,1347,-6.46636E+000,1.02499E+000,-2.18757E-002,9.60096E-001,-2.35903E-001,-1.69610E-002,9.88799E-001,4.37738E-003,5.31167E-001,0,1.49450E+001,-3.76165E+000,9.99852E-001,-2.88959E+001,-4.11014E+001,9.99724E-001,3.36033E-002,-1.40671E-002,-1.02078E-003,3.36252E-002,-1.40890E-002,-1.22615E+000,3.37719E-002,1.03418E+000,-1.30571E-003,0.00000E+000,-6.79220E-004,9.87331E-001,0.00000E+000,-1.80549E-003,-5.13532E-002,1.00000E+000,5
819,1357,-6.43893E+000,1.66951E+000,2.06130E-002,9.59881E-001,-2.44341E-001,-4.92956E-002,9.91717E-001,4.92037E-003,5.21512E-001,0,1.50389E+001,-3.82386E+000,9.99866E-001,-2.82375E+001,-4.12741E+001,9.99669E-001,3.31529E-002,-1.40721E-002,-1.08866E-003,3.31780E-002,-1.40971E-002,-1.31988E+000,3.33025E-002,1.03371E+000,-1.32523E-003,0.00000E+000,-7.46549E-004,9.87329E-001,0.00000E+000,-2.74090E-003,-5.13926E-002,1.00000E+000,5
1039,1337,8.35964E+000,6.43874E-001,-5.10978E-002,1.44128E+000,-1.11967E-001,-7.51097E-002,1.44757E+000,5.49808E-003,5.12035E-001,0,2.22247E+001,-1.77421E+000,9.99823E-001,-2.02726E+001,-3.48587E+001,9.99126E-001,3.35169E-002,-1.36212E-002,1.58634E-004,3.35174E-002,-1.36217E-002,1.92815E-001,3.37126E-002,1.03399E+000,-1.44274E-002,0.00000E+000,1.41752E-002,9.87171E-001,0.00000E+000,-2.77366E-003,-4.02880E-002,1.00000E+000,5
1039,1347,8.37151E+000,1.28341E+000,-3.99566E-002,1.43051E+000,-1.22352E-001,-9.57545E-002,1.43892E+000,5.21044E-003,4.46010E-001,0,2.21327E+001,-1.88712E+000,9.99916E-001,-1.99725E+001,-3.50294E+001,9.99532E-001,3.34911E-002,-1.36186E-002,1.84590E-004,3.34918E-002,-1.36193E-002,2.24498E-001,3.36859E-002,1.03396E+000,-1.44284E-002,0.00000E+000,1.41983E-002,9.87172E-001,0.00000E+000,-2.03541E-003,-4.02624E-002,1.00000E+000,5
1039,1317,8.35017E+000,-6.31948E-001,7.19239E-003,1.46007E+000,-9.46697E-002,-2.66229E-002,1.46338E+000,4.99210E-003,4.74981E-001,0,2.23389E+001,-1.60379E+000,9.99861E-001,-2.04888E+001,-3.47358E+001,9.99385E-001,3.35666E-002,-1.36250E-002,1.06445E-004,3.35668E-002,-1.36252E-002,1.29235E-001,3.37644E-002,1.03404E+000,-1.44262E-002,0.00000E+000,1.41290E-002,9.87170E-001,0.00000E+000,-4.24661E-003,-4.03200E-002,1.00000E+000,5
1039,1327,8.35424E+000,2.48230E-003,-2.75458E-002,1.45195E+000,-1.03773E-001,-4.83807E-002,1.45646E+000,5.29239E-003,4.41728E-001,0,2.22929E+001,-1.70339E+000,9.99839E-001,-2.04024E+001,-3.48637E+001,9.99193E-001,3.35421E-002,-1.36232E-002,1.32480E-004,3.35425E-002,-1.36236E-002,1.60933E-001,3.37388E-002,1.03401E+000,-1.44267E-002,0.00000E+000,1.41520E-002,9.87171E-001,0.00000E+000,-3.51313E-003,-4.03062E-002,1.00000E+000,5
1039,1307,8.35089E+000,-1.26495E+000,5.63821E-002,1.47011E+000,-8.55758E-002,-2.71810E-003,1.47261E+000,5.49184E-003,4.92820E-001,0,2.24058E+001,-1.50833E+000,9.99886E-001,-2.04719E+001,-3.46256E+001,9.99109E-001,3.35905E-002,-1.36265E-002,8.03733E-005,3.35907E-002,-1.36266E-002,9.75291E-002,3.37894E-002,1.03407E+000,-1.44258E-002,0.00000E+000,1.41060E-002,9.87170E-001,0.00000E+000,-4.97913E-003,-4.03306E-002,1.00000E+000,5
1039,1297,8.35515E+000,-1.89533E+000,1.21879E-001,1.48048E+000,-7.47225E-002,2.35300E-002,1.48255E+000,5.43929E-003,4.62934E-001,0,2.24678E+001,-1.38502E+000,9.99849E-001,-2.03666E+001,-3.45338E+001,9.98925E-001,3.36139E-002,-1.36277E-002,5.42349E-005,3.36140E-002,-1.36278E-002,6.57773E-002,3.38138E-002,1.03410E+000,-1.44255E-002,0.00000E+000,1.40830E-002,9.87170E-001,0.00000E+000,-5.71144E-003,-4.03376E-002,1.00000E+000,5
1049,1337,9.04163E+000,6.57581E-001,-5.15265E-002,1.46519E+000,-1.03077E-001,-7.82621E-002,1.47090E+000,8.46026E-003,4.73000E-001,0,2.25822E+001,-1.64271E+000,9.99899E-001,-1.97049E+001,-3.45732E+001,9.99412E-001,3.34503E-002,-1.36201E-002,-5.07611E-005,3.34504E-002,-1.36201E-002,-6.17881E-002,3.36420E-002,1.03392E+000,-1.44869E-002,0.00000E+000,1.37825E-002,9.87158E-001,0.00000E+000,-1.85427E-003,-3.98114E-002,1.00000E+000,5
1049,1347,9.05707E+000,1.30248E+000,-2.89902E-002,1.45551E+000,-1.12024E-001,-9.70435E-002,1.46304E+000,7.03394E-003,4.78440E-001,0,2.24995E+001,-1.73831E+000,9.99888E-001,-1.93285E+001,-3.46485E+001,9.99193E-001,3.34993E-002,-1.36171E-002,-2.09337E-005,3.34993E-002,-1.36171E-002,-2.54564E-002,3.36940E-002,1.03397E+000,-1.44850E-002,0.00000E+000,1.38186E-002,9.87160E-001,0.00000E+000,-1.33763E-003,-3.97918E-002,1.00000E+000,5
1049,1307,9.03402E+000,-1.24882E+000,6.76787E-002,1.49362E+000,-7.50551E-002,-1.97304E-003,1.49551E+000,7.32474E-003,4.52738E-001,0,2.27404E+001,-1.35324E+000,9.99895E-001,-1.98605E+001,-3.43328E+001,9.99231E-001,3.33032E-002,-1.36256E-002,-1.38021E-004,3.33036E-002,-1.36260E-002,-1.68509E-001,3.34864E-002,1.03377E+000,-1.44896E-002,0.00000E+000,1.36752E-002,9.87156E-001,0.00000E+000,-3.38900E-003,-3.98399E-002,1.00000E+000,5
1049,1317,9.03301E+000,-6.15342E-001,1.97860E-002,1.48288E+000,-8.45158E-002,-2.58642E-002,1.48551E+000,7.58262E-003,4.38741E-001,0,2.26635E+001,-1.45000E+000,9.99802E-001,-1.98800E+001,-3.44352E+001,9.98194E-001,3.33524E-002,-1.36239E-002,-1.09072E-004,3.33527E-002,-1.36242E-002,-1.33032E-001,3.35383E-002,1.03382E+000,-1.44889E-002,0.00000E+000,1.37109E-002,9.87157E-001,0.00000E+000,-2.87854E-003,-3.98322E-002,1.00000E+000,5
1049,1327,9.03334E+000,1.73408E-002,-2.95920E-002,1.47408E+000,-9.50169E-002,-4.87058E-002,1.47794E+000,4.80936E-003,4.46929E-001,0,2.26129E+001,-1.56852E+000,9.99858E-001,-1.98817E+001,-3.45366E+001,9.98690E-001,3.34014E-002,-1.36223E-002,-8.01367E-005,3.34015E-002,-1.36225E-002,-9.76418E-002,3.35901E-002,1.03387E+000,-1.44882E-002,0.00000E+000,1.37466E-002,9.87157E-001,0.00000E+000,-2.36779E-003,-3.98249E-002,1.00000E+000,5
809,1347,-7.13914E+000,1.01606E+000,-2.65328E-002,9.35657E-001,-2.37338E-001,-1.72149E-002,9.65443E-001,4.56242E-003,5.36222E-001,0,1.45777E+001,-3.79464E+000,9.99906E-001,-2.92451E+001,-4.13228E+001,9.99658E-001,3.34383E-002,-1.40158E-002,-8.87445E-004,3.34549E-002,-1.40324E-002,-1.07100E+000,3.35993E-002,1.03401E+000,-9.34761E-004,0.00000E+000,-7.62648E-004,9.87340E-001,0.00000E+000,-1.96747E-003,-5.05234E-002,1.00000E+000,5
809,1357,-7.11206E+000,1.66222E+000,2.04186E-002,9.34593E-001,-2.44993E-001,-4.85988E-002,9.67392E-001,5.44467E-003,5.35755E-001,0,1.46546E+001,-3.84239E+000,9.99898E-001,-2.85783E+001,-4.14772E+001,9.99378E-001,3.30294E-002,-1.40231E-002,-9.80514E-004,3.30498E-002,-1.40435E-002,-1.19328E+000,3.31737E-002,1.03359E+000,-9.52821E-004,0.00000E+000,-8.83531E-004,9.87335E-001,0.00000E+000,-2.87260E-003,-5.05623E-002,1.00000E+000,5
809,1327,-7.17470E+000,-2.57333E-001,-1.82885E-002,9.34166E-001,-2.22785E-001,3.65077E-002,9.61058E-001,6.23841E-003,5.57627E-001,0,1.43921E+001,-3.66143E+000,9.99835E-001,-3.00326E+001,-4.09466E+001,9.98492E-001,3.42432E-002,-1.40070E-002,-7.10352E-004,3.42537E-002,-1.40175E-002,-8.43280E-001,3.44413E-002,1.03484E+000,-9.12856E-004,0.00000E+000,-5.23827E-004,9.87346E-001,0.00000E+000,-1.79252E-004,-5.04762E-002,1.00000E+000,5
809,1337,-7.15789E+000,3.77465E-001,-3.04159E-002,9.35882E-001,-2.30373E-001,1.13996E-002,9.63886E-001,3.84784E-003,5.47708E-001,0,1.44949E+001,-3.73821E+000,9.99856E-001,-2.96743E+001,-4.11447E+001,9.99680E-001,3.38420E-002,-1.40109E-002,-7.98122E-004,3.38553E-002,-1.40242E-002,-9.55262E-001,3.40209E-002,1.03442E+000,-9.22567E-004,0.00000E+000,-6.43005E-004,9.87344E-001,0.00000E+000,-1.07162E-003,-5.04971E-002,1.00000E+000,5
809,1307,-7.18610E+000,-1.50356E+000,1.21165E-001,9.33561E-001,-1.96609E-001,1.04177E-001,9.59711E-001,7.52017E-003,5.72547E-001,0,1.41697E+001,-3.40392E+000,9.99578E-001,-3.01126E+001,-4.04420E+001,9.98301E-001,3.50371E-002,-1.40041E-002,-5.42014E-004,3.50431E-002,-1.40101E-002,-6.33142E-001,3.52769E-002,1.03566E+000,-9.05849E-004,0.00000E+000,-2.87144E-004,9.87348E-001,0.00000E+000,1.59295E-003,-5.04611E-002,1.00000E+000,5
809,1317,-7.18046E+000,-8.81967E-001,4.33866E-002,9.35510E-001,-2.10005E-001,7.09451E-002,9.61413E-001,7.86903E-003,5.67859E-001,0,1.43049E+001,-3.53987E+000,9.99858E-001,-3.00944E+001,-4.06990E+001,9.98764E-001,3.46412E-002,-1.40051E-002,-6.25531E-004,3.46492E-002,-1.40132E-002,-7.36590E-001,3.48596E-002,1.03525E+000,-9.08254E-004,0.00000E+000,-4.05316E-004,9.87348E-001,0.00000E+000,7.08120E-004,-5.04663E-002,1.00000E+000,5
1049,1297,9.03357E+000,-1.88247E+000,1.20971E-001,1.50171E+000,-6.66537E-002,2.23100E-002,1.50336E+000,6.11455E-003,4.35663E-001,0,2.27758E+001,-1.25624E+000,9.99787E-001,-1.98528E+001,-3.42613E+001,9.98587E-001,3.32538E-002,-1.36271E-002,-1.66905E-004,3.32544E-002,-1.36277E-002,-2.03980E-001,3.34343E-002,1.03372E+000,-1.44903E-002,0.00000E+000,1.36395E-002,9.87156E-001,0.00000E+000,-3.89894E-003,-3.98466E-002,1.00000E+000,5
799,1337,-7.82870E+000,3.70404E-001,-3.38899E-002,9.12689E-001,-2.30856E-001,1.18625E-002,9.41507E-001,3.79106E-003,5.44044E-001,0,1.41444E+001,-3.74442E+000,9.99923E-001,-2.99879E+001,-4.13425E+001,9.99676E-001,3.35158E-002,-1.39554E-002,-6.22868E-004,3.35240E-002,-1.39636E-002,-7.51603E-001,3.36794E-002,1.03408E+000,-5.61641E-004,0.00000E+000,-6.31713E-004,9.87359E-001,0.00000E+000,-1.27204E-003,-4.97091E-002,1.00000E+000,5
799,1347,-7.81052E+000,1.00830E+000,-3.17092E-002,9.12412E-001,-2.38402E-001,-1.66540E-002,9.43191E-001,4.65910E-003,5.44218E-001,0,1.42258E+001,-3.81010E+000,9.99863E-001,-2.95702E+001,-4.15236E+001,9.99522E-001,3.31444E-002,-1.39612E-002,-7.29516E-004,3.31557E-002,-1.39725E-002,-8.87045E-001,3.32919E-002,1.03370E+000,-5.72573E-004,0.00000E+000,-7.93028E-004,9.87355E-001,0.00000E+000,-2.05704E-003,-4.97316E-002,1.00000E+000,5
799,1357,-7.78114E+000,1.65637E+000,1.91744E-002,9.13710E-001,-2.43817E-001,-4.50135E-002,9.46752E-001,4.60501E-003,5.46845E-001,0,1.43287E+001,-3.83530E+000,9.99856E-001,-2.88552E+001,-4.16569E+001,9.99394E-001,3.27686E-002,-1.39699E-002,-8.39960E-004,3.27837E-002,-1.39850E-002,-1.02925E+000,3.29013E-002,1.03332E+000,-5.89184E-004,0.00000E+000,-9.55952E-004,9.87348E-001,0.00000E+000,-2.84987E-003,-4.97656E-002,1.00000E+000,5
799,1327,-7.84358E+000,-2.64040E-001,-1.33325E-002,9.12357E-001,-2.22352E-001,4.31576E-002,9.40052E-001,1.02739E-002,5.48447E-001,0,1.40442E+001,-3.68193E+000,9.99882E-001,-3.02962E+001,-4.11580E+001,9.98642E-001,3.38854E-002,-1.39508E-002,-5.17651E-004,3.38910E-002,-1.39564E-002,-6.19919E-001,3.40663E-002,1.03447E+000,-5.53025E-004,0.00000E+000,-4.70858E-004,9.87363E-001,0.00000E+000,-4.89285E-004,-4.96914E-002,1.00000E+000,5
1059,1327,9.71302E+000,3.21317E-002,-2.92402E-002,1.49550E+000,-8.67260E-002,-5.01988E-002,1.49885E+000,7.56185E-003,4.45580E-001,0,2.29256E+001,-1.43703E+000,9.99883E-001,-1.93437E+001,-3.42192E+001,9.98865E-001,3.32977E-002,-1.36271E-002,-2.33828E-004,3.32989E-002,-1.36283E-002,-2.85497E-001,3.34811E-002,1.03376E+000,-1.43973E-002,0.00000E+000,1.33149E-002,9.87140E-001,0.00000E+000,-1.28139E-003,-3.93556E-002,1.00000E+000,5
1059,1337,9.72271E+000,6.73852E-001,-4.38578E-002,1.48749E+000,-9.37181E-002,-7.40611E-002,1.49228E+000,6.45146E-003,4.75679E-001,0,2.28879E+001,-1.51070E+000,9.99873E-001,-1.91319E+001,-3.42452E+001,9.99408E-001,3.33999E-002,-1.36246E-002,-2.01264E-004,3.34007E-002,-1.36255E-002,-2.45219E-001,3.35889E-002,1.03386E+000,-1.43944E-002,0.00000E+000,1.33650E-002,9.87141E-001,0.00000E+000,-1.02071E-003,-3.93485E-002,1.00000E+000,5
1059,1347,9.74019E+000,1.31765E+000,-2.40493E-002,1.47945E+000,-1.03161E-001,-9.65960E-002,1.48618E+000,9.14149E-003,4.41618E-001,0,2.28443E+001,-1.60173E+000,9.99869E-001,-1.87312E+001,-3.43497E+001,9.99017E-001,3.35024E-002,-1.36214E-002,-1.67961E-004,3.35030E-002,-1.36220E-002,-2.04213E-001,3.36973E-002,1.03397E+000,-1.43903E-002,0.00000E+000,1.34153E-002,9.87143E-001,0.00000E+000,-7.58816E-004,-3.93384E-002,1.00000E+000,5
1059,1297,9.71144E+000,-1.86993E+000,1.12274E-001,1.52399E+000,-5.72201E-002,2.18794E-002,1.52522E+000,5.26217E-003,4.05975E-001,0,2.30961E+001,-1.11462E+000,9.99850E-001,-1.93592E+001,-3.39785E+001,9.98908E-001,3.29923E-002,-1.36324E-002,-3.29287E-004,3.29946E-002,-1.36347E-002,-4.04625E-001,3.31598E-002,1.03344E+000,-1.44022E-002,0.00000E+000,1.31655E-002,9.87137E-001,0.00000E+000,-2.05938E-003,-3.93676E-002,1.00000E+000,5
1059,1307,9.71137E+000,-1.23747E+000,5.74435E-002,1.51532E+000,-6.61179E-002,-3.97850E-003,1.51676E+000,7.80941E-003,3.87009E-001,0,2.30583E+001,-1.21212E+000,9.99886E-001,-1.93783E+001,-3.40813E+001,9.98973E-001,3.30938E-002,-1.36308E-002,-2.97681E-004,3.30957E-002,-1.36327E-002,-3.65010E-001,3.32665E-002,1.03355E+000,-1.44008E-002,0.00000E+000,1.32152E-002,9.87138E-001,0.00000E+000,-1.80095E-003,-3.93642E-002,1.00000E+000,5
1059,1317,9.70989E+000,-6.04605E-001,6.99094E-003,1.50456E+000,-7.70289E-002,-2.80873E-002,1.50679E+000,9.04713E-003,4.06115E-001,0,2.29832E+001,-1.33282E+000,9.99861E-001,-1.94109E+001,-3.41695E+001,9.97836E-001,3.31956E-002,-1.36291E-002,-2.65915E-004,3.31971E-002,-1.36306E-002,-3.25366E-001,3.33736E-002,1.03365E+000,-1.43993E-002,0.00000E+000,1.32650E-002,9.87139E-001,0.00000E+000,-1.54159E-003,-3.93604E-002,1.00000E+000,5
799,1307,-7.85350E+000,-1.51106E+000,1.27877E-001,9.11944E-001,-1.98469E-001,1.06693E-001,9.39369E-001,9.28739E-003,5.39597E-001,0,1.38393E+001,-3.43556E+000,9.99721E-001,-3.03489E+001,-4.06775E+001,9.99114E-001,3.46155E-002,-1.39478E-002,-3.14678E-004,3.46175E-002,-1.39498E-002,-3.71241E-001,3.48341E-002,1.03522E+000,-5.47359E-004,0.00000E+000,-1.52076E-004,9.87365E-001,0.00000E+000,1.06199E-003,-4.96798E-002,1.00000E+000,5
799,1317,-7.85220E+000,-8.89455E-001,3.46031E-002,9.12265E-001,-2.10039E-001,7.14454E-002,9.38855E-001,1.01056E-002,5.86721E-001,0,1.39546E+001,-3.55951E+000,9.99819E-001,-3.04372E+001,-4.08777E+001,9.98296E-001,3.42517E-002,-1.39482E-002,-4.14828E-004,3.42553E-002,-1.39517E-002,-4.93062E-001,3.44510E-002,1.03485E+000,-5.47961E-004,0.00000E+000,-3.11057E-004,9.87365E-001,0.00000E+000,2.88346E-004,-4.96810E-002,1.00000E+000,5
789,1327,-8.51229E+000,-2.69544E-001,-1.55157E-002,8.90968E-001,-2.21061E-001,4.62110E-002,9.19145E-001,7.61282E-003,5.67121E-001,0,1.37133E+001,-3.68210E+000,9.99897E-001,-3.05713E+001,-4.13218E+001,9.99039E-001,3.35389E-002,-1.38721E-002,-3.58633E-004,3.35416E-002,-1.38748E-002,-4.33371E-001,3.37079E-002,1.03411E+000,-2.27369E-004,0.00000E+000,-4.56337E-004,9.87401E-001,0.00000E+000,-7.21377E-004,-4.88754E-002,1.00000E+000,5
789,1337,-8.49717E+000,3.65684E-001,-3.24368E-002,8.91025E-001,-2.29040E-001,1.52183E-002,9.20118E-001,3.83543E-003,5.42557E-001,0,1.38075E+001,-3.72681E+000,9.99913E-001,-3.02485E+001,-4.15138E+001,9.99687E-001,3.31980E-002,-1.38774E-002,-4.76680E-004,3.32028E-002,-1.38822E-002,-5.80092E-001,3.33510E-002,1.03376E+000,-2.35608E-004,0.00000E+000,-6.49936E-004,9.87396E-001,0.00000E+000,-1.37312E-003,-4.88907E-002,1.00000E+000,5
789,1347,-8.47757E+000,1.00423E+000,-2.71112E-002,8.91861E-001,-2.36968E-001,-1.23698E-002,9.22888E-001,4.52014E-003,5.66181E-001,0,1.39028E+001,-3.79807E+000,9.99841E-001,-2.97996E+001,-4.16817E+001,9.99521E-001,3.28551E-002,-1.38840E-002,-5.96194E-004,3.28627E-002,-1.38916E-002,-7.30695E-001,3.29933E-002,1.03340E+000,-2.45865E-004,0.00000E+000,-8.44337E-004,9.87391E-001,0.00000E+000,-2.02756E-003,-4.89097E-002,1.00000E+000,5
789,1357,-8.45086E+000,1.64990E+000,1.55383E-002,8.92015E-001,-2.43595E-001,-4.24296E-002,9.25651E-001,4.28694E-003,5.60965E-001,0,1.39932E+001,-3.83421E+000,9.99804E-001,-2.91444E+001,-4.18397E+001,9.99422E-001,3.25093E-002,-1.38933E-002,-7.18602E-004,3.25204E-002,-1.39044E-002,-8.87014E-001,3.26339E-002,1.03305E+000,-2.60381E-004,0.00000E+000,-1.04011E-003,9.87383E-001,0.00000E+000,-2.68661E-003,-4.89366E-002,1.00000E+000,5
1069,1327,1.03946E+001,4.58916E-002,-3.16613E-002,1.51944E+000,-7.96482E-002,-4.97744E-002,1.52234E+000,8.26553E-003,4.68554E-001,0,2.32699E+001,-1.32818E+000,9.99860E-001,-1.87785E+001,-3.38994E+001,9.98490E-001,3.31870E-002,-1.35837E-002,-3.75209E-004,3.31900E-002,-1.35867E-002,-4.59605E-001,3.33713E-002,1.03365E+000,-1.42625E-002,0.00000E+000,1.28794E-002,9.87178E-001,0.00000E+000,-5.05994E-004,-3.90816E-002,1.00000E+000,5
1069,1337,1.04007E+001,6.86448E-001,-4.81815E-002,1.50864E+000,-8.59681E-002,-7.18794E-002,1.51280E+000,5.56206E-003,4.23122E-001,0,2.31841E+001,-1.38105E+000,9.99840E-001,-1.86266E+001,-3.39758E+001,9.98980E-001,3.33169E-002,-1.35814E-002,-3.43817E-004,3.33195E-002,-1.35839E-002,-4.20012E-001,3.35082E-002,1.03378E+000,-1.42590E-002,0.00000E+000,1.29366E-002,9.87179E-001,0.00000E+000,-5.14658E-004,-3.90818E-002,1.00000E+000,5
1069,1347,1.04160E+001,1.33040E+000,-3.96690E-002,1.50008E+000,-9.51673E-002,-9.79475E-002,1.50628E+000,5.17744E-003,4.29535E-001,0,2.31461E+001,-1.46778E+000,9.99879E-001,-1.82837E+001,-3.40310E+001,9.99350E-001,3.34478E-002,-1.35785E-002,-3.11516E-004,3.34499E-002,-1.35806E-002,-3.79521E-001,3.36464E-002,1.03392E+000,-1.42541E-002,0.00000E+000,1.29943E-002,9.87181E-001,0.00000E+000,-5.23389E-004,-3.90821E-002,1.00000E+000,5
789,1307,-8.52211E+000,-1.51548E+000,1.25103E-001,8.90850E-001,-1.96720E-001,1.10777E-001,9.19012E-001,8.79479E-003,5.37152E-001,0,1.35112E+001,-3.41388E+000,9.99725E-001,-3.06236E+001,-4.08303E+001,9.97788E-001,3.42123E-002,-1.38686E-002,-1.30230E-004,3.42126E-002,-1.38690E-002,-1.55188E-001,3.44163E-002,1.03480E+000,-2.22051E-004,0.00000E+000,-7.29926E-005,9.87404E-001,0.00000E+000,5.69139E-004,-4.88655E-002,1.00000E+000,5
789,1317,-8.51755E+000,-8.94344E-001,5.28757E-002,8.91656E-001,-2.09784E-001,8.21619E-002,9.19679E-001,1.02323E-002,5.56206E-001,0,1.36132E+001,-3.57416E+000,9.99730E-001,-3.06081E+001,-4.10981E+001,9.96902E-001,3.38763E-002,-1.38700E-002,-2.44007E-004,3.38775E-002,-1.38712E-002,-2.92799E-001,3.40622E-002,1.03446E+000,-2.24114E-004,0.00000E+000,-2.64436E-004,9.87403E-001,0.00000E+000,-7.53490E-005,-4.88694E-002,1.00000E+000,5
1069,1297,1.03856E+001,-1.85761E+000,9.92747E-002,1.54388E+000,-4.82213E-002,2.47022E-002,1.54483E+000,6.30448E-003,4.09444E-001,0,2.33685E+001,-9.83793E-001,9.99772E-001,-1.89279E+001,-3.36742E+001,9.98824E-001,3.27976E-002,-1.35890E-002,-4.67592E-004,3.28023E-002,-1.35937E-002,-5.77483E-001,3.29621E-002,1.03324E+000,-1.42694E-002,0.00000E+000,1.27079E-002,9.87175E-001,0.00000E+000,-4.80036E-004,-3.90811E-002,1.00000E+000,5
1069,1307,1.03850E+001,-1.22692E+000,3.53963E-002,1.53578E+000,-5.82198E-002,-5.25496E-003,1.53689E+000,6.17711E-003,3.82473E-001,0,2.33555E+001,-1.08825E+000,9.99855E-001,-1.89735E+001,-3.37871E+001,9.98807E-001,3.29267E-002,-1.35875E-002,-4.37320E-004,3.29308E-002,-1.35916E-002,-5.38623E-001,3.30976E-002,1.03338E+000,-1.42678E-002,0.00000E+000,1.27647E-002,9.87175E-001,0.00000E+000,-4.88640E-004,-3.90812E-002,1.00000E+000,5
1069,1317,1.03897E+001,-5.89826E-001,-1.76364E-003,1.52763E+000,-6.80986E-002,-3.06693E-002,1.52946E+000,7.73054E-003,4.40284E-001,0,2.33242E+001,-1.19601E+000,9.99891E-001,-1.88843E+001,-3.38164E+001,9.98306E-001,3.30568E-002,-1.35856E-002,-4.06281E-004,3.30604E-002,-1.35892E-002,-4.99027E-001,3.32343E-002,1.03351E+000,-1.42652E-002,0.00000E+000,1.28220E-002,9.87176E-001,0.00000E+000,-4.97316E-004,-3.90814E-002,1.00000E+000,5
779,1327,-9.17756E+000,-2.71875E-001,-1.04158E-002,8.71603E-001,-2.19215E-001,5.16830E-002,9.00232E-001,1.14418E-002,5.98398E-001,0,1.34059E+001,-3.65598E+000,9.99890E-001,-3.07701E+001,-4.14458E+001,9.98781E-001,3.31465E-002,-1.37169E-002,-2.95129E-004,3.31483E-002,-1.37188E-002,-3.60810E-001,3.33119E-002,1.03370E+000,3.27478E-005,0.00000E+000,-5.75105E-004,9.87514E-001,0.00000E+000,-8.14441E-004,-4.80280E-002,1.00000E+000,5
779,1337,-9.16341E+000,3.59654E-001,-2.97492E-002,8.71161E-001,-2.29567E-001,1.99354E-002,9.01122E-001,3.81372E-003,5.61050E-001,0,1.34948E+001,-3.74303E+000,9.99884E-001,-3.04681E+001,-4.16979E+001,9.99569E-001,3.28694E-002,-1.37220E-002,-4.12592E-004,3.28731E-002,-1.37257E-002,-5.07332E-001,3.30218E-002,1.03342E+000,2.62506E-005,0.00000E+000,-7.74953E-004,9.87509E-001,0.00000E+000,-1.35867E-003,-4.80403E-002,1.00000E+000,5
779,1347,-9.14454E+000,9.98584E-001,-2.38807E-002,8.70893E-001,-2.36171E-001,-1.00480E-002,9.02404E-001,4.52576E-003,5.54300E-001,0,1.35792E+001,-3.79067E+000,9.99836E-001,-3.00271E+001,-4.18780E+001,9.99455E-001,3.25907E-002,-1.37287E-002,-5.31569E-004,3.25968E-002,-1.37348E-002,-6.57420E-001,3.27310E-002,1.03313E+000,1.77260E-005,0.00000E+000,-9.75710E-004,9.87503E-001,0.00000E+000,-1.90538E-003,-4.80566E-002,1.00000E+000,5
779,1357,-9.11916E+000,1.64340E+000,1.22916E-002,8.70663E-001,-2.43218E-001,-4.28171E-002,9.05010E-001,3.52497E-003,5.55562E-001,0,1.36715E+001,-3.82485E+000,9.99805E-001,-2.94068E+001,-4.20334E+001,9.99640E-001,3.23093E-002,-1.37377E-002,-6.52902E-004,3.23186E-002,-1.37470E-002,-8.12180E-001,3.24384E-002,1.03284E+000,6.32207E-006,0.00000E+000,-1.17811E-003,9.87495E-001,0.00000E+000,-2.45658E-003,-4.80783E-002,1.00000E+000,5
779,1317,-9.18371E+000,-8.98798E-001,5.34516E-002,8.71206E-001,-2.08406E-001,8.22693E-002,8.99556E-001,1.29424E-002,5.07171E-001,0,1.33061E+001,-3.53380E+000,9.99883E-001,-3.08325E+001,-4.12834E+001,9.98460E-001,3.34220E-002,-1.37149E-002,-1.80060E-004,3.34227E-002,-1.37156E-002,-2.18862E-001,3.36012E-002,1.03399E+000,3.53131E-005,0.00000E+000,-3.76101E-004,9.87515E-001,0.00000E+000,-2.72507E-004,-4.80231E-002,1.00000E+000,5
1079,1337,1.10817E+001,7.00314E-001,-5.57209E-002,1.53157E+000,-7.85182E-002,-7.57455E-002,1.53545E+000,5.22248E-003,4.26493E-001,0,2.35286E+001,-1.25328E+000,9.99905E-001,-1.80786E+001,-3.36514E+001,9.99558E-001,3.32691E-002,-1.35815E-002,-4.48865E-004,3.32734E-002,-1.35858E-002,-5.48872E-001,3.34593E-002,1.03373E+000,-1.40579E-002,0.00000E+000,1.25226E-002,9.87182E-001,0.00000E+000,-1.08796E-004,-3.90288E-002,1.00000E+000,5
1079,1347,1.10965E+001,1.34548E+000,-4.27719E-002,1.52222E+000,-8.66832E-002,-9.77730E-002,1.52781E+000,3.51809E-003,4.53146E-001,0,2.34639E+001,-1.34482E+000,9.99932E-001,-1.77371E+001,-3.36861E+001,9.99772E-001,3.34356E-002,-1.35786E-002,-4.16245E-004,3.34393E-002,-1.35823E-002,-5.07221E-001,3.36349E-002,1.03391E+000,-1.40516E-002,0.00000E+000,1.25853E-002,9.87184E-001,0.00000E+000,-2.79079E-004,-3.90350E-002,1.00000E+000,5
1079,1297,1.10663E+001,-1.84260E+000,1.01929E-001,1.56605E+000,-3.91196E-002,2.72258E-002,1.56678E+000,6.83017E-003,4.31514E-001,0,2.36750E+001,-8.55041E-001,9.99776E-001,-1.83611E+001,-3.33513E+001,9.98935E-001,3.26080E-002,-1.35887E-002,-5.72535E-004,3.26151E-002,-1.35958E-002,-7.09944E-001,3.27651E-002,1.03305E+000,-1.40710E-002,0.00000E+000,1.22738E-002,9.87177E-001,0.00000E+000,5.66372E-004,-3.90158E-002,1.00000E+000,5
1079,1307,1.10630E+001,-1.21377E+000,2.85275E-002,1.55665E+000,-5.10081E-002,-6.25162E-003,1.55750E+000,7.13340E-003,4.11283E-001,0,2.36569E+001,-9.74647E-001,9.99843E-001,-1.84664E+001,-3.34681E+001,9.98775E-001,3.27724E-002,-1.35875E-002,-5.42570E-004,3.27788E-002,-1.35938E-002,-6.70435E-001,3.29373E-002,1.03322E+000,-1.40693E-002,0.00000E+000,1.23356E-002,9.87178E-001,0.00000E+000,3.98561E-004,-3.90175E-002,1.00000E+000,5
1079,1327,1.10748E+001,6.04566E-002,-3.58199E-002,1.54130E+000,-7.12619E-002,-5.23461E-002,1.54384E+000,6.82220E-003,4.61918E-001,0,2.35925E+001,-1.18837E+000,9.99907E-001,-1.82334E+001,-3.35784E+001,9.99426E-001,3.31037E-002,-1.35836E-002,-4.80322E-004,3.31086E-002,-1.35886E-002,-5.89380E-001,3.32853E-002,1.03356E+000,-1.40622E-002,0.00000E+000,1.24603E-002,9.87181E-001,0.00000E+000,6.02076E-005,-3.90245E-002,1.00000E+000,5
1079,1317,1.10681E+001,-5.74463E-001,-6.92418E-003,1.54892E+000,-5.90329E-002,-2.92297E-002,1.55032E+000,6.59509E-003,4.60172E-001,0,2.36230E+001,-1.05106E+000,9.99884E-001,-1.83690E+001,-3.34695E+001,9.99051E-001,3.29381E-002,-1.35856E-002,-5.11532E-004,3.29438E-002,-1.35912E-002,-6.29869E-001,3.31113E-002,1.03339E+000,-1.40660E-002,0.00000E+000,1.23980E-002,9.87179E-001,0.00000E+000,2.29323E-004,-3.90208E-002,1.00000E+000,5
779,1307,-9.18904E+000,-1.52173E+000,1.31537E-001,8.69359E-001,-1.98576E-001,1.15722E-001,8.99227E-001,8.06905E-003,5.51870E-001,0,1.31750E+001,-3.44989E+000,9.99799E-001,-3.08453E+001,-4.10222E+001,9.98587E-001,3.36951E-002,-1.37137E-002,-6.63050E-005,3.36952E-002,-1.37138E-002,-8.01325E-002,3.38889E-002,1.03427E+000,3.68677E-005,0.00000E+000,-1.78535E-004,9.87517E-001,0.00000E+000,2.65511E-004,-4.80201E-002,1.00000E+000,5
1089,1337,1.17608E+001,7.15456E-001,-6.02384E-002,1.55226E+000,-7.04237E-002,-7.63572E-002,1.55574E+000,4.02727E-003,4.76541E-001,0,2.38265E+001,-1.13586E+000,9.99882E-001,-1.75493E+001,-3.32911E+001,9.99671E-001,3.33574E-002,-1.35897E-002,-5.12776E-004,3.33630E-002,-1.35953E-002,-6.25709E-001,3.35528E-002,1.03383E+000,-1.37940E-002,0.00000E+000,1.21312E-002,9.87180E-001,0.00000E+000,2.11479E-004,-3.90491E-002,1.00000E+000,5
1089,1347,1.17764E+001,1.36047E+000,-4.81002E-002,1.54366E+000,-7.79158E-002,-9.87568E-002,1.54877E+000,4.28934E-003,4.55131E-001,0,2.37749E+001,-1.20787E+000,9.99899E-001,-1.71988E+001,-3.33487E+001,9.99426E-001,3.35822E-002,-1.35871E-002,-4.80101E-004,3.35871E-002,-1.35919E-002,-5.83090E-001,3.37900E-002,1.03406E+000,-1.37855E-002,0.00000E+000,1.21965E-002,9.87182E-001,0.00000E+000,-9.70258E-005,-3.90604E-002,1.00000E+000,5
769,1347,-9.81177E+000,9.92655E-001,-2.65370E-002,8.50008E-001,-2.35792E-001,-9.58606E-003,8.82158E-001,4.12296E-003,5.56860E-001,0,1.32623E+001,-3.78176E+000,9.99820E-001,-3.02700E+001,-4.20587E+001,9.99357E-001,3.22592E-002,-1.36455E-002,-4.86725E-004,3.22644E-002,-1.36506E-002,-6.07413E-001,3.23914E-002,1.03279E+000,3.17210E-004,0.00000E+000,-1.18221E-003,9.87549E-001,0.00000E+000,-1.73895E-003,-4.72884E-002,1.00000E+000,5
769,1357,-9.78611E+000,1.63749E+000,9.07604E-003,8.50620E-001,-2.42421E-001,-4.11432E-002,8.85447E-001,4.00878E-003,5.64970E-001,0,1.33634E+001,-3.81430E+000,9.99816E-001,-2.96447E+001,-4.22109E+001,9.99598E-001,3.19951E-002,-1.36529E-002,-5.90314E-004,3.20027E-002,-1.36605E-002,-7.40777E-001,3.21167E-002,1.03252E+000,3.06749E-004,0.00000E+000,-1.35341E-003,9.87542E-001,0.00000E+000,-2.23855E-003,-4.73076E-002,1.00000E+000,5
769,1327,-9.84332E+000,-2.76687E-001,1.61164E-003,8.49013E-001,-2.19049E-001,5.18267E-002,8.78345E-001,8.68732E-003,5.64909E-001,0,1.30645E+001,-3.65130E+000,9.99859E-001,-3.09545E+001,-4.16555E+001,9.98246E-001,3.27809E-002,-1.36365E-002,-2.85599E-004,3.27827E-002,-1.36382E-002,-3.52515E-001,3.29365E-002,1.03332E+000,3.29979E-004,0.00000E+000,-8.43387E-004,9.87557E-001,0.00000E+000,-7.50214E-004,-4.72649E-002,1.00000E+000,5
769,1337,-9.83083E+000,3.54093E-001,-2.96563E-002,8.49470E-001,-2.29400E-001,2.08085E-002,8.80145E-001,3.94381E-003,5.65228E-001,0,1.31648E+001,-3.73888E+000,9.99863E-001,-3.07083E+001,-4.18765E+001,9.99385E-001,3.25208E-002,-1.36400E-002,-3.85294E-004,3.25240E-002,-1.36432E-002,-4.78191E-001,3.26643E-002,1.03306E+000,3.24948E-004,0.00000E+000,-1.01244E-003,9.87554E-001,0.00000E+000,-1.24353E-003,-4.72741E-002,1.00000E+000,5
1089,1327,1.17520E+001,7.32777E-002,-5.25539E-002,1.56179E+000,-6.19039E-002,-5.86487E-002,1.56412E+000,6.43708E-003,4.47442E-001,0,2.39075E+001,-1.04374E+000,9.99837E-001,-1.77565E+001,-3.32613E+001,9.99041E-001,3.31326E-002,-1.35919E-002,-5.44438E-004,3.31390E-002,-1.35983E-002,-6.67493E-001,3.33161E-002,1.03360E+000,-1.38005E-002,0.00000E+000,1.20660E-002,9.87178E-001,0.00000E+000,5.19588E-004,-3.90405E-002,1.00000E+000,5
1089,1317,1.17476E+001,-5.63570E-001,-1.81172E-002,1.57037E+000,-5.30279E-002,-3.62055E-002,1.57168E+000,6.31741E-003,4.77765E-001,0,2.39554E+001,-9.61221E-001,9.99870E-001,-1.78445E+001,-3.31799E+001,9.99317E-001,3.29091E-002,-1.35937E-002,-5.75025E-004,3.29163E-002,-1.36008E-002,-7.08340E-001,3.30812E-002,1.03337E+000,-1.38051E-002,0.00000E+000,1.20012E-002,9.87176E-001,0.00000E+000,8.25755E-004,-3.90344E-002,1.00000E+000,5
1089,1297,1.17472E+001,-1.82716E+000,9.94747E-002,1.58817E+000,-3.02881E-002,2.54581E-002,1.58866E+000,5.43626E-003,4.71893E-001,0,2.39959E+001,-7.18272E-001,9.99863E-001,-1.77969E+001,-3.30020E+001,9.99431E-001,3.24630E-002,-1.35966E-002,-6.34751E-004,3.24718E-002,-1.36053E-002,-7.89397E-001,3.26135E-002,1.03291E+000,-1.38116E-002,0.00000E+000,1.18719E-002,9.87175E-001,0.00000E+000,1.43627E-003,-3.90258E-002,1.00000E+000,5
1089,1307,1.17445E+001,-1.19882E+000,2.55506E-002,1.57891E+000,-4.31989E-002,-9.87964E-003,1.57954E+000,6.13798E-003,4.88367E-001,0,2.39878E+001,-8.66272E-001,9.99893E-001,-1.78953E+001,-3.31052E+001,9.99292E-001,3.26856E-002,-1.35954E-002,-6.05384E-004,3.26936E-002,-1.36033E-002,-7.49293E-001,3.28467E-002,1.03314E+000,-1.38092E-002,0.00000E+000,1.19364E-002,9.87175E-001,0.00000E+000,1.13172E-003,-3.90289E-002,1.00000E+000,5
769,1317,-9.85091E+000,-9.01941E-001,5.97510E-002,8.49448E-001,-2.08481E-001,8.91630E-002,8.79191E-001,1.00734E-002,5.58211E-001,0,1.29585E+001,-3.53625E+000,9.99866E-001,-3.10541E+001,-4.14112E+001,9.99185E-001,3.30388E-002,-1.36342E-002,-1.87426E-004,3.30396E-002,-1.36349E-002,-2.30080E-001,3.32071E-002,1.03359E+000,3.33338E-004,0.00000E+000,-6.75564E-004,9.87559E-001,0.00000E+000,-2.60480E-004,-4.72587E-002,1.00000E+000,5
1099,1327,1.24307E+001,8.54921E-002,-6.06729E-002,1.58330E+000,-5.49890E-002,-5.66854E-002,1.58527E+000,5.77671E-003,4.62592E-001,0,2.42082E+001,-9.42766E-001,9.99705E-001,-1.72351E+001,-3.29576E+001,9.98949E-001,3.31524E-002,-1.36046E-002,-6.18670E-004,3.31606E-002,-1.36128E-002,-7.57938E-001,3.33372E-002,1.03362E+000,-1.35667E-002,0.00000E+000,1.16866E-002,9.87181E-001,0.00000E+000,7.56657E-004,-3.93245E-002,1.00000E+000,5
1099,1337,1.24429E+001,7.30207E-001,-6.27761E-002,1.57530E+000,-6.14112E-002,-7.57508E-002,1.57832E+000,5.10943E-003,4.74507E-001,0,2.41545E+001,-1.00370E+000,9.99757E-001,-1.69668E+001,-3.29669E+001,9.99398E-001,3.34519E-002,-1.36019E-002,-5.80711E-004,3.34590E-002,-1.36090E-002,-7.06969E-001,3.36525E-002,1.03393E+000,-1.35572E-002,0.00000E+000,1.17631E-002,9.87183E-001,0.00000E+000,3.85136E-004,-3.93358E-002,1.00000E+000,5
1099,1347,1.24607E+001,1.37725E+000,-4.35369E-002,1.56675E+000,-6.87091E-002,-9.94173E-002,1.57140E+000,4.84960E-003,4.66212E-001,0,2.41083E+001,-1.07103E+000,9.99816E-001,-1.65694E+001,-3.30006E+001,9.99349E-001,3.37521E-002,-1.35985E-002,-5.41247E-004,3.37583E-002,-1.36047E-002,-6.54811E-001,3.39694E-002,1.03424E+000,-1.35449E-002,0.00000E+000,1.18398E-002,9.87186E-001,0.00000E+000,1.23387E-005,-3.93507E-002,1.00000E+000,5
759,1347,-1.04780E+001,9.87572E-001,-2.94185E-002,8.29826E-001,-2.34841E-001,-8.73983E-003,8.62460E-001,3.62138E-003,5.58431E-001,0,1.29547E+001,-3.75901E+000,9.99816E-001,-3.04939E+001,-4.22264E+001,9.99433E-001,3.19403E-002,-1.36256E-002,-4.48720E-004,3.19447E-002,-1.36300E-002,-5.64159E-001,3.20590E-002,1.03246E+000,6.51229E-004,0.00000E+000,-1.43182E-003,9.87540E-001,0.00000E+000,-1.63799E-003,-4.66716E-002,1.00000E+000,5
759,1357,-1.04538E+001,1.63189E+000,7.74872E-003,8.29486E-001,-2.41409E-001,-3.71921E-002,8.64702E-001,4.37033E-003,5.73600E-001,0,1.30313E+001,-3.80298E+000,9.99789E-001,-2.98849E+001,-4.23884E+001,9.99388E-001,3.16597E-002,-1.36304E-002,-5.19532E-004,3.16657E-002,-1.36364E-002,-6.57135E-001,3.17671E-002,1.03217E+000,6.40349E-004,0.00000E+000,-1.53779E-003,9.87536E-001,0.00000E+000,-2.14926E-003,-4.66909E-002,1.00000E+000,5
1099,1297,1.24257E+001,-1.81640E+000,8.60391E-002,1.60918E+000,-2.46226E-002,2.00246E-002,1.60950E+000,5.16229E-003,5.00443E-001,0,2.43146E+001,-6.24237E-001,9.99754E-001,-1.72880E+001,-3.27079E+001,9.99109E-001,3.22601E-002,-1.36099E-002,-7.25155E-004,3.22716E-002,-1.36214E-002,-9.05481E-001,3.24019E-002,1.03270E+000,-1.35814E-002,0.00000E+000,1.14592E-002,9.87177E-001,0.00000E+000,1.86171E-003,-3.93068E-002,1.00000E+000,5
1099,1307,1.24245E+001,-1.18509E+000,1.89039E-002,1.60136E+000,-3.52004E-002,-8.41457E-003,1.60177E+000,6.05138E-003,4.85650E-001,0,2.43029E+001,-7.29327E-001,9.99852E-001,-1.73501E+001,-3.27934E+001,9.99265E-001,3.25571E-002,-1.36085E-002,-6.90571E-004,3.25674E-002,-1.36188E-002,-8.56808E-001,3.27124E-002,1.03301E+000,-1.35782E-002,0.00000E+000,1.15348E-002,9.87178E-001,0.00000E+000,1.49429E-003,-3.93106E-002,1.00000E+000,5
1099,1317,1.24264E+001,-5.50822E-001,-2.91449E-002,1.59281E+000,-4.50123E-002,-3.38756E-002,1.59380E+000,6.65909E-003,4.89594E-001,0,2.42680E+001,-8.40480E-001,9.99825E-001,-1.73270E+001,-3.28650E+001,9.99131E-001,3.28545E-002,-1.36067E-002,-6.55037E-004,3.28637E-002,-1.36159E-002,-8.07576E-001,3.30242E-002,1.03331E+000,-1.35732E-002,0.00000E+000,1.16106E-002,9.87179E-001,0.00000E+000,1.12596E-003,-3.93166E-002,1.00000E+000,5
759,1327,-1.05113E+001,-2.82855E-001,7.33256E-004,8.25961E-001,-2.19280E-001,5.04246E-002,8.56060E-001,4.64141E-003,5.64694E-001,0,1.27204E+001,-3.65584E+000,9.99884E-001,-3.12033E+001,-4.18420E+001,9.99584E-001,3.24950E-002,-1.36199E-002,-3.12594E-004,3.24972E-002,-1.36220E-002,-3.88360E-001,3.26384E-002,1.03303E+000,6.64318E-004,0.00000E+000,-1.22190E-003,9.87544E-001,0.00000E+000,-6.25287E-004,-4.66484E-002,1.00000E+000,5
759,1337,-1.04970E+001,3.50669E-001,-2.57927E-002,8.28043E-001,-2.27150E-001,2.26516E-002,8.58932E-001,3.57439E-003,5.73930E-001,0,1.28349E+001,-3.71247E+000,9.99823E-001,-3.09156E+001,-4.20282E+001,9.99509E-001,3.22184E-002,-1.36222E-002,-3.79992E-004,3.22215E-002,-1.36254E-002,-4.74906E-001,3.23491E-002,1.03274E+000,6.58892E-004,0.00000E+000,-1.32666E-003,9.87542E-001,0.00000E+000,-1.13072E-003,-4.66580E-002,1.00000E+000,5
759,1317,-1.05179E+001,-9.06934E-001,6.21798E-002,8.26436E-001,-2.07922E-001,8.62632E-002,8.56545E-001,7.57105E-003,5.81570E-001,0,1.26198E+001,-3.54526E+000,9.99843E-001,-3.12785E+001,-4.15731E+001,9.99366E-001,3.27692E-002,-1.36186E-002,-2.46825E-004,3.27705E-002,-1.36199E-002,-3.04854E-001,3.29257E-002,1.03331E+000,6.67449E-004,0.00000E+000,-1.11796E-003,9.87546E-001,0.00000E+000,-1.23864E-004,-4.66429E-002,1.00000E+000,5
749,1317,-1.11806E+001,-9.09912E-001,7.19907E-002,8.06034E-001,-2.07638E-001,8.44865E-002,8.36626E-001,6.01857E-003,5.86866E-001,0,1.23177E+001,-3.53061E+000,9.99846E-001,-3.14139E+001,-4.17284E+001,9.99104E-001,3.25493E-002,-1.36143E-002,-3.03982E-004,3.25513E-002,-1.36163E-002,-3.77264E-001,3.26959E-002,1.03308E+000,1.07256E-003,0.00000E+000,-1.62688E-003,9.87512E-001,0.00000E+000,8.46182E-005,-4.58360E-002,1.00000E+000,5
749,1327,-1.11747E+001,-2.85843E-001,4.35760E-003,8.06506E-001,-2.18242E-001,5.05761E-002,8.37042E-001,4.09184E-003,5.77394E-001,0,1.24266E+001,-3.62807E+000,9.99853E-001,-3.13650E+001,-4.19824E+001,9.99294E-001,3.22467E-002,-1.36148E-002,-3.40526E-004,3.22492E-002,-1.36173E-002,-4.25396E-001,3.23789E-002,1.03277E+000,1.06988E-003,0.00000E+000,-1.67417E-003,9.87512E-001,0.00000E+000,-4.15436E-004,-4.58403E-002,1.00000E+000,5
749,1337,-1.11620E+001,3.46689E-001,-2.40044E-002,8.07353E-001,-2.26066E-001,2.20174E-002,8.38695E-001,3.28614E-003,5.91320E-001,0,1.25237E+001,-3.69483E+000,9.99849E-001,-3.11056E+001,-4.21795E+001,9.99656E-001,3.19415E-002,-1.36160E-002,-3.78855E-004,3.19447E-002,-1.36192E-002,-4.76426E-001,3.20600E-002,1.03246E+000,1.06406E-003,0.00000E+000,-1.72180E-003,9.87511E-001,0.00000E+000,-9.19094E-004,-4.58496E-002,1.00000E+000,5
749,1347,-1.11447E+001,9.82183E-001,-3.07335E-002,8.08218E-001,-2.33960E-001,-8.79347E-003,8.41446E-001,3.40337E-003,5.58137E-001,0,1.26271E+001,-3.74363E+000,9.99879E-001,-3.07182E+001,-4.24035E+001,9.99677E-001,3.16349E-002,-1.36178E-002,-4.18385E-004,3.16388E-002,-1.36216E-002,-5.29670E-001,3.17404E-002,1.03214E+000,1.05602E-003,0.00000E+000,-1.76959E-003,9.87510E-001,0.00000E+000,-1.42452E-003,-4.58625E-002,1.00000E+000,5
1109,1297,1.31039E+001,-1.80620E+000,7.32978E-002,1.63112E+000,-1.73550E-002,2.21597E-002,1.63136E+000,4.91130E-003,4.81253E-001,0,2.46188E+001,-5.16964E-001,9.99733E-001,-1.67789E+001,-3.24481E+001,9.98878E-001,3.21567E-002,-1.36519E-002,-7.95710E-004,3.21705E-002,-1.36657E-002,-9.94846E-001,3.22916E-002,1.03260E+000,-1.31890E-002,0.00000E+000,1.09337E-002,9.87158E-001,0.00000E+000,2.15950E-003,-3.97201E-002,1.00000E+000,5
1109,1307,1.31027E+001,-1.17396E+000,9.30502E-003,1.62337E+000,-2.69120E-002,-2.93486E-003,1.62359E+000,5.60916E-003,4.53977E-001,0,2.45961E+001,-6.11577E-001,9.99843E-001,-1.68340E+001,-3.25302E+001,9.99178E-001,3.24848E-002,-1.36499E-002,-7.46807E-004,3.24969E-002,-1.36620E-002,-9.27154E-001,3.26338E-002,1.03294E+000,-1.31855E-002,0.00000E+000,1.10420E-002,9.87159E-001,0.00000E+000,1.66822E-003,-3.97252E-002,1.00000E+000,5
1109,1317,1.31046E+001,-5.39269E-001,-3.87812E-002,1.61489E+000,-3.66391E-002,-2.77007E-002,1.61554E+000,5.59051E-003,4.50063E-001,0,2.45603E+001,-7.15754E-001,9.99824E-001,-1.68116E+001,-3.25975E+001,9.99147E-001,3.28136E-002,-1.36473E-002,-6.96820E-004,3.28241E-002,-1.36578E-002,-8.59063E-001,3.29778E-002,1.03328E+000,-1.31800E-002,0.00000E+000,1.11506E-002,9.87161E-001,0.00000E+000,1.17534E-003,-3.97331E-002,1.00000E+000,5
749,1357,-1.11204E+001,1.62542E+000,7.20642E-003,8.08495E-001,-2.40818E-001,-3.49679E-002,8.44322E-001,4.66447E-003,5.58503E-001,0,1.27061E+001,-3.79543E+000,9.99827E-001,-3.01034E+001,-4.25928E+001,9.99613E-001,3.13254E-002,-1.36203E-002,-4.60032E-004,3.13301E-002,-1.36250E-002,-5.86356E-001,3.14185E-002,1.03182E+000,1.04426E-003,0.00000E+000,-1.81779E-003,9.87508E-001,0.00000E+000,-1.93420E-003,-4.58813E-002,1.00000E+000,5
1109,1327,1.31102E+001,9.75941E-002,-6.88565E-002,1.60528E+000,-4.71700E-002,-5.42110E-002,1.60689E+000,4.40108E-003,4.40470E-001,0,2.45132E+001,-8.25220E-001,9.99746E-001,-1.66982E+001,-3.26742E+001,9.99264E-001,3.31432E-002,-1.36441E-002,-6.45486E-004,3.31521E-002,-1.36530E-002,-7.90261E-001,3.33235E-002,1.03362E+000,-1.31721E-002,0.00000E+000,1.12596E-002,9.87163E-001,0.00000E+000,6.80699E-004,-3.97447E-002,1.00000E+000,5
1109,1337,1.31219E+001,7.42225E-001,-7.57019E-002,1.59633E+000,-5.42946E-002,-7.92766E-002,1.59922E+000,5.14212E-003,4.77917E-001,0,2.44679E+001,-8.93127E-001,9.99846E-001,-1.64481E+001,-3.26599E+001,9.99419E-001,3.34743E-002,-1.36401E-002,-5.92581E-004,3.34817E-002,-1.36476E-002,-7.20485E-001,3.36717E-002,1.03396E+000,-1.31614E-002,0.00000E+000,1.13692E-002,9.87167E-001,0.00000E+000,1.83288E-004,-3.97602E-002,1.00000E+000,5
1109,1347,1.31443E+001,1.39216E+000,-3.96397E-002,1.58877E+000,-6.12323E-002,-1.00032E-001,1.59309E+000,5.58146E-003,4.77356E-001,0,2.44255E+001,-9.61580E-001,9.99809E-001,-1.59502E+001,-3.26801E+001,9.99265E-001,3.38069E-002,-1.36349E-002,-5.37101E-004,3.38130E-002,-1.36410E-002,-6.48550E-001,3.40225E-002,1.03430E+000,-1.31459E-002,0.00000E+000,1.14794E-002,9.87172E-001,0.00000E+000,-3.17035E-004,-3.97827E-002,1.00000E+000,5
739,1337,-1.18268E+001,3.40667E-001,-2.38991E-002,7.86621E-001,-2.26327E-001,2.04509E-002,8.18788E-001,3.69473E-003,5.66554E-001,0,1.22146E+001,-3.68421E+000,9.99864E-001,-3.12930E+001,-4.23797E+001,9.99568E-001,3.16381E-002,-1.35860E-002,-4.33943E-004,3.16423E-002,-1.35901E-002,-5.49708E-001,3.17469E-002,1.03214E+000,1.41470E-003,0.00000E+000,-2.17151E-003,9.87512E-001,0.00000E+000,-8.01452E-004,-4.52340E-002,1.00000E+000,5
739,1347,-1.18100E+001,9.77054E-001,-2.82190E-002,7.87438E-001,-2.33006E-001,-6.36827E-003,8.21213E-001,3.44787E-003,5.54104E-001,0,1.23046E+001,-3.73149E+000,9.99906E-001,-3.09054E+001,-4.25867E+001,9.99641E-001,3.12817E-002,-1.35874E-002,-4.68160E-004,3.12866E-002,-1.35922E-002,-5.97733E-001,3.13761E-002,1.03178E+000,1.40562E-003,0.00000E+000,-2.20502E-003,9.87512E-001,0.00000E+000,-1.38020E-003,-4.52483E-002,1.00000E+000,5
739,1357,-1.17857E+001,1.62009E+000,7.06053E-003,7.88285E-001,-2.39412E-001,-3.32438E-002,8.24510E-001,2.85092E-003,5.49228E-001,0,1.23940E+001,-3.77411E+000,9.99904E-001,-3.02955E+001,-4.27776E+001,9.99798E-001,3.09220E-002,-1.35894E-002,-5.04684E-004,3.09278E-002,-1.35952E-002,-6.49525E-001,3.10030E-002,1.03141E+000,1.39231E-003,0.00000E+000,-2.23881E-003,9.87510E-001,0.00000E+000,-1.96352E-003,-4.52693E-002,1.00000E+000,5
739,1327,-1.18396E+001,-2.90700E-001,5.88115E-003,7.85495E-001,-2.17313E-001,5.02446E-002,8.16549E-001,4.88776E-003,5.41607E-001,0,1.21098E+001,-3.60019E+000,9.99900E-001,-3.15513E+001,-4.21715E+001,9.99443E-001,3.19929E-002,-1.35850E-002,-4.00982E-004,3.19965E-002,-1.35885E-002,-5.04021E-001,3.21172E-002,1.03251E+000,1.42139E-003,0.00000E+000,-2.13809E-003,9.87513E-001,0.00000E+000,-2.24454E-004,-4.52234E-002,1.00000E+000,5
1119,1297,1.37811E+001,-1.79589E+000,6.19533E-002,1.65175E+000,-1.01677E-002,2.59725E-002,1.65199E+000,5.12311E-003,4.66565E-001,0,2.48964E+001,-4.13284E-001,9.99878E-001,-1.62779E+001,-3.21875E+001,9.99383E-001,3.20937E-002,-1.35593E-002,-8.58625E-004,3.21099E-002,-1.35755E-002,-1.07709E+000,3.22372E-002,1.03254E+000,-1.27715E-002,0.00000E+000,1.04192E-002,9.87269E-001,0.00000E+000,1.97389E-003,-4.00793E-002,1.00000E+000,5
1119,1307,1.37816E+001,-1.16320E+000,9.08445E-004,1.64425E+000,-2.03924E-002,-1.81937E-003,1.64438E+000,3.82499E-003,4.61668E-001,0,2.48881E+001,-5.22106E-001,9.99892E-001,-1.63014E+001,-3.22559E+001,9.99715E-001,3.24359E-002,-1.35565E-002,-7.95088E-004,3.24497E-002,-1.35702E-002,-9.90100E-001,3.25941E-002,1.03289E+000,-1.27670E-002,0.00000E+000,1.05568E-002,9.87271E-001,0.00000E+000,1.45089E-003,-4.00859E-002,1.00000E+000,5
1119,1317,1.37851E+001,-5.28281E-001,-4.51490E-002,1.63649E+000,-3.01414E-002,-2.76935E-002,1.63700E+000,3.65863E-003,4.40683E-001,0,2.48677E+001,-6.22552E-001,9.99861E-001,-1.62515E+001,-3.23305E+001,9.99711E-001,3.27784E-002,-1.35530E-002,-7.30615E-004,3.27899E-002,-1.35645E-002,-9.03217E-001,3.29524E-002,1.03324E+000,-1.27609E-002,0.00000E+000,1.06947E-002,9.87273E-001,0.00000E+000,9.26807E-004,-4.00951E-002,1.00000E+000,5
1119,1327,1.37916E+001,1.10742E-001,-7.13648E-002,1.62694E+000,-3.89531E-002,-5.34118E-002,1.62829E+000,3.65260E-003,4.22640E-001,0,2.48183E+001,-7.06797E-001,9.99831E-001,-1.61173E+001,-3.23847E+001,9.99591E-001,3.31218E-002,-1.35487E-002,-6.64676E-004,3.31313E-002,-1.35581E-002,-8.15779E-001,3.33128E-002,1.03360E+000,-1.27521E-002,0.00000E+000,1.08332E-002,9.87277E-001,0.00000E+000,4.00671E-004,-4.01080E-002,1.00000E+000,5
1119,1337,1.38043E+001,7.54241E-001,-7.70839E-002,1.61824E+000,-4.81394E-002,-7.99209E-002,1.62092E+000,4.24961E-003,4.72654E-001,0,2.47834E+001,-8.04762E-001,9.99904E-001,-1.58507E+001,-3.23824E+001,9.99347E-001,3.34670E-002,-1.35434E-002,-5.97006E-004,3.34746E-002,-1.35510E-002,-7.27469E-001,3.36762E-002,1.03396E+000,-1.27406E-002,0.00000E+000,1.09726E-002,9.87281E-001,0.00000E+000,-1.28848E-004,-4.01251E-002,1.00000E+000,5
1119,1347,1.38254E+001,1.40348E+000,-4.58525E-002,1.60981E+000,-5.51021E-002,-1.02596E-001,1.61402E+000,6.03260E-003,4.63072E-001,0,2.47357E+001,-8.72161E-001,9.99883E-001,-1.53856E+001,-3.24057E+001,9.99406E-001,3.38130E-002,-1.35366E-002,-5.27057E-004,3.38189E-002,-1.35425E-002,-6.37664E-001,3.40416E-002,1.03431E+000,-1.27248E-002,0.00000E+000,1.11124E-002,9.87287E-001,0.00000E+000,-6.60357E-004,-4.01486E-002,1.00000E+000,5
739,1317,-1.18454E+001,-9.13157E-001,7.39399E-002,7.84829E-001,-2.05841E-001,8.30766E-002,8.15616E-001,5.79777E-003,5.81984E-001,0,1.20014E+001,-3.49760E+000,9.99894E-001,-3.15964E+001,-4.18764E+001,9.99313E-001,3.23444E-002,-1.35846E-002,-3.70101E-004,3.23473E-002,-1.35876E-002,-4.61656E-001,3.24849E-002,1.03287E+000,1.42431E-003,0.00000E+000,-2.10495E-003,9.87513E-001,0.00000E+000,3.47777E-004,-4.52188E-002,1.00000E+000,5
1129,1297,1.44598E+001,-1.78424E+000,5.25606E-002,1.67225E+000,-2.20401E-003,2.69298E-002,1.67247E+000,7.35539E-003,4.56852E-001,0,2.51815E+001,-2.96041E-001,9.99916E-001,-1.57464E+001,-3.19079E+001,9.98845E-001,3.19901E-002,-1.34801E-002,-9.13446E-004,3.20084E-002,-1.34985E-002,-1.15039E+000,3.21390E-002,1.03244E+000,-1.23350E-002,0.00000E+000,9.91797E-003,9.87359E-001,0.00000E+000,1.41789E-003,-4.02392E-002,1.00000E+000,5
1129,1307,1.44606E+001,-1.15280E+000,-5.01132E-003,1.66482E+000,-1.38198E-002,1.90177E-003,1.66488E+000,1.00356E-002,4.45858E-001,0,2.51649E+001,-4.32194E-001,9.99919E-001,-1.57592E+001,-3.20043E+001,9.97969E-001,3.23842E-002,-1.34766E-002,-8.35066E-004,3.23994E-002,-1.34918E-002,-1.04282E+000,3.25499E-002,1.03284E+000,-1.23297E-002,0.00000E+000,1.00825E-002,9.87361E-001,0.00000E+000,9.26801E-004,-4.02456E-002,1.00000E+000,5
1129,1317,1.44660E+001,-5.17767E-001,-4.85170E-002,1.65848E+000,-2.38722E-002,-2.29960E-002,1.65881E+000,5.87808E-003,4.21775E-001,0,2.51631E+001,-5.38767E-001,9.99911E-001,-1.56756E+001,-3.20824E+001,9.98285E-001,3.27788E-002,-1.34722E-002,-7.55494E-004,3.27911E-002,-1.34846E-002,-9.35574E-001,3.29629E-002,1.03325E+000,-1.23223E-002,0.00000E+000,1.02474E-002,9.87364E-001,0.00000E+000,4.34489E-004,-4.02545E-002,1.00000E+000,5
729,1347,-1.24720E+001,9.71730E-001,-2.34706E-002,7.68304E-001,-2.33667E-001,-7.83659E-003,8.03089E-001,3.40473E-003,5.68960E-001,0,1.20189E+001,-3.73761E+000,9.99927E-001,-3.10333E+001,-4.27682E+001,9.99744E-001,3.09470E-002,-1.34992E-002,-4.33845E-004,3.09512E-002,-1.35034E-002,-5.59201E-001,3.10348E-002,1.03143E+000,1.89307E-003,0.00000E+000,-2.60684E-003,9.87565E-001,0.00000E+000,-1.33282E-003,-4.45225E-002,1.00000E+000,5
729,1357,-1.24490E+001,1.61542E+000,5.83344E-003,7.69223E-001,-2.38474E-001,-3.45846E-002,8.06083E-001,3.01241E-003,5.71576E-001,0,1.21083E+001,-3.75657E+000,9.99908E-001,-3.04567E+001,-4.29340E+001,9.99820E-001,3.05075E-002,-1.35007E-002,-4.64457E-004,3.05124E-002,-1.35056E-002,-6.04602E-001,3.05793E-002,1.03098E+000,1.87774E-003,0.00000E+000,-2.61997E-003,9.87565E-001,0.00000E+000,-2.09309E-003,-4.45483E-002,1.00000E+000,5
1129,1327,1.44733E+001,1.21764E-001,-7.47555E-002,1.65019E+000,-3.15315E-002,-4.65259E-002,1.65114E+000,6.56039E-003,4.11883E-001,0,2.51246E+001,-6.22995E-001,9.99889E-001,-1.55301E+001,-3.21228E+001,9.98928E-001,3.31739E-002,-1.34670E-002,-6.74591E-004,3.31837E-002,-1.34768E-002,-8.28466E-001,3.33780E-002,1.03366E+000,-1.23125E-002,0.00000E+000,1.04127E-002,9.87368E-001,0.00000E+000,-5.90570E-005,-4.02664E-002,1.00000E+000,5
729,1337,-1.24912E+001,3.36691E-001,-1.98687E-002,7.66104E-001,-2.24352E-001,2.45151E-002,7.98655E-001,3.40402E-003,5.62937E-001,0,1.18913E+001,-3.66125E+000,9.99912E-001,-3.14608E+001,-4.25467E+001,9.99645E-001,3.13834E-002,-1.34981E-002,-4.05083E-004,3.13871E-002,-1.35017E-002,-5.17073E-001,3.14889E-002,1.03188E+000,1.90488E-003,0.00000E+000,-2.59377E-003,9.87566E-001,0.00000E+000,-5.76366E-004,-4.45026E-002,1.00000E+000,5
729,1327,-1.25032E+001,-2.93115E-001,1.24536E-002,7.64875E-001,-2.15727E-001,5.22515E-002,7.96431E-001,4.19357E-003,5.69829E-001,0,1.17915E+001,-3.57811E+000,9.99894E-001,-3.16993E+001,-4.23021E+001,9.99408E-001,3.18158E-002,-1.34974E-002,-3.78603E-004,3.18190E-002,-1.35006E-002,-4.78676E-001,3.19404E-002,1.03233E+000,1.91236E-003,0.00000E+000,-2.58079E-003,9.87566E-001,0.00000E+000,1.74422E-004,-4.44900E-002,1.00000E+000,5
1129,1337,1.44926E+001,7.70120E-001,-6.23971E-002,1.64201E+000,-4.08042E-002,-7.84916E-002,1.64439E+000,6.11351E-003,4.96720E-001,0,2.51173E+001,-7.08261E-001,9.99892E-001,-1.51304E+001,-3.20656E+001,9.99239E-001,3.35741E-002,-1.34592E-002,-5.89192E-004,3.35814E-002,-1.34666E-002,-7.17603E-001,3.38001E-002,1.03407E+000,-1.22956E-002,0.00000E+000,1.05804E-002,9.87375E-001,0.00000E+000,-5.59462E-004,-4.02869E-002,1.00000E+000,5
729,1317,-1.25110E+001,-9.17565E-001,6.91880E-002,7.63560E-001,-2.04722E-001,8.13495E-002,7.94703E-001,5.88088E-003,5.78679E-001,0,1.16849E+001,-3.46879E+000,9.99860E-001,-3.18062E+001,-4.20275E+001,9.98940E-001,3.22460E-002,-1.34970E-002,-3.53647E-004,3.22487E-002,-1.34998E-002,-4.42928E-001,3.23908E-002,1.03277E+000,1.91688E-003,0.00000E+000,-2.56786E-003,9.87566E-001,0.00000E+000,9.22607E-004,-4.44824E-002,1.00000E+000,5
1129,1347,1.45095E+001,1.41865E+000,-4.36960E-002,1.63209E+000,-4.71844E-002,-1.02095E-001,1.63596E+000,6.88196E-003,4.81121E-001,0,2.50515E+001,-7.59135E-001,9.99848E-001,-1.47548E+001,-3.20744E+001,9.99225E-001,3.39722E-002,-1.34515E-002,-5.04302E-004,3.39775E-002,-1.34568E-002,-6.09190E-001,3.42214E-002,1.03448E+000,-1.22790E-002,0.00000E+000,1.07473E-002,9.87382E-001,0.00000E+000,-1.05784E-003,-4.03070E-002,1.00000E+000,5
719,1347,-1.31367E+001,9.68491E-001,-2.43092E-002,7.47591E-001,-2.30768E-001,-7.18005E-003,7.82431E-001,5.19837E-003,5.66822E-001,0,1.17014E+001,-3.68971E+000,9.99848E-001,-3.12119E+001,-4.29143E+001,9.99592E-001,3.07270E-002,-1.34222E-002,-4.29625E-004,3.07312E-002,-1.34264E-002,-5.57487E-001,3.08126E-002,1.03120E+000,2.39801E-003,0.00000E+000,-3.09062E-003,9.87606E-001,0.00000E+000,-1.15288E-003,-4.37289E-002,1.00000E+000,5
719,1357,-1.31140E+001,1.61074E+000,4.67745E-003,7.48506E-001,-2.37307E-001,-3.34085E-002,7.85934E-001,3.64353E-003,5.82321E-001,0,1.17892E+001,-3.73355E+000,9.99876E-001,-3.06397E+001,-4.30969E+001,9.99764E-001,3.02137E-002,-1.34235E-002,-4.59534E-004,3.02185E-002,-1.34284E-002,-6.03280E-001,3.02808E-002,1.03067E+000,2.38040E-003,0.00000E+000,-3.09272E-003,9.87606E-001,0.00000E+000,-2.10893E-003,-4.37608E-002,1.00000E+000,5
719,1337,-1.31545E+001,3.34216E-001,-1.71635E-002,7.45801E-001,-2.21900E-001,2.44582E-002,7.78497E-001,4.61761E-003,5.83930E-001,0,1.15828E+001,-3.62473E+000,9.99813E-001,-3.16102E+001,-4.26753E+001,9.99442E-001,3.12354E-002,-1.34212E-002,-4.02137E-004,3.12391E-002,-1.34248E-002,-5.15898E-001,3.13417E-002,1.03173E+000,2.41100E-003,0.00000E+000,-3.08854E-003,9.87606E-001,0.00000E+000,-2.03662E-004,-4.37053E-002,1.00000E+000,5
719,1327,-1.31667E+001,-2.94924E-001,1.71587E-002,7.43924E-001,-2.13151E-001,5.25393E-002,7.75639E-001,3.19526E-003,5.96973E-001,0,1.14723E+001,-3.54210E+000,9.99834E-001,-3.18475E+001,-4.24200E+001,9.99492E-001,3.17394E-002,-1.34206E-002,-3.77040E-004,3.17425E-002,-1.34238E-002,-4.78317E-001,3.18681E-002,1.03225E+000,2.41939E-003,0.00000E+000,-3.08648E-003,9.87606E-001,0.00000E+000,7.39296E-004,-4.36901E-002,1.00000E+000,5
719,1317,-1.31741E+001,-9.19871E-001,7.67361E-002,7.41845E-001,-2.03188E-001,7.87069E-002,7.73185E-001,4.69194E-003,5.87746E-001,0,1.13631E+001,-3.44095E+000,9.99814E-001,-3.19412E+001,-4.21662E+001,9.99240E-001,3.22405E-002,-1.34204E-002,-3.53974E-004,3.22433E-002,-1.34231E-002,-4.44135E-001,3.23935E-002,1.03276E+000,2.42375E-003,0.00000E+000,-3.08442E-003,9.87606E-001,0.00000E+000,1.67918E-003,-4.36822E-002,1.00000E+000,5
1139,1297,1.51434E+001,-1.77417E+000,5.50973E-002,1.69583E+000,4.50952E-003,3.39770E-002,1.69618E+000,5.75882E-003,3.96711E-001,0,2.54897E+001,-2.04456E-001,9.99942E-001,-1.51129E+001,-3.17028E+001,9.98876E-001,3.19237E-002,-1.34620E-002,-9.35652E-004,3.19430E-002,-1.34813E-002,-1.18052E+000,3.20721E-002,1.03237E+000,-1.18932E-002,0.00000E+000,9.48476E-003,9.87392E-001,0.00000E+000,6.15782E-004,-4.04941E-002,1.00000E+000,5
1139,1307,1.51422E+001,-1.14450E+000,-1.27377E-002,1.68748E+000,-8.92514E-003,3.42539E-003,1.68751E+000,6.48983E-003,3.92581E-001,0,2.54817E+001,-3.52768E-001,9.99940E-001,-1.51758E+001,-3.17998E+001,9.98842E-001,3.23753E-002,-1.34588E-002,-8.57938E-004,3.23913E-002,-1.34749E-002,-1.07198E+000,3.25433E-002,1.03284E+000,-1.18879E-002,0.00000E+000,9.64497E-003,9.87394E-001,0.00000E+000,1.90220E-004,-4.04990E-002,1.00000E+000,5
1139,1337,1.51751E+001,7.84208E-001,-6.40465E-002,1.66332E+000,-3.26442E-002,-7.81324E-002,1.66547E+000,7.10271E-003,5.00689E-001,0,2.54181E+001,-5.92614E-001,9.99861E-001,-1.45258E+001,-3.17512E+001,9.98440E-001,3.37406E-002,-1.34413E-002,-6.10677E-004,3.37485E-002,-1.34492E-002,-7.41415E-001,3.39795E-002,1.03425E+000,-1.18471E-002,0.00000E+000,1.01303E-002,9.87408E-001,0.00000E+000,-1.09899E-003,-4.05362E-002,1.00000E+000,5
1139,1347,1.51992E+001,1.43386E+000,-2.82747E-002,1.65627E+000,-4.10596E-002,-1.01144E-001,1.65986E+000,7.01228E-003,4.85064E-001,0,2.53937E+001,-6.69308E-001,9.99832E-001,-1.40104E+001,-3.17783E+001,9.98337E-001,3.41989E-002,-1.34328E-002,-5.23521E-004,3.42047E-002,-1.34386E-002,-6.29637E-001,3.44653E-002,1.03472E+000,-1.18250E-002,0.00000E+000,1.02936E-002,9.87415E-001,0.00000E+000,-1.53258E-003,-4.05564E-002,1.00000E+000,5
1139,1327,1.51566E+001,1.34883E-001,-7.88030E-002,1.67215E+000,-2.58768E-002,-4.94086E-002,1.67308E+000,7.12798E-003,4.62655E-001,0,2.54476E+001,-5.36595E-001,9.99865E-001,-1.49172E+001,-3.17962E+001,9.98322E-001,3.32830E-002,-1.34490E-002,-6.96397E-004,3.32933E-002,-1.34594E-002,-8.53566E-001,3.34961E-002,1.03378E+000,-1.18665E-002,0.00000E+000,9.96748E-003,9.87401E-001,0.00000E+000,-6.66405E-004,-4.05185E-002,1.00000E+000,5
1139,1317,1.51448E+001,-5.08177E-001,-6.27106E-002,1.67933E+000,-1.80056E-002,-2.34860E-002,1.67959E+000,7.46169E-003,4.24629E-001,0,2.54604E+001,-4.56504E-001,9.99907E-001,-1.51483E+001,-3.18145E+001,9.98672E-001,3.28278E-002,-1.34548E-002,-7.78816E-004,3.28409E-002,-1.34679E-002,-9.63776E-001,3.30173E-002,1.03330E+000,-1.18801E-002,0.00000E+000,9.80566E-003,9.87396E-001,0.00000E+000,-2.36584E-004,-4.05061E-002,1.00000E+000,5
709,1347,-1.38023E+001,9.66428E-001,-2.33814E-002,7.25606E-001,-2.26606E-001,-4.39706E-003,7.60180E-001,4.65486E-003,5.60573E-001,0,1.13572E+001,-3.62534E+000,9.99865E-001,-3.13955E+001,-4.30486E+001,9.99548E-001,3.04903E-002,-1.31904E-002,-4.49158E-004,3.04949E-002,-1.31950E-002,-5.89074E-001,3.05869E-002,1.03096E+000,2.96249E-003,0.00000E+000,-3.67420E-003,9.87805E-001,0.00000E+000,-1.07963E-003,-4.30885E-002,1.00000E+000,5
709,1357,-1.37792E+001,1.60720E+000,4.72359E-003,7.27756E-001,-2.33069E-001,-2.84694E-002,7.64696E-001,3.69558E-003,5.45352E-001,0,1.14577E+001,-3.67132E+000,9.99889E-001,-3.08168E+001,-4.32691E+001,9.99789E-001,2.99164E-002,-1.31913E-002,-4.71938E-004,2.99216E-002,-1.31964E-002,-6.27168E-001,2.99909E-002,1.03037E+000,2.94350E-003,0.00000E+000,-3.65906E-003,9.87806E-001,0.00000E+000,-2.10330E-003,-4.31215E-002,1.00000E+000,5
709,1337,-1.38174E+001,3.31261E-001,-1.37817E-002,7.24940E-001,-2.19959E-001,2.16908E-002,7.57885E-001,4.43247E-003,5.71115E-001,0,1.12730E+001,-3.58032E+000,9.99801E-001,-3.17466E+001,-4.28297E+001,9.99375E-001,3.10591E-002,-1.31899E-002,-4.29371E-004,3.10632E-002,-1.31940E-002,-5.55901E-001,3.11803E-002,1.03154E+000,2.97557E-003,0.00000E+000,-3.68923E-003,9.87805E-001,0.00000E+000,-6.26582E-005,-4.30658E-002,1.00000E+000,5
709,1317,-1.38340E+001,-9.19331E-001,9.25504E-002,7.22249E-001,-1.99754E-001,7.98184E-002,7.53602E-001,5.69538E-003,6.11510E-001,0,1.10623E+001,-3.39490E+000,9.99859E-001,-3.19978E+001,-4.22711E+001,9.99336E-001,3.21836E-002,-1.31894E-002,-3.96571E-004,3.21871E-002,-1.31929E-002,-5.00728E-001,3.23609E-002,1.03270E+000,2.98827E-003,0.00000E+000,-3.71907E-003,9.87804E-001,0.00000E+000,1.95525E-003,-4.30438E-002,1.00000E+000,5
709,1327,-1.38260E+001,-2.94642E-001,3.47643E-002,7.24489E-001,-2.09583E-001,5.26998E-002,7.56033E-001,5.88932E-003,6.07135E-001,0,1.11761E+001,-3.49425E+000,9.99859E-001,-3.18898E+001,-4.25414E+001,9.99430E-001,3.16226E-002,-1.31896E-002,-4.12431E-004,3.16264E-002,-1.31934E-002,-5.27264E-001,3.17707E-002,1.03212E+000,2.98299E-003,0.00000E+000,-3.70417E-003,9.87805E-001,0.00000E+000,9.47344E-004,-4.30529E-002,1.00000E+000,5
1149,1297,1.58214E+001,-1.76407E+000,3.78988E-002,1.71528E+000,9.86376E-003,2.92371E-002,1.71555E+000,1.02920E-002,4.18798E-001,0,2.57802E+001,-1.10767E-001,9.99888E-001,-1.45982E+001,-3.14150E+001,9.97966E-001,3.19186E-002,-1.34563E-002,-9.39179E-004,3.19381E-002,-1.34758E-002,-1.18524E+000,3.20676E-002,1.03237E+000,-1.14404E-002,0.00000E+000,9.08177E-003,9.87410E-001,0.00000E+000,-2.91592E-004,-4.07004E-002,1.00000E+000,5
1149,1307,1.58243E+001,-1.13115E+000,-1.94298E-002,1.70964E+000,-3.15287E-004,4.18062E-003,1.70964E+000,6.83562E-003,4.03861E-001,0,2.57915E+001,-2.30160E-001,9.99900E-001,-1.45801E+001,-3.14872E+001,9.98770E-001,3.24238E-002,-1.34535E-002,-8.72035E-004,3.24404E-002,-1.34700E-002,-1.08855E+000,3.25955E-002,1.03289E+000,-1.14335E-002,0.00000E+000,9.21580E-003,9.87412E-001,0.00000E+000,-6.31358E-004,-4.07049E-002,1.00000E+000,5
1149,1317,1.58296E+001,-4.94140E-001,-6.08164E-002,1.70192E+000,-1.04371E-002,-2.27867E-002,1.70210E+000,5.80787E-003,4.31918E-001,0,2.57775E+001,-3.44050E-001,9.99907E-001,-1.44961E+001,-3.15099E+001,9.98793E-001,3.29314E-002,-1.34497E-002,-8.02836E-004,3.29453E-002,-1.34636E-002,-9.91368E-001,3.31280E-002,1.03342E+000,-1.14230E-002,0.00000E+000,9.35056E-003,9.87414E-001,0.00000E+000,-9.72987E-004,-4.07118E-002,1.00000E+000,5
1149,1327,1.58394E+001,1.46448E-001,-8.58735E-002,1.69432E+000,-1.78885E-002,-5.11943E-002,1.69519E+000,5.78728E-003,3.94738E-001,0,2.57687E+001,-4.08684E-001,9.99900E-001,-1.43122E+001,-3.15466E+001,9.98563E-001,3.34389E-002,-1.34452E-002,-7.31940E-004,3.34503E-002,-1.34566E-002,-8.94194E-001,3.36625E-002,1.03394E+000,-1.14090E-002,0.00000E+000,9.48542E-003,9.87418E-001,0.00000E+000,-1.31483E-003,-4.07209E-002,1.00000E+000,5
1149,1337,1.58562E+001,7.94866E-001,-7.55778E-002,1.68521E+000,-2.69101E-002,-7.76745E-002,1.68721E+000,9.71180E-003,4.81172E-001,0,2.57283E+001,-4.96250E-001,9.99917E-001,-1.39578E+001,-3.14801E+001,9.98567E-001,3.39525E-002,-1.34391E-002,-6.56992E-004,3.39616E-002,-1.34482E-002,-7.94091E-001,3.42057E-002,1.03447E+000,-1.13883E-002,0.00000E+000,9.62203E-003,9.87423E-001,0.00000E+000,-1.66115E-003,-4.07344E-002,1.00000E+000,5
1149,1347,1.58858E+001,1.44819E+000,-2.68208E-002,1.67965E+000,-3.47853E-002,-1.02804E-001,1.68316E+000,9.34341E-003,4.89670E-001,0,2.57338E+001,-5.61827E-001,9.99893E-001,-1.33361E+001,-3.14649E+001,9.98527E-001,3.44678E-002,-1.34312E-002,-5.78287E-004,3.44748E-002,-1.34382E-002,-6.91600E-001,3.47528E-002,1.03501E+000,-1.13603E-002,0.00000E+000,9.75921E-003,9.87430E-001,0.00000E+000,-2.00891E-003,-4.07526E-002,1.00000E+000,5
699,1347,-1.44621E+001,9.65369E-001,-1.57114E-002,7.07609E-001,-2.23900E-001,-2.61131E-003,7.42192E-001,4.19757E-003,6.09287E-001,0,1.10778E+001,-3.58948E+000,9.99929E-001,-3.14672E+001,-4.31542E+001,9.99705E-001,3.02245E-002,-1.28881E-002,-4.25826E-004,3.02287E-002,-1.28923E-002,-5.65841E-001,3.03374E-002,1.03068E+000,3.62806E-003,0.00000E+000,-4.26794E-003,9.88069E-001,0.00000E+000,-1.07660E-003,-4.23110E-002,1.00000E+000,5
699,1357,-1.44409E+001,1.60333E+000,8.02289E-003,7.08308E-001,-2.32690E-001,-2.93180E-002,7.46126E-001,3.54263E-003,5.86618E-001,0,1.11635E+001,-3.66214E+000,9.99910E-001,-3.09291E+001,-4.34140E+001,9.99789E-001,2.96025E-002,-1.28872E-002,-4.17194E-004,2.96066E-002,-1.28913E-002,-5.62498E-001,2.96888E-002,1.03004E+000,3.60799E-003,0.00000E+000,-4.19114E-003,9.88071E-001,0.00000E+000,-2.09805E-003,-4.23431E-002,1.00000E+000,5
699,1337,-1.44798E+001,3.28424E-001,-8.25016E-003,7.04379E-001,-2.17870E-001,2.23606E-002,7.37643E-001,3.90570E-003,5.88609E-001,0,1.09576E+001,-3.55446E+000,9.99877E-001,-3.18660E+001,-4.29720E+001,9.99526E-001,3.08425E-002,-1.28887E-002,-4.37243E-004,3.08469E-002,-1.28931E-002,-5.72791E-001,3.09849E-002,1.03132E+000,3.64230E-003,0.00000E+000,-4.34441E-003,9.88067E-001,0.00000E+000,-5.93703E-005,-4.22882E-002,1.00000E+000,5
699,1317,-1.44947E+001,-9.17215E-001,1.07065E-001,7.00968E-001,-1.95804E-001,7.74229E-002,7.31909E-001,7.47533E-003,6.32482E-001,0,1.07448E+001,-3.31994E+000,9.99854E-001,-3.20666E+001,-4.23506E+001,9.98944E-001,3.20598E-002,-1.28891E-002,-4.67932E-004,3.20646E-002,-1.28940E-002,-5.96382E-001,3.22688E-002,1.03257E+000,3.65375E-003,0.00000E+000,-4.49558E-003,9.88066E-001,0.00000E+000,1.95125E-003,-4.22699E-002,1.00000E+000,5
699,1327,-1.44887E+001,-2.92952E-001,4.07844E-002,7.02874E-001,-2.06059E-001,5.09345E-002,7.34225E-001,6.58123E-003,6.91887E-001,0,1.08514E+001,-3.43608E+000,9.99832E-001,-3.20135E+001,-4.25798E+001,9.98196E-001,3.14509E-002,-1.28890E-002,-4.51751E-004,3.14555E-002,-1.28936E-002,-5.83670E-001,3.16253E-002,1.03194E+000,3.64969E-003,0.00000E+000,-4.41988E-003,9.88066E-001,0.00000E+000,9.44373E-004,-4.22764E-002,1.00000E+000,5
1159,1307,1.65047E+001,-1.12124E+000,-3.18767E-002,1.73088E+000,5.50055E-003,4.06196E-003,1.73090E+000,5.66520E-003,3.97716E-001,0,2.60917E+001,-1.39549E-001,9.99769E-001,-1.40172E+001,-3.12246E+001,9.98935E-001,3.25476E-002,-1.35115E-002,-8.51715E-004,3.25634E-002,-1.35273E-002,-1.05902E+000,3.27183E-002,1.03303E+000,-1.09911E-002,0.00000E+000,8.86360E-003,9.87368E-001,0.00000E+000,-1.41392E-003,-4.09712E-002,1.00000E+000,5
1159,1317,1.65108E+001,-4.81707E-001,-7.23251E-002,1.72392E+000,-2.93396E-003,-2.20638E-002,1.72406E+000,5.51947E-003,4.36065E-001,0,2.60858E+001,-2.25400E-001,9.99837E-001,-1.39181E+001,-3.12031E+001,9.99366E-001,3.30964E-002,-1.35094E-002,-8.07383E-004,3.31104E-002,-1.35234E-002,-9.92176E-001,3.32949E-002,1.03359E+000,-1.09796E-002,0.00000E+000,8.94711E-003,9.87370E-001,0.00000E+000,-1.72819E-003,-4.09776E-002,1.00000E+000,5
1159,1327,1.65241E+001,1.60123E-001,-8.71225E-002,1.71728E+000,-1.18586E-002,-4.95665E-002,1.71803E+000,4.53893E-003,4.32852E-001,0,2.60886E+001,-3.14361E-001,9.99895E-001,-1.36636E+001,-3.12240E+001,9.99338E-001,3.36464E-002,-1.35065E-002,-7.60148E-004,3.36587E-002,-1.35187E-002,-9.23341E-001,3.38751E-002,1.03416E+000,-1.09624E-002,0.00000E+000,9.03088E-003,9.87373E-001,0.00000E+000,-2.04345E-003,-4.09872E-002,1.00000E+000,5
1159,1297,1.65013E+001,-1.75463E+000,2.05958E-002,1.73682E+000,1.51522E-002,2.72820E-002,1.73710E+000,7.37095E-003,4.52866E-001,0,2.60918E+001,-3.33925E-002,9.99817E-001,-1.40517E+001,-3.11310E+001,9.97457E-001,3.20023E-002,-1.35133E-002,-8.94204E-004,3.20198E-002,-1.35308E-002,-1.12506E+000,3.21475E-002,1.03246E+000,-1.09993E-002,0.00000E+000,8.78068E-003,9.87367E-001,0.00000E+000,-1.10186E-003,-4.09667E-002,1.00000E+000,5
1159,1337,1.65480E+001,8.08352E-001,-6.55500E-002,1.71163E+000,-2.15579E-002,-7.86617E-002,1.71357E+000,7.31143E-003,4.64451E-001,0,2.61105E+001,-4.07490E-001,9.99938E-001,-1.31808E+001,-3.12104E+001,9.99541E-001,3.42012E-002,-1.35025E-002,-7.08604E-004,3.42117E-002,-1.35130E-002,-8.50837E-001,3.44624E-002,1.03474E+000,-1.09369E-002,0.00000E+000,9.11545E-003,9.87376E-001,0.00000E+000,-2.36171E-003,-4.10013E-002,1.00000E+000,5
1159,1347,1.65725E+001,1.46013E+000,-2.92045E-002,1.70349E+000,-2.81375E-002,-1.05394E-001,1.70698E+000,6.82115E-003,4.50031E-001,0,2.60838E+001,-4.60977E-001,9.99896E-001,-1.26628E+001,-3.12022E+001,9.99367E-001,3.47556E-002,-1.34982E-002,-6.55810E-004,3.47646E-002,-1.35071E-002,-7.78506E-001,3.50513E-002,1.03531E+000,-1.09087E-002,0.00000E+000,9.20004E-003,9.87381E-001,0.00000E+000,-2.68002E-003,-4.10169E-002,1.00000E+000,5
689,1347,-1.51228E+001,9.62327E-001,-1.09402E-002,6.87744E-001,-2.23290E-001,-6.22437E-003,7.23111E-001,5.23631E-003,6.32480E-001,0,1.07848E+001,-3.56511E+000,9.99900E-001,-3.15587E+001,-4.32969E+001,9.99406E-001,2.99507E-002,-1.27732E-002,-4.34380E-004,2.99551E-002,-1.27776E-002,-5.82453E-001,3.00627E-002,1.03040E+000,4.26247E-003,0.00000E+000,-4.89667E-003,9.88142E-001,0.00000E+000,-1.02853E-003,-4.14063E-002,1.00000E+000,5
689,1357,-1.51034E+001,1.59896E+000,3.52688E-003,6.89078E-001,-2.30910E-001,-3.04386E-002,7.27375E-001,4.17861E-003,5.94830E-001,0,1.08728E+001,-3.62600E+000,9.99911E-001,-3.10705E+001,-4.35660E+001,9.99720E-001,2.92897E-002,-1.27728E-002,-4.33354E-004,2.92942E-002,-1.27773E-002,-5.90213E-001,2.93737E-002,1.02972E+000,4.24349E-003,0.00000E+000,-4.84122E-003,9.88143E-001,0.00000E+000,-1.95620E-003,-4.14322E-002,1.00000E+000,5
689,1337,-1.51401E+001,3.28526E-001,-9.99499E-006,6.85856E-001,-2.12699E-001,2.75223E-002,7.18607E-001,5.16804E-003,6.00440E-001,0,1.06601E+001,-3.48630E+000,9.99884E-001,-3.19407E+001,-4.30777E+001,9.99651E-001,3.06111E-002,-1.27736E-002,-4.36857E-004,3.06155E-002,-1.27780E-002,-5.76855E-001,3.07546E-002,1.03108E+000,4.27854E-003,0.00000E+000,-4.95219E-003,9.88141E-001,0.00000E+000,-9.98489E-005,-4.13843E-002,1.00000E+000,5
1169,1327,1.72070E+001,1.71284E-001,-9.65963E-002,1.73852E+000,-6.33145E-003,-5.40235E-002,1.73937E+000,4.71348E-003,4.38759E-001,0,2.64057E+001,-2.24706E-001,9.99918E-001,-1.30541E+001,-3.09387E+001,9.99483E-001,3.38259E-002,-1.35787E-002,-7.17117E-004,3.38368E-002,-1.35895E-002,-8.66482E-001,3.40544E-002,1.03436E+000,-1.04402E-002,0.00000E+000,8.64740E-003,9.87312E-001,0.00000E+000,-2.81751E-003,-4.11572E-002,1.00000E+000,5
1169,1337,1.72334E+001,8.21254E-001,-6.60316E-002,1.73325E+000,-1.46120E-002,-8.15569E-002,1.73523E+000,6.46097E-003,4.56130E-001,0,2.64268E+001,-3.07905E-001,9.99933E-001,-1.25200E+001,-3.09232E+001,9.99505E-001,3.44036E-002,-1.35767E-002,-6.83261E-004,3.44134E-002,-1.35864E-002,-8.15697E-001,3.46663E-002,1.03495E+000,-1.04118E-002,0.00000E+000,8.68994E-003,9.87314E-001,0.00000E+000,-3.02731E-003,-4.11672E-002,1.00000E+000,5
1169,1347,1.72613E+001,1.47385E+000,-2.04587E-002,1.72648E+000,-2.20342E-002,-1.06549E-001,1.72990E+000,5.38862E-003,4.37730E-001,0,2.64144E+001,-3.71983E-001,9.99869E-001,-1.19343E+001,-3.09232E+001,9.99496E-001,3.49822E-002,-1.35746E-002,-6.48027E-004,3.49909E-002,-1.35832E-002,-7.64474E-001,3.52813E-002,1.03555E+000,-1.03805E-002,0.00000E+000,8.73258E-003,9.87316E-001,0.00000E+000,-3.23759E-003,-4.11782E-002,1.00000E+000,5
689,1327,-1.51541E+001,-2.98207E-001,2.92150E-002,6.81496E-001,-2.03357E-001,4.85490E-002,7.12844E-001,5.76437E-003,6.57524E-001,0,1.05322E+001,-3.38661E+000,9.99862E-001,-3.22215E+001,-4.27470E+001,9.99118E-001,3.12628E-002,-1.27737E-002,-4.42109E-004,3.12672E-002,-1.27782E-002,-5.75150E-001,3.14406E-002,1.03175E+000,4.28868E-003,0.00000E+000,-5.00708E-003,9.88140E-001,0.00000E+000,8.18411E-004,-4.13705E-002,1.00000E+000,5
1169,1317,1.71929E+001,-4.74072E-001,-7.95705E-002,1.74411E+000,1.45612E-003,-2.60901E-002,1.74430E+000,6.95188E-003,3.61612E-001,0,2.63851E+001,-1.51249E-001,9.99890E-001,-1.33160E+001,-3.10192E+001,9.99508E-001,3.32512E-002,-1.35800E-002,-7.45743E-004,3.32631E-002,-1.35919E-002,-9.12073E-001,3.34477E-002,1.03376E+000,-1.04580E-002,0.00000E+000,8.60512E-003,9.87311E-001,0.00000E+000,-2.60896E-003,-4.11510E-002,1.00000E+000,5
1169,1307,1.71854E+001,-1.11054E+000,-4.40972E-002,1.75118E+000,1.04014E-002,9.22359E-004,1.75121E+000,5.86275E-003,4.52139E-001,0,2.63888E+001,-6.75611E-002,9.99892E-001,-1.34448E+001,-3.09199E+001,9.99367E-001,3.26825E-002,-1.35811E-002,-7.71983E-004,3.26953E-002,-1.35940E-002,-9.55718E-001,3.28496E-002,1.03317E+000,-1.04713E-002,0.00000E+000,8.56330E-003,9.87310E-001,0.00000E+000,-2.40274E-003,-4.11463E-002,1.00000E+000,5
1169,1297,1.71846E+001,-1.74369E+000,1.80811E-002,1.75885E+000,2.13434E-002,3.00998E-002,1.75924E+000,6.59576E-003,4.64922E-001,0,2.63908E+001,4.57832E-002,9.99889E-001,-1.34220E+001,-3.08660E+001,9.98034E-001,3.21139E-002,-1.35819E-002,-7.95561E-004,3.21278E-002,-1.35958E-002,-9.97112E-001,3.22539E-002,1.03258E+000,-1.04791E-002,0.00000E+000,8.52153E-003,9.87309E-001,0.00000E+000,-2.19674E-003,-4.11436E-002,1.00000E+000,5
689,1317,-1.51603E+001,-9.20663E-001,9.60543E-002,6.79070E-001,-1.93101E-001,7.48969E-002,7.09953E-001,6.38558E-003,6.41889E-001,0,1.04185E+001,-3.26931E+000,9.99835E-001,-3.22777E+001,-4.24679E+001,9.98852E-001,3.19109E-002,-1.27738E-002,-4.50257E-004,3.19155E-002,-1.27783E-002,-5.77252E-001,3.21259E-002,1.03242E+000,4.29278E-003,0.00000E+000,-5.06178E-003,9.88139E-001,0.00000E+000,1.73347E-003,-4.13649E-002,1.00000E+000,5
679,1347,-1.57864E+001,9.56478E-001,-1.31646E-002,6.66550E-001,-2.20708E-001,-6.92143E-003,7.02174E-001,8.83999E-003,6.00298E-001,0,1.04619E+001,-3.54039E+000,9.99784E-001,-3.17087E+001,-4.34956E+001,9.99047E-001,2.96834E-002,-1.26346E-002,-4.73740E-004,2.96887E-002,-1.26399E-002,-6.41305E-001,2.97976E-002,1.03012E+000,4.86862E-003,0.00000E+000,-5.56068E-003,9.88244E-001,0.00000E+000,-9.52981E-004,-4.06407E-002,1.00000E+000,5
679,1357,-1.57651E+001,1.59482E+000,-2.76918E-003,6.71336E-001,-2.27728E-001,-2.70087E-002,7.09423E-001,3.53248E-003,6.14254E-001,0,1.05918E+001,-3.58822E+000,9.99889E-001,-3.12017E+001,-4.37052E+001,9.99676E-001,2.89668E-002,-1.26352E-002,-4.95206E-004,2.89727E-002,-1.26411E-002,-6.81886E-001,2.90509E-002,1.02938E+000,4.84985E-003,0.00000E+000,-5.55346E-003,9.88245E-001,0.00000E+000,-1.82408E-003,-4.06629E-002,1.00000E+000,5
1179,1297,1.78629E+001,-1.73722E+000,-3.82246E-003,1.78002E+000,2.54160E-002,3.16519E-002,1.78048E+000,1.21513E-002,4.86324E-001,0,2.66831E+001,9.31045E-002,9.99923E-001,-1.29002E+001,-3.06251E+001,9.97963E-001,3.22073E-002,-1.36336E-002,-7.04229E-004,3.22181E-002,-1.36445E-002,-8.79927E-001,3.23436E-002,1.03269E+000,-9.94483E-003,0.00000E+000,8.23805E-003,9.87265E-001,0.00000E+000,-3.36135E-003,-4.12454E-002,1.00000E+000,5
1179,1307,1.78672E+001,-1.10477E+000,-5.76500E-002,1.77341E+000,1.44633E-002,9.38259E-004,1.77347E+000,4.93600E-003,3.83125E-001,0,2.67030E+001,-7.84387E-003,9.99932E-001,-1.28528E+001,-3.07505E+001,9.99062E-001,3.27973E-002,-1.36326E-002,-6.76565E-004,3.28072E-002,-1.36425E-002,-8.34663E-001,3.29617E-002,1.03330E+000,-9.93439E-003,0.00000E+000,8.27778E-003,9.87265E-001,0.00000E+000,-3.37850E-003,-4.12457E-002,1.00000E+000,5
1179,1317,1.78714E+001,-4.68915E-001,-1.14206E-001,1.76753E+000,5.83592E-003,-2.84719E-002,1.76776E+000,1.27866E-002,3.18278E-001,0,2.67282E+001,-7.08621E-002,9.99928E-001,-1.28138E+001,-3.07993E+001,9.99044E-001,3.33881E-002,-1.36316E-002,-6.49312E-004,3.33970E-002,-1.36406E-002,-7.91017E-001,3.35832E-002,1.03391E+000,-9.92487E-003,0.00000E+000,8.31759E-003,9.87266E-001,0.00000E+000,-3.39569E-003,-4.12460E-002,1.00000E+000,5
1179,1337,1.79190E+001,8.31602E-001,-7.12305E-002,1.75534E+000,-9.58159E-003,-8.67803E-002,1.75751E+000,5.34349E-003,4.13905E-001,0,2.67596E+001,-2.20667E-001,9.99923E-001,-1.18585E+001,-3.06822E+001,9.99091E-001,3.45896E-002,-1.36272E-002,-5.76170E-004,3.45965E-002,-1.36341E-002,-6.84529E-001,3.48542E-002,1.03515E+000,-9.86881E-003,0.00000E+000,8.39864E-003,9.87270E-001,0.00000E+000,-3.43068E-003,-4.12476E-002,1.00000E+000,5
1179,1347,1.79515E+001,1.48762E+000,-1.97327E-002,1.75038E+000,-1.64433E-002,-1.15191E-001,1.75424E+000,5.13413E-003,4.37188E-001,0,2.67874E+001,-2.70592E-001,9.99915E-001,-1.11959E+001,-3.06195E+001,9.99447E-001,3.51936E-002,-1.36246E-002,-5.36131E-004,3.51995E-002,-1.36304E-002,-6.29133E-001,3.54967E-002,1.03578E+000,-9.83382E-003,0.00000E+000,8.43943E-003,9.87272E-001,0.00000E+000,-3.44829E-003,-4.12485E-002,1.00000E+000,5
679,1327,-1.58159E+001,-3.01220E-001,3.24505E-002,6.61131E-001,-2.00619E-001,4.98080E-002,6.92692E-001,6.25645E-003,6.23550E-001,0,1.02179E+001,-3.33584E+000,9.99834E-001,-3.23309E+001,-4.29111E+001,9.99103E-001,3.11005E-002,-1.26339E-002,-4.36033E-004,3.11048E-002,-1.26382E-002,-5.71165E-001,3.12863E-002,1.03158E+000,4.89597E-003,0.00000E+000,-5.57501E-003,9.88244E-001,0.00000E+000,7.74235E-004,-4.06083E-002,1.00000E+000,5
679,1337,-1.58035E+001,3.26110E-001,-4.44064E-003,6.64851E-001,-2.09354E-001,2.59762E-002,6.97518E-001,5.61584E-003,6.13924E-001,0,1.03431E+001,-3.42956E+000,9.99882E-001,-3.20954E+001,-4.31943E+001,9.99694E-001,3.03950E-002,-1.26341E-002,-4.53008E-004,3.03997E-002,-1.26389E-002,-6.03118E-001,3.05432E-002,1.03085E+000,4.88607E-003,0.00000E+000,-5.56787E-003,9.88244E-001,0.00000E+000,-8.64866E-005,-4.06200E-002,1.00000E+000,5
1179,1327,1.78918E+001,1.79708E-001,-1.04999E-001,1.76210E+000,-6.06474E-004,-5.39389E-002,1.76292E+000,8.77952E-003,4.07702E-001,0,2.67401E+001,-1.61722E-001,9.99911E-001,-1.24105E+001,-3.07166E+001,9.98434E-001,3.39867E-002,-1.36297E-002,-6.14653E-004,3.39947E-002,-1.36376E-002,-7.39435E-001,3.42153E-002,1.03453E+000,-9.90064E-003,0.00000E+000,8.35796E-003,9.87268E-001,0.00000E+000,-3.41312E-003,-4.12467E-002,1.00000E+000,5
679,1317,-1.58232E+001,-9.23844E-001,9.36877E-002,6.57680E-001,-1.90818E-001,7.12152E-002,6.88496E-001,6.31445E-003,6.34287E-001,0,1.01027E+001,-3.22544E+000,9.99867E-001,-3.24197E+001,-4.26077E+001,9.98616E-001,3.18019E-002,-1.26338E-002,-4.21732E-004,3.18059E-002,-1.26378E-002,-5.43720E-001,3.20285E-002,1.03230E+000,4.90046E-003,0.00000E+000,-5.58211E-003,9.88244E-001,0.00000E+000,1.63138E-003,-4.06030E-002,1.00000E+000,5
669,1327,-1.64766E+001,-3.05292E-001,3.28762E-002,6.42294E-001,-1.97882E-001,5.22245E-002,6.74112E-001,6.97546E-003,5.91781E-001,0,9.92392E+000,-3.29682E+000,9.99891E-001,-3.24260E+001,-4.30843E+001,9.99010E-001,3.09039E-002,-1.25129E-002,-3.83589E-004,3.09073E-002,-1.25163E-002,-5.06157E-001,3.10929E-002,1.03137E+000,5.67768E-003,0.00000E+000,-6.21781E-003,9.88327E-001,0.00000E+000,7.07856E-004,-3.97922E-002,1.00000E+000,5
669,1337,-1.64648E+001,3.23367E-001,-4.70362E-003,6.45011E-001,-2.07251E-001,2.53835E-002,6.77965E-001,4.05334E-003,6.31028E-001,0,1.00415E+001,-3.38962E+000,9.99890E-001,-3.22014E+001,-4.33230E+001,9.99661E-001,3.01412E-002,-1.25135E-002,-4.21978E-004,3.01453E-002,-1.25177E-002,-5.66747E-001,3.02894E-002,1.03058E+000,5.66657E-003,0.00000E+000,-6.25417E-003,9.88327E-001,0.00000E+000,-1.32025E-004,-3.98040E-002,1.00000E+000,5
669,1347,-1.64498E+001,9.53567E-001,-2.47802E-002,6.48113E-001,-2.15991E-001,-4.62180E-004,6.83156E-001,3.85785E-003,6.13868E-001,0,1.01618E+001,-3.47174E+000,9.99880E-001,-3.18766E+001,-4.36058E+001,9.99525E-001,2.93768E-002,-1.25144E-002,-4.62102E-004,2.93819E-002,-1.25195E-002,-6.31928E-001,2.94887E-002,1.02980E+000,5.65194E-003,0.00000E+000,-6.29054E-003,9.88326E-001,0.00000E+000,-9.72258E-004,-3.98197E-002,1.00000E+000,5
669,1357,-1.64264E+001,1.59225E+000,-1.43058E-003,6.52084E-001,-2.22710E-001,-2.48368E-002,6.89515E-001,3.96455E-003,5.95584E-001,0,1.02899E+001,-3.52423E+000,9.99828E-001,-3.12997E+001,-4.38560E+001,9.99626E-001,2.86053E-002,-1.25161E-002,-5.06925E-004,2.86115E-002,-1.25224E-002,-7.06173E-001,2.86855E-002,1.02901E+000,5.62821E-003,0.00000E+000,-6.32718E-003,9.88325E-001,0.00000E+000,-1.81885E-003,-3.98450E-002,1.00000E+000,5
1189,1337,1.86072E+001,8.43226E-001,-7.50665E-002,1.77889E+000,-5.52522E-003,-9.23255E-002,1.78129E+000,7.67916E-003,4.25404E-001,0,2.71155E+001,-1.44172E-001,9.99903E-001,-1.11535E+001,-3.03974E+001,9.99149E-001,3.46876E-002,-1.36733E-002,-4.84948E-004,3.46925E-002,-1.36782E-002,-5.74467E-001,3.49501E-002,1.03526E+000,-9.34662E-003,0.00000E+000,8.09202E-003,9.87221E-001,0.00000E+000,-3.73100E-003,-4.11162E-002,1.00000E+000,5
669,1317,-1.64833E+001,-9.26896E-001,1.01709E-001,6.38208E-001,-1.87526E-001,7.44066E-002,6.69337E-001,9.97803E-003,5.84333E-001,0,9.79675E+000,-3.18139E+000,9.99890E-001,-3.24836E+001,-4.27886E+001,9.98395E-001,3.16598E-002,-1.25131E-002,-3.49227E-004,3.16625E-002,-1.25158E-002,-4.52938E-001,3.18931E-002,1.03215E+000,5.68099E-003,0.00000E+000,-6.18172E-003,9.88327E-001,0.00000E+000,1.54159E-003,-3.97886E-002,1.00000E+000,5
1189,1297,1.85522E+001,-1.72638E+000,6.50760E-003,1.80159E+000,3.00910E-002,2.54187E-002,1.80202E+000,9.97847E-003,4.35605E-001,0,2.70082E+001,1.73226E-001,9.99889E-001,-1.21478E+001,-3.04200E+001,9.96974E-001,3.23398E-002,-1.36752E-002,-5.53341E-004,3.23464E-002,-1.36818E-002,-6.88864E-001,3.24741E-002,1.03283E+000,-9.41860E-003,0.00000E+000,8.07275E-003,9.87221E-001,0.00000E+000,-4.37199E-003,-4.11352E-002,1.00000E+000,5
1189,1307,1.85514E+001,-1.09305E+000,-6.50468E-002,1.79425E+000,1.93455E-002,-5.01968E-003,1.79436E+000,5.82256E-003,4.35138E-001,0,2.70179E+001,6.95363E-002,9.99881E-001,-1.22113E+001,-3.04417E+001,9.98751E-001,3.29219E-002,-1.36749E-002,-5.42011E-004,3.29282E-002,-1.36812E-002,-6.66339E-001,3.30847E-002,1.03343E+000,-9.41242E-003,0.00000E+000,8.07752E-003,9.87221E-001,0.00000E+000,-4.21323E-003,-4.11336E-002,1.00000E+000,5
1189,1317,1.85671E+001,-4.47035E-001,-8.67350E-002,1.79041E+000,1.26263E-002,-3.60721E-002,1.79082E+000,6.06299E-003,4.89597E-001,0,2.70777E+001,2.26319E-002,9.99924E-001,-1.19342E+001,-3.03461E+001,9.99588E-001,3.35104E-002,-1.36745E-002,-5.24827E-004,3.35162E-002,-1.36803E-002,-6.37183E-001,3.37041E-002,1.03404E+000,-9.39430E-003,0.00000E+000,8.08235E-003,9.87221E-001,0.00000E+000,-4.05263E-003,-4.11288E-002,1.00000E+000,5
1189,1327,1.85837E+001,1.94670E-001,-9.06567E-002,1.78344E+000,1.41439E-003,-6.54475E-002,1.78464E+000,8.25606E-003,4.56376E-001,0,2.70847E+001,-8.90154E-002,9.99931E-001,-1.16132E+001,-3.04025E+001,9.99418E-001,3.40982E-002,-1.36740E-002,-5.05860E-004,3.41036E-002,-1.36793E-002,-6.06615E-001,3.43252E-002,1.03465E+000,-9.37246E-003,0.00000E+000,8.08718E-003,9.87221E-001,0.00000E+000,-3.89208E-003,-4.11230E-002,1.00000E+000,5
659,1327,-1.71370E+001,-3.05255E-001,3.53485E-002,6.22067E-001,-1.93307E-001,4.99607E-002,6.53323E-001,1.17598E-002,5.90449E-001,0,9.62022E+000,-3.21368E+000,9.99803E-001,-3.25067E+001,-4.31836E+001,9.97775E-001,3.06428E-002,-1.24303E-002,-4.01404E-004,3.06466E-002,-1.24341E-002,-5.33884E-001,3.08276E-002,1.03110E+000,6.42704E-003,0.00000E+000,-6.96305E-003,9.88381E-001,0.00000E+000,4.80123E-004,-3.92040E-002,1.00000E+000,5
659,1337,-1.71203E+001,3.20930E-001,6.10728E-003,6.29736E-001,-2.05086E-001,3.12527E-002,6.63027E-001,9.82521E-003,7.29014E-001,0,9.79256E+000,-3.41190E+000,9.99864E-001,-3.21843E+001,-4.34301E+001,9.99456E-001,2.98607E-002,-1.24310E-002,-4.47618E-004,2.98654E-002,-1.24357E-002,-6.06333E-001,3.00043E-002,1.03029E+000,6.41573E-003,0.00000E+000,-7.01892E-003,9.88380E-001,0.00000E+000,-2.79900E-004,-3.92147E-002,1.00000E+000,5
659,1347,-1.71060E+001,9.52253E-001,-1.37464E-002,6.32039E-001,-2.12404E-001,4.68309E-003,6.66792E-001,5.65732E-003,6.41809E-001,0,9.90161E+000,-3.43810E+000,9.99912E-001,-3.18686E+001,-4.37332E+001,9.99718E-001,2.90774E-002,-1.24320E-002,-4.95655E-004,2.90833E-002,-1.24379E-002,-6.84028E-001,2.91845E-002,1.02949E+000,6.40068E-003,0.00000E+000,-7.07478E-003,9.88379E-001,0.00000E+000,-1.03989E-003,-3.92289E-002,1.00000E+000,5
659,1357,-1.70849E+001,1.59122E+000,3.76236E-003,6.34502E-001,-2.18037E-001,-2.23325E-002,6.71291E-001,3.39648E-003,6.05370E-001,0,1.00129E+001,-3.46011E+000,9.99870E-001,-3.13408E+001,-4.39776E+001,9.99827E-001,2.82873E-002,-1.24339E-002,-5.48050E-004,2.82947E-002,-1.24413E-002,-7.70934E-001,2.83632E-002,1.02867E+000,6.37730E-003,0.00000E+000,-7.13103E-003,9.88378E-001,0.00000E+000,-1.80515E-003,-3.92509E-002,1.00000E+000,5
1199,1307,1.92392E+001,-1.08030E+000,-6.28048E-002,1.81525E+000,2.40332E-002,-1.32560E-002,1.81546E+000,8.17947E-003,4.45124E-001,0,2.73430E+001,1.62156E-001,9.99880E-001,-1.14925E+001,-3.01583E+001,9.98518E-001,3.30318E-002,-1.36734E-002,-3.95710E-004,3.30352E-002,-1.36768E-002,-4.85391E-001,3.31976E-002,1.03356E+000,-8.85652E-003,0.00000E+000,7.85438E-003,9.87217E-001,0.00000E+000,-4.70562E-003,-4.09500E-002,1.00000E+000,5
1199,1317,1.92521E+001,-4.39797E-001,-9.17678E-002,1.81087E+000,1.46989E-002,-4.22754E-002,1.81142E+000,6.51988E-003,4.46825E-001,0,2.73890E+001,6.89168E-002,9.99719E-001,-1.12733E+001,-3.01575E+001,9.98734E-001,3.36012E-002,-1.36738E-002,-3.91810E-004,3.36044E-002,-1.36771E-002,-4.74817E-001,3.37976E-002,1.03414E+000,-8.84100E-003,0.00000E+000,7.83165E-003,9.87216E-001,0.00000E+000,-4.43857E-003,-4.09430E-002,1.00000E+000,5
1199,1327,1.92683E+001,2.03524E-001,-1.08893E-001,1.80707E+000,7.09359E-003,-7.02274E-002,1.80845E+000,7.03615E-003,4.31465E-001,0,2.74383E+001,-1.35788E-003,9.99808E-001,-1.09821E+001,-3.01494E+001,9.99010E-001,3.41708E-002,-1.36743E-002,-3.86734E-004,3.41739E-002,-1.36774E-002,-4.63084E-001,3.43999E-002,1.03473E+000,-8.82300E-003,0.00000E+000,7.80888E-003,9.87215E-001,0.00000E+000,-4.17118E-003,-4.09348E-002,1.00000E+000,5
659,1317,-1.71477E+001,-9.29441E-001,8.82199E-002,6.16370E-001,-1.84599E-001,7.01845E-002,6.47236E-001,9.94853E-003,6.10064E-001,0,9.47448E+000,-3.11999E+000,9.99595E-001,-3.26720E+001,-4.28789E+001,9.95676E-001,3.14187E-002,-1.24302E-002,-3.57841E-004,3.14216E-002,-1.24331E-002,-4.67537E-001,3.16487E-002,1.03190E+000,6.43344E-003,0.00000E+000,-6.90755E-003,9.88381E-001,0.00000E+000,1.23518E-003,-3.91980E-002,1.00000E+000,5
1199,1337,1.92999E+001,8.57714E-001,-6.32464E-002,1.80386E+000,5.05003E-004,-9.24979E-002,1.80623E+000,7.24775E-003,4.32798E-001,0,2.74701E+001,-5.73207E-002,9.99852E-001,-1.03482E+001,-3.01047E+001,9.98537E-001,3.47473E-002,-1.36750E-002,-3.75335E-004,3.47502E-002,-1.36779E-002,-4.44081E-001,3.50115E-002,1.03533E+000,-8.79179E-003,0.00000E+000,7.78583E-003,9.87214E-001,0.00000E+000,-3.90032E-003,-4.09206E-002,1.00000E+000,5
1199,1297,1.92387E+001,-1.71384E+000,4.00500E-003,1.82196E+000,3.52136E-002,1.50746E-002,1.82236E+000,6.18372E-003,4.43825E-001,0,2.73314E+001,2.77705E-001,9.99833E-001,-1.14580E+001,-3.01322E+001,9.98321E-001,3.24657E-002,-1.36732E-002,-3.95345E-004,3.24691E-002,-1.36766E-002,-4.90895E-001,3.26032E-002,1.03297E+000,-8.86317E-003,0.00000E+000,7.87697E-003,9.87217E-001,0.00000E+000,-4.97095E-003,-4.09531E-002,1.00000E+000,5
649,1347,-1.77668E+001,9.53194E-001,-1.33885E-002,6.11312E-001,-2.06759E-001,7.54334E-004,6.45331E-001,5.06300E-003,6.70395E-001,0,9.59301E+000,-3.34466E+000,9.99918E-001,-3.19555E+001,-4.38030E+001,9.99418E-001,2.87372E-002,-1.23647E-002,-4.86010E-004,2.87429E-002,-1.23704E-002,-6.77370E-001,2.88357E-002,1.02913E+000,7.19312E-003,0.00000E+000,-7.82305E-003,9.88413E-001,0.00000E+000,-9.36665E-004,-3.85296E-002,1.00000E+000,5
649,1357,-1.77451E+001,1.59095E+000,7.15542E-003,6.15010E-001,-2.12545E-001,-2.06998E-002,6.51031E-001,3.55608E-003,6.00235E-001,0,9.70806E+000,-3.37210E+000,9.99909E-001,-3.14081E+001,-4.40911E+001,9.99698E-001,2.79015E-002,-1.23663E-002,-5.35069E-004,2.79087E-002,-1.23734E-002,-7.61152E-001,2.79683E-002,1.02827E+000,7.16917E-003,0.00000E+000,-7.87724E-003,9.88412E-001,0.00000E+000,-1.60672E-003,-3.85483E-002,1.00000E+000,5
649,1337,-1.77846E+001,3.20941E-001,2.42341E-003,6.05283E-001,-1.98850E-001,2.22402E-002,6.37498E-001,5.72367E-003,6.31625E-001,0,9.44018E+000,-3.26263E+000,9.99928E-001,-3.23361E+001,-4.35670E+001,9.99443E-001,2.95692E-002,-1.23638E-002,-4.41141E-004,2.95739E-002,-1.23684E-002,-6.02670E-001,2.97054E-002,1.02999E+000,7.20872E-003,0.00000E+000,-7.76903E-003,9.88414E-001,0.00000E+000,-2.68540E-004,-3.85174E-002,1.00000E+000,5
649,1327,-1.77980E+001,-3.04160E-001,3.51003E-002,6.00304E-001,-1.88395E-001,4.22752E-002,6.30591E-001,5.20532E-003,6.05988E-001,0,9.30667E+000,-3.11645E+000,9.99915E-001,-3.26010E+001,-4.32527E+001,9.99672E-001,3.03951E-002,-1.23633E-002,-3.98583E-004,3.03988E-002,-1.23670E-002,-5.34034E-001,3.05743E-002,1.03084E+000,7.22003E-003,0.00000E+000,-7.71532E-003,9.88415E-001,0.00000E+000,3.95586E-004,-3.85086E-002,1.00000E+000,5
1209,1307,1.99287E+001,-1.06824E+000,-6.21685E-002,1.83808E+000,2.92910E-002,-2.04873E-002,1.83843E+000,5.99083E-003,4.52661E-001,0,2.76914E+001,2.48283E-001,9.99890E-001,-1.07474E+001,-2.98833E+001,9.98796E-001,3.30750E-002,-1.36077E-002,-2.14824E-004,3.30760E-002,-1.36087E-002,-2.63655E-001,3.32485E-002,1.03361E+000,-8.23914E-003,0.00000E+000,7.62662E-003,9.87267E-001,0.00000E+000,-4.84585E-003,-4.05366E-002,1.00000E+000,5
1209,1317,1.99398E+001,-4.29843E-001,-9.52920E-002,1.83366E+000,1.86538E-002,-4.66363E-002,1.83435E+000,6.81258E-003,4.40483E-001,0,2.77272E+001,1.34999E-001,9.99851E-001,-1.05631E+001,-2.99118E+001,9.98573E-001,3.36584E-002,-1.36080E-002,-2.09448E-004,3.36594E-002,-1.36089E-002,-2.53884E-001,3.38642E-002,1.03421E+000,-8.22479E-003,0.00000E+000,7.60250E-003,9.87266E-001,0.00000E+000,-4.43506E-003,-4.05268E-002,1.00000E+000,5
1209,1327,1.99615E+001,2.16116E-001,-9.68478E-002,1.83058E+000,1.14106E-002,-7.66750E-002,1.83222E+000,6.36151E-003,4.15210E-001,0,2.77946E+001,7.14081E-002,9.99871E-001,-1.01633E+001,-2.98997E+001,9.99101E-001,3.42442E-002,-1.36083E-002,-2.00018E-004,3.42450E-002,-1.36091E-002,-2.39484E-001,3.44845E-002,1.03481E+000,-8.20200E-003,0.00000E+000,7.57825E-003,9.87265E-001,0.00000E+000,-4.02221E-003,-4.05113E-002,1.00000E+000,5
1209,1337,1.99937E+001,8.71066E-001,-5.03707E-002,1.82745E+000,4.09781E-003,-9.91319E-002,1.83015E+000,7.25461E-003,4.39003E-001,0,2.78291E+001,9.93286E-003,9.99896E-001,-9.52124E+000,-2.98327E+001,9.98232E-001,3.48366E-002,-1.36088E-002,-1.85922E-004,3.48373E-002,-1.36095E-002,-2.19884E-001,3.51139E-002,1.03542E+000,-8.16947E-003,0.00000E+000,7.55370E-003,9.87264E-001,0.00000E+000,-3.60427E-003,-4.04891E-002,1.00000E+000,5
1209,1297,1.99256E+001,-1.70285E+000,3.73475E-004,1.84412E+000,4.11224E-002,1.04512E-002,1.84460E+000,5.91090E-003,4.20548E-001,0,2.76590E+001,3.75934E-001,9.99834E-001,-1.07592E+001,-2.98819E+001,9.98447E-001,3.24928E-002,-1.36075E-002,-2.17384E-004,3.24939E-002,-1.36086E-002,-2.70167E-001,3.26364E-002,1.03301E+000,-8.24765E-003,0.00000E+000,7.65068E-003,9.87267E-001,0.00000E+000,-5.25538E-003,-4.05425E-002,1.00000E+000,5
649,1317,-1.78059E+001,-9.26411E-001,1.01135E-001,5.96104E-001,-1.78982E-001,6.81949E-002,6.26119E-001,4.21462E-003,6.36081E-001,0,9.16878E+000,-3.03066E+000,9.99851E-001,-3.26848E+001,-4.29388E+001,9.99634E-001,3.12163E-002,-1.23634E-002,-3.59268E-004,3.12193E-002,-1.23664E-002,-4.72299E-001,3.14431E-002,1.03168E+000,7.22499E-003,0.00000E+000,-7.66185E-003,9.88415E-001,0.00000E+000,1.05686E-003,-3.85047E-002,1.00000E+000,5
639,1347,-1.84268E+001,9.53875E-001,-1.60821E-002,5.92122E-001,-1.99845E-001,-1.76459E-004,6.24937E-001,5.35397E-003,6.22766E-001,0,9.29970E+000,-3.20971E+000,9.99860E-001,-3.20336E+001,-4.39082E+001,9.99350E-001,2.84033E-002,-1.22637E-002,-4.92903E-004,2.84093E-002,-1.22697E-002,-6.94315E-001,2.84970E-002,1.02878E+000,8.01195E-003,0.00000E+000,-8.62940E-003,9.88477E-001,0.00000E+000,-8.53961E-004,-3.77424E-002,1.00000E+000,5
639,1357,-1.84035E+001,1.59195E+000,7.86924E-003,5.97408E-001,-2.05937E-001,-1.92825E-002,6.32201E-001,3.36940E-003,6.11361E-001,0,9.43279E+000,-3.26688E+000,9.99903E-001,-3.14501E+001,-4.41713E+001,9.99701E-001,2.75325E-002,-1.22655E-002,-5.45450E-004,2.75400E-002,-1.22729E-002,-7.85070E-001,2.75942E-002,1.02789E+000,7.98697E-003,0.00000E+000,-8.69229E-003,9.88475E-001,0.00000E+000,-1.48760E-003,-3.77601E-002,1.00000E+000,5
639,1317,-1.84636E+001,-9.22671E-001,1.19654E-001,5.76252E-001,-1.73872E-001,7.35148E-002,6.06385E-001,6.29409E-003,6.97863E-001,0,8.84954E+000,-2.96098E+000,9.99866E-001,-3.26692E+001,-4.29821E+001,9.99123E-001,3.09791E-002,-1.22630E-002,-3.58943E-004,3.09821E-002,-1.22660E-002,-4.75556E-001,3.12051E-002,1.03143E+000,8.04110E-003,0.00000E+000,-8.44285E-003,9.88479E-001,0.00000E+000,1.02562E-003,-3.77218E-002,1.00000E+000,5
639,1327,-1.84561E+001,-3.05023E-001,4.76786E-002,5.81497E-001,-1.84504E-001,4.94110E-002,6.12063E-001,4.59230E-003,6.23732E-001,0,8.99874E+000,-3.08029E+000,9.99913E-001,-3.26095E+001,-4.33781E+001,9.99299E-001,3.01280E-002,-1.22626E-002,-4.00117E-004,3.01318E-002,-1.22664E-002,-5.40739E-001,3.03047E-002,1.03056E+000,8.03794E-003,0.00000E+000,-8.50457E-003,9.88479E-001,0.00000E+000,4.03739E-004,-3.77240E-002,1.00000E+000,5
639,1337,-1.84446E+001,3.22297E-001,-2.01020E-003,5.86413E-001,-1.92967E-001,2.27889E-002,6.17767E-001,4.21374E-003,6.54679E-001,0,9.14854E+000,-3.15265E+000,9.99925E-001,-3.24217E+001,-4.36211E+001,9.99533E-001,2.92671E-002,-1.22628E-002,-4.44624E-004,2.92719E-002,-1.22676E-002,-6.13322E-001,2.93994E-002,1.02967E+000,8.02873E-003,0.00000E+000,-8.56693E-003,9.88478E-001,0.00000E+000,-2.24480E-004,-3.77305E-002,1.00000E+000,5
1219,1317,2.06326E+001,-4.15177E-001,-8.62470E-002,1.85733E+000,2.30019E-002,-5.21700E-002,1.85820E+000,7.57907E-003,5.11845E-001,0,2.80816E+001,2.06683E-001,9.99929E-001,-9.75131E+000,-2.95811E+001,9.98544E-001,3.36510E-002,-1.36124E-002,-2.53906E-005,3.36510E-002,-1.36124E-002,-3.07802E-002,3.38549E-002,1.03420E+000,-7.59549E-003,0.00000E+000,7.35590E-003,9.87244E-001,0.00000E+000,-4.22802E-003,-4.00470E-002,1.00000E+000,5
1219,1327,2.06524E+001,2.28937E-001,-9.27593E-002,1.85435E+000,1.59596E-002,-7.91885E-002,1.85611E+000,4.37307E-003,4.33310E-001,0,2.81397E+001,1.48145E-001,9.99942E-001,-9.38960E+000,-2.96123E+001,9.99251E-001,3.42249E-002,-1.36132E-002,-2.33729E-005,3.42249E-002,-1.36132E-002,-2.79938E-002,3.44626E-002,1.03480E+000,-7.57485E-003,0.00000E+000,7.31678E-003,9.87243E-001,0.00000E+000,-3.74134E-003,-4.00300E-002,1.00000E+000,5
1219,1337,2.06864E+001,8.84280E-001,-4.47488E-002,1.85206E+000,8.46973E-003,-1.02657E-001,1.85493E+000,5.43159E-003,4.56964E-001,0,2.81911E+001,8.51749E-002,9.99915E-001,-8.72073E+000,-2.95411E+001,9.99062E-001,3.48073E-002,-1.36145E-002,-1.56234E-005,3.48073E-002,-1.36145E-002,-1.84866E-002,3.50812E-002,1.03540E+000,-7.54205E-003,0.00000E+000,7.27703E-003,9.87241E-001,0.00000E+000,-3.24695E-003,-4.00031E-002,1.00000E+000,5
1219,1297,2.06151E+001,-1.69179E+000,-2.04949E-003,1.86718E+000,4.50991E-002,2.89619E-003,1.86773E+000,6.44581E-003,4.14766E-001,0,2.80119E+001,4.63408E-001,9.99829E-001,-1.00157E+001,-2.96241E+001,9.98490E-001,3.25028E-002,-1.36112E-002,-2.15617E-005,3.25028E-002,-1.36112E-002,-2.67900E-002,3.26455E-002,1.03302E+000,-7.62039E-003,0.00000E+000,7.43404E-003,9.87246E-001,0.00000E+000,-5.20009E-003,-4.00675E-002,1.00000E+000,5
1219,1307,2.06225E+001,-1.05497E+000,-4.97712E-002,1.86283E+000,3.37862E-002,-2.27720E-002,1.86327E+000,7.49307E-003,4.72555E-001,0,2.80486E+001,3.20862E-001,9.99902E-001,-9.91420E+000,-2.96083E+001,9.98279E-001,3.30763E-002,-1.36117E-002,-2.43154E-005,3.30763E-002,-1.36117E-002,-2.98400E-002,3.32484E-002,1.03361E+000,-7.60971E-003,0.00000E+000,7.39503E-003,9.87245E-001,0.00000E+000,-4.71482E-003,-4.00587E-002,1.00000E+000,5
629,1347,-1.90863E+001,9.52626E-001,-1.80670E-002,5.73412E-001,-1.94728E-001,2.26818E-003,6.05578E-001,4.30141E-003,6.15742E-001,0,9.00487E+000,-3.12755E+000,9.99847E-001,-3.20999E+001,-4.40244E+001,9.99533E-001,2.81233E-002,-1.24123E-002,-5.19868E-004,2.81300E-002,-1.24189E-002,-7.34657E-001,2.81941E-002,1.02849E+000,8.83911E-003,0.00000E+000,-9.48178E-003,9.88298E-001,0.00000E+000,-7.51818E-004,-3.70780E-002,1.00000E+000,5
629,1357,-1.90622E+001,1.59047E+000,5.12293E-003,5.79328E-001,-2.01140E-001,-1.94309E-002,6.13560E-001,3.66208E-003,6.07283E-001,0,9.15451E+000,-3.18471E+000,9.99856E-001,-3.15050E+001,-4.42895E+001,9.99648E-001,2.73099E-002,-1.24118E-002,-5.15928E-004,2.73166E-002,-1.24185E-002,-7.44022E-001,2.73541E-002,1.02765E+000,8.81567E-003,0.00000E+000,-9.43624E-003,9.88299E-001,0.00000E+000,-1.35645E-003,-3.70949E-002,1.00000E+000,5
629,1327,-1.91165E+001,-3.04643E-001,4.58388E-002,5.61431E-001,-1.78349E-001,4.98829E-002,5.91186E-001,4.16275E-003,6.15271E-001,0,8.68860E+000,-2.97874E+000,9.99897E-001,-3.26885E+001,-4.34670E+001,9.99323E-001,2.97344E-002,-1.24125E-002,-5.38903E-004,2.97413E-002,-1.24194E-002,-7.32442E-001,2.98757E-002,1.03014E+000,8.86260E-003,0.00000E+000,-9.57218E-003,9.88296E-001,0.00000E+000,4.48212E-004,-3.70610E-002,1.00000E+000,5
629,1337,-1.91029E+001,3.22139E-001,8.89003E-004,5.68334E-001,-1.87048E-001,2.75354E-002,5.98956E-001,3.77058E-003,6.52856E-001,0,8.85750E+000,-3.07057E+000,9.99883E-001,-3.24565E+001,-4.37266E+001,9.99645E-001,2.89302E-002,-1.24125E-002,-5.27863E-004,2.89370E-002,-1.24192E-002,-7.31394E-001,2.90336E-002,1.02932E+000,8.85402E-003,0.00000E+000,-9.52703E-003,9.88297E-001,0.00000E+000,-1.51188E-004,-3.70672E-002,1.00000E+000,5
1229,1317,2.13237E+001,-4.03034E-001,-8.50967E-002,1.88189E+000,2.87636E-002,-5.39128E-002,1.88289E+000,6.59236E-003,4.89196E-001,0,2.84343E+001,3.03320E-001,9.99884E-001,-8.97510E+000,-2.93196E+001,9.99360E-001,3.36205E-002,-1.35706E-002,1.54134E-004,3.36210E-002,-1.35711E-002,1.87135E-001,3.38284E-002,1.03418E+000,-7.00121E-003,0.00000E+000,7.12966E-003,9.87266E-001,0.00000E+000,-3.90708E-003,-3.94949E-002,1.00000E+000,5
1229,1327,2.13429E+001,2.42496E-001,-9.25316E-002,1.87772E+000,1.98495E-002,-8.31736E-002,1.87966E+000,5.43796E-003,5.09121E-001,0,2.84845E+001,2.15921E-001,9.99904E-001,-8.62640E+000,-2.92763E+001,9.98970E-001,3.41858E-002,-1.35716E-002,1.54229E-004,3.41863E-002,-1.35721E-002,1.85030E-001,3.44272E-002,1.03476E+000,-6.98043E-003,0.00000E+000,7.08256E-003,9.87264E-001,0.00000E+000,-3.29986E-003,-3.94732E-002,1.00000E+000,5
1229,1337,2.13744E+001,8.94105E-001,-5.90009E-002,1.87581E+000,1.36346E-002,-1.09984E-001,1.87908E+000,5.81558E-003,4.48898E-001,0,2.85554E+001,1.65570E-001,9.99884E-001,-8.02048E+000,-2.92714E+001,9.98657E-001,3.47523E-002,-1.35729E-002,1.58583E-004,3.47529E-002,-1.35735E-002,1.88018E-001,3.50292E-002,1.03534E+000,-6.95072E-003,0.00000E+000,7.03530E-003,9.87261E-001,0.00000E+000,-2.69052E-003,-3.94423E-002,1.00000E+000,5
629,1317,-1.91245E+001,-9.23946E-001,1.17857E-001,5.55360E-001,-1.69184E-001,7.29234E-002,5.85120E-001,4.98111E-003,6.78973E-001,0,8.53016E+000,-2.88355E+000,9.99912E-001,-3.27576E+001,-4.31000E+001,9.99221E-001,3.05303E-002,-1.24124E-002,-5.52662E-004,3.05374E-002,-1.24195E-002,-7.37221E-001,3.07142E-002,1.03096E+000,8.86529E-003,0.00000E+000,-9.61693E-003,9.88296E-001,0.00000E+000,1.04220E-003,-3.70590E-002,1.00000E+000,5
1229,1297,2.13053E+001,-1.67937E+000,-1.20479E-003,1.89048E+000,5.01231E-002,-1.26094E-003,1.89115E+000,6.11142E-003,4.57111E-001,0,2.83542E+001,5.40644E-001,9.99807E-001,-9.25267E+000,-2.93284E+001,9.98414E-001,3.24955E-002,-1.35692E-002,1.62228E-004,3.24961E-002,-1.35698E-002,2.01778E-001,3.26429E-002,1.03302E+000,-7.02526E-003,0.00000E+000,7.22321E-003,9.87267E-001,0.00000E+000,-5.11309E-003,-3.95199E-002,1.00000E+000,5
1229,1307,2.13137E+001,-1.04174E+000,-5.12180E-002,1.88840E+000,4.06924E-002,-2.39223E-002,1.88899E+000,8.32368E-003,4.83355E-001,0,2.84132E+001,4.26988E-001,9.99842E-001,-9.14025E+000,-2.93091E+001,9.98616E-001,3.30571E-002,-1.35698E-002,1.56881E-004,3.30576E-002,-1.35703E-002,1.92775E-001,3.32337E-002,1.03360E+000,-7.01597E-003,0.00000E+000,7.17654E-003,9.87267E-001,0.00000E+000,-4.51143E-003,-3.95102E-002,1.00000E+000,5
619,1327,-1.97758E+001,-3.05633E-001,4.14505E-002,5.41706E-001,-1.73806E-001,4.64854E-002,5.70802E-001,3.48023E-003,6.03976E-001,0,8.39413E+000,-2.89185E+000,9.99850E-001,-3.27564E+001,-4.35728E+001,9.99549E-001,2.94508E-002,-1.23226E-002,-6.10374E-004,2.94597E-002,-1.23315E-002,-8.36942E-001,2.95896E-002,1.02984E+000,9.78722E-003,0.00000E+000,-1.06051E-002,9.88351E-001,0.00000E+000,5.13363E-004,-3.63928E-002,1.00000E+000,5
619,1337,-1.97616E+001,3.21869E-001,4.14875E-004,5.48564E-001,-1.82178E-001,2.34462E-002,5.78499E-001,3.28545E-003,6.39496E-001,0,8.56359E+000,-2.97686E+000,9.99791E-001,-3.25021E+001,-4.38325E+001,9.99640E-001,2.86491E-002,-1.23225E-002,-5.67701E-004,2.86570E-002,-1.23303E-002,-7.93685E-001,2.87497E-002,1.02902E+000,9.77778E-003,0.00000E+000,-1.04985E-002,9.88352E-001,0.00000E+000,-6.51332E-005,-3.63994E-002,1.00000E+000,5
619,1347,-1.97448E+001,9.52308E-001,-2.12008E-002,5.55163E-001,-1.88706E-001,2.73546E-003,5.86364E-001,4.11055E-003,6.13710E-001,0,8.72199E+000,-3.03090E+000,9.99810E-001,-3.21498E+001,-4.41213E+001,9.99537E-001,2.78461E-002,-1.23220E-002,-5.26782E-004,2.78530E-002,-1.23289E-002,-7.51230E-001,2.79140E-002,1.02819E+000,9.76470E-003,0.00000E+000,-1.03918E-002,9.88353E-001,0.00000E+000,-6.43833E-004,-3.64086E-002,1.00000E+000,5
619,1357,-1.97212E+001,1.58916E+000,-4.21953E-003,5.61809E-001,-1.94959E-001,-1.94667E-002,5.94994E-001,3.89198E-003,6.02830E-001,0,8.88410E+000,-3.08462E+000,9.99877E-001,-3.15780E+001,-4.43910E+001,9.99660E-001,2.70368E-002,-1.23206E-002,-4.89792E-004,2.70429E-002,-1.23267E-002,-7.12883E-001,2.70781E-002,1.02736E+000,9.74292E-003,0.00000E+000,-1.02844E-002,9.88356E-001,0.00000E+000,-1.22625E-003,-3.64238E-002,1.00000E+000,5
619,1317,-1.97825E+001,-9.23152E-001,1.17195E-001,5.37101E-001,-1.61414E-001,7.37563E-002,5.65660E-001,5.51164E-003,6.42694E-001,0,8.24692E+000,-2.76772E+000,9.99855E-001,-3.27928E+001,-4.31969E+001,9.99390E-001,3.02459E-002,-1.23220E-002,-6.55934E-004,3.02560E-002,-1.23321E-002,-8.82597E-001,3.04278E-002,1.03066E+000,9.79001E-003,0.00000E+000,-1.07110E-002,9.88350E-001,0.00000E+000,1.08785E-003,-3.63908E-002,1.00000E+000,5
1239,1307,2.19996E+001,-1.03385E+000,-6.28956E-002,1.90906E+000,4.38672E-002,-3.23648E-002,1.90984E+000,8.92752E-003,4.63882E-001,0,2.87342E+001,4.88627E-001,9.99803E-001,-8.46063E+000,-2.90866E+001,9.98820E-001,3.29775E-002,-1.34658E-002,2.56254E-004,3.29789E-002,-1.34673E-002,3.16120E-001,3.31630E-002,1.03352E+000,-6.49620E-003,0.00000E+000,6.86865E-003,9.87351E-001,0.00000E+000,-4.32203E-003,-3.89766E-002,1.00000E+000,5
1239,1317,2.20132E+001,-3.91847E-001,-9.33972E-002,1.90630E+000,3.60514E-002,-5.76768E-002,1.90751E+000,7.93512E-003,4.51702E-001,0,2.87919E+001,4.12962E-001,9.99827E-001,-8.23629E+000,-2.90601E+001,9.99124E-001,3.35408E-002,-1.34657E-002,2.66846E-004,3.35423E-002,-1.34672E-002,3.25242E-001,3.37586E-002,1.03410E+000,-6.48165E-003,0.00000E+000,6.84323E-003,9.87350E-001,0.00000E+000,-3.57022E-003,-3.89577E-002,1.00000E+000,5
1239,1327,2.20366E+001,2.56385E-001,-8.16286E-002,1.90164E+000,2.49026E-002,-8.50603E-002,1.90370E+000,6.57019E-003,5.15419E-001,0,2.88278E+001,2.99018E-001,9.99875E-001,-7.79209E+000,-2.89932E+001,9.99011E-001,3.41103E-002,-1.34656E-002,2.82556E-004,3.41120E-002,-1.34672E-002,3.40267E-001,3.43627E-002,1.03468E+000,-6.45656E-003,0.00000E+000,6.81749E-003,9.87349E-001,0.00000E+000,-2.80894E-003,-3.89252E-002,1.00000E+000,5
1239,1337,2.20641E+001,9.06699E-001,-5.68950E-002,1.89920E+000,2.01357E-002,-1.06774E-001,1.90230E+000,5.74780E-003,4.33354E-001,0,2.88712E+001,2.55482E-001,9.99828E-001,-7.26487E+000,-2.89991E+001,9.98439E-001,3.46750E-002,-1.34654E-002,2.98955E-004,3.46768E-002,-1.34673E-002,3.55792E-001,3.49637E-002,1.03526E+000,-6.42991E-003,0.00000E+000,6.79193E-003,9.87348E-001,0.00000E+000,-2.05289E-003,-3.88906E-002,1.00000E+000,5
1239,1297,2.19942E+001,-1.66913E+000,-2.88264E-003,1.91308E+000,5.52845E-002,-3.73319E-003,1.91388E+000,5.22185E-003,4.57662E-001,0,2.86788E+001,6.10406E-001,9.99852E-001,-8.51159E+000,-2.90821E+001,9.98978E-001,3.24152E-002,-1.34659E-002,2.48638E-004,3.24166E-002,-1.34673E-002,3.10484E-001,3.25707E-002,1.03294E+000,-6.50460E-003,0.00000E+000,6.89398E-003,9.87351E-001,0.00000E+000,-5.07117E-003,-3.89875E-002,1.00000E+000,5
609,1347,-2.04018E+001,9.52899E-001,-2.18818E-002,5.37164E-001,-1.83011E-001,2.42382E-004,5.67485E-001,5.46828E-003,6.29990E-001,0,8.45048E+000,-2.93531E+000,9.99783E-001,-3.21644E+001,-4.42005E+001,9.99391E-001,2.75987E-002,-1.20580E-002,-5.92081E-004,2.76076E-002,-1.20668E-002,-8.55182E-001,2.76803E-002,1.02793E+000,1.06117E-002,0.00000E+000,-1.13443E-002,9.88574E-001,0.00000E+000,-5.28576E-004,-3.55513E-002,1.00000E+000,5
609,1357,-2.03790E+001,1.59036E+000,-7.23272E-003,5.44002E-001,-1.87546E-001,-1.89377E-002,5.75734E-001,4.58903E-003,6.22421E-001,0,8.60691E+000,-2.97243E+000,9.99836E-001,-3.16110E+001,-4.44559E+001,9.99555E-001,2.68098E-002,-1.20563E-002,-5.38010E-004,2.68173E-002,-1.20638E-002,-7.92922E-001,2.68622E-002,1.02712E+000,1.05918E-002,0.00000E+000,-1.12050E-002,9.88577E-001,0.00000E+000,-1.13751E-003,-3.55663E-002,1.00000E+000,5
609,1317,-2.04411E+001,-9.23161E-001,1.17916E-001,5.17192E-001,-1.55858E-001,7.26708E-002,5.45032E-001,7.56074E-003,6.22720E-001,0,7.94318E+000,-2.67599E+000,9.99846E-001,-3.28304E+001,-4.33012E+001,9.98749E-001,2.99424E-002,-1.20577E-002,-7.70027E-004,2.99565E-002,-1.20718E-002,-1.04999E+000,3.01439E-002,1.03034E+000,1.06361E-002,0.00000E+000,-1.17593E-002,9.88569E-001,0.00000E+000,1.28519E-003,-3.55330E-002,1.00000E+000,5
609,1327,-2.04333E+001,-3.05579E-001,3.88377E-002,5.23388E-001,-1.69237E-001,4.49603E-002,5.51904E-001,4.81100E-003,6.25568E-001,0,8.11622E+000,-2.80962E+000,9.99811E-001,-3.27875E+001,-4.36500E+001,9.99215E-001,2.91646E-002,-1.20586E-002,-7.07989E-004,2.91767E-002,-1.20708E-002,-9.83641E-001,2.93212E-002,1.02954E+000,1.06340E-002,0.00000E+000,-1.16214E-002,9.88570E-001,0.00000E+000,6.82401E-004,-3.55346E-002,1.00000E+000,5
609,1337,-2.04194E+001,3.21359E-001,-3.56304E-003,5.30008E-001,-1.76474E-001,2.00837E-002,5.58977E-001,4.72496E-003,6.14827E-001,0,8.28609E+000,-2.87337E+000,9.99764E-001,-3.25408E+001,-4.39402E+001,9.99375E-001,2.83839E-002,-1.20586E-002,-6.49209E-004,2.83944E-002,-1.20690E-002,-9.19433E-001,2.85005E-002,1.02874E+000,1.06248E-002,0.00000E+000,-1.14832E-002,9.88571E-001,0.00000E+000,7.82821E-005,-3.55415E-002,1.00000E+000,5
1249,1297,2.26847E+001,-1.65686E+000,-1.98788E-003,1.93524E+000,6.04828E-002,-9.30675E-003,1.93620E+000,6.53446E-003,4.87244E-001,0,2.90086E+001,6.91085E-001,9.99862E-001,-7.73811E+000,-2.87952E+001,9.98974E-001,3.22187E-002,-1.32126E-002,3.69215E-004,3.22217E-002,-1.32156E-002,4.65595E-001,3.23947E-002,1.03274E+000,-5.81117E-003,0.00000E+000,6.47383E-003,9.87583E-001,0.00000E+000,-5.16691E-003,-3.84279E-002,1.00000E+000,5
1249,1307,2.26869E+001,-1.02372E+000,-6.79685E-002,1.93056E+000,4.85804E-002,-3.44610E-002,1.93148E+000,9.20207E-003,4.72780E-001,0,2.90417E+001,5.55888E-001,9.99844E-001,-7.74513E+000,-2.88294E+001,9.98499E-001,3.28210E-002,-1.32107E-002,4.30672E-004,3.28250E-002,-1.32147E-002,5.35996E-001,3.30320E-002,1.03336E+000,-5.80452E-003,0.00000E+000,6.55028E-003,9.87584E-001,0.00000E+000,-4.23934E-003,-3.84179E-002,1.00000E+000,5
1249,1317,2.26991E+001,-3.83953E-001,-9.97217E-002,1.92730E+000,3.92142E-002,-5.71882E-002,1.92855E+000,7.64563E-003,4.35181E-001,0,2.90830E+001,4.57712E-001,9.99781E-001,-7.54570E+000,-2.88462E+001,9.98499E-001,3.34248E-002,-1.32073E-002,4.96298E-004,3.34301E-002,-1.32126E-002,6.09697E-001,3.36738E-002,1.03398E+000,-5.78978E-003,0.00000E+000,6.62710E-003,9.87585E-001,0.00000E+000,-3.30741E-003,-3.83958E-002,1.00000E+000,5
1249,1327,2.27224E+001,2.65909E-001,-9.64183E-002,1.92509E+000,3.28281E-002,-8.28187E-002,1.92715E+000,6.23846E-003,4.60041E-001,0,2.91478E+001,4.02762E-001,9.99806E-001,-7.11807E+000,-2.87531E+001,9.99064E-001,3.40328E-002,-1.32022E-002,5.67110E-004,3.40396E-002,-1.32090E-002,6.87770E-001,3.43228E-002,1.03461E+000,-5.76533E-003,0.00000E+000,6.70460E-003,9.87589E-001,0.00000E+000,-2.36710E-003,-3.83591E-002,1.00000E+000,5
1249,1337,2.27520E+001,9.18463E-001,-6.49343E-002,1.92173E+000,2.63194E-002,-1.07954E-001,1.92494E+000,4.53077E-003,4.43207E-001,0,2.91915E+001,3.42543E-001,9.99911E-001,-6.55101E+000,-2.87048E+001,9.99478E-001,3.46412E-002,-1.31957E-002,6.41418E-004,3.46498E-002,-1.32043E-002,7.68063E-001,3.49749E-002,1.03523E+000,-5.73388E-003,0.00000E+000,6.78232E-003,9.87592E-001,0.00000E+000,-1.42408E-003,-3.83119E-002,1.00000E+000,5
1259,1327,2.34106E+001,2.73913E-001,-1.03328E-001,1.94682E+000,3.62063E-002,-8.62525E-002,1.94907E+000,5.74851E-003,4.29366E-001,0,2.94651E+001,4.53130E-001,9.99914E-001,-6.39153E+000,-2.85416E+001,9.99206E-001,3.39669E-002,-1.31314E-002,8.83095E-004,3.39834E-002,-1.31479E-002,1.07380E+000,3.42721E-002,1.03454E+000,-5.11276E-003,0.00000E+000,6.67930E-003,9.87629E-001,0.00000E+000,-1.65852E-003,-3.75553E-002,1.00000E+000,5
1259,1337,2.34413E+001,9.26469E-001,-7.12728E-002,1.94397E+000,2.89183E-002,-1.12454E-001,1.94744E+000,5.41158E-003,4.08398E-001,0,2.95214E+001,3.89763E-001,9.99945E-001,-5.80774E+000,-2.84947E+001,9.99483E-001,3.45567E-002,-1.31215E-002,9.86202E-004,3.45771E-002,-1.31419E-002,1.18446E+000,3.49071E-002,1.03515E+000,-5.08162E-003,0.00000E+000,6.81006E-003,9.87636E-001,0.00000E+000,-5.68721E-004,-3.74997E-002,1.00000E+000,5
599,1347,-2.10566E+001,9.56874E-001,-1.43049E-002,5.20384E-001,-1.73906E-001,3.02366E-003,5.48682E-001,5.10444E-003,6.61562E-001,0,8.18281E+000,-2.81364E+000,9.99873E-001,-3.21175E+001,-4.42381E+001,9.99649E-001,2.74679E-002,-1.21466E-002,-4.73936E-004,2.74735E-002,-1.21523E-002,-6.85338E-001,2.75344E-002,1.02779E+000,1.13418E-002,0.00000E+000,-1.18183E-002,9.88454E-001,0.00000E+000,-3.76208E-004,-3.47954E-002,1.00000E+000,5
599,1357,-2.10333E+001,1.59177E+000,-2.27776E-003,5.28334E-001,-1.80677E-001,-1.59834E-002,5.58602E-001,3.83031E-003,6.48875E-001,0,8.35655E+000,-2.87914E+000,9.99884E-001,-3.15635E+001,-4.45313E+001,9.99639E-001,2.67343E-002,-1.21433E-002,-3.40550E-004,2.67373E-002,-1.21463E-002,-5.01833E-001,2.67745E-002,1.02703E+000,1.13241E-002,0.00000E+000,-1.15232E-002,9.88461E-001,0.00000E+000,-1.03293E-003,-3.48109E-002,1.00000E+000,5
1259,1287,2.33720E+001,-2.28181E+000,7.35025E-002,1.95940E+000,7.57167E-002,1.33430E-002,1.96091E+000,8.78086E-003,4.11486E-001,0,2.92524E+001,8.88251E-001,9.99754E-001,-6.95379E+000,-2.86181E+001,9.96492E-001,3.16214E-002,-1.31487E-002,5.11809E-004,3.16272E-002,-1.31545E-002,6.54889E-001,3.17759E-002,1.03213E+000,-5.16021E-003,0.00000E+000,6.16283E-003,9.87619E-001,0.00000E+000,-5.96323E-003,-3.76402E-002,1.00000E+000,5
1259,1297,2.33699E+001,-1.65008E+000,-1.62077E-002,1.95589E+000,6.35674E-002,-1.43570E-002,1.95697E+000,6.14975E-003,4.59731E-001,0,2.93152E+001,7.48150E-001,9.99804E-001,-7.06551E+000,-2.85908E+001,9.98265E-001,3.22070E-002,-1.31474E-002,5.99087E-004,3.22149E-002,-1.31553E-002,7.56644E-001,3.23948E-002,1.03273E+000,-5.15892E-003,0.00000E+000,6.29128E-003,9.87619E-001,0.00000E+000,-4.89265E-003,-3.76379E-002,1.00000E+000,5
1259,1307,2.33755E+001,-1.01316E+000,-7.44548E-002,1.95315E+000,5.37770E-002,-3.63873E-002,1.95423E+000,6.20169E-003,4.71453E-001,0,2.93641E+001,6.37606E-001,9.99848E-001,-7.01017E+000,-2.85676E+001,9.98647E-001,3.27928E-002,-1.31442E-002,6.89708E-004,3.28032E-002,-1.31546E-002,8.59991E-001,3.30168E-002,1.03333E+000,-5.15125E-003,0.00000E+000,6.42010E-003,9.87621E-001,0.00000E+000,-3.81892E-003,-3.76241E-002,1.00000E+000,5
599,1327,-2.10892E+001,-2.99269E-001,4.92393E-002,5.04947E-001,-1.58848E-001,4.81911E-002,5.31532E-001,4.70448E-003,6.39065E-001,0,7.82186E+000,-2.65461E+000,9.99832E-001,-3.27493E+001,-4.36629E+001,9.99413E-001,2.89231E-002,-1.21476E-002,-7.46500E-004,2.89367E-002,-1.21612E-002,-1.04095E+000,2.90590E-002,1.02928E+000,1.13618E-002,0.00000E+000,-1.24052E-002,9.88446E-001,0.00000E+000,9.29417E-004,-3.47780E-002,1.00000E+000,5
599,1337,-2.10762E+001,3.24683E-001,-2.14689E-003,5.12178E-001,-1.67526E-001,2.29584E-002,5.39369E-001,4.24609E-003,6.39229E-001,0,8.00226E+000,-2.74719E+000,9.99840E-001,-3.25436E+001,-4.39763E+001,9.99515E-001,2.81983E-002,-1.21483E-002,-6.09085E-004,2.82075E-002,-1.21575E-002,-8.64692E-001,2.82969E-002,1.02854E+000,1.13550E-002,0.00000E+000,-1.21127E-002,9.88449E-001,0.00000E+000,2.78676E-004,-3.47839E-002,1.00000E+000,5
1259,1317,2.33884E+001,-3.72026E-001,-1.03410E-001,1.95030E+000,4.47878E-002,-5.74571E-002,1.95166E+000,6.10385E-003,4.61113E-001,0,2.94051E+001,5.36865E-001,9.99920E-001,-6.79444E+000,-2.85540E+001,9.98893E-001,3.33793E-002,-1.31391E-002,7.84019E-004,3.33925E-002,-1.31523E-002,9.65296E-001,3.36423E-002,1.03393E+000,-5.13656E-003,0.00000E+000,6.54940E-003,9.87624E-001,0.00000E+000,-2.74126E-003,-3.75979E-002,1.00000E+000,5
599,1317,-2.10994E+001,-9.19888E-001,1.22880E-001,4.96195E-001,-1.49479E-001,6.94357E-002,5.22852E-001,6.28414E-003,6.25617E-001,0,7.62734E+000,-2.55384E+000,9.99839E-001,-3.28443E+001,-4.33529E+001,9.99383E-001,2.96455E-002,-1.21450E-002,-8.86064E-004,2.96643E-002,-1.21638E-002,-1.21409E+000,2.98239E-002,1.03003E+000,1.13635E-002,0.00000E+000,-1.26971E-002,9.88446E-001,0.00000E+000,1.57896E-003,-3.47765E-002,1.00000E+000,5
589,1347,-2.17132E+001,9.59899E-001,-1.24565E-002,5.02235E-001,-1.65262E-001,4.60056E-003,5.28747E-001,4.03145E-003,6.50542E-001,0,7.89699E+000,-2.67188E+000,9.99888E-001,-3.21099E+001,-4.42994E+001,9.99612E-001,2.73469E-002,-1.21215E-002,-2.78205E-004,2.73489E-002,-1.21235E-002,-4.03839E-001,2.74075E-002,1.02765E+000,1.22167E-002,0.00000E+000,-1.22765E-002,9.88450E-001,0.00000E+000,-3.09778E-004,-3.41141E-002,1.00000E+000,5
589,1357,-2.16892E+001,1.59572E+000,1.05044E-003,5.10410E-001,-1.72115E-001,-1.62454E-002,5.38893E-001,3.44268E-003,6.58164E-001,0,8.07871E+000,-2.73352E+000,9.99865E-001,-3.15400E+001,-4.45733E+001,9.99691E-001,2.66287E-002,-1.21181E-002,-1.37995E-004,2.66292E-002,-1.21186E-002,-2.04053E-001,2.66650E-002,1.02691E+000,1.21990E-002,0.00000E+000,-1.19695E-002,9.88457E-001,0.00000E+000,-9.42295E-004,-3.41294E-002,1.00000E+000,5
589,1337,-2.17313E+001,3.28377E-001,6.08276E-003,4.94431E-001,-1.58925E-001,2.51848E-002,5.19956E-001,3.80609E-003,6.45482E-001,0,7.72120E+000,-2.62165E+000,9.99896E-001,-3.24955E+001,-4.40305E+001,9.99636E-001,2.80608E-002,-1.21226E-002,-4.20637E-004,2.80652E-002,-1.21270E-002,-5.99680E-001,2.81513E-002,1.02839E+000,1.22285E-002,0.00000E+000,-1.25821E-002,9.88445E-001,0.00000E+000,3.19800E-004,-3.41041E-002,1.00000E+000,5
589,1327,-2.17430E+001,-2.90986E-001,6.19850E-002,4.88632E-001,-1.46467E-001,5.62723E-002,5.13206E-001,7.30685E-003,7.11595E-001,0,7.54747E+000,-2.50431E+000,9.99872E-001,-3.26675E+001,-4.36211E+001,9.99268E-001,2.87686E-002,-1.21217E-002,-5.64454E-004,2.87764E-002,-1.21295E-002,-7.90716E-001,2.88944E-002,1.02911E+000,1.22352E-002,0.00000E+000,-1.28855E-002,9.88442E-001,0.00000E+000,9.44929E-004,-3.40983E-002,1.00000E+000,5
1269,1327,2.41017E+001,2.85143E-001,-1.02666E-001,1.97053E+000,4.07033E-002,-8.36540E-002,1.97272E+000,5.46104E-003,4.37841E-001,0,2.97865E+001,5.16313E-001,9.99931E-001,-5.60459E+000,-2.82769E+001,9.99086E-001,3.38641E-002,-1.30149E-002,1.13049E-003,3.38914E-002,-1.30421E-002,1.38062E+000,3.41898E-002,1.03444E+000,-4.49756E-003,0.00000E+000,6.56513E-003,9.87701E-001,0.00000E+000,-1.22328E-003,-3.63461E-002,1.00000E+000,5
1269,1337,2.41339E+001,9.35974E-001,-6.80526E-002,1.96804E+000,3.16342E-002,-1.10611E-001,1.97140E+000,5.12113E-003,4.08866E-001,0,2.98523E+001,4.20671E-001,9.99909E-001,-4.99695E+000,-2.82650E+001,9.99055E-001,3.44389E-002,-1.30034E-002,1.24573E-003,3.44716E-002,-1.30361E-002,1.50308E+000,3.48110E-002,1.03503E+000,-4.46623E-003,0.00000E+000,6.72099E-003,9.87709E-001,0.00000E+000,-1.21541E-004,-3.62880E-002,1.00000E+000,5
589,1317,-2.17546E+001,-9.14822E-001,1.31960E-001,4.78087E-001,-1.40311E-001,7.21202E-002,5.03444E-001,5.47099E-003,6.29878E-001,0,7.34018E+000,-2.41385E+000,9.99755E-001,-3.27963E+001,-4.33848E+001,9.98861E-001,2.94753E-002,-1.21187E-002,-7.10826E-004,2.94874E-002,-1.21308E-002,-9.78784E-001,2.96414E-002,1.02984E+000,1.22365E-002,0.00000E+000,-1.31889E-002,9.88442E-001,0.00000E+000,1.56990E-003,-3.40972E-002,1.00000E+000,5
1269,1317,2.40812E+001,-3.60579E-001,-9.80592E-002,1.97357E+000,4.95950E-002,-5.84593E-002,1.97506E+000,5.79108E-003,4.40094E-001,0,2.97333E+001,6.11508E-001,9.99911E-001,-5.97380E+000,-2.83122E+001,9.98905E-001,3.32910E-002,-1.30230E-002,1.02055E-003,3.33135E-002,-1.30455E-002,1.26172E+000,3.35735E-002,1.03384E+000,-4.51893E-003,0.00000E+000,6.41017E-003,9.87695E-001,0.00000E+000,-2.31868E-003,-3.63857E-002,1.00000E+000,5
1269,1307,2.40679E+001,-1.00205E+000,-6.87443E-002,1.97627E+000,5.80203E-002,-3.70064E-002,1.97746E+000,5.63670E-003,4.65423E-001,0,2.96882E+001,7.02869E-001,9.99865E-001,-6.19219E+000,-2.83257E+001,9.98789E-001,3.27196E-002,-1.30289E-002,9.14475E-004,3.27378E-002,-1.30471E-002,1.14469E+000,3.29618E-002,1.03326E+000,-4.53335E-003,0.00000E+000,6.25608E-003,9.87692E-001,0.00000E+000,-3.40794E-003,-3.64124E-002,1.00000E+000,5
1269,1297,2.40593E+001,-1.64125E+000,-1.97259E-002,1.97851E+000,6.67989E-002,-1.48960E-002,1.97970E+000,6.32169E-003,4.62065E-001,0,2.96323E+001,7.98523E-001,9.99844E-001,-6.30871E+000,-2.83619E+001,9.98616E-001,3.21477E-002,-1.30331E-002,8.10790E-004,3.21622E-002,-1.30477E-002,1.02776E+000,3.23524E-002,1.03267E+000,-4.54316E-003,0.00000E+000,6.10228E-003,9.87689E-001,0.00000E+000,-4.49514E-003,-3.64306E-002,1.00000E+000,5
1269,1287,2.40633E+001,-2.27229E+000,7.58286E-002,1.98168E+000,7.83838E-002,1.03290E-002,1.98326E+000,1.11179E-002,4.28779E-001,0,2.95734E+001,9.33045E-001,9.99875E-001,-6.15956E+000,-2.83849E+001,9.96768E-001,3.15775E-002,-1.30339E-002,7.12791E-004,3.15889E-002,-1.30453E-002,9.15149E-001,3.17480E-002,1.03209E+000,-4.54241E-003,0.00000E+000,5.94937E-003,9.87689E-001,0.00000E+000,-5.57606E-003,-3.64292E-002,1.00000E+000,5
579,1347,-2.23676E+001,9.62292E-001,-1.24490E-002,4.85094E-001,-1.58117E-001,1.02932E-004,5.10213E-001,3.49904E-003,6.40581E-001,0,7.64265E+000,-2.53674E+000,9.99889E-001,-3.20717E+001,-4.43657E+001,9.99666E-001,2.70955E-002,-1.21219E-002,-8.52355E-005,2.70957E-002,-1.21221E-002,-1.24526E-001,2.71457E-002,1.02738E+000,1.30469E-002,0.00000E+000,-1.26922E-002,9.88426E-001,0.00000E+000,-4.30044E-004,-3.35751E-002,1.00000E+000,5
579,1357,-2.23422E+001,1.59955E+000,7.04721E-003,4.94658E-001,-1.63861E-001,-1.66209E-002,5.21357E-001,4.11637E-003,6.74556E-001,0,7.83486E+000,-2.60002E+000,9.99877E-001,-3.14584E+001,-4.46192E+001,9.99771E-001,2.63558E-002,-1.21184E-002,6.35045E-005,2.63559E-002,-1.21185E-002,9.45707E-002,2.63843E-002,1.02662E+000,1.30284E-002,0.00000E+000,-1.23668E-002,9.88434E-001,0.00000E+000,-1.12723E-003,-3.35921E-002,1.00000E+000,5
579,1337,-2.23872E+001,3.31928E-001,8.35375E-003,4.75827E-001,-1.50861E-001,2.29198E-002,4.99695E-001,3.13959E-003,6.58274E-001,0,7.43823E+000,-2.48823E+000,9.99872E-001,-3.24718E+001,-4.40709E+001,9.99727E-001,2.78302E-002,-1.21228E-002,-2.36288E-004,2.78316E-002,-1.21242E-002,-3.38839E-001,2.79084E-002,1.02814E+000,1.30588E-002,0.00000E+000,-1.30160E-002,9.88421E-001,0.00000E+000,2.63451E-004,-3.35641E-002,1.00000E+000,5
579,1327,-2.24020E+001,-2.89113E-001,5.24686E-002,4.67363E-001,-1.40291E-001,4.59281E-002,4.90122E-001,5.54063E-003,6.91740E-001,0,7.24480E+000,-2.35688E+000,9.99867E-001,-3.27283E+001,-4.36769E+001,9.99051E-001,2.85585E-002,-1.21219E-002,-3.88333E-004,2.85622E-002,-1.21256E-002,-5.46877E-001,2.86704E-002,1.02889E+000,1.30663E-002,0.00000E+000,-1.33374E-002,9.88418E-001,0.00000E+000,9.51877E-004,-3.35572E-002,1.00000E+000,5
579,1317,-2.24115E+001,-9.07384E-001,1.29877E-001,4.59212E-001,-1.30098E-001,7.08281E-002,4.82512E-001,7.13394E-003,6.91245E-001,0,7.05092E+000,-2.24088E+000,9.99759E-001,-3.28005E+001,-4.33286E+001,9.98555E-001,2.92840E-002,-1.21186E-002,-5.42896E-004,2.92912E-002,-1.21257E-002,-7.51125E-001,2.94353E-002,1.02964E+000,1.30679E-002,0.00000E+000,-1.36581E-002,9.88417E-001,0.00000E+000,1.63887E-003,-3.35558E-002,1.00000E+000,5
1279,1317,2.47694E+001,-3.53111E-001,-1.05114E-001,1.99529E+000,5.27843E-002,-5.93843E-002,1.99687E+000,5.54948E-003,4.07516E-001,0,3.00390E+001,6.58019E-001,9.99824E-001,-5.23755E+000,-2.81114E+001,9.98424E-001,3.31326E-002,-1.28744E-002,1.21393E-003,3.31646E-002,-1.29065E-002,1.51039E+000,3.34352E-002,1.03368E+000,-3.95903E-003,0.00000E+000,6.24233E-003,9.87803E-001,0.00000E+000,-1.89956E-003,-3.52280E-002,1.00000E+000,5
1279,1327,2.47943E+001,2.96470E-001,-9.85893E-002,1.99482E+000,4.52675E-002,-7.88850E-002,1.99689E+000,7.31436E-003,4.53283E-001,0,3.01071E+001,5.69602E-001,9.99883E-001,-4.78746E+000,-2.80148E+001,9.98997E-001,3.37278E-002,-1.28638E-002,1.34892E-003,3.37668E-002,-1.29028E-002,1.65697E+000,3.40782E-002,1.03430E+000,-3.93535E-003,0.00000E+000,6.44205E-003,9.87810E-001,0.00000E+000,-6.88120E-004,-3.51813E-002,1.00000E+000,5
1279,1337,2.48270E+001,9.48883E-001,-6.36855E-002,1.99277E+000,3.62264E-002,-1.05064E-001,1.99586E+000,4.97876E-003,4.61375E-001,0,3.01767E+001,4.75111E-001,9.99896E-001,-4.17314E+000,-2.79591E+001,9.99448E-001,3.43238E-002,-1.28496E-002,1.48865E-003,3.43708E-002,-1.28966E-002,1.80568E+000,3.47257E-002,1.03491E+000,-3.90281E-003,0.00000E+000,6.64269E-003,9.87821E-001,0.00000E+000,5.28945E-004,-3.51171E-002,1.00000E+000,5
1279,1307,2.47536E+001,-9.93607E-001,-8.04091E-002,1.99670E+000,6.22078E-002,-3.80284E-002,1.99803E+000,6.41968E-003,4.57992E-001,0,2.99746E+001,7.66047E-001,9.99862E-001,-5.50216E+000,-2.80892E+001,9.97988E-001,3.25411E-002,-1.28821E-002,1.08366E-003,3.25670E-002,-1.29079E-002,1.36587E+000,3.27994E-002,1.03307E+000,-3.97519E-003,0.00000E+000,6.04446E-003,9.87797E-001,0.00000E+000,-3.09977E-003,-3.52598E-002,1.00000E+000,5
1279,1297,2.47495E+001,-1.63143E+000,-1.48629E-002,2.00009E+000,7.18493E-002,-1.22556E-002,2.00142E+000,9.70962E-003,3.96182E-001,0,2.99192E+001,8.79425E-001,9.99873E-001,-5.52336E+000,-2.81700E+001,9.98751E-001,3.19488E-002,-1.28860E-002,9.57992E-004,3.19692E-002,-1.29065E-002,1.22350E+000,3.21662E-002,1.03247E+000,-3.98220E-003,0.00000E+000,5.84692E-003,9.87795E-001,0.00000E+000,-4.29797E-003,-3.52736E-002,1.00000E+000,5
1279,1287,2.47484E+001,-2.26860E+000,5.85015E-002,2.00212E+000,7.90740E-002,5.35297E-003,2.00369E+000,9.78222E-003,3.59461E-001,0,2.98765E+001,9.72958E-001,9.99859E-001,-5.48665E+000,-2.82447E+001,9.97999E-001,3.13568E-002,-1.28883E-002,8.34746E-004,3.13726E-002,-1.29041E-002,1.08045E+000,3.15366E-002,1.03186E+000,-3.98513E-003,0.00000E+000,5.65013E-003,9.87794E-001,0.00000E+000,-5.49160E-003,-3.52794E-002,1.00000E+000,5
569,1347,-2.30218E+001,9.68349E-001,-7.06525E-003,4.68098E-001,-1.47403E-001,2.65734E-003,4.90765E-001,3.35124E-003,6.66458E-001,0,7.37120E+000,-2.37477E+000,9.99886E-001,-3.20085E+001,-4.43698E+001,9.99664E-001,2.69658E-002,-1.21305E-002,7.94384E-005,2.69660E-002,-1.21306E-002,1.16417E-001,2.70112E-002,1.02724E+000,1.38799E-002,0.00000E+000,-1.31729E-002,9.88395E-001,0.00000E+000,-3.23937E-004,-3.30857E-002,1.00000E+000,5
569,1357,-2.29975E+001,1.60228E+000,4.52152E-003,4.77987E-001,-1.54135E-001,-1.43136E-002,5.02428E-001,3.75237E-003,6.67694E-001,0,7.56930E+000,-2.45217E+000,9.99862E-001,-3.14350E+001,-4.46754E+001,9.99662E-001,2.62276E-002,-1.21276E-002,2.39829E-004,2.62291E-002,-1.21291E-002,3.58244E-001,2.62537E-002,1.02648E+000,1.38632E-002,0.00000E+000,-1.28233E-002,9.88403E-001,0.00000E+000,-1.13207E-003,-3.31036E-002,1.00000E+000,5
569,1327,-2.30569E+001,-2.87344E-001,4.57819E-002,4.50552E-001,-1.33155E-001,4.26172E-002,4.71745E-001,7.60400E-003,6.90601E-001,0,6.99301E+000,-2.22767E+000,9.99902E-001,-3.27139E+001,-4.37306E+001,9.99520E-001,2.84301E-002,-1.21305E-002,-2.45795E-004,2.84316E-002,-1.21319E-002,-3.47192E-001,2.85333E-002,1.02874E+000,1.39003E-002,0.00000E+000,-1.38681E-002,9.88386E-001,0.00000E+000,1.28322E-003,-3.30640E-002,1.00000E+000,5
569,1337,-2.30408E+001,3.38015E-001,1.28277E-002,4.58682E-001,-1.41111E-001,2.08157E-002,4.80349E-001,2.94785E-003,6.57877E-001,0,7.17697E+000,-2.31354E+000,9.99902E-001,-3.24032E+001,-4.40837E+001,9.99750E-001,2.77002E-002,-1.21309E-002,-8.31109E-005,2.77004E-002,-1.21310E-002,-1.19552E-001,2.77714E-002,1.02799E+000,1.38910E-002,0.00000E+000,-1.35213E-002,9.88390E-001,0.00000E+000,4.81381E-004,-3.30739E-002,1.00000E+000,5
1289,1327,2.54803E+001,3.02958E-001,-1.13602E-001,2.01502E+000,4.72622E-002,-8.23827E-002,2.01725E+000,6.20805E-003,4.38030E-001,0,3.04013E+001,6.06386E-001,9.99842E-001,-4.09718E+000,-2.78020E+001,9.98849E-001,3.35329E-002,-1.26306E-002,1.53223E-003,3.35837E-002,-1.26814E-002,1.89894E+000,3.39174E-002,1.03410E+000,-3.34910E-003,0.00000E+000,6.23306E-003,9.87998E-001,0.00000E+000,-2.94619E-004,-3.38743E-002,1.00000E+000,5
1289,1337,2.55139E+001,9.56878E-001,-7.75134E-002,2.01384E+000,3.92843E-002,-1.06695E-001,2.01705E+000,5.95914E-003,4.50198E-001,0,3.04765E+001,5.26578E-001,9.99906E-001,-3.46905E+000,-2.77216E+001,9.99087E-001,3.41524E-002,-1.26154E-002,1.68233E-003,3.42128E-002,-1.26759E-002,2.05750E+000,3.45932E-002,1.03474E+000,-3.31525E-003,0.00000E+000,6.45213E-003,9.88009E-001,0.00000E+000,1.00412E-003,-3.38059E-002,1.00000E+000,5
569,1317,-2.30671E+001,-9.02795E-001,1.33167E-001,4.40089E-001,-1.20479E-001,6.82432E-002,4.61357E-001,8.00000E-003,6.80741E-001,0,6.76066E+000,-2.08801E+000,9.99782E-001,-3.27668E+001,-4.33633E+001,9.98845E-001,2.91562E-002,-1.21259E-002,-4.12452E-004,2.91604E-002,-1.21300E-002,-5.72368E-001,2.92973E-002,1.02949E+000,1.39002E-002,0.00000E+000,-1.42138E-002,9.88386E-001,0.00000E+000,2.08233E-003,-3.30641E-002,1.00000E+000,5
1289,1317,2.54588E+001,-3.41900E-001,-1.08283E-001,2.01653E+000,5.59082E-002,-5.99422E-002,2.01820E+000,8.70418E-003,4.80659E-001,0,3.03354E+001,7.01056E-001,9.99866E-001,-4.47596E+000,-2.78084E+001,9.97993E-001,3.29176E-002,-1.26411E-002,1.38894E-003,3.29599E-002,-1.26834E-002,1.74461E+000,3.32502E-002,1.03346E+000,-3.37142E-003,0.00000E+000,6.01623E-003,9.87990E-001,0.00000E+000,-1.58011E-003,-3.39195E-002,1.00000E+000,5
1289,1287,2.54354E+001,-2.25684E+000,5.14513E-002,2.02214E+000,8.52047E-002,4.37493E-003,2.02394E+000,9.35558E-003,4.23194E-001,0,3.01539E+001,1.04902E+000,9.99880E-001,-4.76717E+000,-2.79345E+001,9.98180E-001,3.10693E-002,-1.26562E-002,9.79618E-004,3.10912E-002,-1.26782E-002,1.28278E+000,3.12671E-002,1.03157E+000,-3.39973E-003,0.00000E+000,5.36926E-003,9.87981E-001,0.00000E+000,-5.41566E-003,-3.39768E-002,1.00000E+000,5
1289,1297,2.54411E+001,-1.62272E+000,-8.09764E-003,2.02122E+000,7.51465E-002,-1.24305E-002,2.02266E+000,1.00544E-002,3.33929E-001,0,3.02107E+001,9.37123E-001,9.99899E-001,-4.71139E+000,-2.79975E+001,9.98548E-001,3.16842E-002,-1.26524E-002,1.11395E-003,3.17121E-002,-1.26804E-002,1.43834E+000,3.19234E-002,1.03220E+000,-3.39326E-003,0.00000E+000,5.58376E-003,9.87983E-001,0.00000E+000,-4.14400E-003,-3.39637E-002,1.00000E+000,5
1289,1307,2.54442E+001,-9.84012E-001,-8.10327E-002,2.01791E+000,6.48347E-002,-4.11197E-002,2.01937E+000,9.03427E-003,4.72135E-001,0,3.02802E+001,8.11534E-001,9.99913E-001,-4.71726E+000,-2.78476E+001,9.97996E-001,3.23016E-002,-1.26487E-002,1.24913E-003,3.23363E-002,-1.26834E-002,1.59056E+000,3.25857E-002,1.03283E+000,-3.38703E-003,0.00000E+000,5.79989E-003,9.87985E-001,0.00000E+000,-2.86269E-003,-3.39511E-002,1.00000E+000,5
559,1327,-2.37086E+001,-2.80604E-001,4.56962E-002,4.35587E-001,-1.22671E-001,4.02939E-002,4.54321E-001,1.39677E-002,7.82629E-001,0,6.76619E+000,-2.08329E+000,9.99919E-001,-3.26264E+001,-4.36755E+001,9.99417E-001,2.82818E-002,-1.21798E-002,-1.09302E-004,2.82821E-002,-1.21801E-002,-1.54777E-001,2.83726E-002,1.02858E+000,1.47482E-002,0.00000E+000,-1.44183E-002,9.88305E-001,0.00000E+000,1.45287E-003,-3.23076E-002,1.00000E+000,5
559,1337,-2.36945E+001,3.42990E-001,1.15186E-002,4.41998E-001,-1.31238E-001,1.87658E-002,4.61452E-001,3.54275E-003,6.78878E-001,0,6.92239E+000,-2.15425E+000,9.99916E-001,-3.23503E+001,-4.40905E+001,9.99779E-001,2.75597E-002,-1.21805E-002,4.48666E-005,2.75598E-002,-1.21806E-002,6.46866E-002,2.76216E-002,1.02784E+000,1.47394E-002,0.00000E+000,-1.40885E-002,9.88309E-001,0.00000E+000,6.08706E-004,-3.23176E-002,1.00000E+000,5
559,1347,-2.36767E+001,9.71688E-001,-6.29092E-003,4.50361E-001,-1.37409E-001,2.07686E-003,4.70861E-001,3.91798E-003,6.52563E-001,0,7.09603E+000,-2.22461E+000,9.99894E-001,-3.19651E+001,-4.44256E+001,9.99671E-001,2.68340E-002,-1.21804E-002,1.98522E-004,2.68351E-002,-1.21814E-002,2.91535E-001,2.68730E-002,1.02709E+000,1.47285E-002,0.00000E+000,-1.37576E-002,9.88314E-001,0.00000E+000,-2.38131E-004,-3.23299E-002,1.00000E+000,5
559,1357,-2.36529E+001,1.60426E+000,-5.65047E-004,4.60509E-001,-1.44419E-001,-1.70125E-002,4.82923E-001,3.41415E-003,6.44927E-001,0,7.30346E+000,-2.30183E+000,9.99887E-001,-3.14159E+001,-4.47453E+001,9.99750E-001,2.61034E-002,-1.21783E-002,3.50657E-004,2.61066E-002,-1.21815E-002,5.24766E-001,2.61260E-002,1.02634E+000,1.47128E-002,0.00000E+000,-1.34251E-002,9.88321E-001,0.00000E+000,-1.08916E-003,-3.23477E-002,1.00000E+000,5
559,1317,-2.37196E+001,-8.97411E-001,1.34666E-001,4.23881E-001,-1.11966E-001,6.47743E-002,4.43178E-001,1.31497E-002,7.34972E-001,0,6.51823E+000,-1.95228E+000,9.99892E-001,-3.26860E+001,-4.33494E+001,9.99228E-001,2.90008E-002,-1.21751E-002,-2.67633E-004,2.90025E-002,-1.21768E-002,-3.72388E-001,2.91264E-002,1.02932E+000,1.47475E-002,0.00000E+000,-1.47473E-002,9.88305E-001,0.00000E+000,2.29502E-003,-3.23083E-002,1.00000E+000,5
1299,1327,2.61731E+001,3.13687E-001,-1.12573E-001,2.03744E+000,5.05619E-002,-8.48058E-002,2.03983E+000,6.86442E-003,4.51152E-001,0,3.07222E+001,6.57728E-001,9.99885E-001,-3.27406E+000,-2.75439E+001,9.99379E-001,3.33521E-002,-1.23763E-002,1.67828E-003,3.34137E-002,-1.24379E-002,2.09905E+000,3.37753E-002,1.03391E+000,-2.71887E-003,0.00000E+000,5.91044E-003,9.88203E-001,0.00000E+000,6.06931E-005,-3.24021E-002,1.00000E+000,5
1299,1337,2.62096E+001,9.69142E-001,-6.87105E-002,2.03767E+000,4.24605E-002,-1.05894E-001,2.04086E+000,7.15103E-003,4.86030E-001,0,3.08054E+001,5.68731E-001,9.99877E-001,-2.59237E+000,-2.74440E+001,9.98989E-001,3.39979E-002,-1.23598E-002,1.83741E-003,3.40706E-002,-1.24325E-002,2.26620E+000,3.44827E-002,1.03458E+000,-2.68212E-003,0.00000E+000,6.14313E-003,9.88216E-001,0.00000E+000,1.47627E-003,-3.23244E-002,1.00000E+000,5
1299,1287,2.61289E+001,-2.24505E+000,5.64437E-002,2.04386E+000,8.81663E-002,-3.32813E-004,2.04576E+000,7.76552E-003,5.27497E-001,0,3.04715E+001,1.07909E+000,9.99901E-001,-3.92560E+000,-2.76285E+001,9.98070E-001,3.07880E-002,-1.24023E-002,1.09657E-003,3.08158E-002,-1.24301E-002,1.45345E+000,3.10071E-002,1.03128E+000,-2.77019E-003,0.00000E+000,4.99527E-003,9.88186E-001,0.00000E+000,-5.50699E-003,-3.25106E-002,1.00000E+000,5
1299,1297,2.61324E+001,-1.61311E+000,-1.18387E-002,2.04216E+000,7.61798E-002,-2.04939E-002,2.04369E+000,8.05607E-003,4.71357E-001,0,3.05320E+001,9.32221E-001,9.99929E-001,-3.91679E+000,-2.76890E+001,9.98464E-001,3.14286E-002,-1.23990E-002,1.23755E-003,3.14635E-002,-1.24339E-002,1.61613E+000,3.16931E-002,1.03193E+000,-2.76488E-003,0.00000E+000,5.22262E-003,9.88187E-001,0.00000E+000,-4.12382E-003,-3.24993E-002,1.00000E+000,5
1299,1307,2.61433E+001,-9.70297E-001,-5.48055E-002,2.04246E+000,6.94342E-002,-3.46017E-002,2.04393E+000,1.44249E-002,5.07192E-001,0,3.05937E+001,8.50861E-001,9.99932E-001,-3.75757E+000,-2.75889E+001,9.98641E-001,3.20716E-002,-1.23934E-002,1.38217E-003,3.21145E-002,-1.24363E-002,1.77872E+000,3.23856E-002,1.03259E+000,-2.75414E-003,0.00000E+000,5.45169E-003,9.88191E-001,0.00000E+000,-2.73022E-003,-3.24766E-002,1.00000E+000,5
1299,1317,2.61555E+001,-3.29826E-001,-9.17928E-002,2.03921E+000,5.89708E-002,-6.06202E-002,2.04096E+000,1.01106E-002,4.93875E-001,0,3.06517E+001,7.42875E-001,9.99906E-001,-3.56930E+000,-2.75642E+001,9.98850E-001,3.27129E-002,-1.23857E-002,1.52927E-003,3.27647E-002,-1.24375E-002,1.93990E+000,3.30798E-002,1.03325E+000,-2.73848E-003,0.00000E+000,5.68100E-003,9.88197E-001,0.00000E+000,-1.33521E-003,-3.24435E-002,1.00000E+000,5
559,1307,-2.37296E+001,-1.51291E+000,2.31604E-001,4.11419E-001,-1.01105E-001,8.61747E-002,4.32335E-001,5.81136E-003,6.99694E-001,0,6.26593E+000,-1.82428E+000,9.99775E-001,-3.27055E+001,-4.30131E+001,9.99002E-001,2.97179E-002,-1.21695E-002,-4.26776E-004,2.97222E-002,-1.21738E-002,-5.83686E-001,2.98837E-002,1.03006E+000,1.47449E-002,0.00000E+000,-1.50761E-002,9.88306E-001,0.00000E+000,3.13653E-003,-3.23113E-002,1.00000E+000,5
549,1347,-2.43296E+001,9.78150E-001,-4.37547E-003,4.34165E-001,-1.26579E-001,2.78978E-003,4.52249E-001,3.17034E-003,6.87156E-001,0,6.84136E+000,-2.05316E+000,9.99891E-001,-3.18839E+001,-4.44118E+001,9.99726E-001,2.67185E-002,-1.22144E-002,3.08890E-004,2.67209E-002,-1.22169E-002,4.54542E-001,2.67535E-002,1.02696E+000,1.55542E-002,0.00000E+000,-1.43334E-002,9.88244E-001,0.00000E+000,-2.93891E-004,-3.14350E-002,1.00000E+000,5
549,1357,-2.43049E+001,1.61172E+000,4.16225E-003,4.44434E-001,-1.33401E-001,-1.87707E-002,4.64403E-001,3.39696E-003,6.69464E-001,0,7.05654E+000,-2.11309E+000,9.99886E-001,-3.13116E+001,-4.47292E+001,9.99764E-001,2.59876E-002,-1.22123E-002,4.53979E-004,2.59930E-002,-1.22177E-002,6.80790E-001,2.60086E-002,1.02621E+000,1.55379E-002,0.00000E+000,-1.40134E-002,9.88251E-001,0.00000E+000,-1.21338E-003,-3.14552E-002,1.00000E+000,5
549,1327,-2.43669E+001,-2.73302E-001,5.88587E-002,4.12043E-001,-1.10986E-001,4.12386E-002,4.28717E-001,1.00649E-002,7.67834E-001,0,6.39577E+000,-1.90424E+000,9.99808E-001,-3.25941E+001,-4.36945E+001,9.98573E-001,2.81660E-002,-1.22125E-002,1.33267E-005,2.81660E-002,-1.22125E-002,1.89101E-002,2.82487E-002,1.02845E+000,1.55717E-002,0.00000E+000,-1.49693E-002,9.88236E-001,0.00000E+000,1.53287E-003,-3.14136E-002,1.00000E+000,5
549,1337,-2.43481E+001,3.48897E-001,1.75194E-002,4.24751E-001,-1.19050E-001,2.15298E-002,4.41644E-001,3.36793E-003,6.73239E-001,0,6.64587E+000,-1.98323E+000,9.99894E-001,-3.22675E+001,-4.41123E+001,9.99772E-001,2.74460E-002,-1.22142E-002,1.61284E-004,2.74467E-002,-1.22148E-002,2.32996E-001,2.75019E-002,1.02771E+000,1.55647E-002,0.00000E+000,-1.46527E-002,9.88239E-001,0.00000E+000,6.23363E-004,-3.14222E-002,1.00000E+000,5
1309,1317,2.68420E+001,-3.24475E-001,-1.09803E-001,2.05923E+000,6.05227E-002,-6.68188E-002,2.06120E+000,7.41252E-003,4.65931E-001,0,3.09533E+001,7.77980E-001,9.99886E-001,-2.86588E+000,-2.73709E+001,9.99075E-001,3.25778E-002,-1.21825E-002,1.64341E-003,3.26381E-002,-1.22427E-002,2.09989E+000,3.29757E-002,1.03312E+000,-2.09086E-003,0.00000E+000,5.28551E-003,9.88357E-001,0.00000E+000,-1.27288E-003,-3.10698E-002,1.00000E+000,5
1309,1327,2.68645E+001,3.21924E-001,-1.16756E-001,2.05955E+000,5.30253E-002,-8.69148E-002,2.06207E+000,8.36581E-003,4.34042E-001,0,3.10375E+001,6.97181E-001,9.99864E-001,-2.47579E+000,-2.73285E+001,9.99017E-001,3.32185E-002,-1.21730E-002,1.78200E-003,3.32883E-002,-1.22428E-002,2.24474E+000,3.36740E-002,1.03378E+000,-2.06841E-003,0.00000E+000,5.49469E-003,9.88364E-001,0.00000E+000,9.92061E-005,-3.10232E-002,1.00000E+000,5
1309,1337,2.68996E+001,9.76371E-001,-7.84658E-002,2.05944E+000,4.45818E-002,-1.08704E-001,2.06278E+000,7.67179E-003,4.64976E-001,0,3.11192E+001,6.03330E-001,9.99910E-001,-1.82750E+000,-2.72324E+001,9.99374E-001,3.38636E-002,-1.21584E-002,1.92819E-003,3.39443E-002,-1.22390E-002,2.39494E+000,3.43814E-002,1.03445E+000,-2.03280E-003,0.00000E+000,5.70613E-003,9.88375E-001,0.00000E+000,1.48614E-003,-3.09494E-002,1.00000E+000,5
549,1317,-2.43758E+001,-8.90888E-001,1.39264E-001,4.03550E-001,-1.01698E-001,6.45139E-002,4.21138E-001,8.47722E-003,7.63981E-001,0,6.20219E+000,-1.79211E+000,9.99846E-001,-3.26485E+001,-4.33380E+001,9.99106E-001,2.88832E-002,-1.22084E-002,-1.37394E-004,2.88836E-002,-1.22088E-002,-1.91572E-001,2.89985E-002,1.02919E+000,1.55723E-002,0.00000E+000,-1.52853E-002,9.88236E-001,0.00000E+000,2.44065E-003,-3.14128E-002,1.00000E+000,5
549,1307,-2.43844E+001,-1.50676E+000,2.25833E-001,3.93365E-001,-9.05733E-002,8.11800E-002,4.11740E-001,5.99385E-003,7.12878E-001,0,5.99793E+000,-1.64243E+000,9.99782E-001,-3.26784E+001,-4.29913E+001,9.99097E-001,2.95999E-002,-1.22033E-002,-2.89384E-004,2.96019E-002,-1.22053E-002,-3.96607E-001,2.97533E-002,1.02993E+000,1.55707E-002,0.00000E+000,-1.56017E-002,9.88237E-001,0.00000E+000,3.34975E-003,-3.14148E-002,1.00000E+000,5
1309,1287,2.68238E+001,-2.23908E+000,6.47639E-002,2.06565E+000,8.83212E-002,-5.03383E-003,2.06755E+000,7.56025E-003,4.73807E-001,0,3.07910E+001,1.09040E+000,9.99885E-001,-3.05375E+000,-2.74989E+001,9.97784E-001,3.06548E-002,-1.21947E-002,1.25035E-003,3.06912E-002,-1.22311E-002,1.67000E+000,3.09012E-002,1.03114E+000,-2.11592E-003,0.00000E+000,4.66215E-003,9.88349E-001,0.00000E+000,-5.36174E-003,-3.11217E-002,1.00000E+000,5
1309,1297,2.68252E+001,-1.60514E+000,-1.06364E-002,2.06355E+000,7.66357E-002,-2.55806E-002,2.06513E+000,9.08774E-003,5.03295E-001,0,3.08477E+001,9.43347E-001,9.99851E-001,-3.08865E+000,-2.74692E+001,9.98327E-001,3.12970E-002,-1.21925E-002,1.37885E-003,3.13406E-002,-1.22361E-002,1.81416E+000,3.15905E-002,1.03180E+000,-2.11236E-003,0.00000E+000,4.86957E-003,9.88350E-001,0.00000E+000,-4.00118E-003,-3.11143E-002,1.00000E+000,5
1309,1307,2.68265E+001,-9.68363E-001,-8.11554E-002,2.06002E+000,6.93967E-002,-4.65021E-002,2.06171E+000,8.39083E-003,4.10651E-001,0,3.08825E+001,8.89239E-001,9.99855E-001,-3.11669E+000,-2.74671E+001,9.99312E-001,3.19351E-002,-1.21897E-002,1.50765E-003,3.19865E-002,-1.22412E-002,1.95463E+000,3.22786E-002,1.03245E+000,-2.10740E-003,0.00000E+000,5.07641E-003,9.88352E-001,0.00000E+000,-2.64443E-003,-3.11041E-002,1.00000E+000,5
539,1347,-2.49835E+001,9.84156E-001,-1.70932E-003,4.16449E-001,-1.14839E-001,3.16551E-003,4.32005E-001,3.62125E-003,6.77838E-001,0,6.56318E+000,-1.86804E+000,9.99884E-001,-3.18110E+001,-4.44287E+001,9.99620E-001,2.66556E-002,-1.22738E-002,4.03169E-004,2.66598E-002,-1.22780E-002,5.93293E-001,2.66875E-002,1.02688E+000,1.63095E-002,0.00000E+000,-1.48763E-002,9.88148E-001,0.00000E+000,-2.19264E-004,-3.04871E-002,1.00000E+000,5
539,1357,-2.49596E+001,1.61825E+000,4.60263E-003,4.27066E-001,-1.20449E-001,-1.46362E-002,4.43968E-001,3.70474E-003,6.67261E-001,0,6.77399E+000,-1.91482E+000,9.99869E-001,-3.12555E+001,-4.47317E+001,9.99701E-001,2.59550E-002,-1.22724E-002,5.51757E-004,2.59630E-002,-1.22804E-002,8.26751E-001,2.59756E-002,1.02617E+000,1.62950E-002,0.00000E+000,-1.45502E-002,9.88155E-001,0.00000E+000,-1.19909E-003,-3.05069E-002,1.00000E+000,5
539,1327,-2.50193E+001,-2.69755E-001,5.57566E-002,3.96046E-001,-9.99290E-002,3.85967E-002,4.10278E-001,4.41145E-003,6.71618E-001,0,6.15296E+000,-1.70684E+000,9.99780E-001,-3.25189E+001,-4.37762E+001,9.99213E-001,2.80455E-002,-1.22716E-002,1.01708E-004,2.80458E-002,-1.22719E-002,1.44539E-001,2.81186E-002,1.02831E+000,1.63265E-002,0.00000E+000,-1.55252E-002,9.88140E-001,0.00000E+000,1.73092E-003,-3.04639E-002,1.00000E+000,5
539,1337,-2.50025E+001,3.55350E-001,1.79272E-002,4.06362E-001,-1.07140E-001,1.92799E-002,4.20691E-001,3.55689E-003,6.59604E-001,0,6.36389E+000,-1.78684E+000,9.99865E-001,-3.22102E+001,-4.41179E+001,9.99625E-001,2.73531E-002,-1.22733E-002,2.52664E-004,2.73547E-002,-1.22749E-002,3.65307E-001,2.74026E-002,1.02760E+000,1.63193E-002,0.00000E+000,-1.52016E-002,9.88144E-001,0.00000E+000,7.58323E-004,-3.04737E-002,1.00000E+000,5
1319,1297,2.75100E+001,-1.60136E+000,-3.05943E-002,2.08146E+000,7.82666E-002,-3.41288E-002,2.08321E+000,7.45225E-003,3.78434E-001,0,3.11265E+001,1.01328E+000,9.99839E-001,-2.40925E+000,-2.73486E+001,9.98750E-001,3.11782E-002,-1.19569E-002,1.51389E-003,3.12312E-002,-1.20100E-002,2.00759E+000,3.15075E-002,1.03168E+000,-1.42593E-003,0.00000E+000,4.47921E-003,9.88542E-001,0.00000E+000,-4.14172E-003,-2.96581E-002,1.00000E+000,5
1319,1307,2.75164E+001,-9.63966E-001,-8.92395E-002,2.07968E+000,6.88457E-002,-5.48176E-002,2.08154E+000,8.14274E-003,3.53300E-001,0,3.11869E+001,9.05735E-001,9.99819E-001,-2.34281E+000,-2.73263E+001,9.99305E-001,3.18289E-002,-1.19531E-002,1.64135E-003,3.18903E-002,-1.20145E-002,2.14396E+000,3.22117E-002,1.03235E+000,-1.41752E-003,0.00000E+000,4.68126E-003,9.88544E-001,0.00000E+000,-2.74403E-003,-2.96405E-002,1.00000E+000,5
539,1307,-2.50382E+001,-1.50201E+000,2.24153E-001,3.75534E-001,-7.98299E-002,7.70686E-002,3.91584E-001,4.35975E-003,6.70144E-001,0,5.73061E+000,-1.46315E+000,9.99808E-001,-3.26184E+001,-4.30275E+001,9.99293E-001,2.94186E-002,-1.22616E-002,-2.06200E-004,2.94197E-002,-1.22626E-002,-2.83444E-001,2.95551E-002,1.02973E+000,1.63250E-002,0.00000E+000,-1.61691E-002,9.88141E-001,0.00000E+000,3.66623E-003,-3.04659E-002,1.00000E+000,5
539,1317,-2.50305E+001,-8.88359E-001,1.30812E-001,3.85640E-001,-9.09729E-002,5.84817E-002,4.00518E-001,4.16906E-003,6.84785E-001,0,5.93818E+000,-1.61063E+000,9.99810E-001,-3.26236E+001,-4.34140E+001,9.99327E-001,2.87337E-002,-1.22673E-002,-5.16464E-005,2.87337E-002,-1.22674E-002,-7.21718E-002,2.88358E-002,1.02902E+000,1.63274E-002,0.00000E+000,-1.58476E-002,9.88140E-001,0.00000E+000,2.69975E-003,-3.04626E-002,1.00000E+000,5
1319,1287,2.75120E+001,-2.23491E+000,5.34569E-002,2.08459E+000,8.76873E-002,-1.35663E-002,2.08648E+000,8.32614E-003,4.53112E-001,0,3.10848E+001,1.09989E+000,9.99878E-001,-2.30984E+000,-2.73400E+001,9.98586E-001,3.05278E-002,-1.19580E-002,1.39049E-003,3.05732E-002,-1.20035E-002,1.87252E+000,3.08074E-002,1.03102E+000,-1.42708E-003,0.00000E+000,4.27802E-003,9.88541E-001,0.00000E+000,-5.53346E-003,-2.96605E-002,1.00000E+000,5
529,1327,-2.56718E+001,-2.63807E-001,5.72723E-002,3.78796E-001,-8.86618E-002,3.50813E-002,3.90612E-001,4.09718E-003,6.58271E-001,0,5.89199E+000,-1.52456E+000,9.99750E-001,-3.24248E+001,-4.37898E+001,9.99058E-001,2.79294E-002,-1.23082E-002,2.07021E-004,2.79305E-002,-1.23093E-002,2.94774E-001,2.79959E-002,1.02819E+000,1.68893E-002,0.00000E+000,-1.58722E-002,9.88074E-001,0.00000E+000,2.22682E-003,-2.96257E-002,1.00000E+000,5
529,1307,-2.56901E+001,-1.49672E+000,2.28402E-001,3.58322E-001,-6.99262E-002,7.28141E-002,3.72272E-001,5.17917E-003,6.51976E-001,0,5.47300E+000,-1.30126E+000,9.99845E-001,-3.25058E+001,-4.30556E+001,9.99555E-001,2.91632E-002,-1.22990E-002,-6.08912E-005,2.91633E-002,-1.22991E-002,-8.41440E-002,2.92822E-002,1.02946E+000,1.68874E-002,0.00000E+000,-1.64378E-002,9.88075E-001,0.00000E+000,4.20464E-003,-2.96287E-002,1.00000E+000,5
529,1317,-2.56839E+001,-8.83317E-001,1.27498E-001,3.68306E-001,-8.02842E-002,5.58610E-002,3.81071E-001,4.44047E-003,6.60861E-001,0,5.67428E+000,-1.42951E+000,9.99884E-001,-3.25590E+001,-4.34348E+001,9.99327E-001,2.85480E-002,-1.23047E-002,7.41113E-005,2.85481E-002,-1.23048E-002,1.03940E-001,2.86385E-002,1.02882E+000,1.68909E-002,0.00000E+000,-1.61554E-002,9.88073E-001,0.00000E+000,3.21723E-003,-2.96231E-002,1.00000E+000,5
