Coordinates.Image X [Pixel],Coordinates.Image Y [Pixel],coor.X [mm],coor.Y [mm],coor.Z [mm],disp.Horizontal Displacement U [mm],disp.Vertical Displacement V [mm],disp.Out-Of-Plane: W [mm],disp.Displacement Magnitude [mm],stats.Sigma [mm],stats.Epipolar Distance [Pixel],stats.Shape Index [-],SameCamera.Horizontal: u [Pixel],SameCamera.Vertical: v [Pixel],SameCamera.Correlation Value 2D [-],CrossCamera.Horizontal: q [Pixel],CrossCamera.Vertical: r [Pixel],CrossCamera.Correlation Value Persp [-],strain.Strain-global frame: Exx [ ],strain.Strain-global frame: Eyy [ ],strain.Strain-global frame: Exy [ ],strain.Maximum Principal Strain: EI [ ],strain.Minimum Principal Strain: EII [ ],strain.Shear Angle Gamma [deg],strain.Von Mises Equivalent Strain [ ],defgradient.F[0,0] [-],defgradient.F[0,1] [-],defgradient.F[0,2] [-],defgradient.F[1,0] [-],defgradient.F[1,1] [-],defgradient.F[1,2] [-],defgradient.F[2,0] [-],defgradient.F[2,1] [-],defgradient.F[2,2] [-],ext.Current Image [#]
929,1317,8.29268E+000,-1.16093E+000,6.22592E-002,8.62875E+000,-5.44574E-001,1.48980E-001,8.64720E+000,1.78097E-002,4.63579E-001,0,1.31462E+002,-9.89008E+000,9.97462E-001,8.86533E+001,-4.30509E+001,9.95870E-001,2.30903E-001,-9.70195E-002,-5.63548E-004,2.30904E-001,-9.70205E-002,-9.84648E-002,2.31882E-001,1.25967E+000,-2.28750E-002,0.00000E+000,1.68425E-002,9.11813E-001,0.00000E+000,-1.66317E-002,-9.86478E-002,1.00000E+000,36
919,1307,7.47356E+000,-1.75096E+000,1.35688E-001,8.47618E+000,-4.85321E-001,2.27205E-001,8.49310E+000,2.08020E-002,4.95850E-001,0,1.28959E+002,-9.08597E+000,9.94848E-001,8.60257E+001,-4.24241E+001,9.92752E-001,2.35058E-001,-9.67996E-002,-1.29025E-003,2.35063E-001,-9.68047E-002,-2.22759E-001,2.36278E-001,1.26494E+000,-2.01625E-002,0.00000E+000,1.33893E-002,9.12137E-001,0.00000E+000,-1.53192E-002,-9.94412E-002,1.00000E+000,36
919,1317,7.45503E+000,-1.18419E+000,1.54192E-002,8.45483E+000,-5.53551E-001,1.57848E-001,8.47441E+000,2.61500E-002,4.68516E-001,0,1.28896E+002,-1.00403E+001,9.91720E-001,8.55794E+001,-4.34155E+001,9.90358E-001,2.32554E-001,-9.68060E-002,-1.47637E-003,2.32561E-001,-9.68126E-002,-2.56823E-001,2.33645E-001,1.26175E+000,-2.01764E-002,0.00000E+000,1.29321E-002,9.12135E-001,0.00000E+000,-1.35438E-002,-9.94334E-002,1.00000E+000,36
919,1327,7.45894E+000,-6.06377E-001,-3.34501E-002,8.44162E+000,-6.22808E-001,9.38475E-002,8.46509E+000,1.91602E-002,4.88969E-001,0,1.28919E+002,-1.10047E+001,9.96084E-001,8.56270E+001,-4.43618E+001,9.94556E-001,2.30018E-001,-9.68196E-002,-1.69149E-003,2.30027E-001,-9.68284E-002,-2.96514E-001,2.30983E-001,1.25853E+000,-2.02604E-002,0.00000E+000,1.24704E-002,9.12123E-001,0.00000E+000,-1.17513E-002,-9.93867E-002,1.00000E+000,36
929,1307,8.30550E+000,-1.72736E+000,1.62786E-001,8.64875E+000,-4.72726E-001,2.18486E-001,8.66442E+000,1.76704E-002,5.09539E-001,0,1.31506E+002,-8.89171E+000,9.97913E-001,8.89701E+001,-4.20047E+001,9.96519E-001,2.33458E-001,-9.70215E-002,-5.62406E-004,2.33459E-001,-9.70225E-002,-9.75048E-002,2.34565E-001,1.26293E+000,-2.28388E-002,0.00000E+000,1.69677E-002,9.11815E-001,0.00000E+000,-1.87671E-002,-9.86714E-002,1.00000E+000,36
929,1327,8.28680E+000,-5.77921E-001,-5.25432E-003,8.60943E+000,-6.03905E-001,8.36457E-002,8.63099E+000,1.63235E-002,4.40853E-001,0,1.31400E+002,-1.07155E+001,9.97788E-001,8.85125E+001,-4.38984E+001,9.96729E-001,2.28331E-001,-9.70168E-002,-5.77087E-004,2.28332E-001,-9.70178E-002,-1.01628E-001,2.29189E-001,1.25639E+000,-2.29427E-002,0.00000E+000,1.67171E-002,9.11811E-001,0.00000E+000,-1.44915E-002,-9.86036E-002,1.00000E+000,36
939,1307,9.12973E+000,-1.70963E+000,1.46218E-001,8.81864E+000,-4.61901E-001,1.91525E-001,8.83281E+000,1.91439E-002,5.10864E-001,0,1.34082E+002,-8.68777E+000,9.98026E-001,9.17116E+001,-4.15903E+001,9.96890E-001,2.31622E-001,-9.62719E-002,-6.19335E-005,2.31622E-001,-9.62719E-002,-1.08222E-002,2.32718E-001,1.26060E+000,-2.61387E-002,0.00000E+000,2.04755E-002,9.12300E-001,0.00000E+000,-2.09908E-002,-9.71347E-002,1.00000E+000,36
939,1317,9.11536E+000,-1.14004E+000,5.28720E-002,8.79629E+000,-5.30525E-001,1.25777E-001,8.81317E+000,1.85970E-002,4.30429E-001,0,1.33989E+002,-9.63910E+000,9.97145E-001,9.13866E+001,-4.26183E+001,9.95732E-001,2.29305E-001,-9.62666E-002,-2.04777E-005,2.29305E-001,-9.62666E-002,-3.60378E-003,2.30286E-001,1.25763E+000,-2.61754E-002,0.00000E+000,2.04246E-002,9.12299E-001,0.00000E+000,-1.87549E-002,-9.71070E-002,1.00000E+000,36
939,1327,9.11290E+000,-5.48544E-001,-4.50251E-003,8.77874E+000,-5.84644E-001,6.37842E-002,8.79842E+000,1.59998E-002,4.57468E-001,0,1.33939E+002,-1.03849E+001,9.96778E-001,9.13198E+001,-4.33293E+001,9.96027E-001,2.26962E-001,-9.62595E-002,8.49541E-006,2.26962E-001,-9.62595E-002,1.50594E-003,2.27832E-001,1.25464E+000,-2.62447E-002,0.00000E+000,2.03733E-002,9.12298E-001,0.00000E+000,-1.65034E-002,-9.70549E-002,1.00000E+000,36
919,1337,7.46956E+000,-1.34650E-002,-5.37519E-002,8.43020E+000,-6.78489E-001,3.53434E-002,8.45753E+000,1.87083E-002,4.57972E-001,0,1.28938E+002,-1.17746E+001,9.95540E-001,8.58392E+001,-4.51628E+001,9.94906E-001,2.27474E-001,-9.68358E-002,-1.91629E-003,2.27485E-001,-9.68471E-002,-3.38534E-001,2.28320E-001,1.25531E+000,-2.03685E-002,0.00000E+000,1.20092E-002,9.12107E-001,0.00000E+000,-9.96027E-003,-9.93266E-002,1.00000E+000,36
929,1337,8.29402E+000,5.79272E-003,-3.94925E-002,8.59704E+000,-6.68142E-001,2.33006E-002,8.62299E+000,1.67856E-002,4.47883E-001,0,1.31419E+002,-1.16204E+001,9.98020E-001,8.86412E+001,-4.47914E+001,9.97364E-001,2.25736E-001,-9.70134E-002,-6.03014E-004,2.25737E-001,-9.70146E-002,-1.07049E-001,2.26478E-001,1.25310E+000,-2.30414E-002,0.00000E+000,1.65910E-002,9.11807E-001,0.00000E+000,-1.23413E-002,-9.85390E-002,1.00000E+000,36
939,1337,9.11665E+000,3.48673E-002,-4.13056E-002,8.76374E+000,-6.48164E-001,5.45516E-003,8.78767E+000,1.49418E-002,4.67314E-001,0,1.33914E+002,-1.12939E+001,9.97775E-001,9.13886E+001,-4.42187E+001,9.97439E-001,2.24610E-001,-9.62514E-002,3.05243E-005,2.24610E-001,-9.62515E-002,5.45068E-003,2.25373E-001,1.25165E+000,-2.63308E-002,0.00000E+000,2.03221E-002,9.12296E-001,0.00000E+000,-1.42527E-002,-9.69900E-002,1.00000E+000,36
949,1317,9.94497E+000,-1.10845E+000,5.84057E-002,8.96896E+000,-5.08499E-001,1.11675E-001,8.98405E+000,2.82651E-002,4.75049E-001,0,1.36552E+002,-9.29546E+000,9.92806E-001,9.42632E+001,-4.20127E+001,9.90887E-001,2.27627E-001,-9.54385E-002,4.14594E-004,2.27627E-001,-9.54391E-002,7.35284E-002,2.28614E-001,1.25549E+000,-2.90995E-002,0.00000E+000,2.35088E-002,9.12776E-001,0.00000E+000,-2.06154E-002,-9.46533E-002,1.00000E+000,36
949,1327,9.93314E+000,-5.21264E-001,-2.37063E-002,8.94311E+000,-5.65022E-001,3.02553E-002,8.96099E+000,2.44329E-002,4.81314E-001,0,1.36451E+002,-1.00465E+001,9.94447E-001,9.40020E+001,-4.27467E+001,9.93168E-001,2.25731E-001,-9.54265E-002,5.04300E-004,2.25732E-001,-9.54273E-002,8.99689E-002,2.26628E-001,1.25305E+000,-2.91523E-002,0.00000E+000,2.35178E-002,9.12776E-001,0.00000E+000,-1.78957E-002,-9.45945E-002,1.00000E+000,36
949,1337,9.93923E+000,6.17819E-002,-4.67017E-002,8.93094E+000,-6.28960E-001,-1.13020E-002,8.95307E+000,1.83044E-002,4.70887E-001,0,1.36410E+002,-1.09856E+001,9.96511E-001,9.41333E+001,-4.36797E+001,9.95672E-001,2.23820E-001,-9.54126E-002,5.87681E-004,2.23821E-001,-9.54137E-002,1.05476E-001,2.24630E-001,1.25061E+000,-2.92210E-002,0.00000E+000,2.35268E-002,9.12777E-001,0.00000E+000,-1.51694E-002,-9.45179E-002,1.00000E+000,36
949,1307,9.96216E+000,-1.68745E+000,1.43970E-001,8.99383E+000,-4.48484E-001,1.67862E-001,9.00657E+000,2.34689E-002,5.10500E-001,0,1.36719E+002,-8.44637E+000,9.95637E-001,9.46150E+001,-4.11375E+001,9.94161E-001,2.29506E-001,-9.54480E-002,3.15818E-004,2.29506E-001,-9.54483E-002,5.56849E-002,2.30586E-001,1.25792E+000,-2.90706E-002,0.00000E+000,2.34997E-002,9.12776E-001,0.00000E+000,-2.33261E-002,-9.46856E-002,1.00000E+000,36
909,1317,6.63680E+000,-1.19952E+000,1.43499E-002,8.28832E+000,-5.61080E-001,1.59086E-001,8.30881E+000,2.36037E-002,4.40559E-001,0,1.26449E+002,-1.01535E+001,9.89146E-001,8.29046E+001,-4.37700E+001,9.88908E-001,2.34169E-001,-9.75515E-002,-2.47663E-003,2.34188E-001,-9.75700E-002,-4.27738E-001,2.35270E-001,1.26379E+000,-1.73307E-002,0.00000E+000,8.70242E-003,9.11502E-001,0.00000E+000,-1.00329E-002,-9.94366E-002,1.00000E+000,36
909,1327,6.64840E+000,-6.14401E-001,-4.03959E-002,8.28329E+000,-6.23572E-001,9.09786E-002,8.30723E+000,1.96967E-002,4.62679E-001,0,1.26608E+002,-1.09897E+001,9.92401E-001,8.30608E+001,-4.45905E+001,9.93601E-001,2.31716E-001,-9.75630E-002,-2.67338E-003,2.31738E-001,-9.75847E-002,-4.65136E-001,2.32698E-001,1.26068E+000,-1.74090E-002,0.00000E+000,8.32291E-003,9.11493E-001,0.00000E+000,-8.88116E-003,-9.94076E-002,1.00000E+000,36
909,1337,6.65608E+000,-1.78403E-002,-5.31090E-002,8.26881E+000,-6.78511E-001,3.90864E-002,8.29669E+000,2.16395E-002,5.24406E-001,0,1.26555E+002,-1.17618E+001,9.95569E-001,8.32441E+001,-4.53072E+001,9.95649E-001,2.29250E-001,-9.75771E-002,-2.88097E-003,2.29275E-001,-9.76025E-002,-5.05007E-001,2.30118E-001,1.25757E+000,-1.75131E-002,0.00000E+000,7.94244E-003,9.11480E-001,0.00000E+000,-7.72649E-003,-9.93690E-002,1.00000E+000,36
909,1307,6.64956E+000,-1.76634E+000,1.34510E-001,8.30286E+000,-4.93093E-001,2.23641E-001,8.32050E+000,2.27072E-002,4.31238E-001,0,1.26426E+002,-9.18473E+000,9.91619E-001,8.32630E+001,-4.27964E+001,9.87268E-001,2.36590E-001,-9.75471E-002,-2.30870E-003,2.36606E-001,-9.75630E-002,-3.95857E-001,2.37815E-001,1.26687E+000,-1.73221E-002,0.00000E+000,9.07793E-003,9.11503E-001,0.00000E+000,-1.11725E-002,-9.94398E-002,1.00000E+000,36
919,1347,7.49069E+000,5.89814E-001,-6.26429E-002,8.42603E+000,-7.27757E-001,-2.66593E-002,8.45745E+000,2.79414E-002,4.87972E-001,0,1.29073E+002,-1.24442E+001,9.97479E-001,8.62384E+001,-4.57987E+001,9.96785E-001,2.24910E-001,-9.68537E-002,-2.14860E-003,2.24924E-001,-9.68680E-002,-3.82574E-001,2.25644E-001,1.25207E+000,-2.04925E-002,0.00000E+000,1.15460E-002,9.12090E-001,0.00000E+000,-8.16198E-003,-9.92576E-002,1.00000E+000,36
929,1347,8.31112E+000,6.00378E-001,-4.83495E-002,8.58937E+000,-7.25108E-001,-3.54856E-002,8.61999E+000,1.57829E-002,4.47034E-001,0,1.31494E+002,-1.24129E+001,9.97904E-001,8.89755E+001,-4.55762E+001,9.97485E-001,2.23124E-001,-9.70095E-002,-6.39567E-004,2.23126E-001,-9.70108E-002,-1.14466E-001,2.23757E-001,1.24980E+000,-2.31660E-002,0.00000E+000,1.64647E-002,9.11802E-001,0.00000E+000,-1.01864E-002,-9.84576E-002,1.00000E+000,36
939,1347,9.13529E+000,6.29234E-001,-4.08393E-002,8.75790E+000,-7.05452E-001,-4.16980E-002,8.78637E+000,2.00688E-002,4.79855E-001,0,1.33977E+002,-1.21216E+001,9.97667E-001,9.17635E+001,-4.50190E+001,9.96812E-001,2.22238E-001,-9.62420E-002,4.20469E-005,2.22238E-001,-9.62420E-002,7.56439E-003,2.22901E-001,1.24865E+000,-2.64431E-002,0.00000E+000,2.02707E-002,9.12294E-001,0.00000E+000,-1.19937E-002,-9.69054E-002,1.00000E+000,36
949,1347,9.95987E+000,6.51794E-001,-4.44299E-002,8.92506E+000,-6.92977E-001,-6.49720E-002,8.95216E+000,1.82157E-002,4.94046E-001,0,1.36497E+002,-1.18943E+001,9.96329E-001,9.45402E+001,-4.45439E+001,9.94486E-001,2.21887E-001,-9.53952E-002,6.59111E-004,2.21888E-001,-9.53966E-002,1.19024E-001,2.22614E-001,1.24815E+000,-2.93207E-002,0.00000E+000,2.35359E-002,9.12777E-001,0.00000E+000,-1.24274E-002,-9.44066E-002,1.00000E+000,36
959,1317,1.07640E+001,-1.08671E+000,3.49861E-002,9.13251E+000,-4.93827E-001,7.72569E-002,9.14618E+000,2.60686E-002,4.43241E-001,0,1.39053E+002,-9.00229E+000,9.93975E-001,9.69243E+001,-4.15370E+001,9.92902E-001,2.26097E-001,-9.44980E-002,4.14896E-004,2.26097E-001,-9.44985E-002,7.41489E-002,2.27110E-001,1.25351E+000,-3.22480E-002,0.00000E+000,2.58678E-002,9.13373E-001,0.00000E+000,-2.14323E-002,-9.22526E-002,1.00000E+000,36
959,1327,1.07623E+001,-4.98984E-001,-3.53317E-002,9.11849E+000,-5.49053E-001,1.57059E-002,9.13502E+000,3.53530E-002,4.46882E-001,0,1.39063E+002,-9.77464E+000,9.97190E-001,9.68436E+001,-4.22860E+001,9.96336E-001,2.24558E-001,-9.44778E-002,6.00503E-004,2.24559E-001,-9.44789E-002,1.07844E-001,2.25497E-001,1.25151E+000,-3.22861E-002,0.00000E+000,2.60317E-002,9.13376E-001,0.00000E+000,-1.85445E-002,-9.21974E-002,1.00000E+000,36
959,1337,1.07670E+001,8.21695E-002,-4.99385E-002,9.10249E+000,-6.17413E-001,-2.73846E-002,9.12345E+000,2.60169E-002,4.63132E-001,0,1.38969E+002,-1.07785E+001,9.96079E-001,9.69669E+001,-4.32515E+001,9.95002E-001,2.23000E-001,-9.44517E-002,7.76871E-004,2.23002E-001,-9.44536E-002,1.40214E-001,2.23869E-001,1.24951E+000,-3.23498E-002,0.00000E+000,2.61963E-002,9.13382E-001,0.00000E+000,-1.56420E-002,-9.21051E-002,1.00000E+000,36
959,1307,1.07768E+001,-1.66092E+000,1.29208E-001,9.15381E+000,-4.27396E-001,1.45639E-001,9.16494E+000,1.98349E-002,4.88197E-001,0,1.39118E+002,-8.09834E+000,9.95331E-001,9.72237E+001,-4.06041E+001,9.94176E-001,2.27623E-001,-9.45154E-002,2.24756E-004,2.27624E-001,-9.45156E-002,3.99753E-002,2.28712E-001,1.25550E+000,-3.22215E-002,0.00000E+000,2.57041E-002,9.13371E-001,0.00000E+000,-2.43165E-002,-9.22910E-002,1.00000E+000,36
959,1347,1.07803E+001,6.67337E-001,-5.69367E-002,9.09121E+000,-6.84037E-001,-8.09563E-002,9.11726E+000,1.94815E-002,4.65256E-001,0,1.38978E+002,-1.17339E+001,9.95728E-001,9.72403E+001,-4.41800E+001,9.94995E-001,2.21430E-001,-9.44228E-002,9.48121E-004,2.21433E-001,-9.44256E-002,1.71987E-001,2.22231E-001,1.24751E+000,-3.24258E-002,0.00000E+000,2.63612E-002,9.13388E-001,0.00000E+000,-1.27365E-002,-9.19950E-002,1.00000E+000,36
909,1347,6.67619E+000,5.79479E-001,-5.09851E-002,8.26173E+000,-7.33243E-001,-2.18973E-002,8.29424E+000,2.42074E-002,5.02330E-001,0,1.26640E+002,-1.25177E+001,9.97319E-001,8.36513E+001,-4.60875E+001,9.95776E-001,2.26782E-001,-9.75935E-002,-3.09779E-003,2.26812E-001,-9.76231E-002,-5.47108E-001,2.27543E-001,1.25446E+000,-1.76409E-002,0.00000E+000,7.56287E-003,9.11464E-001,0.00000E+000,-6.57455E-003,-9.93216E-002,1.00000E+000,36
899,1327,5.82936E+000,-6.12078E-001,1.97479E-003,8.10793E+000,-6.21194E-001,9.96753E-002,8.13230E+000,1.48733E-002,4.88981E-001,0,1.23981E+002,-1.09480E+001,9.95149E-001,8.04718E+001,-4.47408E+001,9.95009E-001,2.32876E-001,-9.81860E-002,-3.46457E-003,2.32912E-001,-9.82222E-002,-5.99514E-001,2.33861E-001,1.26217E+000,-1.47353E-002,0.00000E+000,4.67682E-003,9.10974E-001,0.00000E+000,-6.03913E-003,-9.96457E-002,1.00000E+000,36
899,1337,5.84715E+000,-2.03964E-002,-4.07458E-002,8.10744E+000,-6.76618E-001,3.49693E-002,8.13570E+000,2.20786E-002,5.19080E-001,0,1.24190E+002,-1.17116E+001,9.97827E-001,8.07500E+001,-4.54846E+001,9.97503E-001,2.30700E-001,-9.81957E-002,-3.63470E-003,2.30740E-001,-9.82359E-002,-6.33086E-001,2.31587E-001,1.25942E+000,-1.48110E-002,0.00000E+000,4.39606E-003,9.10966E-001,0.00000E+000,-5.53534E-003,-9.96318E-002,1.00000E+000,36
899,1347,5.88029E+000,5.71609E-001,-3.92675E-002,8.11355E+000,-7.36839E-001,-2.68050E-002,8.14699E+000,1.84226E-002,5.00805E-001,0,1.24480E+002,-1.25483E+001,9.97817E-001,8.13581E+001,-4.63440E+001,9.97077E-001,2.28514E-001,-9.82091E-002,-3.81949E-003,2.28559E-001,-9.82537E-002,-6.69681E-001,2.29307E-001,1.25667E+000,-1.49229E-002,0.00000E+000,4.11459E-003,9.10955E-001,0.00000E+000,-5.03026E-003,-9.96113E-002,1.00000E+000,36
899,1317,5.82748E+000,-1.19214E+000,7.59336E-002,8.11870E+000,-5.57960E-001,1.69187E-001,8.13961E+000,1.88103E-002,4.77886E-001,0,1.23901E+002,-1.00850E+001,9.94183E-001,8.05065E+001,-4.38738E+001,9.91999E-001,2.35041E-001,-9.81785E-002,-3.30397E-003,2.35073E-001,-9.82112E-002,-5.68030E-001,2.36130E-001,1.26490E+000,-1.46828E-002,0.00000E+000,4.95690E-003,9.10979E-001,0.00000E+000,-6.54169E-003,-9.96553E-002,1.00000E+000,36
899,1307,5.82857E+000,-1.76031E+000,1.73713E-001,8.12680E+000,-4.87196E-001,2.35931E-001,8.14481E+000,1.83837E-002,4.30532E-001,0,1.23779E+002,-9.07145E+000,9.94631E-001,8.06392E+001,-4.28910E+001,9.90689E-001,2.37194E-001,-9.81732E-002,-3.15303E-003,2.37224E-001,-9.82029E-002,-5.38615E-001,2.38391E-001,1.26763E+000,-1.46536E-002,0.00000E+000,5.23605E-003,9.10982E-001,0.00000E+000,-7.04260E-003,-9.96607E-002,1.00000E+000,36
889,1327,5.01334E+000,-6.18251E-001,1.68771E-002,7.93993E+000,-6.23670E-001,1.03011E-001,7.96505E+000,1.31815E-002,5.03582E-001,0,1.21488E+002,-1.09724E+001,9.96682E-001,7.78778E+001,-4.49688E+001,9.96259E-001,2.34101E-001,-9.74879E-002,-4.37509E-003,2.34159E-001,-9.75457E-002,-7.55804E-001,2.35242E-001,1.26373E+000,-1.28531E-002,0.00000E+000,1.34220E-003,9.11706E-001,0.00000E+000,-2.71386E-003,-1.00517E-001,1.00000E+000,36
889,1337,5.02362E+000,-2.64652E-002,-3.09060E-002,7.93321E+000,-6.77363E-001,3.84806E-002,7.96216E+000,2.02310E-002,5.23038E-001,0,1.21602E+002,-1.17131E+001,9.97653E-001,7.80297E+001,-4.57085E+001,9.97316E-001,2.31980E-001,-9.74858E-002,-4.37432E-003,2.32038E-001,-9.75438E-002,-7.60539E-001,2.33016E-001,1.26105E+000,-1.29218E-002,0.00000E+000,1.47814E-003,9.11709E-001,0.00000E+000,-3.41878E-003,-1.00535E-001,1.00000E+000,36
889,1347,5.05869E+000,5.62915E-001,-3.41977E-002,7.94204E+000,-7.39476E-001,-2.54109E-002,7.97643E+000,1.63157E-002,4.95788E-001,0,1.21941E+002,-1.25717E+001,9.97313E-001,7.86591E+001,-4.66040E+001,9.96855E-001,2.29846E-001,-9.74827E-002,-4.38806E-003,2.29905E-001,-9.75415E-002,-7.67905E-001,2.30782E-001,1.25836E+000,-1.30276E-002,0.00000E+000,1.61460E-003,9.11715E-001,0.00000E+000,-4.12639E-003,-1.00563E-001,1.00000E+000,36
969,1297,1.16291E+001,-2.20668E+000,2.32987E-001,9.35147E+000,-3.43373E-001,1.79263E-001,9.35949E+000,2.49481E-002,4.75850E-001,0,1.41861E+002,-6.84987E+000,9.97821E-001,1.00571E+002,-3.91751E+001,9.95913E-001,2.27034E-001,-9.39400E-002,-7.15160E-005,2.27034E-001,-9.39401E-002,-1.27660E-002,2.28156E-001,1.25477E+000,-3.48911E-002,0.00000E+000,2.73025E-002,9.13632E-001,0.00000E+000,-2.72959E-002,-8.95303E-002,1.00000E+000,36
969,1307,1.15841E+001,-1.65266E+000,7.91706E-002,9.30450E+000,-4.26783E-001,8.11917E-002,9.31463E+000,5.10037E-002,4.79317E-001,0,1.41534E+002,-7.96306E+000,9.96594E-001,9.96566E+001,-4.02727E+001,9.94055E-001,2.25849E-001,-9.39246E-002,1.56471E-004,2.25849E-001,-9.39247E-002,2.80358E-002,2.26913E-001,1.25320E+000,-3.48960E-002,0.00000E+000,2.75175E-002,9.13632E-001,0.00000E+000,-2.43517E-002,-8.95210E-002,1.00000E+000,36
969,1317,1.15868E+001,-1.07364E+000,3.59506E-002,9.29758E+000,-4.88630E-001,5.93541E-002,9.31060E+000,1.60158E-002,4.12081E-001,0,1.41515E+002,-8.89723E+000,9.98378E-001,9.96947E+001,-4.12473E+001,9.97689E-001,2.24655E-001,-9.39031E-002,3.77332E-004,2.24655E-001,-9.39035E-002,6.78669E-002,2.25660E-001,1.25163E+000,-3.49196E-002,0.00000E+000,2.77327E-002,9.13636E-001,0.00000E+000,-2.14057E-002,-8.94769E-002,1.00000E+000,36
889,1317,5.00466E+000,-1.19584E+000,8.98968E-002,7.94334E+000,-5.58588E-001,1.69433E-001,7.96476E+000,1.74473E-002,5.22081E-001,0,1.21307E+002,-1.00869E+001,9.96809E-001,7.78058E+001,-4.40454E+001,9.95618E-001,2.36214E-001,-9.74896E-002,-4.38359E-003,2.36272E-001,-9.75472E-002,-7.52474E-001,2.37465E-001,1.26640E+000,-1.28042E-002,0.00000E+000,1.20645E-003,9.11703E-001,0.00000E+000,-2.00993E-003,-1.00504E-001,1.00000E+000,36
969,1327,1.15777E+001,-4.86590E-001,-3.25779E-002,9.27538E+000,-5.45041E-001,-3.07759E-003,9.29138E+000,2.29061E-002,4.42187E-001,0,1.41405E+002,-9.70026E+000,9.97229E-001,9.95011E+001,-4.19965E+001,9.95947E-001,2.23447E-001,-9.38788E-002,5.95111E-004,2.23449E-001,-9.38799E-002,1.07452E-001,2.24397E-001,1.25005E+000,-3.49514E-002,0.00000E+000,2.79483E-002,9.13640E-001,0.00000E+000,-1.84539E-002,-8.94172E-002,1.00000E+000,36
889,1307,4.99891E+000,-1.76685E+000,1.83839E-001,7.94389E+000,-4.91461E-001,2.29341E-001,7.96238E+000,2.06143E-002,4.80274E-001,0,1.21097E+002,-9.11462E+000,9.95513E-001,7.78250E+001,-4.30944E+001,9.92850E-001,2.38315E-001,-9.74907E-002,-4.40108E-003,2.38373E-001,-9.75484E-002,-7.50749E-001,2.39678E-001,1.26906E+000,-1.27785E-002,0.00000E+000,1.07119E-003,9.11702E-001,0.00000E+000,-1.30852E-003,-1.00497E-001,1.00000E+000,36
969,1337,1.15814E+001,9.46872E-002,-6.45252E-002,9.26057E+000,-6.10325E-001,-5.38172E-002,9.28081E+000,2.18534E-002,3.97240E-001,0,1.41360E+002,-1.06375E+001,9.96922E-001,9.95772E+001,-4.29513E+001,9.96402E-001,2.22229E-001,-9.38501E-002,8.07601E-004,2.22231E-001,-9.38522E-002,1.46393E-001,2.23123E-001,1.24847E+000,-3.49968E-002,0.00000E+000,2.81642E-002,9.13646E-001,0.00000E+000,-1.54979E-002,-8.93322E-002,1.00000E+000,36
969,1347,1.15881E+001,7.02684E-001,-6.96386E-002,9.24388E+000,-6.55024E-001,-9.88558E-002,9.26758E+000,1.80649E-002,4.32371E-001,0,1.41251E+002,-1.12642E+001,9.96861E-001,9.97522E+001,-4.35131E+001,9.95797E-001,2.20991E-001,-9.38175E-002,1.01656E-003,2.20995E-001,-9.38208E-002,1.85013E-001,2.21832E-001,1.24688E+000,-3.50539E-002,0.00000E+000,2.83815E-002,9.13654E-001,0.00000E+000,-1.25223E-002,-8.92252E-002,1.00000E+000,36
879,1327,4.20260E+000,-6.18805E-001,3.67028E-002,7.77668E+000,-6.20338E-001,1.10587E-001,7.80217E+000,1.88626E-002,5.08427E-001,0,1.19048E+002,-1.09168E+001,9.96702E-001,7.53831E+001,-4.51250E+001,9.96320E-001,2.34996E-001,-9.77495E-002,-4.89777E-003,2.35068E-001,-9.78216E-002,-8.43108E-001,2.36168E-001,1.26488E+000,-1.10565E-002,0.00000E+000,-1.12222E-003,9.11402E-001,0.00000E+000,-4.22820E-004,-9.97365E-002,1.00000E+000,36
879,1337,4.21224E+000,-3.31781E-002,-2.16618E-002,7.76999E+000,-6.79301E-001,3.79216E-002,7.79972E+000,1.82975E-002,5.02177E-001,0,1.19191E+002,-1.17129E+001,9.95464E-001,7.55022E+001,-4.59519E+001,9.95182E-001,2.33143E-001,-9.77427E-002,-4.81013E-003,2.33213E-001,-9.78126E-002,-8.32681E-001,2.34220E-001,1.26254E+000,-1.11143E-002,0.00000E+000,-7.89532E-004,9.11411E-001,0.00000E+000,-1.67771E-003,-9.97675E-002,1.00000E+000,36
879,1347,4.24155E+000,5.62427E-001,-2.67638E-002,7.77455E+000,-7.35449E-001,-2.14597E-002,7.80929E+000,2.09140E-002,5.13386E-001,0,1.19448E+002,-1.24857E+001,9.95578E-001,7.60409E+001,-4.67309E+001,9.95354E-001,2.31273E-001,-9.77330E-002,-4.73342E-003,2.31341E-001,-9.78011E-002,-8.24089E-001,2.32260E-001,1.26018E+000,-1.12018E-002,0.00000E+000,-4.54805E-004,9.11423E-001,0.00000E+000,-2.94030E-003,-9.98143E-002,1.00000E+000,36
879,1307,4.17149E+000,-1.76554E+000,1.99919E-001,7.76226E+000,-4.88033E-001,2.25948E-001,7.78087E+000,2.41778E-002,4.74832E-001,0,1.18415E+002,-9.02205E+000,9.94223E-001,7.50658E+001,-4.32167E+001,9.91695E-001,2.38677E-001,-9.77575E-002,-5.09432E-003,2.38754E-001,-9.78346E-002,-8.67314E-001,2.40046E-001,1.26955E+000,-1.09970E-002,0.00000E+000,-1.78553E-003,9.11394E-001,0.00000E+000,2.07919E-003,-9.97047E-002,1.00000E+000,36
879,1317,4.18624E+000,-1.19386E+000,1.10794E-001,7.77213E+000,-5.52364E-001,1.77140E-001,7.79375E+000,1.81108E-002,4.24539E-001,0,1.18746E+002,-9.94558E+000,9.96992E-001,7.51961E+001,-4.42146E+001,9.95643E-001,2.36845E-001,-9.77547E-002,-4.99171E-003,2.36920E-001,-9.78291E-002,-8.54509E-001,2.38114E-001,1.26722E+000,-1.10146E-002,0.00000E+000,-1.45500E-003,9.11396E-001,0.00000E+000,8.32451E-004,-9.97140E-002,1.00000E+000,36
979,1307,1.24489E+001,-1.63061E+000,1.23881E-001,9.50890E+000,-4.14443E-001,9.73402E-002,9.51843E+000,2.68643E-002,4.25122E-001,0,1.44455E+002,-7.80340E+000,9.98333E-001,1.03167E+002,-3.99455E+001,9.98215E-001,2.24242E-001,-9.32879E-002,1.23274E-004,2.24242E-001,-9.32880E-002,2.22439E-002,2.25294E-001,1.25110E+000,-3.68572E-002,0.00000E+000,2.87843E-002,9.13924E-001,0.00000E+000,-2.31993E-002,-8.64006E-002,1.00000E+000,36
979,1317,1.24187E+001,-1.04657E+000,3.47815E-002,9.47067E+000,-4.70868E-001,3.68167E-002,9.48244E+000,1.58271E-002,4.35576E-001,0,1.44105E+002,-8.60034E+000,9.97499E-001,1.02609E+002,-4.07080E+001,9.96881E-001,2.23513E-001,-9.32635E-002,3.92862E-004,2.23513E-001,-9.32640E-002,7.10573E-002,2.24531E-001,1.25012E+000,-3.68696E-002,0.00000E+000,2.90926E-002,9.13928E-001,0.00000E+000,-2.04186E-002,-8.63655E-002,1.00000E+000,36
979,1327,1.24006E+001,-4.62559E-001,-3.37672E-002,9.44025E+000,-5.29535E-001,-2.16444E-002,9.45512E+000,1.73936E-002,4.20577E-001,0,1.43861E+002,-9.43069E+000,9.95343E-001,1.02275E+002,-4.15260E+001,9.93876E-001,2.22775E-001,-9.32352E-002,6.60034E-004,2.22777E-001,-9.32366E-002,1.19670E-001,2.23760E-001,1.24914E+000,-3.68882E-002,0.00000E+000,2.94011E-002,9.13934E-001,0.00000E+000,-1.76352E-002,-8.63125E-002,1.00000E+000,36
979,1337,1.23968E+001,1.29422E-001,-6.56112E-002,9.42009E+000,-5.83281E-001,-6.19313E-002,9.43834E+000,2.34732E-002,4.13082E-001,0,1.43696E+002,-1.02248E+001,9.92893E-001,1.02235E+002,-4.22959E+001,9.92334E-001,2.22028E-001,-9.32030E-002,9.25035E-004,2.22030E-001,-9.32057E-002,1.68131E-001,2.22981E-001,1.24815E+000,-3.69132E-002,0.00000E+000,2.97104E-002,9.13942E-001,0.00000E+000,-1.48457E-002,-8.62415E-002,1.00000E+000,36
979,1347,1.24021E+001,7.33491E-001,-6.40314E-002,9.40048E+000,-6.31651E-001,-1.06378E-001,9.42228E+000,2.38845E-002,4.22978E-001,0,1.43541E+002,-1.09185E+001,9.90676E-001,1.02399E+002,-4.29445E+001,9.89729E-001,2.21268E-001,-9.31629E-002,1.18607E-003,2.21272E-001,-9.31674E-002,2.16123E-001,2.22190E-001,1.24717E+000,-3.69512E-002,0.00000E+000,3.00213E-002,9.13954E-001,0.00000E+000,-1.20413E-002,-8.61339E-002,1.00000E+000,36
979,1297,1.24505E+001,-2.18837E+000,2.15940E-001,9.51710E+000,-3.32279E-001,1.53644E-001,9.52413E+000,2.14234E-002,4.67871E-001,0,1.44354E+002,-6.62909E+000,9.97830E-001,1.03291E+002,-3.87584E+001,9.97284E-001,2.24962E-001,-9.33108E-002,-1.47510E-004,2.24962E-001,-9.33108E-002,-2.65550E-002,2.26049E-001,1.25207E+000,-3.68473E-002,0.00000E+000,2.84760E-002,9.13921E-001,0.00000E+000,-2.59803E-002,-8.64289E-002,1.00000E+000,36
869,1317,3.35367E+000,-1.19016E+000,1.03351E-001,7.58794E+000,-5.44645E-001,1.64224E-001,7.60924E+000,1.33025E-002,4.48214E-001,0,1.16054E+002,-9.77516E+000,9.97623E-001,7.23122E+001,-4.42382E+001,9.96064E-001,2.37053E-001,-9.82049E-002,-5.07965E-003,2.37130E-001,-9.82819E-002,-8.67848E-001,2.38284E-001,1.26751E+000,-8.94351E-003,0.00000E+000,-3.25713E-003,9.10898E-001,0.00000E+000,2.68968E-003,-9.87587E-002,1.00000E+000,36
869,1327,3.37296E+000,-6.14870E-001,3.36905E-002,7.59590E+000,-6.10947E-001,1.03741E-001,7.62113E+000,1.90421E-002,5.30047E-001,0,1.16386E+002,-1.07476E+001,9.95952E-001,7.25538E+001,-4.51569E+001,9.95206E-001,2.35619E-001,-9.82001E-002,-4.97645E-003,2.35694E-001,-9.82743E-002,-8.53890E-001,2.36775E-001,1.26569E+000,-8.97487E-003,0.00000E+000,-2.89134E-003,9.10904E-001,0.00000E+000,1.09261E-003,-9.87862E-002,1.00000E+000,36
869,1337,3.39093E+000,-3.58517E-002,-1.29421E-002,7.59707E+000,-6.77278E-001,3.99622E-002,7.62731E+000,1.99862E-002,5.12953E-001,0,1.16619E+002,-1.16637E+001,9.94480E-001,7.28264E+001,-4.61175E+001,9.94054E-001,2.34177E-001,-9.81934E-002,-4.87881E-003,2.34249E-001,-9.82650E-002,-8.40794E-001,2.35259E-001,1.26386E+000,-9.02120E-003,0.00000E+000,-2.52459E-003,9.10913E-001,0.00000E+000,-5.08589E-004,-9.88268E-002,1.00000E+000,36
869,1347,3.41589E+000,5.63955E-001,-2.53970E-002,7.60002E+000,-7.25889E-001,-1.47647E-002,7.63462E+000,2.44227E-002,5.04292E-001,0,1.16835E+002,-1.23404E+001,9.95969E-001,7.32842E+001,-4.68281E+001,9.95503E-001,2.32728E-001,-9.81847E-002,-4.78661E-003,2.32797E-001,-9.82540E-002,-8.28546E-001,2.33738E-001,1.26203E+000,-9.08180E-003,0.00000E+000,-2.15725E-003,9.10925E-001,0.00000E+000,-2.11244E-003,-9.88799E-002,1.00000E+000,36
869,1307,3.34764E+000,-1.75942E+000,2.17399E-001,7.58626E+000,-4.77862E-001,2.35545E-001,7.60494E+000,1.98160E-002,4.83125E-001,0,1.15771E+002,-8.86530E+000,9.95329E-001,7.23720E+001,-4.32605E+001,9.93178E-001,2.38477E-001,-9.82072E-002,-5.18973E-003,2.38557E-001,-9.82871E-002,-8.82892E-001,2.39785E-001,1.26933E+000,-8.93133E-003,0.00000E+000,-3.62130E-003,9.10895E-001,0.00000E+000,4.27963E-003,-9.87481E-002,1.00000E+000,36
989,1307,1.32513E+001,-1.59074E+000,9.92408E-002,9.65452E+000,-3.81541E-001,6.20918E-002,9.66226E+000,2.08688E-002,4.72112E-001,0,1.46670E+002,-7.26290E+000,9.96486E-001,1.05586E+002,-3.91516E+001,9.96278E-001,2.22916E-001,-9.30352E-002,6.25239E-005,2.22916E-001,-9.30352E-002,1.13383E-002,2.23929E-001,1.24937E+000,-3.76856E-002,0.00000E+000,2.91268E-002,9.13923E-001,0.00000E+000,-2.14033E-002,-8.35936E-002,1.00000E+000,36
989,1317,1.32194E+001,-1.00373E+000,2.08750E-002,9.61560E+000,-4.36140E-001,1.78220E-002,9.62551E+000,2.16246E-002,5.32700E-001,0,1.46252E+002,-8.06553E+000,9.97039E-001,1.05021E+002,-3.98642E+001,9.96330E-001,2.22570E-001,-9.30068E-002,3.95141E-004,2.22571E-001,-9.30073E-002,7.17411E-002,2.23569E-001,1.24888E+000,-3.76909E-002,0.00000E+000,2.95439E-002,9.13928E-001,0.00000E+000,-1.86201E-002,-8.35635E-002,1.00000E+000,36
989,1327,1.32204E+001,-4.24423E-001,-3.39284E-002,9.60238E+000,-5.01821E-001,-3.54808E-002,9.61555E+000,2.49781E-002,5.05714E-001,0,1.46250E+002,-8.99909E+000,9.95770E-001,1.05011E+002,-4.07867E+001,9.93927E-001,2.22216E-001,-9.29705E-002,7.25655E-004,2.22218E-001,-9.29721E-002,1.31911E-001,2.23203E-001,1.24838E+000,-3.77019E-002,0.00000E+000,2.99613E-002,9.13937E-001,0.00000E+000,-1.58346E-002,-8.35018E-002,1.00000E+000,36
989,1297,1.32771E+001,-2.16455E+000,2.08386E-001,9.68601E+000,-3.15174E-001,1.31573E-001,9.69203E+000,1.90925E-002,4.59123E-001,0,1.46875E+002,-6.34431E+000,9.96287E-001,1.06114E+002,-3.82764E+001,9.95440E-001,2.23253E-001,-9.30620E-002,-2.70202E-004,2.23254E-001,-9.30622E-002,-4.89430E-002,2.24280E-001,1.24986E+000,-3.76813E-002,0.00000E+000,2.87103E-002,9.13919E-001,0.00000E+000,-2.41823E-002,-8.36183E-002,1.00000E+000,36
989,1337,1.32152E+001,1.60955E-001,-5.85112E-002,9.57790E+000,-5.62062E-001,-8.08364E-002,9.59472E+000,2.04715E-002,4.23290E-001,0,1.46039E+002,-9.87779E+000,9.92597E-001,1.04960E+002,-4.17107E+001,9.92807E-001,2.21855E-001,-9.29287E-002,1.05367E-003,2.21858E-001,-9.29322E-002,1.91782E-001,2.22830E-001,1.24789E+000,-3.77166E-002,0.00000E+000,3.03780E-002,9.13949E-001,0.00000E+000,-1.30546E-002,-8.34187E-002,1.00000E+000,36
989,1347,1.32200E+001,7.62961E-001,-6.16374E-002,9.55984E+000,-6.10333E-001,-1.20000E-001,9.58006E+000,2.24440E-002,4.29702E-001,0,1.45891E+002,-1.05955E+001,9.95972E-001,1.05104E+002,-4.23811E+001,9.96332E-001,2.21484E-001,-9.28829E-002,1.38192E-003,2.21490E-001,-9.28889E-002,2.51858E-001,2.22448E-001,1.24740E+000,-3.77340E-002,0.00000E+000,3.07968E-002,9.13964E-001,0.00000E+000,-1.02602E-002,-8.33205E-002,1.00000E+000,36
859,1327,2.54884E+000,-6.08668E-001,3.05967E-002,7.42002E+000,-6.00059E-001,9.59124E-002,7.44486E+000,1.77568E-002,5.26353E-001,0,1.13797E+002,-1.05314E+001,9.94594E-001,6.98157E+001,-4.51658E+001,9.94022E-001,2.35843E-001,-9.83553E-002,-4.80533E-003,2.35912E-001,-9.84244E-002,-8.23611E-001,2.36988E-001,1.26598E+000,-7.22904E-003,0.00000E+000,-3.87891E-003,9.10686E-001,0.00000E+000,1.76639E-003,-9.79835E-002,1.00000E+000,36
859,1337,2.57263E+000,-2.54499E-002,-1.35380E-002,7.42731E+000,-6.61134E-001,3.52883E-002,7.45676E+000,2.00582E-002,5.25746E-001,0,1.14109E+002,-1.13929E+001,9.94353E-001,7.01845E+001,-4.60599E+001,9.93639E-001,2.34827E-001,-9.83527E-002,-4.76960E-003,2.34895E-001,-9.84209E-002,-8.19988E-001,2.35920E-001,1.26469E+000,-7.26121E-003,0.00000E+000,-3.61773E-003,9.10693E-001,0.00000E+000,-1.12207E-004,-9.80303E-002,1.00000E+000,36
859,1347,2.59750E+000,5.61561E-001,-2.51665E-002,7.42971E+000,-7.22816E-001,-2.17069E-002,7.46482E+000,2.61773E-002,4.93527E-001,0,1.14328E+002,-1.22538E+001,9.96731E-001,7.06423E+001,-4.69835E+001,9.96239E-001,2.33802E-001,-9.83492E-002,-4.73829E-003,2.33870E-001,-9.84167E-002,-8.17129E-001,2.34845E-001,1.26340E+000,-7.30492E-003,0.00000E+000,-3.35570E-003,9.10701E-001,0.00000E+000,-1.99697E-003,-9.80940E-002,1.00000E+000,36
859,1307,2.52170E+000,-1.75266E+000,2.20541E-001,7.40814E+000,-4.68671E-001,2.32880E-001,7.42660E+000,2.33252E-002,5.65160E-001,0,1.13133E+002,-8.70477E+000,9.96330E-001,6.96206E+001,-4.32279E+001,9.95644E-001,2.37853E-001,-9.83579E-002,-4.88974E-003,2.37924E-001,-9.84290E-002,-8.33057E-001,2.39102E-001,1.26855E+000,-7.19908E-003,0.00000E+000,-4.39867E-003,9.10680E-001,0.00000E+000,5.50493E-003,-9.79398E-002,1.00000E+000,36
859,1317,2.53759E+000,-1.19211E+000,1.07807E-001,7.41969E+000,-5.43578E-001,1.62572E-001,7.44135E+000,1.84521E-002,5.01914E-001,0,1.13564E+002,-9.73575E+000,9.95681E-001,6.97133E+001,-4.43578E+001,9.93388E-001,2.36852E-001,-9.83571E-002,-4.84515E-003,2.36922E-001,-9.84271E-002,-8.27930E-001,2.38048E-001,1.26727E+000,-7.20769E-003,0.00000E+000,-4.13918E-003,9.10682E-001,0.00000E+000,3.63850E-003,-9.79524E-002,1.00000E+000,36
999,1337,1.40275E+001,1.86037E-001,-7.70126E-002,9.73518E+000,-5.41416E-001,-9.85912E-002,9.75072E+000,1.55756E-002,3.79123E-001,0,1.48374E+002,-9.54655E+000,9.98623E-001,1.07547E+002,-4.11972E+001,9.97708E-001,2.21543E-001,-9.28065E-002,8.83288E-004,2.21545E-001,-9.28090E-002,1.60993E-001,2.22514E-001,1.24746E+000,-3.79924E-002,0.00000E+000,3.00730E-002,9.13843E-001,0.00000E+000,-1.06834E-002,-8.04509E-002,1.00000E+000,36
999,1347,1.40412E+001,7.90234E-001,-6.00755E-002,9.72364E+000,-5.90642E-001,-1.27473E-001,9.74239E+000,1.45688E-002,3.89974E-001,0,1.48285E+002,-1.02825E+001,9.98682E-001,1.07865E+002,-4.18727E+001,9.98062E-001,2.21526E-001,-9.27615E-002,1.19982E-003,2.21531E-001,-9.27661E-002,2.18727E-001,2.22503E-001,1.24742E+000,-3.79940E-002,0.00000E+000,3.04670E-002,9.13858E-001,0.00000E+000,-8.02734E-003,-8.03483E-002,1.00000E+000,36
999,1307,1.40673E+001,-1.55946E+000,9.27705E-002,9.81328E+000,-3.57295E-001,4.52371E-002,9.81989E+000,1.39949E-002,4.51146E-001,0,1.49016E+002,-6.86251E+000,9.97343E-001,1.08255E+002,-3.85619E+001,9.97496E-001,2.21550E-001,-9.29033E-002,-6.13260E-005,2.21550E-001,-9.29033E-002,-1.11741E-002,2.22509E-001,1.24759E+000,-3.79899E-002,0.00000E+000,2.89012E-002,9.13820E-001,0.00000E+000,-1.85831E-002,-8.06068E-002,1.00000E+000,36
999,1317,1.40432E+001,-9.78568E-001,3.10498E-003,9.78183E+000,-4.17644E-001,-1.18201E-002,9.79074E+000,2.12115E-002,5.12056E-001,0,1.48762E+002,-7.74037E+000,9.95897E-001,1.07790E+002,-3.93419E+001,9.92720E-001,2.21554E-001,-9.28765E-002,2.53996E-004,2.21554E-001,-9.28767E-002,4.62832E-002,2.22517E-001,1.24755E+000,-3.79904E-002,0.00000E+000,2.92919E-002,9.13824E-001,0.00000E+000,-1.59495E-002,-8.05768E-002,1.00000E+000,36
999,1327,1.40391E+001,-4.05704E-001,-4.59749E-002,9.76490E+000,-4.88456E-001,-5.25785E-002,9.77725E+000,2.33231E-002,4.89158E-001,0,1.48662E+002,-8.79086E+000,9.96948E-001,1.07709E+002,-4.03732E+001,9.94832E-001,2.21552E-001,-9.28442E-002,5.69112E-004,2.21553E-001,-9.28452E-002,1.03715E-001,2.22518E-001,1.24751E+000,-3.79912E-002,0.00000E+000,2.96828E-002,9.13832E-001,0.00000E+000,-1.33145E-002,-8.05244E-002,1.00000E+000,36
999,1297,1.40956E+001,-2.14351E+000,2.03635E-001,9.84691E+000,-3.01382E-001,1.14535E-001,9.85219E+000,1.51808E-002,4.74511E-001,0,1.49255E+002,-6.11990E+000,9.95375E-001,1.08822E+002,-3.78324E+001,9.93250E-001,2.21538E-001,-9.29280E-002,-3.76668E-004,2.21538E-001,-9.29284E-002,-6.86289E-002,2.22494E-001,1.24763E+000,-3.79895E-002,0.00000E+000,2.85109E-002,9.13817E-001,0.00000E+000,-2.12146E-002,-8.06285E-002,1.00000E+000,36
849,1337,1.75242E+000,-2.33441E-002,-7.59992E-003,7.25437E+000,-6.55734E-001,3.32745E-002,7.28403E+000,2.40342E-002,5.57208E-001,0,1.11541E+002,-1.12744E+001,9.96281E-001,6.75317E+001,-4.61358E+001,9.95518E-001,2.35080E-001,-9.81023E-002,-4.31240E-003,2.35135E-001,-9.81581E-002,-7.41418E-001,2.36201E-001,1.26502E+000,-5.78345E-003,0.00000E+000,-3.82086E-003,9.10808E-001,0.00000E+000,-2.07497E-004,-9.68104E-002,1.00000E+000,36
849,1347,1.77108E+000,5.58384E-001,-2.51662E-002,7.25338E+000,-7.19488E-001,-1.69847E-002,7.28900E+000,2.12859E-002,4.69549E-001,0,1.11688E+002,-1.21713E+001,9.96822E-001,6.78813E+001,-4.71585E+001,9.96596E-001,2.34544E-001,-9.81002E-002,-4.28664E-003,2.34599E-001,-9.81554E-002,-7.38182E-001,2.35638E-001,1.26434E+000,-5.80351E-003,0.00000E+000,-3.59462E-003,9.10814E-001,0.00000E+000,-2.05739E-003,-9.68653E-002,1.00000E+000,36
849,1357,1.80514E+000,1.15762E+000,1.12787E-002,7.25735E+000,-7.75325E-001,-6.39040E-002,7.29892E+000,1.81535E-002,4.80250E-001,0,1.11884E+002,-1.29727E+001,9.97147E-001,6.85906E+001,-4.79815E+001,9.97272E-001,2.33999E-001,-9.80970E-002,-4.26484E-003,2.34054E-001,-9.81518E-002,-7.35641E-001,2.35067E-001,1.26366E+000,-5.83418E-003,0.00000E+000,-3.36640E-003,9.10825E-001,0.00000E+000,-3.92342E-003,-9.69491E-002,1.00000E+000,36
849,1327,1.73673E+000,-6.00615E-001,3.55825E-002,7.25392E+000,-5.89127E-001,8.73596E-002,7.27833E+000,2.39825E-002,5.35222E-001,0,1.11352E+002,-1.03121E+001,9.96755E-001,6.72866E+001,-4.51561E+001,9.96206E-001,2.35612E-001,-9.81039E-002,-4.33999E-003,2.35668E-001,-9.81604E-002,-7.44966E-001,2.36761E-001,1.26569E+000,-5.76787E-003,0.00000E+000,-4.04714E-003,9.10803E-001,0.00000E+000,1.64272E-003,-9.67678E-002,1.00000E+000,36
1009,1337,1.48512E+001,2.28664E-001,-8.64861E-002,9.90511E+000,-5.05579E-001,-9.96633E-002,9.91851E+000,2.30669E-002,4.19125E-001,0,1.50832E+002,-9.00906E+000,9.98243E-001,1.10335E+002,-4.03884E+001,9.98276E-001,2.21248E-001,-9.26211E-002,5.11935E-004,2.21249E-001,-9.26219E-002,9.34517E-002,2.22224E-001,1.24708E+000,-3.79086E-002,0.00000E+000,2.91665E-002,9.13858E-001,0.00000E+000,-8.53410E-003,-7.79866E-002,1.00000E+000,36
1009,1347,1.48557E+001,8.03683E-001,-6.73038E-002,9.88214E+000,-5.83595E-001,-1.35409E-001,9.90028E+000,1.56856E-002,3.95159E-001,0,1.50604E+002,-1.01849E+001,9.99089E-001,1.10508E+002,-4.15375E+001,9.98874E-001,2.21509E-001,-9.25871E-002,7.50632E-004,2.21511E-001,-9.25889E-002,1.36925E-001,2.22502E-001,1.24739E+000,-3.78955E-002,0.00000E+000,2.94301E-002,9.13869E-001,0.00000E+000,-6.24619E-003,-7.78904E-002,1.00000E+000,36
1009,1297,1.49081E+001,-2.12249E+000,1.98749E-001,1.00029E+001,-2.85609E-001,1.04211E-001,1.00075E+001,1.95000E-002,3.88200E-001,0,1.51534E+002,-5.84464E+000,9.93265E-001,1.11443E+002,-3.74400E+001,9.91961E-001,2.20159E-001,-9.27068E-002,-4.27107E-004,2.20159E-001,-9.27074E-002,-7.82170E-002,2.21071E-001,1.24584E+000,-3.79282E-002,0.00000E+000,2.81188E-002,9.13841E-001,0.00000E+000,-1.76307E-002,-7.81302E-002,1.00000E+000,36
1009,1307,1.48865E+001,-1.53347E+000,9.24949E-002,9.97593E+000,-3.36022E-001,3.95722E-002,9.98167E+000,1.93425E-002,4.07454E-001,0,1.51377E+002,-6.54666E+000,9.95940E-001,1.10988E+002,-3.80784E+001,9.96554E-001,2.20438E-001,-9.26890E-002,-1.93512E-004,2.20439E-001,-9.26891E-002,-3.54087E-002,2.21366E-001,1.24615E+000,-3.79256E-002,0.00000E+000,2.83801E-002,9.13844E-001,0.00000E+000,-1.53620E-002,-7.81114E-002,1.00000E+000,36
1009,1317,1.48689E+001,-9.52591E-001,6.54394E-003,9.95065E+000,-3.96483E-001,-1.49964E-002,9.95856E+000,1.94159E-002,4.54435E-001,0,1.51209E+002,-7.43092E+000,9.96939E-001,1.10632E+002,-3.88710E+001,9.96578E-001,2.20713E-001,-9.26694E-002,4.07165E-005,2.20713E-001,-9.26694E-002,7.44421E-003,2.21656E-001,1.24646E+000,-3.79219E-002,0.00000E+000,2.86418E-002,9.13847E-001,0.00000E+000,-1.30897E-002,-7.80843E-002,1.00000E+000,36
849,1317,1.71385E+000,-1.17674E+000,1.14003E-001,7.24322E+000,-5.24279E-001,1.61815E-001,7.26397E+000,2.33310E-002,5.77439E-001,0,1.10935E+002,-9.44136E+000,9.96323E-001,6.70085E+001,-4.42038E+001,9.94355E-001,2.36139E-001,-9.81053E-002,-4.36875E-003,2.36196E-001,-9.81623E-002,-7.48715E-001,2.37315E-001,1.26637E+000,-5.75540E-003,0.00000E+000,-4.27280E-003,9.10798E-001,0.00000E+000,3.48793E-003,-9.67337E-002,1.00000E+000,36
1009,1327,1.48599E+001,-3.68512E-001,-4.55080E-002,9.92700E+000,-4.58030E-001,-6.59086E-002,9.93778E+000,1.83382E-002,4.27251E-001,0,1.51041E+002,-8.30357E+000,9.98146E-001,1.10470E+002,-3.97232E+001,9.98014E-001,2.20984E-001,-9.26447E-002,2.76669E-004,2.20984E-001,-9.26450E-002,5.05437E-002,2.21943E-001,1.24677E+000,-3.79149E-002,0.00000E+000,2.89043E-002,9.13853E-001,0.00000E+000,-1.08112E-002,-7.80330E-002,1.00000E+000,36
849,1307,1.69038E+000,-1.74863E+000,2.16949E-001,7.22409E+000,-4.59960E-001,2.22487E-001,7.24214E+000,2.49937E-002,6.02407E-001,0,1.10425E+002,-8.54908E+000,9.96459E-001,6.67767E+001,-4.32464E+001,9.95441E-001,2.36661E-001,-9.81058E-002,-4.40049E-003,2.36719E-001,-9.81636E-002,-7.52976E-001,2.37865E-001,1.26704E+000,-5.75087E-003,0.00000E+000,-4.49786E-003,9.10797E-001,0.00000E+000,5.32811E-003,-9.67213E-002,1.00000E+000,36
839,1337,9.27744E-001,-3.40535E-002,1.37956E-002,7.07632E+000,-6.61410E-001,4.52025E-002,7.10731E+000,4.25588E-002,5.55458E-001,0,1.08847E+002,-1.13718E+001,9.97146E-001,6.48487E+001,-4.64607E+001,9.96283E-001,2.35009E-001,-9.82626E-002,-3.56826E-003,2.35047E-001,-9.83008E-002,-6.13359E-001,2.36093E-001,1.26493E+000,-4.42857E-003,0.00000E+000,-3.35335E-003,9.10519E-001,0.00000E+000,-8.91267E-004,-9.52173E-002,1.00000E+000,36
839,1347,9.47691E-001,5.52701E-001,-1.86655E-002,7.07871E+000,-7.18888E-001,-1.04483E-002,7.11513E+000,1.76997E-002,4.75162E-001,0,1.09063E+002,-1.21579E+001,9.97291E-001,6.51867E+001,-4.73714E+001,9.96870E-001,2.34748E-001,-9.82602E-002,-3.52873E-003,2.34785E-001,-9.82976E-002,-6.07045E-001,2.35818E-001,1.26460E+000,-4.43727E-003,0.00000E+000,-3.10547E-003,9.10525E-001,0.00000E+000,-2.84158E-003,-9.52693E-002,1.00000E+000,36
839,1357,9.83766E-001,1.15864E+000,1.09351E-002,7.08582E+000,-7.67045E-001,-5.98943E-002,7.12746E+000,1.50275E-002,4.71985E-001,0,1.09313E+002,-1.28292E+001,9.97790E-001,6.59157E+001,-4.80845E+001,9.97613E-001,2.34481E-001,-9.82564E-002,-3.49118E-003,2.34518E-001,-9.82930E-002,-6.01076E-001,2.35538E-001,1.26427E+000,-4.45161E-003,0.00000E+000,-2.85545E-003,9.10536E-001,0.00000E+000,-4.80870E-003,-9.53550E-002,1.00000E+000,36
1019,1337,1.56843E+001,2.58218E-001,-6.96945E-002,1.00779E+001,-4.86292E-001,-1.01069E-001,1.00901E+001,2.13320E-002,4.88249E-001,0,1.53326E+002,-8.74731E+000,9.97407E-001,1.13318E+002,-3.98242E+001,9.97674E-001,2.20990E-001,-9.25387E-002,1.75868E-004,2.20990E-001,-9.25388E-002,3.21391E-002,2.21960E-001,1.24675E+000,-3.77856E-002,0.00000E+000,2.83103E-002,9.13846E-001,0.00000E+000,-6.45313E-003,-7.64340E-002,1.00000E+000,36
1019,1347,1.56773E+001,8.35017E-001,-6.50294E-002,1.00490E+001,-5.59683E-001,-1.26148E-001,1.00654E+001,1.85276E-002,4.27082E-001,0,1.52977E+002,-9.84780E+000,9.98141E-001,1.13286E+002,-4.09324E+001,9.98258E-001,2.21416E-001,-9.25146E-002,3.74857E-004,2.21416E-001,-9.25151E-002,6.84154E-002,2.22411E-001,1.24727E+000,-3.77681E-002,0.00000E+000,2.85155E-002,9.13853E-001,0.00000E+000,-4.44955E-003,-7.63670E-002,1.00000E+000,36
839,1327,8.91110E-001,-5.98550E-001,2.60649E-002,7.05928E+000,-5.79667E-001,9.04623E-002,7.08361E+000,3.85356E-002,5.67816E-001,0,1.08435E+002,-1.01615E+001,9.97889E-001,6.42123E+001,-4.52004E+001,9.97071E-001,2.35266E-001,-9.82653E-002,-3.60759E-003,2.35305E-001,-9.83043E-002,-6.19634E-001,2.36363E-001,1.26525E+000,-4.41886E-003,0.00000E+000,-3.60171E-003,9.10511E-001,0.00000E+000,1.06284E-003,-9.51592E-002,1.00000E+000,36
1019,1327,1.56830E+001,-3.43074E-001,-5.26937E-002,1.00948E+001,-4.38850E-001,-7.00121E-002,1.01046E+001,1.99397E-002,4.51565E-001,0,1.53478E+002,-8.02443E+000,9.97131E-001,1.13257E+002,-3.91956E+001,9.97158E-001,2.20559E-001,-9.25607E-002,-2.22264E-005,2.20559E-001,-9.25607E-002,-4.06707E-003,2.21506E-001,1.24622E+000,-3.78003E-002,0.00000E+000,2.81051E-002,9.13840E-001,0.00000E+000,-8.45629E-003,-7.64901E-002,1.00000E+000,36
1019,1317,1.56906E+001,-9.32487E-001,5.08760E-003,1.01135E+001,-3.83644E-001,-2.94727E-002,1.01208E+001,2.01309E-002,4.59227E-001,0,1.53605E+002,-7.23242E+000,9.97584E-001,1.13407E+002,-3.84501E+001,9.97228E-001,2.20125E-001,-9.25785E-002,-2.17836E-004,2.20125E-001,-9.25787E-002,-3.99134E-002,2.21049E-001,1.24570E+000,-3.78092E-002,0.00000E+000,2.79004E-002,9.13837E-001,0.00000E+000,-1.04549E-002,-7.65241E-002,1.00000E+000,36
839,1317,8.86888E-001,-1.17077E+000,1.05775E-001,7.06302E+000,-5.12547E-001,1.45914E-001,7.08310E+000,1.90392E-002,5.38612E-001,0,1.08298E+002,-9.20387E+000,9.96586E-001,6.42267E+001,-4.42221E+001,9.94041E-001,2.35518E-001,-9.82664E-002,-3.64902E-003,2.35558E-001,-9.83063E-002,-6.26272E-001,2.36629E-001,1.26558E+000,-4.41489E-003,0.00000E+000,-3.84913E-003,9.10508E-001,0.00000E+000,3.00948E-003,-9.51355E-002,1.00000E+000,36
1019,1297,1.57169E+001,-2.09610E+000,1.61692E-001,1.01562E+001,-2.64154E-001,6.77857E-002,1.01598E+001,1.94560E-002,3.83155E-001,0,1.53866E+002,-5.45885E+000,9.97714E-001,1.13954E+002,-3.68563E+001,9.97036E-001,2.19248E-001,-9.26105E-002,-6.06589E-004,2.19249E-001,-9.26117E-002,-1.11444E-001,2.20127E-001,1.24466E+000,-3.78224E-002,0.00000E+000,2.74923E-002,9.13831E-001,0.00000E+000,-1.44396E-002,-7.65744E-002,1.00000E+000,36
1019,1307,1.56968E+001,-1.51420E+000,6.45657E-002,1.01298E+001,-3.23964E-001,9.18406E-003,1.01350E+001,2.41852E-002,4.73611E-001,0,1.53700E+002,-6.32906E+000,9.97884E-001,1.13538E+002,-3.75862E+001,9.97582E-001,2.19689E-001,-9.25957E-002,-4.12494E-004,2.19690E-001,-9.25962E-002,-7.56812E-002,2.20591E-001,1.24518E+000,-3.78174E-002,0.00000E+000,2.76966E-002,9.13833E-001,0.00000E+000,-1.24444E-002,-7.65553E-002,1.00000E+000,36
839,1307,8.78232E-001,-1.74011E+000,2.13832E-001,7.05819E+000,-4.45846E-001,2.09375E-001,7.07536E+000,1.71050E-002,5.18061E-001,0,1.07998E+002,-8.26610E+000,9.95247E-001,6.42370E+001,-4.32552E+001,9.92986E-001,2.35766E-001,-9.82669E-002,-3.69113E-003,2.35807E-001,-9.83077E-002,-6.33027E-001,2.36890E-001,1.26590E+000,-4.41295E-003,0.00000E+000,-4.09588E-003,9.10507E-001,0.00000E+000,4.95088E-003,-9.51239E-002,1.00000E+000,36
829,1337,1.05355E-001,-3.00200E-002,2.24295E-003,6.90336E+000,-6.49506E-001,3.99739E-002,6.93397E+000,3.09393E-002,5.68611E-001,0,1.06281E+002,-1.11756E+001,9.95161E-001,6.21352E+001,-4.64788E+001,9.94081E-001,2.34336E-001,-9.82518E-002,-2.79920E-003,2.34359E-001,-9.82753E-002,-4.82181E-001,2.35374E-001,1.26407E+000,-3.44243E-003,0.00000E+000,-2.57135E-003,9.10401E-001,0.00000E+000,-1.64954E-003,-9.37559E-002,1.00000E+000,36
829,1347,1.27694E-001,5.55961E-001,-6.74497E-003,6.90572E+000,-7.10894E-001,-4.73768E-003,6.94222E+000,1.68428E-002,5.03594E-001,0,1.06458E+002,-1.20298E+001,9.94948E-001,6.25640E+001,-4.74468E+001,9.94699E-001,2.34295E-001,-9.82549E-002,-2.84963E-003,2.34319E-001,-9.82793E-002,-4.90921E-001,2.35331E-001,1.26403E+000,-3.44380E-003,0.00000E+000,-2.48778E-003,9.10403E-001,0.00000E+000,-3.72241E-003,-9.38191E-002,1.00000E+000,36
829,1357,1.58449E-001,1.15767E+000,1.34670E-002,6.90916E+000,-7.62158E-001,-5.65459E-002,6.95130E+000,1.69371E-002,5.10207E-001,0,1.06663E+002,-1.27459E+001,9.96841E-001,6.31913E+001,-4.82022E+001,9.96926E-001,2.34250E-001,-9.82591E-002,-2.90065E-003,2.34275E-001,-9.82844E-002,-4.99771E-001,2.35284E-001,1.26398E+000,-3.44567E-003,0.00000E+000,-2.40384E-003,9.10407E-001,0.00000E+000,-5.80437E-003,-9.39054E-002,1.00000E+000,36
1029,1337,1.64841E+001,2.74214E-001,-8.26118E-002,1.02227E+001,-4.74782E-001,-1.06880E-001,1.02343E+001,1.82468E-002,4.54113E-001,0,1.55423E+002,-8.57327E+000,9.96120E-001,1.15734E+002,-3.94607E+001,9.95844E-001,2.20861E-001,-9.21943E-002,-1.76794E-005,2.20861E-001,-9.21943E-002,-3.23570E-003,2.21862E-001,1.24659E+000,-3.73559E-002,0.00000E+000,2.75097E-002,9.14061E-001,0.00000E+000,-4.46358E-003,-7.46937E-002,1.00000E+000,36
1029,1347,1.64821E+001,8.72592E-001,-7.30579E-002,1.01978E+001,-5.28401E-001,-1.30887E-001,1.02123E+001,1.76425E-002,4.72777E-001,0,1.55121E+002,-9.39672E+000,9.97278E-001,1.15789E+002,-4.02033E+001,9.96630E-001,2.21415E-001,-9.21702E-002,1.82310E-004,2.21415E-001,-9.21703E-002,3.33102E-002,2.22447E-001,1.24728E+000,-3.73318E-002,0.00000E+000,2.77202E-002,9.14069E-001,0.00000E+000,-2.57986E-003,-7.46278E-002,1.00000E+000,36
1029,1327,1.64973E+001,-3.19116E-001,-5.07433E-002,1.02516E+001,-4.20230E-001,-7.25317E-002,1.02605E+001,1.93018E-002,4.37682E-001,0,1.55735E+002,-7.76842E+000,9.96537E-001,1.15927E+002,-3.87311E+001,9.96185E-001,2.20304E-001,-9.22142E-002,-2.14533E-004,2.20304E-001,-9.22143E-002,-3.93316E-002,2.21275E-001,1.24591E+000,-3.73725E-002,0.00000E+000,2.72997E-002,9.14056E-001,0.00000E+000,-6.34287E-003,-7.47390E-002,1.00000E+000,36
829,1327,7.77182E-002,-5.97622E-001,3.46858E-002,6.89132E+000,-5.73611E-001,8.64520E-002,6.91569E+000,3.37709E-002,5.61030E-001,0,1.05940E+002,-1.00531E+001,9.95929E-001,6.16819E+001,-4.53171E+001,9.95958E-001,2.34372E-001,-9.82493E-002,-2.74919E-003,2.34395E-001,-9.82720E-002,-4.73519E-001,2.35411E-001,1.26412E+000,-3.44136E-003,0.00000E+000,-2.65463E-003,9.10399E-001,0.00000E+000,4.16232E-004,-9.37065E-002,1.00000E+000,36
829,1307,7.58516E-002,-1.74805E+000,2.35868E-001,6.90174E+000,-4.48906E-001,2.21917E-001,6.91989E+000,2.08838E-002,4.56972E-001,0,1.05632E+002,-8.30604E+000,9.96225E-001,6.19073E+001,-4.35589E+001,9.93553E-001,2.34432E-001,-9.82473E-002,-2.65018E-003,2.34453E-001,-9.82684E-002,-4.56390E-001,2.35473E-001,1.26421E+000,-3.44051E-003,0.00000E+000,-2.82060E-003,9.10397E-001,0.00000E+000,4.53276E-003,-9.36674E-002,1.00000E+000,36
829,1317,7.02025E-002,-1.17263E+000,1.10141E-001,6.89303E+000,-5.09123E-001,1.44375E-001,6.91332E+000,2.47132E-002,5.05561E-001,0,1.05768E+002,-9.11950E+000,9.95161E-001,6.16359E+001,-4.43842E+001,9.94817E-001,2.34404E-001,-9.82478E-002,-2.69954E-003,2.34426E-001,-9.82697E-002,-4.64926E-001,2.35444E-001,1.26416E+000,-3.44073E-003,0.00000E+000,-2.73771E-003,9.10398E-001,0.00000E+000,2.47690E-003,-9.36772E-002,1.00000E+000,36
1029,1317,1.65064E+001,-9.15784E-001,-5.06880E-003,1.02722E+001,-3.73730E-001,-4.28977E-002,1.02790E+001,1.99200E-002,4.42420E-001,0,1.55935E+002,-7.05634E+000,9.97977E-001,1.16079E+002,-3.80748E+001,9.96709E-001,2.19746E-001,-9.22316E-002,-4.08880E-004,2.19746E-001,-9.22321E-002,-7.50921E-002,2.20688E-001,1.24522E+000,-3.73845E-002,0.00000E+000,2.70908E-002,9.14053E-001,0.00000E+000,-8.21295E-003,-7.47717E-002,1.00000E+000,36
1029,1307,1.65212E+001,-1.49535E+000,8.12535E-002,1.02958E+001,-3.11994E-001,1.62553E-002,1.03005E+001,1.73538E-002,5.06571E-001,0,1.56058E+002,-6.19939E+000,9.97940E-001,1.16392E+002,-3.72111E+001,9.95792E-001,2.19184E-001,-9.22475E-002,-6.02072E-004,2.19186E-001,-9.22486E-002,-1.10766E-001,2.20099E-001,1.24454E+000,-3.73938E-002,0.00000E+000,2.68821E-002,9.14050E-001,0.00000E+000,-1.00803E-002,-7.47971E-002,1.00000E+000,36
1029,1297,1.65385E+001,-2.06999E+000,1.77930E-001,1.03197E+001,-2.44894E-001,7.61534E-002,1.03229E+001,1.70623E-002,4.54781E-001,0,1.56178E+002,-5.23058E+000,9.97149E-001,1.16762E+002,-3.63499E+001,9.96222E-001,2.18618E-001,-9.22621E-002,-7.94896E-004,2.18620E-001,-9.22641E-002,-1.46499E-001,2.19505E-001,1.24385E+000,-3.74008E-002,0.00000E+000,2.66730E-002,9.14048E-001,0.00000E+000,-1.19512E-002,-7.48162E-002,1.00000E+000,36
819,1317,-7.42526E-001,-1.18336E+000,1.24770E-001,6.72586E+000,-5.15373E-001,1.49457E-001,6.74723E+000,2.41683E-002,4.85027E-001,0,1.03258E+002,-9.20259E+000,9.93802E-001,5.91338E+001,-4.46988E+001,9.93021E-001,2.32824E-001,-9.79377E-002,-2.03416E-003,2.32836E-001,-9.79503E-002,-3.52347E-001,2.33811E-001,1.26216E+000,-3.27871E-003,0.00000E+000,-1.54746E-003,9.10510E-001,0.00000E+000,1.65033E-003,-9.16571E-002,1.00000E+000,36
819,1327,-7.39317E-001,-6.11004E-001,4.20152E-002,6.72213E+000,-5.80438E-001,9.51583E-002,6.74781E+000,2.40435E-002,5.06055E-001,0,1.03388E+002,-1.01396E+001,9.95310E-001,5.90960E+001,-4.56767E+001,9.94994E-001,2.32924E-001,-9.79408E-002,-2.16178E-003,2.32938E-001,-9.79549E-002,-3.74335E-001,2.33917E-001,1.26229E+000,-3.27737E-003,0.00000E+000,-1.62712E-003,9.10509E-001,0.00000E+000,-2.49751E-004,-9.16775E-002,1.00000E+000,36
819,1337,-7.19243E-001,-2.74762E-002,-4.90277E-004,6.72741E+000,-6.40671E-001,4.20233E-002,6.75798E+000,2.04731E-002,5.24325E-001,0,1.03643E+002,-1.09931E+001,9.95000E-001,5.94131E+001,-4.65684E+001,9.94409E-001,2.33020E-001,-9.79469E-002,-2.28957E-003,2.33036E-001,-9.79628E-002,-3.96336E-001,2.34019E-001,1.26241E+000,-3.27453E-003,0.00000E+000,-1.70721E-003,9.10507E-001,0.00000E+000,-2.15993E-003,-9.17210E-002,1.00000E+000,36
819,1307,-7.48689E-001,-1.75491E+000,2.14401E-001,6.72359E+000,-4.52875E-001,1.95475E-001,6.74166E+000,2.27407E-002,4.92203E-001,0,1.03059E+002,-8.28124E+000,9.95558E-001,5.91420E+001,-4.37086E+001,9.94284E-001,2.32721E-001,-9.79359E-002,-1.90678E-003,2.32732E-001,-9.79469E-002,-3.30389E-001,2.33702E-001,1.26204E+000,-3.27947E-003,0.00000E+000,-1.46807E-003,9.10510E-001,0.00000E+000,3.54376E-003,-9.16455E-002,1.00000E+000,36
819,1347,-6.88340E-001,5.67114E-001,-6.93089E-003,6.73812E+000,-6.93784E-001,-2.01620E-003,6.77374E+000,1.97871E-002,5.15311E-001,0,1.03942E+002,-1.17446E+001,9.96785E-001,5.99824E+001,-4.73819E+001,9.96891E-001,2.33114E-001,-9.79552E-002,-2.41745E-003,2.33131E-001,-9.79729E-002,-4.18342E-001,2.34118E-001,1.26254E+000,-3.27066E-003,0.00000E+000,-1.78753E-003,9.10505E-001,0.00000E+000,-4.07581E-003,-9.17802E-002,1.00000E+000,36
819,1357,-6.62134E-001,1.14823E+000,1.81326E-002,6.73668E+000,-7.65622E-001,-5.17761E-002,6.78024E+000,2.45445E-002,5.16885E-001,0,1.04070E+002,-1.27842E+001,9.95683E-001,6.05493E+001,-4.84708E+001,9.95687E-001,2.33204E-001,-9.79665E-002,-2.54545E-003,2.33223E-001,-9.79860E-002,-4.40353E-001,2.34213E-001,1.26266E+000,-3.26536E-003,0.00000E+000,-1.86816E-003,9.10501E-001,0.00000E+000,-5.99896E-003,-9.18612E-002,1.00000E+000,36
1039,1337,1.73042E+001,3.00542E-001,-8.26323E-002,1.03858E+001,-4.55299E-001,-1.06644E-001,1.03963E+001,1.61007E-002,4.52862E-001,0,1.57763E+002,-8.28835E+000,9.97295E-001,1.18495E+002,-3.89467E+001,9.96080E-001,2.20920E-001,-9.17184E-002,-5.18390E-004,2.20921E-001,-9.17192E-002,-9.50025E-002,2.21979E-001,1.24667E+000,-3.71858E-002,0.00000E+000,2.63353E-002,9.14448E-001,0.00000E+000,-2.50477E-003,-7.35103E-002,1.00000E+000,36
1039,1347,1.72988E+001,8.80456E-001,-7.97591E-002,1.03578E+001,-5.25303E-001,-1.35557E-001,1.03720E+001,1.62802E-002,4.13070E-001,0,1.57441E+002,-9.35573E+000,9.98397E-001,1.18482E+002,-3.99884E+001,9.97615E-001,2.21572E-001,-9.17065E-002,-4.06307E-004,2.21572E-001,-9.17070E-002,-7.43097E-002,2.22665E-001,1.24749E+000,-3.71577E-002,0.00000E+000,2.63891E-002,9.14450E-001,0.00000E+000,-7.67841E-004,-7.34503E-002,1.00000E+000,36
1039,1317,1.73201E+001,-8.81101E-001,-5.66765E-003,1.04300E+001,-3.43823E-001,-3.94830E-002,1.04357E+001,1.71933E-002,4.07228E-001,0,1.58179E+002,-6.61535E+000,9.97378E-001,1.18743E+002,-3.74511E+001,9.95920E-001,2.19608E-001,-9.17374E-002,-7.34807E-004,2.19609E-001,-9.17391E-002,-1.35223E-001,2.20598E-001,1.24504E+000,-3.72210E-002,0.00000E+000,2.62279E-002,9.14445E-001,0.00000E+000,-5.97676E-003,-7.35853E-002,1.00000E+000,36
1039,1327,1.73134E+001,-2.95163E-001,-5.01667E-002,1.04111E+001,-4.01418E-001,-7.10015E-002,1.04191E+001,1.49167E-002,4.04156E-001,0,1.58015E+002,-7.50057E+000,9.97568E-001,1.18628E+002,-3.82734E+001,9.96742E-001,2.20263E-001,-9.17284E-002,-6.27819E-004,2.20265E-001,-9.17297E-002,-1.15295E-001,2.21287E-001,1.24585E+000,-3.72058E-002,0.00000E+000,2.62814E-002,9.14446E-001,0.00000E+000,-4.24711E-003,-7.35529E-002,1.00000E+000,36
1039,1307,1.73373E+001,-1.47047E+000,6.41520E-002,1.04566E+001,-2.91094E-001,5.05178E-003,1.04606E+001,1.78424E-002,4.26558E-001,0,1.58405E+002,-5.84784E+000,9.96940E-001,1.19064E+002,-3.67277E+001,9.95930E-001,2.18949E-001,-9.17455E-002,-8.40496E-004,2.18951E-001,-9.17477E-002,-1.54996E-001,2.19906E-001,1.24423E+000,-3.72326E-002,0.00000E+000,2.61745E-002,9.14445E-001,0.00000E+000,-7.70528E-003,-7.36100E-002,1.00000E+000,36
1039,1297,1.73568E+001,-2.05152E+000,1.65225E-001,1.04821E+001,-2.30913E-001,6.68766E-002,1.04848E+001,1.84404E-002,4.18548E-001,0,1.58542E+002,-5.00512E+000,9.95108E-001,1.19473E+002,-3.59553E+001,9.95417E-001,2.18286E-001,-9.17527E-002,-9.44791E-004,2.18289E-001,-9.17555E-002,-1.74597E-001,2.19210E-001,1.24342E+000,-3.72403E-002,0.00000E+000,2.61210E-002,9.14444E-001,0.00000E+000,-9.43453E-003,-7.36263E-002,1.00000E+000,36
1049,1337,1.81323E+001,3.25752E-001,-8.56972E-002,1.05559E+001,-4.34906E-001,-1.12433E-001,1.05654E+001,2.12621E-002,4.45184E-001,0,1.60225E+002,-8.01257E+000,9.98755E-001,1.21381E+002,-3.84456E+001,9.97805E-001,2.20905E-001,-9.16534E-002,-1.28234E-003,2.20910E-001,-9.16586E-002,-2.35064E-001,2.21974E-001,1.24666E+000,-3.69922E-002,0.00000E+000,2.46977E-002,9.14462E-001,0.00000E+000,-1.26089E-003,-7.21452E-002,1.00000E+000,36
1049,1347,1.81386E+001,9.10648E-001,-7.20639E-002,1.05371E+001,-5.03858E-001,-1.40117E-001,1.05500E+001,1.74065E-002,4.50538E-001,0,1.60033E+002,-9.05561E+000,9.98368E-001,1.21565E+002,-3.94084E+001,9.96900E-001,2.21673E-001,-9.16555E-002,-1.27291E-003,2.21679E-001,-9.16606E-002,-2.32762E-001,2.22782E-001,1.24762E+000,-3.69555E-002,0.00000E+000,2.45815E-002,9.14457E-001,0.00000E+000,5.08955E-005,-7.20953E-002,1.00000E+000,36
1049,1307,1.81605E+001,-1.44204E+000,7.77928E-002,1.06201E+001,-2.68268E-001,8.14103E-003,1.06235E+001,2.15515E-002,3.70254E-001,0,1.60728E+002,-5.52064E+000,9.97445E-001,1.21903E+002,-3.62427E+001,9.96752E-001,2.18600E-001,-9.16489E-002,-1.28895E-003,2.18605E-001,-9.16543E-002,-2.38033E-001,2.19553E-001,1.24379E+000,-3.70449E-002,0.00000E+000,2.50439E-002,9.14468E-001,0.00000E+000,-5.16846E-003,-7.22170E-002,1.00000E+000,36
1049,1317,1.81404E+001,-8.56728E-001,9.14669E-004,1.05903E+001,-3.25902E-001,-4.47355E-002,1.05954E+001,1.83277E-002,4.18349E-001,0,1.60488E+002,-6.37308E+000,9.96642E-001,1.21525E+002,-3.69788E+001,9.95074E-001,2.19369E-001,-9.16503E-002,-1.28795E-003,2.19374E-001,-9.16556E-002,-2.37259E-001,2.20360E-001,1.24474E+000,-3.70306E-002,0.00000E+000,2.49287E-002,9.14466E-001,0.00000E+000,-3.86814E-003,-7.21976E-002,1.00000E+000,36
1049,1327,1.81327E+001,-2.77862E-001,-5.28341E-002,1.05735E+001,-3.90220E-001,-7.19479E-002,1.05809E+001,1.20539E-002,3.85186E-001,0,1.60347E+002,-7.33610E+000,9.97897E-001,1.21378E+002,-3.79044E+001,9.96176E-001,2.20137E-001,-9.16516E-002,-1.28739E-003,2.20142E-001,-9.16569E-002,-2.36571E-001,2.21167E-001,1.24570E+000,-3.70172E-002,0.00000E+000,2.48134E-002,9.14465E-001,0.00000E+000,-2.56692E-003,-7.21794E-002,1.00000E+000,36
809,1347,-1.52209E+000,5.51557E-001,-1.68145E-002,6.55270E+000,-7.01843E-001,-7.49659E-003,6.59018E+000,1.59288E-002,4.96370E-001,0,1.01183E+002,-1.18347E+001,9.98183E-001,5.71062E+001,-4.77258E+001,9.98156E-001,2.31787E-001,-9.75647E-002,-2.04522E-003,2.31800E-001,-9.75774E-002,-3.55778E-001,2.32763E-001,1.26086E+000,-3.60246E-003,0.00000E+000,-8.44064E-004,9.10692E-001,0.00000E+000,-4.34672E-003,-8.97355E-002,1.00000E+000,36
809,1357,-1.49491E+000,1.14041E+000,2.26284E-002,6.55174E+000,-7.66801E-001,-4.63890E-002,6.59663E+000,1.87262E-002,4.92732E-001,0,1.01280E+002,-1.27798E+001,9.97268E-001,5.77253E+001,-4.87312E+001,9.96871E-001,2.32051E-001,-9.75871E-002,-2.29031E-003,2.32067E-001,-9.76030E-002,-3.98062E-001,2.33041E-001,1.26121E+000,-3.58760E-003,0.00000E+000,-1.16090E-003,9.10679E-001,0.00000E+000,-6.15884E-003,-8.98134E-002,1.00000E+000,36
809,1327,-1.56112E+000,-6.26526E-001,3.01603E-002,6.54775E+000,-5.91978E-001,8.49566E-002,6.57500E+000,1.47281E-002,5.47340E-001,0,1.00816E+002,-1.02655E+001,9.97800E-001,5.63969E+001,-4.59808E+001,9.96912E-001,2.31253E-001,-9.75367E-002,-1.55535E-003,2.31260E-001,-9.75441E-002,-2.71032E-001,2.32201E-001,1.26018E+000,-3.62048E-003,0.00000E+000,-2.16024E-004,9.10709E-001,0.00000E+000,-7.54668E-004,-8.96411E-002,1.00000E+000,36
809,1337,-1.54001E+000,-4.20715E-002,2.26845E-003,6.55375E+000,-6.49910E-001,4.40840E-002,6.58605E+000,1.39349E-002,5.18602E-001,0,1.01040E+002,-1.11091E+001,9.97688E-001,5.67649E+001,-4.69149E+001,9.97814E-001,2.31521E-001,-9.75493E-002,-1.80030E-003,2.31531E-001,-9.75591E-002,-3.13445E-001,2.32484E-001,1.26052E+000,-3.61249E-003,0.00000E+000,-5.29618E-004,9.10702E-001,0.00000E+000,-2.54825E-003,-8.96829E-002,1.00000E+000,36
809,1307,-1.57062E+000,-1.75577E+000,2.19124E-001,6.54904E+000,-4.48817E-001,2.02137E-001,6.56751E+000,2.72601E-002,5.69671E-001,0,1.00427E+002,-8.24156E+000,9.90429E-001,5.64831E+001,-4.38001E+001,9.89454E-001,2.30708E-001,-9.75265E-002,-1.06361E-003,2.30712E-001,-9.75299E-002,-1.85659E-001,2.31628E-001,1.25949E+000,-3.62622E-003,0.00000E+000,4.08626E-004,9.10714E-001,0.00000E+000,2.81799E-003,-8.96110E-002,1.00000E+000,36
809,1317,-1.56245E+000,-1.18890E+000,1.16086E-001,6.55353E+000,-5.16934E-001,1.43645E-001,6.57546E+000,2.39881E-002,5.53383E-001,0,1.00701E+002,-9.19815E+000,9.96479E-001,5.64732E+001,-4.48400E+001,9.95544E-001,2.30982E-001,-9.75303E-002,-1.30960E-003,2.30987E-001,-9.75355E-002,-2.28403E-001,2.31916E-001,1.25983E+000,-3.62425E-003,0.00000E+000,9.65826E-005,9.10712E-001,0.00000E+000,1.03327E-003,-8.96213E-002,1.00000E+000,36
1049,1297,1.81694E+001,-2.03648E+000,1.59607E-001,1.06376E+001,-2.20668E-001,6.09458E-002,1.06400E+001,1.84524E-002,3.63237E-001,0,1.60785E+002,-4.83799E+000,9.95888E-001,1.22114E+002,-3.56393E+001,9.94277E-001,2.17829E-001,-9.16476E-002,-1.28937E-003,2.17834E-001,-9.16530E-002,-2.38705E-001,2.18744E-001,1.24283E+000,-3.70574E-002,0.00000E+000,2.51591E-002,9.14470E-001,0.00000E+000,-6.46778E-003,-7.22341E-002,1.00000E+000,36
799,1337,-2.36226E+000,-5.03778E-002,-1.29200E-003,6.37914E+000,-6.51638E-001,4.44604E-002,6.41249E+000,1.45943E-002,5.11252E-001,0,9.84220E+001,-1.11127E+001,9.97873E-001,5.40861E+001,-4.71519E+001,9.97924E-001,2.29524E-001,-9.71266E-002,-1.26231E-003,2.29529E-001,-9.71315E-002,-2.21410E-001,2.30431E-001,1.25800E+000,-4.09671E-003,0.00000E+000,8.39202E-004,9.10933E-001,0.00000E+000,-2.86440E-003,-8.77917E-002,1.00000E+000,36
799,1347,-2.34271E+000,5.39321E-001,-1.24146E-002,6.38022E+000,-7.07384E-001,2.64060E-003,6.41932E+000,1.69323E-002,5.05316E-001,0,9.85673E+001,-1.19215E+001,9.97118E-001,5.44716E+001,-4.80342E+001,9.96985E-001,2.29863E-001,-9.71486E-002,-1.61202E-003,2.29871E-001,-9.71566E-002,-2.82433E-001,2.30786E-001,1.25843E+000,-4.08435E-003,0.00000E+000,3.07929E-004,9.10918E-001,0.00000E+000,-4.43432E-003,-8.78365E-002,1.00000E+000,36
799,1357,-2.30940E+000,1.13715E+000,2.29449E-002,6.38546E+000,-7.63044E-001,-4.12430E-002,6.43102E+000,1.73570E-002,4.93545E-001,0,9.87718E+001,-1.27109E+001,9.96396E-001,5.51800E+001,-4.88974E+001,9.95990E-001,2.30201E-001,-9.71811E-002,-1.96187E-003,2.30213E-001,-9.71928E-002,-3.43334E-001,2.31141E-001,1.25887E+000,-4.06556E-003,0.00000E+000,-2.27122E-004,9.10895E-001,0.00000E+000,-6.01541E-003,-8.79045E-002,1.00000E+000,36
799,1327,-2.37414E+000,-6.40598E-001,4.52199E-002,6.38179E+000,-5.98911E-001,1.01710E-001,6.41064E+000,2.27125E-002,5.28325E-001,0,9.82808E+001,-1.03991E+001,9.98304E-001,5.39021E+001,-4.63495E+001,9.97165E-001,2.29183E-001,-9.71087E-002,-9.12236E-004,2.29186E-001,-9.71113E-002,-1.60184E-001,2.30073E-001,1.25757E+000,-4.10645E-003,0.00000E+000,1.36959E-003,9.10945E-001,0.00000E+000,-1.29710E-003,-8.77565E-002,1.00000E+000,36
1059,1327,1.89543E+001,-2.62860E-001,-4.53175E-002,1.07368E+001,-3.81718E-001,-6.62761E-002,1.07438E+001,1.81397E-002,4.04700E-001,0,1.62663E+002,-7.24912E+000,9.98398E-001,1.24184E+002,-3.75738E+001,9.96829E-001,2.20301E-001,-9.20230E-002,-1.64335E-003,2.20310E-001,-9.20316E-002,-3.01461E-001,2.21302E-001,1.24594E+000,-3.59874E-002,0.00000E+000,2.32850E-002,9.14081E-001,0.00000E+000,-9.76509E-004,-7.09075E-002,1.00000E+000,36
1059,1337,1.89570E+001,3.44891E-001,-7.82157E-002,1.07218E+001,-4.22679E-001,-1.08419E-001,1.07307E+001,1.46144E-002,4.28714E-001,0,1.62586E+002,-7.84898E+000,9.99006E-001,1.24235E+002,-3.80669E+001,9.98409E-001,2.21088E-001,-9.20313E-002,-1.69750E-003,2.21097E-001,-9.20405E-002,-3.10604E-001,2.22127E-001,1.24692E+000,-3.59609E-002,0.00000E+000,2.30916E-002,9.14076E-001,0.00000E+000,-1.60430E-004,-7.08855E-002,1.00000E+000,36
1059,1347,1.89663E+001,9.33328E-001,-6.39248E-002,1.07056E+001,-4.87480E-001,-1.36472E-001,1.07176E+001,1.95680E-002,4.03557E-001,0,1.62433E+002,-8.82876E+000,9.98860E-001,1.24466E+002,-3.89897E+001,9.97358E-001,2.21874E-001,-9.20414E-002,-1.74732E-003,2.21884E-001,-9.20511E-002,-3.18907E-001,2.22954E-001,1.24791E+000,-3.59228E-002,0.00000E+000,2.28977E-002,9.14068E-001,0.00000E+000,6.58122E-004,-7.08539E-002,1.00000E+000,36
1059,1297,1.89824E+001,-2.01542E+000,1.41609E-001,1.07950E+001,-2.02718E-001,5.12142E-002,1.07970E+001,1.81432E-002,2.97990E-001,0,1.63068E+002,-4.54740E+000,9.96603E-001,1.24745E+002,-3.52085E+001,9.93461E-001,2.17943E-001,-9.20034E-002,-1.46837E-003,2.17950E-001,-9.20104E-002,-2.71430E-001,2.18829E-001,1.24300E+000,-3.60325E-002,0.00000E+000,2.38630E-002,9.14090E-001,0.00000E+000,-3.41586E-003,-7.09450E-002,1.00000E+000,36
1059,1307,1.89751E+001,-1.42598E+000,6.61557E-002,1.07790E+001,-2.54633E-001,4.73372E-003,1.07820E+001,1.89576E-002,3.11781E-001,0,1.63012E+002,-5.32817E+000,9.97931E-001,1.24568E+002,-3.58975E+001,9.97049E-001,2.18728E-001,-9.20096E-002,-1.52728E-003,2.18736E-001,-9.20171E-002,-2.81601E-001,2.19651E-001,1.24397E+000,-3.60196E-002,0.00000E+000,2.36709E-002,9.14087E-001,0.00000E+000,-2.60532E-003,-7.09342E-002,1.00000E+000,36
1059,1317,1.89534E+001,-8.43916E-001,-8.91043E-003,1.07481E+001,-3.16340E-001,-4.39887E-002,1.07528E+001,2.02336E-002,4.14368E-001,0,1.62743E+002,-6.26507E+000,9.97353E-001,1.24169E+002,-3.66591E+001,9.95171E-001,2.19515E-001,-9.20160E-002,-1.58607E-003,2.19523E-001,-9.20240E-002,-2.91694E-001,2.20476E-001,1.24495E+000,-3.60056E-002,0.00000E+000,2.34782E-002,9.14084E-001,0.00000E+000,-1.79199E-003,-7.09227E-002,1.00000E+000,36
799,1307,-2.37941E+000,-1.76417E+000,2.30622E-001,6.38603E+000,-4.51579E-001,2.09437E-001,6.40540E+000,3.51458E-002,5.45147E-001,0,9.79673E+001,-8.28436E+000,9.93253E-001,5.40479E+001,-4.40717E+001,9.93012E-001,2.28498E-001,-9.70941E-002,-2.11405E-004,2.28498E-001,-9.70942E-002,-3.72019E-002,2.29355E-001,1.25671E+000,-4.11286E-003,0.00000E+000,2.42383E-003,9.10953E-001,0.00000E+000,1.81821E-003,-8.77333E-002,1.00000E+000,36
799,1317,-2.37930E+000,-1.19961E+000,1.20442E-001,6.38516E+000,-5.20189E-001,1.57285E-001,6.40825E+000,2.90566E-002,5.84352E-001,0,9.81405E+001,-9.28446E+000,9.95677E-001,5.38950E+001,-4.51075E+001,9.94879E-001,2.28841E-001,-9.70973E-002,-5.62310E-004,2.28842E-001,-9.70983E-002,-9.88463E-002,2.29715E-001,1.25714E+000,-4.11218E-003,0.00000E+000,1.89746E-003,9.10952E-001,0.00000E+000,2.62767E-004,-8.77358E-002,1.00000E+000,36
789,1327,-3.18640E+000,-6.45885E-001,4.32210E-002,6.21686E+000,-5.97402E-001,1.04948E-001,6.24638E+000,2.20203E-002,5.56774E-001,0,9.57990E+001,-1.03830E+001,9.97483E-001,5.13861E+001,-4.65224E+001,9.96676E-001,2.27179E-001,-9.66639E-002,-5.51883E-004,2.27180E-001,-9.66648E-002,-9.76413E-002,2.28019E-001,1.25505E+000,-4.82067E-003,0.00000E+000,2.59343E-003,9.11215E-001,0.00000E+000,-1.78335E-003,-8.60707E-002,1.00000E+000,36
789,1337,-3.17184E+000,-5.00824E-002,5.89223E-003,6.21636E+000,-6.44806E-001,5.35473E-002,6.24994E+000,1.77728E-002,4.98918E-001,0,9.59511E+001,-1.10059E+001,9.96730E-001,5.16351E+001,-4.72805E+001,9.96609E-001,2.27642E-001,-9.66878E-002,-9.89785E-004,2.27645E-001,-9.66908E-002,-1.74852E-001,2.28503E-001,1.25563E+000,-4.80700E-003,0.00000E+000,1.87293E-003,9.11198E-001,0.00000E+000,-3.06903E-003,-8.61007E-002,1.00000E+000,36
789,1347,-3.14796E+000,5.39135E-001,-6.51347E-003,6.22147E+000,-7.02066E-001,8.22792E-003,6.26097E+000,1.89819E-002,5.26505E-001,0,9.61688E+001,-1.18331E+001,9.95904E-001,5.20851E+001,-4.81522E+001,9.95082E-001,2.28104E-001,-9.67165E-002,-1.42776E-003,2.28111E-001,-9.67228E-002,-2.51840E-001,2.28987E-001,1.25622E+000,-4.79000E-003,0.00000E+000,1.15023E-003,9.11177E-001,0.00000E+000,-4.35863E-003,-8.61380E-002,1.00000E+000,36
789,1357,-3.12333E+000,1.13105E+000,2.03882E-002,6.21955E+000,-7.62447E-001,-3.75797E-002,6.26622E+000,1.74817E-002,5.38836E-001,0,9.62719E+001,-1.27023E+001,9.95012E-001,5.26411E+001,-4.90790E+001,9.94463E-001,2.28567E-001,-9.67557E-002,-1.86516E-003,2.28577E-001,-9.67664E-002,-3.28478E-001,2.29471E-001,1.25681E+000,-4.76593E-003,0.00000E+000,4.24115E-004,9.11147E-001,0.00000E+000,-5.65433E-003,-8.61909E-002,1.00000E+000,36
1069,1327,1.97760E+001,-2.49291E-001,-5.78622E-002,1.09008E+001,-3.74831E-001,-7.59753E-002,1.09076E+001,1.94488E-002,4.33819E-001,0,1.65048E+002,-7.14554E+000,9.98079E-001,1.26963E+002,-3.72171E+001,9.96045E-001,2.20539E-001,-9.20872E-002,-1.97401E-003,2.20551E-001,-9.20996E-002,-3.61762E-001,2.21548E-001,1.24626E+000,-3.51526E-002,0.00000E+000,2.19827E-002,9.13993E-001,0.00000E+000,1.75657E-004,-6.99505E-002,1.00000E+000,36
1069,1337,1.97706E+001,3.53560E-001,-7.96009E-002,1.08785E+001,-4.18856E-001,-1.03299E-001,1.08870E+001,1.24394E-002,3.94987E-001,0,1.64806E+002,-7.81705E+000,9.98527E-001,1.26904E+002,-3.78412E+001,9.97600E-001,2.21255E-001,-9.20984E-002,-2.06148E-003,2.21269E-001,-9.21120E-002,-3.76914E-001,2.22300E-001,1.24716E+000,-3.51295E-002,0.00000E+000,2.17607E-002,9.13987E-001,0.00000E+000,5.55310E-004,-6.99407E-002,1.00000E+000,36
1069,1347,1.97747E+001,9.46761E-001,-8.23278E-002,1.08588E+001,-4.78809E-001,-1.40606E-001,1.08703E+001,1.29085E-002,4.24582E-001,0,1.64638E+002,-8.71635E+000,9.98809E-001,1.27025E+002,-3.86241E+001,9.97916E-001,2.21975E-001,-9.21119E-002,-2.14584E-003,2.21990E-001,-9.21266E-002,-3.91421E-001,2.23056E-001,1.24806E+000,-3.50969E-002,0.00000E+000,2.15373E-002,9.13979E-001,0.00000E+000,9.37375E-004,-6.99269E-002,1.00000E+000,36
789,1307,-3.18319E+000,-1.77481E+000,2.28519E-001,6.22977E+000,-4.56051E-001,2.14193E-001,6.25011E+000,2.30225E-002,5.22174E-001,0,9.56193E+001,-8.33421E+000,9.95670E-001,5.16631E+001,-4.43478E+001,9.92432E-001,2.26252E-001,-9.66436E-002,3.25029E-004,2.26253E-001,-9.66439E-002,5.76742E-002,2.27052E-001,1.25388E+000,-4.82951E-003,0.00000E+000,4.02446E-003,9.11226E-001,0.00000E+000,7.70223E-004,-8.60513E-002,1.00000E+000,36
789,1317,-3.18836E+000,-1.21474E+000,1.38399E-001,6.22084E+000,-5.30175E-001,1.67685E-001,6.24565E+000,2.39825E-002,5.60907E-001,0,9.56475E+001,-9.44313E+000,9.95785E-001,5.14747E+001,-4.54985E+001,9.92265E-001,2.26716E-001,-9.66524E-002,-1.13443E-004,2.26716E-001,-9.66524E-002,-2.01002E-002,2.27536E-001,1.25446E+000,-4.82607E-003,0.00000E+000,3.30956E-003,9.11221E-001,0.00000E+000,-5.05461E-004,-8.60588E-002,1.00000E+000,36
1069,1297,1.97822E+001,-1.99716E+000,1.20773E-001,1.09404E+001,-1.87769E-001,4.62004E-002,1.09422E+001,2.33463E-002,3.51074E-001,0,1.65154E+002,-4.35132E+000,9.94418E-001,1.27170E+002,-3.47578E+001,9.90212E-001,2.18386E-001,-9.20589E-002,-1.70243E-003,2.18395E-001,-9.20683E-002,-3.14189E-001,2.19289E-001,1.24357E+000,-3.51984E-002,0.00000E+000,2.26487E-002,9.14004E-001,0.00000E+000,-9.63175E-004,-6.99699E-002,1.00000E+000,36
1069,1307,1.97799E+001,-1.41133E+000,3.93036E-002,1.09307E+001,-2.42637E-001,-1.34769E-003,1.09334E+001,1.58541E-002,3.23314E-001,0,1.65200E+002,-5.15860E+000,9.97754E-001,1.27063E+002,-3.55080E+001,9.96127E-001,2.19101E-001,-9.20671E-002,-1.79444E-003,2.19111E-001,-9.20775E-002,-3.30398E-001,2.20038E-001,1.24446E+000,-3.51881E-002,0.00000E+000,2.24278E-002,9.14002E-001,0.00000E+000,-5.85414E-004,-6.99656E-002,1.00000E+000,36
1069,1317,1.97800E+001,-8.21841E-001,-1.21202E-002,1.09179E+001,-3.00113E-001,-4.10259E-002,1.09221E+001,1.60839E-002,4.39229E-001,0,1.65162E+002,-6.04559E+000,9.98569E-001,1.27040E+002,-3.61940E+001,9.96532E-001,2.19820E-001,-9.20771E-002,-1.88425E-003,2.19831E-001,-9.20885E-002,-3.46123E-001,2.20793E-001,1.24536E+000,-3.51705E-002,0.00000E+000,2.22053E-002,9.13997E-001,0.00000E+000,-2.04945E-004,-6.99581E-002,1.00000E+000,36
779,1327,-3.99151E+000,-6.44699E-001,5.26511E-002,6.05765E+000,-5.92039E-001,1.14750E-001,6.08760E+000,3.06770E-002,5.80854E-001,0,9.33784E+001,-1.02903E+001,9.97141E-001,4.90144E+001,-4.66216E+001,9.95915E-001,2.25082E-001,-9.58878E-002,-5.18727E-004,2.25083E-001,-9.58886E-002,-9.25967E-002,2.25903E-001,1.25241E+000,-5.85182E-003,0.00000E+000,3.43216E-003,9.11791E-001,0.00000E+000,-2.10523E-003,-8.44049E-002,1.00000E+000,36
779,1337,-3.97553E+000,-6.62626E-002,9.48534E-003,6.05905E+000,-6.55484E-001,5.91699E-002,6.09469E+000,1.72589E-002,5.26571E-001,0,9.35774E+001,-1.11686E+001,9.95915E-001,4.92686E+001,-4.76348E+001,9.95604E-001,2.25764E-001,-9.59188E-002,-1.08296E-003,2.25768E-001,-9.59224E-002,-1.92886E-001,2.26616E-001,1.25327E+000,-5.83236E-003,0.00000E+000,2.44872E-003,9.11769E-001,0.00000E+000,-3.10835E-003,-8.44276E-002,1.00000E+000,36
779,1347,-3.95851E+000,5.29044E-001,-4.76117E-003,6.05693E+000,-7.05711E-001,9.07151E-003,6.09791E+000,2.11755E-002,5.27505E-001,0,9.36955E+001,-1.18786E+001,9.94268E-001,4.96114E+001,-4.84248E+001,9.93485E-001,2.26447E-001,-9.59574E-002,-1.64665E-003,2.26456E-001,-9.59658E-002,-2.92622E-001,2.27331E-001,1.25413E+000,-5.80684E-003,0.00000E+000,1.46213E-003,9.11740E-001,0.00000E+000,-4.11469E-003,-8.44574E-002,1.00000E+000,36
779,1357,-3.93696E+000,1.12599E+000,2.20383E-002,6.05287E+000,-7.60635E-001,-3.30704E-002,6.10056E+000,1.72648E-002,5.51951E-001,0,9.37526E+001,-1.26712E+001,9.94909E-001,5.01228E+001,-4.92702E+001,9.94856E-001,2.27132E-001,-9.60071E-002,-2.21063E-003,2.27147E-001,-9.60223E-002,-3.91942E-001,2.28050E-001,1.25500E+000,-5.77271E-003,0.00000E+000,4.69280E-004,9.11700E-001,0.00000E+000,-5.12741E-003,-8.44972E-002,1.00000E+000,36
779,1317,-3.98226E+000,-1.20611E+000,1.38053E-001,6.07266E+000,-5.15716E-001,1.66870E-001,6.09680E+000,2.95728E-002,5.29947E-001,0,9.34289E+001,-9.19067E+000,9.97790E-001,4.92547E+001,-4.54859E+001,9.96469E-001,2.24398E-001,-9.58721E-002,4.92330E-005,2.24398E-001,-9.58722E-002,8.80769E-003,2.25189E-001,1.25156E+000,-5.85952E-003,0.00000E+000,4.41401E-003,9.11800E-001,0.00000E+000,-1.10373E-003,-8.43959E-002,1.00000E+000,36
1079,1337,2.05897E+001,3.70284E-001,-9.81651E-002,1.10397E+001,-4.08548E-001,-1.18190E-001,1.10478E+001,2.10129E-002,4.06493E-001,0,1.67163E+002,-7.64722E+000,9.97187E-001,1.29639E+002,-3.74297E+001,9.97299E-001,2.21774E-001,-9.23586E-002,-2.39269E-003,2.21793E-001,-9.23768E-002,-4.36378E-001,2.22821E-001,1.24783E+000,-3.42546E-002,0.00000E+000,2.04680E-002,9.13736E-001,0.00000E+000,9.31033E-004,-6.92450E-002,1.00000E+000,36
1079,1347,2.06003E+001,9.63877E-001,-8.83624E-002,1.10260E+001,-4.68291E-001,-1.43364E-001,1.10369E+001,1.17548E-002,4.25738E-001,0,1.67039E+002,-8.56808E+000,9.98853E-001,1.29877E+002,-3.82367E+001,9.98823E-001,2.22424E-001,-9.23785E-002,-2.53158E-003,2.22444E-001,-9.23989E-002,-4.60721E-001,2.23504E-001,1.24864E+000,-3.42249E-002,0.00000E+000,2.01751E-002,9.13726E-001,0.00000E+000,8.82815E-004,-6.92468E-002,1.00000E+000,36
1079,1297,2.06068E+001,-1.97266E+000,1.28855E-001,1.11066E+001,-1.69179E-001,5.41521E-002,1.11080E+001,2.22253E-002,4.27955E-001,0,1.67488E+002,-4.13595E+000,9.95988E-001,1.30035E+002,-3.42571E+001,9.93876E-001,2.19186E-001,-9.23011E-002,-1.81836E-003,2.19197E-001,-9.23118E-002,-3.34458E-001,2.20104E-001,1.24460E+000,-3.43162E-002,0.00000E+000,2.16321E-002,9.13759E-001,0.00000E+000,1.12265E-003,-6.92414E-002,1.00000E+000,36
1079,1307,2.05962E+001,-1.39720E+000,3.57965E-002,1.10898E+001,-2.34433E-001,1.01734E-003,1.10923E+001,1.83544E-002,3.61018E-001,0,1.67458E+002,-5.06167E+000,9.97928E-001,1.29778E+002,-3.51623E+001,9.96535E-001,2.19831E-001,-9.23125E-002,-1.96434E-003,2.19844E-001,-9.23248E-002,-3.60547E-001,2.20781E-001,1.24540E+000,-3.43085E-002,0.00000E+000,2.13424E-002,9.13756E-001,0.00000E+000,1.07496E-003,-6.92418E-002,1.00000E+000,36
1079,1327,2.05938E+001,-2.33775E-001,-7.20947E-002,1.10603E+001,-3.65493E-001,-8.86209E-002,1.10667E+001,2.25874E-002,4.21287E-001,0,1.67369E+002,-6.98764E+000,9.97687E-001,1.29685E+002,-3.68480E+001,9.96994E-001,2.21128E-001,-9.23423E-002,-2.25103E-003,2.21144E-001,-9.23585E-002,-4.11412E-001,2.22142E-001,1.24702E+000,-3.42750E-002,0.00000E+000,2.07592E-002,9.13744E-001,0.00000E+000,9.78958E-004,-6.92438E-002,1.00000E+000,36
1079,1317,2.05915E+001,-8.04364E-001,-2.63333E-002,1.10723E+001,-2.88933E-001,-4.86388E-002,1.10762E+001,1.79417E-002,4.14732E-001,0,1.67389E+002,-5.84694E+000,9.97584E-001,1.29665E+002,-3.58032E+001,9.96966E-001,2.20480E-001,-9.23270E-002,-2.10814E-003,2.20494E-001,-9.23412E-002,-3.86117E-001,2.21462E-001,1.24621E+000,-3.42927E-002,0.00000E+000,2.10507E-002,9.13750E-001,0.00000E+000,1.02694E-003,-6.92428E-002,1.00000E+000,36
779,1307,-3.99592E+000,-1.79102E+000,2.43639E-001,6.06248E+000,-4.67872E-001,2.27825E-001,6.08477E+000,2.09246E-002,5.35576E-001,0,9.30702E+001,-8.52556E+000,9.97267E-001,4.91861E+001,-4.47295E+001,9.94895E-001,2.23717E-001,-9.58601E-002,6.14689E-004,2.23718E-001,-9.58613E-002,1.10205E-001,2.24480E-001,1.25070E+000,-5.86421E-003,0.00000E+000,5.38941E-003,9.11805E-001,0.00000E+000,-1.08799E-004,-8.43904E-002,1.00000E+000,36
1089,1337,2.14067E+001,3.91195E-001,-1.11055E-001,1.11981E+001,-3.94684E-001,-1.27174E-001,1.12058E+001,1.82057E-002,4.60292E-001,0,1.69452E+002,-7.44666E+000,9.96692E-001,1.32353E+002,-3.69452E+001,9.96318E-001,2.22871E-001,-9.27344E-002,-2.48947E-003,2.22891E-001,-9.27540E-002,-4.51907E-001,2.23934E-001,1.24924E+000,-3.29297E-002,0.00000E+000,1.92699E-002,9.13345E-001,0.00000E+000,1.28497E-003,-6.80559E-002,1.00000E+000,36
1089,1347,2.14163E+001,9.84235E-001,-9.89780E-002,1.11835E+001,-4.54149E-001,-1.49635E-001,1.11938E+001,1.26784E-002,4.16873E-001,0,1.69303E+002,-8.35390E+000,9.98347E-001,1.32578E+002,-3.77954E+001,9.97678E-001,2.23603E-001,-9.27598E-002,-2.67334E-003,2.23626E-001,-9.27824E-002,-4.84116E-001,2.24703E-001,1.25015E+000,-3.28961E-002,0.00000E+000,1.89064E-002,9.13332E-001,0.00000E+000,9.61334E-004,-6.80678E-002,1.00000E+000,36
769,1347,-4.76851E+000,5.18178E-001,-1.23026E-003,5.89327E+000,-7.10269E-001,1.57207E-002,5.93594E+000,1.76009E-002,5.18073E-001,0,9.12148E+001,-1.19354E+001,9.94698E-001,4.71558E+001,-4.87186E+001,9.94924E-001,2.24217E-001,-9.52393E-002,-1.70763E-003,2.24226E-001,-9.52484E-002,-3.06259E-001,2.25070E-001,1.25133E+000,-6.64060E-003,0.00000E+000,1.93532E-003,9.12285E-001,0.00000E+000,-3.79163E-003,-8.30267E-002,1.00000E+000,36
769,1357,-4.74352E+000,1.11900E+000,2.06442E-002,5.89321E+000,-7.60910E-001,-2.95751E-002,5.94221E+000,1.70963E-002,5.51795E-001,0,9.13421E+001,-1.26577E+001,9.96023E-001,4.77114E+001,-4.94902E+001,9.96229E-001,2.24758E-001,-9.52869E-002,-2.25421E-003,2.24774E-001,-9.53028E-002,-4.03531E-001,2.25638E-001,1.25202E+000,-6.61431E-003,0.00000E+000,9.69226E-004,9.12248E-001,0.00000E+000,-4.67633E-003,-8.30608E-002,1.00000E+000,36
769,1327,-4.79526E+000,-6.53615E-001,6.89454E-002,5.89707E+000,-5.95977E-001,1.19160E-001,5.92830E+000,2.24590E-002,5.67555E-001,0,9.09507E+001,-1.03515E+001,9.96663E-001,4.66847E+001,-4.69100E+001,9.95043E-001,2.23138E-001,-9.51763E-002,-6.15052E-004,2.23139E-001,-9.51775E-002,-1.10707E-001,2.23941E-001,1.24998E+000,-6.67271E-003,0.00000E+000,3.85262E-003,9.12331E-001,0.00000E+000,-2.03587E-003,-8.29852E-002,1.00000E+000,36
769,1337,-4.78684E+000,-8.28720E-002,1.18583E-002,5.89345E+000,-6.66365E-001,6.23231E-002,5.93134E+000,1.56143E-002,5.16905E-001,0,9.10804E+001,-1.13159E+001,9.96056E-001,4.67875E+001,-4.80130E+001,9.95796E-001,2.23678E-001,-9.52024E-002,-1.16202E-003,2.23682E-001,-9.52067E-002,-2.08786E-001,2.24505E-001,1.25066E+000,-6.66005E-003,0.00000E+000,2.89511E-003,9.12313E-001,0.00000E+000,-2.91270E-003,-8.30016E-002,1.00000E+000,36
1089,1327,2.14082E+001,-2.04106E-001,-9.12187E-002,1.12180E+001,-3.39287E-001,-9.73134E-002,1.12235E+001,1.98171E-002,4.16891E-001,0,1.69642E+002,-6.60588E+000,9.96580E-001,1.32352E+002,-3.62451E+001,9.95618E-001,2.22139E-001,-9.27125E-002,-2.30244E-003,2.22155E-001,-9.27294E-002,-4.18962E-001,2.23163E-001,1.24832E+000,-3.29552E-002,0.00000E+000,1.96334E-002,9.13355E-001,0.00000E+000,1.60854E-003,-6.80469E-002,1.00000E+000,36
1089,1317,2.14144E+001,-7.95641E-001,-3.63347E-002,1.12371E+001,-2.85098E-001,-5.44230E-002,1.12409E+001,1.80328E-002,4.39711E-001,0,1.69763E+002,-5.81841E+000,9.97798E-001,1.32477E+002,-3.55313E+001,9.97398E-001,2.21409E-001,-9.26941E-002,-2.11351E-003,2.21423E-001,-9.27083E-002,-3.85503E-001,2.22397E-001,1.24741E+000,-3.29732E-002,0.00000E+000,1.99949E-002,9.13362E-001,0.00000E+000,1.93038E-003,-6.80406E-002,1.00000E+000,36
1089,1297,2.14307E+001,-1.94943E+000,1.30035E-001,1.12717E+001,-1.52555E-001,5.60179E-002,1.12729E+001,1.61016E-002,4.48676E-001,0,1.69826E+002,-3.89821E+000,9.97997E-001,1.32881E+002,-3.37897E+001,9.97652E-001,2.19950E-001,-9.26618E-002,-1.73230E-003,2.19960E-001,-9.26714E-002,-3.17484E-001,2.20866E-001,1.24559E+000,-3.29987E-002,0.00000E+000,2.07163E-002,9.13372E-001,0.00000E+000,2.57263E-003,-6.80316E-002,1.00000E+000,36
1089,1307,2.14196E+001,-1.37699E+000,3.01875E-002,1.12541E+001,-2.21373E-001,-5.24275E-003,1.12562E+001,1.52991E-002,4.15416E-001,0,1.69818E+002,-4.87670E+000,9.98429E-001,1.32607E+002,-3.47089E+001,9.98391E-001,2.20679E-001,-9.26763E-002,-1.92396E-003,2.20691E-001,-9.26882E-002,-3.51772E-001,2.21630E-001,1.24650E+000,-3.29895E-002,0.00000E+000,2.03562E-002,9.13369E-001,0.00000E+000,2.25209E-003,-6.80348E-002,1.00000E+000,36
769,1317,-4.80288E+000,-1.21723E+000,1.41123E-001,5.89747E+000,-5.23770E-001,1.70535E-001,5.92314E+000,2.58896E-002,5.36030E-001,0,9.07841E+001,-9.26849E+000,9.97749E-001,4.66331E+001,-4.57705E+001,9.97567E-001,2.22600E-001,-9.51567E-002,-6.97706E-005,2.22600E-001,-9.51567E-002,-1.25806E-002,2.23379E-001,1.24930E+000,-6.68116E-003,0.00000E+000,4.80429E-003,9.12343E-001,0.00000E+000,-1.16438E-003,-8.29743E-002,1.00000E+000,36
1099,1327,2.22206E+001,-1.86775E-001,-9.51689E-002,1.13732E+001,-3.27256E-001,-9.11814E-002,1.13783E+001,2.20356E-002,4.36391E-001,0,1.71821E+002,-6.45857E+000,9.93284E-001,1.35016E+002,-3.58554E+001,9.90663E-001,2.23374E-001,-9.30473E-002,-2.43044E-003,2.23392E-001,-9.30659E-002,-4.40057E-001,2.24426E-001,1.24989E+000,-3.19698E-002,0.00000E+000,1.86106E-002,9.13075E-001,0.00000E+000,2.12573E-003,-6.81074E-002,1.00000E+000,36
1099,1337,2.22299E+001,4.13996E-001,-1.06509E-001,1.13623E+001,-3.77623E-001,-1.19484E-001,1.13692E+001,2.13635E-002,4.59174E-001,0,1.71754E+002,-7.22972E+000,9.94407E-001,1.35198E+002,-3.64966E+001,9.94119E-001,2.24275E-001,-9.30697E-002,-2.61113E-003,2.24296E-001,-9.30912E-002,-4.71391E-001,2.25373E-001,1.25102E+000,-3.19353E-002,0.00000E+000,1.82479E-002,9.13064E-001,0.00000E+000,1.82056E-003,-6.81167E-002,1.00000E+000,36
1099,1347,2.22416E+001,1.01230E+000,-9.55248E-002,1.13477E+001,-4.33650E-001,-1.51405E-001,1.13569E+001,1.67168E-002,4.62201E-001,0,1.71638E+002,-8.08137E+000,9.96528E-001,1.35453E+002,-3.72379E+001,9.96020E-001,2.25177E-001,-9.30960E-002,-2.78806E-003,2.25201E-001,-9.31204E-002,-5.01859E-001,2.26322E-001,1.25215E+000,-3.18902E-002,0.00000E+000,1.78844E-002,9.13049E-001,0.00000E+000,1.51469E-003,-6.81289E-002,1.00000E+000,36
759,1347,-5.56909E+000,5.15048E-001,-6.42605E-004,5.73872E+000,-7.07365E-001,2.00360E-002,5.78219E+000,1.57455E-002,5.16460E-001,0,8.88762E+001,-1.18708E+001,9.94727E-001,4.48452E+001,-4.88818E+001,9.94802E-001,2.22031E-001,-9.46510E-002,-1.66053E-003,2.22040E-001,-9.46597E-002,-3.00421E-001,2.22842E-001,1.24860E+000,-7.21742E-003,0.00000E+000,2.42007E-003,9.12758E-001,0.00000E+000,-3.37202E-003,-8.21826E-002,1.00000E+000,36
759,1357,-5.55007E+000,1.10905E+000,1.73967E-002,5.73321E+000,-7.64253E-001,-2.75442E-002,5.78399E+000,1.72084E-002,5.45357E-001,0,8.89282E+001,-1.26834E+001,9.95298E-001,4.53004E+001,-4.97551E+001,9.95149E-001,2.22305E-001,-9.46859E-002,-2.06547E-003,2.22319E-001,-9.46993E-002,-3.73309E-001,2.23130E-001,1.24894E+000,-7.20434E-003,0.00000E+000,1.72254E-003,9.12731E-001,0.00000E+000,-4.21189E-003,-8.22142E-002,1.00000E+000,36
1099,1297,2.22452E+001,-1.93995E+000,1.03061E-001,1.14287E+001,-1.48170E-001,3.70466E-002,1.14297E+001,1.53891E-002,4.89939E-001,0,1.72130E+002,-3.82121E+000,9.96978E-001,1.35541E+002,-3.34667E+001,9.95257E-001,2.20682E-001,-9.29981E-002,-1.87250E-003,2.20693E-001,-9.30093E-002,-3.42009E-001,2.21600E-001,1.24653E+000,-3.20230E-002,0.00000E+000,1.96914E-002,9.13092E-001,0.00000E+000,3.03505E-003,-6.80930E-002,1.00000E+000,36
1099,1307,2.22397E+001,-1.35746E+000,2.02329E-002,1.14166E+001,-2.07562E-001,-7.08556E-003,1.14185E+001,1.76433E-002,4.62327E-001,0,1.72134E+002,-4.68898E+000,9.97714E-001,1.35382E+002,-3.42608E+001,9.96852E-001,2.21579E-001,-9.30122E-002,-2.06064E-003,2.21592E-001,-9.30257E-002,-3.75278E-001,2.22540E-001,1.24765E+000,-3.20116E-002,0.00000E+000,1.93318E-002,9.13088E-001,0.00000E+000,2.73250E-003,-6.80960E-002,1.00000E+000,36
1099,1317,2.22283E+001,-7.75151E-001,-5.58554E-002,1.13947E+001,-2.69341E-001,-6.05860E-002,1.13980E+001,2.30264E-002,4.52016E-001,0,1.72023E+002,-5.58148E+000,9.95971E-001,1.35141E+002,-3.50639E+001,9.94036E-001,2.22476E-001,-9.30287E-002,-2.24648E-003,2.22492E-001,-9.30447E-002,-4.07934E-001,2.23482E-001,1.24877E+000,-3.19936E-002,0.00000E+000,1.89716E-002,9.13082E-001,0.00000E+000,2.42942E-003,-6.81009E-002,1.00000E+000,36
759,1327,-5.60638E+000,-6.67105E-001,6.55734E-002,5.73091E+000,-6.03530E-001,1.15265E-001,5.76375E+000,1.87599E-002,5.41898E-001,0,8.84630E+001,-1.04338E+001,9.96379E-001,4.41989E+001,-4.72339E+001,9.97058E-001,2.21483E-001,-9.46054E-002,-8.52218E-004,2.21486E-001,-9.46077E-002,-1.54476E-001,2.22268E-001,1.24791E+000,-7.23316E-003,0.00000E+000,3.80562E-003,9.12789E-001,0.00000E+000,-1.70374E-003,-8.21446E-002,1.00000E+000,36
759,1337,-5.58810E+000,-7.55416E-002,1.91832E-002,5.73697E+000,-6.53360E-001,6.76275E-002,5.77445E+000,1.53938E-002,5.37667E-001,0,8.87051E+001,-1.11185E+001,9.95277E-001,4.44837E+001,-4.80166E+001,9.95466E-001,2.21757E-001,-9.46251E-002,-1.25646E-003,2.21762E-001,-9.46301E-002,-2.27535E-001,2.22555E-001,1.24825E+000,-7.22663E-003,0.00000E+000,3.11360E-003,9.12776E-001,0.00000E+000,-2.53697E-003,-8.21604E-002,1.00000E+000,36
759,1317,-5.60931E+000,-1.23612E+000,1.51805E-001,5.73501E+000,-5.37105E-001,1.75889E-001,5.76279E+000,2.41359E-002,5.83635E-001,0,8.83265E+001,-9.50704E+000,9.96756E-001,4.42528E+001,-4.61686E+001,9.97055E-001,2.21210E-001,-9.45921E-002,-4.49505E-004,2.21211E-001,-9.45927E-002,-8.15532E-002,2.21982E-001,1.24756E+000,-7.23692E-003,0.00000E+000,4.49319E-003,9.12797E-001,0.00000E+000,-8.75867E-004,-8.21355E-002,1.00000E+000,36
749,1317,-6.40345E+000,-1.23995E+000,1.67549E-001,5.58321E+000,-5.37673E-001,1.80045E-001,5.61193E+000,1.78259E-002,5.65928E-001,0,8.60287E+001,-9.49098E+000,9.97137E-001,4.20835E+001,-4.63765E+001,9.96002E-001,2.19745E-001,-9.40730E-002,-7.04062E-004,2.19746E-001,-9.40745E-002,-1.28544E-001,2.20502E-001,1.24574E+000,-7.22858E-003,0.00000E+000,4.02581E-003,9.13219E-001,0.00000E+000,-8.72962E-004,-8.14023E-002,1.00000E+000,36
749,1327,-6.40056E+000,-6.66543E-001,6.82806E-002,5.58068E+000,-5.98941E-001,1.14499E-001,5.61390E+000,1.51102E-002,5.31383E-001,0,8.62032E+001,-1.03207E+001,9.95793E-001,4.19968E+001,-4.73447E+001,9.95931E-001,2.19795E-001,-9.40813E-002,-1.00660E-003,2.19799E-001,-9.40845E-002,-1.83745E-001,2.20556E-001,1.24580E+000,-7.22803E-003,0.00000E+000,3.51476E-003,9.13215E-001,0.00000E+000,-1.54299E-003,-8.14080E-002,1.00000E+000,36
749,1337,-6.39156E+000,-7.81489E-002,2.20588E-002,5.57780E+000,-6.50904E-001,6.80806E-002,5.61606E+000,1.48384E-002,5.70236E-001,0,8.63032E+001,-1.10718E+001,9.95940E-001,4.21388E+001,-4.81583E+001,9.96052E-001,2.19846E-001,-9.40957E-002,-1.31050E-003,2.19851E-001,-9.41011E-002,-2.39166E-001,2.20609E-001,1.24587E+000,-7.22684E-003,0.00000E+000,3.00100E-003,9.13205E-001,0.00000E+000,-2.21657E-003,-8.14204E-002,1.00000E+000,36
749,1347,-6.37684E+000,5.08964E-001,-2.61294E-003,5.57612E+000,-7.07179E-001,1.93271E-002,5.62081E+000,1.65408E-002,5.16147E-001,0,8.64257E+001,-1.18463E+001,9.96166E-001,4.24230E+001,-4.90855E+001,9.96146E-001,2.19896E-001,-9.41142E-002,-1.61489E-003,2.19904E-001,-9.41225E-002,-2.94651E-001,2.20662E-001,1.24593E+000,-7.22520E-003,0.00000E+000,2.48611E-003,9.13192E-001,0.00000E+000,-2.89162E-003,-8.14375E-002,1.00000E+000,36
1109,1297,2.30667E+001,-1.92216E+000,9.86612E-002,1.15940E+001,-1.33308E-001,4.75231E-002,1.15949E+001,1.62218E-002,5.04224E-001,0,1.74434E+002,-3.65245E+000,9.95762E-001,1.38351E+002,-3.30757E+001,9.92942E-001,2.21603E-001,-9.36378E-002,-1.90806E-003,2.21615E-001,-9.36494E-002,-3.46777E-001,2.22498E-001,1.24773E+000,-3.03462E-002,0.00000E+000,1.83292E-002,9.12531E-001,0.00000E+000,3.70615E-003,-6.80218E-002,1.00000E+000,36
1109,1307,2.30581E+001,-1.33895E+000,9.15783E-003,1.15788E+001,-1.91904E-001,-3.08206E-003,1.15804E+001,1.83076E-002,4.43147E-001,0,1.74419E+002,-4.48231E+000,9.96538E-001,1.38134E+002,-3.38596E+001,9.95545E-001,2.22576E-001,-9.36482E-002,-2.04804E-003,2.22589E-001,-9.36615E-002,-3.71058E-001,2.23518E-001,1.24894E+000,-3.03338E-002,0.00000E+000,1.80683E-002,9.12529E-001,0.00000E+000,3.23088E-003,-6.80266E-002,1.00000E+000,36
1109,1317,2.30485E+001,-7.55084E-001,-5.90538E-002,1.15588E+001,-2.52455E-001,-4.79733E-002,1.15617E+001,2.13844E-002,4.37724E-001,0,1.74304E+002,-5.37453E+000,9.94858E-001,1.37934E+002,-3.46511E+001,9.93318E-001,2.23550E-001,-9.36604E-002,-2.18562E-003,2.23565E-001,-9.36755E-002,-3.94751E-001,2.24540E-001,1.25016E+000,-3.03144E-002,0.00000E+000,1.78067E-002,9.12524E-001,0.00000E+000,2.75439E-003,-6.80343E-002,1.00000E+000,36
749,1357,-6.35259E+000,1.10237E+000,2.36084E-002,5.57635E+000,-7.63860E-001,-1.85659E-002,5.62846E+000,2.00862E-002,5.34285E-001,0,8.65359E+001,-1.26780E+001,9.95934E-001,4.29812E+001,-4.99924E+001,9.95711E-001,2.19945E-001,-9.41398E-002,-1.92090E-003,2.19957E-001,-9.41516E-002,-3.50395E-001,2.20715E-001,1.24600E+000,-7.22280E-003,0.00000E+000,1.96804E-003,9.13173E-001,0.00000E+000,-3.57085E-003,-8.14626E-002,1.00000E+000,36
1109,1327,2.30416E+001,-1.69447E-001,-1.01764E-001,1.15367E+001,-3.14211E-001,-8.71180E-002,1.15413E+001,1.90880E-002,4.25311E-001,0,1.74127E+002,-6.29211E+000,9.93160E-001,1.37815E+002,-3.54744E+001,9.91687E-001,2.24525E-001,-9.36749E-002,-2.32010E-003,2.24542E-001,-9.36918E-002,-4.17733E-001,2.25564E-001,1.25138E+000,-3.02861E-002,0.00000E+000,1.75445E-002,9.12518E-001,0.00000E+000,2.27661E-003,-6.80454E-002,1.00000E+000,36
1109,1337,2.30434E+001,4.31358E-001,-1.19695E-001,1.15178E+001,-3.65162E-001,-1.23270E-001,1.15243E+001,2.01212E-002,4.78204E-001,0,1.73972E+002,-7.06626E+000,9.95836E-001,1.37867E+002,-3.60846E+001,9.95817E-001,2.25503E-001,-9.36919E-002,-2.45139E-003,2.25522E-001,-9.37107E-002,-4.39993E-001,2.26592E-001,1.25260E+000,-3.02478E-002,0.00000E+000,1.72810E-002,9.12510E-001,0.00000E+000,1.79662E-003,-6.80603E-002,1.00000E+000,36
1109,1347,2.30628E+001,1.02926E+000,-8.76053E-002,1.15073E+001,-4.24137E-001,-1.47997E-001,1.15160E+001,1.86938E-002,4.82253E-001,0,1.73885E+002,-7.97667E+000,9.96741E-001,1.38272E+002,-3.68760E+001,9.95551E-001,2.26484E-001,-9.37134E-002,-2.57649E-003,2.26504E-001,-9.37341E-002,-4.60995E-001,2.27623E-001,1.25383E+000,-3.01923E-002,0.00000E+000,1.70164E-002,9.12498E-001,0.00000E+000,1.31461E-003,-6.80821E-002,1.00000E+000,36
739,1337,-7.19175E+000,-9.22108E-002,2.32204E-002,5.42164E+000,-6.59205E-001,6.75704E-002,5.46198E+000,1.72183E-002,5.78576E-001,0,8.39507E+001,-1.11883E+001,9.95472E-001,3.98435E+001,-4.84847E+001,9.95533E-001,2.17839E-001,-9.32414E-002,-1.48027E-003,2.17846E-001,-9.32485E-002,-2.72633E-001,2.18596E-001,1.24337E+000,-7.33281E-003,0.00000E+000,2.76208E-003,9.13963E-001,0.00000E+000,-2.00817E-003,-8.11036E-002,1.00000E+000,36
739,1347,-7.18376E+000,4.99195E-001,1.17286E-003,5.41368E+000,-7.10865E-001,2.30236E-002,5.46020E+000,1.30687E-002,5.35889E-001,0,8.39612E+001,-1.19027E+001,9.97790E-001,4.00327E+001,-4.93486E+001,9.97765E-001,2.17634E-001,-9.32605E-002,-1.80620E-003,2.17644E-001,-9.32710E-002,-3.32857E-001,2.18384E-001,1.24312E+000,-7.33902E-003,0.00000E+000,2.21703E-003,9.13950E-001,0.00000E+000,-2.72410E-003,-8.11213E-002,1.00000E+000,36
739,1357,-7.15943E+000,1.09705E+000,2.56064E-002,5.41457E+000,-7.62455E-001,-1.46979E-002,5.46801E+000,1.45586E-002,5.21660E-001,0,8.40796E+001,-1.26409E+001,9.96851E-001,4.05910E+001,-5.02013E+001,9.97047E-001,2.17427E-001,-9.32870E-002,-2.13517E-003,2.17441E-001,-9.33017E-002,-3.93701E-001,2.18169E-001,1.24286E+000,-7.34814E-003,0.00000E+000,1.66889E-003,9.13930E-001,0.00000E+000,-3.44410E-003,-8.11471E-002,1.00000E+000,36
739,1327,-7.20299E+000,-6.74309E-001,7.15264E-002,5.42214E+000,-6.00922E-001,1.15890E-001,5.45657E+000,1.60696E-002,5.14966E-001,0,8.38071E+001,-1.03347E+001,9.97681E-001,3.96733E+001,-4.75893E+001,9.97622E-001,2.18043E-001,-9.32264E-002,-1.15559E-003,2.18047E-001,-9.32307E-002,-2.12707E-001,2.18808E-001,1.24362E+000,-7.32824E-003,0.00000E+000,3.30615E-003,9.13973E-001,0.00000E+000,-1.29351E-003,-8.10907E-002,1.00000E+000,36
1119,1297,2.38839E+001,-1.90648E+000,8.62256E-002,1.17546E+001,-1.20758E-001,5.02449E-002,1.17553E+001,1.73445E-002,4.57470E-001,0,1.76696E+002,-3.46891E+000,9.97581E-001,1.41086E+002,-3.27316E+001,9.96601E-001,2.22913E-001,-9.35858E-002,-2.12947E-003,2.22928E-001,-9.36001E-002,-3.85475E-001,2.23880E-001,1.24940E+000,-2.89451E-002,0.00000E+000,1.68726E-002,9.12627E-001,0.00000E+000,3.67410E-003,-6.83159E-002,1.00000E+000,36
1119,1307,2.38773E+001,-1.32445E+000,8.93319E-003,1.17399E+001,-1.81640E-001,6.20538E-003,1.17413E+001,1.59675E-002,4.21715E-001,0,1.76662E+002,-4.35957E+000,9.97368E-001,1.40919E+002,-3.35452E+001,9.97289E-001,2.23781E-001,-9.35915E-002,-2.19877E-003,2.23796E-001,-9.36067E-002,-3.96922E-001,2.24790E-001,1.25048E+000,-2.89317E-002,0.00000E+000,1.67521E-002,9.12625E-001,0.00000E+000,3.08909E-003,-6.83231E-002,1.00000E+000,36
1119,1317,2.38743E+001,-7.38826E-001,-5.98176E-002,1.17257E+001,-2.40686E-001,-4.23621E-002,1.17283E+001,1.72804E-002,4.16134E-001,0,1.76648E+002,-5.22882E+000,9.96147E-001,1.40822E+002,-3.43059E+001,9.96160E-001,2.24648E-001,-9.35980E-002,-2.26613E-003,2.24664E-001,-9.36142E-002,-4.07957E-001,2.25702E-001,1.25156E+000,-2.89130E-002,0.00000E+000,1.66314E-002,9.12623E-001,0.00000E+000,2.50320E-003,-6.83332E-002,1.00000E+000,36
1119,1327,2.38687E+001,-1.50669E-001,-1.02353E-001,1.17040E+001,-3.00364E-001,-8.43997E-002,1.17081E+001,1.59759E-002,3.93799E-001,0,1.76487E+002,-6.10776E+000,9.95833E-001,1.40721E+002,-3.50936E+001,9.95991E-001,2.25517E-001,-9.36058E-002,-2.33062E-003,2.25534E-001,-9.36228E-002,-4.18413E-001,2.26615E-001,1.25265E+000,-2.88864E-002,0.00000E+000,1.65103E-002,9.12620E-001,0.00000E+000,1.91553E-003,-6.83476E-002,1.00000E+000,36
1119,1337,2.38705E+001,4.41952E-001,-1.18755E-001,1.16844E+001,-3.60428E-001,-1.21592E-001,1.16906E+001,1.42497E-002,4.55422E-001,0,1.76330E+002,-7.01939E+000,9.97677E-001,1.40776E+002,-3.58282E+001,9.97342E-001,2.26390E-001,-9.36150E-002,-2.39217E-003,2.26408E-001,-9.36328E-002,-4.28277E-001,2.27533E-001,1.25374E+000,-2.88511E-002,0.00000E+000,1.63885E-002,9.12616E-001,0.00000E+000,1.32462E-003,-6.83667E-002,1.00000E+000,36
1119,1347,2.38837E+001,1.03743E+000,-9.92612E-002,1.16681E+001,-4.21158E-001,-1.56005E-001,1.16767E+001,2.09726E-002,4.21537E-001,0,1.76197E+002,-7.92359E+000,9.97541E-001,1.41061E+002,-3.66473E+001,9.96401E-001,2.27263E-001,-9.36262E-002,-2.44872E-003,2.27282E-001,-9.36448E-002,-4.37193E-001,2.28451E-001,1.25484E+000,-2.88025E-002,0.00000E+000,1.62665E-002,9.12611E-001,0.00000E+000,7.32333E-004,-6.83930E-002,1.00000E+000,36
739,1317,-7.19967E+000,-1.24451E+000,1.61229E-001,5.43053E+000,-5.37190E-001,1.70366E-001,5.45969E+000,1.93921E-002,5.43724E-001,0,8.37577E+001,-9.43579E+000,9.97472E-001,3.98329E+001,-4.65513E+001,9.96783E-001,2.18245E-001,-9.32179E-002,-8.33973E-004,2.18247E-001,-9.32202E-002,-1.53414E-001,2.19018E-001,1.24387E+000,-7.32625E-003,0.00000E+000,3.84680E-003,9.13978E-001,0.00000E+000,-5.83343E-004,-8.10850E-002,1.00000E+000,36
1129,1297,2.46984E+001,-1.88209E+000,8.27002E-002,1.19109E+001,-1.00053E-001,5.70694E-002,1.19114E+001,1.73810E-002,4.05898E-001,0,1.78867E+002,-3.16838E+000,9.98378E-001,1.43798E+002,-3.22740E+001,9.97628E-001,2.23923E-001,-9.37442E-002,-2.46672E-003,2.23942E-001,-9.37634E-002,-4.44872E-001,2.24927E-001,1.25069E+000,-2.77430E-002,0.00000E+000,1.53730E-002,9.12530E-001,0.00000E+000,3.29499E-003,-6.86217E-002,1.00000E+000,36
1129,1307,2.46911E+001,-1.31290E+000,-6.21067E-003,1.18953E+001,-1.73925E-001,7.02423E-004,1.18966E+001,2.40365E-002,3.55765E-001,0,1.78876E+002,-4.22814E+000,9.98000E-001,1.43603E+002,-3.32677E+001,9.95045E-001,2.24832E-001,-9.37443E-002,-2.45317E-003,2.24851E-001,-9.37631E-002,-4.41167E-001,2.25881E-001,1.25182E+000,-2.77285E-002,0.00000E+000,1.54123E-002,9.12531E-001,0.00000E+000,2.59514E-003,-6.86306E-002,1.00000E+000,36
1129,1317,2.46946E+001,-7.28431E-001,-6.44699E-002,1.18871E+001,-2.34536E-001,-3.89488E-002,1.18895E+001,1.44152E-002,3.66334E-001,0,1.78916E+002,-5.15044E+000,9.97986E-001,1.43622E+002,-3.40583E+001,9.95843E-001,2.25741E-001,-9.37443E-002,-2.43733E-003,2.25759E-001,-9.37629E-002,-4.37071E-001,2.26836E-001,1.25296E+000,-2.77081E-002,0.00000E+000,1.54518E-002,9.12531E-001,0.00000E+000,1.89398E-003,-6.86432E-002,1.00000E+000,36
729,1347,-7.96991E+000,4.81822E-001,8.09997E-003,5.27044E+000,-7.23576E-001,2.37340E-002,5.31993E+000,1.19018E-002,5.69949E-001,0,8.18005E+001,-1.20952E+001,9.98643E-001,3.79735E+001,-4.97258E+001,9.98437E-001,2.15320E-001,-9.25649E-002,-1.61477E-003,2.15329E-001,-9.25733E-002,-3.00490E-001,2.16033E-001,1.24025E+000,-6.66855E-003,0.00000E+000,2.09248E-003,9.14513E-001,0.00000E+000,-2.71229E-003,-8.01251E-002,1.00000E+000,36
729,1357,-7.95498E+000,1.08767E+000,2.27746E-002,5.26327E+000,-7.66223E-001,-1.76434E-002,5.31878E+000,1.42099E-002,5.45903E-001,0,8.18037E+001,-1.26765E+001,9.97507E-001,3.83667E+001,-5.04420E+001,9.97589E-001,2.14795E-001,-9.25841E-002,-1.87596E-003,2.14807E-001,-9.25956E-002,-3.49663E-001,2.15486E-001,1.23960E+000,-6.69047E-003,0.00000E+000,1.69846E-003,9.14499E-001,0.00000E+000,-3.68539E-003,-8.01580E-002,1.00000E+000,36
1129,1327,2.46959E+001,-1.36157E-001,-1.03207E-001,1.18728E+001,-2.89453E-001,-7.49778E-002,1.18766E+001,1.73228E-002,3.67661E-001,0,1.78842E+002,-5.99135E+000,9.97609E-001,1.43636E+002,-3.47760E+001,9.97115E-001,2.26650E-001,-9.37444E-002,-2.41889E-003,2.26668E-001,-9.37627E-002,-4.32534E-001,2.27792E-001,1.25410E+000,-2.76809E-002,0.00000E+000,1.54913E-002,9.12532E-001,0.00000E+000,1.19155E-003,-6.86600E-002,1.00000E+000,36
729,1337,-7.98985E+000,-9.91786E-002,3.15115E-002,5.26749E+000,-6.60222E-001,7.58954E-002,5.30925E+000,1.54192E-002,5.62083E-001,0,8.15969E+001,-1.11981E+001,9.96826E-001,3.76057E+001,-4.87296E+001,9.96490E-001,2.15842E-001,-9.25495E-002,-1.35655E-003,2.15848E-001,-9.25554E-002,-2.52026E-001,2.16576E-001,1.24089E+000,-6.65169E-003,0.00000E+000,2.48511E-003,9.14523E-001,0.00000E+000,-1.74262E-003,-8.00997E-002,1.00000E+000,36
729,1327,-7.99908E+000,-6.79662E-001,7.85988E-002,5.26900E+000,-6.02275E-001,1.18397E-001,5.30463E+000,1.56221E-002,5.24551E-001,0,8.14867E+001,-1.03339E+001,9.96773E-001,3.74630E+001,-4.77912E+001,9.96620E-001,2.16360E-001,-9.25389E-002,-1.10226E-003,2.16364E-001,-9.25428E-002,-2.04448E-001,2.17116E-001,1.24153E+000,-6.64101E-003,0.00000E+000,2.87552E-003,9.14529E-001,0.00000E+000,-7.78434E-004,-8.00837E-002,1.00000E+000,36
1129,1337,2.47095E+001,4.57024E-001,-1.06476E-001,1.18589E+001,-3.53900E-001,-1.22570E-001,1.18649E+001,2.00779E-002,4.64053E-001,0,1.78805E+002,-6.94638E+000,9.96750E-001,1.43891E+002,-3.55106E+001,9.97055E-001,2.27568E-001,-9.37445E-002,-2.39254E-003,2.27586E-001,-9.37624E-002,-4.26600E-001,2.28759E-001,1.25525E+000,-2.76336E-002,0.00000E+000,1.55313E-002,9.12534E-001,0.00000E+000,4.80802E-004,-6.86892E-002,1.00000E+000,36
729,1317,-8.00067E+000,-1.25344E+000,1.56442E-001,5.27385E+000,-5.40600E-001,1.68603E-001,5.30417E+000,1.71222E-002,5.54196E-001,0,8.13992E+001,-9.46835E+000,9.96918E-001,3.75169E+001,-4.67815E+001,9.96401E-001,2.16875E-001,-9.25315E-002,-8.50233E-004,2.16878E-001,-9.25339E-002,-1.57444E-001,2.17654E-001,1.24217E+000,-6.63457E-003,0.00000E+000,3.26508E-003,9.14533E-001,0.00000E+000,1.83649E-004,-8.00740E-002,1.00000E+000,36
1129,1347,2.47131E+001,1.05896E+000,-9.94554E-002,1.18357E+001,-4.06872E-001,-1.57855E-001,1.18438E+001,2.36408E-002,4.83040E-001,0,1.78575E+002,-7.75337E+000,9.96063E-001,1.44006E+002,-3.61751E+001,9.95352E-001,2.28482E-001,-9.37447E-002,-2.36669E-003,2.28499E-001,-9.37620E-002,-4.20796E-001,2.29721E-001,1.25639E+000,-2.75873E-002,0.00000E+000,1.55712E-002,9.12536E-001,0.00000E+000,-2.27121E-004,-6.87178E-002,1.00000E+000,36
719,1347,-8.77202E+000,4.83724E-001,7.89322E-003,5.11229E+000,-7.15534E-001,2.50224E-002,5.16218E+000,1.77437E-002,5.66948E-001,0,7.93995E+001,-1.19504E+001,9.97299E-001,3.56611E+001,-4.98117E+001,9.97280E-001,2.13521E-001,-9.21475E-002,-1.45808E-003,2.13528E-001,-9.21544E-002,-2.73300E-001,2.14194E-001,1.23802E+000,-5.70297E-003,0.00000E+000,1.66204E-003,9.14788E-001,0.00000E+000,-2.44772E-003,-7.86527E-002,1.00000E+000,36
719,1357,-8.76123E+000,1.07697E+000,2.16854E-002,5.10132E+000,-7.71077E-001,-1.64005E-002,5.15929E+000,1.61555E-002,5.51723E-001,0,7.93475E+001,-1.27262E+001,9.97335E-001,3.59878E+001,-5.07181E+001,9.97308E-001,2.12709E-001,-9.21590E-002,-1.62805E-003,2.12718E-001,-9.21677E-002,-3.05958E-001,2.13348E-001,1.23702E+000,-5.73630E-003,0.00000E+000,1.46246E-003,9.14782E-001,0.00000E+000,-3.66494E-003,-7.86932E-002,1.00000E+000,36
719,1337,-8.78908E+000,-1.00918E-001,2.97815E-002,5.11126E+000,-6.57034E-001,7.14032E-002,5.15381E+000,1.99677E-002,5.71672E-001,0,7.92445E+001,-1.11173E+001,9.95127E-001,3.53317E+001,-4.88596E+001,9.94030E-001,2.14327E-001,-9.21387E-002,-1.29254E-003,2.14332E-001,-9.21441E-002,-2.41643E-001,2.15033E-001,1.23902E+000,-5.67838E-003,0.00000E+000,1.86052E-003,9.14793E-001,0.00000E+000,-1.23720E-003,-7.86227E-002,1.00000E+000,36
719,1327,-8.79450E+000,-6.80492E-001,8.30882E-002,5.11616E+000,-5.98719E-001,1.18469E-001,5.15244E+000,1.45259E-002,5.59956E-001,0,7.91737E+001,-1.02701E+001,9.95021E-001,3.52631E+001,-4.79053E+001,9.94300E-001,2.15126E-001,-9.21326E-002,-1.13130E-003,2.15130E-001,-9.21367E-002,-2.10954E-001,2.15867E-001,1.24001E+000,-5.66252E-003,0.00000E+000,2.05802E-003,9.14796E-001,0.00000E+000,-3.26514E-005,-7.86034E-002,1.00000E+000,36
719,1317,-8.79854E+000,-1.25635E+000,1.67852E-001,5.11743E+000,-5.39666E-001,1.69822E-001,5.14861E+000,1.90810E-002,5.47188E-001,0,7.90283E+001,-9.43408E+000,9.94669E-001,3.52973E+001,-4.69616E+001,9.93854E-001,2.15922E-001,-9.21288E-002,-9.73418E-004,2.15925E-001,-9.21319E-002,-1.81048E-001,2.16698E-001,1.24100E+000,-5.65431E-003,0.00000E+000,2.25517E-003,9.14798E-001,0.00000E+000,1.16977E-003,-7.85935E-002,1.00000E+000,36
1139,1297,2.55369E+001,-1.87365E+000,8.54108E-002,1.20893E+001,-9.49651E-002,6.42904E-002,1.20899E+001,1.12205E-002,3.52096E-001,0,1.81366E+002,-3.12793E+000,9.99129E-001,1.46898E+002,-3.20759E+001,9.98350E-001,2.24727E-001,-9.40128E-002,-2.72139E-003,2.24751E-001,-9.40360E-002,-4.89142E-001,2.25746E-001,1.25172E+000,-2.64926E-002,0.00000E+000,1.40371E-002,9.12344E-001,0.00000E+000,2.24469E-003,-6.91638E-002,1.00000E+000,36
1139,1307,2.55254E+001,-1.30583E+000,-1.45841E-002,1.20706E+001,-1.70259E-001,1.57895E-003,1.20718E+001,1.65687E-002,3.15530E-001,0,1.81359E+002,-4.19555E+000,9.98379E-001,1.46621E+002,-3.30592E+001,9.97163E-001,2.25779E-001,-9.40098E-002,-2.65709E-003,2.25801E-001,-9.40318E-002,-4.76021E-001,2.26850E-001,1.25303E+000,-2.64779E-002,0.00000E+000,1.41653E-002,9.12345E-001,0.00000E+000,1.60020E-003,-6.91710E-002,1.00000E+000,36
1139,1337,2.55330E+001,4.81783E-001,-1.08165E-001,1.20212E+001,-3.35070E-001,-1.22251E-001,1.20265E+001,2.02247E-002,4.92221E-001,0,1.81089E+002,-6.70222E+000,9.95725E-001,1.46747E+002,-3.50041E+001,9.94914E-001,2.28949E-001,-9.39954E-002,-2.43574E-003,2.28967E-001,-9.40138E-002,-4.32110E-001,2.30184E-001,1.25701E+000,-2.63634E-002,0.00000E+000,1.45527E-002,9.12356E-001,0.00000E+000,-3.48127E-004,-6.92271E-002,1.00000E+000,36
1139,1347,2.55531E+001,1.07696E+000,-8.07425E-002,1.20101E+001,-3.97961E-001,-1.53612E-001,1.20177E+001,2.06185E-002,5.14514E-001,0,1.81022E+002,-7.66626E+000,9.95299E-001,1.47146E+002,-3.58138E+001,9.94322E-001,2.30009E-001,-9.39888E-002,-2.35235E-003,2.30026E-001,-9.40059E-002,-4.15961E-001,2.31302E-001,1.25834E+000,-2.63011E-002,0.00000E+000,1.46827E-002,9.12362E-001,0.00000E+000,-1.00201E-003,-6.92577E-002,1.00000E+000,36
1139,1327,2.55287E+001,-1.21977E-001,-1.09051E-001,1.20443E+001,-2.82736E-001,-7.96570E-002,1.20479E+001,1.92607E-002,4.29997E-001,0,1.81287E+002,-5.91408E+000,9.96789E-001,1.46632E+002,-3.44080E+001,9.95094E-001,2.27889E-001,-9.40014E-002,-2.51621E-003,2.27908E-001,-9.40211E-002,-4.47843E-001,2.29067E-001,1.25568E+000,-2.64181E-002,0.00000E+000,1.44229E-002,9.12351E-001,0.00000E+000,3.04669E-004,-6.92003E-002,1.00000E+000,36
1139,1317,2.55157E+001,-7.19550E-001,-8.13784E-002,1.20502E+001,-2.29379E-001,-4.21538E-002,1.20525E+001,1.66470E-002,3.72775E-001,0,1.81236E+002,-5.09705E+000,9.98655E-001,1.46422E+002,-3.37796E+001,9.96974E-001,2.26832E-001,-9.40062E-002,-2.58997E-003,2.26853E-001,-9.40271E-002,-4.62481E-001,2.27956E-001,1.25435E+000,-2.64562E-002,0.00000E+000,1.42937E-002,9.12347E-001,0.00000E+000,9.54250E-004,-6.91817E-002,1.00000E+000,36
709,1347,-9.58077E+000,4.86240E-001,1.18777E-002,4.94715E+000,-7.06794E-001,3.08620E-002,4.99748E+000,1.71165E-002,5.52154E-001,0,7.68731E+001,-1.17988E+001,9.96682E-001,3.32637E+001,-4.99043E+001,9.96562E-001,2.11804E-001,-9.07653E-002,-1.64158E-003,2.11813E-001,-9.07742E-002,-3.10844E-001,2.12532E-001,1.23590E+000,-4.85994E-003,0.00000E+000,6.93612E-004,9.15979E-001,0.00000E+000,-2.22962E-003,-7.75870E-002,1.00000E+000,36
709,1357,-9.56386E+000,1.08035E+000,2.22495E-002,4.94308E+000,-7.59916E-001,-1.09435E-002,5.00117E+000,1.69654E-002,5.33291E-001,0,7.69281E+001,-1.25487E+001,9.97322E-001,3.36777E+001,-5.07928E+001,9.97231E-001,2.10866E-001,-9.07834E-002,-1.91448E-003,2.10878E-001,-9.07955E-002,-3.63620E-001,2.11555E-001,1.23475E+000,-4.89701E-003,0.00000E+000,3.09714E-004,9.15967E-001,0.00000E+000,-3.51867E-003,-7.76284E-002,1.00000E+000,36
709,1337,-9.58208E+000,-1.08599E-001,3.91927E-002,4.96025E+000,-6.59818E-001,7.46652E-002,5.00450E+000,1.60281E-002,5.51900E-001,0,7.69474E+001,-1.11404E+001,9.96337E-001,3.31868E+001,-4.91191E+001,9.95516E-001,2.12735E-001,-9.07524E-002,-1.37460E-003,2.12741E-001,-9.07587E-002,-2.59506E-001,2.13503E-001,1.23705E+000,-4.83444E-003,0.00000E+000,1.07573E-003,9.15988E-001,0.00000E+000,-9.46557E-004,-7.75585E-002,1.00000E+000,36
709,1317,-9.58946E+000,-1.25766E+000,1.85741E-001,4.96675E+000,-5.38088E-001,1.73009E-001,4.99881E+000,2.02687E-002,5.56507E-001,0,7.67359E+001,-9.39852E+000,9.96487E-001,3.32076E+001,-4.71222E+001,9.96400E-001,2.14578E-001,-9.07382E-002,-8.54315E-004,2.14580E-001,-9.07406E-002,-1.60320E-001,2.15429E-001,1.23933E+000,-4.80975E-003,0.00000E+000,1.83559E-003,9.15996E-001,0.00000E+000,1.60492E-003,-7.75309E-002,1.00000E+000,36
709,1327,-9.58318E+000,-6.83581E-001,9.89715E-002,4.96728E+000,-5.98522E-001,1.16907E-001,5.00457E+000,2.22538E-002,5.89889E-001,0,7.69219E+001,-1.02651E+001,9.96687E-001,3.32014E+001,-4.80806E+001,9.95903E-001,2.13658E-001,-9.07444E-002,-1.11341E-003,2.13662E-001,-9.07485E-002,-2.09566E-001,2.14468E-001,1.23819E+000,-4.81999E-003,0.00000E+000,1.45592E-003,9.15993E-001,0.00000E+000,3.30053E-004,-7.75423E-002,1.00000E+000,36
1149,1297,2.63610E+001,-1.86693E+000,7.22098E-002,1.22548E+001,-9.29953E-002,6.35481E-002,1.22553E+001,2.66353E-002,3.82012E-001,0,1.83704E+002,-3.12009E+000,9.97743E-001,1.49753E+002,-3.18308E+001,9.94992E-001,2.25389E-001,-9.41952E-002,-2.93767E-003,2.25416E-001,-9.42222E-002,-5.26613E-001,2.26425E-001,1.25257E+000,-2.53116E-002,0.00000E+000,1.28469E-002,9.12250E-001,0.00000E+000,9.12413E-004,-6.99973E-002,1.00000E+000,36
1149,1307,2.63667E+001,-1.27861E+000,-8.99646E-003,1.22521E+001,-1.47779E-001,1.46140E-002,1.22530E+001,1.71497E-002,3.84216E-001,0,1.83870E+002,-3.93913E+000,9.98321E-001,1.49775E+002,-3.25128E+001,9.96597E-001,2.26583E-001,-9.41927E-002,-2.87908E-003,2.26609E-001,-9.42185E-002,-5.14196E-001,2.27678E-001,1.25406E+000,-2.52920E-002,0.00000E+000,1.29557E-002,9.12251E-001,0.00000E+000,3.29826E-004,-7.00049E-002,1.00000E+000,36
1149,1317,2.63600E+001,-6.95091E-001,-7.65505E-002,1.22323E+001,-2.11388E-001,-3.85208E-002,1.22342E+001,1.60842E-002,4.07389E-001,0,1.83794E+002,-4.86941E+000,9.98052E-001,1.49620E+002,-3.32895E+001,9.96188E-001,2.27780E-001,-9.41895E-002,-2.81633E-003,2.27805E-001,-9.42142E-002,-5.01127E-001,2.28936E-001,1.25556E+000,-2.52621E-002,0.00000E+000,1.30650E-002,9.12254E-001,0.00000E+000,-2.55484E-004,-7.00166E-002,1.00000E+000,36
1149,1327,2.63555E+001,-9.90368E-002,-1.18739E-001,1.22105E+001,-2.63373E-001,-8.40600E-002,1.22136E+001,1.77828E-002,3.75645E-001,0,1.83645E+002,-5.63635E+000,9.97371E-001,1.49537E+002,-3.39547E+001,9.95254E-001,2.28975E-001,-9.41858E-002,-2.74979E-003,2.28998E-001,-9.42092E-002,-4.87486E-001,2.30194E-001,1.25707E+000,-2.52224E-002,0.00000E+000,1.31742E-002,9.12257E-001,0.00000E+000,-8.40699E-004,-7.00321E-002,1.00000E+000,36
1149,1337,2.63669E+001,4.91191E-001,-1.13762E-001,1.21960E+001,-3.30584E-001,-1.15859E-001,1.22010E+001,2.68437E-002,4.67509E-001,0,1.83540E+002,-6.66048E+000,9.96827E-001,1.49766E+002,-3.47525E+001,9.95959E-001,2.30181E-001,-9.41811E-002,-2.67527E-003,2.30204E-001,-9.42031E-002,-4.72520E-001,2.31465E-001,1.25858E+000,-2.51633E-002,0.00000E+000,1.32847E-002,9.12261E-001,0.00000E+000,-1.43269E-003,-7.00551E-002,1.00000E+000,36
1149,1347,2.63947E+001,1.08802E+000,-7.82087E-002,1.21885E+001,-3.94961E-001,-1.54192E-001,1.21959E+001,2.44043E-002,4.81965E-001,0,1.83550E+002,-7.61879E+000,9.97215E-001,1.50293E+002,-3.55561E+001,9.96306E-001,2.31389E-001,-9.41752E-002,-2.59261E-003,2.31410E-001,-9.41958E-002,-4.56232E-001,2.32739E-001,1.26011E+000,-2.50833E-002,0.00000E+000,1.33955E-002,9.12267E-001,0.00000E+000,-2.02617E-003,-7.00863E-002,1.00000E+000,36
699,1347,-1.03636E+001,4.79342E-001,2.07955E-002,4.80608E+000,-7.09927E-001,3.38955E-002,4.85835E+000,1.81201E-002,5.72829E-001,0,7.47265E+001,-1.18270E+001,9.97593E-001,3.12804E+001,-5.01314E+001,9.97285E-001,2.09930E-001,-8.95408E-002,-1.46121E-003,2.09938E-001,-8.95480E-002,-2.79555E-001,2.10691E-001,1.23359E+000,-3.27986E-003,0.00000E+000,-1.49230E-004,9.17015E-001,0.00000E+000,-1.99670E-003,-7.63572E-002,1.00000E+000,36
699,1357,-1.03502E+001,1.06487E+000,3.22415E-002,4.79905E+000,-7.71147E-001,-5.09945E-003,4.86061E+000,1.82645E-002,5.64872E-001,0,7.47293E+001,-1.27145E+001,9.97285E-001,3.16439E+001,-5.11515E+001,9.96911E-001,2.08962E-001,-8.95561E-002,-1.70688E-003,2.08972E-001,-8.95658E-002,-3.27594E-001,2.09681E-001,1.23240E+000,-3.31713E-003,0.00000E+000,-4.96750E-004,9.17004E-001,0.00000E+000,-3.11958E-003,-7.63924E-002,1.00000E+000,36
699,1337,-1.03784E+001,-1.19548E-001,4.43204E-002,4.80575E+000,-6.65842E-001,7.49312E-002,4.85223E+000,1.31494E-002,5.45603E-001,0,7.46028E+001,-1.12115E+001,9.97594E-001,3.09847E+001,-4.94137E+001,9.97507E-001,2.10894E-001,-8.95298E-002,-1.22054E-003,2.10899E-001,-8.95347E-002,-2.32771E-001,2.11698E-001,1.23478E+000,-3.25344E-003,0.00000E+000,1.97452E-004,9.17023E-001,0.00000E+000,-8.76518E-004,-7.63323E-002,1.00000E+000,36
699,1317,-1.03891E+001,-1.25912E+000,2.00409E-001,4.80656E+000,-5.37704E-001,1.70767E-001,4.83956E+000,1.85494E-002,6.11931E-001,0,7.43090E+001,-9.38050E+000,9.97603E-001,3.09819E+001,-4.72564E+001,9.97478E-001,2.12798E-001,-8.95198E-002,-7.56273E-004,2.12800E-001,-8.95217E-002,-1.43329E-001,2.13690E-001,1.23713E+000,-3.23230E-003,0.00000E+000,8.84435E-004,9.17029E-001,0.00000E+000,1.34322E-003,-7.63124E-002,1.00000E+000,36
699,1327,-1.03836E+001,-6.85417E-001,1.06740E-001,4.80800E+000,-5.98524E-001,1.16890E-001,4.84652E+000,1.44262E-002,6.84659E-001,0,7.45028E+001,-1.02541E+001,9.97621E-001,3.09445E+001,-4.81887E+001,9.96624E-001,2.11845E-001,-8.95236E-002,-9.87610E-004,2.11848E-001,-8.95269E-002,-1.87760E-001,2.12693E-001,1.23595E+000,-3.23977E-003,0.00000E+000,5.40232E-004,9.17027E-001,0.00000E+000,2.31051E-004,-7.63194E-002,1.00000E+000,36
1159,1307,2.71840E+001,-1.27227E+000,-3.81550E-002,1.24103E+001,-1.45530E-001,-2.21635E-003,1.24111E+001,2.11747E-002,4.05813E-001,0,1.86162E+002,-3.90227E+000,9.94787E-001,1.52508E+002,-3.22423E+001,9.92567E-001,2.27449E-001,-9.46393E-002,-2.96670E-003,2.27477E-001,-9.46666E-002,-5.27682E-001,2.28540E-001,1.25517E+000,-2.42063E-002,0.00000E+000,1.20696E-002,9.11898E-001,0.00000E+000,-9.85903E-004,-7.06249E-002,1.00000E+000,36
1159,1317,2.71893E+001,-6.76661E-001,-8.96260E-002,1.24024E+001,-1.97888E-001,-3.93648E-002,1.24041E+001,2.20904E-002,4.38616E-001,0,1.86195E+002,-4.69225E+000,9.95281E-001,1.52564E+002,-3.28578E+001,9.95190E-001,2.28737E-001,-9.46427E-002,-2.98869E-003,2.28764E-001,-9.46703E-002,-5.29471E-001,2.29894E-001,1.25679E+000,-2.41738E-002,0.00000E+000,1.20238E-002,9.11897E-001,0.00000E+000,-1.63463E-003,-7.06379E-002,1.00000E+000,36
1159,1327,2.72003E+001,-8.60192E-002,-1.10926E-001,1.23935E+001,-2.58001E-001,-7.33703E-002,1.23964E+001,1.54571E-002,4.19017E-001,0,1.86190E+002,-5.59981E+000,9.97529E-001,1.52750E+002,-3.36432E+001,9.96879E-001,2.30025E-001,-9.46470E-002,-3.00439E-003,2.30052E-001,-9.46748E-002,-5.30133E-001,2.31249E-001,1.25841E+000,-2.41248E-002,0.00000E+000,1.19778E-002,9.11895E-001,0.00000E+000,-2.28464E-003,-7.06575E-002,1.00000E+000,36
1159,1297,2.71846E+001,-1.85468E+000,4.14761E-002,1.24201E+001,-8.48921E-002,4.81622E-002,1.24205E+001,1.99651E-002,4.29720E-001,0,1.86094E+002,-2.99930E+000,9.96117E-001,1.52583E+002,-3.14535E+001,9.92025E-001,2.26168E-001,-9.46365E-002,-2.94134E-003,2.26195E-001,-9.46634E-002,-5.25265E-001,2.27194E-001,1.25356E+000,-2.42294E-002,0.00000E+000,1.21152E-002,9.11898E-001,0.00000E+000,-3.41266E-004,-7.06156E-002,1.00000E+000,36
1159,1337,2.72247E+001,5.02856E-001,-9.64327E-002,1.23883E+001,-3.27054E-001,-1.09544E-001,1.23931E+001,2.07106E-002,4.27974E-001,0,1.86237E+002,-6.63108E+000,9.98814E-001,1.53193E+002,-3.45215E+001,9.98610E-001,2.31320E-001,-9.46526E-002,-3.01132E-003,2.31348E-001,-9.46804E-002,-5.29237E-001,2.32614E-001,1.26004E+000,-2.40524E-002,0.00000E+000,1.19315E-002,9.11893E-001,0.00000E+000,-2.93971E-003,-7.06866E-002,1.00000E+000,36
1159,1347,2.72390E+001,1.10134E+000,-8.01931E-002,1.23700E+001,-3.86933E-001,-1.56382E-001,1.23771E+001,2.17339E-002,4.30135E-001,0,1.86124E+002,-7.51804E+000,9.97809E-001,1.53482E+002,-3.52628E+001,9.97170E-001,2.32613E-001,-9.46586E-002,-3.01546E-003,2.32640E-001,-9.46864E-002,-5.27860E-001,2.33978E-001,1.26168E+000,-2.39724E-002,0.00000E+000,1.18852E-002,9.11891E-001,0.00000E+000,-3.59453E-003,-7.07186E-002,1.00000E+000,36
689,1347,-1.11541E+001,4.66253E-001,2.17651E-002,4.65651E+000,-7.19365E-001,2.64810E-002,4.71182E+000,1.48188E-002,5.98352E-001,0,7.24772E+001,-1.19356E+001,9.98453E-001,2.91632E+001,-5.04353E+001,9.97452E-001,2.07927E-001,-8.84939E-002,-1.43918E-003,2.07934E-001,-8.85009E-002,-2.78173E-001,2.08700E-001,1.23113E+000,-1.93459E-003,0.00000E+000,-1.09885E-003,9.17926E-001,0.00000E+000,-2.03148E-003,-7.56576E-002,1.00000E+000,36
689,1357,-1.11450E+001,1.05019E+000,2.31357E-002,4.64742E+000,-7.79682E-001,-1.08297E-002,4.71238E+000,1.63784E-002,5.57788E-001,0,7.24443E+001,-1.28041E+001,9.97997E-001,2.94346E+001,-5.14764E+001,9.97819E-001,2.06736E-001,-8.85096E-002,-1.72981E-003,2.06746E-001,-8.85197E-002,-3.35674E-001,2.07456E-001,1.22966E+000,-1.97531E-003,0.00000E+000,-1.53653E-003,9.17914E-001,0.00000E+000,-3.04187E-003,-7.56857E-002,1.00000E+000,36
689,1337,-1.11626E+001,-1.11275E-001,4.86682E-002,4.66337E+000,-6.52500E-001,7.62005E-002,4.70941E+000,1.60056E-002,5.60250E-001,0,7.24345E+001,-1.09932E+001,9.98440E-001,2.89775E+001,-4.93988E+001,9.98431E-001,2.09119E-001,-8.84806E-002,-1.15067E-003,2.09124E-001,-8.84850E-002,-2.21529E-001,2.09946E-001,1.23259E+000,-1.90013E-003,0.00000E+000,-6.60322E-004,9.17936E-001,0.00000E+000,-1.01913E-003,-7.56338E-002,1.00000E+000,36
1169,1327,2.80284E+001,-7.60538E-002,-1.18288E-001,1.25599E+001,-2.53669E-001,-7.57154E-002,1.25627E+001,1.47330E-002,4.25768E-001,0,1.88539E+002,-5.55690E+000,9.98298E-001,1.55686E+002,-3.33664E+001,9.97814E-001,2.30728E-001,-9.49712E-002,-2.95819E-003,2.30755E-001,-9.49981E-002,-5.20336E-001,2.31952E-001,1.25932E+000,-2.28947E-002,0.00000E+000,1.12584E-002,9.11624E-001,0.00000E+000,-3.80245E-003,-7.08856E-002,1.00000E+000,36
1169,1337,2.80558E+001,5.23241E-001,-9.99404E-002,1.25557E+001,-3.12625E-001,-1.15466E-001,1.25602E+001,1.88011E-002,4.40257E-001,0,1.88609E+002,-6.44465E+000,9.98713E-001,1.56180E+002,-3.40866E+001,9.98098E-001,2.32003E-001,-9.49817E-002,-3.00057E-003,2.32030E-001,-9.50092E-002,-5.25714E-001,2.33295E-001,1.26093E+000,-2.28183E-002,0.00000E+000,1.11466E-002,9.11619E-001,0.00000E+000,-4.47708E-003,-7.09176E-002,1.00000E+000,36
1169,1347,2.80846E+001,1.11800E+000,-6.48003E-002,1.25498E+001,-3.77882E-001,-1.50890E-001,1.25564E+001,1.87573E-002,4.07100E-001,0,1.88632E+002,-7.41949E+000,9.97380E-001,1.56718E+002,-3.49422E+001,9.97205E-001,2.33278E-001,-9.49929E-002,-3.04024E-003,2.33306E-001,-9.50210E-002,-5.30578E-001,2.34639E-001,1.26255E+000,-2.27343E-002,0.00000E+000,1.10346E-002,9.11613E-001,0.00000E+000,-5.15285E-003,-7.09527E-002,1.00000E+000,36
689,1327,-1.11858E+001,-6.94835E-001,9.70572E-002,4.64977E+000,-5.99985E-001,1.16391E-001,4.68976E+000,1.72377E-002,6.33191E-001,0,7.21013E+001,-1.02489E+001,9.96882E-001,2.86203E+001,-4.84495E+001,9.96737E-001,2.10297E-001,-8.84720E-002,-8.69987E-004,2.10299E-001,-8.84745E-002,-1.66838E-001,2.11179E-001,1.23404E+000,-1.87842E-003,0.00000E+000,-2.25996E-004,9.17943E-001,0.00000E+000,-1.64767E-005,-7.56188E-002,1.00000E+000,36
1169,1317,2.80220E+001,-6.65715E-001,-8.31323E-002,1.25732E+001,-1.90187E-001,-2.96519E-002,1.25746E+001,2.74764E-002,3.65256E-001,0,1.88555E+002,-4.62115E+000,9.96951E-001,1.55591E+002,-3.26371E+001,9.96853E-001,2.29456E-001,-9.49637E-002,-2.90504E-003,2.29482E-001,-9.49897E-002,-5.13006E-001,2.30612E-001,1.25772E+000,-2.29425E-002,0.00000E+000,1.13698E-002,9.11627E-001,0.00000E+000,-3.13046E-003,-7.08656E-002,1.00000E+000,36
1169,1307,2.80147E+001,-1.25998E+000,-4.10809E-002,1.25805E+001,-1.39040E-001,3.93857E-003,1.25813E+001,2.17624E-002,4.38526E-001,0,1.88532E+002,-3.83781E+000,9.96917E-001,1.55492E+002,-3.19291E+001,9.95651E-001,2.28194E-001,-9.49574E-002,-2.84797E-003,2.28219E-001,-9.49825E-002,-5.04901E-001,2.29286E-001,1.25613E+000,-2.29781E-002,0.00000E+000,1.14800E-002,9.11630E-001,0.00000E+000,-2.46536E-003,-7.08507E-002,1.00000E+000,36
1169,1297,2.80171E+001,-1.84287E+000,4.64435E-002,1.25913E+001,-7.78335E-002,5.84621E-002,1.25917E+001,1.72071E-002,4.68733E-001,0,1.88458E+002,-2.95797E+000,9.97267E-001,1.55605E+002,-3.11631E+001,9.94648E-001,2.26931E-001,-9.49527E-002,-2.78516E-003,2.26955E-001,-9.49768E-002,-4.95714E-001,2.27958E-001,1.25454E+000,-2.29989E-002,0.00000E+000,1.15902E-002,9.11631E-001,0.00000E+000,-1.80026E-003,-7.08420E-002,1.00000E+000,36
689,1317,-1.11912E+001,-1.26743E+000,1.91453E-001,4.64822E+000,-5.39868E-001,1.70295E-001,4.68257E+000,2.01699E-002,5.91326E-001,0,7.19073E+001,-9.37934E+000,9.96520E-001,2.86622E+001,-4.74846E+001,9.94622E-001,2.11470E-001,-8.84682E-002,-5.95053E-004,2.11471E-001,-8.84694E-002,-1.13670E-001,2.12409E-001,1.23549E+000,-1.86971E-003,0.00000E+000,2.07568E-004,9.17945E-001,0.00000E+000,9.84417E-004,-7.56128E-002,1.00000E+000,36
679,1347,-1.19552E+001,4.60610E-001,2.12933E-002,4.49778E+000,-7.16576E-001,2.75364E-002,4.55459E+000,2.43062E-002,5.99276E-001,0,7.00554E+001,-1.19110E+001,9.97239E-001,2.68866E+001,-5.06355E+001,9.96338E-001,2.05844E-001,-8.75154E-002,-1.45231E-003,2.05851E-001,-8.75226E-002,-2.83639E-001,2.06618E-001,1.22857E+000,-4.57117E-004,0.00000E+000,-2.21614E-003,9.18757E-001,0.00000E+000,-2.10208E-003,-7.47032E-002,1.00000E+000,36
679,1357,-1.19261E+001,1.04539E+000,1.90829E-002,4.51033E+000,-7.77158E-001,-5.15662E-003,4.57679E+000,1.19678E-002,5.99047E-001,0,7.03454E+001,-1.27778E+001,9.98137E-001,2.74571E+001,-5.16346E+001,9.97930E-001,2.04310E-001,-8.75366E-002,-1.89889E-003,2.04323E-001,-8.75489E-002,-3.72772E-001,2.05018E-001,1.22669E+000,-5.04786E-004,0.00000E+000,-2.94351E-003,9.18739E-001,0.00000E+000,-3.07017E-003,-7.47277E-002,1.00000E+000,36
1179,1297,2.88369E+001,-1.83674E+000,2.10731E-002,1.27540E+001,-7.40958E-002,5.65475E-002,1.27544E+001,2.85449E-002,4.94401E-001,0,1.90750E+002,-2.93161E+000,9.98230E-001,1.58393E+002,-3.09043E+001,9.95951E-001,2.27438E-001,-9.51331E-002,-2.83469E-003,2.27463E-001,-9.51580E-002,-5.03453E-001,2.28472E-001,1.25519E+000,-2.22090E-002,0.00000E+000,1.10182E-002,9.11528E-001,0.00000E+000,-3.35182E-003,-7.16591E-002,1.00000E+000,36
1179,1307,2.88469E+001,-1.25287E+000,-5.27641E-002,1.27530E+001,-1.33638E-001,5.82414E-003,1.27537E+001,1.40459E-002,3.65878E-001,0,1.90951E+002,-3.78279E+000,9.98637E-001,1.58493E+002,-3.17302E+001,9.96996E-001,2.28589E-001,-9.51334E-002,-2.82073E-003,2.28614E-001,-9.51579E-002,-4.99193E-001,2.29680E-001,1.25664E+000,-2.21844E-002,0.00000E+000,1.10424E-002,9.11529E-001,0.00000E+000,-3.89270E-003,-7.16682E-002,1.00000E+000,36
1179,1317,2.88489E+001,-6.58941E-001,-1.32421E-001,1.27451E+001,-1.84189E-001,-4.66871E-002,1.27465E+001,3.10703E-002,3.32147E-001,0,1.91052E+002,-4.51333E+000,9.98605E-001,1.58460E+002,-3.23404E+001,9.97798E-001,2.29741E-001,-9.51336E-002,-2.80767E-003,2.29765E-001,-9.51579E-002,-4.95119E-001,2.30891E-001,1.25809E+000,-2.21620E-002,0.00000E+000,1.10666E-002,9.11529E-001,0.00000E+000,-4.43466E-003,-7.16766E-002,1.00000E+000,36
1179,1337,2.88924E+001,5.30075E-001,-1.12047E-001,1.27287E+001,-3.11109E-001,-1.27597E-001,1.27331E+001,1.54190E-002,4.20175E-001,0,1.91090E+002,-6.43176E+000,9.98343E-001,1.59244E+002,-3.38589E+001,9.96932E-001,2.32072E-001,-9.51346E-002,-2.74765E-003,2.32095E-001,-9.51577E-002,-4.81083E-001,2.33346E-001,1.26104E+000,-2.20297E-002,0.00000E+000,1.11158E-002,9.11531E-001,0.00000E+000,-5.53430E-003,-7.17260E-002,1.00000E+000,36
1179,1347,2.89354E+001,1.13260E+000,-6.90330E-002,1.27343E+001,-3.71462E-001,-1.64492E-001,1.27408E+001,1.53415E-002,4.08660E-001,0,1.91285E+002,-7.32245E+000,9.98394E-001,1.60012E+002,-3.45971E+001,9.97923E-001,2.33241E-001,-9.51352E-002,-2.71141E-003,2.33264E-001,-9.51576E-002,-4.73049E-001,2.34578E-001,1.26252E+000,-2.19471E-002,0.00000E+000,1.11405E-002,9.11533E-001,0.00000E+000,-6.08694E-003,-7.17568E-002,1.00000E+000,36
679,1327,-1.19778E+001,-7.02533E-001,1.04014E-001,4.49928E+000,-6.01931E-001,1.21372E-001,4.54099E+000,2.07947E-002,5.88729E-001,0,6.97987E+001,-1.02588E+001,9.96193E-001,2.65026E+001,-4.87147E+001,9.95147E-001,2.08879E-001,-8.74843E-002,-5.76396E-004,2.08881E-001,-8.74854E-002,-1.11434E-001,2.09796E-001,1.23230E+000,-3.87717E-004,0.00000E+000,-7.72001E-004,9.18784E-001,0.00000E+000,-1.80028E-004,-7.46674E-002,1.00000E+000,36
679,1337,-1.19640E+001,-1.18483E-001,4.96586E-002,4.50437E+000,-6.53947E-001,8.00754E-002,4.55230E+000,2.55053E-002,6.02178E-001,0,7.00027E+001,-1.10209E+001,9.97054E-001,2.66985E+001,-4.96039E+001,9.96453E-001,2.07367E-001,-8.74956E-002,-1.00941E-003,2.07371E-001,-8.74990E-002,-1.96140E-001,2.08211E-001,1.23044E+000,-4.12815E-004,0.00000E+000,-1.49237E-003,9.18774E-001,0.00000E+000,-1.13880E-003,-7.46803E-002,1.00000E+000,36
1179,1327,2.88612E+001,-7.39882E-002,-1.30479E-001,1.27315E+001,-2.54302E-001,-7.94183E-002,1.27343E+001,2.06464E-002,4.09229E-001,0,1.90969E+002,-5.61380E+000,9.98613E-001,1.58692E+002,-3.32130E+001,9.95993E-001,2.30904E-001,-9.51341E-002,-2.78111E-003,2.30928E-001,-9.51578E-002,-4.88686E-001,2.32115E-001,1.25956E+000,-2.21049E-002,0.00000E+000,1.10911E-002,9.11530E-001,0.00000E+000,-4.98275E-003,-7.16979E-002,1.00000E+000,36
679,1317,-1.19827E+001,-1.27511E+000,2.02625E-001,4.49823E+000,-5.42081E-001,1.80153E-001,4.53435E+000,1.70524E-002,6.25742E-001,0,6.95994E+001,-9.44180E+000,9.96943E-001,2.65625E+001,-4.77170E+001,9.95691E-001,2.10384E-001,-8.74791E-002,-1.50182E-004,2.10384E-001,-8.74791E-002,-2.88885E-002,2.11376E-001,1.23415E+000,-3.76378E-004,0.00000E+000,-5.35905E-005,9.18788E-001,0.00000E+000,7.76131E-004,-7.46616E-002,1.00000E+000,36
669,1327,-1.27632E+001,-7.19706E-001,1.10570E-001,4.35569E+000,-6.12296E-001,1.29918E-001,4.40043E+000,1.39491E-002,5.72852E-001,0,6.75925E+001,-1.04314E+001,9.98760E-001,2.44879E+001,-4.91099E+001,9.98482E-001,2.07338E-001,-8.66759E-002,-2.06781E-004,2.07338E-001,-8.66761E-002,-4.02962E-002,2.08265E-001,1.23040E+000,2.06893E-003,0.00000E+000,-1.89286E-003,9.19466E-001,0.00000E+000,-4.38214E-004,-7.38041E-002,1.00000E+000,36
669,1337,-1.27534E+001,-1.27896E-001,4.92662E-002,4.35643E+000,-6.58515E-001,7.93533E-002,4.40664E+000,1.49075E-002,5.97773E-001,0,6.77532E+001,-1.10584E+001,9.97718E-001,2.46060E+001,-4.98616E+001,9.97567E-001,2.05407E-001,-8.66882E-002,-7.25828E-004,2.05409E-001,-8.66900E-002,-1.42373E-001,2.06240E-001,1.22803E+000,2.03571E-003,0.00000E+000,-2.77605E-003,9.19454E-001,0.00000E+000,-1.33337E-003,-7.38166E-002,1.00000E+000,36
669,1347,-1.27396E+001,4.52885E-001,1.71483E-002,4.35831E+000,-7.16673E-001,4.14663E-002,4.41703E+000,1.34125E-002,5.76959E-001,0,6.78954E+001,-1.19015E+001,9.97359E-001,2.48625E+001,-5.08692E+001,9.97120E-001,2.03472E-001,-8.67047E-002,-1.24915E-003,2.03477E-001,-8.67100E-002,-2.46640E-001,2.04216E-001,1.22565E+000,1.99193E-003,0.00000E+000,-3.65883E-003,9.19438E-001,0.00000E+000,-2.22812E-003,-7.38332E-002,1.00000E+000,36
669,1357,-1.27144E+001,1.04858E+000,2.42887E-002,4.36405E+000,-7.66389E-001,8.82490E-004,4.43084E+000,1.41225E-002,5.74164E-001,0,6.80965E+001,-1.26134E+001,9.97115E-001,2.54019E+001,-5.17247E+001,9.97269E-001,2.01521E-001,-8.67326E-002,-1.78647E-003,2.01532E-001,-8.67437E-002,-3.55076E-001,2.02182E-001,1.22327E+000,1.92084E-003,0.00000E+000,-4.54633E-003,9.19411E-001,0.00000E+000,-3.12765E-003,-7.38600E-002,1.00000E+000,36
1189,1337,2.97354E+001,5.39990E-001,-1.28960E-001,1.29071E+001,-3.08761E-001,-1.46219E-001,1.29116E+001,1.96218E-002,4.31083E-001,0,1.93675E+002,-6.37798E+000,9.98544E-001,1.62408E+002,-3.35565E+001,9.97691E-001,2.31601E-001,-9.54364E-002,-2.43466E-003,2.31620E-001,-9.54545E-002,-4.26511E-001,2.32809E-001,1.26046E+000,-2.12555E-002,0.00000E+000,1.11778E-002,9.11250E-001,0.00000E+000,-6.08387E-003,-7.16705E-002,1.00000E+000,36
669,1317,-1.27636E+001,-1.28591E+000,2.14991E-001,4.35791E+000,-5.46539E-001,1.87689E-001,4.39605E+000,1.71589E-002,6.05052E-001,0,6.74457E+001,-9.52937E+000,9.98443E-001,2.46351E+001,-4.80262E+001,9.98581E-001,2.09254E-001,-8.66734E-002,2.99937E-004,2.09254E-001,-8.66737E-002,5.80721E-002,2.10279E-001,1.23276E+000,2.07875E-003,0.00000E+000,-1.01444E-003,9.19470E-001,0.00000E+000,4.52105E-004,-7.38004E-002,1.00000E+000,36
1189,1297,2.96807E+001,-1.83100E+000,2.29326E-002,1.29301E+001,-7.45280E-002,4.18437E-002,1.29304E+001,1.93861E-002,4.64468E-001,0,1.93275E+002,-2.94486E+000,9.98022E-001,1.61597E+002,-3.07352E+001,9.95614E-001,2.27819E-001,-9.54307E-002,-2.45327E-003,2.27838E-001,-9.54493E-002,-4.34807E-001,2.28834E-001,1.25569E+000,-2.13961E-002,0.00000E+000,1.12497E-002,9.11253E-001,0.00000E+000,-5.24054E-003,-7.16456E-002,1.00000E+000,36
1189,1307,2.96756E+001,-1.24852E+000,-6.29364E-002,1.29185E+001,-1.36125E-001,-2.90930E-003,1.29192E+001,1.60739E-002,4.22976E-001,0,1.93303E+002,-3.83682E+000,9.96937E-001,1.61446E+002,-3.15134E+001,9.96740E-001,2.28760E-001,-9.54315E-002,-2.45749E-003,2.28779E-001,-9.54502E-002,-4.34289E-001,2.29822E-001,1.25688E+000,-2.13840E-002,0.00000E+000,1.12319E-002,9.11252E-001,0.00000E+000,-5.44991E-003,-7.16478E-002,1.00000E+000,36
1189,1317,2.96962E+001,-6.42685E-001,-1.12214E-001,1.29195E+001,-1.83023E-001,-6.15510E-002,1.29210E+001,1.94366E-002,4.14449E-001,0,1.93547E+002,-4.46985E+000,9.98406E-001,1.61743E+002,-3.19882E+001,9.98416E-001,2.29708E-001,-9.54329E-002,-2.45273E-003,2.29727E-001,-9.54514E-002,-4.32183E-001,2.30818E-001,1.25807E+000,-2.13487E-002,0.00000E+000,1.12139E-002,9.11252E-001,0.00000E+000,-5.66120E-003,-7.16540E-002,1.00000E+000,36
1189,1327,2.97114E+001,-5.90770E-002,-1.42477E-001,1.29111E+001,-2.52333E-001,-1.17268E-001,1.29141E+001,2.34452E-002,4.13912E-001,0,1.93641E+002,-5.48820E+000,9.98615E-001,1.61978E+002,-3.28479E+001,9.98233E-001,2.30654E-001,-9.54346E-002,-2.44518E-003,2.30672E-001,-9.54529E-002,-4.29601E-001,2.31812E-001,1.25926E+000,-2.13060E-002,0.00000E+000,1.11959E-002,9.11251E-001,0.00000E+000,-5.87226E-003,-7.16616E-002,1.00000E+000,36
659,1327,-1.35450E+001,-7.03431E-001,1.12869E-001,4.21398E+000,-5.91483E-001,1.27481E-001,4.25719E+000,2.23525E-002,5.98799E-001,0,6.54344E+001,-1.00937E+001,9.98358E-001,2.25286E+001,-4.89603E+001,9.96684E-001,2.05465E-001,-8.61517E-002,-1.32070E-004,2.05465E-001,-8.61518E-002,-2.59487E-002,2.06355E-001,1.22809E+000,4.59944E-003,0.00000E+000,-3.62597E-003,9.19914E-001,0.00000E+000,-6.94615E-004,-7.33783E-002,1.00000E+000,36
659,1337,-1.35120E+001,-1.45247E-001,7.32365E-002,4.23801E+000,-6.71264E-001,9.83819E-002,4.29197E+000,3.38174E-002,6.60435E-001,0,6.59037E+001,-1.13129E+001,9.97790E-001,2.30534E+001,-5.02563E+001,9.97516E-001,2.03345E-001,-8.61619E-002,-6.54483E-004,2.03347E-001,-8.61634E-002,-1.29527E-001,2.04134E-001,1.22549E+000,4.56329E-003,0.00000E+000,-4.52017E-003,9.19902E-001,0.00000E+000,-1.55832E-003,-7.33904E-002,1.00000E+000,36
659,1347,-1.35048E+001,4.48094E-001,4.18565E-002,4.23322E+000,-7.16563E-001,6.02859E-002,4.29387E+000,2.02457E-002,6.31039E-001,0,6.59386E+001,-1.19529E+001,9.98376E-001,2.32143E+001,-5.10799E+001,9.98388E-001,2.01222E-001,-8.61765E-002,-1.18150E-003,2.01227E-001,-8.61814E-002,-2.35539E-001,2.01916E-001,1.22289E+000,4.51520E-003,0.00000E+000,-5.41351E-003,9.19885E-001,0.00000E+000,-2.42119E-003,-7.34063E-002,1.00000E+000,36
659,1357,-1.34924E+001,1.04861E+000,3.16115E-002,4.22700E+000,-7.60642E-001,5.51669E-003,4.29490E+000,1.43783E-002,5.73372E-001,0,6.59929E+001,-1.25169E+001,9.97652E-001,2.35150E+001,-5.18546E+001,9.97928E-001,1.99083E-001,-8.62014E-002,-1.72214E-003,1.99093E-001,-8.62117E-002,-3.45853E-001,1.99688E-001,1.22029E+000,4.44037E-003,0.00000E+000,-6.31123E-003,9.19860E-001,0.00000E+000,-3.28829E-003,-7.34312E-002,1.00000E+000,36
1199,1307,3.05111E+001,-1.23923E+000,-6.25433E-002,1.30871E+001,-1.34892E-001,-1.29945E-002,1.30878E+001,2.12526E-002,4.38860E-001,0,1.95696E+002,-3.81874E+000,9.97136E-001,1.64522E+002,-3.12626E+001,9.96133E-001,2.28699E-001,-9.53284E-002,-1.96901E-003,2.28711E-001,-9.53403E-002,-3.48151E-001,2.29763E-001,1.25682E+000,-2.02613E-002,0.00000E+000,1.13862E-002,9.11331E-001,0.00000E+000,-6.36222E-003,-7.14648E-002,1.00000E+000,36
1199,1317,3.05213E+001,-6.47109E-001,-1.15829E-001,1.30801E+001,-1.92614E-001,-6.63361E-002,1.30817E+001,1.88295E-002,4.23146E-001,0,1.95808E+002,-4.65222E+000,9.96136E-001,1.64651E+002,-3.19452E+001,9.94257E-001,2.29494E-001,-9.53309E-002,-1.98450E-003,2.29506E-001,-9.53431E-002,-3.50028E-001,2.30598E-001,1.25782E+000,-2.02350E-002,0.00000E+000,1.13288E-002,9.11329E-001,0.00000E+000,-6.39451E-003,-7.14657E-002,1.00000E+000,36
1199,1327,3.05400E+001,-5.03091E-002,-1.54535E-001,1.30788E+001,-2.46740E-001,-1.15870E-001,1.30817E+001,1.94791E-002,4.16958E-001,0,1.95984E+002,-5.45266E+000,9.97203E-001,1.64931E+002,-3.25820E+001,9.95944E-001,2.30289E-001,-9.53338E-002,-1.99840E-003,2.30301E-001,-9.53460E-002,-3.51616E-001,2.31434E-001,1.25882E+000,-2.02046E-002,0.00000E+000,1.12713E-002,9.11328E-001,0.00000E+000,-6.42682E-003,-7.14667E-002,1.00000E+000,36
659,1317,-1.35585E+001,-1.28650E+000,1.90750E-001,4.20555E+000,-5.41660E-001,1.72714E-001,4.24381E+000,1.66581E-002,6.02484E-001,0,6.51664E+001,-9.38477E+000,9.97044E-001,2.24011E+001,-4.80938E+001,9.94791E-001,2.07567E-001,-8.61473E-002,3.81062E-004,2.07568E-001,-8.61478E-002,7.43347E-002,2.08564E-001,1.23067E+000,4.61985E-003,0.00000E+000,-2.73655E-003,9.19921E-001,0.00000E+000,1.64470E-004,-7.33716E-002,1.00000E+000,36
1199,1337,3.05755E+001,5.51232E-001,-1.27093E-001,1.30795E+001,-3.05977E-001,-1.56345E-001,1.30841E+001,1.50365E-002,4.50120E-001,0,1.96126E+002,-6.34883E+000,9.98286E-001,1.65556E+002,-3.32719E+001,9.97331E-001,2.31092E-001,-9.53380E-002,-2.00390E-003,2.31104E-001,-9.53503E-002,-3.51712E-001,2.32278E-001,1.25984E+000,-2.01518E-002,0.00000E+000,1.12132E-002,9.11325E-001,0.00000E+000,-6.45946E-003,-7.14684E-002,1.00000E+000,36
1199,1297,3.05160E+001,-1.81263E+000,2.25255E-002,1.30993E+001,-6.35810E-002,3.35952E-002,1.30995E+001,1.61284E-002,4.48367E-001,0,1.95665E+002,-2.76629E+000,9.96824E-001,1.64671E+002,-3.03591E+001,9.95286E-001,2.27907E-001,-9.53267E-002,-1.94780E-003,2.27919E-001,-9.53385E-002,-3.45247E-001,2.28931E-001,1.25583E+000,-2.02725E-002,0.00000E+000,1.14434E-002,9.11332E-001,0.00000E+000,-6.33009E-003,-7.14645E-002,1.00000E+000,36
649,1347,-1.42996E+001,4.53015E-001,2.88872E-002,4.07852E+000,-7.06938E-001,4.30300E-002,4.13956E+000,1.96603E-002,6.43181E-001,0,6.36195E+001,-1.17422E+001,9.97440E-001,2.10203E+001,-5.10847E+001,9.96378E-001,1.98752E-001,-8.54286E-002,-1.01795E-003,1.98756E-001,-8.54323E-002,-2.05232E-001,1.99407E-001,1.21986E+000,7.39274E-003,0.00000E+000,-7.26576E-003,9.20511E-001,0.00000E+000,-2.67513E-003,-7.26816E-002,1.00000E+000,36
649,1357,-1.42795E+001,1.04484E+000,3.72920E-002,4.08060E+000,-7.58655E-001,9.43676E-003,4.15054E+000,1.32158E-002,5.77909E-001,0,6.37443E+001,-1.24777E+001,9.98232E-001,2.14890E+001,-5.20383E+001,9.97654E-001,1.96278E-001,-8.54494E-002,-1.54142E-003,1.96286E-001,-8.54579E-002,-3.13471E-001,1.96832E-001,1.21685E+000,7.30930E-003,0.00000E+000,-8.13319E-003,9.20487E-001,0.00000E+000,-3.52884E-003,-7.27053E-002,1.00000E+000,36
649,1337,-1.43198E+001,-1.33522E-001,6.43630E-002,4.07001E+000,-6.53314E-001,8.41798E-002,4.12297E+000,2.06521E-002,6.09395E-001,0,6.33675E+001,-1.09753E+001,9.97987E-001,2.06724E+001,-5.01969E+001,9.97320E-001,2.01217E-001,-8.54172E-002,-5.07110E-004,2.01217E-001,-8.54181E-002,-1.01367E-001,2.01981E-001,1.22287E+000,7.44704E-003,0.00000E+000,-6.39917E-003,9.20527E-001,0.00000E+000,-1.82223E-003,-7.26662E-002,1.00000E+000,36
649,1327,-1.43427E+001,-6.96523E-001,1.04328E-001,4.05564E+000,-5.80759E-001,1.11503E-001,4.09853E+000,1.60453E-002,5.82645E-001,0,6.30556E+001,-9.85501E+000,9.98790E-001,2.03024E+001,-4.89550E+001,9.98574E-001,2.03662E-001,-8.54104E-002,-5.05611E-006,2.03662E-001,-8.54104E-002,-1.00215E-003,2.04542E-001,1.22586E+000,7.48641E-003,0.00000E+000,-5.53691E-003,9.20538E-001,0.00000E+000,-9.73608E-004,-7.26551E-002,1.00000E+000,36
1209,1307,3.13458E+001,-1.22359E+000,-6.83415E-002,1.32551E+001,-1.26057E-001,-2.66602E-002,1.32557E+001,1.58093E-002,4.57342E-001,0,1.98088E+002,-3.69208E+000,9.97865E-001,1.67583E+002,-3.08988E+001,9.96425E-001,2.28131E-001,-9.48732E-002,-1.46167E-003,2.28138E-001,-9.48798E-002,-2.59269E-001,2.29212E-001,1.25613E+000,-1.90608E-002,0.00000E+000,1.14911E-002,9.11727E-001,0.00000E+000,-6.67391E-003,-7.12270E-002,1.00000E+000,36
1209,1317,3.13541E+001,-6.40464E-001,-1.24646E-001,1.32479E+001,-1.91967E-001,-7.59902E-002,1.32495E+001,1.78635E-002,4.36969E-001,0,1.98189E+002,-4.65809E+000,9.97826E-001,1.67678E+002,-3.17155E+001,9.94939E-001,2.28944E-001,-9.48754E-002,-1.47569E-003,2.28951E-001,-9.48821E-002,-2.61097E-001,2.30066E-001,1.25715E+000,-1.90366E-002,0.00000E+000,1.14315E-002,9.11726E-001,0.00000E+000,-6.60188E-003,-7.12252E-002,1.00000E+000,36
1209,1327,3.13862E+001,-3.49781E-002,-1.45969E-001,1.32554E+001,-2.39684E-001,-1.25796E-001,1.32581E+001,1.76949E-002,3.79483E-001,0,1.98485E+002,-5.34473E+000,9.98146E-001,1.68190E+002,-3.22777E+001,9.96505E-001,2.29759E-001,-9.48784E-002,-1.48427E-003,2.29766E-001,-9.48852E-002,-2.61954E-001,2.30923E-001,1.25817E+000,-1.89981E-002,0.00000E+000,1.13718E-002,9.11724E-001,0.00000E+000,-6.52961E-003,-7.12225E-002,1.00000E+000,36
1209,1337,3.14208E+001,5.64113E-001,-1.10541E-001,1.32546E+001,-3.02855E-001,-1.59302E-001,1.32590E+001,1.70630E-002,4.50497E-001,0,1.98578E+002,-6.31882E+000,9.97648E-001,1.68807E+002,-3.30034E+001,9.96298E-001,2.30582E-001,-9.48824E-002,-1.48674E-003,2.30589E-001,-9.48892E-002,-2.61724E-001,2.31789E-001,1.25921E+000,-1.89433E-002,0.00000E+000,1.13114E-002,9.11721E-001,0.00000E+000,-6.45658E-003,-7.12187E-002,1.00000E+000,36
1209,1297,3.13519E+001,-1.79956E+000,1.45818E-002,1.32703E+001,-5.55820E-002,2.46596E-002,1.32705E+001,1.43041E-002,4.26994E-001,0,1.98085E+002,-2.65055E+000,9.97802E-001,1.67747E+002,-3.00520E+001,9.95941E-001,2.27319E-001,-9.48716E-002,-1.44386E-003,2.27326E-001,-9.48780E-002,-2.56757E-001,2.28358E-001,1.25511E+000,-1.90751E-002,0.00000E+000,1.15505E-002,9.11728E-001,0.00000E+000,-6.74580E-003,-7.12280E-002,1.00000E+000,36
649,1317,-1.43459E+001,-1.28161E+000,1.94267E-001,4.05607E+000,-5.34178E-001,1.61327E-001,4.09428E+000,1.38878E-002,6.02602E-001,0,6.29130E+001,-9.21754E+000,9.97885E-001,2.03643E+001,-4.81337E+001,9.97854E-001,2.06092E-001,-8.54105E-002,4.86459E-004,2.06093E-001,-8.54113E-002,9.56146E-002,2.07097E-001,1.22884E+000,7.50362E-003,0.00000E+000,-4.67709E-003,9.20543E-001,0.00000E+000,-1.27374E-004,-7.26502E-002,1.00000E+000,36
639,1347,-1.50888E+001,4.60029E-001,2.55545E-002,3.93015E+000,-6.93692E-001,4.14602E-002,3.99112E+000,2.00307E-002,5.93762E-001,0,6.13506E+001,-1.14902E+001,9.96413E-001,1.89456E+001,-5.11085E+001,9.95906E-001,1.96482E-001,-8.44534E-002,-8.85201E-004,1.96485E-001,-8.44561E-002,-1.80531E-001,1.97128E-001,1.21707E+000,1.06361E-002,0.00000E+000,-9.46801E-003,9.21327E-001,0.00000E+000,-2.90375E-003,-7.17521E-002,1.00000E+000,36
639,1357,-1.50661E+001,1.05628E+000,3.71119E-002,3.93480E+000,-7.41605E-001,9.96015E-003,4.00409E+000,1.33173E-002,5.86060E-001,0,6.15078E+001,-1.21895E+001,9.97716E-001,1.94651E+001,-5.19740E+001,9.97630E-001,1.93779E-001,-8.44709E-002,-1.38812E-003,1.93786E-001,-8.44778E-002,-2.85826E-001,1.94316E-001,1.21380E+000,1.05452E-002,0.00000E+000,-1.03000E-002,9.21304E-001,0.00000E+000,-3.76588E-003,-7.17760E-002,1.00000E+000,36
639,1317,-1.51227E+001,-1.29461E+000,2.15447E-001,3.91717E+000,-5.45811E-001,1.69308E-001,3.95864E+000,1.82804E-002,6.64396E-001,0,6.07716E+001,-9.40209E+000,9.97702E-001,1.85410E+001,-4.84542E+001,9.97000E-001,2.04475E-001,-8.44477E-002,5.43041E-004,2.04476E-001,-8.44487E-002,1.07689E-001,2.05505E-001,1.22683E+000,1.07421E-002,0.00000E+000,-6.99172E-003,9.21354E-001,0.00000E+000,-3.37706E-004,-7.17242E-002,1.00000E+000,36
639,1327,-1.51162E+001,-7.19092E-001,1.26857E-001,3.92142E+000,-5.98573E-001,1.28590E-001,3.96892E+000,1.33479E-002,5.95744E-001,0,6.09629E+001,-1.01645E+001,9.98295E-001,1.85297E+001,-4.94517E+001,9.97642E-001,2.01835E-001,-8.44430E-002,7.95976E-005,2.01835E-001,-8.44430E-002,1.59307E-002,2.02729E-001,1.22360E+000,1.07306E-002,0.00000E+000,-7.81224E-003,9.21351E-001,0.00000E+000,-1.18796E-003,-7.17272E-002,1.00000E+000,36
639,1337,-1.51079E+001,-1.27685E-001,5.75628E-002,3.92309E+000,-6.42950E-001,8.23619E-002,3.97628E+000,1.65196E-002,6.28891E-001,0,6.11237E+001,-1.07729E+001,9.97430E-001,1.86028E+001,-5.01948E+001,9.96914E-001,1.99163E-001,-8.44443E-002,-3.96995E-004,1.99163E-001,-8.44448E-002,-8.02028E-002,1.99929E-001,1.22034E+000,1.06972E-002,0.00000E+000,-8.64000E-003,9.21343E-001,0.00000E+000,-2.04572E-003,-7.17360E-002,1.00000E+000,36
1219,1317,3.21967E+001,-6.28819E-001,-1.19850E-001,1.34214E+001,-1.90640E-001,-8.57732E-002,1.34230E+001,2.16430E-002,4.93631E-001,0,2.00644E+002,-4.63957E+000,9.97777E-001,1.70880E+002,-3.14155E+001,9.95107E-001,2.28152E-001,-9.48893E-002,-8.71438E-004,2.28154E-001,-9.48916E-002,-1.54560E-001,2.29227E-001,1.25617E+000,-1.75362E-002,0.00000E+000,1.14644E-002,9.11669E-001,0.00000E+000,-6.45210E-003,-7.05654E-002,1.00000E+000,36
1219,1327,3.22232E+001,-2.44149E-002,-1.44072E-001,1.34251E+001,-2.37393E-001,-1.30501E-001,1.34279E+001,1.08301E-002,4.08149E-001,0,2.00867E+002,-5.32651E+000,9.99092E-001,1.71298E+002,-3.20014E+001,9.98046E-001,2.28902E-001,-9.48913E-002,-8.74855E-004,2.28904E-001,-9.48937E-002,-1.54806E-001,2.30015E-001,1.25711E+000,-1.75036E-002,0.00000E+000,1.14083E-002,9.11667E-001,0.00000E+000,-6.19556E-003,-7.05565E-002,1.00000E+000,36
1219,1337,3.22604E+001,5.79543E-001,-1.18892E-001,1.34261E+001,-2.96268E-001,-1.76800E-001,1.34305E+001,1.66686E-002,4.81131E-001,0,2.01037E+002,-6.20985E+000,9.98079E-001,1.71942E+002,-3.26257E+001,9.96341E-001,2.29661E-001,-9.48942E-002,-8.71018E-004,2.29663E-001,-9.48966E-002,-1.53765E-001,2.30814E-001,1.25807E+000,-1.74517E-002,0.00000E+000,1.13516E-002,9.11664E-001,0.00000E+000,-5.93557E-003,-7.05424E-002,1.00000E+000,36
1219,1297,3.21923E+001,-1.78746E+000,9.57964E-003,1.34443E+001,-5.05732E-002,1.45253E-002,1.34444E+001,1.57342E-002,3.96485E-001,0,2.00548E+002,-2.55253E+000,9.97730E-001,1.70903E+002,-2.97707E+001,9.95933E-001,2.26649E-001,-9.48863E-002,-8.54538E-004,2.26652E-001,-9.48886E-002,-1.52272E-001,2.27649E-001,1.25429E+000,-1.75757E-002,0.00000E+000,1.15764E-002,9.11671E-001,0.00000E+000,-6.96533E-003,-7.05762E-002,1.00000E+000,36
1219,1307,3.21920E+001,-1.20832E+000,-5.89581E-002,1.34324E+001,-1.19562E-001,-3.19589E-002,1.34329E+001,2.03687E-002,4.29804E-001,0,2.00576E+002,-3.58262E+000,9.97750E-001,1.70849E+002,-3.05953E+001,9.95136E-001,2.27400E-001,-9.48877E-002,-8.64055E-004,2.27402E-001,-9.48900E-002,-1.53609E-001,2.28437E-001,1.25523E+000,-1.75588E-002,0.00000E+000,1.15204E-002,9.11670E-001,0.00000E+000,-6.70902E-003,-7.05716E-002,1.00000E+000,36
629,1347,-1.58694E+001,4.52630E-001,2.31300E-002,3.79035E+000,-6.94723E-001,4.34652E-002,3.85374E+000,1.84966E-002,5.76103E-001,0,5.92061E+001,-1.14832E+001,9.95701E-001,1.70056E+001,-5.13388E+001,9.95002E-001,1.94589E-001,-8.48403E-002,-8.70522E-004,1.94591E-001,-8.48430E-002,-1.78495E-001,1.95122E-001,1.21474E+000,1.39923E-002,0.00000E+000,-1.19874E-002,9.20936E-001,0.00000E+000,-2.84779E-003,-7.16749E-002,1.00000E+000,36
629,1357,-1.58399E+001,1.04916E+000,3.48993E-002,3.80165E+000,-7.42453E-001,1.03455E-002,3.87349E+000,1.55566E-002,5.72339E-001,0,5.94706E+001,-1.21778E+001,9.96230E-001,1.76313E+001,-5.21995E+001,9.95995E-001,1.91993E-001,-8.48485E-002,-1.15275E-003,1.91998E-001,-8.48533E-002,-2.38571E-001,1.92429E-001,1.21160E+000,1.39049E-002,0.00000E+000,-1.24261E-002,9.20923E-001,0.00000E+000,-3.56721E-003,-7.16949E-002,1.00000E+000,36
629,1327,-1.58955E+001,-7.18439E-001,1.25094E-001,3.78241E+000,-5.92145E-001,1.29138E-001,3.83065E+000,1.43328E-002,5.82680E-001,0,5.88341E+001,-1.00431E+001,9.97287E-001,1.66134E+001,-4.95534E+001,9.96755E-001,1.99731E-001,-8.48383E-002,-3.44483E-004,1.99732E-001,-8.48387E-002,-6.93588E-002,2.00484E-001,1.22100E+000,1.40797E-002,0.00000E+000,-1.11142E-002,9.20948E-001,0.00000E+000,-1.41586E-003,-7.16549E-002,1.00000E+000,36
629,1337,-1.58824E+001,-1.34318E-001,6.02841E-002,3.78890E+000,-6.43505E-001,8.69305E-002,3.84414E+000,1.72041E-002,6.20053E-001,0,5.90595E+001,-1.07745E+001,9.96853E-001,1.67708E+001,-5.04174E+001,9.96255E-001,1.97164E-001,-8.48373E-002,-6.02579E-004,1.97166E-001,-8.48386E-002,-1.22428E-001,1.97803E-001,1.21787E+000,1.40479E-002,0.00000E+000,-1.15507E-002,9.20943E-001,0.00000E+000,-2.13165E-003,-7.16622E-002,1.00000E+000,36
1229,1317,3.30380E+001,-6.05524E-001,-1.37479E-001,1.35962E+001,-1.73726E-001,-1.06295E-001,1.35977E+001,2.42777E-002,4.51573E-001,0,2.03158E+002,-4.34705E+000,9.97560E-001,1.74041E+002,-3.09349E+001,9.95443E-001,2.27640E-001,-9.44287E-002,-1.69654E-004,2.27640E-001,-9.44288E-002,-3.01814E-002,2.28738E-001,1.25555E+000,-1.59945E-002,0.00000E+000,1.16130E-002,9.12044E-001,0.00000E+000,-5.74633E-003,-6.99214E-002,1.00000E+000,36
1229,1327,3.30588E+001,-1.72172E-002,-1.43256E-001,1.35936E+001,-2.39864E-001,-1.33898E-001,1.35964E+001,1.43652E-002,4.75264E-001,0,2.03222E+002,-5.37629E+000,9.98242E-001,1.74388E+002,-3.17562E+001,9.97065E-001,2.28284E-001,-9.44273E-002,-1.39930E-004,2.28284E-001,-9.44274E-002,-2.48438E-002,2.29417E-001,1.25635E+000,-1.59658E-002,0.00000E+000,1.16191E-002,9.12045E-001,0.00000E+000,-5.42170E-003,-6.99099E-002,1.00000E+000,36
1229,1337,3.30990E+001,5.92353E-001,-1.28999E-001,1.36004E+001,-2.88118E-001,-1.79982E-001,1.36046E+001,1.54112E-002,4.28352E-001,0,2.03478E+002,-6.09636E+000,9.97346E-001,1.75064E+002,-3.23270E+001,9.96336E-001,2.28930E-001,-9.44254E-002,-1.05385E-004,2.28930E-001,-9.44255E-002,-1.86734E-002,2.30096E-001,1.25716E+000,-1.59247E-002,0.00000E+000,1.16253E-002,9.12045E-001,0.00000E+000,-5.09651E-003,-6.98934E-002,1.00000E+000,36
629,1317,-1.59096E+001,-1.29145E+000,2.21962E-001,3.77028E+000,-5.36686E-001,1.77028E-001,3.81240E+000,1.57085E-002,6.23518E-001,0,5.85003E+001,-9.24818E+000,9.97788E-001,1.65323E+001,-4.85479E+001,9.96861E-001,2.02271E-001,-8.48427E-002,-9.72429E-005,2.02271E-001,-8.48427E-002,-1.94056E-002,2.03144E-001,1.22410E+000,1.40896E-002,0.00000E+000,-1.06810E-002,9.20949E-001,0.00000E+000,-7.05505E-004,-7.16527E-002,1.00000E+000,36
1229,1297,3.30330E+001,-1.77191E+000,6.93312E-003,1.36181E+001,-4.24103E-002,6.87696E-003,1.36182E+001,1.83384E-002,4.36094E-001,0,2.02992E+002,-2.44145E+000,9.96368E-001,1.74071E+002,-2.94058E+001,9.93538E-001,2.26355E-001,-9.44307E-002,-2.19528E-004,2.26355E-001,-9.44308E-002,-3.92100E-002,2.27388E-001,1.25394E+000,-1.60278E-002,0.00000E+000,1.16007E-002,9.12044E-001,0.00000E+000,-6.39221E-003,-6.99348E-002,1.00000E+000,36
1229,1307,3.30441E+001,-1.18491E+000,-6.06130E-002,1.36188E+001,-1.02478E-001,-3.33173E-002,1.36193E+001,2.71266E-002,4.39675E-001,0,2.03180E+002,-3.34522E+000,9.95755E-001,1.74196E+002,-3.01224E+001,9.94045E-001,2.26996E-001,-9.44298E-002,-1.96095E-004,2.26997E-001,-9.44300E-002,-3.49548E-002,2.28062E-001,1.25474E+000,-1.60149E-002,0.00000E+000,1.16068E-002,9.12044E-001,0.00000E+000,-6.06982E-003,-6.99296E-002,1.00000E+000,36
619,1327,-1.66791E+001,-7.19241E-001,1.26555E-001,3.63844E+000,-5.87415E-001,1.31590E-001,3.68791E+000,1.17143E-002,5.77892E-001,0,5.66201E+001,-9.95525E+000,9.97392E-001,1.46454E+001,-4.96812E+001,9.97405E-001,1.98129E-001,-8.40821E-002,-6.34534E-004,1.98130E-001,-8.40835E-002,-1.28825E-001,1.98884E-001,1.21900E+000,1.76021E-002,0.00000E+000,-1.43138E-002,9.21603E-001,0.00000E+000,-1.64938E-003,-7.17072E-002,1.00000E+000,36
619,1337,-1.66607E+001,-1.34486E-001,6.43584E-002,3.64953E+000,-6.38533E-001,8.73897E-002,3.70600E+000,1.43061E-002,6.22494E-001,0,5.69211E+001,-1.06833E+001,9.95550E-001,1.48913E+001,-5.05387E+001,9.95318E-001,1.95408E-001,-8.40809E-002,-7.79077E-004,1.95411E-001,-8.40831E-002,-1.59710E-001,1.96043E-001,1.21569E+000,1.75651E-002,0.00000E+000,-1.45508E-002,9.21601E-001,0.00000E+000,-2.25771E-003,-7.17140E-002,1.00000E+000,36
619,1347,-1.66414E+001,4.56559E-001,2.28854E-002,3.65859E+000,-6.84456E-001,4.68217E-002,3.72236E+000,1.72530E-002,5.94553E-001,0,5.71769E+001,-1.13235E+001,9.95231E-001,1.52109E+001,-5.13810E+001,9.94563E-001,1.92682E-001,-8.40810E-002,-9.29467E-004,1.92685E-001,-8.40841E-002,-1.92416E-001,1.93204E-001,1.21238E+000,1.75136E-002,0.00000E+000,-1.47877E-002,9.21597E-001,0.00000E+000,-2.86568E-003,-7.17235E-002,1.00000E+000,36
619,1357,-1.66132E+001,1.05313E+000,2.85797E-002,3.66975E+000,-7.30984E-001,1.33325E-002,3.74187E+000,1.58868E-002,5.86558E-001,0,5.74404E+001,-1.19975E+001,9.96873E-001,1.58016E+001,-5.22317E+001,9.96615E-001,1.89936E-001,-8.40843E-002,-1.09456E-003,1.89940E-001,-8.40886E-002,-2.28860E-001,1.90355E-001,1.20906E+000,1.74276E-002,0.00000E+000,-1.50256E-002,9.21591E-001,0.00000E+000,-3.47622E-003,-7.17393E-002,1.00000E+000,36
619,1317,-1.66893E+001,-1.28782E+000,2.24739E-001,3.63027E+000,-5.26081E-001,1.81301E-001,3.67267E+000,1.95563E-002,6.07531E-001,0,5.63424E+001,-9.09234E+000,9.96555E-001,1.46292E+001,-4.86134E+001,9.95711E-001,2.00826E-001,-8.40855E-002,-5.01328E-004,2.00827E-001,-8.40864E-002,-1.00817E-001,2.01710E-001,1.22229E+000,1.76129E-002,0.00000E+000,-1.40780E-002,9.21604E-001,0.00000E+000,-1.04423E-003,-7.17052E-002,1.00000E+000,36
1239,1307,3.38698E+001,-1.17673E+000,-8.26119E-002,1.37793E+001,-9.90089E-002,-5.20811E-002,1.37797E+001,2.76447E-002,4.15560E-001,0,2.05478E+002,-3.27694E+000,9.95389E-001,1.77111E+002,-2.98624E+001,9.93054E-001,2.26245E-001,-9.36346E-002,9.31712E-005,2.26245E-001,-9.36346E-002,1.66885E-002,2.27361E-001,1.25381E+000,-1.48828E-002,0.00000E+000,1.13466E-002,9.12769E-001,0.00000E+000,-6.17052E-003,-6.98660E-002,1.00000E+000,36
1239,1317,3.38835E+001,-5.78951E-001,-1.36349E-001,1.37767E+001,-1.51053E-001,-1.00629E-001,1.37779E+001,2.72446E-002,4.15848E-001,0,2.05639E+002,-4.04902E+000,9.95899E-001,1.77293E+002,-3.04409E+001,9.94846E-001,2.26978E-001,-9.36255E-002,2.27662E-004,2.26978E-001,-9.36257E-002,4.06859E-002,2.28134E-001,1.25473E+000,-1.48600E-002,0.00000E+000,1.15218E-002,9.12774E-001,0.00000E+000,-5.39183E-003,-6.98466E-002,1.00000E+000,36
1239,1327,3.39026E+001,5.69086E-003,-1.33490E-001,1.37676E+001,-2.25791E-001,-1.36921E-001,1.37701E+001,2.04936E-002,4.87320E-001,0,2.05641E+002,-5.18044E+000,9.96730E-001,1.77622E+002,-3.13133E+001,9.95974E-001,2.27717E-001,-9.36119E-002,3.69857E-004,2.27718E-001,-9.36123E-002,6.59486E-002,2.28915E-001,1.25565E+000,-1.48205E-002,0.00000E+000,1.16989E-002,9.12781E-001,0.00000E+000,-4.60496E-003,-6.98130E-002,1.00000E+000,36
1239,1337,3.39267E+001,6.12521E-001,-1.26722E-001,1.37617E+001,-2.74042E-001,-1.76601E-001,1.37656E+001,1.71359E-002,4.12439E-001,0,2.05690E+002,-5.91457E+000,9.96081E-001,1.78035E+002,-3.19246E+001,9.94050E-001,2.28450E-001,-9.35977E-002,5.12009E-004,2.28451E-001,-9.35985E-002,9.10916E-002,2.29689E-001,1.25657E+000,-1.47787E-002,0.00000E+000,1.18747E-002,9.12789E-001,0.00000E+000,-3.82379E-003,-6.97774E-002,1.00000E+000,36
1239,1297,3.38677E+001,-1.76064E+000,1.68998E-003,1.37866E+001,-3.62198E-002,8.39428E-004,1.37867E+001,1.74068E-002,4.53782E-001,0,2.05350E+002,-2.37904E+000,9.96581E-001,1.77147E+002,-2.91138E+001,9.94146E-001,2.25513E-001,-9.36411E-002,-3.73045E-005,2.25513E-001,-9.36411E-002,-6.69705E-003,2.26590E-001,1.25290E+000,-1.48961E-002,0.00000E+000,1.11717E-002,9.12767E-001,0.00000E+000,-6.94740E-003,-6.98773E-002,1.00000E+000,36
609,1347,-1.74142E+001,4.53646E-001,2.52364E-002,3.52473E+000,-6.82264E-001,4.73607E-002,3.59047E+000,2.17707E-002,6.22917E-001,0,5.51214E+001,-1.12819E+001,9.94648E-001,1.34157E+001,-5.15291E+001,9.94388E-001,1.90819E-001,-8.23934E-002,-1.21408E-003,1.90825E-001,-8.23988E-002,-2.54599E-001,1.91415E-001,1.21007E+000,2.08328E-002,0.00000E+000,-1.79047E-002,9.23026E-001,0.00000E+000,-2.65158E-003,-7.06083E-002,1.00000E+000,36
609,1357,-1.73886E+001,1.05894E+000,2.63690E-002,3.53438E+000,-7.18958E-001,1.46640E-002,3.60679E+000,1.73308E-002,6.03496E-001,0,5.53570E+001,-1.17991E+001,9.96701E-001,1.39577E+001,-5.22441E+001,9.96236E-001,1.87980E-001,-8.23947E-002,-1.33057E-003,1.87986E-001,-8.24013E-002,-2.81957E-001,1.88462E-001,1.20665E+000,2.07498E-002,0.00000E+000,-1.80542E-002,9.23022E-001,0.00000E+000,-3.40445E-003,-7.06265E-002,1.00000E+000,36
609,1317,-1.74753E+001,-1.29261E+000,2.16920E-001,3.48301E+000,-5.25307E-001,1.71674E-001,3.52658E+000,1.91218E-002,6.29136E-001,0,5.41088E+001,-9.06365E+000,9.97095E-001,1.26036E+001,-4.87681E+001,9.95986E-001,1.99250E-001,-8.23988E-002,-9.25972E-004,1.99253E-001,-8.24018E-002,-1.88368E-001,2.00243E-001,1.22031E+000,2.09340E-002,0.00000E+000,-1.74581E-002,9.23031E-001,0.00000E+000,-4.02173E-004,-7.05860E-002,1.00000E+000,36
609,1327,-1.74596E+001,-7.26217E-001,1.26010E-001,3.49713E+000,-5.89875E-001,1.32132E-001,3.54899E+000,1.37397E-002,6.34972E-001,0,5.44514E+001,-9.99191E+000,9.97629E-001,1.27222E+001,-4.98684E+001,9.97064E-001,1.96452E-001,-8.23954E-002,-1.01167E-003,1.96456E-001,-8.23991E-002,-2.07868E-001,1.97304E-001,1.21690E+000,2.09255E-002,0.00000E+000,-1.76068E-002,9.23030E-001,0.00000E+000,-1.15093E-003,-7.05879E-002,1.00000E+000,36
609,1337,-1.74373E+001,-1.34517E-001,6.57814E-002,3.51213E+000,-6.32350E-001,8.94281E-002,3.56972E+000,1.75371E-002,6.04720E-001,0,5.48062E+001,-1.05741E+001,9.95356E-001,1.30350E+001,-5.06622E+001,9.95129E-001,1.93645E-001,-8.23939E-002,-1.10931E-003,1.93649E-001,-8.23983E-002,-2.30248E-001,1.94365E-001,1.21349E+000,2.08876E-002,0.00000E+000,-1.77555E-002,9.23029E-001,0.00000E+000,-1.89995E-003,-7.05962E-002,1.00000E+000,36
1249,1297,3.47085E+001,-1.74073E+000,1.09273E-002,1.39591E+001,-2.33903E-002,3.60837E-003,1.39591E+001,1.93893E-002,5.04746E-001,0,2.07717E+002,-2.23297E+000,9.97091E-001,1.80337E+002,-2.87014E+001,9.95281E-001,2.24248E-001,-9.27588E-002,1.50336E-004,2.24248E-001,-9.27589E-002,2.71717E-002,2.25360E-001,1.25134E+000,-1.32301E-002,0.00000E+000,1.03810E-002,9.13569E-001,0.00000E+000,-7.72908E-003,-6.96763E-002,1.00000E+000,36
1249,1307,3.47044E+001,-1.16280E+000,-8.20183E-002,1.39480E+001,-9.04904E-002,-4.85108E-002,1.39484E+001,2.44614E-002,4.50576E-001,0,2.07794E+002,-3.19953E+000,9.96774E-001,1.80196E+002,-2.95316E+001,9.94543E-001,2.25226E-001,-9.27436E-002,5.08898E-004,2.25226E-001,-9.27444E-002,9.16995E-002,2.26392E-001,1.25256E+000,-1.32170E-002,0.00000E+000,1.09372E-002,9.13575E-001,0.00000E+000,-6.31364E-003,-6.96610E-002,1.00000E+000,36
1249,1317,3.47099E+001,-5.75007E-001,-1.40669E-001,1.39381E+001,-1.51839E-001,-9.81353E-002,1.39393E+001,2.42349E-002,4.03238E-001,0,2.07860E+002,-4.09335E+000,9.94004E-001,1.80243E+002,-3.02780E+001,9.92464E-001,2.26203E-001,-9.27190E-002,8.74587E-004,2.26205E-001,-9.27214E-002,1.57122E-001,2.27426E-001,1.25377E+000,-1.31882E-002,0.00000E+000,1.14951E-002,9.13588E-001,0.00000E+000,-4.89370E-003,-6.96274E-002,1.00000E+000,36
1249,1327,3.47254E+001,3.00552E-002,-1.51349E-001,1.39280E+001,-2.03025E-001,-1.37750E-001,1.39302E+001,2.31860E-002,4.47206E-001,0,2.07856E+002,-4.87455E+000,9.94356E-001,1.80500E+002,-3.08154E+001,9.93758E-001,2.27184E-001,-9.26831E-002,1.24999E-003,2.27189E-001,-9.26880E-002,2.23898E-001,2.28468E-001,1.25500E+000,-1.31405E-002,0.00000E+000,1.20570E-002,9.13610E-001,0.00000E+000,-3.46357E-003,-6.95717E-002,1.00000E+000,36
1249,1337,3.47535E+001,6.35811E-001,-1.35582E-001,1.39233E+001,-2.56333E-001,-1.78602E-001,1.39268E+001,1.79529E-002,4.15439E-001,0,2.07924E+002,-5.67058E+000,9.97188E-001,1.80983E+002,-3.14397E+001,9.96773E-001,2.28163E-001,-9.26392E-002,1.63101E-003,2.28172E-001,-9.26475E-002,2.91291E-001,2.29511E-001,1.25623E+000,-1.30791E-002,0.00000E+000,1.26197E-002,9.13638E-001,0.00000E+000,-2.03119E-003,-6.95001E-002,1.00000E+000,36
1259,1327,3.55590E+001,4.40667E-002,-1.60624E-001,1.40952E+001,-1.93640E-001,-1.43549E-001,1.40972E+001,1.82470E-002,4.25804E-001,0,2.10187E+002,-4.75618E+000,9.97611E-001,1.83560E+002,-3.04871E+001,9.96976E-001,2.26922E-001,-9.21807E-002,1.96394E-003,2.26934E-001,-9.21928E-002,3.52612E-001,2.28260E-001,1.25468E+000,-1.23209E-002,0.00000E+000,1.26701E-002,9.14051E-001,0.00000E+000,-1.48708E-003,-6.93950E-002,1.00000E+000,36
1259,1337,3.55871E+001,6.48240E-001,-1.34391E-001,1.40897E+001,-2.49311E-001,-1.75572E-001,1.40930E+001,1.68829E-002,4.03581E-001,0,2.10207E+002,-5.60813E+000,9.98330E-001,1.84053E+002,-3.11530E+001,9.98284E-001,2.27987E-001,-9.21175E-002,2.49353E-003,2.28006E-001,-9.21369E-002,4.46283E-001,2.29400E-001,1.25602E+000,-1.22524E-002,0.00000E+000,1.34600E-002,9.14091E-001,0.00000E+000,6.46989E-004,-6.92859E-002,1.00000E+000,36
599,1347,-1.81777E+001,4.66407E-001,3.54080E-002,3.39928E+000,-6.64373E-001,5.27366E-002,3.46400E+000,2.17642E-002,6.50724E-001,0,5.31766E+001,-1.10135E+001,9.96778E-001,1.17944E+001,-5.14529E+001,9.96942E-001,1.89850E-001,-8.23142E-002,-9.44369E-004,1.89853E-001,-8.23175E-002,-1.98805E-001,1.90411E-001,1.20885E+000,2.33952E-002,0.00000E+000,-1.93827E-002,9.22980E-001,0.00000E+000,-2.45827E-003,-6.92306E-002,1.00000E+000,36
599,1357,-1.81473E+001,1.05599E+000,3.11844E-002,3.41435E+000,-7.16455E-001,1.74787E-002,3.48875E+000,1.44488E-002,6.24161E-001,0,5.35079E+001,-1.17582E+001,9.97332E-001,1.23919E+001,-5.24023E+001,9.97065E-001,1.87192E-001,-8.23129E-002,-7.44061E-004,1.87194E-001,-8.23150E-002,-1.58183E-001,1.87647E-001,1.20565E+000,2.33208E-002,0.00000E+000,-1.89477E-002,9.22990E-001,0.00000E+000,-3.27295E-003,-6.92495E-002,1.00000E+000,36
1259,1287,3.55449E+001,-2.30751E+000,9.02495E-002,1.41323E+001,5.00202E-002,3.00901E-002,1.41324E+001,1.97248E-002,4.49439E-001,0,2.09972E+002,-1.12133E+000,9.95669E-001,1.83515E+002,-2.76283E+001,9.92157E-001,2.22639E-001,-9.23022E-002,-7.46777E-005,2.22639E-001,-9.23022E-002,-1.35858E-002,2.23719E-001,1.24936E+000,-1.24254E-002,0.00000E+000,9.53805E-003,9.13989E-001,0.00000E+000,-9.94835E-003,-6.95614E-002,1.00000E+000,36
1259,1297,3.55379E+001,-1.73049E+000,-2.15844E-002,1.41239E+001,-1.68401E-002,-1.97337E-002,1.41239E+001,1.78643E-002,4.57931E-001,0,2.10090E+002,-2.09735E+000,9.96547E-001,1.83308E+002,-2.84003E+001,9.93475E-001,2.23716E-001,-9.22899E-002,4.24701E-004,2.23716E-001,-9.22905E-002,7.70034E-002,2.24854E-001,1.25069E+000,-1.24225E-002,0.00000E+000,1.03186E-002,9.13991E-001,0.00000E+000,-7.83964E-003,-6.95568E-002,1.00000E+000,36
1259,1307,3.55367E+001,-1.14612E+000,-1.01555E-001,1.41144E+001,-7.91873E-002,-6.34875E-002,1.41148E+001,1.78703E-002,4.49989E-001,0,2.10151E+002,-3.02023E+000,9.96857E-001,1.83227E+002,-2.91328E+001,9.95349E-001,2.24788E-001,-9.22667E-002,9.30230E-004,2.24791E-001,-9.22694E-002,1.68102E-001,2.25989E-001,1.25201E+000,-1.24056E-002,0.00000E+000,1.11005E-002,9.14001E-001,0.00000E+000,-5.72739E-003,-6.95299E-002,1.00000E+000,36
599,1327,-1.82345E+001,-7.06412E-001,1.34402E-001,3.35969E+000,-5.65991E-001,1.33354E-001,3.40964E+000,1.54483E-002,6.17041E-001,0,5.23306E+001,-9.59126E+000,9.97559E-001,1.09235E+001,-4.97001E+001,9.96875E-001,1.95122E-001,-8.23083E-002,-1.36937E-003,1.95129E-001,-8.23151E-002,-2.82797E-001,1.95922E-001,1.21524E+000,2.34787E-002,0.00000E+000,-2.02492E-002,9.22969E-001,0.00000E+000,-8.35116E-004,-6.92094E-002,1.00000E+000,36
599,1337,-1.82105E+001,-1.25768E-001,6.31404E-002,3.37793E+000,-6.17977E-001,8.82457E-002,3.43513E+000,1.47825E-002,6.12331E-001,0,5.27453E+001,-1.03318E+001,9.96936E-001,1.12278E+001,-5.06291E+001,9.97223E-001,1.92496E-001,-8.23130E-002,-1.15186E-003,1.92501E-001,-8.23179E-002,-2.40150E-001,1.93172E-001,1.21205E+000,2.34508E-002,0.00000E+000,-1.98169E-002,9.22973E-001,0.00000E+000,-1.64486E-003,-6.92165E-002,1.00000E+000,36
1259,1317,3.55446E+001,-5.54492E-001,-1.43626E-001,1.41065E+001,-1.37678E-001,-9.76736E-002,1.41075E+001,1.89541E-002,4.54649E-001,0,2.10177E+002,-3.92089E+000,9.97298E-001,1.83329E+002,-2.98276E+001,9.96014E-001,2.25857E-001,-9.22314E-002,1.44265E-003,2.25863E-001,-9.22380E-002,2.59851E-001,2.27124E-001,1.25334E+000,-1.23732E-002,0.00000E+000,1.18841E-002,9.14020E-001,0.00000E+000,-3.61033E-003,-6.94784E-002,1.00000E+000,36
599,1317,-1.82603E+001,-1.28725E+000,2.29801E-001,3.33524E+000,-5.16839E-001,1.76357E-001,3.37965E+000,1.90319E-002,5.92169E-001,0,5.18222E+001,-8.89179E+000,9.97279E-001,1.06610E+001,-4.88400E+001,9.97160E-001,1.97739E-001,-8.23008E-002,-1.59510E-003,1.97748E-001,-8.23099E-002,-3.26342E-001,1.98671E-001,1.21842E+000,2.34855E-002,0.00000E+000,-2.06814E-002,9.22968E-001,0.00000E+000,-2.57168E-005,-6.92076E-002,1.00000E+000,36
589,1347,-1.89524E+001,4.79422E-001,3.95247E-002,3.26299E+000,-6.45739E-001,5.65817E-002,3.32675E+000,1.56352E-002,6.48168E-001,0,5.10647E+001,-1.07106E+001,9.97262E-001,9.99074E+000,-5.13766E+001,9.97128E-001,1.88988E-001,-8.19031E-002,-1.93970E-004,1.88988E-001,-8.19032E-002,-4.10262E-002,1.89547E-001,1.20773E+000,2.70402E-002,0.00000E+000,-2.07844E-002,9.23254E-001,0.00000E+000,-2.45081E-003,-6.80527E-002,1.00000E+000,36
589,1357,-1.89163E+001,1.06730E+000,3.71161E-002,3.28334E+000,-7.00537E-001,1.98203E-002,3.35731E+000,1.24324E-002,6.35443E-001,0,5.14826E+001,-1.14905E+001,9.97594E-001,1.06813E+001,-5.23506E+001,9.98023E-001,1.86270E-001,-8.19025E-002,8.35020E-006,1.86270E-001,-8.19025E-002,1.78404E-003,1.86721E-001,1.20446E+000,2.69624E-002,0.00000E+000,-2.03608E-002,9.23264E-001,0.00000E+000,-3.13784E-003,-6.80690E-002,1.00000E+000,36
589,1337,-1.89791E+001,-1.18910E-001,7.18088E-002,3.24670E+000,-6.06213E-001,9.09108E-002,3.30406E+000,1.08236E-002,6.23389E-001,0,5.07170E+001,-1.01468E+001,9.98441E-001,9.52850E+000,-5.06475E+001,9.98500E-001,1.91690E-001,-8.19002E-002,-4.06244E-004,1.91691E-001,-8.19008E-002,-8.50760E-002,1.92366E-001,1.21100E+000,2.70915E-002,0.00000E+000,-2.12068E-002,9.23247E-001,0.00000E+000,-1.76581E-003,-6.80419E-002,1.00000E+000,36
589,1327,-1.89953E+001,-6.83531E-001,1.43037E-001,3.23633E+000,-5.39012E-001,1.37324E-001,3.28378E+000,1.95035E-002,6.73520E-001,0,5.04189E+001,-9.18261E+000,9.98472E-001,9.34623E+000,-4.94464E+001,9.97466E-001,1.94369E-001,-8.18946E-002,-6.26018E-004,1.94371E-001,-8.18960E-002,-1.29832E-001,1.95171E-001,1.21425E+000,2.71206E-002,0.00000E+000,-2.16268E-002,9.23243E-001,0.00000E+000,-1.08467E-003,-6.80358E-002,1.00000E+000,36
1269,1327,3.63983E+001,6.03852E-002,-1.57030E-001,1.42670E+001,-1.84054E-001,-1.38018E-001,1.42689E+001,1.56749E-002,4.38560E-001,0,2.12531E+002,-4.64850E+000,9.98110E-001,1.86728E+002,-3.01339E+001,9.97206E-001,2.26783E-001,-9.14190E-002,2.58390E-003,2.26804E-001,-9.14399E-002,4.65219E-001,2.28218E-001,1.25451E+000,-1.12898E-002,0.00000E+000,1.30325E-002,9.14612E-001,0.00000E+000,-6.88562E-004,-6.72515E-002,1.00000E+000,36
1269,1337,3.64369E+001,6.55489E-001,-1.32130E-001,1.42710E+001,-2.48850E-001,-1.74689E-001,1.42743E+001,1.50890E-002,4.18105E-001,0,2.12714E+002,-5.64262E+000,9.97985E-001,1.87381E+002,-3.09344E+001,9.96485E-001,2.27988E-001,-9.13379E-002,3.24526E-003,2.28021E-001,-9.13709E-002,5.82208E-001,2.29514E-001,1.25603E+000,-1.12096E-002,0.00000E+000,1.40539E-002,9.14666E-001,0.00000E+000,1.60259E-003,-6.71307E-002,1.00000E+000,36
589,1317,-1.90276E+001,-1.26588E+000,2.42347E-001,3.20517E+000,-4.91368E-001,1.82508E-001,3.24775E+000,1.59477E-002,5.95063E-001,0,4.98010E+001,-8.49075E+000,9.96205E-001,8.99832E+000,-4.86432E+001,9.95382E-001,1.97043E-001,-8.18860E-002,-8.55447E-004,1.97046E-001,-8.18886E-002,-1.75718E-001,1.97980E-001,1.21750E+000,2.71260E-002,0.00000E+000,-2.20473E-002,9.23243E-001,0.00000E+000,-4.02629E-004,-6.80347E-002,1.00000E+000,36
1269,1317,3.63885E+001,-5.36455E-001,-1.42603E-001,1.42809E+001,-1.26281E-001,-1.03004E-001,1.42818E+001,1.62006E-002,4.29747E-001,0,2.12602E+002,-3.75923E+000,9.97673E-001,1.86569E+002,-2.94617E+001,9.96792E-001,2.25576E-001,-9.14782E-002,1.93417E-003,2.25588E-001,-9.14900E-002,3.49512E-001,2.26925E-001,1.25300E+000,-1.13445E-002,0.00000E+000,1.20150E-002,9.14575E-001,0.00000E+000,-2.97100E-003,-6.73340E-002,1.00000E+000,36
1269,1307,3.63787E+001,-1.12954E+000,-9.38393E-002,1.42870E+001,-6.94679E-002,-6.21014E-002,1.42873E+001,1.69923E-002,4.43651E-001,0,2.12520E+002,-2.89919E+000,9.96559E-001,1.86444E+002,-2.87966E+001,9.95669E-001,2.24366E-001,-9.15221E-002,1.29353E-003,2.24371E-001,-9.15274E-002,2.34615E-001,2.25636E-001,1.25149E+000,-1.13814E-002,0.00000E+000,1.10019E-002,9.14550E-001,0.00000E+000,-5.24375E-003,-6.73897E-002,1.00000E+000,36
1269,1297,3.63700E+001,-1.71985E+000,-3.05973E-002,1.42892E+001,-1.18017E-002,-2.57673E-002,1.42893E+001,1.77369E-002,4.37750E-001,0,2.12390E+002,-2.01878E+000,9.95982E-001,1.86353E+002,-2.81300E+001,9.95235E-001,2.23150E-001,-9.15555E-002,6.57722E-004,2.23151E-001,-9.15569E-002,1.19745E-001,2.24346E-001,1.24999E+000,-1.14066E-002,0.00000E+000,9.98971E-003,9.14533E-001,0.00000E+000,-7.51429E-003,-6.74276E-002,1.00000E+000,36
1269,1287,3.63821E+001,-2.30019E+000,9.29541E-002,1.43005E+001,5.04872E-002,2.74544E-002,1.43006E+001,2.26897E-002,4.10738E-001,0,2.12295E+002,-1.10518E+000,9.96581E-001,1.86649E+002,-2.74450E+001,9.94795E-001,2.21931E-001,-9.15658E-002,3.45473E-005,2.21931E-001,-9.15658E-002,6.31398E-003,2.23059E-001,1.24849E+000,-1.14047E-002,0.00000E+000,8.98126E-003,9.14535E-001,0.00000E+000,-9.77651E-003,-6.74248E-002,1.00000E+000,36
579,1347,-1.97182E+001,4.87017E-001,4.76807E-002,3.13452E+000,-6.33392E-001,6.02326E-002,3.19844E+000,1.30784E-002,6.45439E-001,0,4.90742E+001,-1.05028E+001,9.97394E-001,8.33956E+000,-5.13914E+001,9.97750E-001,1.87426E-001,-8.12018E-002,6.42529E-004,1.87428E-001,-8.12033E-002,1.37044E-001,1.87984E-001,1.20576E+000,3.07876E-002,0.00000E+000,-2.20958E-002,9.23830E-001,0.00000E+000,-3.01990E-003,-6.73953E-002,1.00000E+000,36
579,1357,-1.96748E+001,1.08656E+000,4.94014E-002,3.16203E+000,-6.76858E-001,2.57333E-002,3.23377E+000,1.33828E-002,6.59279E-001,0,4.95943E+001,-1.11206E+001,9.98360E-001,9.15759E+000,-5.21833E+001,9.98666E-001,1.84476E-001,-8.12024E-002,9.19669E-004,1.84480E-001,-8.12055E-002,1.98331E-001,1.84919E-001,1.20222E+000,3.07030E-002,0.00000E+000,-2.15333E-002,9.23843E-001,0.00000E+000,-3.83457E-003,-6.74147E-002,1.00000E+000,36
579,1337,-1.97535E+001,-1.06790E-001,8.52052E-002,3.10947E+000,-5.89578E-001,9.97712E-002,3.16645E+000,1.33582E-002,6.26866E-001,0,4.85751E+001,-9.88543E+000,9.96809E-001,7.76135E+000,-5.06000E+001,9.97410E-001,1.90356E-001,-8.11965E-002,3.54466E-004,1.90356E-001,-8.11969E-002,7.47899E-002,1.91040E-001,1.20930E+000,3.08423E-002,0.00000E+000,-2.26564E-002,9.23821E-001,0.00000E+000,-2.20807E-003,-6.73827E-002,1.00000E+000,36
579,1327,-1.97831E+001,-6.76041E-001,1.41011E-001,3.08632E+000,-5.27219E-001,1.34470E-001,3.13391E+000,1.36107E-002,6.65811E-001,0,4.81109E+001,-8.95537E+000,9.98247E-001,7.33016E+000,-4.94424E+001,9.97506E-001,1.93258E-001,-8.11879E-002,6.02489E-005,1.93258E-001,-8.11879E-002,1.25781E-002,1.94079E-001,1.21281E+000,3.08765E-002,0.00000E+000,-2.32136E-002,9.23816E-001,0.00000E+000,-1.40119E-003,-6.73749E-002,1.00000E+000,36
579,1317,-1.98029E+001,-1.24948E+000,2.41292E-001,3.06781E+000,-4.72189E-001,1.82243E-001,3.10929E+000,1.99201E-002,6.59396E-001,0,4.76830E+001,-8.16793E+000,9.96100E-001,7.17775E+000,-4.84647E+001,9.94915E-001,1.96149E-001,-8.11750E-002,-2.44552E-004,1.96149E-001,-8.11752E-002,-5.05251E-002,1.97117E-001,1.21632E+000,3.08834E-002,0.00000E+000,-2.37706E-002,9.23815E-001,0.00000E+000,-5.94618E-004,-6.73733E-002,1.00000E+000,36
1279,1317,3.72195E+001,-5.30110E-001,-1.46616E-001,1.44454E+001,-1.24214E-001,-1.00887E-001,1.44463E+001,1.35197E-002,4.01213E-001,0,2.14853E+002,-3.76144E+000,9.97560E-001,1.89604E+002,-2.92704E+001,9.95970E-001,2.25098E-001,-9.03526E-002,2.35858E-003,2.25116E-001,-9.03702E-002,4.28360E-001,2.26569E-001,1.25241E+000,-1.00829E-002,0.00000E+000,1.18508E-002,9.15463E-001,0.00000E+000,-2.19518E-003,-6.49160E-002,1.00000E+000,36
1279,1327,3.72474E+001,7.39688E-002,-1.53375E-001,1.44479E+001,-1.77234E-001,-1.33671E-001,1.44496E+001,2.35622E-002,4.39825E-001,0,2.15009E+002,-4.57885E+000,9.96085E-001,1.90054E+002,-2.98283E+001,9.95835E-001,2.26498E-001,-9.02793E-002,3.13212E-003,2.26529E-001,-9.03103E-002,5.66436E-001,2.28074E-001,1.25417E+000,-1.00151E-002,0.00000E+000,1.30831E-002,9.15511E-001,0.00000E+000,2.86671E-004,-6.48204E-002,1.00000E+000,36
1279,1337,3.72807E+001,6.67458E-001,-1.33964E-001,1.44465E+001,-2.45199E-001,-1.75342E-001,1.44496E+001,1.90155E-002,4.47170E-001,0,2.15136E+002,-5.60287E+000,9.97081E-001,1.90616E+002,-3.06271E+001,9.96584E-001,2.27893E-001,-9.01837E-002,3.91688E-003,2.27941E-001,-9.02319E-002,7.05414E-001,2.29583E-001,1.25593E+000,-9.92197E-003,0.00000E+000,1.43191E-002,9.15576E-001,0.00000E+000,2.77594E-003,-6.46889E-002,1.00000E+000,36
1279,1307,3.72011E+001,-1.12068E+000,-9.92997E-002,1.44442E+001,-6.48695E-002,-5.69190E-002,1.44445E+001,1.50078E-002,4.32332E-001,0,2.14650E+002,-2.86296E+000,9.97309E-001,1.89344E+002,-2.85570E+001,9.95455E-001,2.23701E-001,-9.04066E-002,1.59866E-003,2.23709E-001,-9.04147E-002,2.91598E-001,2.25075E-001,1.25067E+000,-1.01291E-002,0.00000E+000,1.06282E-002,9.15431E-001,0.00000E+000,-4.65744E-003,-6.49813E-002,1.00000E+000,36
1279,1297,3.72003E+001,-1.70034E+000,-2.52632E-002,1.44508E+001,2.94493E-003,-2.26559E-002,1.44508E+001,2.82109E-002,3.62458E-001,0,2.14582E+002,-1.80862E+000,9.95742E-001,1.89387E+002,-2.77803E+001,9.94671E-001,2.22294E-001,-9.04373E-002,8.48436E-004,2.22296E-001,-9.04396E-002,1.55441E-001,2.23579E-001,1.24892E+000,-1.01492E-002,0.00000E+000,9.40555E-003,9.15417E-001,0.00000E+000,-7.11984E-003,-6.50096E-002,1.00000E+000,36
1279,1287,3.72096E+001,-2.30494E+000,7.88723E-002,1.44633E+001,4.27349E-002,2.57238E-002,1.44633E+001,2.58387E-002,3.12606E-001,0,2.14543E+002,-1.20799E+000,9.96332E-001,1.89619E+002,-2.74451E+001,9.94050E-001,2.20882E-001,-9.04572E-002,1.04702E-004,2.20882E-001,-9.04573E-002,1.92684E-002,2.22084E-001,1.24719E+000,-1.01576E-002,0.00000E+000,8.18663E-003,9.15411E-001,0.00000E+000,-9.57474E-003,-6.50215E-002,1.00000E+000,36
569,1347,-2.04836E+001,5.06078E-001,5.65501E-002,3.00637E+000,-6.09674E-001,6.62727E-002,3.06828E+000,1.41317E-002,6.49515E-001,0,4.70772E+001,-1.01205E+001,9.96907E-001,6.70585E+000,-5.12286E+001,9.96927E-001,1.86418E-001,-8.03944E-002,1.34967E-003,1.86425E-001,-8.04013E-002,2.89822E-001,1.87011E-001,1.20444E+000,3.46970E-002,0.00000E+000,-2.37998E-002,9.24508E-001,0.00000E+000,-3.13138E-003,-6.69585E-002,1.00000E+000,36
569,1357,-2.04437E+001,1.09530E+000,4.81955E-002,3.03176E+000,-6.61111E-001,2.93604E-002,3.10314E+000,1.30380E-002,6.46246E-001,0,4.75731E+001,-1.08644E+001,9.97950E-001,7.43882E+000,-5.21680E+001,9.97646E-001,1.83283E-001,-8.03994E-002,1.78156E-003,1.83295E-001,-8.04114E-002,3.87093E-001,1.83753E-001,1.20068E+000,3.46153E-002,0.00000E+000,-2.29490E-002,9.24526E-001,0.00000E+000,-4.20160E-003,-6.69817E-002,1.00000E+000,36
569,1327,-2.05496E+001,-6.74266E-001,1.42372E-001,2.95787E+000,-5.20078E-001,1.39208E-001,3.00647E+000,2.04939E-002,6.94072E-001,0,4.61185E+001,-8.84651E+000,9.98525E-001,5.65207E+000,-4.95127E+001,9.97988E-001,1.92630E-001,-8.03693E-002,4.64344E-004,1.92630E-001,-8.03701E-002,9.74540E-002,1.93508E-001,1.21194E+000,3.47959E-002,0.00000E+000,-2.54950E-002,9.24486E-001,0.00000E+000,-9.98992E-004,-6.69303E-002,1.00000E+000,36
569,1337,-2.05194E+001,-8.56360E-002,9.05647E-002,2.98003E+000,-5.64762E-001,9.85527E-002,3.03468E+000,1.32335E-002,6.35866E-001,0,4.65768E+001,-9.46816E+000,9.97128E-001,6.10880E+000,-5.03930E+001,9.97477E-001,1.89535E-001,-8.03829E-002,9.07695E-004,1.89538E-001,-8.03860E-002,1.92674E-001,1.90265E-001,1.20820E+000,3.47508E-002,0.00000E+000,-2.46490E-002,9.24496E-001,0.00000E+000,-2.06315E-003,-6.69432E-002,1.00000E+000,36
1289,1327,3.80726E+001,7.82633E-002,-1.67243E-001,1.46073E+001,-1.77432E-001,-1.36024E-001,1.46090E+001,2.14450E-002,4.10446E-001,0,2.17205E+002,-4.59440E+000,9.95170E-001,1.92991E+002,-2.96469E+001,9.94185E-001,2.26274E-001,-8.87566E-002,3.70260E-003,2.26317E-001,-8.88001E-002,6.73282E-001,2.28059E-001,1.25391E+000,-8.27776E-003,0.00000E+000,1.28446E-002,9.16757E-001,0.00000E+000,1.29119E-003,-6.21263E-002,1.00000E+000,36
1289,1337,3.81124E+001,6.83188E-001,-1.34398E-001,1.46123E+001,-2.34405E-001,-1.63580E-001,1.46151E+001,2.03435E-002,4.34274E-001,0,2.17359E+002,-5.48695E+000,9.96688E-001,1.93665E+002,-3.02870E+001,9.96236E-001,2.27980E-001,-8.86503E-002,4.59015E-003,2.28046E-001,-8.87168E-002,8.30377E-001,2.29911E-001,1.25607E+000,-8.16365E-003,0.00000E+000,1.42489E-002,9.16831E-001,0.00000E+000,4.06334E-003,-6.19798E-002,1.00000E+000,36
569,1317,-2.05792E+001,-1.23753E+000,2.43623E-001,2.92795E+000,-4.55217E-001,1.78700E-001,2.96851E+000,2.26102E-002,6.58102E-001,0,4.55314E+001,-7.88885E+000,9.96638E-001,5.35566E+000,-4.83951E+001,9.94925E-001,1.95710E-001,-8.03450E-002,3.08265E-006,1.95710E-001,-8.03450E-002,6.39811E-004,1.96751E-001,1.21568E+000,3.47946E-002,0.00000E+000,-2.63404E-002,9.24486E-001,0.00000E+000,6.44326E-005,-6.69307E-002,1.00000E+000,36
1289,1317,3.80485E+001,-5.24061E-001,-1.47085E-001,1.46063E+001,-1.26253E-001,-9.87441E-002,1.46071E+001,2.06722E-002,4.67460E-001,0,2.17046E+002,-3.82204E+000,9.97750E-001,1.92615E+002,-2.90447E+001,9.94846E-001,2.24570E-001,-8.88313E-002,2.83596E-003,2.24596E-001,-8.88570E-002,5.18411E-001,2.26221E-001,1.25177E+000,-8.35304E-003,0.00000E+000,1.14518E-002,9.16708E-001,0.00000E+000,-1.45821E-003,-6.22229E-002,1.00000E+000,36
1289,1287,3.80348E+001,-2.27973E+000,6.58981E-002,1.46215E+001,6.23138E-002,1.88217E-002,1.46217E+001,2.70641E-002,3.92870E-001,0,2.16726E+002,-9.43972E-001,9.96517E-001,1.92557E+002,-2.68922E+001,9.93253E-001,2.19405E-001,-8.89468E-002,2.90669E-004,2.19405E-001,-8.89470E-002,5.40101E-002,2.20710E-001,1.24536E+000,-8.44843E-003,0.00000E+000,7.28639E-003,9.16646E-001,0.00000E+000,-9.68061E-003,-6.23453E-002,1.00000E+000,36
1289,1297,3.80301E+001,-1.69025E+000,-2.00045E-002,1.46103E+001,7.61585E-003,-2.43373E-002,1.46103E+001,2.93299E-002,2.90449E-001,0,2.16762E+002,-1.74375E+000,9.96572E-001,1.92418E+002,-2.75759E+001,9.94873E-001,2.21130E-001,-8.89173E-002,1.13167E-003,2.21134E-001,-8.89214E-002,2.09126E-001,2.22542E-001,1.24748E+000,-8.42663E-003,0.00000E+000,8.66814E-003,9.16660E-001,0.00000E+000,-6.95307E-003,-6.23173E-002,1.00000E+000,36
1289,1307,3.80377E+001,-1.11391E+000,-1.06773E-001,1.46115E+001,-6.50648E-002,-6.68603E-002,1.46118E+001,1.74355E-002,4.51654E-001,0,2.16986E+002,-2.87140E+000,9.98641E-001,1.92468E+002,-2.83289E+001,9.96879E-001,2.22857E-001,-8.88873E-002,1.97823E-003,2.22869E-001,-8.88998E-002,3.63561E-001,2.24383E-001,1.24963E+000,-8.40565E-003,0.00000E+000,1.00604E-002,9.16674E-001,0.00000E+000,-4.20467E-003,-6.22904E-002,1.00000E+000,36
559,1327,-2.13067E+001,-6.64604E-001,1.40005E-001,2.83745E+000,-5.06670E-001,1.34602E-001,2.88547E+000,3.62275E-002,8.00113E-001,0,4.42714E+001,-8.64659E+000,9.98744E-001,4.11266E+000,-4.94140E+001,9.97829E-001,1.91930E-001,-8.01127E-002,1.16164E-003,1.91935E-001,-8.01176E-002,2.44651E-001,1.92806E-001,1.21096E+000,3.90109E-002,0.00000E+000,-2.74446E-002,9.24608E-001,0.00000E+000,-6.65452E-004,-6.59408E-002,1.00000E+000,36
559,1337,-2.12866E+001,-7.34151E-002,8.79180E-002,2.84997E+000,-5.47644E-001,9.51653E-002,2.90367E+000,1.12872E-002,6.57113E-001,0,4.45743E+001,-9.17919E+000,9.98873E-001,4.41768E+000,-5.03002E+001,9.98762E-001,1.88912E-001,-8.01247E-002,1.49286E-003,1.88920E-001,-8.01330E-002,3.17916E-001,1.89643E-001,1.20732E+000,3.89690E-002,0.00000E+000,-2.68086E-002,9.24615E-001,0.00000E+000,-1.90817E-003,-6.59550E-002,1.00000E+000,36
559,1347,-2.12569E+001,5.19372E-001,5.18878E-002,2.87016E+000,-5.89725E-001,6.02556E-002,2.93074E+000,1.72559E-002,6.22944E-001,0,4.49842E+001,-9.78110E+000,9.96887E-001,4.91566E+000,-5.11417E+001,9.96510E-001,1.85874E-001,-8.01349E-002,1.82119E-003,1.85887E-001,-8.01474E-002,3.92242E-001,1.86473E-001,1.20366E+000,3.89170E-002,0.00000E+000,-2.61710E-002,9.24625E-001,0.00000E+000,-3.15405E-003,-6.59728E-002,1.00000E+000,36
559,1357,-2.12122E+001,1.10884E+000,4.42771E-002,2.90112E+000,-6.39838E-001,2.78296E-002,2.97097E+000,1.49748E-002,6.27479E-001,0,4.55553E+001,-1.05238E+001,9.96993E-001,5.72510E+000,-5.20762E+001,9.97146E-001,1.82814E-001,-8.01412E-002,2.14169E-003,1.82832E-001,-8.01587E-002,4.66614E-001,1.83293E-001,1.19999E+000,3.88418E-002,0.00000E+000,-2.55311E-002,9.24638E-001,0.00000E+000,-4.40436E-003,-6.59984E-002,1.00000E+000,36
559,1317,-2.13448E+001,-1.21605E+000,2.53883E-001,2.79869E+000,-4.30607E-001,1.83992E-001,2.83760E+000,3.38156E-002,6.83063E-001,0,4.35179E+001,-7.49229E+000,9.98231E-001,3.73082E+000,-4.81815E+001,9.97004E-001,1.94938E-001,-8.00929E-002,8.12254E-004,1.94941E-001,-8.00953E-002,1.69211E-001,1.95970E-001,1.21461E+000,3.90070E-002,0.00000E+000,-2.80809E-002,9.24609E-001,0.00000E+000,5.77795E-004,-6.59421E-002,1.00000E+000,36
1299,1327,3.89087E+001,9.62883E-002,-1.52181E-001,1.47731E+001,-1.66837E-001,-1.24414E-001,1.47746E+001,2.69373E-002,4.46999E-001,0,2.19415E+002,-4.49772E+000,9.95179E-001,1.96132E+002,-2.92819E+001,9.94062E-001,2.26110E-001,-8.70502E-002,4.25751E-003,2.26168E-001,-8.71081E-002,7.78763E-001,2.28148E-001,1.25372E+000,-5.77185E-003,0.00000E+000,1.20501E-002,9.18174E-001,0.00000E+000,1.76774E-003,-5.91541E-002,1.00000E+000,36
1299,1337,3.89624E+001,6.95101E-001,-1.32031E-001,1.47904E+001,-2.31580E-001,-1.69214E-001,1.47932E+001,2.49898E-002,4.64332E-001,0,2.19828E+002,-5.45935E+000,9.94979E-001,1.97008E+002,-2.99893E+001,9.93549E-001,2.28153E-001,-8.69335E-002,5.22919E-003,2.28240E-001,-8.70202E-002,9.50535E-001,2.30375E-001,1.25631E+000,-5.62953E-003,0.00000E+000,1.35954E-002,9.18259E-001,0.00000E+000,4.67477E-003,-5.89942E-002,1.00000E+000,36
1299,1287,3.88718E+001,-2.27179E+000,7.07869E-002,1.47868E+001,6.14249E-002,1.40103E-002,1.47869E+001,1.93949E-002,4.66730E-001,0,2.19001E+002,-9.78837E-001,9.97306E-001,1.95702E+002,-2.66486E+001,9.95498E-001,2.17901E-001,-8.72408E-002,5.52028E-004,2.17902E-001,-8.72418E-002,1.03653E-001,2.19339E-001,1.24350E+000,-5.97056E-003,0.00000E+000,5.94804E-003,9.18055E-001,0.00000E+000,-9.71140E-003,-5.93774E-002,1.00000E+000,36
1299,1297,3.88753E+001,-1.68859E+000,3.67504E-003,1.47851E+001,7.04080E-004,-4.98012E-003,1.47851E+001,2.08714E-002,5.13470E-001,0,2.19075E+002,-1.99193E+000,9.97933E-001,1.95709E+002,-2.73937E+001,9.96169E-001,2.19963E-001,-8.72158E-002,1.46345E-003,2.19970E-001,-8.72228E-002,2.72958E-001,2.21535E-001,1.24605E+000,-5.95001E-003,0.00000E+000,7.46588E-003,9.18067E-001,0.00000E+000,-6.85604E-003,-5.93543E-002,1.00000E+000,36
1299,1307,3.88987E+001,-1.09477E+000,-6.68527E-002,1.47979E+001,-5.50348E-002,-4.66489E-002,1.47981E+001,4.06563E-002,5.09152E-001,0,2.19452E+002,-2.81453E+000,9.97281E-001,1.96024E+002,-2.79893E+001,9.95759E-001,2.22026E-001,-8.71745E-002,2.38854E-003,2.22044E-001,-8.71930E-002,4.42569E-001,2.23743E-001,1.24860E+000,-5.90842E-003,0.00000E+000,8.99377E-003,9.18092E-001,0.00000E+000,-3.98177E-003,-5.93076E-002,1.00000E+000,36
1299,1317,3.89048E+001,-5.02703E-001,-1.31776E-001,1.47885E+001,-1.13906E-001,-1.00604E-001,1.47893E+001,3.48390E-002,4.67323E-001,0,2.19550E+002,-3.65541E+000,9.95415E-001,1.96074E+002,-2.86454E+001,9.93473E-001,2.24075E-001,-8.71184E-002,3.32051E-003,2.24110E-001,-8.71538E-002,6.11268E-001,2.25947E-001,1.25116E+000,-5.84778E-003,0.00000E+000,1.05219E-002,9.18128E-001,0.00000E+000,-1.10697E-003,-5.92394E-002,1.00000E+000,36
559,1307,-2.13792E+001,-1.78970E+000,3.67522E-001,2.76182E+000,-3.77896E-001,2.22093E-001,2.79639E+000,1.66992E-002,6.67931E-001,0,4.28280E+001,-6.73726E+000,9.96693E-001,3.39783E+000,-4.72358E+001,9.95517E-001,1.97935E-001,-8.00715E-002,4.59598E-004,1.97936E-001,-8.00723E-002,9.47207E-002,1.99134E-001,1.21826E+000,3.89935E-002,0.00000E+000,-2.87171E-002,9.24611E-001,0.00000E+000,1.82085E-003,-6.59467E-002,1.00000E+000,36
549,1347,-2.20145E+001,5.37183E-001,5.26671E-002,2.74922E+000,-5.67546E-001,5.98324E-002,2.80783E+000,1.50231E-002,6.52391E-001,0,4.31124E+001,-9.41388E+000,9.96843E-001,3.38672E+000,-5.09675E+001,9.96454E-001,1.85372E-001,-7.97285E-002,2.36743E-003,1.85393E-001,-7.97496E-002,5.11616E-001,1.85995E-001,1.20292E+000,4.29020E-002,0.00000E+000,-2.82379E-002,9.24867E-001,0.00000E+000,-3.08506E-003,-6.47337E-002,1.00000E+000,36
549,1357,-2.19711E+001,1.13739E+000,5.10163E-002,2.77830E+000,-6.07728E-001,2.80833E-002,2.84413E+000,1.61788E-002,6.41366E-001,0,4.36492E+001,-9.99025E+000,9.96915E-001,4.20026E+000,-5.17603E+001,9.96944E-001,1.82441E-001,-7.97354E-002,2.66901E-003,1.82468E-001,-7.97626E-002,5.83203E-001,1.82948E-001,1.19941E+000,4.28267E-002,0.00000E+000,-2.76347E-002,9.24880E-001,0.00000E+000,-4.42170E-003,-6.47624E-002,1.00000E+000,36
549,1327,-2.21081E+001,-6.37419E-001,1.60809E-001,2.67082E+000,-4.75103E-001,1.43189E-001,2.71653E+000,2.82188E-002,7.19790E-001,0,4.16583E+001,-8.12217E+000,9.97386E-001,1.98008E+000,-4.91956E+001,9.95479E-001,1.91175E-001,-7.97028E-002,1.73924E-003,1.91186E-001,-7.97139E-002,3.67861E-001,1.92063E-001,1.20992E+000,4.29813E-002,0.00000E+000,-2.94391E-002,9.24854E-001,0.00000E+000,-4.23467E-004,-6.47035E-002,1.00000E+000,36
549,1337,-2.20504E+001,-5.07665E-002,9.42225E-002,2.72246E+000,-5.18714E-001,9.82329E-002,2.77317E+000,1.17039E-002,6.42999E-001,0,4.25889E+001,-8.72890E+000,9.98301E-001,2.81214E+000,-5.00841E+001,9.98259E-001,1.88290E-001,-7.97169E-002,2.05511E-003,1.88305E-001,-7.97326E-002,4.39317E-001,1.89040E-001,1.20643E+000,4.29496E-002,0.00000E+000,-2.88408E-002,9.24859E-001,0.00000E+000,-1.74929E-003,-6.47156E-002,1.00000E+000,36
1309,1317,3.97221E+001,-5.02186E-001,-1.56866E-001,1.49393E+001,-1.17189E-001,-1.13882E-001,1.49402E+001,2.78247E-002,4.43968E-001,0,2.21660E+002,-3.70261E+000,9.95237E-001,1.98886E+002,-2.84985E+001,9.93583E-001,2.24032E-001,-8.57425E-002,3.93225E-003,2.24082E-001,-8.57924E-002,7.27152E-001,2.26122E-001,1.25112E+000,-2.42855E-003,0.00000E+000,9.17125E-003,9.19260E-001,0.00000E+000,-1.12794E-003,-5.63648E-002,1.00000E+000,36
1309,1327,3.97497E+001,1.01871E-001,-1.77543E-001,1.49447E+001,-1.67027E-001,-1.47702E-001,1.49464E+001,3.20928E-002,4.19344E-001,0,2.21869E+002,-4.47274E+000,9.94376E-001,1.99314E+002,-2.90529E+001,9.92266E-001,2.26421E-001,-8.56762E-002,4.80863E-003,2.26495E-001,-8.57503E-002,8.82505E-001,2.28709E-001,1.25413E+000,-2.32672E-003,0.00000E+000,1.05810E-002,9.19308E-001,0.00000E+000,1.76132E-003,-5.62668E-002,1.00000E+000,36
1309,1337,3.98002E+001,7.09512E-001,-1.42421E-001,1.49601E+001,-2.22277E-001,-1.72659E-001,1.49627E+001,3.21236E-002,4.52745E-001,0,2.22163E+002,-5.34425E+000,9.96275E-001,2.00153E+002,-2.96466E+001,9.95337E-001,2.28815E-001,-8.55757E-002,5.71416E-003,2.28918E-001,-8.56795E-002,1.04091E+000,2.31318E-001,1.25716E+000,-2.16528E-003,0.00000E+000,1.20029E-002,9.19383E-001,0.00000E+000,4.67568E-003,-5.61114E-002,1.00000E+000,36
549,1317,-2.21177E+001,-1.20041E+000,2.75143E-001,2.66162E+000,-4.11217E-001,2.00393E-001,2.70065E+000,2.41862E-002,7.71802E-001,0,4.13523E+001,-7.24331E+000,9.97926E-001,2.02971E+000,-4.80503E+001,9.96693E-001,1.94049E-001,-7.96838E-002,1.41187E-003,1.94057E-001,-7.96911E-002,2.95512E-001,1.95087E-001,1.21340E+000,4.29836E-002,0.00000E+000,-3.00375E-002,9.24853E-001,0.00000E+000,9.02383E-004,-6.47027E-002,1.00000E+000,36
549,1307,-2.21449E+001,-1.77360E+000,3.61122E-001,2.63293E+000,-3.57411E-001,2.16469E-001,2.66588E+000,1.67132E-002,6.86152E-001,0,4.08484E+001,-6.38848E+000,9.97197E-001,1.72635E+000,-4.70714E+001,9.96448E-001,1.96920E-001,-7.96630E-002,1.08016E-003,1.96924E-001,-7.96672E-002,2.23758E-001,1.98116E-001,1.21689E+000,4.29755E-002,0.00000E+000,-3.06371E-002,9.24855E-001,0.00000E+000,2.23106E-003,-6.47058E-002,1.00000E+000,36
1309,1287,3.97077E+001,-2.27084E+000,6.61427E-002,1.49496E+001,5.65677E-002,-3.65497E-003,1.49497E+001,1.64966E-002,4.66490E-001,0,2.21292E+002,-1.06388E+000,9.97621E-001,1.98825E+002,-2.65308E+001,9.95728E-001,2.16804E-001,-8.58273E-002,1.38441E-003,2.16811E-001,-8.58337E-002,2.62096E-001,2.18372E-001,1.24216E+000,-2.54214E-003,0.00000E+000,4.96052E-003,9.19206E-001,0.00000E+000,-9.75810E-003,-5.64741E-002,1.00000E+000,36
1309,1297,3.97095E+001,-1.69497E+000,-2.16540E-002,1.49479E+001,-1.31888E-002,-3.65982E-002,1.49480E+001,2.30591E-002,4.70511E-001,0,2.21438E+002,-2.12835E+000,9.97206E-001,1.98786E+002,-2.73657E+001,9.94620E-001,2.19227E-001,-8.58123E-002,2.22494E-003,2.19243E-001,-8.58286E-002,4.17883E-001,2.20957E-001,1.24514E+000,-2.52599E-003,0.00000E+000,6.36276E-003,9.19214E-001,0.00000E+000,-6.88413E-003,-5.64586E-002,1.00000E+000,36
1309,1307,3.97099E+001,-1.09352E+000,-1.13340E-001,1.49434E+001,-5.57614E-002,-7.86866E-002,1.49437E+001,2.57781E-002,3.85797E-001,0,2.21568E+002,-2.75182E+000,9.96995E-001,1.98721E+002,-2.78372E+001,9.95919E-001,2.21626E-001,-8.57927E-002,3.06489E-003,2.21657E-001,-8.58233E-002,5.71149E-001,2.23529E-001,1.24812E+000,-2.50354E-003,0.00000E+000,7.76072E-003,9.19225E-001,0.00000E+000,-4.01892E-003,-5.64370E-002,1.00000E+000,36
539,1347,-2.27778E+001,5.59051E-001,5.38233E-002,2.62213E+000,-5.39945E-001,5.86981E-002,2.67779E+000,1.33496E-002,6.34048E-001,0,4.11421E+001,-8.95862E+000,9.97422E-001,1.78049E+000,-5.07567E+001,9.97503E-001,1.84927E-001,-7.90656E-002,2.55091E-003,1.84952E-001,-7.90903E-002,5.53569E-001,1.85597E-001,1.20226E+000,4.64357E-002,0.00000E+000,-3.06461E-002,9.25326E-001,0.00000E+000,-3.05505E-003,-6.33862E-002,1.00000E+000,36
539,1357,-2.27329E+001,1.16285E+000,4.62735E-002,2.65371E+000,-5.75850E-001,2.70347E-002,2.71560E+000,1.20081E-002,6.43811E-001,0,4.17173E+001,-9.47235E+000,9.98303E-001,2.59958E+000,-5.14732E+001,9.98136E-001,1.82206E-001,-7.90729E-002,2.78960E-003,1.82236E-001,-7.91027E-002,6.11638E-001,1.82763E-001,1.19900E+000,4.63714E-002,0.00000E+000,-3.01677E-002,9.25335E-001,0.00000E+000,-4.44082E-003,-6.34135E-002,1.00000E+000,36
539,1327,-2.28527E+001,-6.09818E-001,1.47914E-001,2.56267E+000,-4.39992E-001,1.30754E-001,2.60346E+000,1.54100E-002,6.45209E-001,0,4.00132E+001,-7.52619E+000,9.94882E-001,6.16925E-001,-4.88882E+001,9.95036E-001,1.90325E-001,-7.90438E-002,2.05411E-003,1.90340E-001,-7.90594E-002,4.36883E-001,1.91247E-001,1.20876E+000,4.65105E-002,0.00000E+000,-3.16000E-002,9.25315E-001,0.00000E+000,-2.91728E-004,-6.33544E-002,1.00000E+000,36
539,1337,-2.28147E+001,-2.37223E-002,9.19559E-002,2.59415E+000,-4.86212E-001,9.33087E-002,2.64097E+000,1.41357E-002,6.24110E-001,0,4.06086E+001,-8.18766E+000,9.96784E-001,1.18053E+000,-4.97851E+001,9.96865E-001,1.87637E-001,-7.90555E-002,2.30413E-003,1.87657E-001,-7.90754E-002,4.94966E-001,1.88428E-001,1.20551E+000,4.64789E-002,0.00000E+000,-3.11241E-002,9.25319E-001,0.00000E+000,-1.67041E-003,-6.33678E-002,1.00000E+000,36
1319,1297,4.05193E+001,-1.68686E+000,-5.79439E-002,1.50908E+001,-7.23172E-003,-6.14785E-002,1.50909E+001,2.03358E-002,3.70712E-001,0,2.23474E+002,-1.99081E+000,9.97808E-001,2.01476E+002,-2.71196E+001,9.95614E-001,2.18580E-001,-8.43324E-002,3.24166E-003,2.18614E-001,-8.43670E-002,6.13066E-001,2.20503E-001,1.24435E+000,1.89099E-003,0.00000E+000,5.01824E-003,9.20428E-001,0.00000E+000,-7.41639E-003,-5.32400E-002,1.00000E+000,36
1319,1307,4.05355E+001,-1.09541E+000,-1.24841E-001,1.50988E+001,-6.26022E-002,-9.04190E-002,1.50992E+001,2.48974E-002,3.48244E-001,0,2.23730E+002,-2.85498E+000,9.97285E-001,2.01682E+002,-2.77658E+001,9.96451E-001,2.21391E-001,-8.43094E-002,4.06877E-003,2.21445E-001,-8.43636E-002,7.62409E-001,2.23527E-001,1.24784E+000,1.93485E-003,0.00000E+000,6.38672E-003,9.20445E-001,0.00000E+000,-4.36659E-003,-5.32016E-002,1.00000E+000,36
539,1307,-2.29137E+001,-1.76245E+000,3.44771E-001,2.50006E+000,-3.40273E-001,1.97687E-001,2.53085E+000,1.22022E-002,6.54761E-001,0,3.88378E+001,-6.07007E+000,9.97498E-001,-1.81397E-002,-4.69876E+001,9.97295E-001,1.95657E-001,-7.90109E-002,1.52791E-003,1.95666E-001,-7.90194E-002,3.18708E-001,1.96868E-001,1.21522E+000,4.65025E-002,0.00000E+000,-3.25493E-002,9.25316E-001,0.00000E+000,2.45850E-003,-6.33578E-002,1.00000E+000,36
539,1317,-2.28844E+001,-1.19486E+000,2.39116E-001,2.53175E+000,-3.97477E-001,1.66785E-001,2.56818E+000,1.44029E-002,6.75544E-001,0,3.94276E+001,-6.93263E+000,9.96257E-001,2.57213E-001,-4.80446E+001,9.95547E-001,1.92998E-001,-7.90283E-002,1.79361E-003,1.93009E-001,-7.90401E-002,3.77759E-001,1.94060E-001,1.21199E+000,4.65139E-002,0.00000E+000,-3.20750E-002,9.25314E-001,0.00000E+000,1.08433E-003,-6.33529E-002,1.00000E+000,36
1319,1287,4.05280E+001,-2.28004E+000,3.98784E-002,1.51006E+001,4.25601E-002,-2.71448E-002,1.51006E+001,2.09389E-002,4.28683E-001,0,2.23445E+002,-1.23822E+000,9.97006E-001,2.01687E+002,-2.65461E+001,9.96486E-001,2.15759E-001,-8.43365E-002,2.43151E-003,2.15779E-001,-8.43562E-002,4.64196E-001,2.17483E-001,1.24088E+000,1.88499E-003,0.00000E+000,3.65397E-003,9.20425E-001,0.00000E+000,-1.04568E-002,-5.32453E-002,1.00000E+000,36
529,1327,-2.36134E+001,-5.92066E-001,1.50149E-001,2.43716E+000,-4.16920E-001,1.27958E-001,2.47587E+000,1.36751E-002,6.62551E-001,0,3.80708E+001,-7.16338E+000,9.94617E-001,-9.43039E-001,-4.87210E+001,9.94894E-001,1.89700E-001,-7.76775E-002,2.48195E-003,1.89723E-001,-7.77006E-002,5.31791E-001,1.90755E-001,1.20791E+000,4.88904E-002,0.00000E+000,-3.27301E-002,9.26453E-001,0.00000E+000,4.50294E-004,-6.17628E-002,1.00000E+000,36
529,1307,-2.36758E+001,-1.74112E+000,3.47321E-001,2.37258E+000,-3.14324E-001,1.91733E-001,2.40098E+000,1.62448E-002,6.32763E-001,0,3.68728E+001,-5.63844E+000,9.97882E-001,-1.59511E+000,-4.67818E+001,9.97239E-001,1.94304E-001,-7.76824E-002,2.45272E-003,1.94326E-001,-7.77045E-002,5.16626E-001,1.95621E-001,1.21349E+000,4.88811E-002,0.00000E+000,-3.27901E-002,9.26454E-001,0.00000E+000,3.71256E-003,-6.17683E-002,1.00000E+000,36
529,1317,-2.36466E+001,-1.17254E+000,2.36432E-001,2.40561E+000,-3.69507E-001,1.64795E-001,2.43939E+000,1.38364E-002,6.21641E-001,0,3.74734E+001,-6.45403E+000,9.97496E-001,-1.33806E+000,-4.78305E+001,9.96863E-001,1.92008E-001,-7.76797E-002,2.47178E-003,1.92030E-001,-7.77024E-002,5.25077E-001,1.93191E-001,1.21070E+000,4.88971E-002,0.00000E+000,-3.27601E-002,9.26453E-001,0.00000E+000,2.08236E-003,-6.17589E-002,1.00000E+000,36
